<?xml version="1.0"?>
<VTKFile type="UnstructuredGrid" version="0.1" byte_order="LittleEndian">
<UnstructuredGrid>
<Piece NumberOfPoints="3142" NumberOfCells="1054">
<Points>
<DataArray type="Float64" NumberOfComponents="3" format="ascii">
0.5 0.29999999999999999 0 0.54999999999999993 0.29999999999999999 0 0.54999999999999993 0.29999999999999999 0 0.59999999999999976 0.29999999999999999 0 0.59999999999999976 0.29999999999999999 0 0.6499999999999998 0.29999999999999999 0 0.6499999999999998 0.29999999999999999 0 0.69999999999999984 0.29999999999999999 0 0.69999999999999984 0.29999999999999999 0 0.74999999999999989 0.29999999999999999 0 0.74999999999999989 0.29999999999999999 0 0.79999999999999982 0.29999999999999999 0 0.79999999999999982 0.29999999999999999 0 0.84999999999999987 0.29999999999999999 0 0.84999999999999987 0.29999999999999999 0 0.89999999999999991 0.29999999999999999 0 0.89999999999999991 0.29999999999999999 0 0.94999999999999996 0.29999999999999999 0 0.94999999999999996 0.29999999999999999 0 1 0.29999999999999999 0 0.5 0.69999999999999996 0 0.54999999999999993 0.69999999999999996 0 0.54999999999999993 0.69999999999999996 0 0.59999999999999976 0.69999999999999996 0 0.59999999999999976 0.69999999999999996 0 0.6499999999999998 0.69999999999999996 0 0.6499999999999998 0.69999999999999996 0 0.69999999999999984 0.69999999999999996 0 0.69999999999999984 0.69999999999999996 0 0.74999999999999989 0.69999999999999996 0 0.74999999999999989 0.69999999999999996 0 0.79999999999999982 0.69999999999999996 0 0.79999999999999982 0.69999999999999996 0 0.84999999999999987 0.69999999999999996 0 0.84999999999999987 0.69999999999999996 0 0.89999999999999991 0.69999999999999996 0 0.89999999999999991 0.69999999999999996 0 0.94999999999999996 0.69999999999999996 0 0.94999999999999996 0.69999999999999996 0 1 0.69999999999999996 0 0.40076539126862748 0.34589349467022118 0 0.33277555741076909 0.36432196682010132 0 0.36575549820117997 0.31677992835137742 0 0.38083244760691543 0.38531983672244652 0 0.33277555741076909 0.36432196682010132 0 0.40076539126862748 0.34589349467022118 0 0.56836770495988642 0.3523062350852913 0 0.52289427570932567 0.3932284363388488 0 0.52752007115234678 0.33170632466418198 0 0.52752007115234678 0.33170632466418198 0 0.52289427570932567 0.3932284363388488 0 0.49077833859261139 0.35229981449445641 0 0.10000000000041601 1 0 0.053064897599294662 0.95186845269532028 0 0.10266856499240549 0.95548163909968886 0 0.099999999999814668 0 0 0.10266856499169109 0.044518360900210059 0 0.053064897599215843 0.048131547304697528 0 0.050000000000207989 1 0 0.053064897599294662 0.95186845269532028 0 0.10000000000041601 1 0 0.049999999999899652 0 0 0.099999999999814668 0 0 0.053064897599215843 0.048131547304697528 0 0.24999999999941211 0 0 0.29999999999926641 0 0 0.27499999999933927 0.060310814194988557 0 0.30000000000124832 1 0 0.25000000000104028 1 0 0.27609987656793722 0.94991445621608572 0 0.15720202157091859 0.60665697304410315 0 0.19914261668318661 0.62286739485272158 0 0.16500388252850301 0.66612077714085194 0 0.2236846579037573 0.67380363126050236 0 0.16500388252850301 0.66612077714085194 0 0.19914261668318661 0.62286739485272158 0 0.1247745017231483 0.27198077544791172 0 0.168349569971391 0.28054490850913671 0 0.14223753364722069 0.3341983344262433 0 0 0.75000000000034661 0 0 0.7000000000006934 0 0.049706944316475897 0.72477277076253799 0 0 0.30000000000124832 0 0 0.25000000000104028 0 0.049706944316556423 0.27522722923869108 0 0.59999999999999976 0.29999999999999999 0 0.61959173890754571 0.33832250091341232 0 0.56836770495988642 0.3523062350852913 0 0.5 0.69999999999999996 0 0.43323420005758778 0.6913544522562407 0 0.47913475093885149 0.66010775372412711 0 1 0.14999999999961891 0 0.95391631417672862 0.19584263333809451 0 0.93677536231883773 0.14999999999999089 0 1 0.84999999999982645 0 0.95391631417670719 0.89584263333814784 0 0.93677536231884972 0.85000000000000286 0 1 0.84999999999982645 0 0.93677536231884972 0.85000000000000286 0 0.95386563387742829 0.80414874155775029 0 1 0.14999999999961891 0 0.93677536231883773 0.14999999999999089 0 0.95386563387744361 0.1041487415577465 0 0.90416666666660628 0.9041666666666166 0 0.88088768115933802 0.84674609810493673 0 0.93677536231884972 0.85000000000000286 0 0.90416666666668166 0.20416666666667119 0 0.88088768115941807 0.14674609810479519 0 0.93677536231883773 0.14999999999999089 0 0.1247745017231483 0.27198077544791172 0 0.14223753364722069 0.3341983344262433 0 0.093851963071650835 0.30582068233324772 0 0.5 0.69999999999999996 0 0.45582236402875981 0.73896743678908217 0 0.43323420005758778 0.6913544522562407 0 0.55000000000173355 1 0 0.50000000000205869 1 0 0.52122150208832174 0.94089974453840242 0 0.49999999999869432 0 0 0.5499999999988151 0 0 0.52375890611712683 0.059318771819432882 0 0.54999999999999993 0.29999999999999999 0 0.59999999999999976 0.29999999999999999 0 0.56836770495988642 0.3523062350852913 0 0.50202631463681879 0.87892870825713787 0 0.44003836461056539 0.88093474584252718 0 0.45677673713123867 0.84253684404072415 0 0.33403534827021109 0.84402799729020661 0 0.35864759629805099 0.87963482415279515 0 0.30864387279288652 0.89906554525974958 0 0.53245488764484505 0.55078124999999989 0 0.47793794143994173 0.52940715638744962 0 0.53330375813596242 0.50827942741749099 0 0.82709327591102189 0.14937141670914489 0 0.81283102246527783 0.1881007222486438 0 0.77144070960558853 0.14311854477243749 0 0.82709327591091286 0.84937141670920724 0 0.81159157511211755 0.88795995483179491 0 0.76901770135486491 0.84293557325473656 0 0.77144070960558853 0.14311854477243749 0 0.81283102246527783 0.1881007222486438 0 0.76587607630038135 0.18880039518954719 0 0.76901770135486491 0.84293557325473656 0 0.81159157511211755 0.88795995483179491 0 0.76891166905518427 0.88835469571185499 0 0.33403534827021109 0.84402799729020661 0 0.30864387279288652 0.89906554525974958 0 0.29209212897034281 0.84715728365233667 0 0.57412547362576272 0.58273804879550706 0 0.5166924242153631 0.59825134841919447 0 0.53245488764484505 0.55078124999999989 0 0.50202631463681879 0.87892870825713787 0 0.47401147028110507 0.91529957330468115 0 0.44003836461056539 0.88093474584252718 0 0.5 0.69999999999999996 0 0.54999999999999993 0.69999999999999996 0 0.55363780716230748 0.74348740161571747 0 1 0.34999999999993492 0 0.95871855522754235 0.40006508612975411 0 0.95780851984364423 0.34215720972155339 0 1 0.64999999999986979 0 0.9578014258160763 0.65787212321113708 0 0.95867599106212187 0.60011091146651041 0 0.46666084890304671 0.57634471035397938 0 0.47793794143994173 0.52940715638744962 0 0.53245488764484505 0.55078124999999989 0 0.94999999999999996 0.29999999999999999 0 0.89898474358614167 0.25391965591104898 0 0.94399509803921056 0.24399509803922639 0 0.94999999999979179 1 0 0.89898474358632463 0.95391965591118966 0 0.94399509803919068 0.9439950980391687 0 0 0.65000000000104008 0 0.050069554451969707 0.61308520079857043 0 0.046634677244967337 0.671418230738282 0 0 0.35000000000145642 0 0.046389130980076937 0.32668781832131749 0 0.050583896093752537 0.38543522283434112 0 0.50202631463681879 0.87892870825713787 0 0.50627822638148745 0.8263979829520941 0 0.55899371797446828 0.85003102233514438 0 0.54782696902220018 0.79245182748204157 0 0.55899371797446828 0.85003102233514438 0 0.50627822638148745 0.8263979829520941 0 0.50945740445113552 0.75476055527778108 0 0.5 0.69999999999999996 0 0.55363780716230748 0.74348740161571747 0 0.84999999999965292 1 0 0.85170973911348691 0.93569607295217616 0 0.89898474358632463 0.95391965591118966 0 0.84999999999999987 0.29999999999999999 0 0.8517097391133297 0.2356960729520409 0 0.89898474358614167 0.25391965591104898 0 0.86956835336234861 0.571283299838105 0 0.82862096804812391 0.55037090955459045 0 0.86907294890112186 0.52008116128001669 0 0.49102375406324739 0.49123754822244059 0 0.53330375813596242 0.50827942741749099 0 0.47793794143994173 0.52940715638744962 0 0.57611405284611883 0.50165903596042916 0 0.61547661924074692 0.48539576058873962 0 0.62042975506801734 0.54295974692364424 0 0.71406021706547751 0.63292083137662503 0 0.67529834988829951 0.61613270668143583 0 0.71809016091162536 0.58185040402320831 0 0.65000000000104008 1 0 0.62065498684670595 0.95224934003983619 0 0.68015064798562208 0.95924320340003011 0 0.84999999999960507 0 0 0.899991664607802 0.045289349238254978 0 0.85491058998398861 0.060047533455626502 0 0.84999999999999987 0.69999999999999996 0 0.89999166460796554 0.74528934923809909 0 0.85491058998424563 0.76004753345552634 0 0.89999999999999991 0.29999999999999999 0 0.89898474358614167 0.25391965591104898 0 0.94999999999999996 0.29999999999999999 0 0.94999999999979179 1 0 0.89999999999958358 1 0 0.89898474358632463 0.95391965591118966 0 0.86411095495256451 0.42388805655111889 0 0.81308179852519835 0.39754945808726527 0 0.86844634540301924 0.38530937474099819 0 0.5 0.29999999999999999 0 0.49695729691142171 0.25014895411178018 0 0.54248833945060504 0.2520322959927106 0 0.86411095495256451 0.42388805655111889 0 0.81973119833356312 0.43505687159469048 0 0.81308179852519835 0.39754945808726527 0 0.67323294229744413 0.57556450033612505 0 0.71809016091162536 0.58185040402320831 0 0.67529834988829951 0.61613270668143583 0 0.6236733212988993 0.14864538214901801 0 0.68391457121233579 0.14440470121196541 0 0.64011864159029941 0.18789607982138171 0 0 0.050000000000207989 0 0.053064897599215843 0.048131547304697528 0 0.044310582753132287 0.101412518374475 0 0 0.94999999999979179 0 0.0443105827531413 0.89858748162559932 0 0.053064897599294662 0.95186845269532028 0 1 0.34999999999993492 0 1 0.39999999999978308 0 0.95871855522754235 0.40006508612975411 0 1 0.59999999999973963 0 1 0.64999999999986979 0 0.95867599106212187 0.60011091146651041 0 0 0.84999999999965292 0 0.065374659239661639 0.8551091961254178 0 0.0443105827531413 0.89858748162559932 0 0 0.15000000000062411 0 0.044310582753132287 0.101412518374475 0 0.065374659239632718 0.1448908038746782 0 0.16500388252850301 0.66612077714085194 0 0.1020579365089687 0.69352219419301997 0 0.1241190223511371 0.64391885572885044 0 0.14999999999970359 0 0 0.14618258501891079 0.062070108745602003 0 0.10266856499169109 0.044518360900210059 0 0.15000000000062411 1 0 0.10266856499240549 0.95548163909968886 0 0.14617343800780541 0.93808063414349496 0 0.7152569930854884 0.5237994455134295 0 0.67569444444444449 0.53500863336860327 0 0.69385896817107129 0.48377516041410151 0 0.6541250972820879 0.49999999999999989 0 0.62042975506801734 0.54295974692364424 0 0.61547661924074692 0.48539576058873962 0 0.94999999999999996 0.69999999999999996 0 0.94399509803918602 0.75600490196082126 0 0.89999166460796554 0.74528934923809909 0 0.94999999999986839 0 0 0.94399509803922566 0.056004901960802607 0 0.899991664607802 0.045289349238254978 0 0.6541250972820879 0.49999999999999989 0 0.69385896817107129 0.48377516041410151 0 0.67569444444444449 0.53500863336860327 0 0.82862096804812391 0.55037090955459045 0 0.81723410853263523 0.59419663659258926 0 0.77151014687832564 0.54436834383023036 0 0.7250000000005199 0.89375000000045834 0 0.66412543161245952 0.88015090885499059 0 0.68697391633157634 0.84450604838764298 0 0 0.94999999999979179 0 0 0.89999999999958358 0 0.0443105827531413 0.89858748162559932 0 0 0.10000000000041601 0 0 0.050000000000207989 0 0.044310582753132287 0.101412518374475 0 0.16500388252850301 0.66612077714085194 0 0.15332765547575641 0.71200081858233666 0 0.1020579365089687 0.69352219419301997 0 0.90299850604011456 0.79563452813489832 0 0.93677536231884972 0.85000000000000286 0 0.88088768115933802 0.84674609810493673 0 0.90299850604006393 0.09563452813493091 0 0.93677536231883773 0.14999999999999089 0 0.88088768115941807 0.14674609810479519 0 0.68391457121233579 0.14440470121196541 0 0.6865991819015953 0.189116534044597 0 0.64011864159029941 0.18789607982138171 0 0.085622222639554768 0.53333248912060549 0 0.1216098864341134 0.50637075089503902 0 0.1154888278694548 0.56733818459978413 0 0.21858834311891909 0.81980263716112767 0 0.22556077506376701 0.77837424984191617 0 0.26104540868854792 0.81401944968719064 0 0.81723410853263523 0.59419663659258926 0 0.77293540622714185 0.59448302402785813 0 0.77151014687832564 0.54436834383023036 0 0.1154888278694548 0.56733818459978413 0 0.1216098864341134 0.50637075089503902 0 0.14934928745814749 0.55042914607228977 0 0.1216098864341134 0.50637075089503902 0 0.068743045408989428 0.48853989837882689 0 0.113541300460994 0.46208784312094731 0 0.078358742472063481 0.43365249433908948 0 0.113541300460994 0.46208784312094731 0 0.068743045408989428 0.48853989837882689 0 0.83573492347052902 0.36590755630746369 0 0.81308179852519835 0.39754945808726527 0 0.78145581580700685 0.34881365920033602 0 0.57611405284611883 0.50165903596042916 0 0.62042975506801734 0.54295974692364424 0 0.57435499076887508 0.54267261987897775 0 0.86956835336234861 0.571283299838105 0 0.81723410853263523 0.59419663659258926 0 0.82862096804812391 0.55037090955459045 0 0.46666084890304671 0.57634471035397938 0 0.53245488764484505 0.55078124999999989 0 0.5166924242153631 0.59825134841919447 0 0.89999999999999991 0.69999999999999996 0 0.94999999999999996 0.69999999999999996 0 0.89999166460796554 0.74528934923809909 0 0.89999999999973679 0 0 0.94999999999986839 0 0 0.899991664607802 0.045289349238254978 0 0.84999999999960507 0 0 0.89999999999973679 0 0 0.899991664607802 0.045289349238254978 0 0.84999999999999987 0.69999999999999996 0 0.89999999999999991 0.69999999999999996 0 0.89999166460796554 0.74528934923809909 0 0.43545892161006339 0.61093128915313821 0 0.4089290844030305 0.58728915500154233 0 0.46666084890304671 0.57634471035397938 0 0.1650278706801647 0.38791388161335733 0 0.1117088112799664 0.38831403004970022 0 0.14223753364722069 0.3341983344262433 0 0.087545339447545459 0.35122518864182262 0 0.14223753364722069 0.3341983344262433 0 0.1117088112799664 0.38831403004970022 0 0.6916490518212759 0.75387992374886192 0 0.72501250972655151 0.74067302935308721 0 0.72500000000000064 0.7952620967744265 0 0.72501250972655151 0.74067302935308721 0 0.75841349681148107 0.75422312624214749 0 0.72500000000000064 0.7952620967744265 0 0.57412547362576272 0.58273804879550706 0 0.53245488764484505 0.55078124999999989 0 0.57435499076887508 0.54267261987897775 0 1 0.54999999999963112 0 0.95867599106212187 0.60011091146651041 0 0.93732437411268477 0.55911392101136159 0 1 0.44999999999963131 0 0.93814194660195893 0.44426664081746747 0 0.95871855522754235 0.40006508612975411 0 0.4089290844030305 0.58728915500154233 0 0.42644501560315817 0.54603747078095544 0 0.46666084890304671 0.57634471035397938 0 0.89999999999958358 1 0 0.84999999999965292 1 0 0.89898474358632463 0.95391965591118966 0 0.84999999999999987 0.29999999999999999 0 0.89898474358614167 0.25391965591104898 0 0.89999999999999991 0.29999999999999999 0 0.29999999999926641 0 0 0.32541448401678508 0.046215317981507749 0 0.27499999999933927 0.060310814194988557 0 0.30000000000124832 1 0 0.27609987656793722 0.94991445621608572 0 0.32544832635163229 0.95485394099568932 0 0.57412547362576272 0.58273804879550706 0 0.62042975506801734 0.54295974692364424 0 0.63065402604362242 0.59661356661633302 0 0.5 0.29999999999999999 0 0.54248833945060504 0.2520322959927106 0 0.54999999999999993 0.29999999999999999 0 0.67323294229744413 0.57556450033612505 0 0.62042975506801734 0.54295974692364424 0 0.67569444444444449 0.53500863336860327 0 0.6541250972820879 0.49999999999999989 0 0.67569444444444449 0.53500863336860327 0 0.62042975506801734 0.54295974692364424 0 1 0.14999999999961891 0 1 0.19999999999974799 0 0.95391631417672862 0.19584263333809451 0 1 0.84999999999982645 0 1 0.8999999999998336 0 0.95391631417670719 0.89584263333814784 0 1 0.7999999999998193 0 1 0.84999999999982645 0 0.95386563387742829 0.80414874155775029 0 1 0.099999999999753911 0 1 0.14999999999961891 0 0.95386563387744361 0.1041487415577465 0 0.4656888918609538 0.78493261229743638 0 0.50627822638148745 0.8263979829520941 0 0.45677673713123867 0.84253684404072415 0 0.6879972333610942 0.43038561374960838 0 0.72622533758026719 0.40265885511101601 0 0.73483647259922602 0.44789725365921768 0 0.67323294229744413 0.57556450033612505 0 0.67569444444444449 0.53500863336860327 0 0.71809016091162536 0.58185040402320831 0 0.7152569930854884 0.5237994455134295 0 0.71809016091162536 0.58185040402320831 0 0.67569444444444449 0.53500863336860327 0 0.65394964615507722 0.22666784374016369 0 0.59814117807200873 0.23398510860739519 0 0.64011864159029941 0.18789607982138171 0 0.55000000000173355 1 0 0.52122150208832174 0.94089974453840242 0 0.57382506491224949 0.9629411906298494 0 0.39801143831225599 0.16651381068160659 0 0.44288491854585582 0.14116182884956319 0 0.42905200079338551 0.19982395548231649 0 0.47357141910802508 0.1873585799078378 0 0.42905200079338551 0.19982395548231649 0 0.44288491854585582 0.14116182884956319 0 0.90594285160987287 0.4141265964174129 0 0.88594198078881503 0.46167788676578442 0 0.86411095495256451 0.42388805655111889 0 0.65507451745379841 0.92229208810758578 0 0.68015064798562208 0.95924320340003011 0 0.62065498684670595 0.95224934003983619 0 0.35312867752657662 0.084946736076730367 0 0.39591832466117061 0.056982757562006353 0 0.39823268594401579 0.1116623613130045 0 0.43698630808430822 0.080423614171545449 0 0.39823268594401579 0.1116623613130045 0 0.39591832466117061 0.056982757562006353 0 0.4367309254023824 0.92065556789053882 0 0.39641108128798319 0.94356127926187128 0 0.39767323751400468 0.89584229130535065 0 0.35752321586431363 0.9185439911803448 0 0.39767323751400468 0.89584229130535065 0 0.39641108128798319 0.94356127926187128 0 0.77354604466818633 0.40378688774472771 0 0.77972660463949339 0.45529290596363098 0 0.73483647259922602 0.44789725365921768 0 0.5499999999988151 0 0 0.57396793757665954 0.037011367187645222 0 0.52375890611712683 0.059318771819432882 0 0.64753070846764316 0.77332939069435502 0 0.60294066490120068 0.80851322453934582 0 0.59636844454254345 0.75937156204589151 0 0.49102375406324739 0.49123754822244059 0 0.48858720058566618 0.43964267759203868 0 0.53823865529665704 0.45873898050322898 0 0.28307294598219601 0.50789252727458634 0 0.29110487519241501 0.56588143995431495 0 0.25115337790845271 0.54719303014923271 0 0.79680861578988083 0.92656778056766709 0 0.81159157511211755 0.88795995483179491 0 0.85170973911348691 0.93569607295217616 0 0.79680861578956375 0.22656778056752541 0 0.81283102246527783 0.1881007222486438 0 0.8517097391133297 0.2356960729520409 0 0.57412547362576272 0.58273804879550706 0 0.57435499076887508 0.54267261987897775 0 0.62042975506801734 0.54295974692364424 0 0.93814194660195893 0.44426664081746747 0 0.88594198078881503 0.46167788676578442 0 0.90594285160987287 0.4141265964174129 0 0.7152569930854884 0.5237994455134295 0 0.73947346780852752 0.49062440112282169 0 0.77151014687832564 0.54436834383023036 0 0 0.7000000000006934 0 0.046634677244967337 0.671418230738282 0 0.049706944316475897 0.72477277076253799 0 0 0.30000000000124832 0 0.049706944316556423 0.27522722923869108 0 0.046389130980076937 0.32668781832131749 0 0.59814117807200873 0.23398510860739519 0 0.59443395090188023 0.18455690917515069 0 0.64011864159029941 0.18789607982138171 0 0.21858834311891909 0.81980263716112767 0 0.26104540868854792 0.81401944968719064 0 0.2401283238295133 0.85648409884788523 0 0.39536230704883951 0.84069429572832477 0 0.45677673713123867 0.84253684404072415 0 0.44003836461056539 0.88093474584252718 0 0.086179601630648681 0.64647209519980475 0 0.050069554451969707 0.61308520079857043 0 0.1024350934457823 0.60772393977513839 0 0.077693244765132896 0.56932317963405099 0 0.1024350934457823 0.60772393977513839 0 0.050069554451969707 0.61308520079857043 0 0.078358742472063481 0.43365249433908948 0 0.050583896093752537 0.38543522283434112 0 0.1117088112799664 0.38831403004970022 0 0.087545339447545459 0.35122518864182262 0 0.1117088112799664 0.38831403004970022 0 0.050583896093752537 0.38543522283434112 0 0.33403534827021109 0.84402799729020661 0 0.35642984951668422 0.80994399665655703 0 0.39536230704883951 0.84069429572832477 0 0.28307294598219601 0.50789252727458634 0 0.33190227185843768 0.52715113583864037 0 0.29110487519241501 0.56588143995431495 0 0.2236846579037573 0.67380363126050236 0 0.19068556247388771 0.71028988922845504 0 0.16500388252850301 0.66612077714085194 0 0.26104540868854792 0.81401944968719064 0 0.22556077506376701 0.77837424984191617 0 0.2792923945214143 0.77665808831789485 0 0.38244435121258652 0.51653317813019495 0 0.37272913873093971 0.56192925302619479 0 0.33190227185843768 0.52715113583864037 0 0.25195515620380449 0.25883339815888678 0 0.29132859388405002 0.27203693976649962 0 0.24432083401701241 0.3006253385567515 0 0.29348325746214782 0.31350119524708198 0 0.24432083401701241 0.3006253385567515 0 0.29132859388405002 0.27203693976649962 0 0 0.89999999999958358 0 0 0.84999999999965292 0 0.0443105827531413 0.89858748162559932 0 0 0.15000000000062411 0 0 0.10000000000041601 0 0.044310582753132287 0.101412518374475 0 0.59999999999999976 0.69999999999999996 0 0.59636844454254345 0.75937156204589151 0 0.55363780716230748 0.74348740161571747 0 0.1650278706801647 0.38791388161335733 0 0.22033343844674469 0.36963382230740238 0 0.191953871957803 0.42546416763755879 0 0.52289427570932567 0.3932284363388488 0 0.46655310992796922 0.39650496622958609 0 0.49077833859261139 0.35229981449445641 0 0.91696753777131557 0.497780560203536 0 0.88594198078881503 0.46167788676578442 0 0.93814194660195893 0.44426664081746747 0 0.24999999999941211 0 0 0.27499999999933927 0.060310814194988557 0 0.22668068146512929 0.045875643423131329 0 0.25000000000104028 1 0 0.22850979588452081 0.95594428570238643 0 0.27609987656793722 0.94991445621608572 0 0.77846603114747959 0.49850927265137401 0 0.77151014687832564 0.54436834383023036 0 0.73947346780852752 0.49062440112282169 0 0.27499999999933927 0.060310814194988557 0 0.27474541102162192 0.11822029332053539 0 0.24218496799700481 0.089025544070598317 0 0.27270076654418179 0.87751467830216623 0 0.29209212897034281 0.84715728365233667 0 0.30864387279288652 0.89906554525974958 0 0.3096713403101819 0.085471541595262421 0 0.27474541102162192 0.11822029332053539 0 0.27499999999933927 0.060310814194988557 0 0.17933913398461551 0.2350063570234002 0 0.18124454140915969 0.18790916706335251 0 0.224700362040408 0.22206622194729711 0 0.18269480424590959 0.75905448272264375 0 0.22556077506376701 0.77837424984191617 0 0.17777405986036951 0.81832336108265358 0 0.35864759629805099 0.87963482415279515 0 0.33403534827021109 0.84402799729020661 0 0.39536230704883951 0.84069429572832477 0 0.77354604466818633 0.40378688774472771 0 0.73483647259922602 0.44789725365921768 0 0.72622533758026719 0.40265885511101601 0 0.80185942888539485 0.77452061303608133 0 0.85491058998424563 0.76004753345552634 0 0.84725310900444062 0.80779732082917555 0 0.80185942888501827 0.074520613036224564 0 0.85491058998398861 0.060047533455626502 0 0.84725310900442086 0.10779732082922661 0 0.086179601630648681 0.64647209519980475 0 0.046634677244967337 0.671418230738282 0 0.050069554451969707 0.61308520079857043 0 0.087545339447545459 0.35122518864182262 0 0.050583896093752537 0.38543522283434112 0 0.046389130980076937 0.32668781832131749 0 0 0.75000000000034661 0 0.049706944316475897 0.72477277076253799 0 0.04408157711937423 0.7728941757575627 0 0 0.25000000000104028 0 0.044081577119474857 0.2271058242433576 0 0.049706944316556423 0.27522722923869108 0 0.52289427570932567 0.3932284363388488 0 0.56836770495988642 0.3523062350852913 0 0.57744073070774993 0.41535148636609359 0 0.6084546825910605 0.37989672713932537 0 0.57744073070774993 0.41535148636609359 0 0.56836770495988642 0.3523062350852913 0 0.61343887413683884 0.856862479058357 0 0.55899371797446828 0.85003102233514438 0 0.60294066490120068 0.80851322453934582 0 0.54782696902220018 0.79245182748204157 0 0.60294066490120068 0.80851322453934582 0 0.55899371797446828 0.85003102233514438 0 0.40326160981139969 0.73346192995102844 0 0.36622285152418499 0.69092437780804039 0 0.43323420005758778 0.6913544522562407 0 0.52289427570932567 0.3932284363388488 0 0.48858720058566618 0.43964267759203868 0 0.46655310992796922 0.39650496622958609 0 0.15720202157091859 0.60665697304410315 0 0.1154888278694548 0.56733818459978413 0 0.14934928745814749 0.55042914607228977 0 0.6879972333610942 0.43038561374960838 0 0.73483647259922602 0.44789725365921768 0 0.69385896817107129 0.48377516041410151 0 0.7250000000005199 0.89375000000045834 0 0.68987011941058407 0.92105047536677087 0 0.66412543161245952 0.88015090885499059 0 0.83573492347052902 0.36590755630746369 0 0.78145581580700685 0.34881365920033602 0 0.82500000000000062 0.33010209762754811 0 0.82862096804812391 0.55037090955459045 0 0.81441713509985358 0.51161854125224959 0 0.86907294890112186 0.52008116128001669 0 0.19670163708476801 0.31472518408333222 0 0.14223753364722069 0.3341983344262433 0 0.168349569971391 0.28054490850913671 0 0.50202631463681879 0.87892870825713787 0 0.45677673713123867 0.84253684404072415 0 0.50627822638148745 0.8263979829520941 0 0.099999999999814668 0 0 0.14999999999970359 0 0 0.10266856499169109 0.044518360900210059 0 0.15000000000062411 1 0 0.10000000000041601 1 0 0.10266856499240549 0.95548163909968886 0 0.67323294229744413 0.57556450033612505 0 0.63065402604362242 0.59661356661633302 0 0.62042975506801734 0.54295974692364424 0 0.083105206071467416 0.20007701332709979 0 0.13737030665753211 0.20313708640667491 0 0.095326043202144745 0.24554465089224409 0 0.083105206071452636 0.79992298667296435 0 0.090953281884486245 0.7564451946902494 0 0.1382744753146134 0.79650574229207483 0 0.50000000000205869 1 0 0.47135117303824892 0.95556877749289892 0 0.52122150208832174 0.94089974453840242 0 0.49999999999869432 0 0 0.52375890611712683 0.059318771819432882 0 0.47040171442036788 0.044141676406503738 0 0.4656888918609538 0.78493261229743638 0 0.45582236402875981 0.73896743678908217 0 0.50945740445113552 0.75476055527778108 0 0.5 0.69999999999999996 0 0.50945740445113552 0.75476055527778108 0 0.45582236402875981 0.73896743678908217 0 0.55306006949600994 0.20198184231352201 0 0.56202748619534593 0.15054058349222879 0 0.59443395090188023 0.18455690917515069 0 0.6236733212988993 0.14864538214901801 0 0.59443395090188023 0.18455690917515069 0 0.56202748619534593 0.15054058349222879 0 0.57412547362576272 0.58273804879550706 0 0.5498280205245758 0.6290146943450976 0 0.5166924242153631 0.59825134841919447 0 0.91696753777131557 0.497780560203536 0 0.93814194660195893 0.44426664081746747 0 0.96228564064454991 0.48206450662049471 0 0.15720202157091859 0.60665697304410315 0 0.16500388252850301 0.66612077714085194 0 0.1241190223511371 0.64391885572885044 0 0.44288491854585582 0.14116182884956319 0 0.47881186583059909 0.093591717165689425 0 0.48466639505193998 0.1421439844745814 0 1 0.54999999999963112 0 0.93732437411268477 0.55911392101136159 0 0.95631871884947484 0.51827533208233789 0 0.57724883562309992 0.92155686857100794 0 0.57382506491224949 0.9629411906298494 0 0.52122150208832174 0.94089974453840242 0 0.85170973911348691 0.93569607295217616 0 0.81159157511211755 0.88795995483179491 0 0.85600844944837662 0.88483418979512773 0 0.8517097391133297 0.2356960729520409 0 0.81283102246527783 0.1881007222486438 0 0.85600844944842547 0.1848341897950983 0 0.27866744612395528 0.38416094670951489 0 0.29124338931648802 0.43334555462578611 0 0.24049127783545701 0.41270748208749802 0 0.6084546825910605 0.37989672713932537 0 0.56836770495988642 0.3523062350852913 0 0.61959173890754571 0.33832250091341232 0 0.20050006573841939 0.53248514016039872 0 0.25115337790845271 0.54719303014923271 0 0.22549374774072969 0.58452645269293457 0 0.26573297623774761 0.59828298563722948 0 0.22549374774072969 0.58452645269293457 0 0.25115337790845271 0.54719303014923271 0 0.26104540868854792 0.81401944968719064 0 0.29209212897034281 0.84715728365233667 0 0.2401283238295133 0.85648409884788523 0 0.6236733212988993 0.14864538214901801 0 0.65290632656860115 0.11434202593454081 0 0.68391457121233579 0.14440470121196541 0 0.19901705110390991 0.9175543425573498 0 0.19741632902693801 0.86755867406447229 0 0.24536017905392571 0.90704567837671446 0 0.72500000000000064 0.7952620967744265 0 0.76901770135486491 0.84293557325473656 0 0.72863726579783861 0.85390518901155588 0 0.72500000000000064 0.7952620967744265 0 0.72863726579783861 0.85390518901155588 0 0.68697391633157634 0.84450604838764298 0 0.7250000000005199 0.89375000000045834 0 0.68697391633157634 0.84450604838764298 0 0.72863726579783861 0.85390518901155588 0 0.72525833953073282 0.1032114801687094 0 0.77144070960558853 0.14311854477243749 0 0.72634814642510737 0.16106886917518889 0 0.72525833953073282 0.1032114801687094 0 0.72634814642510737 0.16106886917518889 0 0.68391457121233579 0.14440470121196541 0 0.36622285152418499 0.69092437780804039 0 0.3977710372045391 0.65868194622830212 0 0.43323420005758778 0.6913544522562407 0 0 0.65000000000104008 0 0 0.60000000000138687 0 0.050069554451969707 0.61308520079857043 0 0 0.40000000000166441 0 0 0.35000000000145642 0 0.050583896093752537 0.38543522283434112 0 0.22033343844674469 0.36963382230740238 0 0.24049127783545701 0.41270748208749802 0 0.191953871957803 0.42546416763755879 0 0.5 0.29999999999999999 0 0.4604742573284204 0.27846934318264788 0 0.49695729691142171 0.25014895411178018 0 0.19741632902693801 0.86755867406447229 0 0.2401283238295133 0.85648409884788523 0 0.24536017905392571 0.90704567837671446 0 0 0.50000000000205869 0 0.068743045408989428 0.48853989837882689 0 0.044576108720083309 0.53509043209532614 0 0.15000000000062411 1 0 0.14617343800780541 0.93808063414349496 0 0.18474005699953849 0.96231585248064622 0 0.14999999999970359 0 0 0.184418230509967 0.038773194583122873 0 0.14618258501891079 0.062070108745602003 0 0.57667858002728545 0.078486105337742612 0 0.52375890611712683 0.059318771819432882 0 0.57396793757665954 0.037011367187645222 0 0.113541300460994 0.46208784312094731 0 0.078358742472063481 0.43365249433908948 0 0.13773355295499351 0.42497777642586831 0 0.77354604466818633 0.40378688774472771 0 0.78145581580700685 0.34881365920033602 0 0.81308179852519835 0.39754945808726527 0 0.38244435121258652 0.51653317813019495 0 0.33190227185843768 0.52715113583864037 0 0.35024835142131061 0.48654922671676981 0 0.64753070846764316 0.77332939069435502 0 0.65005442820240822 0.82644988530054031 0 0.60294066490120068 0.80851322453934582 0 0.15720202157091859 0.60665697304410315 0 0.1024350934457823 0.60772393977513839 0 0.1154888278694548 0.56733818459978413 0 0.90416666666660628 0.9041666666666166 0 0.85600844944837662 0.88483418979512773 0 0.88088768115933802 0.84674609810493673 0 0.90416666666668166 0.20416666666667119 0 0.85600844944842547 0.1848341897950983 0 0.88088768115941807 0.14674609810479519 0 0.078358742472063481 0.43365249433908948 0 0.1117088112799664 0.38831403004970022 0 0.13773355295499351 0.42497777642586831 0 0.38244435121258652 0.51653317813019495 0 0.3908716102680424 0.47010282357248828 0 0.43507373378304309 0.49699695397193322 0 0.90299850604011456 0.79563452813489832 0 0.95386563387742829 0.80414874155775029 0 0.93677536231884972 0.85000000000000286 0 0.90416666666660628 0.9041666666666166 0 0.93677536231884972 0.85000000000000286 0 0.95391631417670719 0.89584263333814784 0 0.90299850604006393 0.09563452813493091 0 0.95386563387744361 0.1041487415577465 0 0.93677536231883773 0.14999999999999089 0 0.90416666666668166 0.20416666666667119 0 0.93677536231883773 0.14999999999999089 0 0.95391631417672862 0.19584263333809451 0 0.39536230704883951 0.84069429572832477 0 0.44003836461056539 0.88093474584252718 0 0.39767323751400468 0.89584229130535065 0 0.51076801031701946 0.1202837388510348 0 0.52375890611712683 0.059318771819432882 0 0.54979595918804436 0.1060565713905809 0 0.57667858002728545 0.078486105337742612 0 0.54979595918804436 0.1060565713905809 0 0.52375890611712683 0.059318771819432882 0 0.57724883562309992 0.92155686857100794 0 0.52122150208832174 0.94089974453840242 0 0.54783390826260769 0.89287767010860219 0 0.50202631463681879 0.87892870825713787 0 0.54783390826260769 0.89287767010860219 0 0.52122150208832174 0.94089974453840242 0 0.087545339447545459 0.35122518864182262 0 0.093851963071650835 0.30582068233324772 0 0.14223753364722069 0.3341983344262433 0 0.54999999999999993 0.69999999999999996 0 0.59999999999999976 0.69999999999999996 0 0.55363780716230748 0.74348740161571747 0 0.083105206071452636 0.79992298667296435 0 0.1074251789111534 0.83564394292147814 0 0.065374659239661639 0.8551091961254178 0 0.083105206071467416 0.20007701332709979 0 0.065374659239632718 0.1448908038746782 0 0.106902708054812 0.16453234188234539 0 0.52289427570932567 0.3932284363388488 0 0.53823865529665704 0.45873898050322898 0 0.48858720058566618 0.43964267759203868 0 0.13737030665753211 0.20313708640667491 0 0.14377654328998779 0.2442024734791064 0 0.095326043202144745 0.24554465089224409 0 0.1382744753146134 0.79650574229207483 0 0.090953281884486245 0.7564451946902494 0 0.14335651144331049 0.75565258250209677 0 0.27270076654418179 0.87751467830216623 0 0.30864387279288652 0.89906554525974958 0 0.24536017905392571 0.90704567837671446 0 0.27609987656793722 0.94991445621608572 0 0.24536017905392571 0.90704567837671446 0 0.30864387279288652 0.89906554525974958 0 0.90299850604011456 0.79563452813489832 0 0.84725310900444062 0.80779732082917555 0 0.85491058998424563 0.76004753345552634 0 0.90299850604006393 0.09563452813493091 0 0.84725310900442086 0.10779732082922661 0 0.85491058998398861 0.060047533455626502 0 1 0.54999999999963112 0 1 0.59999999999973963 0 0.95867599106212187 0.60011091146651041 0 1 0.39999999999978308 0 1 0.44999999999963131 0 0.95871855522754235 0.40006508612975411 0 0.28040350263641872 0.23054717217092141 0 0.25195515620380449 0.25883339815888678 0 0.224700362040408 0.22206622194729711 0 0.84999999999999987 0.29999999999999999 0 0.87430060258887643 0.34056085888204451 0 0.82500000000000062 0.33010209762754811 0 0.84999999999999987 0.69999999999999996 0 0.82457059160610424 0.66831947184359608 0 0.87712158428786946 0.65709029563313581 0 0.86956835336234861 0.571283299838105 0 0.87159648282691515 0.61285406320581504 0 0.81723410853263523 0.59419663659258926 0 0.43698630808430822 0.080423614171545449 0 0.47881186583059909 0.093591717165689425 0 0.44288491854585582 0.14116182884956319 0 1 0.44999999999963131 0 0.96228564064454991 0.48206450662049471 0 0.93814194660195893 0.44426664081746747 0 0.35752321586431363 0.9185439911803448 0 0.30864387279288652 0.89906554525974958 0 0.35864759629805099 0.87963482415279515 0 0.29124338931648802 0.43334555462578611 0 0.25982634974572738 0.46097799597715272 0 0.24049127783545701 0.41270748208749802 0 0.51076801031701946 0.1202837388510348 0 0.56202748619534593 0.15054058349222879 0 0.51729576145820033 0.1683240575987815 0 0.55306006949600994 0.20198184231352201 0 0.51729576145820033 0.1683240575987815 0 0.56202748619534593 0.15054058349222879 0 0.26429849586623999 0.19346700179430079 0 0.28040350263641872 0.23054717217092141 0 0.224700362040408 0.22206622194729711 0 0.51076801031701946 0.1202837388510348 0 0.48466639505193998 0.1421439844745814 0 0.47881186583059909 0.093591717165689425 0 0.2185883431182947 0.18019736283949719 0 0.26429849586623999 0.19346700179430079 0 0.224700362040408 0.22206622194729711 0 0.18269480424590959 0.75905448272264375 0 0.2248999640082178 0.72584299459689172 0 0.22556077506376701 0.77837424984191617 0 0.51076801031701946 0.1202837388510348 0 0.47881186583059909 0.093591717165689425 0 0.52375890611712683 0.059318771819432882 0 0.50202631463681879 0.87892870825713787 0 0.52122150208832174 0.94089974453840242 0 0.47401147028110507 0.91529957330468115 0 0 0.84999999999965292 0 0.038512288486097702 0.8155852717111195 0 0.065374659239661639 0.8551091961254178 0 0 0.15000000000062411 0 0.065374659239632718 0.1448908038746782 0 0.038512288486115001 0.1844147282893184 0 0.2185883431182947 0.18019736283949719 0 0.224700362040408 0.22206622194729711 0 0.18124454140915969 0.18790916706335251 0 0.21858834311891909 0.81980263716112767 0 0.17777405986036951 0.81832336108265358 0 0.22556077506376701 0.77837424984191617 0 0.1215415378367805 0.72939333680004137 0 0.1020579365089687 0.69352219419301997 0 0.15332765547575641 0.71200081858233666 0 0.49695729691142171 0.25014895411178018 0 0.50760557329222289 0.20700468884612061 0 0.54248833945060504 0.2520322959927106 0 0.15720202157091859 0.60665697304410315 0 0.14934928745814749 0.55042914607228977 0 0.18381867841758909 0.57774125163628387 0 0.90416666666660628 0.9041666666666166 0 0.85170973911348691 0.93569607295217616 0 0.85600844944837662 0.88483418979512773 0 0.90416666666668166 0.20416666666667119 0 0.8517097391133297 0.2356960729520409 0 0.85600844944842547 0.1848341897950983 0 0.17933913398461551 0.2350063570234002 0 0.13737030665753211 0.20313708640667491 0 0.18124454140915969 0.18790916706335251 0 0.18269480424590959 0.75905448272264375 0 0.17777405986036951 0.81832336108265358 0 0.1382744753146134 0.79650574229207483 0 0.1216098864341134 0.50637075089503902 0 0.15801167086041079 0.46008690540259539 0 0.16618607197337229 0.50652878253548905 0 0.50760557329222289 0.20700468884612061 0 0.55306006949600994 0.20198184231352201 0 0.54248833945060504 0.2520322959927106 0 0.75000000000034661 1 0 0.7000000000006934 1 0 0.7250000000005199 0.94981617647078953 0 0.69999999999999984 0.29999999999999999 0 0.72500000000000064 0.2498161764706 0 0.74999999999999989 0.29999999999999999 0 0.72525833953073282 0.1032114801687094 0 0.68391457121233579 0.14440470121196541 0 0.68330259535470161 0.10038702501083881 0 0.43249999999999988 0.43937499999999979 0 0.46655310992796922 0.39650496622958609 0 0.48858720058566618 0.43964267759203868 0 0.19901705110390991 0.9175543425573498 0 0.14617343800780541 0.93808063414349496 0 0.16206583317966519 0.89685560785156404 0 0.19922788606653311 0.085920220746880993 0 0.16141998738593399 0.10404039647458049 0 0.14618258501891079 0.062070108745602003 0 0.31378396441836959 0.70157213313026345 0 0.26439878998046262 0.7048065392091396 0 0.27820712747429932 0.65530134213254643 0 0.1216098864341134 0.50637075089503902 0 0.113541300460994 0.46208784312094731 0 0.15801167086041079 0.46008690540259539 0 0.6084546825910605 0.37989672713932537 0 0.65481233915350323 0.35652751921065562 0 0.63912439215427275 0.41063340167983359 0 0.19901705110390991 0.9175543425573498 0 0.18474005699953849 0.96231585248064622 0 0.14617343800780541 0.93808063414349496 0 0.19922788606653311 0.085920220746880993 0 0.14618258501891079 0.062070108745602003 0 0.184418230509967 0.038773194583122873 0 0.38244435121258652 0.51653317813019495 0 0.35024835142131061 0.48654922671676981 0 0.3908716102680424 0.47010282357248828 0 0.82709327591102189 0.14937141670914489 0 0.77144070960558853 0.14311854477243749 0 0.80076557130237269 0.1154587552654202 0 0.82709327591091286 0.84937141670920724 0 0.76901770135486491 0.84293557325473656 0 0.80041942726660109 0.81543261647703358 0 0.43698630808430822 0.080423614171545449 0 0.44288491854585582 0.14116182884956319 0 0.39823268594401579 0.1116623613130045 0 0.39801143831225599 0.16651381068160659 0 0.39823268594401579 0.1116623613130045 0 0.44288491854585582 0.14116182884956319 0 0.36575549820117997 0.31677992835137742 0 0.3786248352540974 0.27082301512024259 0 0.41914690343363781 0.30688979866601612 0 0.42377727103934271 0.25099357235810238 0 0.41914690343363781 0.30688979866601612 0 0.3786248352540974 0.27082301512024259 0 0.049706944316475897 0.72477277076253799 0 0.1020579365089687 0.69352219419301997 0 0.090953281884486245 0.7564451946902494 0 0.1215415378367805 0.72939333680004137 0 0.090953281884486245 0.7564451946902494 0 0.1020579365089687 0.69352219419301997 0 0.1247745017231483 0.27198077544791172 0 0.093851963071650835 0.30582068233324772 0 0.095326043202144745 0.24554465089224409 0 0.049706944316556423 0.27522722923869108 0 0.095326043202144745 0.24554465089224409 0 0.093851963071650835 0.30582068233324772 0 0.77354604466818633 0.40378688774472771 0 0.81973119833356312 0.43505687159469048 0 0.77972660463949339 0.45529290596363098 0 0.43249999999999988 0.43937499999999979 0 0.43507373378304309 0.49699695397193322 0 0.3908716102680424 0.47010282357248828 0 0.26573297623774761 0.59828298563722948 0 0.2459498854893499 0.63248470766216769 0 0.22549374774072969 0.58452645269293457 0 0.72500000000000064 0.7952620967744265 0 0.77094201086366854 0.79647480515688507 0 0.76901770135486491 0.84293557325473656 0 0.72525833953073282 0.1032114801687094 0 0.76878382444651716 0.097147941686331368 0 0.77144070960558853 0.14311854477243749 0 0.72500000000000064 0.7952620967744265 0 0.68697391633157634 0.84450604838764298 0 0.68024162096458085 0.79868546898116533 0 0.31378396441836959 0.70157213313026345 0 0.29904318922293632 0.74132814928635593 0 0.26439878998046262 0.7048065392091396 0 0.31378396441836959 0.70157213313026345 0 0.35415581127540569 0.73730480045900215 0 0.29904318922293632 0.74132814928635593 0 0.61343887413683884 0.856862479058357 0 0.65005442820240822 0.82644988530054031 0 0.66412543161245952 0.88015090885499059 0 0.68697391633157634 0.84450604838764298 0 0.66412543161245952 0.88015090885499059 0 0.65005442820240822 0.82644988530054031 0 0.083411279318375747 0.91030024466934134 0 0.065374659239661639 0.8551091961254178 0 0.10562472963403439 0.87143394428979881 0 0.083411279318303222 0.089699755330707398 0 0.1053400320299198 0.12877248826361379 0 0.065374659239632718 0.1448908038746782 0 0.55306006949600994 0.20198184231352201 0 0.59443395090188023 0.18455690917515069 0 0.59814117807200873 0.23398510860739519 0 0.84999999999999987 0.29999999999999999 0 0.89999999999999991 0.29999999999999999 0 0.87430060258887643 0.34056085888204451 0 0.84999999999999987 0.69999999999999996 0 0.87712158428786946 0.65709029563313581 0 0.89999999999999991 0.69999999999999996 0 0.34258405725730701 0.4444034294386992 0 0.3908716102680424 0.47010282357248828 0 0.35024835142131061 0.48654922671676981 0 0.26573297623774761 0.59828298563722948 0 0.31502927232353312 0.6134992213375432 0 0.27820712747429932 0.65530134213254643 0 0.91696753777131557 0.497780560203536 0 0.86907294890112186 0.52008116128001669 0 0.88594198078881503 0.46167788676578442 0 0.84723782639812573 0.48638347960178252 0 0.88594198078881503 0.46167788676578442 0 0.86907294890112186 0.52008116128001669 0 0.7152569930854884 0.5237994455134295 0 0.77151014687832564 0.54436834383023036 0 0.71809016091162536 0.58185040402320831 0 0.90416666666660628 0.9041666666666166 0 0.89898474358632463 0.95391965591118966 0 0.85170973911348691 0.93569607295217616 0 0.90416666666668166 0.20416666666667119 0 0.89898474358614167 0.25391965591104898 0 0.8517097391133297 0.2356960729520409 0 0.91750694127107502 0.36982372220068471 0 0.95780851984364423 0.34215720972155339 0 0.95871855522754235 0.40006508612975411 0 0.91750694127105259 0.63017627779935648 0 0.95867599106212187 0.60011091146651041 0 0.9578014258160763 0.65787212321113708 0 0.90299850604011456 0.79563452813489832 0 0.88088768115933802 0.84674609810493673 0 0.84725310900444062 0.80779732082917555 0 0.90299850604006393 0.09563452813493091 0 0.88088768115941807 0.14674609810479519 0 0.84725310900442086 0.10779732082922661 0 0.1216098864341134 0.50637075089503902 0 0.16618607197337229 0.50652878253548905 0 0.14934928745814749 0.55042914607228977 0 0.20050006573841939 0.53248514016039872 0 0.14934928745814749 0.55042914607228977 0 0.16618607197337229 0.50652878253548905 0 0.80185942888539485 0.77452061303608133 0 0.84725310900444062 0.80779732082917555 0 0.80041942726660109 0.81543261647703358 0 0.80185942888501827 0.074520613036224564 0 0.84725310900442086 0.10779732082922661 0 0.80076557130237269 0.1154587552654202 0 0.083105206071452636 0.79992298667296435 0 0.065374659239661639 0.8551091961254178 0 0.038512288486097702 0.8155852717111195 0 0.083105206071467416 0.20007701332709979 0 0.038512288486115001 0.1844147282893184 0 0.065374659239632718 0.1448908038746782 0 0.54782696902220018 0.79245182748204157 0 0.59636844454254345 0.75937156204589151 0 0.60294066490120068 0.80851322453934582 0 0.083411279318375747 0.91030024466934134 0 0.0443105827531413 0.89858748162559932 0 0.065374659239661639 0.8551091961254178 0 0.083411279318303222 0.089699755330707398 0 0.065374659239632718 0.1448908038746782 0 0.044310582753132287 0.101412518374475 0 0.84999999999965292 1 0 0.81486180804382891 0.96321394949790495 0 0.85170973911348691 0.93569607295217616 0 0.84999999999999987 0.29999999999999999 0 0.81486180804364938 0.26321394949780091 0 0.8517097391133297 0.2356960729520409 0 0.4656888918609538 0.78493261229743638 0 0.45677673713123867 0.84253684404072415 0 0.42609163930740518 0.80361684430568059 0 0.39536230704883951 0.84069429572832477 0 0.42609163930740518 0.80361684430568059 0 0.45677673713123867 0.84253684404072415 0 0.6236733212988993 0.14864538214901801 0 0.56202748619534593 0.15054058349222879 0 0.58516465772821369 0.11653801664834119 0 0.57412547362576272 0.58273804879550706 0 0.63065402604362242 0.59661356661633302 0 0.5991018319127801 0.62925360607495295 0 0.61343887413683884 0.856862479058357 0 0.5832743223239254 0.88483152652961872 0 0.55899371797446828 0.85003102233514438 0 0.50202631463681879 0.87892870825713787 0 0.55899371797446828 0.85003102233514438 0 0.54783390826260769 0.89287767010860219 0 0.51076801031701946 0.1202837388510348 0 0.54979595918804436 0.1060565713905809 0 0.56202748619534593 0.15054058349222879 0 0.55306006949600994 0.20198184231352201 0 0.59814117807200873 0.23398510860739519 0 0.54248833945060504 0.2520322959927106 0 0.83573492347052902 0.36590755630746369 0 0.82500000000000062 0.33010209762754811 0 0.87430060258887643 0.34056085888204451 0 0.83758014339878906 0.63222013025741819 0 0.87712158428786946 0.65709029563313581 0 0.82457059160610424 0.66831947184359608 0 0.49102375406324739 0.49123754822244059 0 0.53823865529665704 0.45873898050322898 0 0.53330375813596242 0.50827942741749099 0 0.52289427570932567 0.3932284363388488 0 0.57744073070774993 0.41535148636609359 0 0.53823865529665704 0.45873898050322898 0 0.4089290844030305 0.58728915500154233 0 0.37272913873093971 0.56192925302619479 0 0.42644501560315817 0.54603747078095544 0 0.49695729691142171 0.25014895411178018 0 0.4604742573284204 0.27846934318264788 0 0.46429753744194407 0.22870891180733599 0 0.90299850604011456 0.79563452813489832 0 0.85491058998424563 0.76004753345552634 0 0.89999166460796554 0.74528934923809909 0 0.90299850604006393 0.09563452813493091 0 0.85491058998398861 0.060047533455626502 0 0.899991664607802 0.045289349238254978 0 0.38244435121258652 0.51653317813019495 0 0.42644501560315817 0.54603747078095544 0 0.37272913873093971 0.56192925302619479 0 0.71406021706547751 0.63292083137662503 0 0.71809016091162536 0.58185040402320831 0 0.74994237037456724 0.62775548192980357 0 0.84723782639812573 0.48638347960178252 0 0.86907294890112186 0.52008116128001669 0 0.81441713509985358 0.51161854125224959 0 0.33122374654748771 0.57588941099433744 0 0.33190227185843768 0.52715113583864037 0 0.37272913873093971 0.56192925302619479 0 0.086179601630648681 0.64647209519980475 0 0.1241190223511371 0.64391885572885044 0 0.1020579365089687 0.69352219419301997 0 0.59999999999894682 0 0 0.64999999999907843 0 0 0.61940220174112337 0.047251958781050582 0 0.18269480424590959 0.75905448272264375 0 0.14335651144331049 0.75565258250209677 0 0.15332765547575641 0.71200081858233666 0 0.22549374774072969 0.58452645269293457 0 0.2459498854893499 0.63248470766216769 0 0.19914261668318661 0.62286739485272158 0 0.38244435121258652 0.51653317813019495 0 0.43507373378304309 0.49699695397193322 0 0.42644501560315817 0.54603747078095544 0 0.65000000000104008 1 0 0.60000000000138687 1 0 0.62065498684670595 0.95224934003983619 0 0.078358742472063481 0.43365249433908948 0 0.068743045408989428 0.48853989837882689 0 0.033550201249889847 0.46247875832467239 0 0.2236846579037573 0.67380363126050236 0 0.27820712747429932 0.65530134213254643 0 0.26439878998046262 0.7048065392091396 0 0.6879972333610942 0.43038561374960838 0 0.68128176404677243 0.38629093627004979 0 0.72622533758026719 0.40265885511101601 0 0.72525833953073282 0.1032114801687094 0 0.7010294155333181 0.056779085686491267 0 0.7527966693318906 0.053051678021508272 0 0.18269480424590959 0.75905448272264375 0 0.15332765547575641 0.71200081858233666 0 0.19068556247388771 0.71028988922845504 0 0.1216098864341134 0.50637075089503902 0 0.085622222639554768 0.53333248912060549 0 0.068743045408989428 0.48853989837882689 0 0.25676291524611189 0.7436741304886243 0 0.26439878998046262 0.7048065392091396 0 0.29904318922293632 0.74132814928635593 0 0.65481233915350323 0.35652751921065562 0 0.68128176404677243 0.38629093627004979 0 0.63912439215427275 0.41063340167983359 0 0.83573492347052902 0.36590755630746369 0 0.86844634540301924 0.38530937474099819 0 0.81308179852519835 0.39754945808726527 0 0.27270076654418179 0.87751467830216623 0 0.2401283238295133 0.85648409884788523 0 0.29209212897034281 0.84715728365233667 0 0.84999999999999987 0.69999999999999996 0 0.85491058998424563 0.76004753345552634 0 0.81864958914779962 0.73589050177899629 0 0.84999999999960507 0 0 0.85491058998398861 0.060047533455626502 0 0.81864958914740749 0.035890501779055867 0 0.18381867841758909 0.57774125163628387 0 0.19914261668318661 0.62286739485272158 0 0.15720202157091859 0.60665697304410315 0 0.22549374774072969 0.58452645269293457 0 0.19914261668318661 0.62286739485272158 0 0.18381867841758909 0.57774125163628387 0 0.79680861578988083 0.92656778056766709 0 0.85170973911348691 0.93569607295217616 0 0.81486180804382891 0.96321394949790495 0 0.79680861578956375 0.22656778056752541 0 0.8517097391133297 0.2356960729520409 0 0.81486180804364938 0.26321394949780091 0 0.20050006573841939 0.53248514016039872 0 0.23975172658309729 0.49475499200540818 0 0.25115337790845271 0.54719303014923271 0 0.28307294598219601 0.50789252727458634 0 0.25115337790845271 0.54719303014923271 0 0.23975172658309729 0.49475499200540818 0 0.20050006573841939 0.53248514016039872 0 0.18381867841758909 0.57774125163628387 0 0.14934928745814749 0.55042914607228977 0 0.19922788606653311 0.085920220746880993 0 0.22985637510995899 0.1298347970200906 0 0.18652628422869419 0.14162325200928061 0 0.33758650185219202 0.23837101504325639 0 0.38831533174504851 0.2189834941785925 0 0.3786248352540974 0.27082301512024259 0 0.42377727103934271 0.25099357235810238 0 0.3786248352540974 0.27082301512024259 0 0.38831533174504851 0.2189834941785925 0 0.19922788606653311 0.085920220746880993 0 0.18652628422869419 0.14162325200928061 0 0.16141998738593399 0.10404039647458049 0 0.54782696902220018 0.79245182748204157 0 0.55363780716230748 0.74348740161571747 0 0.59636844454254345 0.75937156204589151 0 0.82709327591091286 0.84937141670920724 0 0.88088768115933802 0.84674609810493673 0 0.85600844944837662 0.88483418979512773 0 0.82709327591102189 0.14937141670914489 0 0.88088768115941807 0.14674609810479519 0 0.85600844944842547 0.1848341897950983 0 0.27866744612395528 0.38416094670951489 0 0.22033343844674469 0.36963382230740238 0 0.25966125648670141 0.34351016742083729 0 0 0.50000000000205869 0 0.033550201249889847 0.46247875832467239 0 0.068743045408989428 0.48853989837882689 0 0.31378396441836959 0.70157213313026345 0 0.36622285152418499 0.69092437780804039 0 0.35415581127540569 0.73730480045900215 0 0.77293540622714185 0.59448302402785813 0 0.71809016091162536 0.58185040402320831 0 0.77151014687832564 0.54436834383023036 0 0.7152569930854884 0.5237994455134295 0 0.69385896817107129 0.48377516041410151 0 0.73947346780852752 0.49062440112282169 0 0.15801167086041079 0.46008690540259539 0 0.191953871957803 0.42546416763755879 0 0.19604738184454831 0.47787523520405789 0 0.57667858002728545 0.078486105337742612 0 0.61940220174112337 0.047251958781050582 0 0.61956000905586006 0.1043312481793135 0 0.65408113592120842 0.073941773121567966 0 0.61956000905586006 0.1043312481793135 0 0.61940220174112337 0.047251958781050582 0 0 0.55000000000173355 0 0 0.50000000000205869 0 0.044576108720083309 0.53509043209532614 0 0.65507451745379841 0.92229208810758578 0 0.62065498684670595 0.95224934003983619 0 0.61885627562261258 0.90282959257498208 0 0.57724883562309992 0.92155686857100794 0 0.61885627562261258 0.90282959257498208 0 0.62065498684670595 0.95224934003983619 0 0.91750694127107502 0.36982372220068471 0 0.86844634540301924 0.38530937474099819 0 0.87430060258887643 0.34056085888204451 0 0.91750694127105259 0.63017627779935648 0 0.87712158428786946 0.65709029563313581 0 0.87159648282691515 0.61285406320581504 0 0.33123028043633618 0.77629643437932982 0 0.29904318922293632 0.74132814928635593 0 0.35415581127540569 0.73730480045900215 0 0.86411095495256451 0.42388805655111889 0 0.84925632466077294 0.45359738909549091 0 0.81973119833356312 0.43505687159469048 0 0.43846182030517877 0.64845797726506715 0 0.47913475093885149 0.66010775372412711 0 0.43323420005758778 0.6913544522562407 0 0.18269480424590959 0.75905448272264375 0 0.19068556247388771 0.71028988922845504 0 0.2248999640082178 0.72584299459689172 0 0.39536230704883951 0.84069429572832477 0 0.38586766253264881 0.78219501014812498 0 0.42609163930740518 0.80361684430568059 0 0.59999999999999976 0.69999999999999996 0 0.63221990677827677 0.73442891067859706 0 0.59636844454254345 0.75937156204589151 0 0.27866744612395528 0.38416094670951489 0 0.24049127783545701 0.41270748208749802 0 0.22033343844674469 0.36963382230740238 0 0.82709327591091286 0.84937141670920724 0 0.84725310900444062 0.80779732082917555 0 0.88088768115933802 0.84674609810493673 0 0.82709327591102189 0.14937141670914489 0 0.84725310900442086 0.10779732082922661 0 0.88088768115941807 0.14674609810479519 0 0.1650278706801647 0.38791388161335733 0 0.18434624290945251 0.35208838264196463 0 0.22033343844674469 0.36963382230740238 0 0.4409427642593301 0.35743108089689513 0 0.49077833859261139 0.35229981449445641 0 0.46655310992796922 0.39650496622958609 0 0.80185942888539485 0.77452061303608133 0 0.81864958914779962 0.73589050177899629 0 0.85491058998424563 0.76004753345552634 0 0.80185942888501827 0.074520613036224564 0 0.81864958914740749 0.035890501779055867 0 0.85491058998398861 0.060047533455626502 0 0.29999999999926641 0 0 0.34999999999912063 0 0 0.32541448401678508 0.046215317981507749 0 0.35000000000145642 1 0 0.30000000000124832 1 0 0.32544832635163229 0.95485394099568932 0 0.4656888918609538 0.78493261229743638 0 0.50731287292894423 0.78963574450233831 0 0.50627822638148745 0.8263979829520941 0 0.2185883431182947 0.18019736283949719 0 0.25557216766470708 0.15874861286892261 0 0.26429849586623999 0.19346700179430079 0 1 0.29999999999999999 0 1 0.34999999999993492 0 0.95780851984364423 0.34215720972155339 0 1 0.29999999999999999 0 0.95780851984364423 0.34215720972155339 0 0.94999999999999996 0.29999999999999999 0 1 0.69999999999999996 0 0.94999999999999996 0.69999999999999996 0 0.9578014258160763 0.65787212321113708 0 1 0.69999999999999996 0 0.9578014258160763 0.65787212321113708 0 1 0.64999999999986979 0 0.91750694127107502 0.36982372220068471 0 0.90594285160987287 0.4141265964174129 0 0.86844634540301924 0.38530937474099819 0 0.91750694127105259 0.63017627779935648 0 0.87159648282691515 0.61285406320581504 0 0.91143117093204207 0.58709913730335972 0 0.74999999999999989 0.69999999999999996 0 0.7750489929959945 0.66593931409600093 0 0.79999999999999982 0.69999999999999996 0 0.74999999999999989 0.29999999999999999 0 0.79999999999999982 0.29999999999999999 0 0.78145581580700685 0.34881365920033602 0 0.54999999999999993 0.69999999999999996 0 0.57484956128872922 0.66573805030881994 0 0.59999999999999976 0.69999999999999996 0 0.90299850604011456 0.79563452813489832 0 0.94399509803918602 0.75600490196082126 0 0.95386563387742829 0.80414874155775029 0 0.90416666666660628 0.9041666666666166 0 0.95391631417670719 0.89584263333814784 0 0.94399509803919068 0.9439950980391687 0 0.90299850604006393 0.09563452813493091 0 0.94399509803922566 0.056004901960802607 0 0.95386563387744361 0.1041487415577465 0 0.90416666666668166 0.20416666666667119 0 0.95391631417672862 0.19584263333809451 0 0.94399509803921056 0.24399509803922639 0 0.22278230690790279 0.44824268025881547 0 0.19604738184454831 0.47787523520405789 0 0.191953871957803 0.42546416763755879 0 0.90299850604011456 0.79563452813489832 0 0.89999166460796554 0.74528934923809909 0 0.94399509803918602 0.75600490196082126 0 0.90299850604006393 0.09563452813493091 0 0.899991664607802 0.045289349238254978 0 0.94399509803922566 0.056004901960802607 0 0.49102375406324739 0.49123754822244059 0 0.47793794143994173 0.52940715638744962 0 0.43507373378304309 0.49699695397193322 0 0.90416666666660628 0.9041666666666166 0 0.94399509803919068 0.9439950980391687 0 0.89898474358632463 0.95391965591118966 0 0.90416666666668166 0.20416666666667119 0 0.94399509803921056 0.24399509803922639 0 0.89898474358614167 0.25391965591104898 0 0.65394964615507722 0.22666784374016369 0 0.62657463266645097 0.26524202571255862 0 0.59814117807200873 0.23398510860739519 0 0.6084546825910605 0.37989672713932537 0 0.63912439215427275 0.41063340167983359 0 0.57744073070774993 0.41535148636609359 0 0.61209567303293111 0.44669033081290321 0 0.57744073070774993 0.41535148636609359 0 0.63912439215427275 0.41063340167983359 0 0.25676291524611189 0.7436741304886243 0 0.22556077506376701 0.77837424984191617 0 0.2248999640082178 0.72584299459689172 0 0.61343887413683884 0.856862479058357 0 0.60294066490120068 0.80851322453934582 0 0.65005442820240822 0.82644988530054031 0 0.64999999999907843 0 0 0.66369801598854572 0.036327466368102787 0 0.61940220174112337 0.047251958781050582 0 0.40326160981139969 0.73346192995102844 0 0.38586766253264881 0.78219501014812498 0 0.35415581127540569 0.73730480045900215 0 0.33123028043633618 0.77629643437932982 0 0.35415581127540569 0.73730480045900215 0 0.38586766253264881 0.78219501014812498 0 0.26573297623774761 0.59828298563722948 0 0.29110487519241501 0.56588143995431495 0 0.31502927232353312 0.6134992213375432 0 0.77846603114747959 0.49850927265137401 0 0.81441713509985358 0.51161854125224959 0 0.77151014687832564 0.54436834383023036 0 0.82862096804812391 0.55037090955459045 0 0.77151014687832564 0.54436834383023036 0 0.81441713509985358 0.51161854125224959 0 0.50000000000205869 1 0 0.45000000000187229 1 0 0.47135117303824892 0.95556877749289892 0 0.44999999999882923 0 0 0.49999999999869432 0 0 0.47040171442036788 0.044141676406503738 0 0 0.7000000000006934 0 0 0.65000000000104008 0 0.046634677244967337 0.671418230738282 0 0 0.35000000000145642 0 0 0.30000000000124832 0 0.046389130980076937 0.32668781832131749 0 0.31378396441836959 0.70157213313026345 0 0.27820712747429932 0.65530134213254643 0 0.32263089806001177 0.66003674931826484 0 0.33122374654748771 0.57588941099433744 0 0.31502927232353312 0.6134992213375432 0 0.29110487519241501 0.56588143995431495 0 0.26573297623774761 0.59828298563722948 0 0.27820712747429932 0.65530134213254643 0 0.2459498854893499 0.63248470766216769 0 0.14474682429600511 0.85524784522713515 0 0.16206583317966519 0.89685560785156404 0 0.1241151115713819 0.9045666525468371 0 0.14332333627550789 0.14578431753966009 0 0.12372429750337779 0.095814237875728972 0 0.16141998738593399 0.10404039647458049 0 0.64753070846764316 0.77332939069435502 0 0.59636844454254345 0.75937156204589151 0 0.63221990677827677 0.73442891067859706 0 0.14474682429600511 0.85524784522713515 0 0.1241151115713819 0.9045666525468371 0 0.10562472963403439 0.87143394428979881 0 0.14332333627550789 0.14578431753966009 0 0.1053400320299198 0.12877248826361379 0 0.12372429750337779 0.095814237875728972 0 0.77354604466818633 0.40378688774472771 0 0.81308179852519835 0.39754945808726527 0 0.81973119833356312 0.43505687159469048 0 0.54782696902220018 0.79245182748204157 0 0.50945740445113552 0.75476055527778108 0 0.55363780716230748 0.74348740161571747 0 0.2236846579037573 0.67380363126050236 0 0.2459498854893499 0.63248470766216769 0 0.27820712747429932 0.65530134213254643 0 0.77293540622714185 0.59448302402785813 0 0.74994237037456724 0.62775548192980357 0 0.71809016091162536 0.58185040402320831 0 0 0.79999999999999982 0 0 0.75000000000034661 0 0.04408157711937423 0.7728941757575627 0 0 0.25000000000104028 0 0 0.20000000000083221 0 0.044081577119474857 0.2271058242433576 0 0.19999999999955789 0 0 0.24999999999941211 0 0 0.22668068146512929 0.045875643423131329 0 0.25000000000104028 1 0 0.20000000000083221 1 0 0.22850979588452081 0.95594428570238643 0 0.47357141910802508 0.1873585799078378 0 0.44288491854585582 0.14116182884956319 0 0.48466639505193998 0.1421439844745814 0 0.59999999999999976 0.29999999999999999 0 0.5794309697024993 0.27124795968204829 0 0.62657463266645097 0.26524202571255862 0 0.43249999999999988 0.43937499999999979 0 0.42161023666869668 0.39493916313643851 0 0.46655310992796922 0.39650496622958609 0 0.31068898841644388 0.47541502461811092 0 0.33190227185843768 0.52715113583864037 0 0.28307294598219601 0.50789252727458634 0 0.35024835142131061 0.48654922671676981 0 0.33190227185843768 0.52715113583864037 0 0.31068898841644388 0.47541502461811092 0 0.35864735590330371 0.63903383440414463 0 0.36622285152418499 0.69092437780804039 0 0.32263089806001177 0.66003674931826484 0 0.31378396441836959 0.70157213313026345 0 0.32263089806001177 0.66003674931826484 0 0.36622285152418499 0.69092437780804039 0 0.86956835336234861 0.571283299838105 0 0.90900154012161016 0.53607784105648792 0 0.91143117093204207 0.58709913730335972 0 0.6499999999999998 0.29999999999999999 0 0.65481233915350323 0.35652751921065562 0 0.61959173890754571 0.33832250091341232 0 0.4409427642593301 0.35743108089689513 0 0.46226845272279993 0.31901800744800313 0 0.49077833859261139 0.35229981449445641 0 0.5 0.29999999999999999 0 0.49077833859261139 0.35229981449445641 0 0.46226845272279993 0.31901800744800313 0 0.14999999999970359 0 0 0.19999999999955789 0 0 0.184418230509967 0.038773194583122873 0 0.20000000000083221 1 0 0.15000000000062411 1 0 0.18474005699953849 0.96231585248064622 0 1 0.49999999999950101 0 1 0.54999999999963112 0 0.95631871884947484 0.51827533208233789 0 0.38586766253264881 0.78219501014812498 0 0.42676259796334498 0.76772545931379299 0 0.42609163930740518 0.80361684430568059 0 0.20050006573841939 0.53248514016039872 0 0.22549374774072969 0.58452645269293457 0 0.18381867841758909 0.57774125163628387 0 0.065374659239661639 0.8551091961254178 0 0.1074251789111534 0.83564394292147814 0 0.10562472963403439 0.87143394428979881 0 0.065374659239632718 0.1448908038746782 0 0.1053400320299198 0.12877248826361379 0 0.106902708054812 0.16453234188234539 0 0.1650278706801647 0.38791388161335733 0 0.14223753364722069 0.3341983344262433 0 0.18434624290945251 0.35208838264196463 0 0.43249999999999988 0.43937499999999979 0 0.46111841286828259 0.46690301029591341 0 0.43507373378304309 0.49699695397193322 0 0.83758014339878906 0.63222013025741819 0 0.81723410853263523 0.59419663659258926 0 0.87159648282691515 0.61285406320581504 0 0.19670163708476801 0.31472518408333222 0 0.18434624290945251 0.35208838264196463 0 0.14223753364722069 0.3341983344262433 0 0.75000000000034661 1 0 0.7250000000005199 0.94981617647078953 0 0.770759834363826 0.95919399014344442 0 0.74999999999999989 0.29999999999999999 0 0.72500000000000064 0.2498161764706 0 0.77075983436335049 0.25919399014334171 0 0.69999999999999984 0.29999999999999999 0 0.67933712972090698 0.25920070958121938 0 0.72500000000000064 0.2498161764706 0 0.57611405284611883 0.50165903596042916 0 0.53330375813596242 0.50827942741749099 0 0.53823865529665704 0.45873898050322898 0 0.6499999999999998 0.29999999999999999 0 0.68887083591306764 0.33632058575757479 0 0.65481233915350323 0.35652751921065562 0 0.27866744612395528 0.38416094670951489 0 0.33277555741076909 0.36432196682010132 0 0.31778888742534622 0.40581751814196781 0 0.49102375406324739 0.49123754822244059 0 0.43507373378304309 0.49699695397193322 0 0.46111841286828259 0.46690301029591341 0 0.94999999999999996 0.69999999999999996 0 0.97166519676947294 0.73337114490064459 0 0.94399509803918602 0.75600490196082126 0 0.94999999999986839 0 0 0.97166519676946894 0.033371144900598393 0 0.94399509803922566 0.056004901960802607 0 0.94999999999999996 0.29999999999999999 0 0.94399509803921056 0.24399509803922639 0 0.97166519676951801 0.26662885509932011 0 0.94999999999979179 1 0 0.94399509803919068 0.9439950980391687 0 0.97166519676946206 0.96662885509935492 0 0.34258405725730701 0.4444034294386992 0 0.29124338931648802 0.43334555462578611 0 0.31778888742534622 0.40581751814196781 0 0.27866744612395528 0.38416094670951489 0 0.31778888742534622 0.40581751814196781 0 0.29124338931648802 0.43334555462578611 0 0.36575549820117997 0.31677992835137742 0 0.33277555741076909 0.36432196682010132 0 0.32752639306529541 0.32610012995269699 0 0.35752321586431363 0.9185439911803448 0 0.32544832635163229 0.95485394099568932 0 0.30864387279288652 0.89906554525974958 0 0.27609987656793722 0.94991445621608572 0 0.30864387279288652 0.89906554525974958 0 0.32544832635163229 0.95485394099568932 0 0.33123028043633618 0.77629643437932982 0 0.30857225866488791 0.81101973481716805 0 0.2792923945214143 0.77665808831789485 0 0.33758650185219202 0.23837101504325639 0 0.29132859388405002 0.27203693976649962 0 0.28040350263641872 0.23054717217092141 0 0.4409427642593301 0.35743108089689513 0 0.41914690343363781 0.30688979866601612 0 0.46226845272279993 0.31901800744800313 0 0.14332333627550789 0.14578431753966009 0 0.13737030665753211 0.20313708640667491 0 0.106902708054812 0.16453234188234539 0 0.083105206071467416 0.20007701332709979 0 0.106902708054812 0.16453234188234539 0 0.13737030665753211 0.20313708640667491 0 0.083105206071452636 0.79992298667296435 0 0.1382744753146134 0.79650574229207483 0 0.1074251789111534 0.83564394292147814 0 0.14474682429600511 0.85524784522713515 0 0.1074251789111534 0.83564394292147814 0 0.1382744753146134 0.79650574229207483 0 0.65408113592120842 0.073941773121567966 0 0.7010294155333181 0.056779085686491267 0 0.68330259535470161 0.10038702501083881 0 0.72525833953073282 0.1032114801687094 0 0.68330259535470161 0.10038702501083881 0 0.7010294155333181 0.056779085686491267 0 0.049706944316475897 0.72477277076253799 0 0.046634677244967337 0.671418230738282 0 0.1020579365089687 0.69352219419301997 0 0.086179601630648681 0.64647209519980475 0 0.1020579365089687 0.69352219419301997 0 0.046634677244967337 0.671418230738282 0 0.087545339447545459 0.35122518864182262 0 0.046389130980076937 0.32668781832131749 0 0.093851963071650835 0.30582068233324772 0 0.049706944316556423 0.27522722923869108 0 0.093851963071650835 0.30582068233324772 0 0.046389130980076937 0.32668781832131749 0 0.82709327591091286 0.84937141670920724 0 0.80041942726660109 0.81543261647703358 0 0.84725310900444062 0.80779732082917555 0 0.82709327591102189 0.14937141670914489 0 0.80076557130237269 0.1154587552654202 0 0.84725310900442086 0.10779732082922661 0 0.17933913398461551 0.2350063570234002 0 0.14377654328998779 0.2442024734791064 0 0.13737030665753211 0.20313708640667491 0 0.18269480424590959 0.75905448272264375 0 0.1382744753146134 0.79650574229207483 0 0.14335651144331049 0.75565258250209677 0 0.33758650185219202 0.23837101504325639 0 0.3786248352540974 0.27082301512024259 0 0.33402499257867951 0.28911035184473982 0 0.14332333627550789 0.14578431753966009 0 0.18124454140915969 0.18790916706335251 0 0.13737030665753211 0.20313708640667491 0 0.14474682429600511 0.85524784522713515 0 0.1382744753146134 0.79650574229207483 0 0.17777405986036951 0.81832336108265358 0 0.5 0.29999999999999999 0 0.52752007115234678 0.33170632466418198 0 0.49077833859261139 0.35229981449445641 0 0.27866744612395528 0.38416094670951489 0 0.29644548887253103 0.34914008784168082 0 0.33277555741076909 0.36432196682010132 0 0 0.84999999999965292 0 0 0.79999999999999982 0 0.038512288486097702 0.8155852717111195 0 0 0.20000000000083221 0 0 0.15000000000062411 0 0.038512288486115001 0.1844147282893184 0 0.40326160981139969 0.73346192995102844 0 0.35415581127540569 0.73730480045900215 0 0.36622285152418499 0.69092437780804039 0 0.91696753777131557 0.497780560203536 0 0.96228564064454991 0.48206450662049471 0 0.95631871884947484 0.51827533208233789 0 0.33758650185219202 0.23837101504325639 0 0.31255190597181792 0.19850845631528771 0 0.3572130504031617 0.1874703368446563 0 0.59814117807200873 0.23398510860739519 0 0.62657463266645097 0.26524202571255862 0 0.5794309697024993 0.27124795968204829 0 0.34258405725730701 0.4444034294386992 0 0.31068898841644388 0.47541502461811092 0 0.29124338931648802 0.43334555462578611 0 0.38083244760691543 0.38531983672244652 0 0.35221190152536241 0.40457127605439203 0 0.33277555741076909 0.36432196682010132 0 0.083411279318375747 0.91030024466934134 0 0.10266856499240549 0.95548163909968886 0 0.053064897599294662 0.95186845269532028 0 0.083411279318303222 0.089699755330707398 0 0.053064897599215843 0.048131547304697528 0 0.10266856499169109 0.044518360900210059 0 0.42377727103934271 0.25099357235810238 0 0.4604742573284204 0.27846934318264788 0 0.41914690343363781 0.30688979866601612 0 0.28307294598219601 0.50789252727458634 0 0.25982634974572738 0.46097799597715272 0 0.31068898841644388 0.47541502461811092 0 0.29348325746214782 0.31350119524708198 0 0.29132859388405002 0.27203693976649962 0 0.33402499257867951 0.28911035184473982 0 0.35312867752657662 0.084946736076730367 0 0.39823268594401579 0.1116623613130045 0 0.36246644853392812 0.1399454205365751 0 0.7000000000006934 1 0 0.68015064798562208 0.95924320340003011 0 0.7250000000005199 0.94981617647078953 0 0.42377727103934271 0.25099357235810238 0 0.38831533174504851 0.2189834941785925 0 0.42905200079338551 0.19982395548231649 0 0.53823865529665704 0.45873898050322898 0 0.57744073070774993 0.41535148636609359 0 0.57975577671020095 0.46172033326338591 0 0.33758650185219202 0.23837101504325639 0 0.3572130504031617 0.1874703368446563 0 0.38831533174504851 0.2189834941785925 0 0.29124338931648802 0.43334555462578611 0 0.31068898841644388 0.47541502461811092 0 0.25982634974572738 0.46097799597715272 0 0.6084546825910605 0.37989672713932537 0 0.61959173890754571 0.33832250091341232 0 0.65481233915350323 0.35652751921065562 0 0.40326160981139969 0.73346192995102844 0 0.43323420005758778 0.6913544522562407 0 0.45582236402875981 0.73896743678908217 0 0.33758650185219202 0.23837101504325639 0 0.28040350263641872 0.23054717217092141 0 0.31255190597181792 0.19850845631528771 0 0.79999999999999982 1 0 0.75000000000034661 1 0 0.770759834363826 0.95919399014344442 0 0.74999999999999989 0.29999999999999999 0 0.77075983436335049 0.25919399014334171 0 0.79999999999999982 0.29999999999999999 0 0.6499999999999998 0.29999999999999999 0 0.67933712972090698 0.25920070958121938 0 0.69999999999999984 0.29999999999999999 0 0.39536230704883951 0.84069429572832477 0 0.39767323751400468 0.89584229130535065 0 0.35864759629805099 0.87963482415279515 0 0.54999999999999993 0.69999999999999996 0 0.52584555706968406 0.66664215091846768 0 0.57484956128872922 0.66573805030881994 0 0.35312867752657662 0.084946736076730367 0 0.32541448401678508 0.046215317981507749 0 0.3615861437013822 0.03582617922508851 0 0.35752321586431363 0.9185439911803448 0 0.36184234618600131 0.96443954459096326 0 0.32544832635163229 0.95485394099568932 0 0.35312867752657662 0.084946736076730367 0 0.3615861437013822 0.03582617922508851 0 0.39591832466117061 0.056982757562006353 0 0.35752321586431363 0.9185439911803448 0 0.39641108128798319 0.94356127926187128 0 0.36184234618600131 0.96443954459096326 0 0.083411279318303222 0.089699755330707398 0 0.044310582753132287 0.101412518374475 0 0.053064897599215843 0.048131547304697528 0 0.083411279318375747 0.91030024466934134 0 0.053064897599294662 0.95186845269532028 0 0.0443105827531413 0.89858748162559932 0 0.38083244760691543 0.38531983672244652 0 0.40076539126862748 0.34589349467022118 0 0.42161023666869668 0.39493916313643851 0 0.4409427642593301 0.35743108089689513 0 0.42161023666869668 0.39493916313643851 0 0.40076539126862748 0.34589349467022118 0 0.79999999999999982 0.29999999999999999 0 0.82500000000000062 0.33010209762754811 0 0.78145581580700685 0.34881365920033602 0 0.79999999999999982 0.69999999999999996 0 0.7750489929959945 0.66593931409600093 0 0.82457059160610424 0.66831947184359608 0 0.59999999999999976 0.69999999999999996 0 0.57484956128872922 0.66573805030881994 0 0.62460753523532009 0.66851202781000296 0 0.74999999999999989 0.69999999999999996 0 0.72500000000000064 0.67022701834392062 0 0.7750489929959945 0.66593931409600093 0 0.74999999999999989 0.29999999999999999 0 0.78145581580700685 0.34881365920033602 0 0.73090396928863699 0.33699297293167962 0 0.33758650185219202 0.23837101504325639 0 0.33402499257867951 0.28911035184473982 0 0.29132859388405002 0.27203693976649962 0 0.36575549820117997 0.31677992835137742 0 0.41914690343363781 0.30688979866601612 0 0.40076539126862748 0.34589349467022118 0 0.4409427642593301 0.35743108089689513 0 0.40076539126862748 0.34589349467022118 0 0.41914690343363781 0.30688979866601612 0 0.34258405725730701 0.4444034294386992 0 0.38707855792647411 0.42299362914874578 0 0.3908716102680424 0.47010282357248828 0 0.7000000000006934 1 0 0.65000000000104008 1 0 0.68015064798562208 0.95924320340003011 0 0.49102375406324739 0.49123754822244059 0 0.46111841286828259 0.46690301029591341 0 0.48858720058566618 0.43964267759203868 0 0.4656888918609538 0.78493261229743638 0 0.42676259796334498 0.76772545931379299 0 0.45582236402875981 0.73896743678908217 0 0.40326160981139969 0.73346192995102844 0 0.45582236402875981 0.73896743678908217 0 0.42676259796334498 0.76772545931379299 0 0.59999999999999976 0.29999999999999999 0 0.62657463266645097 0.26524202571255862 0 0.6499999999999998 0.29999999999999999 0 0.40000000000166441 1 0 0.36184234618600131 0.96443954459096326 0 0.39641108128798319 0.94356127926187128 0 0.3999999999989749 0 0 0.39591832466117061 0.056982757562006353 0 0.3615861437013822 0.03582617922508851 0 0.43249999999999988 0.43937499999999979 0 0.48858720058566618 0.43964267759203868 0 0.46111841286828259 0.46690301029591341 0 0.7250000000005199 0.89375000000045834 0 0.7250000000005199 0.94981617647078953 0 0.68987011941058407 0.92105047536677087 0 0.7250000000005199 0.89375000000045834 0 0.75729602384198635 0.92353652857884294 0 0.7250000000005199 0.94981617647078953 0 0.72500000000001008 0.19776155966387679 0 0.75668890529066124 0.2244279804069782 0 0.72500000000000064 0.2498161764706 0 0.72500000000001008 0.19776155966387679 0 0.72500000000000064 0.2498161764706 0 0.69397719155551807 0.2245125647000914 0 0.79999999999999982 0.29999999999999999 0 0.81486180804364938 0.26321394949780091 0 0.84999999999999987 0.29999999999999999 0 0.84999999999965292 1 0 0.79999999999999982 1 0 0.81486180804382891 0.96321394949790495 0 0.1247745017231483 0.27198077544791172 0 0.095326043202144745 0.24554465089224409 0 0.14377654328998779 0.2442024734791064 0 0.1215415378367805 0.72939333680004137 0 0.14335651144331049 0.75565258250209677 0 0.090953281884486245 0.7564451946902494 0 0.72500000000001008 0.19776155966387679 0 0.72634814642510737 0.16106886917518889 0 0.76587607630038135 0.18880039518954719 0 0.72500000000001008 0.19776155966387679 0 0.6865991819015953 0.189116534044597 0 0.72634814642510737 0.16106886917518889 0 0.77144070960558853 0.14311854477243749 0 0.76587607630038135 0.18880039518954719 0 0.72634814642510737 0.16106886917518889 0 0.68391457121233579 0.14440470121196541 0 0.72634814642510737 0.16106886917518889 0 0.6865991819015953 0.189116534044597 0 0.7250000000005199 0.89375000000045834 0 0.72863726579783861 0.85390518901155588 0 0.76891166905518427 0.88835469571185499 0 0.76901770135486491 0.84293557325473656 0 0.76891166905518427 0.88835469571185499 0 0.72863726579783861 0.85390518901155588 0 0 0.20000000000083221 0 0.038512288486115001 0.1844147282893184 0 0.044081577119474857 0.2271058242433576 0 0 0.79999999999999982 0 0.04408157711937423 0.7728941757575627 0 0.038512288486097702 0.8155852717111195 0 0.52375890611712683 0.059318771819432882 0 0.47881186583059909 0.093591717165689425 0 0.47040171442036788 0.044141676406503738 0 0.52122150208832174 0.94089974453840242 0 0.47135117303824892 0.95556877749289892 0 0.47401147028110507 0.91529957330468115 0 0.27474541102162192 0.11822029332053539 0 0.3096713403101819 0.085471541595262421 0 0.32215584939770009 0.1218492143506909 0 0.22278230690790279 0.44824268025881547 0 0.24049127783545701 0.41270748208749802 0 0.25982634974572738 0.46097799597715272 0 0.93732437411268477 0.55911392101136159 0 0.91143117093204207 0.58709913730335972 0 0.90900154012161016 0.53607784105648792 0 0.19901705110390991 0.9175543425573498 0 0.24536017905392571 0.90704567837671446 0 0.22850979588452081 0.95594428570238643 0 0.27609987656793722 0.94991445621608572 0 0.22850979588452081 0.95594428570238643 0 0.24536017905392571 0.90704567837671446 0 0.15720202157091859 0.60665697304410315 0 0.1241190223511371 0.64391885572885044 0 0.1024350934457823 0.60772393977513839 0 0.6499999999999998 0.69999999999999996 0 0.675261390228442 0.65996937624687813 0 0.69999999999999984 0.69999999999999996 0 0.3999999999989749 0 0 0.4320097814748517 0.037406712692169303 0 0.39591832466117061 0.056982757562006353 0 0.40000000000166441 1 0 0.39641108128798319 0.94356127926187128 0 0.4308986359464303 0.96395712492906194 0 0.54999999999999993 0.29999999999999999 0 0.56836770495988642 0.3523062350852913 0 0.52752007115234678 0.33170632466418198 0 0.14474682429600511 0.85524784522713515 0 0.17777405986036951 0.81832336108265358 0 0.19741632902693801 0.86755867406447229 0 0.21858834311891909 0.81980263716112767 0 0.19741632902693801 0.86755867406447229 0 0.17777405986036951 0.81832336108265358 0 0.54782696902220018 0.79245182748204157 0 0.50731287292894423 0.78963574450233831 0 0.50945740445113552 0.75476055527778108 0 0.20000000000083221 1 0 0.18474005699953849 0.96231585248064622 0 0.22850979588452081 0.95594428570238643 0 0.19999999999955789 0 0 0.22668068146512929 0.045875643423131329 0 0.184418230509967 0.038773194583122873 0 0.77846603114747959 0.49850927265137401 0 0.73947346780852752 0.49062440112282169 0 0.77972660463949339 0.45529290596363098 0 0.73483647259922602 0.44789725365921768 0 0.77972660463949339 0.45529290596363098 0 0.73947346780852752 0.49062440112282169 0 0.34258405725730701 0.4444034294386992 0 0.35024835142131061 0.48654922671676981 0 0.31068898841644388 0.47541502461811092 0 0.33123028043633618 0.77629643437932982 0 0.2792923945214143 0.77665808831789485 0 0.29904318922293632 0.74132814928635593 0 0.26573297623774761 0.59828298563722948 0 0.25115337790845271 0.54719303014923271 0 0.29110487519241501 0.56588143995431495 0 0.4656888918609538 0.78493261229743638 0 0.50945740445113552 0.75476055527778108 0 0.50731287292894423 0.78963574450233831 0 0.35312867752657662 0.084946736076730367 0 0.36246644853392812 0.1399454205365751 0 0.32215584939770009 0.1218492143506909 0 0.29348325746214782 0.31350119524708198 0 0.25966125648670141 0.34351016742083729 0 0.24432083401701241 0.3006253385567515 0 0.59999999999999976 0.69999999999999996 0 0.6499999999999998 0.69999999999999996 0 0.63221990677827677 0.73442891067859706 0 0.69999999999921003 0 0 0.7010294155333181 0.056779085686491267 0 0.66369801598854572 0.036327466368102787 0 0.40000000000166441 1 0 0.35000000000145642 1 0 0.36184234618600131 0.96443954459096326 0 0.34999999999912063 0 0 0.3999999999989749 0 0 0.3615861437013822 0.03582617922508851 0 0.43507373378304309 0.49699695397193322 0 0.47793794143994173 0.52940715638744962 0 0.42644501560315817 0.54603747078095544 0 0.14474682429600511 0.85524784522713515 0 0.19741632902693801 0.86755867406447229 0 0.16206583317966519 0.89685560785156404 0 0.19901705110390991 0.9175543425573498 0 0.16206583317966519 0.89685560785156404 0 0.19741632902693801 0.86755867406447229 0 0.35864735590330371 0.63903383440414463 0 0.3977710372045391 0.65868194622830212 0 0.36622285152418499 0.69092437780804039 0 0.7527966693318906 0.053051678021508272 0 0.7010294155333181 0.056779085686491267 0 0.72683645290270404 0.027797073151180601 0 0.71508799138962864 0.36622814920737751 0 0.72622533758026719 0.40265885511101601 0 0.68128176404677243 0.38629093627004979 0 0.79999999999999982 0.69999999999999996 0 0.84999999999999987 0.69999999999999996 0 0.81864958914779962 0.73589050177899629 0 0.79999999999947335 0 0 0.84999999999960507 0 0 0.81864958914740749 0.035890501779055867 0 0.39536230704883951 0.84069429572832477 0 0.35642984951668422 0.80994399665655703 0 0.38586766253264881 0.78219501014812498 0 0.42377727103934271 0.25099357235810238 0 0.46429753744194407 0.22870891180733599 0 0.4604742573284204 0.27846934318264788 0 0.39801143831225599 0.16651381068160659 0 0.42905200079338551 0.19982395548231649 0 0.38831533174504851 0.2189834941785925 0 0.79999999999999982 1 0 0.770759834363826 0.95919399014344442 0 0.81486180804382891 0.96321394949790495 0 0.79999999999999982 0.29999999999999999 0 0.77075983436335049 0.25919399014334171 0 0.81486180804364938 0.26321394949780091 0 0.25195515620380449 0.25883339815888678 0 0.21049769590865089 0.26857363548218488 0 0.224700362040408 0.22206622194729711 0 0.40326160981139969 0.73346192995102844 0 0.42676259796334498 0.76772545931379299 0 0.38586766253264881 0.78219501014812498 0 0.35312867752657662 0.084946736076730367 0 0.3096713403101819 0.085471541595262421 0 0.32541448401678508 0.046215317981507749 0 0.59999999999999976 0.29999999999999999 0 0.6499999999999998 0.29999999999999999 0 0.61959173890754571 0.33832250091341232 0 0.2185883431182947 0.18019736283949719 0 0.18652628422869419 0.14162325200928061 0 0.22985637510995899 0.1298347970200906 0 0.64999999999907843 0 0 0.69999999999921003 0 0 0.66369801598854572 0.036327466368102787 0 0.27499999999933927 0.060310814194988557 0 0.24218496799700481 0.089025544070598317 0 0.22668068146512929 0.045875643423131329 0 0.19922788606653311 0.085920220746880993 0 0.22668068146512929 0.045875643423131329 0 0.24218496799700481 0.089025544070598317 0 0.65507451745379841 0.92229208810758578 0 0.66412543161245952 0.88015090885499059 0 0.68987011941058407 0.92105047536677087 0 0.049706944316475897 0.72477277076253799 0 0.090953281884486245 0.7564451946902494 0 0.04408157711937423 0.7728941757575627 0 0.083105206071452636 0.79992298667296435 0 0.04408157711937423 0.7728941757575627 0 0.090953281884486245 0.7564451946902494 0 0.083105206071467416 0.20007701332709979 0 0.095326043202144745 0.24554465089224409 0 0.044081577119474857 0.2271058242433576 0 0.049706944316556423 0.27522722923869108 0 0.044081577119474857 0.2271058242433576 0 0.095326043202144745 0.24554465089224409 0 0.36575549820117997 0.31677992835137742 0 0.33402499257867951 0.28911035184473982 0 0.3786248352540974 0.27082301512024259 0 0.53245488764484505 0.55078124999999989 0 0.53330375813596242 0.50827942741749099 0 0.57435499076887508 0.54267261987897775 0 0.57611405284611883 0.50165903596042916 0 0.57435499076887508 0.54267261987897775 0 0.53330375813596242 0.50827942741749099 0 0.6499999999999998 0.29999999999999999 0 0.69999999999999984 0.29999999999999999 0 0.68887083591306764 0.33632058575757479 0 0.57611405284611883 0.50165903596042916 0 0.53823865529665704 0.45873898050322898 0 0.57975577671020095 0.46172033326338591 0 0.7750489929959945 0.66593931409600093 0 0.72500000000000064 0.67022701834392062 0 0.74994237037456724 0.62775548192980357 0 0.78145581580700685 0.34881365920033602 0 0.74764719760526988 0.3719647154012321 0 0.73090396928863699 0.33699297293167962 0 0.3999999999989749 0 0 0.44999999999882923 0 0 0.4320097814748517 0.037406712692169303 0 0.45000000000187229 1 0 0.40000000000166441 1 0 0.4308986359464303 0.96395712492906194 0 0.57484956128872922 0.66573805030881994 0 0.5991018319127801 0.62925360607495295 0 0.62460753523532009 0.66851202781000296 0 0.7750489929959945 0.66593931409600093 0 0.79884539758237771 0.62875045078114233 0 0.82457059160610424 0.66831947184359608 0 0.39801143831225599 0.16651381068160659 0 0.36246644853392812 0.1399454205365751 0 0.39823268594401579 0.1116623613130045 0 0.078358742472063481 0.43365249433908948 0 0.033550201249889847 0.46247875832467239 0 0.035463093262830522 0.42673416072819947 0 0.25676291524611189 0.7436741304886243 0 0.2792923945214143 0.77665808831789485 0 0.22556077506376701 0.77837424984191617 0 0.2236846579037573 0.67380363126050236 0 0.2248999640082178 0.72584299459689172 0 0.19068556247388771 0.71028988922845504 0 0.50715858906372158 0.63295939104129484 0 0.5166924242153631 0.59825134841919447 0 0.5498280205245758 0.6290146943450976 0 0.14618258501891079 0.062070108745602003 0 0.12372429750337779 0.095814237875728972 0 0.10266856499169109 0.044518360900210059 0 0.083411279318303222 0.089699755330707398 0 0.10266856499169109 0.044518360900210059 0 0.12372429750337779 0.095814237875728972 0 0.083411279318375747 0.91030024466934134 0 0.1241151115713819 0.9045666525468371 0 0.10266856499240549 0.95548163909968886 0 0.14617343800780541 0.93808063414349496 0 0.10266856499240549 0.95548163909968886 0 0.1241151115713819 0.9045666525468371 0 0.5499999999988151 0 0 0.59999999999894682 0 0 0.57396793757665954 0.037011367187645222 0 0.54782696902220018 0.79245182748204157 0 0.50627822638148745 0.8263979829520941 0 0.50731287292894423 0.78963574450233831 0 0.6499999999999998 0.29999999999999999 0 0.62657463266645097 0.26524202571255862 0 0.67933712972090698 0.25920070958121938 0 0.86956835336234861 0.571283299838105 0 0.86907294890112186 0.52008116128001669 0 0.90900154012161016 0.53607784105648792 0 0.17933913398461551 0.2350063570234002 0 0.224700362040408 0.22206622194729711 0 0.21049769590865089 0.26857363548218488 0 0.43249999999999988 0.43937499999999979 0 0.3908716102680424 0.47010282357248828 0 0.38707855792647411 0.42299362914874578 0 0.27474541102162192 0.11822029332053539 0 0.22985637510995899 0.1298347970200906 0 0.24218496799700481 0.089025544070598317 0 0.64753070846764316 0.77332939069435502 0 0.66427993341343905 0.73232764502436276 0 0.6916490518212759 0.75387992374886192 0 0 0.40000000000166441 0 0.050583896093752537 0.38543522283434112 0 0.035463093262830522 0.42673416072819947 0 0.73483647259922602 0.44789725365921768 0 0.73947346780852752 0.49062440112282169 0 0.69385896817107129 0.48377516041410151 0 0.57484956128872922 0.66573805030881994 0 0.52584555706968406 0.66664215091846768 0 0.5498280205245758 0.6290146943450976 0 0.60000000000138687 1 0 0.55000000000173355 1 0 0.57382506491224949 0.9629411906298494 0 0.068743045408989428 0.48853989837882689 0 0.085622222639554768 0.53333248912060549 0 0.044576108720083309 0.53509043209532614 0 0.083105206071467416 0.20007701332709979 0 0.044081577119474857 0.2271058242433576 0 0.038512288486115001 0.1844147282893184 0 0.083105206071452636 0.79992298667296435 0 0.038512288486097702 0.8155852717111195 0 0.04408157711937423 0.7728941757575627 0 0.28307294598219601 0.50789252727458634 0 0.23975172658309729 0.49475499200540818 0 0.25982634974572738 0.46097799597715272 0 0.43698630808430822 0.080423614171545449 0 0.39591832466117061 0.056982757562006353 0 0.4320097814748517 0.037406712692169303 0 0.4367309254023824 0.92065556789053882 0 0.4308986359464303 0.96395712492906194 0 0.39641108128798319 0.94356127926187128 0 0.80185942888539485 0.77452061303608133 0 0.75841349681148107 0.75422312624214749 0 0.78578450296893509 0.73292684821144505 0 0.80185942888501827 0.074520613036224564 0 0.7527966693318906 0.053051678021508272 0 0.78393852574753176 0.032039079577822822 0 0.6499999999999998 0.69999999999999996 0 0.62460753523532009 0.66851202781000296 0 0.675261390228442 0.65996937624687813 0 0.33123028043633618 0.77629643437932982 0 0.38586766253264881 0.78219501014812498 0 0.35642984951668422 0.80994399665655703 0 0.6405463747586706 0.63290524857395714 0 0.675261390228442 0.65996937624687813 0 0.62460753523532009 0.66851202781000296 0 0.22278230690790279 0.44824268025881547 0 0.191953871957803 0.42546416763755879 0 0.24049127783545701 0.41270748208749802 0 0.077693244765132896 0.56932317963405099 0 0.050069554451969707 0.61308520079857043 0 0.034381862692950467 0.57372682250960894 0 0.25195515620380449 0.25883339815888678 0 0.24432083401701241 0.3006253385567515 0 0.21049769590865089 0.26857363548218488 0 0.46666084890304671 0.57634471035397938 0 0.5166924242153631 0.59825134841919447 0 0.47095389620662098 0.61892551373708504 0 0.50715858906372158 0.63295939104129484 0 0.47095389620662098 0.61892551373708504 0 0.5166924242153631 0.59825134841919447 0 0.72525833953073282 0.1032114801687094 0 0.7527966693318906 0.053051678021508272 0 0.76878382444651716 0.097147941686331368 0 0.80185942888501827 0.074520613036224564 0 0.76878382444651716 0.097147941686331368 0 0.7527966693318906 0.053051678021508272 0 0.72500000000000064 0.7952620967744265 0 0.75841349681148107 0.75422312624214749 0 0.77094201086366854 0.79647480515688507 0 0.80185942888539485 0.77452061303608133 0 0.77094201086366854 0.79647480515688507 0 0.75841349681148107 0.75422312624214749 0 0.72500000000000064 0.7952620967744265 0 0.68024162096458085 0.79868546898116533 0 0.6916490518212759 0.75387992374886192 0 0.64753070846764316 0.77332939069435502 0 0.6916490518212759 0.75387992374886192 0 0.68024162096458085 0.79868546898116533 0 0 0.50000000000205869 0 0 0.45000000000187229 0 0.033550201249889847 0.46247875832467239 0 0.69999999999999984 0.69999999999999996 0 0.675261390228442 0.65996937624687813 0 0.72500000000000064 0.67022701834392062 0 0.71406021706547751 0.63292083137662503 0 0.72500000000000064 0.67022701834392062 0 0.675261390228442 0.65996937624687813 0 0.65408113592120842 0.073941773121567966 0 0.61940220174112337 0.047251958781050582 0 0.66369801598854572 0.036327466368102787 0 0.59999999999894682 0 0 0.61940220174112337 0.047251958781050582 0 0.57396793757665954 0.037011367187645222 0 0.60000000000138687 1 0 0.57382506491224949 0.9629411906298494 0 0.62065498684670595 0.95224934003983619 0 0.33122374654748771 0.57588941099433744 0 0.35765792684946668 0.6000687869219653 0 0.31502927232353312 0.6134992213375432 0 0.35864735590330371 0.63903383440414463 0 0.31502927232353312 0.6134992213375432 0 0.35765792684946668 0.6000687869219653 0 0.15801167086041079 0.46008690540259539 0 0.19604738184454831 0.47787523520405789 0 0.16618607197337229 0.50652878253548905 0 0.078358742472063481 0.43365249433908948 0 0.035463093262830522 0.42673416072819947 0 0.050583896093752537 0.38543522283434112 0 0.19901705110390991 0.9175543425573498 0 0.22850979588452081 0.95594428570238643 0 0.18474005699953849 0.96231585248064622 0 0.19922788606653311 0.085920220746880993 0 0.184418230509967 0.038773194583122873 0 0.22668068146512929 0.045875643423131329 0 0.19922788606653311 0.085920220746880993 0 0.24218496799700481 0.089025544070598317 0 0.22985637510995899 0.1298347970200906 0 0.74999999999999989 0.69999999999999996 0 0.78578450296893509 0.73292684821144505 0 0.75841349681148107 0.75422312624214749 0 0.74999999999934175 0 0 0.78393852574753176 0.032039079577822822 0 0.7527966693318906 0.053051678021508272 0 0 0.60000000000138687 0 0.034381862692950467 0.57372682250960894 0 0.050069554451969707 0.61308520079857043 0 0.2236846579037573 0.67380363126050236 0 0.26439878998046262 0.7048065392091396 0 0.2248999640082178 0.72584299459689172 0 0.6236733212988993 0.14864538214901801 0 0.58516465772821369 0.11653801664834119 0 0.61956000905586006 0.1043312481793135 0 0.26104540868854792 0.81401944968719064 0 0.2792923945214143 0.77665808831789485 0 0.30857225866488791 0.81101973481716805 0 0.42377727103934271 0.25099357235810238 0 0.42905200079338551 0.19982395548231649 0 0.46429753744194407 0.22870891180733599 0 0.27820712747429932 0.65530134213254643 0 0.31502927232353312 0.6134992213375432 0 0.32263089806001177 0.66003674931826484 0 0.61343887413683884 0.856862479058357 0 0.61885627562261258 0.90282959257498208 0 0.5832743223239254 0.88483152652961872 0 0.43698630808430822 0.080423614171545449 0 0.47040171442036788 0.044141676406503738 0 0.47881186583059909 0.093591717165689425 0 0.4367309254023824 0.92065556789053882 0 0.47401147028110507 0.91529957330468115 0 0.47135117303824892 0.95556877749289892 0 0.91696753777131557 0.497780560203536 0 0.95631871884947484 0.51827533208233789 0 0.90900154012161016 0.53607784105648792 0 0.93732437411268477 0.55911392101136159 0 0.90900154012161016 0.53607784105648792 0 0.95631871884947484 0.51827533208233789 0 0.27474541102162192 0.11822029332053539 0 0.25557216766470708 0.15874861286892261 0 0.22985637510995899 0.1298347970200906 0 0.2185883431182947 0.18019736283949719 0 0.22985637510995899 0.1298347970200906 0 0.25557216766470708 0.15874861286892261 0 0.29348325746214782 0.31350119524708198 0 0.33402499257867951 0.28911035184473982 0 0.32752639306529541 0.32610012995269699 0 0.27499999999933927 0.060310814194988557 0 0.32541448401678508 0.046215317981507749 0 0.3096713403101819 0.085471541595262421 0 0.27270076654418179 0.87751467830216623 0 0.24536017905392571 0.90704567837671446 0 0.2401283238295133 0.85648409884788523 0 1 0.44999999999963131 0 1 0.49999999999950101 0 0.96228564064454991 0.48206450662049471 0 0.61343887413683884 0.856862479058357 0 0.66412543161245952 0.88015090885499059 0 0.61885627562261258 0.90282959257498208 0 0 0.45000000000187229 0 0 0.40000000000166441 0 0.035463093262830522 0.42673416072819947 0 0.69999999999999984 0.69999999999999996 0 0.6916490518212759 0.75387992374886192 0 0.66427993341343905 0.73232764502436276 0 0.43846182030517877 0.64845797726506715 0 0.43323420005758778 0.6913544522562407 0 0.3977710372045391 0.65868194622830212 0 0.4367309254023824 0.92065556789053882 0 0.44003836461056539 0.88093474584252718 0 0.47401147028110507 0.91529957330468115 0 0.43846182030517877 0.64845797726506715 0 0.39743091024207589 0.6239520004230239 0 0.43545892161006339 0.61093128915313821 0 0.43846182030517877 0.64845797726506715 0 0.3977710372045391 0.65868194622830212 0 0.39743091024207589 0.6239520004230239 0 0.26429849586623999 0.19346700179430079 0 0.29336099386129338 0.15892013001050981 0 0.31255190597181792 0.19850845631528771 0 0.19670163708476801 0.31472518408333222 0 0.21049769590865089 0.26857363548218488 0 0.24432083401701241 0.3006253385567515 0 0.57724883562309992 0.92155686857100794 0 0.62065498684670595 0.95224934003983619 0 0.57382506491224949 0.9629411906298494 0 0.4409427642593301 0.35743108089689513 0 0.46655310992796922 0.39650496622958609 0 0.42161023666869668 0.39493916313643851 0 0.46666084890304671 0.57634471035397938 0 0.47095389620662098 0.61892551373708504 0 0.43545892161006339 0.61093128915313821 0 0.6879972333610942 0.43038561374960838 0 0.65178832218679827 0.45929119821019959 0 0.63912439215427275 0.41063340167983359 0 0.43698630808430822 0.080423614171545449 0 0.4320097814748517 0.037406712692169303 0 0.47040171442036788 0.044141676406503738 0 0.4367309254023824 0.92065556789053882 0 0.47135117303824892 0.95556877749289892 0 0.4308986359464303 0.96395712492906194 0 0.79680861578988083 0.92656778056766709 0 0.81486180804382891 0.96321394949790495 0 0.770759834363826 0.95919399014344442 0 0.79680861578956375 0.22656778056752541 0 0.81486180804364938 0.26321394949780091 0 0.77075983436335049 0.25919399014334171 0 0.71508799138962864 0.36622814920737751 0 0.68128176404677243 0.38629093627004979 0 0.68887083591306764 0.33632058575757479 0 0.35864735590330371 0.63903383440414463 0 0.32263089806001177 0.66003674931826484 0 0.31502927232353312 0.6134992213375432 0 0.21858834311891909 0.81980263716112767 0 0.2401283238295133 0.85648409884788523 0 0.19741632902693801 0.86755867406447229 0 0.35312867752657662 0.084946736076730367 0 0.32215584939770009 0.1218492143506909 0 0.3096713403101819 0.085471541595262421 0 0.35752321586431363 0.9185439911803448 0 0.35864759629805099 0.87963482415279515 0 0.39767323751400468 0.89584229130535065 0 0.41914690343363781 0.30688979866601612 0 0.4604742573284204 0.27846934318264788 0 0.46226845272279993 0.31901800744800313 0 0.33084213324567391 0.16272720141332131 0 0.32215584939770009 0.1218492143506909 0 0.36246644853392812 0.1399454205365751 0 0.46666084890304671 0.57634471035397938 0 0.42644501560315817 0.54603747078095544 0 0.47793794143994173 0.52940715638744962 0 0 0.60000000000138687 0 0 0.55000000000173355 0 0.034381862692950467 0.57372682250960894 0 0.77354604466818633 0.40378688774472771 0 0.74764719760526988 0.3719647154012321 0 0.78145581580700685 0.34881365920033602 0 0.34999999999912063 0 0 0.3615861437013822 0.03582617922508851 0 0.32541448401678508 0.046215317981507749 0 0.35000000000145642 1 0 0.32544832635163229 0.95485394099568932 0 0.36184234618600131 0.96443954459096326 0 0.57667858002728545 0.078486105337742612 0 0.57396793757665954 0.037011367187645222 0 0.61940220174112337 0.047251958781050582 0 0.47357141910802508 0.1873585799078378 0 0.50760557329222289 0.20700468884612061 0 0.46429753744194407 0.22870891180733599 0 0.49695729691142171 0.25014895411178018 0 0.46429753744194407 0.22870891180733599 0 0.50760557329222289 0.20700468884612061 0 0.33084213324567391 0.16272720141332131 0 0.3572130504031617 0.1874703368446563 0 0.31255190597181792 0.19850845631528771 0 0.6879972333610942 0.43038561374960838 0 0.63912439215427275 0.41063340167983359 0 0.68128176404677243 0.38629093627004979 0 0.65408113592120842 0.073941773121567966 0 0.65290632656860115 0.11434202593454081 0 0.61956000905586006 0.1043312481793135 0 0.33084213324567391 0.16272720141332131 0 0.31255190597181792 0.19850845631528771 0 0.29336099386129338 0.15892013001050981 0 0.61209567303293111 0.44669033081290321 0 0.63912439215427275 0.41063340167983359 0 0.65178832218679827 0.45929119821019959 0 0.086179601630648681 0.64647209519980475 0 0.1024350934457823 0.60772393977513839 0 0.1241190223511371 0.64391885572885044 0 0.44999999999882923 0 0 0.47040171442036788 0.044141676406503738 0 0.4320097814748517 0.037406712692169303 0 0.45000000000187229 1 0 0.4308986359464303 0.96395712492906194 0 0.47135117303824892 0.95556877749289892 0 0.74999999999934175 0 0 0.7527966693318906 0.053051678021508272 0 0.72683645290270404 0.027797073151180601 0 0.74999999999999989 0.69999999999999996 0 0.75841349681148107 0.75422312624214749 0 0.72501250972655151 0.74067302935308721 0 0.69999999999999984 0.69999999999999996 0 0.72501250972655151 0.74067302935308721 0 0.6916490518212759 0.75387992374886192 0 0.74999999999934175 0 0 0.79999999999947335 0 0 0.78393852574753176 0.032039079577822822 0 0.74999999999999989 0.69999999999999996 0 0.79999999999999982 0.69999999999999996 0 0.78578450296893509 0.73292684821144505 0 0.6405463747586706 0.63290524857395714 0 0.5991018319127801 0.62925360607495295 0 0.63065402604362242 0.59661356661633302 0 0.65481233915350323 0.35652751921065562 0 0.68887083591306764 0.33632058575757479 0 0.68128176404677243 0.38629093627004979 0 0.89999999999999991 0.29999999999999999 0 0.94999999999999996 0.29999999999999999 0 0.92012390126144183 0.33123581297173937 0 0.89999999999999991 0.69999999999999996 0 0.92057473616084773 0.66770436535372446 0 0.94999999999999996 0.69999999999999996 0 0.4367309254023824 0.92065556789053882 0 0.39767323751400468 0.89584229130535065 0 0.44003836461056539 0.88093474584252718 0 0.2185883431182947 0.18019736283949719 0 0.18124454140915969 0.18790916706335251 0 0.18652628422869419 0.14162325200928061 0 0.20050006573841939 0.53248514016039872 0 0.19604738184454831 0.47787523520405789 0 0.23975172658309729 0.49475499200540818 0 0.65507451745379841 0.92229208810758578 0 0.61885627562261258 0.90282959257498208 0 0.66412543161245952 0.88015090885499059 0 0.65394964615507722 0.22666784374016369 0 0.67933712972090698 0.25920070958121938 0 0.62657463266645097 0.26524202571255862 0 0.077693244765132896 0.56932317963405099 0 0.034381862692950467 0.57372682250960894 0 0.044576108720083309 0.53509043209532614 0 0.39801143831225599 0.16651381068160659 0 0.38831533174504851 0.2189834941785925 0 0.3572130504031617 0.1874703368446563 0 0.6499999999999998 0.69999999999999996 0 0.69999999999999984 0.69999999999999996 0 0.66427993341343905 0.73232764502436276 0 0.1215415378367805 0.72939333680004137 0 0.15332765547575641 0.71200081858233666 0 0.14335651144331049 0.75565258250209677 0 0.6405463747586706 0.63290524857395714 0 0.63065402604362242 0.59661356661633302 0 0.67529834988829951 0.61613270668143583 0 0.67323294229744413 0.57556450033612505 0 0.67529834988829951 0.61613270668143583 0 0.63065402604362242 0.59661356661633302 0 0.91750694127107502 0.36982372220068471 0 0.87430060258887643 0.34056085888204451 0 0.92012390126144183 0.33123581297173937 0 0.89999999999999991 0.29999999999999999 0 0.92012390126144183 0.33123581297173937 0 0.87430060258887643 0.34056085888204451 0 0.89999999999999991 0.69999999999999996 0 0.87712158428786946 0.65709029563313581 0 0.92057473616084773 0.66770436535372446 0 0.91750694127105259 0.63017627779935648 0 0.92057473616084773 0.66770436535372446 0 0.87712158428786946 0.65709029563313581 0 0.33122374654748771 0.57588941099433744 0 0.29110487519241501 0.56588143995431495 0 0.33190227185843768 0.52715113583864037 0 0.57484956128872922 0.66573805030881994 0 0.5498280205245758 0.6290146943450976 0 0.5991018319127801 0.62925360607495295 0 0.57412547362576272 0.58273804879550706 0 0.5991018319127801 0.62925360607495295 0 0.5498280205245758 0.6290146943450976 0 0.65408113592120842 0.073941773121567966 0 0.66369801598854572 0.036327466368102787 0 0.7010294155333181 0.056779085686491267 0 0.27474541102162192 0.11822029332053539 0 0.32215584939770009 0.1218492143506909 0 0.29336099386129338 0.15892013001050981 0 0.33084213324567391 0.16272720141332131 0 0.29336099386129338 0.15892013001050981 0 0.32215584939770009 0.1218492143506909 0 0.5 0.29999999999999999 0 0.54999999999999993 0.29999999999999999 0 0.52752007115234678 0.33170632466418198 0 0.83573492347052902 0.36590755630746369 0 0.87430060258887643 0.34056085888204451 0 0.86844634540301924 0.38530937474099819 0 0.83758014339878906 0.63222013025741819 0 0.87159648282691515 0.61285406320581504 0 0.87712158428786946 0.65709029563313581 0 0.22278230690790279 0.44824268025881547 0 0.23975172658309729 0.49475499200540818 0 0.19604738184454831 0.47787523520405789 0 1 0.49999999999950101 0 0.95631871884947484 0.51827533208233789 0 0.96228564064454991 0.48206450662049471 0 0.1650278706801647 0.38791388161335733 0 0.13773355295499351 0.42497777642586831 0 0.1117088112799664 0.38831403004970022 0 0.61209567303293111 0.44669033081290321 0 0.57975577671020095 0.46172033326338591 0 0.57744073070774993 0.41535148636609359 0 0.077693244765132896 0.56932317963405099 0 0.1154888278694548 0.56733818459978413 0 0.1024350934457823 0.60772393977513839 0 0.68697391633157634 0.84450604838764298 0 0.65005442820240822 0.82644988530054031 0 0.68024162096458085 0.79868546898116533 0 0.76901770135486491 0.84293557325473656 0 0.77094201086366854 0.79647480515688507 0 0.80041942726660109 0.81543261647703358 0 0.77144070960558853 0.14311854477243749 0 0.76878382444651716 0.097147941686331368 0 0.80076557130237269 0.1154587552654202 0 0.5 0.69999999999999996 0 0.52584555706968406 0.66664215091846768 0 0.54999999999999993 0.69999999999999996 0 0.077693244765132896 0.56932317963405099 0 0.044576108720083309 0.53509043209532614 0 0.085622222639554768 0.53333248912060549 0 0.69999999999921003 0 0 0.72683645290270404 0.027797073151180601 0 0.7010294155333181 0.056779085686491267 0 1 0 0 0.97166519676946894 0.033371144900598393 0 0.94999999999986839 0 0 1 0.69999999999999996 0 0.97166519676947294 0.73337114490064459 0 0.94999999999999996 0.69999999999999996 0 1 0.69999999999999996 0 1 0.74999999999993494 0 0.97166519676947294 0.73337114490064459 0 1 0.29999999999999999 0 0.97166519676951801 0.26662885509932011 0 1 0.24999999999987299 0 1 1 0 0.94999999999979179 1 0 0.97166519676946206 0.96662885509935492 0 1 0 0 1 0.049999999999896842 0 0.97166519676946894 0.033371144900598393 0 1 0.29999999999999999 0 0.94999999999999996 0.29999999999999999 0 0.97166519676951801 0.26662885509932011 0 1 1 0 0.97166519676946206 0.96662885509935492 0 1 0.94999999999997109 0 0 0.55000000000173355 0 0.044576108720083309 0.53509043209532614 0 0.034381862692950467 0.57372682250960894 0 0.6879972333610942 0.43038561374960838 0 0.69385896817107129 0.48377516041410151 0 0.65178832218679827 0.45929119821019959 0 0.33084213324567391 0.16272720141332131 0 0.36246644853392812 0.1399454205365751 0 0.3572130504031617 0.1874703368446563 0 0.65408113592120842 0.073941773121567966 0 0.68330259535470161 0.10038702501083881 0 0.65290632656860115 0.11434202593454081 0 0.16500388252850301 0.66612077714085194 0 0.19068556247388771 0.71028988922845504 0 0.15332765547575641 0.71200081858233666 0 0.82709327591091286 0.84937141670920724 0 0.85600844944837662 0.88483418979512773 0 0.81159157511211755 0.88795995483179491 0 0.82709327591102189 0.14937141670914489 0 0.85600844944842547 0.1848341897950983 0 0.81283102246527783 0.1881007222486438 0 0.79999999999999982 0.29999999999999999 0 0.84999999999999987 0.29999999999999999 0 0.82500000000000062 0.33010209762754811 0 0.79999999999999982 0.69999999999999996 0 0.82457059160610424 0.66831947184359608 0 0.84999999999999987 0.69999999999999996 0 0.59999999999999976 0.69999999999999996 0 0.62460753523532009 0.66851202781000296 0 0.6499999999999998 0.69999999999999996 0 0.39801143831225599 0.16651381068160659 0 0.3572130504031617 0.1874703368446563 0 0.36246644853392812 0.1399454205365751 0 0.69999999999999984 0.29999999999999999 0 0.74999999999999989 0.29999999999999999 0 0.73090396928863699 0.33699297293167962 0 0.69999999999999984 0.69999999999999996 0 0.72500000000000064 0.67022701834392062 0 0.74999999999999989 0.69999999999999996 0 0.6236733212988993 0.14864538214901801 0 0.64011864159029941 0.18789607982138171 0 0.59443395090188023 0.18455690917515069 0 0.20050006573841939 0.53248514016039872 0 0.16618607197337229 0.50652878253548905 0 0.19604738184454831 0.47787523520405789 0 0.79680861578956375 0.22656778056752541 0 0.76587607630038135 0.18880039518954719 0 0.81283102246527783 0.1881007222486438 0 0.79680861578988083 0.92656778056766709 0 0.76891166905518427 0.88835469571185499 0 0.81159157511211755 0.88795995483179491 0 0.71406021706547751 0.63292083137662503 0 0.675261390228442 0.65996937624687813 0 0.67529834988829951 0.61613270668143583 0 0.6405463747586706 0.63290524857395714 0 0.67529834988829951 0.61613270668143583 0 0.675261390228442 0.65996937624687813 0 0.19670163708476801 0.31472518408333222 0 0.168349569971391 0.28054490850913671 0 0.21049769590865089 0.26857363548218488 0 0.47357141910802508 0.1873585799078378 0 0.46429753744194407 0.22870891180733599 0 0.42905200079338551 0.19982395548231649 0 0.59814117807200873 0.23398510860739519 0 0.5794309697024993 0.27124795968204829 0 0.54248833945060504 0.2520322959927106 0 0.6541250972820879 0.49999999999999989 0 0.65178832218679827 0.45929119821019959 0 0.69385896817107129 0.48377516041410151 0 0.54999999999999993 0.29999999999999999 0 0.5794309697024993 0.27124795968204829 0 0.59999999999999976 0.29999999999999999 0 0.7750489929959945 0.66593931409600093 0 0.74994237037456724 0.62775548192980357 0 0.79884539758237771 0.62875045078114233 0 0.77293540622714185 0.59448302402785813 0 0.79884539758237771 0.62875045078114233 0 0.74994237037456724 0.62775548192980357 0 0.14332333627550789 0.14578431753966009 0 0.16141998738593399 0.10404039647458049 0 0.18652628422869419 0.14162325200928061 0 0.38083244760691543 0.38531983672244652 0 0.42161023666869668 0.39493916313643851 0 0.38707855792647411 0.42299362914874578 0 0.43249999999999988 0.43937499999999979 0 0.38707855792647411 0.42299362914874578 0 0.42161023666869668 0.39493916313643851 0 0.43846182030517877 0.64845797726506715 0 0.47095389620662098 0.61892551373708504 0 0.47913475093885149 0.66010775372412711 0 0.50715858906372158 0.63295939104129484 0 0.47913475093885149 0.66010775372412711 0 0.47095389620662098 0.61892551373708504 0 0.69999999999999984 0.69999999999999996 0 0.74999999999999989 0.69999999999999996 0 0.72501250972655151 0.74067302935308721 0 0.4089290844030305 0.58728915500154233 0 0.35765792684946668 0.6000687869219653 0 0.37272913873093971 0.56192925302619479 0 0.69999999999921003 0 0 0.74999999999934175 0 0 0.72683645290270404 0.027797073151180601 0 0.17933913398461551 0.2350063570234002 0 0.21049769590865089 0.26857363548218488 0 0.168349569971391 0.28054490850913671 0 0.14474682429600511 0.85524784522713515 0 0.10562472963403439 0.87143394428979881 0 0.1074251789111534 0.83564394292147814 0 0.14332333627550789 0.14578431753966009 0 0.106902708054812 0.16453234188234539 0 0.1053400320299198 0.12877248826361379 0 0.2236846579037573 0.67380363126050236 0 0.19914261668318661 0.62286739485272158 0 0.2459498854893499 0.63248470766216769 0 0.049999999999899652 0 0 0.053064897599215843 0.048131547304697528 0 0.02576622439977887 0.024532886826226379 0 0 0.050000000000207989 0 0.02576622439977887 0.024532886826226379 0 0.053064897599215843 0.048131547304697528 0 0.050000000000207989 1 0 0.025766224399875661 0.97546711317377799 0 0.053064897599294662 0.95186845269532028 0 0 0.94999999999979179 0 0.053064897599294662 0.95186845269532028 0 0.025766224399875661 0.97546711317377799 0 0.47357141910802508 0.1873585799078378 0 0.48466639505193998 0.1421439844745814 0 0.51729576145820033 0.1683240575987815 0 0.077693244765132896 0.56932317963405099 0 0.085622222639554768 0.53333248912060549 0 0.1154888278694548 0.56733818459978413 0 0.64753070846764316 0.77332939069435502 0 0.63221990677827677 0.73442891067859706 0 0.66427993341343905 0.73232764502436276 0 0.4656888918609538 0.78493261229743638 0 0.42609163930740518 0.80361684430568059 0 0.42676259796334498 0.76772545931379299 0 0.4089290844030305 0.58728915500154233 0 0.39743091024207589 0.6239520004230239 0 0.35765792684946668 0.6000687869219653 0 0.55306006949600994 0.20198184231352201 0 0.50760557329222289 0.20700468884612061 0 0.51729576145820033 0.1683240575987815 0 1 0.8999999999998336 0 1 0.94999999999997109 0 0.97435614836744289 0.92499999999990257 0 1 0.19999999999974799 0 1 0.24999999999987299 0 0.97435614836740092 0.22499999999981049 0 1 0.74999999999993494 0 1 0.7999999999998193 0 0.97435614836745565 0.77499999999987745 0 1 0.049999999999896842 0 1 0.099999999999753911 0 0.97435614836748241 0.074999999999825387 0 0.86411095495256451 0.42388805655111889 0 0.86844634540301924 0.38530937474099819 0 0.90594285160987287 0.4141265964174129 0 0.86956835336234861 0.571283299838105 0 0.91143117093204207 0.58709913730335972 0 0.87159648282691515 0.61285406320581504 0 0 0 0 0.02576622439977887 0.024532886826226379 0 0 0.050000000000207989 0 0 1 0 0 0.94999999999979179 0 0.025766224399875661 0.97546711317377799 0 0 1 0 0.025766224399875661 0.97546711317377799 0 0.050000000000207989 1 0 0 0 0 0.049999999999899652 0 0 0.02576622439977887 0.024532886826226379 0 0.65394964615507722 0.22666784374016369 0 0.64011864159029941 0.18789607982138171 0 0.6865991819015953 0.189116534044597 0 0.25195515620380449 0.25883339815888678 0 0.28040350263641872 0.23054717217092141 0 0.29132859388405002 0.27203693976649962 0 0.61209567303293111 0.44669033081290321 0 0.65178832218679827 0.45929119821019959 0 0.61547661924074692 0.48539576058873962 0 0.6541250972820879 0.49999999999999989 0 0.61547661924074692 0.48539576058873962 0 0.65178832218679827 0.45929119821019959 0 0.19670163708476801 0.31472518408333222 0 0.24432083401701241 0.3006253385567515 0 0.22615676742807109 0.33458786033114157 0 0.15801167086041079 0.46008690540259539 0 0.13773355295499351 0.42497777642586831 0 0.191953871957803 0.42546416763755879 0 0.1650278706801647 0.38791388161335733 0 0.191953871957803 0.42546416763755879 0 0.13773355295499351 0.42497777642586831 0 0.50715858906372158 0.63295939104129484 0 0.52584555706968406 0.66664215091846768 0 0.47913475093885149 0.66010775372412711 0 0.5 0.69999999999999996 0 0.47913475093885149 0.66010775372412711 0 0.52584555706968406 0.66664215091846768 0 0.51076801031701946 0.1202837388510348 0 0.51729576145820033 0.1683240575987815 0 0.48466639505193998 0.1421439844745814 0 0.71406021706547751 0.63292083137662503 0 0.74994237037456724 0.62775548192980357 0 0.72500000000000064 0.67022701834392062 0 0.71508799138962864 0.36622814920737751 0 0.73090396928863699 0.33699297293167962 0 0.74764719760526988 0.3719647154012321 0 0.22278230690790279 0.44824268025881547 0 0.25982634974572738 0.46097799597715272 0 0.23975172658309729 0.49475499200540818 0 0.80185942888539485 0.77452061303608133 0 0.78578450296893509 0.73292684821144505 0 0.81864958914779962 0.73589050177899629 0 0.80185942888501827 0.074520613036224564 0 0.78393852574753176 0.032039079577822822 0 0.81864958914740749 0.035890501779055867 0 0.5 0.29999999999999999 0 0.46226845272279993 0.31901800744800313 0 0.4604742573284204 0.27846934318264788 0 0.6405463747586706 0.63290524857395714 0 0.62460753523532009 0.66851202781000296 0 0.5991018319127801 0.62925360607495295 0 0.79680861578988083 0.92656778056766709 0 0.770759834363826 0.95919399014344442 0 0.75729602384198635 0.92353652857884294 0 0.79680861578956375 0.22656778056752541 0 0.77075983436335049 0.25919399014334171 0 0.75668890529066124 0.2244279804069782 0 0.65394964615507722 0.22666784374016369 0 0.69397719155551807 0.2245125647000914 0 0.67933712972090698 0.25920070958121938 0 0.81973119833356312 0.43505687159469048 0 0.84925632466077294 0.45359738909549091 0 0.81400510706333218 0.47357325943904899 0 0.83758014339878906 0.63222013025741819 0 0.82457059160610424 0.66831947184359608 0 0.79884539758237771 0.62875045078114233 0 0.25676291524611189 0.7436741304886243 0 0.2248999640082178 0.72584299459689172 0 0.26439878998046262 0.7048065392091396 0 0.91696753777131557 0.497780560203536 0 0.90900154012161016 0.53607784105648792 0 0.86907294890112186 0.52008116128001669 0 0.17933913398461551 0.2350063570234002 0 0.168349569971391 0.28054490850913671 0 0.14377654328998779 0.2442024734791064 0 0.1247745017231483 0.27198077544791172 0 0.14377654328998779 0.2442024734791064 0 0.168349569971391 0.28054490850913671 0 0.34258405725730701 0.4444034294386992 0 0.35221190152536241 0.40457127605439203 0 0.38707855792647411 0.42299362914874578 0 0.47357141910802508 0.1873585799078378 0 0.51729576145820033 0.1683240575987815 0 0.50760557329222289 0.20700468884612061 0 0.19670163708476801 0.31472518408333222 0 0.22615676742807109 0.33458786033114157 0 0.18434624290945251 0.35208838264196463 0 0.22033343844674469 0.36963382230740238 0 0.18434624290945251 0.35208838264196463 0 0.22615676742807109 0.33458786033114157 0 0.24432083401701241 0.3006253385567515 0 0.25966125648670141 0.34351016742083729 0 0.22615676742807109 0.33458786033114157 0 0.93814194660195893 0.44426664081746747 0 0.90594285160987287 0.4141265964174129 0 0.95871855522754235 0.40006508612975411 0 0.91750694127107502 0.36982372220068471 0 0.95871855522754235 0.40006508612975411 0 0.90594285160987287 0.4141265964174129 0 0.91750694127105259 0.63017627779935648 0 0.91143117093204207 0.58709913730335972 0 0.95867599106212187 0.60011091146651041 0 0.93732437411268477 0.55911392101136159 0 0.95867599106212187 0.60011091146651041 0 0.91143117093204207 0.58709913730335972 0 0.50715858906372158 0.63295939104129484 0 0.5498280205245758 0.6290146943450976 0 0.52584555706968406 0.66664215091846768 0 0.94399509803918602 0.75600490196082126 0 0.97435614836745565 0.77499999999987745 0 0.95386563387742829 0.80414874155775029 0 0.94399509803922566 0.056004901960802607 0 0.97435614836748241 0.074999999999825387 0 0.95386563387744361 0.1041487415577465 0 0.94399509803921056 0.24399509803922639 0 0.95391631417672862 0.19584263333809451 0 0.97435614836740092 0.22499999999981049 0 0.94399509803919068 0.9439950980391687 0 0.95391631417670719 0.89584263333814784 0 0.97435614836744289 0.92499999999990257 0 0.79680861578988083 0.92656778056766709 0 0.75729602384198635 0.92353652857884294 0 0.76891166905518427 0.88835469571185499 0 0.79680861578956375 0.22656778056752541 0 0.75668890529066124 0.2244279804069782 0 0.76587607630038135 0.18880039518954719 0 0.65394964615507722 0.22666784374016369 0 0.6865991819015953 0.189116534044597 0 0.69397719155551807 0.2245125647000914 0 0.38083244760691543 0.38531983672244652 0 0.38707855792647411 0.42299362914874578 0 0.35221190152536241 0.40457127605439203 0 1 0.7999999999998193 0 0.95386563387742829 0.80414874155775029 0 0.97435614836745565 0.77499999999987745 0 1 0.099999999999753911 0 0.95386563387744361 0.1041487415577465 0 0.97435614836748241 0.074999999999825387 0 1 0.8999999999998336 0 0.97435614836744289 0.92499999999990257 0 0.95391631417670719 0.89584263333814784 0 1 0.19999999999974799 0 0.97435614836740092 0.22499999999981049 0 0.95391631417672862 0.19584263333809451 0 0.84723782639812573 0.48638347960178252 0 0.81400510706333218 0.47357325943904899 0 0.84925632466077294 0.45359738909549091 0 0.54999999999999993 0.29999999999999999 0 0.54248833945060504 0.2520322959927106 0 0.5794309697024993 0.27124795968204829 0 0.94999999999999996 0.29999999999999999 0 0.95780851984364423 0.34215720972155339 0 0.92012390126144183 0.33123581297173937 0 0.94999999999999996 0.69999999999999996 0 0.92057473616084773 0.66770436535372446 0 0.9578014258160763 0.65787212321113708 0 0.15801167086041079 0.46008690540259539 0 0.113541300460994 0.46208784312094731 0 0.13773355295499351 0.42497777642586831 0 0.7250000000005199 0.94981617647078953 0 0.68015064798562208 0.95924320340003011 0 0.68987011941058407 0.92105047536677087 0 0.65507451745379841 0.92229208810758578 0 0.68987011941058407 0.92105047536677087 0 0.68015064798562208 0.95924320340003011 0 0.77846603114747959 0.49850927265137401 0 0.77972660463949339 0.45529290596363098 0 0.81400510706333218 0.47357325943904899 0 0.27866744612395528 0.38416094670951489 0 0.25966125648670141 0.34351016742083729 0 0.29644548887253103 0.34914008784168082 0 0.61209567303293111 0.44669033081290321 0 0.61547661924074692 0.48539576058873962 0 0.57975577671020095 0.46172033326338591 0 0.57611405284611883 0.50165903596042916 0 0.57975577671020095 0.46172033326338591 0 0.61547661924074692 0.48539576058873962 0 0.7250000000005199 0.89375000000045834 0 0.76891166905518427 0.88835469571185499 0 0.75729602384198635 0.92353652857884294 0 0.72500000000001008 0.19776155966387679 0 0.76587607630038135 0.18880039518954719 0 0.75668890529066124 0.2244279804069782 0 0.72500000000001008 0.19776155966387679 0 0.69397719155551807 0.2245125647000914 0 0.6865991819015953 0.189116534044597 0 0.083411279318303222 0.089699755330707398 0 0.12372429750337779 0.095814237875728972 0 0.1053400320299198 0.12877248826361379 0 0.083411279318375747 0.91030024466934134 0 0.10562472963403439 0.87143394428979881 0 0.1241151115713819 0.9045666525468371 0 0.14617343800780541 0.93808063414349496 0 0.1241151115713819 0.9045666525468371 0 0.16206583317966519 0.89685560785156404 0 0.14618258501891079 0.062070108745602003 0 0.16141998738593399 0.10404039647458049 0 0.12372429750337779 0.095814237875728972 0 0.33277555741076909 0.36432196682010132 0 0.35221190152536241 0.40457127605439203 0 0.31778888742534622 0.40581751814196781 0 0.7250000000005199 0.94981617647078953 0 0.75729602384198635 0.92353652857884294 0 0.770759834363826 0.95919399014344442 0 0.72500000000000064 0.2498161764706 0 0.75668890529066124 0.2244279804069782 0 0.77075983436335049 0.25919399014334171 0 0.72500000000000064 0.2498161764706 0 0.67933712972090698 0.25920070958121938 0 0.69397719155551807 0.2245125647000914 0 0.6236733212988993 0.14864538214901801 0 0.61956000905586006 0.1043312481793135 0 0.65290632656860115 0.11434202593454081 0 0.81973119833356312 0.43505687159469048 0 0.81400510706333218 0.47357325943904899 0 0.77972660463949339 0.45529290596363098 0 0.25676291524611189 0.7436741304886243 0 0.29904318922293632 0.74132814928635593 0 0.2792923945214143 0.77665808831789485 0 0.36575549820117997 0.31677992835137742 0 0.32752639306529541 0.32610012995269699 0 0.33402499257867951 0.28911035184473982 0 0.14332333627550789 0.14578431753966009 0 0.18652628422869419 0.14162325200928061 0 0.18124454140915969 0.18790916706335251 0 0.57724883562309992 0.92155686857100794 0 0.5832743223239254 0.88483152652961872 0 0.61885627562261258 0.90282959257498208 0 0.57667858002728545 0.078486105337742612 0 0.61956000905586006 0.1043312481793135 0 0.58516465772821369 0.11653801664834119 0 0.80185942888539485 0.77452061303608133 0 0.80041942726660109 0.81543261647703358 0 0.77094201086366854 0.79647480515688507 0 0.80185942888501827 0.074520613036224564 0 0.80076557130237269 0.1154587552654202 0 0.76878382444651716 0.097147941686331368 0 0.64753070846764316 0.77332939069435502 0 0.68024162096458085 0.79868546898116533 0 0.65005442820240822 0.82644988530054031 0 0.26429849586623999 0.19346700179430079 0 0.25557216766470708 0.15874861286892261 0 0.29336099386129338 0.15892013001050981 0 0.29348325746214782 0.31350119524708198 0 0.29644548887253103 0.34914008784168082 0 0.25966125648670141 0.34351016742083729 0 0.68391457121233579 0.14440470121196541 0 0.65290632656860115 0.11434202593454081 0 0.68330259535470161 0.10038702501083881 0 0.91750694127107502 0.36982372220068471 0 0.92012390126144183 0.33123581297173937 0 0.95780851984364423 0.34215720972155339 0 0.91750694127105259 0.63017627779935648 0 0.9578014258160763 0.65787212321113708 0 0.92057473616084773 0.66770436535372446 0 0.22033343844674469 0.36963382230740238 0 0.22615676742807109 0.33458786033114157 0 0.25966125648670141 0.34351016742083729 0 1 0.94999999999997109 0 0.97166519676946206 0.96662885509935492 0 0.97435614836744289 0.92499999999990257 0 0.94399509803919068 0.9439950980391687 0 0.97435614836744289 0.92499999999990257 0 0.97166519676946206 0.96662885509935492 0 0.94399509803921056 0.24399509803922639 0 0.97435614836740092 0.22499999999981049 0 0.97166519676951801 0.26662885509932011 0 1 0.24999999999987299 0 0.97166519676951801 0.26662885509932011 0 0.97435614836740092 0.22499999999981049 0 1 0.74999999999993494 0 0.97435614836745565 0.77499999999987745 0 0.97166519676947294 0.73337114490064459 0 1 0.049999999999896842 0 0.97435614836748241 0.074999999999825387 0 0.97166519676946894 0.033371144900598393 0 0.94399509803918602 0.75600490196082126 0 0.97166519676947294 0.73337114490064459 0 0.97435614836745565 0.77499999999987745 0 0.94399509803922566 0.056004901960802607 0 0.97166519676946894 0.033371144900598393 0 0.97435614836748241 0.074999999999825387 0 0.77846603114747959 0.49850927265137401 0 0.81400510706333218 0.47357325943904899 0 0.81441713509985358 0.51161854125224959 0 0.77354604466818633 0.40378688774472771 0 0.72622533758026719 0.40265885511101601 0 0.74764719760526988 0.3719647154012321 0 0.71508799138962864 0.36622814920737751 0 0.74764719760526988 0.3719647154012321 0 0.72622533758026719 0.40265885511101601 0 0.84723782639812573 0.48638347960178252 0 0.84925632466077294 0.45359738909549091 0 0.88594198078881503 0.46167788676578442 0 0.86411095495256451 0.42388805655111889 0 0.88594198078881503 0.46167788676578442 0 0.84925632466077294 0.45359738909549091 0 0.43846182030517877 0.64845797726506715 0 0.43545892161006339 0.61093128915313821 0 0.47095389620662098 0.61892551373708504 0 0.33123028043633618 0.77629643437932982 0 0.35642984951668422 0.80994399665655703 0 0.30857225866488791 0.81101973481716805 0 0.33403534827021109 0.84402799729020661 0 0.30857225866488791 0.81101973481716805 0 0.35642984951668422 0.80994399665655703 0 0.26429849586623999 0.19346700179430079 0 0.31255190597181792 0.19850845631528771 0 0.28040350263641872 0.23054717217092141 0 0.57724883562309992 0.92155686857100794 0 0.54783390826260769 0.89287767010860219 0 0.5832743223239254 0.88483152652961872 0 0.55899371797446828 0.85003102233514438 0 0.5832743223239254 0.88483152652961872 0 0.54783390826260769 0.89287767010860219 0 0.4089290844030305 0.58728915500154233 0 0.43545892161006339 0.61093128915313821 0 0.39743091024207589 0.6239520004230239 0 0.77293540622714185 0.59448302402785813 0 0.81723410853263523 0.59419663659258926 0 0.79884539758237771 0.62875045078114233 0 0.83758014339878906 0.63222013025741819 0 0.79884539758237771 0.62875045078114233 0 0.81723410853263523 0.59419663659258926 0 0.35864735590330371 0.63903383440414463 0 0.39743091024207589 0.6239520004230239 0 0.3977710372045391 0.65868194622830212 0 0.56202748619534593 0.15054058349222879 0 0.54979595918804436 0.1060565713905809 0 0.58516465772821369 0.11653801664834119 0 0.57667858002728545 0.078486105337742612 0 0.58516465772821369 0.11653801664834119 0 0.54979595918804436 0.1060565713905809 0 0.33122374654748771 0.57588941099433744 0 0.37272913873093971 0.56192925302619479 0 0.35765792684946668 0.6000687869219653 0 0.35864735590330371 0.63903383440414463 0 0.35765792684946668 0.6000687869219653 0 0.39743091024207589 0.6239520004230239 0 0.71508799138962864 0.36622814920737751 0 0.68887083591306764 0.33632058575757479 0 0.73090396928863699 0.33699297293167962 0 0.29348325746214782 0.31350119524708198 0 0.32752639306529541 0.32610012995269699 0 0.29644548887253103 0.34914008784168082 0 0.33277555741076909 0.36432196682010132 0 0.29644548887253103 0.34914008784168082 0 0.32752639306529541 0.32610012995269699 0 0.34258405725730701 0.4444034294386992 0 0.31778888742534622 0.40581751814196781 0 0.35221190152536241 0.40457127605439203 0 0.79999999999999982 0.69999999999999996 0 0.81864958914779962 0.73589050177899629 0 0.78578450296893509 0.73292684821144505 0 0.79999999999947335 0 0 0.81864958914740749 0.035890501779055867 0 0.78393852574753176 0.032039079577822822 0 0.27474541102162192 0.11822029332053539 0 0.29336099386129338 0.15892013001050981 0 0.25557216766470708 0.15874861286892261 0 0 0.45000000000187229 0 0.035463093262830522 0.42673416072819947 0 0.033550201249889847 0.46247875832467239 0 0.6499999999999998 0.69999999999999996 0 0.66427993341343905 0.73232764502436276 0 0.63221990677827677 0.73442891067859706 0 0.84723782639812573 0.48638347960178252 0 0.81441713509985358 0.51161854125224959 0 0.81400510706333218 0.47357325943904899 0 0.26104540868854792 0.81401944968719064 0 0.30857225866488791 0.81101973481716805 0 0.29209212897034281 0.84715728365233667 0 0.33403534827021109 0.84402799729020661 0 0.29209212897034281 0.84715728365233667 0 0.30857225866488791 0.81101973481716805 0 0.69999999999999984 0.29999999999999999 0 0.73090396928863699 0.33699297293167962 0 0.68887083591306764 0.33632058575757479 0 
</DataArray>
</Points>
<Cells>
<DataArray type="UInt32" Name="connectivity" format="ascii">
0 1 2 3 4 5 6 7 8 9 10 11 12 13 14 15 16 17 18 19 20 21 22 23 24 25 26 27 28 29 30 31 32 33 34 35 36 37 38 39 40 41 42 43 44 45 46 47 48 49 50 51 52 53 54 55 56 57 58 59 60 61 62 63 64 65 66 67 68 69 70 71 72 73 74 75 76 77 78 79 80 81 82 83 84 85 86 87 88 89 90 91 92 93 94 95 96 97 98 99 100 101 102 103 104 105 106 107 108 109 110 111 112 113 114 115 116 117 118 119 120 121 122 123 124 125 126 127 128 129 130 131 132 133 134 135 136 137 138 139 140 141 142 143 144 145 146 147 148 149 150 151 152 153 154 155 156 157 158 159 160 161 162 163 164 165 166 167 168 169 170 171 172 173 174 175 176 177 178 179 180 181 182 183 184 185 186 187 188 189 190 191 192 193 194 195 196 197 198 199 200 201 202 203 204 205 206 207 208 209 210 211 212 213 214 215 216 217 218 219 220 221 222 223 224 225 226 227 228 229 230 231 232 233 234 235 236 237 238 239 240 241 242 243 244 245 246 247 248 249 250 251 252 253 254 255 256 257 258 259 260 261 262 263 264 265 266 267 268 269 270 271 272 273 274 275 276 277 278 279 280 281 282 283 284 285 286 287 288 289 290 291 292 293 294 295 296 297 298 299 300 301 302 303 304 305 306 307 308 309 310 311 312 313 314 315 316 317 318 319 320 321 322 323 324 325 326 327 328 329 330 331 332 333 334 335 336 337 338 339 340 341 342 343 344 345 346 347 348 349 350 351 352 353 354 355 356 357 358 359 360 361 362 363 364 365 366 367 368 369 370 371 372 373 374 375 376 377 378 379 380 381 382 383 384 385 386 387 388 389 390 391 392 393 394 395 396 397 398 399 400 401 402 403 404 405 406 407 408 409 410 411 412 413 414 415 416 417 418 419 420 421 422 423 424 425 426 427 428 429 430 431 432 433 434 435 436 437 438 439 440 441 442 443 444 445 446 447 448 449 450 451 452 453 454 455 456 457 458 459 460 461 462 463 464 465 466 467 468 469 470 471 472 473 474 475 476 477 478 479 480 481 482 483 484 485 486 487 488 489 490 491 492 493 494 495 496 497 498 499 500 501 502 503 504 505 506 507 508 509 510 511 512 513 514 515 516 517 518 519 520 521 522 523 524 525 526 527 528 529 530 531 532 533 534 535 536 537 538 539 540 541 542 543 544 545 546 547 548 549 550 551 552 553 554 555 556 557 558 559 560 561 562 563 564 565 566 567 568 569 570 571 572 573 574 575 576 577 578 579 580 581 582 583 584 585 586 587 588 589 590 591 592 593 594 595 596 597 598 599 600 601 602 603 604 605 606 607 608 609 610 611 612 613 614 615 616 617 618 619 620 621 622 623 624 625 626 627 628 629 630 631 632 633 634 635 636 637 638 639 640 641 642 643 644 645 646 647 648 649 650 651 652 653 654 655 656 657 658 659 660 661 662 663 664 665 666 667 668 669 670 671 672 673 674 675 676 677 678 679 680 681 682 683 684 685 686 687 688 689 690 691 692 693 694 695 696 697 698 699 700 701 702 703 704 705 706 707 708 709 710 711 712 713 714 715 716 717 718 719 720 721 722 723 724 725 726 727 728 729 730 731 732 733 734 735 736 737 738 739 740 741 742 743 744 745 746 747 748 749 750 751 752 753 754 755 756 757 758 759 760 761 762 763 764 765 766 767 768 769 770 771 772 773 774 775 776 777 778 779 780 781 782 783 784 785 786 787 788 789 790 791 792 793 794 795 796 797 798 799 800 801 802 803 804 805 806 807 808 809 810 811 812 813 814 815 816 817 818 819 820 821 822 823 824 825 826 827 828 829 830 831 832 833 834 835 836 837 838 839 840 841 842 843 844 845 846 847 848 849 850 851 852 853 854 855 856 857 858 859 860 861 862 863 864 865 866 867 868 869 870 871 872 873 874 875 876 877 878 879 880 881 882 883 884 885 886 887 888 889 890 891 892 893 894 895 896 897 898 899 900 901 902 903 904 905 906 907 908 909 910 911 912 913 914 915 916 917 918 919 920 921 922 923 924 925 926 927 928 929 930 931 932 933 934 935 936 937 938 939 940 941 942 943 944 945 946 947 948 949 950 951 952 953 954 955 956 957 958 959 960 961 962 963 964 965 966 967 968 969 970 971 972 973 974 975 976 977 978 979 980 981 982 983 984 985 986 987 988 989 990 991 992 993 994 995 996 997 998 999 1000 1001 1002 1003 1004 1005 1006 1007 1008 1009 1010 1011 1012 1013 1014 1015 1016 1017 1018 1019 1020 1021 1022 1023 1024 1025 1026 1027 1028 1029 1030 1031 1032 1033 1034 1035 1036 1037 1038 1039 1040 1041 1042 1043 1044 1045 1046 1047 1048 1049 1050 1051 1052 1053 1054 1055 1056 1057 1058 1059 1060 1061 1062 1063 1064 1065 1066 1067 1068 1069 1070 1071 1072 1073 1074 1075 1076 1077 1078 1079 1080 1081 1082 1083 1084 1085 1086 1087 1088 1089 1090 1091 1092 1093 1094 1095 1096 1097 1098 1099 1100 1101 1102 1103 1104 1105 1106 1107 1108 1109 1110 1111 1112 1113 1114 1115 1116 1117 1118 1119 1120 1121 1122 1123 1124 1125 1126 1127 1128 1129 1130 1131 1132 1133 1134 1135 1136 1137 1138 1139 1140 1141 1142 1143 1144 1145 1146 1147 1148 1149 1150 1151 1152 1153 1154 1155 1156 1157 1158 1159 1160 1161 1162 1163 1164 1165 1166 1167 1168 1169 1170 1171 1172 1173 1174 1175 1176 1177 1178 1179 1180 1181 1182 1183 1184 1185 1186 1187 1188 1189 1190 1191 1192 1193 1194 1195 1196 1197 1198 1199 1200 1201 1202 1203 1204 1205 1206 1207 1208 1209 1210 1211 1212 1213 1214 1215 1216 1217 1218 1219 1220 1221 1222 1223 1224 1225 1226 1227 1228 1229 1230 1231 1232 1233 1234 1235 1236 1237 1238 1239 1240 1241 1242 1243 1244 1245 1246 1247 1248 1249 1250 1251 1252 1253 1254 1255 1256 1257 1258 1259 1260 1261 1262 1263 1264 1265 1266 1267 1268 1269 1270 1271 1272 1273 1274 1275 1276 1277 1278 1279 1280 1281 1282 1283 1284 1285 1286 1287 1288 1289 1290 1291 1292 1293 1294 1295 1296 1297 1298 1299 1300 1301 1302 1303 1304 1305 1306 1307 1308 1309 1310 1311 1312 1313 1314 1315 1316 1317 1318 1319 1320 1321 1322 1323 1324 1325 1326 1327 1328 1329 1330 1331 1332 1333 1334 1335 1336 1337 1338 1339 1340 1341 1342 1343 1344 1345 1346 1347 1348 1349 1350 1351 1352 1353 1354 1355 1356 1357 1358 1359 1360 1361 1362 1363 1364 1365 1366 1367 1368 1369 1370 1371 1372 1373 1374 1375 1376 1377 1378 1379 1380 1381 1382 1383 1384 1385 1386 1387 1388 1389 1390 1391 1392 1393 1394 1395 1396 1397 1398 1399 1400 1401 1402 1403 1404 1405 1406 1407 1408 1409 1410 1411 1412 1413 1414 1415 1416 1417 1418 1419 1420 1421 1422 1423 1424 1425 1426 1427 1428 1429 1430 1431 1432 1433 1434 1435 1436 1437 1438 1439 1440 1441 1442 1443 1444 1445 1446 1447 1448 1449 1450 1451 1452 1453 1454 1455 1456 1457 1458 1459 1460 1461 1462 1463 1464 1465 1466 1467 1468 1469 1470 1471 1472 1473 1474 1475 1476 1477 1478 1479 1480 1481 1482 1483 1484 1485 1486 1487 1488 1489 1490 1491 1492 1493 1494 1495 1496 1497 1498 1499 1500 1501 1502 1503 1504 1505 1506 1507 1508 1509 1510 1511 1512 1513 1514 1515 1516 1517 1518 1519 1520 1521 1522 1523 1524 1525 1526 1527 1528 1529 1530 1531 1532 1533 1534 1535 1536 1537 1538 1539 1540 1541 1542 1543 1544 1545 1546 1547 1548 1549 1550 1551 1552 1553 1554 1555 1556 1557 1558 1559 1560 1561 1562 1563 1564 1565 1566 1567 1568 1569 1570 1571 1572 1573 1574 1575 1576 1577 1578 1579 1580 1581 1582 1583 1584 1585 1586 1587 1588 1589 1590 1591 1592 1593 1594 1595 1596 1597 1598 1599 1600 1601 1602 1603 1604 1605 1606 1607 1608 1609 1610 1611 1612 1613 1614 1615 1616 1617 1618 1619 1620 1621 1622 1623 1624 1625 1626 1627 1628 1629 1630 1631 1632 1633 1634 1635 1636 1637 1638 1639 1640 1641 1642 1643 1644 1645 1646 1647 1648 1649 1650 1651 1652 1653 1654 1655 1656 1657 1658 1659 1660 1661 1662 1663 1664 1665 1666 1667 1668 1669 1670 1671 1672 1673 1674 1675 1676 1677 1678 1679 1680 1681 1682 1683 1684 1685 1686 1687 1688 1689 1690 1691 1692 1693 1694 1695 1696 1697 1698 1699 1700 1701 1702 1703 1704 1705 1706 1707 1708 1709 1710 1711 1712 1713 1714 1715 1716 1717 1718 1719 1720 1721 1722 1723 1724 1725 1726 1727 1728 1729 1730 1731 1732 1733 1734 1735 1736 1737 1738 1739 1740 1741 1742 1743 1744 1745 1746 1747 1748 1749 1750 1751 1752 1753 1754 1755 1756 1757 1758 1759 1760 1761 1762 1763 1764 1765 1766 1767 1768 1769 1770 1771 1772 1773 1774 1775 1776 1777 1778 1779 1780 1781 1782 1783 1784 1785 1786 1787 1788 1789 1790 1791 1792 1793 1794 1795 1796 1797 1798 1799 1800 1801 1802 1803 1804 1805 1806 1807 1808 1809 1810 1811 1812 1813 1814 1815 1816 1817 1818 1819 1820 1821 1822 1823 1824 1825 1826 1827 1828 1829 1830 1831 1832 1833 1834 1835 1836 1837 1838 1839 1840 1841 1842 1843 1844 1845 1846 1847 1848 1849 1850 1851 1852 1853 1854 1855 1856 1857 1858 1859 1860 1861 1862 1863 1864 1865 1866 1867 1868 1869 1870 1871 1872 1873 1874 1875 1876 1877 1878 1879 1880 1881 1882 1883 1884 1885 1886 1887 1888 1889 1890 1891 1892 1893 1894 1895 1896 1897 1898 1899 1900 1901 1902 1903 1904 1905 1906 1907 1908 1909 1910 1911 1912 1913 1914 1915 1916 1917 1918 1919 1920 1921 1922 1923 1924 1925 1926 1927 1928 1929 1930 1931 1932 1933 1934 1935 1936 1937 1938 1939 1940 1941 1942 1943 1944 1945 1946 1947 1948 1949 1950 1951 1952 1953 1954 1955 1956 1957 1958 1959 1960 1961 1962 1963 1964 1965 1966 1967 1968 1969 1970 1971 1972 1973 1974 1975 1976 1977 1978 1979 1980 1981 1982 1983 1984 1985 1986 1987 1988 1989 1990 1991 1992 1993 1994 1995 1996 1997 1998 1999 2000 2001 2002 2003 2004 2005 2006 2007 2008 2009 2010 2011 2012 2013 2014 2015 2016 2017 2018 2019 2020 2021 2022 2023 2024 2025 2026 2027 2028 2029 2030 2031 2032 2033 2034 2035 2036 2037 2038 2039 2040 2041 2042 2043 2044 2045 2046 2047 2048 2049 2050 2051 2052 2053 2054 2055 2056 2057 2058 2059 2060 2061 2062 2063 2064 2065 2066 2067 2068 2069 2070 2071 2072 2073 2074 2075 2076 2077 2078 2079 2080 2081 2082 2083 2084 2085 2086 2087 2088 2089 2090 2091 2092 2093 2094 2095 2096 2097 2098 2099 2100 2101 2102 2103 2104 2105 2106 2107 2108 2109 2110 2111 2112 2113 2114 2115 2116 2117 2118 2119 2120 2121 2122 2123 2124 2125 2126 2127 2128 2129 2130 2131 2132 2133 2134 2135 2136 2137 2138 2139 2140 2141 2142 2143 2144 2145 2146 2147 2148 2149 2150 2151 2152 2153 2154 2155 2156 2157 2158 2159 2160 2161 2162 2163 2164 2165 2166 2167 2168 2169 2170 2171 2172 2173 2174 2175 2176 2177 2178 2179 2180 2181 2182 2183 2184 2185 2186 2187 2188 2189 2190 2191 2192 2193 2194 2195 2196 2197 2198 2199 2200 2201 2202 2203 2204 2205 2206 2207 2208 2209 2210 2211 2212 2213 2214 2215 2216 2217 2218 2219 2220 2221 2222 2223 2224 2225 2226 2227 2228 2229 2230 2231 2232 2233 2234 2235 2236 2237 2238 2239 2240 2241 2242 2243 2244 2245 2246 2247 2248 2249 2250 2251 2252 2253 2254 2255 2256 2257 2258 2259 2260 2261 2262 2263 2264 2265 2266 2267 2268 2269 2270 2271 2272 2273 2274 2275 2276 2277 2278 2279 2280 2281 2282 2283 2284 2285 2286 2287 2288 2289 2290 2291 2292 2293 2294 2295 2296 2297 2298 2299 2300 2301 2302 2303 2304 2305 2306 2307 2308 2309 2310 2311 2312 2313 2314 2315 2316 2317 2318 2319 2320 2321 2322 2323 2324 2325 2326 2327 2328 2329 2330 2331 2332 2333 2334 2335 2336 2337 2338 2339 2340 2341 2342 2343 2344 2345 2346 2347 2348 2349 2350 2351 2352 2353 2354 2355 2356 2357 2358 2359 2360 2361 2362 2363 2364 2365 2366 2367 2368 2369 2370 2371 2372 2373 2374 2375 2376 2377 2378 2379 2380 2381 2382 2383 2384 2385 2386 2387 2388 2389 2390 2391 2392 2393 2394 2395 2396 2397 2398 2399 2400 2401 2402 2403 2404 2405 2406 2407 2408 2409 2410 2411 2412 2413 2414 2415 2416 2417 2418 2419 2420 2421 2422 2423 2424 2425 2426 2427 2428 2429 2430 2431 2432 2433 2434 2435 2436 2437 2438 2439 2440 2441 2442 2443 2444 2445 2446 2447 2448 2449 2450 2451 2452 2453 2454 2455 2456 2457 2458 2459 2460 2461 2462 2463 2464 2465 2466 2467 2468 2469 2470 2471 2472 2473 2474 2475 2476 2477 2478 2479 2480 2481 2482 2483 2484 2485 2486 2487 2488 2489 2490 2491 2492 2493 2494 2495 2496 2497 2498 2499 2500 2501 2502 2503 2504 2505 2506 2507 2508 2509 2510 2511 2512 2513 2514 2515 2516 2517 2518 2519 2520 2521 2522 2523 2524 2525 2526 2527 2528 2529 2530 2531 2532 2533 2534 2535 2536 2537 2538 2539 2540 2541 2542 2543 2544 2545 2546 2547 2548 2549 2550 2551 2552 2553 2554 2555 2556 2557 2558 2559 2560 2561 2562 2563 2564 2565 2566 2567 2568 2569 2570 2571 2572 2573 2574 2575 2576 2577 2578 2579 2580 2581 2582 2583 2584 2585 2586 2587 2588 2589 2590 2591 2592 2593 2594 2595 2596 2597 2598 2599 2600 2601 2602 2603 2604 2605 2606 2607 2608 2609 2610 2611 2612 2613 2614 2615 2616 2617 2618 2619 2620 2621 2622 2623 2624 2625 2626 2627 2628 2629 2630 2631 2632 2633 2634 2635 2636 2637 2638 2639 2640 2641 2642 2643 2644 2645 2646 2647 2648 2649 2650 2651 2652 2653 2654 2655 2656 2657 2658 2659 2660 2661 2662 2663 2664 2665 2666 2667 2668 2669 2670 2671 2672 2673 2674 2675 2676 2677 2678 2679 2680 2681 2682 2683 2684 2685 2686 2687 2688 2689 2690 2691 2692 2693 2694 2695 2696 2697 2698 2699 2700 2701 2702 2703 2704 2705 2706 2707 2708 2709 2710 2711 2712 2713 2714 2715 2716 2717 2718 2719 2720 2721 2722 2723 2724 2725 2726 2727 2728 2729 2730 2731 2732 2733 2734 2735 2736 2737 2738 2739 2740 2741 2742 2743 2744 2745 2746 2747 2748 2749 2750 2751 2752 2753 2754 2755 2756 2757 2758 2759 2760 2761 2762 2763 2764 2765 2766 2767 2768 2769 2770 2771 2772 2773 2774 2775 2776 2777 2778 2779 2780 2781 2782 2783 2784 2785 2786 2787 2788 2789 2790 2791 2792 2793 2794 2795 2796 2797 2798 2799 2800 2801 2802 2803 2804 2805 2806 2807 2808 2809 2810 2811 2812 2813 2814 2815 2816 2817 2818 2819 2820 2821 2822 2823 2824 2825 2826 2827 2828 2829 2830 2831 2832 2833 2834 2835 2836 2837 2838 2839 2840 2841 2842 2843 2844 2845 2846 2847 2848 2849 2850 2851 2852 2853 2854 2855 2856 2857 2858 2859 2860 2861 2862 2863 2864 2865 2866 2867 2868 2869 2870 2871 2872 2873 2874 2875 2876 2877 2878 2879 2880 2881 2882 2883 2884 2885 2886 2887 2888 2889 2890 2891 2892 2893 2894 2895 2896 2897 2898 2899 2900 2901 2902 2903 2904 2905 2906 2907 2908 2909 2910 2911 2912 2913 2914 2915 2916 2917 2918 2919 2920 2921 2922 2923 2924 2925 2926 2927 2928 2929 2930 2931 2932 2933 2934 2935 2936 2937 2938 2939 2940 2941 2942 2943 2944 2945 2946 2947 2948 2949 2950 2951 2952 2953 2954 2955 2956 2957 2958 2959 2960 2961 2962 2963 2964 2965 2966 2967 2968 2969 2970 2971 2972 2973 2974 2975 2976 2977 2978 2979 2980 2981 2982 2983 2984 2985 2986 2987 2988 2989 2990 2991 2992 2993 2994 2995 2996 2997 2998 2999 3000 3001 3002 3003 3004 3005 3006 3007 3008 3009 3010 3011 3012 3013 3014 3015 3016 3017 3018 3019 3020 3021 3022 3023 3024 3025 3026 3027 3028 3029 3030 3031 3032 3033 3034 3035 3036 3037 3038 3039 3040 3041 3042 3043 3044 3045 3046 3047 3048 3049 3050 3051 3052 3053 3054 3055 3056 3057 3058 3059 3060 3061 3062 3063 3064 3065 3066 3067 3068 3069 3070 3071 3072 3073 3074 3075 3076 3077 3078 3079 3080 3081 3082 3083 3084 3085 3086 3087 3088 3089 3090 3091 3092 3093 3094 3095 3096 3097 3098 3099 3100 3101 3102 3103 3104 3105 3106 3107 3108 3109 3110 3111 3112 3113 3114 3115 3116 3117 3118 3119 3120 3121 3122 3123 3124 3125 3126 3127 3128 3129 3130 3131 3132 3133 3134 3135 3136 3137 3138 3139 3140 3141 
</DataArray>
<DataArray type="UInt32" Name="offsets" format="ascii">
2 4 6 8 10 12 14 16 18 20 22 24 26 28 30 32 34 36 38 40 43 46 49 52 55 58 61 64 67 70 73 76 79 82 85 88 91 94 97 100 103 106 109 112 115 118 121 124 127 130 133 136 139 142 145 148 151 154 157 160 163 166 169 172 175 178 181 184 187 190 193 196 199 202 205 208 211 214 217 220 223 226 229 232 235 238 241 244 247 250 253 256 259 262 265 268 271 274 277 280 283 286 289 292 295 298 301 304 307 310 313 316 319 322 325 328 331 334 337 340 343 346 349 352 355 358 361 364 367 370 373 376 379 382 385 388 391 394 397 400 403 406 409 412 415 418 421 424 427 430 433 436 439 442 445 448 451 454 457 460 463 466 469 472 475 478 481 484 487 490 493 496 499 502 505 508 511 514 517 520 523 526 529 532 535 538 541 544 547 550 553 556 559 562 565 568 571 574 577 580 583 586 589 592 595 598 601 604 607 610 613 616 619 622 625 628 631 634 637 640 643 646 649 652 655 658 661 664 667 670 673 676 679 682 685 688 691 694 697 700 703 706 709 712 715 718 721 724 727 730 733 736 739 742 745 748 751 754 757 760 763 766 769 772 775 778 781 784 787 790 793 796 799 802 805 808 811 814 817 820 823 826 829 832 835 838 841 844 847 850 853 856 859 862 865 868 871 874 877 880 883 886 889 892 895 898 901 904 907 910 913 916 919 922 925 928 931 934 937 940 943 946 949 952 955 958 961 964 967 970 973 976 979 982 985 988 991 994 997 1000 1003 1006 1009 1012 1015 1018 1021 1024 1027 1030 1033 1036 1039 1042 1045 1048 1051 1054 1057 1060 1063 1066 1069 1072 1075 1078 1081 1084 1087 1090 1093 1096 1099 1102 1105 1108 1111 1114 1117 1120 1123 1126 1129 1132 1135 1138 1141 1144 1147 1150 1153 1156 1159 1162 1165 1168 1171 1174 1177 1180 1183 1186 1189 1192 1195 1198 1201 1204 1207 1210 1213 1216 1219 1222 1225 1228 1231 1234 1237 1240 1243 1246 1249 1252 1255 1258 1261 1264 1267 1270 1273 1276 1279 1282 1285 1288 1291 1294 1297 1300 1303 1306 1309 1312 1315 1318 1321 1324 1327 1330 1333 1336 1339 1342 1345 1348 1351 1354 1357 1360 1363 1366 1369 1372 1375 1378 1381 1384 1387 1390 1393 1396 1399 1402 1405 1408 1411 1414 1417 1420 1423 1426 1429 1432 1435 1438 1441 1444 1447 1450 1453 1456 1459 1462 1465 1468 1471 1474 1477 1480 1483 1486 1489 1492 1495 1498 1501 1504 1507 1510 1513 1516 1519 1522 1525 1528 1531 1534 1537 1540 1543 1546 1549 1552 1555 1558 1561 1564 1567 1570 1573 1576 1579 1582 1585 1588 1591 1594 1597 1600 1603 1606 1609 1612 1615 1618 1621 1624 1627 1630 1633 1636 1639 1642 1645 1648 1651 1654 1657 1660 1663 1666 1669 1672 1675 1678 1681 1684 1687 1690 1693 1696 1699 1702 1705 1708 1711 1714 1717 1720 1723 1726 1729 1732 1735 1738 1741 1744 1747 1750 1753 1756 1759 1762 1765 1768 1771 1774 1777 1780 1783 1786 1789 1792 1795 1798 1801 1804 1807 1810 1813 1816 1819 1822 1825 1828 1831 1834 1837 1840 1843 1846 1849 1852 1855 1858 1861 1864 1867 1870 1873 1876 1879 1882 1885 1888 1891 1894 1897 1900 1903 1906 1909 1912 1915 1918 1921 1924 1927 1930 1933 1936 1939 1942 1945 1948 1951 1954 1957 1960 1963 1966 1969 1972 1975 1978 1981 1984 1987 1990 1993 1996 1999 2002 2005 2008 2011 2014 2017 2020 2023 2026 2029 2032 2035 2038 2041 2044 2047 2050 2053 2056 2059 2062 2065 2068 2071 2074 2077 2080 2083 2086 2089 2092 2095 2098 2101 2104 2107 2110 2113 2116 2119 2122 2125 2128 2131 2134 2137 2140 2143 2146 2149 2152 2155 2158 2161 2164 2167 2170 2173 2176 2179 2182 2185 2188 2191 2194 2197 2200 2203 2206 2209 2212 2215 2218 2221 2224 2227 2230 2233 2236 2239 2242 2245 2248 2251 2254 2257 2260 2263 2266 2269 2272 2275 2278 2281 2284 2287 2290 2293 2296 2299 2302 2305 2308 2311 2314 2317 2320 2323 2326 2329 2332 2335 2338 2341 2344 2347 2350 2353 2356 2359 2362 2365 2368 2371 2374 2377 2380 2383 2386 2389 2392 2395 2398 2401 2404 2407 2410 2413 2416 2419 2422 2425 2428 2431 2434 2437 2440 2443 2446 2449 2452 2455 2458 2461 2464 2467 2470 2473 2476 2479 2482 2485 2488 2491 2494 2497 2500 2503 2506 2509 2512 2515 2518 2521 2524 2527 2530 2533 2536 2539 2542 2545 2548 2551 2554 2557 2560 2563 2566 2569 2572 2575 2578 2581 2584 2587 2590 2593 2596 2599 2602 2605 2608 2611 2614 2617 2620 2623 2626 2629 2632 2635 2638 2641 2644 2647 2650 2653 2656 2659 2662 2665 2668 2671 2674 2677 2680 2683 2686 2689 2692 2695 2698 2701 2704 2707 2710 2713 2716 2719 2722 2725 2728 2731 2734 2737 2740 2743 2746 2749 2752 2755 2758 2761 2764 2767 2770 2773 2776 2779 2782 2785 2788 2791 2794 2797 2800 2803 2806 2809 2812 2815 2818 2821 2824 2827 2830 2833 2836 2839 2842 2845 2848 2851 2854 2857 2860 2863 2866 2869 2872 2875 2878 2881 2884 2887 2890 2893 2896 2899 2902 2905 2908 2911 2914 2917 2920 2923 2926 2929 2932 2935 2938 2941 2944 2947 2950 2953 2956 2959 2962 2965 2968 2971 2974 2977 2980 2983 2986 2989 2992 2995 2998 3001 3004 3007 3010 3013 3016 3019 3022 3025 3028 3031 3034 3037 3040 3043 3046 3049 3052 3055 3058 3061 3064 3067 3070 3073 3076 3079 3082 3085 3088 3091 3094 3097 3100 3103 3106 3109 3112 3115 3118 3121 3124 3127 3130 3133 3136 3139 3142 
</DataArray>
<DataArray type="UInt32" Name="types" format="ascii">
3 3 3 3 3 3 3 3 3 3 3 3 3 3 3 3 3 3 3 3 5 5 5 5 5 5 5 5 5 5 5 5 5 5 5 5 5 5 5 5 5 5 5 5 5 5 5 5 5 5 5 5 5 5 5 5 5 5 5 5 5 5 5 5 5 5 5 5 5 5 5 5 5 5 5 5 5 5 5 5 5 5 5 5 5 5 5 5 5 5 5 5 5 5 5 5 5 5 5 5 5 5 5 5 5 5 5 5 5 5 5 5 5 5 5 5 5 5 5 5 5 5 5 5 5 5 5 5 5 5 5 5 5 5 5 5 5 5 5 5 5 5 5 5 5 5 5 5 5 5 5 5 5 5 5 5 5 5 5 5 5 5 5 5 5 5 5 5 5 5 5 5 5 5 5 5 5 5 5 5 5 5 5 5 5 5 5 5 5 5 5 5 5 5 5 5 5 5 5 5 5 5 5 5 5 5 5 5 5 5 5 5 5 5 5 5 5 5 5 5 5 5 5 5 5 5 5 5 5 5 5 5 5 5 5 5 5 5 5 5 5 5 5 5 5 5 5 5 5 5 5 5 5 5 5 5 5 5 5 5 5 5 5 5 5 5 5 5 5 5 5 5 5 5 5 5 5 5 5 5 5 5 5 5 5 5 5 5 5 5 5 5 5 5 5 5 5 5 5 5 5 5 5 5 5 5 5 5 5 5 5 5 5 5 5 5 5 5 5 5 5 5 5 5 5 5 5 5 5 5 5 5 5 5 5 5 5 5 5 5 5 5 5 5 5 5 5 5 5 5 5 5 5 5 5 5 5 5 5 5 5 5 5 5 5 5 5 5 5 5 5 5 5 5 5 5 5 5 5 5 5 5 5 5 5 5 5 5 5 5 5 5 5 5 5 5 5 5 5 5 5 5 5 5 5 5 5 5 5 5 5 5 5 5 5 5 5 5 5 5 5 5 5 5 5 5 5 5 5 5 5 5 5 5 5 5 5 5 5 5 5 5 5 5 5 5 5 5 5 5 5 5 5 5 5 5 5 5 5 5 5 5 5 5 5 5 5 5 5 5 5 5 5 5 5 5 5 5 5 5 5 5 5 5 5 5 5 5 5 5 5 5 5 5 5 5 5 5 5 5 5 5 5 5 5 5 5 5 5 5 5 5 5 5 5 5 5 5 5 5 5 5 5 5 5 5 5 5 5 5 5 5 5 5 5 5 5 5 5 5 5 5 5 5 5 5 5 5 5 5 5 5 5 5 5 5 5 5 5 5 5 5 5 5 5 5 5 5 5 5 5 5 5 5 5 5 5 5 5 5 5 5 5 5 5 5 5 5 5 5 5 5 5 5 5 5 5 5 5 5 5 5 5 5 5 5 5 5 5 5 5 5 5 5 5 5 5 5 5 5 5 5 5 5 5 5 5 5 5 5 5 5 5 5 5 5 5 5 5 5 5 5 5 5 5 5 5 5 5 5 5 5 5 5 5 5 5 5 5 5 5 5 5 5 5 5 5 5 5 5 5 5 5 5 5 5 5 5 5 5 5 5 5 5 5 5 5 5 5 5 5 5 5 5 5 5 5 5 5 5 5 5 5 5 5 5 5 5 5 5 5 5 5 5 5 5 5 5 5 5 5 5 5 5 5 5 5 5 5 5 5 5 5 5 5 5 5 5 5 5 5 5 5 5 5 5 5 5 5 5 5 5 5 5 5 5 5 5 5 5 5 5 5 5 5 5 5 5 5 5 5 5 5 5 5 5 5 5 5 5 5 5 5 5 5 5 5 5 5 5 5 5 5 5 5 5 5 5 5 5 5 5 5 5 5 5 5 5 5 5 5 5 5 5 5 5 5 5 5 5 5 5 5 5 5 5 5 5 5 5 5 5 5 5 5 5 5 5 5 5 5 5 5 5 5 5 5 5 5 5 5 5 5 5 5 5 5 5 5 5 5 5 5 5 5 5 5 5 5 5 5 5 5 5 5 5 5 5 5 5 5 5 5 5 5 5 5 5 5 5 5 5 5 5 5 5 5 5 5 5 5 5 5 5 5 5 5 5 5 5 5 5 5 5 5 5 5 5 5 5 5 5 5 5 5 5 5 5 5 5 5 5 5 5 5 5 5 5 5 5 5 5 5 5 5 5 5 5 5 5 5 5 5 5 5 5 5 5 5 5 5 5 5 5 5 5 5 5 5 5 5 5 5 5 5 5 5 5 5 5 5 5 5 5 5 5 5 5 5 5 5 5 5 5 5 5 5 5 5 5 5 5 5 5 5 5 5 5 5 5 5 5 5 5 5 5 5 5 5 5 5 5 5 5 5 5 5 5 5 5 5 5 5 5 5 5 5 5 5 5 5 5 5 5 5 5 5 5 5 5 5 5 5 5 
</DataArray>
</Cells>
<PointData Scalars="" Vectors="displacement," Tensors="">
<DataArray type="Float64" Name="displacement" NumberOfComponents="3" format="ascii">
-1.3480243138786599e-05 -1.2107333804268273e-05 0 -1.4625731981086971e-05 -1.5430962396657789e-05 0 -1.4625731981086971e-05 -1.5430962396657789e-05 0 -1.5872534422584182e-05 -2.017809312093002e-05 0 -1.5872534422584182e-05 -2.017809312093002e-05 0 -1.7319269271702661e-05 -2.6225395067895543e-05 0 -1.7319269271702661e-05 -2.6225395067895543e-05 0 -1.8683823496929465e-05 -3.2562559656271885e-05 0 -1.8683823496929465e-05 -3.2562559656271885e-05 0 -1.9922275953099167e-05 -3.7958593794676628e-05 0 -1.9922275953099167e-05 -3.7958593794676628e-05 0 -2.1115492443933413e-05 -4.4103390754702339e-05 0 -2.1115492443933413e-05 -4.4103390754702339e-05 0 -2.2414330390682277e-05 -4.9341402159929314e-05 0 -2.2414330390682277e-05 -4.9341402159929314e-05 0 -2.3557578314658496e-05 -5.5687777057221327e-05 0 -2.3557578314658496e-05 -5.5687777057221327e-05 0 -2.447663513061197e-05 -6.0073602447426681e-05 0 -2.447663513061197e-05 -6.0073602447426681e-05 0 -2.5072580407801857e-05 -6.0271750348868718e-05 0 -1.0343673352289848e-07 1.9529975341633398e-05 0 2.2421280179508283e-06 2.5981884638382212e-05 0 2.2421280179508283e-06 2.5981884638382212e-05 0 1.7031964083227104e-06 3.277130316726976e-05 0 1.7031964083227104e-06 3.277130316726976e-05 0 8.3545262907297219e-07 3.7554918081344075e-05 0 8.3545262907297219e-07 3.7554918081344075e-05 0 -3.2515418128884591e-07 4.7541414013868596e-05 0 -3.2515418128884591e-07 4.7541414013868596e-05 0 -1.7653644509672992e-06 5.5502716966864301e-05 0 -1.7653644509672992e-06 5.5502716966864301e-05 0 -3.4248716592607521e-06 6.3610829866234361e-05 0 -3.4248716592607521e-06 6.3610829866234361e-05 0 -5.2813986306887278e-06 7.1234346676487135e-05 0 -5.2813986306887278e-06 7.1234346676487135e-05 0 -7.5089049685121776e-06 8.2838144527675684e-05 0 -7.5089049685121776e-06 8.2838144527675684e-05 0 -7.8708956734829038e-06 8.9145630082324424e-05 0 -7.8708956734829038e-06 8.9145630082324424e-05 0 -1.4324662148544744e-05 8.5667237010784308e-05 0 -1.0957100959614904e-05 -4.5659223039385115e-06 0 -8.3106499084664177e-06 -1.7384878243364638e-06 0 -1.0168909826160182e-05 -4.0225061314684062e-06 0 -9.779008768633996e-06 -2.6028188324213731e-06 0 -8.3106499084664177e-06 -1.7384878243364638e-06 0 -1.0957100959614904e-05 -4.5659223039385115e-06 0 -1.9013477593065037e-05 -8.7258527509613499e-06 0 -1.6612155929737255e-05 -6.3375209209250425e-06 0 -1.7107000579473685e-05 -8.6127162068813397e-06 0 -1.7107000579473685e-05 -8.6127162068813397e-06 0 -1.6612155929737255e-05 -6.3375209209250425e-06 0 -1.5211819679455254e-05 -7.6687745948380833e-06 0 -9.6519084658639283e-06 3.27263673360394e-06 0 -4.1985145526689519e-06 9.2020590425631855e-07 0 -8.7276176135508826e-06 1.9527649247432625e-06 0 -6.8112219694074852e-06 -2.8524220887510468e-06 0 -6.1439673126320136e-06 -1.9787743569647588e-06 0 -2.9866506570676629e-06 -9.9623403977575513e-07 0 -4.9874041530156667e-06 2.3240390225246141e-06 0 -4.1985145526689519e-06 9.2020590425631855e-07 0 -9.6519084658639283e-06 3.27263673360394e-06 0 -3.610522781697587e-06 -1.9457655003735833e-06 0 -6.8112219694074852e-06 -2.8524220887510468e-06 0 -2.9866506570676629e-06 -9.9623403977575513e-07 0 -1.7166813630268565e-05 -5.9118801273471214e-06 0 -2.0941662538958024e-05 -7.5898428615917831e-06 0 -1.6674881558052119e-05 -5.2485464352355715e-06 0 -3.2584787817105272e-05 1.0867513962089616e-05 0 -2.6035654885221275e-05 7.7431415831585936e-06 0 -2.549749344149102e-05 7.2045895006753606e-06 0 -2.2692943831155324e-06 6.6664265997059033e-07 0 -2.8976345644922524e-06 1.3163192337496496e-06 0 -3.0398195969394455e-06 4.8893040235853248e-07 0 -3.9692920832752057e-06 1.7354809129128704e-06 0 -3.0398195969394455e-06 4.8893040235853258e-07 0 -2.8976345644922524e-06 1.3163192337496496e-06 0 -3.7245163317726128e-06 2.9846700367003766e-07 0 -4.929392894348402e-06 3.109163528743589e-08 0 -3.4469144247741883e-06 5.0725189120600654e-07 0 -1.670735145869811e-09 -3.7465915476693301e-10 0 -1.3140408477703746e-09 -2.5426412620752625e-10 0 -1.4361043106174577e-06 -5.4075019257910714e-07 0 -1.3061778911558125e-09 2.0232047290945217e-10 0 -1.5236497460555917e-09 2.0320098100145307e-10 0 -1.428025211403316e-06 3.774973797170153e-07 0 -2.1587489944422613e-05 -1.1787024312946583e-05 0 -2.1646409329194728e-05 -1.157512372073519e-05 0 -1.9013477593065037e-05 -8.7258527509613499e-06 0 -1.1671888195740465e-06 1.8906583325037543e-05 0 -4.3246484913559765e-06 1.2624897298409687e-05 0 -5.5338493852772417e-06 1.3044471046621912e-05 0 -3.5216822899627613e-05 -0.00010028902722192286 0 -2.9771934717299709e-05 -9.410074044625315e-05 0 -3.5110885860826915e-05 -9.1509430210558009e-05 0 -4.4466998234803924e-05 0.00022009397148866505 0 -5.8846199710287796e-05 0.00020483535079650008 0 -4.4248308287502481e-05 0.00019912369884667801 0 -4.4466998234803924e-05 0.00022009397148866505 0 -4.4248308287502481e-05 0.00019912369884667801 0 -3.0355895731522005e-05 0.00020483929174857518 0 -3.5216822899627613e-05 -0.00010028902722192286 0 -3.5110885860826915e-05 -9.1509430210558009e-05 0 -4.0959041447580664e-05 -9.3840157585440231e-05 0 -6.1340209404073026e-05 0.00018723065887609356 0 -4.2661391088871422e-05 0.00017871156603060229 0 -4.4248308287502481e-05 0.00019912369884667801 0 -2.8356575506895748e-05 -8.6205779976102401e-05 0 -3.5078914481710306e-05 -8.2313303098323576e-05 0 -3.5110885860826915e-05 -9.1509430210558009e-05 0 -3.7245163317726128e-06 2.9846700367003766e-07 0 -3.4469144247741883e-06 5.0725189120600654e-07 0 -2.472480394343772e-06 5.0595784939867924e-07 0 -1.1671888195740465e-06 1.8906583325037543e-05 0 -7.5477313339950357e-06 1.70500001758774e-05 0 -4.3246484913559765e-06 1.2624897298409687e-05 0 -7.210591189608882e-05 5.6140549012238565e-05 0 -6.4690814005660056e-05 4.2137323086281443e-05 0 -5.2643532453298538e-05 4.4929536363494522e-05 0 -3.8219924234379175e-05 -2.1716275053422543e-05 0 -4.2258280173053026e-05 -2.7747781545980338e-05 0 -3.349927577067037e-05 -2.2894918961729881e-05 0 -1.829687921354055e-05 -9.7041476613162787e-06 0 -2.1587489944422613e-05 -1.1787024312946583e-05 0 -1.9013477593065037e-05 -8.7258527509613499e-06 0 -3.6789473214981411e-05 3.6758159067541714e-05 0 -3.1963212830377263e-05 2.2917565965778106e-05 0 -2.6153142393824432e-05 2.4309560956846722e-05 0 -1.8757507756581349e-05 8.1193630690977064e-06 0 -2.5100570087083728e-05 1.1436813976613814e-05 0 -2.351985333134639e-05 7.6056911172465194e-06 0 -1.351045865528206e-05 -8.2894795670584591e-07 0 -1.1653300046667884e-05 1.4489790406377161e-06 0 -1.4680021465653634e-05 -2.6548792424238096e-06 0 -3.3953745737547437e-05 -7.2742757820091336e-05 0 -2.8789975372325633e-05 -6.9819937198051929e-05 0 -3.3604466472052756e-05 -6.2501320586058585e-05 0 -4.2572142991071591e-05 0.00015797557576662679 0 -5.4574000538998604e-05 0.00015202409647186476 0 -3.9190472385320933e-05 0.00013482013658877874 0 -3.3604466472052756e-05 -6.2501320586058585e-05 0 -2.8789975372325633e-05 -6.9819937198051929e-05 0 -2.7642032783430119e-05 -6.0964737754444518e-05 0 -3.9190472385320933e-05 0.00013482013658877874 0 -5.4574000538998604e-05 0.00015202409647186476 0 -5.3518045898789657e-05 0.0001350644141271206 0 -1.8757507756581349e-05 8.1193630690977064e-06 0 -2.351985333134639e-05 7.6056911172465194e-06 0 -1.6605570731122411e-05 5.3470499774217116e-06 0 -1.3885370859104063e-05 -3.5469755473247105e-06 0 -1.1340669919558971e-05 2.994192070598626e-06 0 -1.351045865528206e-05 -8.2894795670584591e-07 0 -3.6789473214981411e-05 3.6758159067541714e-05 0 -4.1891394323608687e-05 3.1806674978152662e-05 0 -3.1963212830377263e-05 2.291756596577811e-05 0 -1.1671888195740465e-06 1.8906583325037543e-05 0 5.9592123910636226e-06 4.5731821205916412e-05 0 -8.5787645813355031e-06 4.7660545051308342e-05 0 -2.9776069054547986e-05 -2.738966070035748e-05 0 -2.7326034550589524e-05 -2.5846278269263117e-05 0 -3.0061223087032058e-05 -2.618609338976315e-05 0 -1.9391732203948783e-05 -3.0118387327560035e-05 0 -1.8832209281272879e-05 -2.8054270254057468e-05 0 -2.0144061940432322e-05 -2.9600392279053056e-05 0 -9.5985168495501683e-06 4.9262533292047153e-06 0 -1.1653300046667884e-05 1.4489790406377161e-06 0 -1.351045865528206e-05 -8.2894795670584591e-07 0 -1.7166853583962987e-05 -9.0233892961399026e-05 0 -2.2158450460094332e-05 -8.4339370615414924e-05 0 -2.4123411379100644e-05 -9.2028626690580107e-05 0 -9.4325275676619027e-05 0.00020335239814610947 0 -7.8119154016137424e-05 0.00018530753295250738 0 -7.4908098129478063e-05 0.0002012481596708744 0 -1.0831423034722953e-09 -1.9407305929043844e-10 0 -8.7172935248338383e-07 -1.3241878070609872e-07 0 -1.009503573853082e-06 -3.3548669349774818e-07 0 -1.1503268151548231e-09 2.1339409591820614e-10 0 -1.1321149158634861e-06 3.9507094340062624e-07 0 -1.0439167849360658e-06 4.3114354130963376e-07 0 -3.6789473214981411e-05 3.6758159067541714e-05 0 -2.6141837171198199e-05 3.5168352291787294e-05 0 -3.4302917499863693e-05 5.3060977520967339e-05 0 -2.0699646717820788e-05 4.6982178101251966e-05 0 -3.4302917499863693e-05 5.3060977520967339e-05 0 -2.6141837171198199e-05 3.5168352291787301e-05 0 -1.1665692577083124e-05 3.0016053948443222e-05 0 -1.1671888195740465e-06 1.8906583325037543e-05 0 -8.5787645813355031e-06 4.7660545051308342e-05 0 -9.4054276175157062e-05 0.0001672939021100643 0 -7.1218996973169624e-05 0.00016771401384455827 0 -7.8119154016137424e-05 0.00018530753295250738 0 -1.4375933006163357e-05 -7.3395254494598014e-05 0 -2.3563250585204999e-05 -7.6345555744729467e-05 0 -2.2158450460094329e-05 -8.4339370615414924e-05 0 -2.0170608948373153e-05 -2.4856822364118304e-05 0 -2.0325581934755381e-05 -2.2430346589939861e-05 0 -2.1867479211059451e-05 -2.432787776146793e-05 0 -1.3229403727553299e-05 -1.1052681575532779e-06 0 -1.4680021465653634e-05 -2.6548792424238096e-06 0 -1.1653300046667884e-05 1.4489790406377161e-06 0 -1.6458386882981632e-05 -5.7325489383469379e-06 0 -1.8054162658666433e-05 -8.7899331376278807e-06 0 -1.6485840342813224e-05 -8.4153333434194347e-06 0 -1.4033346883735341e-05 -1.4440189084730733e-05 0 -1.4008538332052352e-05 -1.2132032474682125e-05 0 -1.6798798969527502e-05 -1.5513206341083585e-05 0 -8.4446135918062718e-05 9.0427431396246342e-05 0 -6.5730550186757924e-05 7.8168342810603093e-05 0 -7.2632809210327793e-05 0.00010081640251315862 0 -5.5744000008020474e-05 -7.7261020760457173e-05 0 -4.9046690139745927e-05 -8.5446875463826224e-05 0 -4.6450415442679733e-05 -7.7931991353880791e-05 0 5.7073718156396104e-06 0.00016105408090357501 0 -1.1221538155616234e-05 0.00018374117748423923 0 -1.4851760255055167e-05 0.00016737486251483004 0 -1.5838918278704066e-05 -8.1683688227259806e-05 0 -2.2158450460094329e-05 -8.4339370615414924e-05 0 -1.7166853583962987e-05 -9.0233892961399026e-05 0 -9.4325275676619027e-05 0.00020335239814610947 0 -9.4342840541032188e-05 0.0001856271808373357 0 -7.8119154016137424e-05 0.00018530753295250738 0 -2.5673857916714686e-05 -2.2993004762831193e-05 0 -2.5944565448210733e-05 -2.1021383045735156e-05 0 -2.7380719966106395e-05 -2.3179175804903011e-05 0 -1.3628463307103867e-05 -1.1583563562516343e-05 0 -1.576180166733644e-05 -1.4118558073045659e-05 0 -1.6470365826646587e-05 -2.0488453904567945e-05 0 -2.5673857916714686e-05 -2.2993004762831193e-05 0 -2.4541000366013095e-05 -2.1215331529074195e-05 0 -2.5944565448210733e-05 -2.1021383045735156e-05 0 -1.6098914475088909e-05 -1.2328756924796033e-05 0 -1.6798798969527502e-05 -1.5513206341083585e-05 0 -1.4008538332052352e-05 -1.2132032474682125e-05 0 -2.8681061888983937e-05 -3.5751966823875195e-05 0 -3.107165709344447e-05 -4.6328945561304352e-05 0 -2.4696417206800729e-05 -3.7983316583576356e-05 0 -2.237919638624376e-09 1.7722554343799525e-10 0 -2.9866506570676629e-06 -9.9623403977575513e-07 0 -2.0920442813295501e-06 -3.0317414211427012e-07 0 -3.2022386154226004e-09 -4.1592459813761553e-10 0 -2.8509441880275954e-06 1.0979420672493831e-09 0 -4.1985145526689519e-06 9.2020590425631855e-07 0 -2.9776069054547986e-05 -2.738966070035748e-05 0 -2.7192904085098357e-05 -2.7692324385572902e-05 0 -2.7326034550589524e-05 -2.5846278269263117e-05 0 -2.0195049358577374e-05 -3.0631885669758959e-05 0 -1.9391732203948783e-05 -3.0118387327560035e-05 0 -2.0144061940432322e-05 -2.9600392279053056e-05 0 -2.4184372247417688e-09 -5.8471284512305924e-10 0 -3.6913007608356767e-06 -3.4005752732605497e-07 0 -2.8509441880275945e-06 1.0979420672491506e-09 0 -1.8850734937718311e-09 2.4486651855037033e-10 0 -2.0920442813295501e-06 -3.0317414211427012e-07 0 -2.8524263685444282e-06 -1.3666499421703569e-07 0 -3.0398195969394455e-06 4.8893040235853248e-07 0 -2.3678622811945839e-06 -3.8527370414368971e-07 0 -2.169354921560894e-06 1.1690698203811356e-07 0 -1.0063798840247867e-05 -3.6745162454383799e-06 0 -8.4947192707436974e-06 -2.3185723618208229e-06 0 -6.1439673126320136e-06 -1.9787743569647588e-06 0 -1.4608479857272327e-05 4.255707176618176e-06 0 -8.7276176135508843e-06 1.9527649247432625e-06 0 -1.2090947130551015e-05 2.2526504211701652e-06 0 -1.9179856444046572e-05 -1.5434259755582039e-05 0 -1.791230449446259e-05 -1.2691634167733852e-05 0 -2.0130062117816186e-05 -1.4097806793425398e-05 0 -1.8650723294240225e-05 -1.1302033548439479e-05 0 -1.6485840342813224e-05 -8.4153333434194347e-06 0 -1.8054162658666433e-05 -8.7899331376278807e-06 0 2.0556450440209359e-06 0.00019733028417897742 0 -1.5604484281514452e-05 0.00020016547184323384 0 -1.1221538155616234e-05 0.00018374117748423923 0 -5.5962491815051972e-05 -9.3155857142870893e-05 0 -4.7638981627735565e-05 -9.2240332860451764e-05 0 -4.9046690139745927e-05 -8.5446875463826224e-05 0 -1.8650723294240225e-05 -1.1302033548439479e-05 0 -2.0130062117816186e-05 -1.4097806793425398e-05 0 -1.791230449446259e-05 -1.2691634167733852e-05 0 -2.0325581934755381e-05 -2.2430346589939861e-05 0 -1.8494952956519315e-05 -2.1766040718118287e-05 0 -1.9529834494750146e-05 -1.9086398732260059e-05 0 -5.3698477891563168e-05 0.0001175320212123873 0 -4.7089879535366877e-05 9.3129006694732397e-05 0 -3.7513841955537765e-05 0.00010174415161877136 0 -3.2022386154226004e-09 -4.1592459813761553e-10 0 -3.4150696671963477e-09 2.4944654117765486e-10 0 -2.8509441880275945e-06 1.0979420672491506e-09 0 -2.5063821121154059e-09 -2.7568705500457743e-10 0 -2.237919638624376e-09 1.7722554343799525e-10 0 -2.0920442813295501e-06 -3.0317414211427012e-07 0 -3.0398195969394455e-06 4.8893040235853248e-07 0 -3.7627652113597221e-06 1.3690103859341301e-07 0 -2.3678622811945839e-06 -3.8527370414368971e-07 0 -2.7093861007284546e-05 0.00018670883539415061 0 -4.4248308287502481e-05 0.00019912369884667801 0 -4.2661391088871422e-05 0.00017871156603060229 0 -4.1930351132990183e-05 -8.5968002549895178e-05 0 -3.5110885860826915e-05 -9.1509430210558009e-05 0 -3.5078914481710306e-05 -8.2313303098323576e-05 0 -3.107165709344447e-05 -4.6328945561304352e-05 0 -2.5693425829044162e-05 -4.6263771232389523e-05 0 -2.4696417206800729e-05 -3.7983316583576356e-05 0 -1.2629425370506742e-06 3.4600814371885161e-07 0 -1.775770384534979e-06 6.5303209895085992e-07 0 -1.6410348512986926e-06 4.1356993753439219e-07 0 -1.0600921987463764e-05 1.8518122995647072e-06 0 -8.3129534196090679e-06 1.7041093179463026e-06 0 -1.2103258383029407e-05 3.3316400766379536e-06 0 -1.8494952956519315e-05 -2.1766040718118287e-05 0 -1.7487900005834101e-05 -1.8960792050366027e-05 0 -1.9529834494750146e-05 -1.9086398732260059e-05 0 -1.6410348512986926e-06 4.1356993753439219e-07 0 -1.775770384534979e-06 6.5303209895085992e-07 0 -2.0656429905162497e-06 7.7309641881601342e-07 0 -1.775770384534979e-06 6.5303209895085992e-07 0 -1.0675922235198671e-06 3.8608263371264111e-07 0 -1.8566165818469826e-06 6.6096017999023358e-07 0 -1.3870365540588646e-06 5.3392702739551916e-07 0 -1.8566165818469826e-06 6.6096017999023358e-07 0 -1.0675922235198671e-06 3.8608263371264111e-07 0 -2.7592702927298009e-05 -2.2282732024602123e-05 0 -2.5944565448210733e-05 -2.1021383045735156e-05 0 -2.7020850388907182e-05 -2.0475605545955606e-05 0 -1.6458386882981632e-05 -5.7325489383469379e-06 0 -1.6485840342813221e-05 -8.4153333434194347e-06 0 -1.5177482177870579e-05 -4.5962115695480101e-06 0 -2.0170608948373153e-05 -2.4856822364118304e-05 0 -1.8494952956519315e-05 -2.1766040718118287e-05 0 -2.0325581934755381e-05 -2.2430346589939861e-05 0 -9.5985168495501683e-06 4.9262533292047153e-06 0 -1.351045865528206e-05 -8.2894795670584517e-07 0 -1.1340669919558971e-05 2.994192070598626e-06 0 3.8318349095069405e-06 0.00017888339749550842 0 2.0556450440209359e-06 0.00019733028417897742 0 -1.1221538155616234e-05 0.00018374117748423923 0 -5.596792778660289e-05 -8.5422603246194516e-05 0 -5.5962491815051972e-05 -9.3155857142870893e-05 0 -4.9046690139745927e-05 -8.5446875463826224e-05 0 -5.5744000008020474e-05 -7.7261020760457173e-05 0 -5.596792778660289e-05 -8.5422603246194516e-05 0 -4.9046690139745927e-05 -8.5446875463826224e-05 0 5.7073718156396104e-06 0.00016105408090357501 0 3.8318349095069405e-06 0.00017888339749550842 0 -1.1221538155616234e-05 0.00018374117748423923 0 -6.794038908327018e-06 7.6373317447516999e-06 0 -6.6560567855193446e-06 6.1106840638304549e-06 0 -9.5985168495501683e-06 4.9262533292047153e-06 0 -3.4063624592885947e-06 6.3851017541062237e-07 0 -2.2515068449353355e-06 6.5702363093468601e-07 0 -3.4469144247741883e-06 5.0725189120600654e-07 0 -1.992527784704069e-06 5.7390381726156991e-07 0 -3.4469144247741883e-06 5.0725189120600654e-07 0 -2.2515068449353355e-06 6.5702363093468601e-07 0 -9.4954507832205079e-06 0.00010254932171713547 0 -5.3835503013786953e-06 0.00011533584098123098 0 -2.3307744227095582e-05 0.00011661968761907777 0 -5.3835503013786953e-06 0.00011533584098123098 0 -1.0553767185059955e-05 0.00012906180231605656 0 -2.3307744227095582e-05 0.00011661968761907777 0 -1.3885370859104063e-05 -3.5469755473247105e-06 0 -1.351045865528206e-05 -8.2894795670584644e-07 0 -1.5177482177870579e-05 -4.5962115695480101e-06 0 -2.1147421307376294e-05 -3.0347456946002472e-05 0 -2.0144061940432322e-05 -2.9600392279053056e-05 0 -2.1038930531915242e-05 -2.8239964052871243e-05 0 -2.4669217170247714e-05 -2.8428843394843225e-05 0 -2.5158932052532612e-05 -2.5827946928975097e-05 0 -2.7326034550589524e-05 -2.5846278269263117e-05 0 -6.6560567855193446e-06 6.1106840638304549e-06 0 -8.6216879056317049e-06 3.7456295129998789e-06 0 -9.5985168495501683e-06 4.9262533292047153e-06 0 -9.4342840541032188e-05 0.0001856271808373357 0 -9.4054276175157062e-05 0.0001672939021100643 0 -7.8119154016137424e-05 0.00018530753295250738 0 -1.4375933006163357e-05 -7.3395254494598014e-05 0 -2.2158450460094329e-05 -8.4339370615414924e-05 0 -1.5838918278704066e-05 -8.1683688227259806e-05 0 -2.0941662538958024e-05 -7.5898428615917831e-06 0 -2.0767829256683469e-05 -7.434507973179763e-06 0 -1.6674881558052119e-05 -5.2485464352355715e-06 0 -3.2584787817105272e-05 1.0867513962089616e-05 0 -2.549749344149102e-05 7.2045895006753606e-06 0 -3.1539608790661381e-05 1.0967659723413574e-05 0 -1.3885370859104063e-05 -3.5469755473247105e-06 0 -1.6485840342813224e-05 -8.4153333434194347e-06 0 -1.4198549249439482e-05 -8.8423932908551351e-06 0 -1.3628463307103867e-05 -1.1583563562516343e-05 0 -1.6470365826646587e-05 -2.0488453904567945e-05 0 -1.1063352448199327e-05 -2.1467016539038666e-05 0 -1.6098914475088909e-05 -1.2328756924796033e-05 0 -1.6485840342813224e-05 -8.4153333434194347e-06 0 -1.791230449446259e-05 -1.2691634167733852e-05 0 -1.8650723294240225e-05 -1.1302033548439479e-05 0 -1.791230449446259e-05 -1.2691634167733852e-05 0 -1.6485840342813224e-05 -8.4153333434194347e-06 0 -3.5216822899627613e-05 -0.00010028902722192286 0 -2.9456195827598793e-05 -0.00010015835913916143 0 -2.9771934717299709e-05 -9.410074044625315e-05 0 -4.4466998234803924e-05 0.00022009397148866505 0 -6.0300448467765327e-05 0.00022017677795652861 0 -5.8846199710287789e-05 0.00020483535079650008 0 -2.9446486767341541e-05 0.00021961756348367107 0 -4.4466998234803924e-05 0.00022009397148866505 0 -3.0355895731522005e-05 0.00020483929174857518 0 -4.1566410929560129e-05 -0.00010026651117355215 0 -3.5216822899627613e-05 -0.00010028902722192286 0 -4.0959041447580664e-05 -9.3840157585440231e-05 0 -1.5838787726071997e-05 2.2615503550005376e-05 0 -2.6141837171198199e-05 3.5168352291787301e-05 0 -2.6153142393824432e-05 2.4309560956846722e-05 0 -2.1603925591739816e-05 -1.4052128323089974e-05 0 -2.3568333654293683e-05 -1.6641604820280985e-05 0 -2.2273116020369363e-05 -1.6770462922547013e-05 0 -1.6098914475088909e-05 -1.2328756924796033e-05 0 -1.791230449446259e-05 -1.2691634167733852e-05 0 -1.6798798969527502e-05 -1.5513206341083585e-05 0 -1.9179856444046572e-05 -1.5434259755582039e-05 0 -1.6798798969527502e-05 -1.5513206341083585e-05 0 -1.791230449446259e-05 -1.2691634167733852e-05 0 -2.0377805342641236e-05 -3.9858449430822809e-05 0 -1.8706476288688539e-05 -3.0079864549921861e-05 0 -2.4696417206800729e-05 -3.7983316583576356e-05 0 -7.210591189608882e-05 5.6140549012238565e-05 0 -5.2643532453298538e-05 4.4929536363494522e-05 0 -6.4399257866727569e-05 6.2205373673404344e-05 0 -1.7646655841259007e-05 -8.6658424376393326e-06 0 -2.1544757070956732e-05 -1.2500998814522692e-05 0 -1.678821006101484e-05 -9.952808868729443e-06 0 -1.9461493809873148e-05 -1.4020431794413721e-05 0 -1.678821006101484e-05 -9.952808868729443e-06 0 -2.1544757070956732e-05 -1.2500998814522692e-05 0 -2.6477851858518113e-05 -2.4314977092434277e-05 0 -2.4255532692620697e-05 -2.4194081669529035e-05 0 -2.5673857916714686e-05 -2.2993004762831193e-05 0 -5.9190895726103967e-05 9.0393052539451888e-05 0 -7.2632809210327793e-05 0.00010081640251315862 0 -6.5730550186757924e-05 7.8168342810603093e-05 0 -2.0404307435560021e-05 -7.8479800416405788e-06 0 -2.5039354775103045e-05 -1.1034430095140986e-05 0 -2.134199946713384e-05 -9.8946373423977728e-06 0 -2.5982346912467021e-05 -1.3491818312976346e-05 0 -2.134199946713384e-05 -9.8946373423977728e-06 0 -2.5039354775103045e-05 -1.1034430095140986e-05 0 -3.9054376210347423e-05 2.4153588701590911e-05 0 -3.8532864492821963e-05 1.8603851811420269e-05 0 -3.0883804560888902e-05 1.6813114292541068e-05 0 -3.0493574993583262e-05 1.2621884973502149e-05 0 -3.0883804560888902e-05 1.6813114292541068e-05 0 -3.8532864492821963e-05 1.8603851811420269e-05 0 -2.4775009694142139e-05 -1.9145760025516911e-05 0 -2.3011155662584179e-05 -1.9288431982946778e-05 0 -2.2273116020369363e-05 -1.6770462922547013e-05 0 -4.2258280173053026e-05 -2.7747781545980338e-05 0 -3.934553541643103e-05 -3.0167797786308929e-05 0 -3.349927577067037e-05 -2.2894918961729881e-05 0 -1.5665679490468601e-05 8.5410831857112745e-05 0 -2.5491369980607993e-05 6.8265433834848835e-05 0 -1.2010760754653743e-05 6.498202472412239e-05 0 -1.3229403727553299e-05 -1.1052681575532779e-06 0 -1.4163543417165973e-05 -3.3500024195775533e-06 0 -1.6075600315471193e-05 -4.6996761132696734e-06 0 -4.5552020279533609e-06 1.9426137312756213e-06 0 -4.0373512820037597e-06 3.0854415059265378e-06 0 -3.4920622328249036e-06 2.0883955376344289e-06 0 -6.6945396114763579e-05 0.00014644371894291394 0 -5.4574000538998604e-05 0.00015202409647186476 0 -7.1218996973169624e-05 0.00016771401384455827 0 -2.3479413289745759e-05 -6.6213854535306541e-05 0 -2.8789975372325633e-05 -6.9819937198051929e-05 0 -2.3563250585204996e-05 -7.6345555744729467e-05 0 -1.3885370859104063e-05 -3.5469755473247105e-06 0 -1.5177482177870579e-05 -4.5962115695480092e-06 0 -1.6485840342813224e-05 -8.4153333434194347e-06 0 -2.5158932052532612e-05 -2.5827946928975097e-05 0 -2.4255532692620697e-05 -2.4194081669529035e-05 0 -2.6477851858518113e-05 -2.4314977092434277e-05 0 -1.9179856444046572e-05 -1.5434259755582039e-05 0 -2.0907881084060046e-05 -1.6985850163557677e-05 0 -1.9529834494750146e-05 -1.9086398732260059e-05 0 -1.3140408477703746e-09 -2.5426412620752625e-10 0 -1.009503573853082e-06 -3.3548669349774818e-07 0 -1.4361043106174577e-06 -5.4075019257910714e-07 0 -1.3061778911558125e-09 2.0232047290945217e-10 0 -1.428025211403316e-06 3.774973797170153e-07 0 -1.1321149158634861e-06 3.9507094340062624e-07 0 -1.8706476288688539e-05 -3.0079864549921861e-05 0 -2.391825648068637e-05 -3.0371696033689243e-05 0 -2.4696417206800729e-05 -3.7983316583576356e-05 0 -1.0600921987463764e-05 1.8518122995647072e-06 0 -1.2103258383029407e-05 3.3316400766379536e-06 0 -1.4422234734991532e-05 3.0782929943619016e-06 0 -2.1823898309194057e-05 1.4124724259883218e-05 0 -2.6153142393824428e-05 2.4309560956846722e-05 0 -3.1963212830377263e-05 2.291756596577811e-05 0 -1.6025020505945552e-06 -1.9677133985635488e-07 0 -8.7172935248338383e-07 -1.3241878070609872e-07 0 -1.6005408968660254e-06 1.0396112169113639e-07 0 -1.1650633997902163e-06 1.6131065547992463e-07 0 -1.6005408968660254e-06 1.0396112169113639e-07 0 -8.7172935248338383e-07 -1.3241878070609872e-07 0 -1.3870365540588646e-06 5.3392702739551916e-07 0 -1.0439167849360658e-06 4.3114354130963376e-07 0 -2.2515068449353355e-06 6.5702363093468601e-07 0 -1.992527784704069e-06 5.7390381726156991e-07 0 -2.2515068449353355e-06 6.5702363093468601e-07 0 -1.0439167849360658e-06 4.3114354130963376e-07 0 -1.8757507756581349e-05 8.1193630690977064e-06 0 -1.5542194722816858e-05 9.2275952668860709e-06 0 -2.1823898309194057e-05 1.4124724259883218e-05 0 -4.5552020279533609e-06 1.9426137312756213e-06 0 -5.5162608747962078e-06 2.8469856489765528e-06 0 -4.0373512820037597e-06 3.0854415059265378e-06 0 -3.9692920832752057e-06 1.7354809129128704e-06 0 -4.4798514185192192e-06 8.5177438414018266e-07 0 -3.0398195969394455e-06 4.8893040235853248e-07 0 -1.2103258383029407e-05 3.3316400766379536e-06 0 -8.3129534196090679e-06 1.7041093179463026e-06 0 -9.8277963315353533e-06 3.8213297341387658e-06 0 -7.5184085842348023e-06 2.5861336194644995e-06 0 -6.0650235271895489e-06 4.4632550727001741e-06 0 -5.5162608747962078e-06 2.8469856489765524e-06 0 -8.1307127426192054e-06 -1.4619432671776805e-06 0 -9.0312606675503774e-06 -2.2609802669809194e-06 0 -6.8559560426159002e-06 -8.099626504055056e-07 0 -8.0481544323678268e-06 -1.7349101154878034e-06 0 -6.8559560426159002e-06 -8.099626504055056e-07 0 -9.0312606675503774e-06 -2.2609802669809194e-06 0 -3.4150696671962943e-09 2.4944654117765497e-10 0 -2.4184372247417688e-09 -5.8471284512305924e-10 0 -2.8509441880275945e-06 1.0979420672491506e-09 0 -1.8850734937718311e-09 2.4486651855037033e-10 0 -2.5063821121154059e-09 -2.7568705500457743e-10 0 -2.0920442813295501e-06 -3.0317414211427012e-07 0 8.1963554545139935e-06 6.5688619795040471e-05 0 -1.2010760754653743e-05 6.498202472412239e-05 0 -8.5787645813355031e-06 4.7660545051308342e-05 0 -3.4063624592885947e-06 6.3851017541062237e-07 0 -4.9425049897127925e-06 2.0865107985849847e-07 0 -3.5603369113915895e-06 7.7570164366985173e-07 0 -1.6612155929737255e-05 -6.3375209209250425e-06 0 -1.3603291593237625e-05 -4.740610988901573e-06 0 -1.5211819679455254e-05 -7.6687745948380833e-06 0 -2.2928112124931621e-05 -2.6130964881508719e-05 0 -2.4255532692620697e-05 -2.4194081669529035e-05 0 -2.5158932052532612e-05 -2.5827946928975097e-05 0 -1.7166813630268565e-05 -5.9118801273471214e-06 0 -1.6674881558052119e-05 -5.2485464352355715e-06 0 -1.4004086975587214e-05 -4.2203007062577291e-06 0 -2.6035654885221275e-05 7.7431415831585936e-06 0 -2.0883737982985898e-05 5.1246989313135494e-06 0 -2.549749344149102e-05 7.2045895006753606e-06 0 -2.1364026414481605e-05 -1.9322940271114847e-05 0 -1.9529834494750146e-05 -1.9086398732260059e-05 0 -2.0907881084060046e-05 -1.6985850163557677e-05 0 -1.6674881558052119e-05 -5.2485464352355715e-06 0 -1.4164860281663203e-05 -4.0765161118989192e-06 0 -1.3481687853119409e-05 -3.7217649417501204e-06 0 -1.8436664199912553e-05 4.9517979239700602e-06 0 -1.6605570731122411e-05 5.3470499774217116e-06 0 -2.351985333134639e-05 7.6056911172465194e-06 0 -1.7696857036898485e-05 -5.9329013243844442e-06 0 -1.4164860281663203e-05 -4.0765161118989192e-06 0 -1.6674881558052119e-05 -5.2485464352355715e-06 0 -6.1699421093160985e-06 -4.3965506098272861e-07 0 -7.3164949941775614e-06 -9.4050365190313961e-07 0 -8.1683253360713581e-06 -1.2891722109884306e-06 0 -6.0133900985822998e-06 5.3403836695765379e-07 0 -8.3129534196090679e-06 1.7041093179463026e-06 0 -8.5541102160939027e-06 6.6328774384173706e-07 0 -2.5100570087083728e-05 1.1436813976613814e-05 0 -1.8757507756581349e-05 8.1193630690977064e-06 0 -2.1823898309194057e-05 1.4124724259883218e-05 0 -2.4775009694142139e-05 -1.9145760025516911e-05 0 -2.2273116020369363e-05 -1.6770462922547013e-05 0 -2.3568333654293683e-05 -1.6641604820280985e-05 0 -1.8248840960356106e-05 0.00014701541015803152 0 -1.4851760255055167e-05 0.00016737486251483004 0 -2.9873740859730833e-05 0.00016553636169282444 0 -4.3516799226811727e-05 -6.8551872971392726e-05 0 -4.6450415442679733e-05 -7.7931991353880791e-05 0 -3.9708227456105234e-05 -7.6500793230203069e-05 0 -1.6025020505945552e-06 -1.9677133985635488e-07 0 -1.009503573853082e-06 -3.3548669349774818e-07 0 -8.7172935248338383e-07 -1.3241878070609872e-07 0 -1.992527784704069e-06 5.7390381726156991e-07 0 -1.0439167849360658e-06 4.311435413096337e-07 0 -1.1321149158634861e-06 3.9507094340062624e-07 0 -1.670735145869811e-09 -3.7465915476693301e-10 0 -1.4361043106174577e-06 -5.4075019257910714e-07 0 -1.6411633944137915e-06 -5.6214804819887222e-07 0 -1.5236497460555917e-09 2.0320098100145307e-10 0 -1.4741742335646193e-06 2.6279998597333863e-07 0 -1.428025211403316e-06 3.774973797170153e-07 0 -1.6612155929737255e-05 -6.3375209209250425e-06 0 -1.9013477593065037e-05 -8.7258527509613499e-06 0 -1.8476973247252514e-05 -7.7042547253655354e-06 0 -2.0257964633472458e-05 -1.0018681311852599e-05 0 -1.8476973247252514e-05 -7.7042547253655354e-06 0 -1.9013477593065037e-05 -8.7258527509613499e-06 0 -3.8384522026512455e-05 7.321418574728113e-05 0 -3.4302917499863693e-05 5.3060977520967339e-05 0 -2.5491369980607993e-05 6.8265433834848835e-05 0 -2.0699646717820788e-05 4.6982178101251966e-05 0 -2.5491369980607996e-05 6.8265433834848835e-05 0 -3.4302917499863693e-05 5.3060977520967339e-05 0 -7.5504615726831489e-06 1.1569322209055971e-05 0 -5.1814833215142534e-06 7.9280287190232695e-06 0 -4.3246484913559765e-06 1.2624897298409687e-05 0 -1.6612155929737255e-05 -6.3375209209250425e-06 0 -1.4163543417165973e-05 -3.3500024195775533e-06 0 -1.3603291593237625e-05 -4.740610988901573e-06 0 -2.2692943831155324e-06 6.6664265997059033e-07 0 -1.6410348512986926e-06 4.1356993753439219e-07 0 -2.0656429905162497e-06 7.7309641881601342e-07 0 -2.1603925591739816e-05 -1.4052128323089974e-05 0 -2.2273116020369363e-05 -1.6770462922547013e-05 0 -2.0130062117816186e-05 -1.4097806793425398e-05 0 -5.3698477891563168e-05 0.0001175320212123873 0 -6.0795696022246264e-05 0.00010391258804088211 0 -4.7089879535366877e-05 9.3129006694732397e-05 0 -2.7592702927298009e-05 -2.2282732024602123e-05 0 -2.7020850388907182e-05 -2.0475605545955606e-05 0 -2.869598527645644e-05 -2.2895995711678213e-05 0 -2.0325581934755381e-05 -2.2430346589939861e-05 0 -2.1502149732414413e-05 -2.1390139370529369e-05 0 -2.1867479211059451e-05 -2.432787776146793e-05 0 -5.1969144786786101e-06 -1.0520644633327075e-08 0 -3.4469144247741883e-06 5.0725189120600654e-07 0 -4.929392894348402e-06 3.109163528743589e-08 0 -3.6789473214981411e-05 3.6758159067541714e-05 0 -2.6153142393824432e-05 2.4309560956846722e-05 0 -2.6141837171198199e-05 3.5168352291787301e-05 0 -6.8112219694074852e-06 -2.8524220887510468e-06 0 -1.0063798840247867e-05 -3.6745162454383799e-06 0 -6.1439673126320136e-06 -1.9787743569647588e-06 0 -1.4608479857272327e-05 4.255707176618176e-06 0 -9.6519084658639283e-06 3.27263673360394e-06 0 -8.7276176135508826e-06 1.9527649247432625e-06 0 -1.6098914475088909e-05 -1.2328756924796033e-05 0 -1.4198549249439482e-05 -8.8423932908551351e-06 0 -1.6485840342813224e-05 -8.4153333434194347e-06 0 -3.1095803617021103e-06 1.1970310116667294e-07 0 -5.1721873346400556e-06 -2.2543044440963659e-07 0 -3.0643369655620256e-06 3.1671100681579197e-07 0 -3.6301491543763778e-06 -5.8477323424434232e-07 0 -3.0459955044719442e-06 -6.2257537736857465e-07 0 -5.8649835615948142e-06 -1.6869503697779804e-07 0 -6.4690814005660056e-05 4.2137323086281443e-05 0 -5.007793851476278e-05 3.2919247003700006e-05 0 -5.2643532453298538e-05 4.4929536363494522e-05 0 -3.8219924234379175e-05 -2.1716275053422543e-05 0 -3.349927577067037e-05 -2.2894918961729881e-05 0 -3.1368634115823546e-05 -1.7392453435278595e-05 0 -1.5838787726071997e-05 2.2615503550005376e-05 0 -7.5477313339950357e-06 1.70500001758774e-05 0 -1.1665692577083124e-05 3.0016053948443222e-05 0 -1.1671888195740465e-06 1.8906583325037543e-05 0 -1.1665692577083124e-05 3.0016053948443222e-05 0 -7.5477313339950357e-06 1.70500001758774e-05 0 -2.1045140126771981e-05 -2.3397068506156656e-05 0 -2.6251737063436072e-05 -2.594637629269233e-05 0 -2.391825648068637e-05 -3.0371696033689243e-05 0 -2.8681061888983937e-05 -3.5751966823875195e-05 0 -2.391825648068637e-05 -3.0371696033689243e-05 0 -2.6251737063436072e-05 -2.594637629269233e-05 0 -1.3885370859104063e-05 -3.5469755473247105e-06 0 -1.1135066209423673e-05 8.460090620918734e-07 0 -1.1340669919558971e-05 2.994192070598626e-06 0 -2.2928112124931621e-05 -2.6130964881508719e-05 0 -2.5158932052532616e-05 -2.5827946928975101e-05 0 -2.3450086797756222e-05 -2.7606132372752848e-05 0 -2.2692943831155324e-06 6.6664265997059033e-07 0 -3.0398195969394455e-06 4.8893040235853248e-07 0 -2.169354921560894e-06 1.1690698203811356e-07 0 -2.1544757070956732e-05 -1.2500998814522692e-05 0 -2.7406086454344763e-05 -1.7017763093029531e-05 0 -2.3561875472745104e-05 -1.6438363502986562e-05 0 -2.1147421307376294e-05 -3.0347456946002472e-05 0 -2.1038930531915242e-05 -2.8239964052871243e-05 0 -2.2155431223584961e-05 -2.8210886980939427e-05 0 -5.3255019503383362e-05 6.181026406128375e-05 0 -6.4399257866727569e-05 6.2205373673404344e-05 0 -5.2643532453298538e-05 4.4929536363494522e-05 0 -7.1218996973169624e-05 0.00016771401384455827 0 -5.4574000538998604e-05 0.00015202409647186476 0 -5.4457109499868337e-05 0.00016928042235832142 0 -2.3563250585204996e-05 -7.6345555744729467e-05 0 -2.8789975372325633e-05 -6.9819937198051929e-05 0 -3.002442123807341e-05 -7.7750789440403205e-05 0 -6.2913334686293278e-06 -2.5437288187453281e-07 0 -5.9020388364483644e-06 4.9689098838196038e-07 0 -4.843145480363993e-06 5.1294378014961999e-07 0 -2.0257964633472458e-05 -1.0018681311852599e-05 0 -1.9013477593065037e-05 -8.7258527509613499e-06 0 -2.1646409329194728e-05 -1.157512372073519e-05 0 -2.7937518099566541e-06 1.3279015602301579e-06 0 -3.4920622328249036e-06 2.0883955376344289e-06 0 -2.9984483134798592e-06 1.8632399697162039e-06 0 -3.5171825126679067e-06 2.8017292186297107e-06 0 -2.9984483134798592e-06 1.8632399697162039e-06 0 -3.4920622328249036e-06 2.0883955376344289e-06 0 -1.2103258383029407e-05 3.3316400766379536e-06 0 -1.6605570731122411e-05 5.3470499774217116e-06 0 -1.4422234734991532e-05 3.0782929943619016e-06 0 -2.8681061888983937e-05 -3.5751966823875195e-05 0 -3.3701015296920572e-05 -4.1300197655894806e-05 0 -3.107165709344447e-05 -4.6328945561304352e-05 0 -1.5671260655539243e-05 2.9937616935271487e-06 0 -1.2444745577377546e-05 1.774194589332297e-06 0 -1.8843472160331614e-05 4.2890205513338907e-06 0 -2.3307744227095582e-05 0.00011661968761907777 0 -3.9190472385320933e-05 0.00013482013658877874 0 -4.1559322443448772e-05 0.0001186608263024478 0 -2.3307744227095582e-05 0.00011661968761907777 0 -4.1559322443448772e-05 0.0001186608263024478 0 -3.7513841955537765e-05 0.00010174415161877136 0 -5.3698477891563168e-05 0.0001175320212123873 0 -3.7513841955537765e-05 0.00010174415161877136 0 -4.1559322443448772e-05 0.0001186608263024478 0 -3.7558230221897842e-05 -5.4330840023000876e-05 0 -3.3604466472052756e-05 -6.2501320586058585e-05 0 -3.0166697911368781e-05 -5.3917712725540443e-05 0 -3.7558230221897842e-05 -5.4330840023000876e-05 0 -3.0166697911368781e-05 -5.3917712725540443e-05 0 -3.107165709344447e-05 -4.6328945561304352e-05 0 -5.1814833215142534e-06 7.9280287190232695e-06 0 -4.6298140266521374e-06 9.130168650062654e-06 0 -4.3246484913559765e-06 1.2624897298409687e-05 0 -1.0831423034722953e-09 -1.9407305929043844e-10 0 -8.4742499336441234e-10 2.1255748009228493e-11 0 -8.7172935248338383e-07 -1.3241878070609872e-07 0 -9.7909579839253719e-10 1.6309144568586844e-10 0 -1.1503268151548231e-09 2.1339409591820614e-10 0 -1.0439167849360658e-06 4.3114354130963376e-07 0 -4.9425049897127925e-06 2.0865107985849847e-07 0 -4.8431454803639938e-06 5.1294378014961989e-07 0 -3.5603369113915895e-06 7.7570164366985173e-07 0 -1.3628463307103867e-05 -1.1583563562516343e-05 0 -1.3543885251728483e-05 -9.8729589453470656e-06 0 -1.576180166733644e-05 -1.4118558073045659e-05 0 -1.2444745577377546e-05 1.7741945893322972e-06 0 -1.4422234734991532e-05 3.0782929943619016e-06 0 -1.8843472160331614e-05 4.2890205513338907e-06 0 -8.3613761909931572e-10 1.2408475889964812e-10 0 -1.0675922235198671e-06 3.8608263371264111e-07 0 -6.9083477885367704e-07 1.5057961857435235e-07 0 -1.4608479857272327e-05 4.255707176618176e-06 0 -1.2090947130551015e-05 2.2526504211701652e-06 0 -1.6765306865800141e-05 3.9095188474960308e-06 0 -1.0063798840247867e-05 -3.6745162454383799e-06 0 -1.1460528144925917e-05 -3.465696194567876e-06 0 -8.4947192707436974e-06 -2.3185723618208229e-06 0 -3.4551031800988765e-05 -2.9647585366214318e-05 0 -3.349927577067037e-05 -2.2894918961729881e-05 0 -3.934553541643103e-05 -3.0167797786308929e-05 0 -1.8566165818469826e-06 6.6096017999023358e-07 0 -1.3870365540588646e-06 5.3392702739551916e-07 0 -2.5026731537433418e-06 7.4655371247346631e-07 0 -2.4775009694142139e-05 -1.9145760025516911e-05 0 -2.7020850388907182e-05 -2.0475605545955606e-05 0 -2.5944565448210733e-05 -2.1021383045735156e-05 0 -7.5184085842348023e-06 2.5861336194644995e-06 0 -5.5162608747962078e-06 2.8469856489765524e-06 0 -6.9106144246003348e-06 1.5476880016902093e-06 0 -1.5665679490468601e-05 8.5410831857112745e-05 0 -3.1274718399341011e-05 8.6918078851852738e-05 0 -2.5491369980607993e-05 6.8265433834848835e-05 0 -2.2692943831155324e-06 6.6664265997059033e-07 0 -1.6005408968660254e-06 1.0396112169113639e-07 0 -1.6410348512986926e-06 4.1356993753439219e-07 0 -6.1340209404073026e-05 0.00018723065887609356 0 -5.4457109499868337e-05 0.00016928042235832142 0 -4.2661391088871422e-05 0.00017871156603060229 0 -2.8356575506895748e-05 -8.6205779976102401e-05 0 -3.002442123807341e-05 -7.7750789440403205e-05 0 -3.5078914481710306e-05 -8.2313303098323576e-05 0 -1.3870365540588646e-06 5.3392702739551916e-07 0 -2.2515068449353355e-06 6.5702363093468601e-07 0 -2.5026731537433418e-06 7.4655371247346631e-07 0 -7.5184085842348023e-06 2.5861336194644995e-06 0 -8.8601342888162255e-06 4.7709839948274988e-07 0 -1.0352183801913095e-05 9.9601922462417999e-07 0 -2.7093861007284546e-05 0.00018670883539415061 0 -3.0355895731522005e-05 0.00020483929174857518 0 -4.4248308287502481e-05 0.00019912369884667801 0 -6.1340209404073026e-05 0.00018723065887609356 0 -4.4248308287502474e-05 0.00019912369884667803 0 -5.8846199710287789e-05 0.00020483535079650008 0 -4.1930351132990183e-05 -8.5968002549895178e-05 0 -4.0959041447580664e-05 -9.3840157585440231e-05 0 -3.5110885860826915e-05 -9.1509430210558009e-05 0 -2.8356575506895748e-05 -8.6205779976102401e-05 0 -3.5110885860826915e-05 -9.1509430210558009e-05 0 -2.9771934717299709e-05 -9.410074044625315e-05 0 -2.1823898309194057e-05 1.4124724259883218e-05 0 -3.1963212830377263e-05 2.291756596577811e-05 0 -3.0883804560888902e-05 1.6813114292541068e-05 0 -2.6758859406324456e-05 -1.987220881047401e-05 0 -3.349927577067037e-05 -2.2894918961729881e-05 0 -3.0152073295988496e-05 -2.53205401529029e-05 0 -3.4551031800988765e-05 -2.9647585366214318e-05 0 -3.0152073295988496e-05 -2.53205401529029e-05 0 -3.349927577067037e-05 -2.2894918961729881e-05 0 -5.3255019503383362e-05 6.181026406128375e-05 0 -5.2643532453298538e-05 4.4929536363494522e-05 0 -4.3608306997066298e-05 5.1291018998428442e-05 0 -3.6789473214981411e-05 3.6758159067541714e-05 0 -4.3608306997066298e-05 5.1291018998428442e-05 0 -5.2643532453298538e-05 4.4929536363494522e-05 0 -1.992527784704069e-06 5.7390381726156991e-07 0 -2.472480394343772e-06 5.0595784939867924e-07 0 -3.4469144247741883e-06 5.0725189120600654e-07 0 5.9592123910636226e-06 4.5731821205916412e-05 0 8.1963554545139935e-06 6.5688619795040471e-05 0 -8.5787645813355031e-06 4.7660545051308342e-05 0 -3.6301491543763778e-06 -5.8477323424434232e-07 0 -5.6498798509384831e-06 -2.5487126477804903e-07 0 -3.6913007608356763e-06 -3.4005752732605492e-07 0 -3.1095803617021103e-06 1.1970310116667294e-07 0 -2.8524263685444282e-06 -1.3666499421703569e-07 0 -4.512498096861293e-06 -2.9239596650115263e-07 0 -1.6612155929737255e-05 -6.3375209209250425e-06 0 -1.6075600315471193e-05 -4.6996761132696734e-06 0 -1.4163543417165973e-05 -3.3500024195775533e-06 0 -5.1721873346400556e-06 -2.2543044440963662e-07 0 -4.7620890306831134e-06 -2.4353787613192875e-09 0 -3.0643369655620256e-06 3.1671100681579197e-07 0 -5.8649835615948142e-06 -1.6869503697779804e-07 0 -3.0459955044719447e-06 -6.2257537736857465e-07 0 -4.746644995048088e-06 -7.2287212070558062e-08 0 -1.8436664199912553e-05 4.9517979239700602e-06 0 -2.351985333134639e-05 7.6056911172465194e-06 0 -1.8843472160331614e-05 4.2890205513338907e-06 0 -2.549749344149102e-05 7.2045895006753606e-06 0 -1.8843472160331614e-05 4.2890205513338907e-06 0 -2.351985333134639e-05 7.6056911172465194e-06 0 -2.7093861007284546e-05 0.00018670883539415061 0 -2.9873740859730833e-05 0.00016553636169282444 0 -1.4851760255055167e-05 0.00016737486251483004 0 -4.1930351132990183e-05 -8.5968002549895178e-05 0 -3.9708227456105234e-05 -7.6500793230203069e-05 0 -4.6450415442679733e-05 -7.7931991353880791e-05 0 -2.1147421307376294e-05 -3.0347456946002472e-05 0 -2.0195049358577374e-05 -3.0631885669758959e-05 0 -2.0144061940432322e-05 -2.9600392279053056e-05 0 -2.7192904085098357e-05 -2.7692324385572902e-05 0 -2.4669217170247714e-05 -2.8428843394843225e-05 0 -2.7326034550589524e-05 -2.5846278269263117e-05 0 -9.9784141088712547e-06 -2.5061294156471155e-06 0 -8.1307127426192054e-06 -1.4619432671776805e-06 0 -8.1683253360713581e-06 -1.2891722109884306e-06 0 -3.0050451440668615e-05 -2.5278426846339088e-05 0 -2.9225620127137719e-05 -2.411074070657531e-05 0 -2.869598527645644e-05 -2.2895995711678213e-05 0 -1.4538464452459855e-05 -1.8348633470040818e-05 0 -1.540056293369124e-05 -1.9778331020940729e-05 0 -1.7315787900713066e-05 -2.3645028349720915e-05 0 -2.0170608948373153e-05 -2.4856822364118304e-05 0 -1.8861439175017446e-05 -2.4771164449535346e-05 0 -1.8494952956519315e-05 -2.1766040718118287e-05 0 -2.5982346912467021e-05 -1.3491818312976346e-05 0 -2.7406086454344763e-05 -1.7017763093029531e-05 0 -2.1544757070956732e-05 -1.2500998814522692e-05 0 -2.4669217170247714e-05 -2.8428843394843225e-05 0 -2.3450086797756222e-05 -2.7606132372752848e-05 0 -2.5158932052532612e-05 -2.5827946928975097e-05 0 -3.0493574993583262e-05 1.2621884973502149e-05 0 -2.351985333134639e-05 7.6056911172465194e-06 0 -2.5100570087083728e-05 1.1436813976613814e-05 0 -5.9020388364483644e-06 4.9689098838196038e-07 0 -4.64874117947224e-06 1.1002003851654203e-06 0 -4.843145480363993e-06 5.1294378014961999e-07 0 -2.6758859406324456e-05 -1.987220881047401e-05 0 -2.6251737063436072e-05 -2.594637629269233e-05 0 -2.2787719943583798e-05 -1.9417002084805775e-05 0 -2.1045140126771981e-05 -2.3397068506156656e-05 0 -2.2787719943583798e-05 -1.9417002084805775e-05 0 -2.6251737063436072e-05 -2.594637629269233e-05 0 -1.064867348765947e-05 -2.5737078972884268e-06 0 -9.9784141088712547e-06 -2.5061294156471155e-06 0 -8.1683253360713581e-06 -1.2891722109884306e-06 0 -2.6758859406324456e-05 -1.987220881047401e-05 0 -2.3561875472745104e-05 -1.6438363502986562e-05 0 -2.7406086454344763e-05 -1.7017763093029531e-05 0 -9.1416797422861646e-06 -1.6968925713175224e-06 0 -1.064867348765947e-05 -2.5737078972884268e-06 0 -8.1683253360713581e-06 -1.2891722109884306e-06 0 -6.0133900985822998e-06 5.3403836695765379e-07 0 -5.6321710455688588e-06 1.6488179912482623e-06 0 -8.3129534196090679e-06 1.7041093179463026e-06 0 -2.6758859406324456e-05 -1.987220881047401e-05 0 -2.7406086454344763e-05 -1.7017763093029531e-05 0 -3.349927577067037e-05 -2.2894918961729881e-05 0 -3.6789473214981411e-05 3.6758159067541714e-05 0 -5.2643532453298538e-05 4.4929536363494522e-05 0 -4.1891394323608687e-05 3.1806674978152662e-05 0 -2.4184372247417688e-09 -5.8471284512305924e-10 0 -1.7810918334101013e-06 -4.3727391850881293e-07 0 -3.6913007608356763e-06 -3.4005752732605492e-07 0 -1.8850734937718311e-09 2.4486651855037033e-10 0 -2.8524263685444282e-06 -1.3666499421703569e-07 0 -1.4638686951455566e-06 1.1376822485312711e-07 0 -9.1416797422861646e-06 -1.6968925713175224e-06 0 -8.1683253360713581e-06 -1.2891722109884306e-06 0 -7.3164949941775614e-06 -9.4050365190313961e-07 0 -1.0600921987463764e-05 1.8518122995647072e-06 0 -8.5541102160939027e-06 6.6328774384173706e-07 0 -8.3129534196090679e-06 1.7041093179463026e-06 0 -3.4344664936978567e-06 -3.2586166266392526e-07 0 -2.3678622811945839e-06 -3.8527370414368971e-07 0 -3.7627652113597221e-06 1.3690103859341301e-07 0 -1.576180166733644e-05 -1.4118558073045659e-05 0 -1.9272156170382786e-05 -1.7037154523822574e-05 0 -1.6470365826646587e-05 -2.0488453904567945e-05 0 -2.2692943831155324e-06 6.6664265997059033e-07 0 -2.0656429905162493e-06 7.7309641881601353e-07 0 -2.4925598303552052e-06 1.1329403899057779e-06 0 -6.1340209404073026e-05 0.00018723065887609356 0 -7.1218996973169624e-05 0.00016771401384455827 0 -5.4457109499868337e-05 0.00016928042235832142 0 -2.8356575506895748e-05 -8.6205779976102401e-05 0 -2.3563250585204996e-05 -7.6345555744729467e-05 0 -3.002442123807341e-05 -7.7750789440403205e-05 0 -6.1699421093160985e-06 -4.3965506098272861e-07 0 -5.1721873346400556e-06 -2.2543044440963662e-07 0 -7.3164949941775614e-06 -9.4050365190313961e-07 0 -6.0133900985822998e-06 5.3403836695765379e-07 0 -8.5541102160939027e-06 6.6328774384173706e-07 0 -5.8649835615948142e-06 -1.6869503697779804e-07 0 -1.775770384534979e-06 6.5303209895085992e-07 0 -2.5907516843253156e-06 8.5907696620015573e-07 0 -2.4278101987105524e-06 9.5555504262704534e-07 0 -1.9272156170382786e-05 -1.7037154523822574e-05 0 -2.1045140126771981e-05 -2.3397068506156656e-05 0 -1.6470365826646587e-05 -2.0488453904567945e-05 0 -9.1478075786616587e-05 0.00012887719867747511 0 -8.8628986370072797e-05 0.00010948607013844249 0 -7.1987987375233102e-05 0.00011827343239754364 0 -1.081226212793891e-05 -4.6202366499086832e-05 0 -1.8684076488580697e-05 -5.2245970179830528e-05 0 -1.1683873745953549e-05 -5.502577379613588e-05 0 -3.7558230221897842e-05 -5.4330840023000876e-05 0 -3.1071657093444463e-05 -4.6328945561304346e-05 0 -3.654687244749575e-05 -4.6809567216116394e-05 0 -1.1345222358506225e-05 -1.7391379527957731e-06 0 -1.3603291593237625e-05 -4.740610988901573e-06 0 -1.4163543417165973e-05 -3.3500024195775533e-06 0 -1.5671260655539243e-05 2.9937616935271487e-06 0 -1.2090947130551013e-05 2.2526504211701648e-06 0 -1.1532061812318739e-05 1.5473407388331754e-06 0 -1.1050620451027975e-05 -2.7960958750901236e-06 0 -8.4152756443117105e-06 -1.8101873854938195e-06 0 -8.4947192707436974e-06 -2.3185723618208229e-06 0 -5.6251060624709477e-06 5.1608631236987109e-06 0 -5.3736527556716774e-06 3.0236455166831593e-06 0 -4.0602578624624695e-06 3.4937995755548953e-06 0 -1.775770384534979e-06 6.5303209895085992e-07 0 -1.8566165818469826e-06 6.6096017999023358e-07 0 -2.5907516843253156e-06 8.5907696620015563e-07 0 -2.0257964633472458e-05 -1.0018681311852599e-05 0 -2.2582723479710777e-05 -1.3204241707689267e-05 0 -2.063852019846745e-05 -1.126114579455912e-05 0 -1.5671260655539243e-05 2.9937616935271487e-06 0 -1.6765306865800141e-05 3.9095188474960308e-06 0 -1.2090947130551015e-05 2.2526504211701652e-06 0 -1.1050620451027975e-05 -2.7960958750901236e-06 0 -8.4947192707436974e-06 -2.3185723618208229e-06 0 -1.1460528144925919e-05 -3.4656961945678764e-06 0 -7.5184085842348023e-06 2.5861336194644995e-06 0 -6.9106144246003348e-06 1.5476880016902093e-06 0 -8.8601342888162255e-06 4.7709839948274988e-07 0 -3.3953745737547437e-05 -7.2742757820091336e-05 0 -3.3604466472052749e-05 -6.2501320586058571e-05 0 -3.786677211756008e-05 -6.8119782538715254e-05 0 -4.2572142991071591e-05 0.00015797557576662679 0 -3.9190472385320933e-05 0.00013482013658877874 0 -3.1282255235746285e-05 0.00014710575630441853 0 -2.5982346912467021e-05 -1.3491818312976346e-05 0 -2.1544757070956732e-05 -1.2500998814522692e-05 0 -2.134199946713384e-05 -9.8946373423977728e-06 0 -1.7646655841259007e-05 -8.6658424376393326e-06 0 -2.134199946713384e-05 -9.8946373423977728e-06 0 -2.1544757070956732e-05 -1.2500998814522692e-05 0 -1.0168909826160182e-05 -4.0225061314684062e-06 0 -1.1755340119767513e-05 -5.5258185723182478e-06 0 -1.1862028022951697e-05 -6.6238450491199223e-06 0 -1.3768903962818178e-05 -8.3083245416465654e-06 0 -1.1862028022951697e-05 -6.6238450491199223e-06 0 -1.1755340119767513e-05 -5.5258185723182478e-06 0 -1.4361043106174577e-06 -5.4075019257910714e-07 0 -2.3678622811945839e-06 -3.8527370414368971e-07 0 -3.0459955044719447e-06 -6.2257537736857465e-07 0 -3.4344664936978567e-06 -3.2586166266392526e-07 0 -3.0459955044719447e-06 -6.2257537736857465e-07 0 -2.3678622811945839e-06 -3.8527370414368971e-07 0 -3.7245163317726128e-06 2.9846700367003766e-07 0 -2.472480394343772e-06 5.0595784939867924e-07 0 -3.0643369655620256e-06 3.1671100681579197e-07 0 -1.428025211403316e-06 3.774973797170153e-07 0 -3.0643369655620256e-06 3.1671100681579197e-07 0 -2.472480394343772e-06 5.0595784939867924e-07 0 -2.4775009694142139e-05 -1.9145760025516911e-05 0 -2.4541000366013095e-05 -2.1215331529074195e-05 0 -2.3011155662584179e-05 -1.9288431982946778e-05 0 -1.1345222358506225e-05 -1.7391379527957731e-06 0 -1.0352183801913095e-05 9.9601922462417999e-07 0 -8.8601342888162255e-06 4.7709839948274988e-07 0 -3.5171825126679067e-06 2.8017292186297107e-06 0 -3.4976758888468176e-06 2.4467704589584527e-06 0 -2.9984483134798592e-06 1.8632399697162039e-06 0 -2.3307744227095582e-05 0.00011661968761907777 0 -2.4644597190368456e-05 0.00013509628613007259 0 -3.9190472385320933e-05 0.00013482013658877874 0 -3.7558230221897842e-05 -5.4330840023000876e-05 0 -3.9582773297933596e-05 -6.2411595068342335e-05 0 -3.3604466472052756e-05 -6.2501320586058585e-05 0 -2.3307744227095582e-05 0.00011661968761907777 0 -3.7513841955537765e-05 0.00010174415161877136 0 -2.3604737662936752e-05 9.8637031505700905e-05 0 -5.6251060624709477e-06 5.1608631236987109e-06 0 -7.6757719840963791e-06 4.5941544733910848e-06 0 -5.3736527556716765e-06 3.0236455166831593e-06 0 -5.6251060624709477e-06 5.1608631236987109e-06 0 -7.858065108931208e-06 7.7936610201647454e-06 0 -7.6757719840963791e-06 4.5941544733910848e-06 0 -3.8384522026512455e-05 7.321418574728113e-05 0 -3.1274718399341011e-05 8.6918078851852738e-05 0 -4.7089879535366877e-05 9.3129006694732397e-05 0 -3.7513841955537765e-05 0.00010174415161877136 0 -4.7089879535366877e-05 9.3129006694732397e-05 0 -3.1274718399341011e-05 8.6918078851852738e-05 0 -5.8925330692974969e-06 5.2724571914580502e-07 0 -3.6913007608356767e-06 -3.4005752732605487e-07 0 -6.5611096844889088e-06 1.3845365266451091e-07 0 -4.2798569288525742e-06 -8.8680348624105856e-07 0 -4.9601755251622276e-06 -6.5478193511497919e-07 0 -2.8524263685444282e-06 -1.3666499421703569e-07 0 -2.1045140126771981e-05 -2.3397068506156656e-05 0 -2.391825648068637e-05 -3.0371696033689243e-05 0 -1.8706476288688539e-05 -3.0079864549921861e-05 0 -3.0050451440668615e-05 -2.5278426846339088e-05 0 -3.0676797695269542e-05 -2.6965423092006454e-05 0 -2.9225620127137719e-05 -2.411074070657531e-05 0 -1.4538464452459855e-05 -1.8348633470040818e-05 0 -1.7315787900713066e-05 -2.3645028349720915e-05 0 -1.5756559949543872e-05 -2.0811415680925795e-05 0 -7.3741306792953937e-06 2.3039659948679655e-07 0 -8.8601342888162255e-06 4.7709839948274988e-07 0 -6.9106144246003348e-06 1.5476880016902093e-06 0 -3.5171825126679067e-06 2.8017292186297107e-06 0 -4.0907437423436287e-06 4.4566323553833692e-06 0 -4.0602578624624695e-06 3.4937995755548953e-06 0 -2.2928112124931621e-05 -2.6130964881508719e-05 0 -2.1867479211059451e-05 -2.432787776146793e-05 0 -2.4255532692620697e-05 -2.4194081669529035e-05 0 -2.2935388205723606e-05 -2.283483733748588e-05 0 -2.4255532692620697e-05 -2.4194081669529035e-05 0 -2.1867479211059451e-05 -2.432787776146793e-05 0 -1.9179856444046572e-05 -1.5434259755582039e-05 0 -1.9529834494750146e-05 -1.9086398732260059e-05 0 -1.6798798969527502e-05 -1.5513206341083585e-05 0 -6.1340209404073026e-05 0.00018723065887609356 0 -7.8119154016137424e-05 0.00018530753295250738 0 -7.1218996973169624e-05 0.00016771401384455827 0 -2.8356575506895748e-05 -8.6205779976102401e-05 0 -2.2158450460094329e-05 -8.4339370615414924e-05 0 -2.3563250585204996e-05 -7.6345555744729467e-05 0 -2.859313501108582e-05 -2.4635476285560915e-05 0 -3.0061223087032058e-05 -2.618609338976315e-05 0 -2.7326034550589524e-05 -2.5846278269263117e-05 0 -1.9030287913009808e-05 -2.7103204304677486e-05 0 -2.0144061940432322e-05 -2.9600392279053056e-05 0 -1.8832209281272879e-05 -2.8054270254057468e-05 0 -2.7093861007284546e-05 0.00018670883539415061 0 -4.2661391088871422e-05 0.00017871156603060229 0 -2.9873740859730833e-05 0.00016553636169282444 0 -4.1930351132990183e-05 -8.5968002549895178e-05 0 -3.5078914481710306e-05 -8.2313303098323576e-05 0 -3.9708227456105234e-05 -7.6500793230203069e-05 0 -1.775770384534979e-06 6.5303209895085992e-07 0 -2.4278101987105524e-06 9.5555504262704534e-07 0 -2.0656429905162497e-06 7.7309641881601342e-07 0 -2.7937518099566541e-06 1.3279015602301579e-06 0 -2.0656429905162497e-06 7.7309641881601342e-07 0 -2.4278101987105524e-06 9.5555504262704534e-07 0 -1.8248840960356106e-05 0.00014701541015803152 0 -2.9873740859730833e-05 0.00016553636169282444 0 -3.1282255235746285e-05 0.00014710575630441853 0 -4.3516799226811727e-05 -6.8551872971392726e-05 0 -3.9708227456105234e-05 -7.6500793230203069e-05 0 -3.786677211756008e-05 -6.8119782538715254e-05 0 -3.6301491543763778e-06 -5.8477323424434232e-07 0 -3.6913007608356763e-06 -3.4005752732605487e-07 0 -1.7810918334101013e-06 -4.3727391850881293e-07 0 -3.1095803617021103e-06 1.1970310116667294e-07 0 -1.4638686951455566e-06 1.1376822485312711e-07 0 -2.8524263685444282e-06 -1.3666499421703569e-07 0 -2.0699646717820788e-05 4.6982178101251966e-05 0 -1.2010760754653743e-05 6.498202472412239e-05 0 -2.5491369980607993e-05 6.8265433834848835e-05 0 -5.8925330692974969e-06 5.2724571914580502e-07 0 -2.8509441880275945e-06 1.0979420672491506e-09 0 -3.6913007608356763e-06 -3.4005752732605492e-07 0 -4.2798569288525742e-06 -8.8680348624105856e-07 0 -2.8524263685444282e-06 -1.3666499421703569e-07 0 -2.0920442813295501e-06 -3.0317414211427012e-07 0 -9.4054276175157062e-05 0.0001672939021100643 0 -8.0159603186948187e-05 0.00015370146064079716 0 -7.1218996973169624e-05 0.00016771401384455827 0 -1.4375933006163357e-05 -7.3395254494598014e-05 0 -1.8836194493422273e-05 -6.8640566494404263e-05 0 -2.3563250585204996e-05 -7.6345555744729467e-05 0 -1.5838787726071997e-05 2.2615503550005376e-05 0 -2.6153142393824432e-05 2.4309560956846722e-05 0 -1.7447364769214472e-05 1.6947551334278161e-05 0 -2.1823898309194057e-05 1.4124724259883218e-05 0 -1.7447364769214472e-05 1.6947551334278164e-05 0 -2.6153142393824432e-05 2.4309560956846722e-05 0 -2.8681061888983937e-05 -3.5751966823875195e-05 0 -2.6251737063436072e-05 -2.594637629269233e-05 0 -3.0724189058642899e-05 -3.0203703397956928e-05 0 -1.3885370859104063e-05 -3.5469755473247105e-06 0 -1.4198549249439482e-05 -8.8423932908551351e-06 0 -1.1719411450361616e-05 -5.4986225682563087e-06 0 -3.8384522026512455e-05 7.321418574728113e-05 0 -4.4174017754639665e-05 6.2810003575728489e-05 0 -3.4302917499863693e-05 5.3060977520967339e-05 0 -3.6789473214981411e-05 3.6758159067541714e-05 0 -3.4302917499863693e-05 5.3060977520967339e-05 0 -4.3608306997066298e-05 5.1291018998428442e-05 0 -2.6758859406324456e-05 -1.987220881047401e-05 0 -3.0152073295988496e-05 -2.53205401529029e-05 0 -2.6251737063436072e-05 -2.594637629269233e-05 0 -2.1045140126771981e-05 -2.3397068506156656e-05 0 -1.8706476288688539e-05 -3.0079864549921861e-05 0 -1.6470365826646587e-05 -2.0488453904567945e-05 0 -2.7592702927298009e-05 -2.2282732024602123e-05 0 -2.869598527645644e-05 -2.2895995711678213e-05 0 -2.9225620127137719e-05 -2.411074070657531e-05 0 -1.7443894663014502e-05 -2.2291867317853869e-05 0 -1.7315787900713066e-05 -2.3645028349720915e-05 0 -1.540056293369124e-05 -1.9778331020940729e-05 0 -1.3229403727553299e-05 -1.1052681575532779e-06 0 -1.6075600315471193e-05 -4.6996761132696734e-06 0 -1.4680021465653634e-05 -2.6548792424238096e-06 0 -1.6612155929737255e-05 -6.3375209209250425e-06 0 -1.8476973247252514e-05 -7.7042547253655354e-06 0 -1.6075600315471193e-05 -4.6996761132696734e-06 0 -6.6560567855193446e-06 6.1106840638304549e-06 0 -6.0650235271895489e-06 4.4632550727001741e-06 0 -8.6216879056317066e-06 3.7456295129998789e-06 0 -1.576180166733644e-05 -1.4118558073045659e-05 0 -1.3543885251728483e-05 -9.8729589453470656e-06 0 -1.6185393670665153e-05 -1.1839580325907876e-05 0 -2.7093861007284546e-05 0.00018670883539415061 0 -1.4851760255055166e-05 0.00016737486251483004 0 -1.1221538155616234e-05 0.00018374117748423923 0 -4.1930351132990183e-05 -8.5968002549895178e-05 0 -4.6450415442679733e-05 -7.7931991353880791e-05 0 -4.9046690139745927e-05 -8.5446875463826224e-05 0 -7.5184085842348023e-06 2.5861336194644995e-06 0 -8.6216879056317066e-06 3.7456295129998789e-06 0 -6.0650235271895489e-06 4.4632550727001741e-06 0 -1.4033346883735341e-05 -1.4440189084730733e-05 0 -1.6798798969527502e-05 -1.5513206341083585e-05 0 -1.5313840385605568e-05 -1.6953825217898021e-05 0 -2.2935388205723606e-05 -2.283483733748588e-05 0 -2.1867479211059451e-05 -2.432787776146793e-05 0 -2.1502149732414413e-05 -2.1390139370529369e-05 0 -4.7385292497998644e-06 4.1375417312119637e-06 0 -5.5162608747962078e-06 2.8469856489765524e-06 0 -6.0650235271895489e-06 4.4632550727001741e-06 0 -1.6025020505945552e-06 -1.9677133985635488e-07 0 -2.169354921560894e-06 1.1690698203811357e-07 0 -2.3678622811945839e-06 -3.8527370414368971e-07 0 -4.6131264554942761e-05 -3.4853016347065899e-05 0 -4.9322402271526372e-05 -4.2684675834092377e-05 0 -4.0667466093319297e-05 -3.6847852918655904e-05 0 -6.0133900985822998e-06 5.3403836695765379e-07 0 -4.746644995048088e-06 -7.2287212070558062e-08 0 -3.7627652113597221e-06 1.3690103859341301e-07 0 -2.9984483134798592e-06 1.8632399697162039e-06 0 -3.4976758888468176e-06 2.4467704589584527e-06 0 -2.8976345644922524e-06 1.3163192337496496e-06 0 -7.5184085842348023e-06 2.5861336194644995e-06 0 -1.0352183801913095e-05 9.9601922462417999e-07 0 -8.6216879056317066e-06 3.7456295129998789e-06 0 -8.4446135918062718e-05 9.0427431396246342e-05 0 -7.9043939840950353e-05 7.2563157904767024e-05 0 -6.5730550186757924e-05 7.8168342810603093e-05 0 -1.3870365540588646e-06 5.3392702739551916e-07 0 -1.0675922235198671e-06 3.8608263371264111e-07 0 -5.6917423693251754e-07 2.4348039863704021e-07 0 -3.9692920832752057e-06 1.7354809129128704e-06 0 -4.0602578624624695e-06 3.4937995755548953e-06 0 -5.3736527556716765e-06 3.0236455166831593e-06 0 -2.1603925591739816e-05 -1.4052128323089974e-05 0 -2.2680923804115402e-05 -1.4216444332945775e-05 0 -2.3568333654293683e-05 -1.6641604820280985e-05 0 -3.7558230221897842e-05 -5.4330840023000876e-05 0 -4.3117894419940639e-05 -5.052481831473228e-05 0 -4.5400686687314269e-05 -5.9845840143992381e-05 0 -6.0133900985822998e-06 5.3403836695765379e-07 0 -3.7627652113597221e-06 1.3690103859341301e-07 0 -4.4798514185192192e-06 8.5177438414018245e-07 0 -1.775770384534979e-06 6.5303209895085992e-07 0 -1.2629425370506742e-06 3.4600814371885161e-07 0 -1.0675922235198671e-06 3.8608263371264111e-07 0 -7.1541593656361979e-06 2.7700257100101653e-06 0 -5.3736527556716765e-06 3.0236455166831593e-06 0 -7.6757719840963791e-06 4.5941544733910848e-06 0 -2.2582723479710777e-05 -1.3204241707689267e-05 0 -2.2680923804115402e-05 -1.4216444332945775e-05 0 -2.063852019846745e-05 -1.126114579455912e-05 0 -2.7592702927298009e-05 -2.2282732024602123e-05 0 -2.7380719966106395e-05 -2.3179175804903011e-05 0 -2.5944565448210733e-05 -2.1021383045735156e-05 0 -1.8436664199912553e-05 4.9517979239700602e-06 0 -1.4422234734991532e-05 3.0782929943619016e-06 0 -1.6605570731122411e-05 5.3470499774217116e-06 0 5.7073718156396104e-06 0.00016105408090357501 0 -1.4851760255055167e-05 0.00016737486251483004 0 -5.6880321400372124e-06 0.00015201584219845852 0 -5.5744000008020474e-05 -7.7261020760457173e-05 0 -4.6450415442679733e-05 -7.7931991353880791e-05 0 -4.9631697408484735e-05 -7.1707210874597213e-05 0 -2.4925598303552052e-06 1.1329403899057779e-06 0 -2.8976345644922524e-06 1.3163192337496496e-06 0 -2.2692943831155324e-06 6.6664265997059033e-07 0 -2.9984483134798592e-06 1.8632399697162039e-06 0 -2.8976345644922524e-06 1.3163192337496496e-06 0 -2.4925598303552052e-06 1.1329403899057779e-06 0 -6.6945396114763579e-05 0.00014644371894291394 0 -7.1218996973169624e-05 0.00016771401384455827 0 -8.0159603186948187e-05 0.00015370146064079716 0 -2.3479413289745759e-05 -6.6213854535306541e-05 0 -2.3563250585204999e-05 -7.6345555744729467e-05 0 -1.8836194493422273e-05 -6.8640566494404263e-05 0 -2.7937518099566541e-06 1.3279015602301579e-06 0 -3.7896082928413986e-06 1.4507353220437215e-06 0 -3.4920622328249036e-06 2.0883955376344289e-06 0 -4.5552020279533609e-06 1.9426137312756213e-06 0 -3.4920622328249036e-06 2.0883955376344289e-06 0 -3.7896082928413986e-06 1.4507353220437215e-06 0 -2.7937518099566541e-06 1.3279015602301579e-06 0 -2.4925598303552052e-06 1.1329403899057779e-06 0 -2.0656429905162497e-06 7.7309641881601342e-07 0 -1.1050620451027975e-05 -2.7960958750901236e-06 0 -1.1336242069683337e-05 -2.685567663489305e-06 0 -8.7556849305889861e-06 -1.6393376114833698e-06 0 -1.1668899291788786e-05 -4.3078604341821461e-06 0 -1.4233816166102613e-05 -7.0047567731167729e-06 0 -1.1755340119767513e-05 -5.5258185723182478e-06 0 -1.3768903962818178e-05 -8.3083245416465654e-06 0 -1.1755340119767513e-05 -5.5258185723182486e-06 0 -1.4233816166102613e-05 -7.0047567731167729e-06 0 -1.1050620451027975e-05 -2.7960958750901236e-06 0 -8.7556849305889861e-06 -1.6393376114833698e-06 0 -8.4152756443117105e-06 -1.8101873854938195e-06 0 -2.0699646717820788e-05 4.6982178101251966e-05 0 -8.5787645813355031e-06 4.7660545051308342e-05 0 -1.2010760754653743e-05 6.498202472412239e-05 0 -4.2572142991071591e-05 0.00015797557576662679 0 -4.2661391088871422e-05 0.00017871156603060229 0 -5.4457109499868337e-05 0.00016928042235832142 0 -3.3953745737547437e-05 -7.2742757820091336e-05 0 -3.5078914481710306e-05 -8.2313303098323576e-05 0 -3.002442123807341e-05 -7.7750789440403205e-05 0 -6.2913334686293278e-06 -2.5437288187453281e-07 0 -4.9425049897127917e-06 2.0865107985849836e-07 0 -6.4316854305277164e-06 -5.7915994190217495e-07 0 -8.3613761909931572e-10 1.2408475889964812e-10 0 -5.6917423693251754e-07 2.4348039863704021e-07 0 -1.0675922235198671e-06 3.8608263371264111e-07 0 -5.6251060624709477e-06 5.1608631236987109e-06 0 -5.1814833215142534e-06 7.9280287190232695e-06 0 -7.858065108931208e-06 7.7936610201647454e-06 0 -1.7487900005834101e-05 -1.8960792050366027e-05 0 -1.6798798969527502e-05 -1.5513206341083585e-05 0 -1.9529834494750146e-05 -1.9086398732260059e-05 0 -1.9179856444046572e-05 -1.5434259755582039e-05 0 -2.0130062117816186e-05 -1.4097806793425398e-05 0 -2.0907881084060046e-05 -1.6985850163557677e-05 0 -2.5907516843253156e-06 8.5907696620015563e-07 0 -3.5603369113915895e-06 7.7570164366985173e-07 0 -3.1282379651541108e-06 1.0497970806398956e-06 0 -3.4551031800988765e-05 -2.9647585366214318e-05 0 -4.0667466093319297e-05 -3.6847852918655904e-05 0 -3.3560002533580263e-05 -3.5855837755168861e-05 0 -3.8872522662608387e-05 -4.2099798787636911e-05 0 -3.3560002533580263e-05 -3.5855837755168861e-05 0 -4.0667466093319297e-05 -3.6847852918655904e-05 0 -8.2771809332427105e-10 -2.3327030251741766e-11 0 -8.3613761909935346e-10 1.2408475889965634e-10 0 -6.9083477885367704e-07 1.5057961857435235e-07 0 -5.9190895726103967e-05 9.0393052539451888e-05 0 -6.5730550186757924e-05 7.8168342810603093e-05 0 -5.1179402814826849e-05 7.6195288578949797e-05 0 -5.3255019503383362e-05 6.181026406128375e-05 0 -5.1179402814826849e-05 7.6195288578949797e-05 0 -6.5730550186757924e-05 7.8168342810603093e-05 0 -2.859313501108582e-05 -2.4635476285560915e-05 0 -2.7380719966106395e-05 -2.3179175804903011e-05 0 -2.9225620127137719e-05 -2.411074070657531e-05 0 -1.9030287913009808e-05 -2.7103204304677486e-05 0 -1.7315787900713066e-05 -2.3645028349720915e-05 0 -1.8861439175017446e-05 -2.4771164449535346e-05 0 -1.107234876959513e-05 6.7254863448446975e-06 0 -7.6757719840963791e-06 4.5941544733910848e-06 0 -7.858065108931208e-06 7.7936610201647454e-06 0 -2.5673857916714686e-05 -2.2993004762831193e-05 0 -2.4219410476941021e-05 -2.2581463958891067e-05 0 -2.4541000366013095e-05 -2.1215331529074195e-05 0 -5.2429038433833704e-06 1.0278400701024665e-05 0 -5.5338493852772417e-06 1.3044471046621912e-05 0 -4.3246484913559765e-06 1.2624897298409687e-05 0 -6.0133900985822998e-06 5.3403836695765379e-07 0 -4.4798514185192192e-06 8.5177438414018245e-07 0 -5.6321710455688588e-06 1.6488179912482623e-06 0 -2.1823898309194057e-05 1.4124724259883218e-05 0 -1.2810665239354411e-05 1.1189804155488903e-05 0 -1.7447364769214472e-05 1.6947551334278161e-05 0 8.1963554545139935e-06 6.5688619795040471e-05 0 -2.9828097616456883e-06 7.890364998228532e-05 0 -1.2010760754653743e-05 6.498202472412239e-05 0 -6.2913334686293278e-06 -2.5437288187453281e-07 0 -4.843145480363993e-06 5.1294378014961999e-07 0 -4.9425049897127925e-06 2.0865107985849847e-07 0 -4.2572142991071591e-05 0.00015797557576662679 0 -2.9873740859730833e-05 0.00016553636169282444 0 -4.2661391088871422e-05 0.00017871156603060229 0 -3.3953745737547437e-05 -7.2742757820091336e-05 0 -3.9708227456105234e-05 -7.6500793230203069e-05 0 -3.5078914481710306e-05 -8.2313303098323576e-05 0 -3.4063624592885947e-06 6.3851017541062237e-07 0 -4.2953677044557979e-06 3.3482166473916608e-07 0 -4.9425049897127925e-06 2.0865107985849847e-07 0 -1.2510328789741579e-05 -5.8221900563672814e-06 0 -1.5211819679455254e-05 -7.6687745948380833e-06 0 -1.3603291593237625e-05 -4.740610988901573e-06 0 -1.8248840960356106e-05 0.00014701541015803152 0 -5.6880321400372124e-06 0.00015201584219845852 0 -1.4851760255055167e-05 0.00016737486251483004 0 -4.3516799226811727e-05 -6.8551872971392726e-05 0 -4.9631697408484735e-05 -7.1707210874597199e-05 0 -4.6450415442679733e-05 -7.7931991353880791e-05 0 -2.0941662538958024e-05 -7.5898428615917831e-06 0 -2.5035711891682512e-05 -9.826120520928441e-06 0 -2.0767829256683469e-05 -7.434507973179763e-06 0 -3.9874465018945223e-05 1.5464710357121015e-05 0 -3.2584787817105272e-05 1.0867513962089616e-05 0 -3.1539608790661381e-05 1.0967659723413574e-05 0 -1.5838787726071997e-05 2.2615503550005376e-05 0 -1.8508890182020602e-05 3.295357077085611e-05 0 -2.6141837171198199e-05 3.5168352291787301e-05 0 -9.1416797422861646e-06 -1.6968925713175224e-06 0 -1.1557386446057703e-05 -2.8660667297078903e-06 0 -1.064867348765947e-05 -2.5737078972884268e-06 0 -3.0956242909857037e-05 -2.9385873426611009e-05 0 -2.9776069054547986e-05 -2.738966070035748e-05 0 -3.0061223087032058e-05 -2.618609338976315e-05 0 -3.0956242909857037e-05 -2.9385873426611009e-05 0 -3.0061223087032058e-05 -2.618609338976315e-05 0 -3.1087017757830568e-05 -2.8369736331322445e-05 0 -1.7033681498168585e-05 -2.6046155869780801e-05 0 -1.6775819259126106e-05 -2.328205106854126e-05 0 -1.8832209281272879e-05 -2.8054270254057468e-05 0 -1.7033681498168585e-05 -2.6046155869780801e-05 0 -1.8832209281272879e-05 -2.8054270254057468e-05 0 -1.9391732203948783e-05 -3.0118387327560035e-05 0 -2.859313501108582e-05 -2.4635476285560915e-05 0 -2.6477851858518113e-05 -2.4314977092434277e-05 0 -2.7380719966106395e-05 -2.3179175804903011e-05 0 -1.9030287913009808e-05 -2.7103204304677486e-05 0 -1.8861439175017446e-05 -2.4771164449535346e-05 0 -2.0133863107530385e-05 -2.7181758025022335e-05 0 -1.1278076047714949e-05 -1.3048774244715164e-05 0 -1.4073788290142276e-05 -1.7002601874746064e-05 0 -1.2935586353564788e-05 -1.5723598750244418e-05 0 -2.7974735554192889e-05 -2.0827695028868984e-05 0 -2.9108611667981947e-05 -2.3319366637031805e-05 0 -2.7020850388907182e-05 -2.0475605545955606e-05 0 -2.4177668348043676e-06 2.6981321106696103e-06 0 -8.1695369230597502e-06 -2.1334866904837339e-06 0 -5.0321780999027679e-06 -3.4886174668727637e-06 0 -2.7093861007284546e-05 0.00018670883539415061 0 -1.5604484281514452e-05 0.00020016547184323387 0 -3.0355895731522005e-05 0.00020483929174857518 0 -6.1340209404073026e-05 0.00018723065887609356 0 -5.8846199710287789e-05 0.00020483535079650008 0 -7.4908098129478063e-05 0.0002012481596708744 0 -4.1930351132990183e-05 -8.5968002549895178e-05 0 -4.7638981627735565e-05 -9.2240332860451764e-05 0 -4.0959041447580664e-05 -9.3840157585440231e-05 0 -2.8356575506895748e-05 -8.6205779976102401e-05 0 -2.9771934717299709e-05 -9.410074044625315e-05 0 -2.4123411379100644e-05 -9.2028626690580107e-05 0 -3.9605854029907618e-06 9.2943048526860589e-07 0 -3.1282379651541108e-06 1.0497970806398956e-06 0 -3.5603369113915895e-06 7.7570164366985173e-07 0 -2.7093861007284546e-05 0.00018670883539415061 0 -1.1221538155616232e-05 0.00018374117748423923 0 -1.5604484281514452e-05 0.00020016547184323387 0 -4.1930351132990183e-05 -8.5968002549895178e-05 0 -4.9046690139745927e-05 -8.5446875463826224e-05 0 -4.7638981627735565e-05 -9.2240332860451764e-05 0 -1.3229403727553299e-05 -1.1052681575532779e-06 0 -1.1653300046667884e-05 1.4489790406377161e-06 0 -1.0352183801913095e-05 9.9601922462417999e-07 0 -6.1340209404073026e-05 0.00018723065887609356 0 -7.4908098129478063e-05 0.0002012481596708744 0 -7.8119154016137424e-05 0.00018530753295250738 0 -2.8356575506895748e-05 -8.6205779976102401e-05 0 -2.4123411379100644e-05 -9.2028626690580107e-05 0 -2.2158450460094329e-05 -8.4339370615414924e-05 0 -2.0377805342641236e-05 -3.9858449430822809e-05 0 -1.505450396141125e-05 -3.4472030818707183e-05 0 -1.8706476288688539e-05 -3.0079864549921861e-05 0 -2.0257964633472458e-05 -1.0018681311852599e-05 0 -2.063852019846745e-05 -1.126114579455912e-05 0 -1.8476973247252514e-05 -7.7042547253655354e-06 0 -1.8925066104813798e-05 -9.1375836271648245e-06 0 -1.8476973247252514e-05 -7.7042547253655354e-06 0 -2.063852019846745e-05 -1.126114579455912e-05 0 -7.1541593656361979e-06 2.7700257100101653e-06 0 -8.3129534196090679e-06 1.7041093179463026e-06 0 -5.6321710455688588e-06 1.6488179912482623e-06 0 -3.8384522026512455e-05 7.321418574728113e-05 0 -2.5491369980607993e-05 6.8265433834848835e-05 0 -3.1274718399341011e-05 8.6918078851852738e-05 0 -4.9322402271526372e-05 -4.2684675834092377e-05 0 -4.4535612998383959e-05 -4.4347969362177856e-05 0 -4.0667466093319297e-05 -3.6847852918655904e-05 0 -7.5504615726831489e-06 1.1569322209055971e-05 0 -1.2810665239354411e-05 1.1189804155488901e-05 0 -7.858065108931208e-06 7.7936610201647454e-06 0 -1.107234876959513e-05 6.7254863448446975e-06 0 -7.858065108931208e-06 7.7936610201647454e-06 0 -1.2810665239354411e-05 1.1189804155488901e-05 0 -3.5171825126679067e-06 2.8017292186297107e-06 0 -4.0373512820037597e-06 3.0854415059265378e-06 0 -4.0907437423436287e-06 4.4566323553833692e-06 0 -2.1364026414481605e-05 -1.9322940271114847e-05 0 -2.1502149732414413e-05 -2.1390139370529369e-05 0 -1.9529834494750146e-05 -1.9086398732260059e-05 0 -2.0325581934755381e-05 -2.2430346589939861e-05 0 -1.9529834494750146e-05 -1.9086398732260059e-05 0 -2.1502149732414413e-05 -2.1390139370529369e-05 0 -6.4690814005660056e-05 4.2137323086281443e-05 0 -5.6426901016448983e-05 3.0623103603081837e-05 0 -5.007793851476278e-05 3.2919247003700006e-05 0 -3.3830411990499367e-05 -1.6720077708368687e-05 0 -3.8219924234379175e-05 -2.1716275053422543e-05 0 -3.1368634115823546e-05 -1.7392453435278595e-05 0 -1.3140408477703746e-09 -2.5426412620752625e-10 0 -1.0831423034722953e-09 -1.9407305929043844e-10 0 -1.009503573853082e-06 -3.3548669349774818e-07 0 -1.1503268151548231e-09 2.1339409591820614e-10 0 -1.3061778911558125e-09 2.0232047290945217e-10 0 -1.1321149158634861e-06 3.9507094340062624e-07 0 -5.6251060624709477e-06 5.1608631236987109e-06 0 -4.0602578624624687e-06 3.4937995755548957e-06 0 -4.4799127452814513e-06 5.3176899603797434e-06 0 -4.7385292497998644e-06 4.1375417312119637e-06 0 -4.0907437423436287e-06 4.4566323553833692e-06 0 -4.0373512820037597e-06 3.0854415059265378e-06 0 -3.5171825126679067e-06 2.8017292186297107e-06 0 -4.0602578624624687e-06 3.4937995755548953e-06 0 -3.4976758888468176e-06 2.4467704589584527e-06 0 -8.4750477311991076e-06 4.4894809936032813e-07 0 -1.1532061812318739e-05 1.5473407388331754e-06 0 -8.9756019340207427e-06 9.9804345098249181e-07 0 -6.535428403396635e-06 -9.0790761035587178e-07 0 -6.495984254958666e-06 -1.3688392601935816e-06 0 -8.4152756443117105e-06 -1.8101873854938195e-06 0 -1.5665679490468601e-05 8.5410831857112745e-05 0 -1.2010760754653743e-05 6.498202472412239e-05 0 -2.9828097616456883e-06 7.890364998228532e-05 0 -8.4750477311991076e-06 4.4894809936032813e-07 0 -8.975601934020741e-06 9.980434509824916e-07 0 -6.5611096844889088e-06 1.3845365266451091e-07 0 -6.535428403396635e-06 -9.0790761035587178e-07 0 -4.9601755251622276e-06 -6.5478193511497919e-07 0 -6.495984254958666e-06 -1.3688392601935816e-06 0 -2.4775009694142139e-05 -1.9145760025516911e-05 0 -2.5944565448210733e-05 -2.1021383045735156e-05 0 -2.4541000366013095e-05 -2.1215331529074195e-05 0 -2.0699646717820788e-05 4.6982178101251966e-05 0 -1.1665692577083124e-05 3.0016053948443222e-05 0 -8.5787645813355031e-06 4.7660545051308342e-05 0 -3.9692920832752057e-06 1.7354809129128704e-06 0 -3.4976758888468176e-06 2.4467704589584527e-06 0 -4.0602578624624695e-06 3.4937995755548953e-06 0 -1.7487900005834101e-05 -1.8960792050366027e-05 0 -1.5313840385605568e-05 -1.6953825217898021e-05 0 -1.6798798969527502e-05 -1.5513206341083585e-05 0 -2.1566066636342681e-09 -2.4099624645725625e-10 0 -1.670735145869811e-09 -3.7465915476693301e-10 0 -1.6411633944137915e-06 -5.6214804819887222e-07 0 -1.5236497460555917e-09 2.0320098100145307e-10 0 -1.8026172422336896e-09 7.5126330680806019e-11 0 -1.4741742335646193e-06 2.6279998597333863e-07 0 -1.3513987097151553e-05 -4.6460013311560039e-06 0 -1.7166813630268565e-05 -5.9118801273471214e-06 0 -1.4004086975587214e-05 -4.2203007062577291e-06 0 -2.6035654885221275e-05 7.7431415831585936e-06 0 -2.0040162855544593e-05 5.6765893373178523e-06 0 -2.0883737982985898e-05 5.1246989313135494e-06 0 -1.9461493809873148e-05 -1.4020431794413721e-05 0 -2.1544757070956732e-05 -1.2500998814522692e-05 0 -2.3561875472745104e-05 -1.6438363502986562e-05 0 -1.0152154955479228e-05 -2.9396166726486358e-05 0 -1.4136292442405588e-05 -2.6442950999055582e-05 0 -1.505450396141125e-05 -3.4472030818707176e-05 0 -1.1345222358506225e-05 -1.7391379527957731e-06 0 -1.1376550498661549e-05 -3.4484633810512842e-06 0 -1.3603291593237625e-05 -4.740610988901573e-06 0 -5.791942814437717e-06 1.3523045787490421e-06 0 -5.5162608747962078e-06 2.8469856489765524e-06 0 -4.5552020279533609e-06 1.9426137312756213e-06 0 -6.9106144246003348e-06 1.5476880016902093e-06 0 -5.5162608747962078e-06 2.8469856489765524e-06 0 -5.791942814437717e-06 1.3523045787490421e-06 0 -4.4769054439144667e-06 6.6041523804196911e-06 0 -5.1814833215142534e-06 7.9280287190232695e-06 0 -4.4799127452814513e-06 5.3176899603797434e-06 0 -5.6251060624709477e-06 5.1608631236987109e-06 0 -4.4799127452814513e-06 5.3176899603797434e-06 0 -5.1814833215142534e-06 7.9280287190232695e-06 0 -2.0170608948373153e-05 -2.4856822364118304e-05 0 -2.1607361603186401e-05 -2.6535271946954772e-05 0 -2.0133863107530385e-05 -2.7181758025022335e-05 0 -2.4336003465227727e-05 -1.4676727623877034e-05 0 -2.2582723479710777e-05 -1.3204241707689267e-05 0 -2.1646409329194728e-05 -1.157512372073519e-05 0 -1.2510328789741579e-05 -5.8221900563672814e-06 0 -1.3034223487146997e-05 -8.5277716064255447e-06 0 -1.5211819679455254e-05 -7.6687745948380833e-06 0 -1.3628463307103867e-05 -1.1583563562516343e-05 0 -1.5211819679455255e-05 -7.6687745948380833e-06 0 -1.3034223487146997e-05 -8.5277716064255447e-06 0 -1.0063798840247867e-05 -3.6745162454383799e-06 0 -1.3513987097151554e-05 -4.6460013311560039e-06 0 -1.1460528144925919e-05 -3.4656961945678764e-06 0 -2.0040162855544593e-05 5.6765893373178523e-06 0 -1.4608479857272327e-05 4.255707176618176e-06 0 -1.6765306865800141e-05 3.9095188474960308e-06 0 -2.252718284896787e-05 -2.9414505999397045e-05 0 -2.1147421307376294e-05 -3.0347456946002472e-05 0 -2.2155431223584961e-05 -2.8210886980939427e-05 0 -1.2810665239354411e-05 1.1189804155488901e-05 0 -1.1667453406865237e-05 1.518036199508279e-05 0 -1.7447364769214472e-05 1.6947551334278161e-05 0 -2.7937518099566541e-06 1.3279015602301579e-06 0 -2.9984483134798592e-06 1.8632399697162039e-06 0 -2.4925598303552052e-06 1.1329403899057779e-06 0 -3.6913007608356763e-06 -3.4005752732605492e-07 0 -5.6498798509384823e-06 -2.5487126477804914e-07 0 -6.5611096844889088e-06 1.3845365266451091e-07 0 -2.8524263685444282e-06 -1.3666499421703569e-07 0 -4.9601755251622276e-06 -6.5478193511497919e-07 0 -4.512498096861293e-06 -2.9239596650115263e-07 0 -3.4063624592885947e-06 6.3851017541062237e-07 0 -3.4469144247741883e-06 5.0725189120600654e-07 0 -4.2953677044557979e-06 3.3482166473916603e-07 0 -1.1345222358506225e-05 -1.7391379527957731e-06 0 -1.2265653428750809e-05 -1.2654408986087703e-06 0 -1.0352183801913095e-05 9.9601922462417999e-07 0 -1.7443894663014502e-05 -2.2291867317853869e-05 0 -1.8494952956519315e-05 -2.1766040718118287e-05 0 -1.8861439175017446e-05 -2.4771164449535346e-05 0 -5.1969144786786101e-06 -1.0520644633327075e-08 0 -4.295367704455797e-06 3.3482166473916603e-07 0 -3.4469144247741883e-06 5.0725189120600654e-07 0 -9.1478075786616587e-05 0.00012887719867747511 0 -7.1987987375233102e-05 0.00011827343239754364 0 -7.7360853321529192e-05 0.00013650039112672165 0 -1.1683873745953549e-05 -5.502577379613588e-05 0 -1.8684076488580697e-05 -5.2245970179830528e-05 0 -1.8352311771907488e-05 -6.0477257132150347e-05 0 -1.081226212793891e-05 -4.6202366499086832e-05 0 -1.6490629444922968e-05 -4.3748753330180953e-05 0 -1.8684076488580697e-05 -5.2245970179830528e-05 0 -1.6458386882981632e-05 -5.7325489383469379e-06 0 -1.4680021465653634e-05 -2.6548792424238096e-06 0 -1.6075600315471193e-05 -4.6996761132696734e-06 0 -2.4336003465227727e-05 -1.4676727623877034e-05 0 -2.4545598595388941e-05 -1.5826223943672082e-05 0 -2.2582723479710777e-05 -1.3204241707689267e-05 0 -6.2913334686293278e-06 -2.5437288187453281e-07 0 -8.3106499084664177e-06 -1.7384878243364638e-06 0 -7.164153507773762e-06 -4.7300991621338018e-07 0 -1.3229403727553299e-05 -1.1052681575532779e-06 0 -1.0352183801913095e-05 9.9601922462417999e-07 0 -1.2265653428750809e-05 -1.2654408986087701e-06 0 2.0556450440209359e-06 0.00019733028417897742 0 -9.0687033679626336e-06 0.00020818755418873969 0 -1.5604484281514452e-05 0.00020016547184323387 0 -5.5962491815051972e-05 -9.3155857142870893e-05 0 -5.1006719282109378e-05 -9.6343088890653148e-05 0 -4.7638981627735565e-05 -9.2240332860451764e-05 0 -1.7166853583962987e-05 -9.0233892961399026e-05 0 -2.4123411379100644e-05 -9.2028626690580107e-05 0 -2.1676141368370112e-05 -9.5401410016302679e-05 0 -9.4325275676619027e-05 0.00020335239814610947 0 -7.4908098129478063e-05 0.0002012481596708744 0 -8.2758115473314527e-05 0.00021081316745939234 0 -7.3741306792953937e-06 2.3039659948679655e-07 0 -5.9020388364483644e-06 4.9689098838196038e-07 0 -7.164153507773762e-06 -4.7300991621338018e-07 0 -6.2913334686293278e-06 -2.5437288187453281e-07 0 -7.164153507773762e-06 -4.7300991621338018e-07 0 -5.9020388364483644e-06 4.9689098838196038e-07 0 -1.0168909826160182e-05 -4.0225061314684062e-06 0 -8.3106499084664177e-06 -1.7384878243364636e-06 0 -8.8132216855178755e-06 -2.455032039734932e-06 0 -3.0493574993583262e-05 1.2621884973502149e-05 0 -3.1539608790661381e-05 1.0967659723413574e-05 0 -2.351985333134639e-05 7.6056911172465194e-06 0 -2.549749344149102e-05 7.2045895006753606e-06 0 -2.351985333134639e-05 7.6056911172465194e-06 0 -3.1539608790661381e-05 1.0967659723413574e-05 0 -1.107234876959513e-05 6.7254863448446975e-06 0 -1.380534988102654e-05 5.7120630371400725e-06 0 -9.8277963315353533e-06 3.8213297341387658e-06 0 -1.1668899291788786e-05 -4.3078604341821461e-06 0 -9.0312606675503774e-06 -2.2609802669809194e-06 0 -9.9784141088712547e-06 -2.5061294156471155e-06 0 -1.2510328789741579e-05 -5.8221900563672814e-06 0 -1.1862028022951697e-05 -6.6238450491199223e-06 0 -1.3034223487146997e-05 -8.5277716064255447e-06 0 -6.535428403396635e-06 -9.0790761035587178e-07 0 -5.1721873346400547e-06 -2.2543044440963657e-07 0 -4.512498096861293e-06 -2.9239596650115263e-07 0 -3.1095803617021103e-06 1.1970310116667294e-07 0 -4.512498096861293e-06 -2.9239596650115263e-07 0 -5.1721873346400556e-06 -2.2543044440963662e-07 0 -3.6301491543763778e-06 -5.8477323424434232e-07 0 -5.8649835615948142e-06 -1.6869503697779804e-07 0 -5.6498798509384831e-06 -2.5487126477804903e-07 0 -8.4750477311991076e-06 4.4894809936032813e-07 0 -5.6498798509384823e-06 -2.5487126477804914e-07 0 -5.8649835615948142e-06 -1.6869503697779804e-07 0 -3.8872522662608387e-05 -4.2099798787636911e-05 0 -4.3117894419940639e-05 -5.052481831473228e-05 0 -3.654687244749575e-05 -4.6809567216116394e-05 0 -3.7558230221897842e-05 -5.4330840023000876e-05 0 -3.654687244749575e-05 -4.6809567216116394e-05 0 -4.3117894419940639e-05 -5.052481831473228e-05 0 -1.4361043106174577e-06 -5.4075019257910714e-07 0 -1.009503573853082e-06 -3.3548669349774818e-07 0 -2.3678622811945839e-06 -3.8527370414368971e-07 0 -1.6025020505945552e-06 -1.9677133985635488e-07 0 -2.3678622811945839e-06 -3.8527370414368971e-07 0 -1.009503573853082e-06 -3.3548669349774818e-07 0 -1.992527784704069e-06 5.7390381726156991e-07 0 -1.1321149158634861e-06 3.9507094340062624e-07 0 -2.472480394343772e-06 5.0595784939867924e-07 0 -1.428025211403316e-06 3.774973797170153e-07 0 -2.472480394343772e-06 5.0595784939867924e-07 0 -1.1321149158634861e-06 3.9507094340062624e-07 0 -4.2572142991071591e-05 0.00015797557576662679 0 -3.1282255235746285e-05 0.00014710575630441853 0 -2.9873740859730833e-05 0.00016553636169282444 0 -3.3953745737547437e-05 -7.2742757820091336e-05 0 -3.786677211756008e-05 -6.8119782538715254e-05 0 -3.9708227456105234e-05 -7.6500793230203069e-05 0 -6.1699421093160985e-06 -4.3965506098272861e-07 0 -4.7620890306831125e-06 -2.4353787613192176e-09 0 -5.1721873346400556e-06 -2.2543044440963662e-07 0 -6.0133900985822998e-06 5.3403836695765379e-07 0 -5.8649835615948142e-06 -1.6869503697779804e-07 0 -4.746644995048088e-06 -7.2287212070558062e-08 0 -1.1668899291788786e-05 -4.3078604341821461e-06 0 -1.1755340119767513e-05 -5.5258185723182478e-06 0 -9.8791373689856609e-06 -3.3570067538547986e-06 0 -6.535428403396635e-06 -9.0790761035587178e-07 0 -7.3164949941775614e-06 -9.4050365190313961e-07 0 -5.1721873346400556e-06 -2.2543044440963662e-07 0 -8.4750477311991076e-06 4.4894809936032813e-07 0 -5.8649835615948142e-06 -1.6869503697779804e-07 0 -8.5541102160939027e-06 6.6328774384173706e-07 0 -1.3628463307103867e-05 -1.1583563562516343e-05 0 -1.7107000579473685e-05 -8.6127162068813397e-06 0 -1.5211819679455254e-05 -7.6687745948380833e-06 0 -6.2913334686293278e-06 -2.5437288187453281e-07 0 -7.4344217403213999e-06 -1.2410315880830337e-06 0 -8.3106499084664177e-06 -1.7384878243364638e-06 0 -2.4184372247417688e-09 -5.8471284512305924e-10 0 -2.1566066636342681e-09 -2.4099624645725625e-10 0 -1.7810918334101013e-06 -4.3727391850881293e-07 0 -1.8026172422336896e-09 7.5126330680806019e-11 0 -1.8850734937718311e-09 2.4486651855037033e-10 0 -1.4638686951455566e-06 1.1376822485312711e-07 0 -7.5504615726831489e-06 1.1569322209055971e-05 0 -7.858065108931208e-06 7.7936610201647454e-06 0 -5.1814833215142534e-06 7.9280287190232695e-06 0 -2.2928112124931621e-05 -2.6130964881508719e-05 0 -2.3450086797756222e-05 -2.7606132372752848e-05 0 -2.2155431223584961e-05 -2.8210886980939427e-05 0 -1.1668899291788786e-05 -4.3078604341821461e-06 0 -1.2424113602749944e-05 -4.0135505633841001e-06 0 -1.4710687142831812e-05 -6.0372398030485469e-06 0 -1.8706476288688539e-05 -3.0079864549921861e-05 0 -1.505450396141125e-05 -3.4472030818707176e-05 0 -1.4136292442405588e-05 -2.6442950999055582e-05 0 -7.3741306792953937e-06 2.3039659948679655e-07 0 -5.791942814437717e-06 1.3523045787490421e-06 0 -5.9020388364483644e-06 4.9689098838196038e-07 0 -9.779008768633996e-06 -2.6028188324213731e-06 0 -8.385396642768821e-06 -1.187643076458752e-06 0 -8.3106499084664177e-06 -1.7384878243364638e-06 0 -5.8925330692974969e-06 5.2724571914580502e-07 0 -8.7276176135508826e-06 1.9527649247432625e-06 0 -4.1985145526689519e-06 9.2020590425631855e-07 0 -4.2798569288525742e-06 -8.8680348624105856e-07 0 -2.9866506570676629e-06 -9.9623403977575513e-07 0 -6.1439673126320136e-06 -1.9787743569647588e-06 0 -1.3768903962818178e-05 -8.3083245416465654e-06 0 -1.3543885251728483e-05 -9.8729589453470656e-06 0 -1.1862028022951697e-05 -6.6238450491199223e-06 0 -4.5552020279533609e-06 1.9426137312756213e-06 0 -4.64874117947224e-06 1.1002003851654203e-06 0 -5.791942814437717e-06 1.3523045787490421e-06 0 -8.0481544323678268e-06 -1.7349101154878034e-06 0 -9.0312606675503774e-06 -2.2609802669809194e-06 0 -9.8791373689856609e-06 -3.3570067538547986e-06 0 -2.0404307435560021e-05 -7.8479800416405788e-06 0 -2.134199946713384e-05 -9.8946373423977728e-06 0 -1.7620119812611645e-05 -7.2060198268906059e-06 0 -8.8628986370072811e-05 0.00010948607013844249 0 -7.2632809210327793e-05 0.00010081640251315862 0 -7.1987987375233102e-05 0.00011827343239754364 0 -1.3768903962818178e-05 -8.3083245416465654e-06 0 -1.4233816166102613e-05 -7.0047567731167729e-06 0 -1.678821006101484e-05 -9.952808868729443e-06 0 -1.6075600315471193e-05 -4.6996761132696734e-06 0 -1.8476973247252514e-05 -7.7042547253655354e-06 0 -1.748860471641522e-05 -6.870393751148995e-06 0 -1.1668899291788786e-05 -4.3078604341821461e-06 0 -1.4710687142831812e-05 -6.0372398030485469e-06 0 -1.4233816166102613e-05 -7.0047567731167729e-06 0 -5.9020388364483644e-06 4.9689098838196038e-07 0 -5.791942814437717e-06 1.3523045787490421e-06 0 -4.64874117947224e-06 1.1002003851654203e-06 0 -2.0257964633472458e-05 -1.0018681311852599e-05 0 -2.1646409329194728e-05 -1.1575123720735192e-05 0 -2.2582723479710777e-05 -1.3204241707689267e-05 0 -7.5504615726831489e-06 1.1569322209055971e-05 0 -4.3246484913559765e-06 1.2624897298409687e-05 0 -7.5477313339950357e-06 1.70500001758774e-05 0 -1.1668899291788786e-05 -4.3078604341821461e-06 0 -9.9784141088712547e-06 -2.5061294156471155e-06 0 -1.2424113602749944e-05 -4.0135505633841001e-06 0 -9.3259917362249731e-05 0.00014824985598285091 0 -9.1478075786616587e-05 0.00012887719867747511 0 -7.7360853321529192e-05 0.00013650039112672165 0 -1.1683873745953549e-05 -5.502577379613588e-05 0 -1.8352311771907488e-05 -6.0477257132150347e-05 0 -1.2849739929130669e-05 -6.413167025044324e-05 0 -1.0248903773704606e-05 -3.7673169736560958e-05 0 -1.6490629444922968e-05 -4.3748753330180953e-05 0 -1.081226212793891e-05 -4.6202366499086832e-05 0 -2.1823898309194057e-05 1.4124724259883218e-05 0 -3.0883804560888902e-05 1.6813114292541068e-05 0 -2.5100570087083728e-05 1.1436813976613814e-05 0 -2.4177668348043676e-06 2.6981321106696103e-06 0 -7.8998609040965601e-06 7.1432626776878855e-06 0 -8.1695369230597502e-06 -2.1334866904837339e-06 0 -2.0404307435560021e-05 -7.8479800416405788e-06 0 -2.0767829256683469e-05 -7.434507973179763e-06 0 -2.3957484407387186e-05 -9.4799605061716067e-06 0 -3.0493574993583262e-05 1.2621884973502149e-05 0 -3.7249527245285553e-05 1.5046418546561506e-05 0 -3.1539608790661381e-05 1.0967659723413574e-05 0 -2.0404307435560021e-05 -7.8479800416405788e-06 0 -2.3957484407387186e-05 -9.4799605061716067e-06 0 -2.5039354775103045e-05 -1.1034430095140986e-05 0 -3.0493574993583262e-05 1.2621884973502149e-05 0 -3.8532864492821963e-05 1.8603851811420269e-05 0 -3.7249527245285553e-05 1.5046418546561506e-05 0 -4.2798569288525742e-06 -8.8680348624105856e-07 0 -2.0920442813295501e-06 -3.0317414211427012e-07 0 -2.9866506570676629e-06 -9.9623403977575513e-07 0 -5.8925330692974969e-06 5.2724571914580502e-07 0 -4.1985145526689519e-06 9.2020590425631855e-07 0 -2.8509441880275945e-06 1.0979420672491506e-09 0 -9.779008768633996e-06 -2.6028188324213731e-06 0 -1.0957100959614904e-05 -4.5659223039385115e-06 0 -1.1376550498661549e-05 -3.4484633810512842e-06 0 -1.2510328789741579e-05 -5.8221900563672814e-06 0 -1.1376550498661549e-05 -3.4484633810512842e-06 0 -1.0957100959614904e-05 -4.5659223039385115e-06 0 -2.9108611667981947e-05 -2.3319366637031805e-05 0 -2.869598527645644e-05 -2.2895995711678213e-05 0 -2.7020850388907182e-05 -2.0475605545955606e-05 0 -1.2935586353564788e-05 -1.5723598750244418e-05 0 -1.4073788290142276e-05 -1.7002601874746064e-05 0 -1.540056293369124e-05 -1.9778331020940729e-05 0 -5.0321780999027679e-06 -3.4886174668727637e-06 0 -8.1695369230597502e-06 -2.1334866904837335e-06 0 -9.037129967347941e-06 -7.0939339901827472e-06 0 -1.1278076047714949e-05 -1.3048774244715164e-05 0 -1.2250096082328979e-05 -1.3738933090494015e-05 0 -1.4073788290142276e-05 -1.7002601874746064e-05 0 -2.7974735554192889e-05 -2.0827695028868984e-05 0 -2.7020850388907182e-05 -2.0475605545955606e-05 0 -2.5970540108752912e-05 -1.8297481086514346e-05 0 -1.1668899291788786e-05 -4.3078604341821461e-06 0 -9.8791373689856609e-06 -3.3570067538547986e-06 0 -9.0312606675503774e-06 -2.2609802669809194e-06 0 -1.0168909826160182e-05 -4.0225061314684062e-06 0 -1.1862028022951697e-05 -6.6238450491199223e-06 0 -1.0957100959614904e-05 -4.5659223039385115e-06 0 -1.2510328789741579e-05 -5.8221900563672814e-06 0 -1.0957100959614904e-05 -4.5659223039385115e-06 0 -1.1862028022951697e-05 -6.6238450491199223e-06 0 -7.3741306792953937e-06 2.3039659948679655e-07 0 -9.4940817165555389e-06 -1.3467238424751864e-06 0 -8.8601342888162255e-06 4.7709839948274988e-07 0 -8.8628986370072811e-05 0.00010948607013844249 0 -8.4446135918062718e-05 9.0427431396246342e-05 0 -7.2632809210327793e-05 0.00010081640251315862 0 -1.3229403727553299e-05 -1.1052681575532779e-06 0 -1.2265653428750809e-05 -1.2654408986087699e-06 0 -1.4163543417165973e-05 -3.3500024195775533e-06 0 -1.5838787726071997e-05 2.2615503550005376e-05 0 -1.1667453406865237e-05 1.518036199508279e-05 0 -7.5477313339950357e-06 1.70500001758774e-05 0 -7.5504615726831489e-06 1.1569322209055971e-05 0 -7.5477313339950357e-06 1.70500001758774e-05 0 -1.1667453406865237e-05 1.518036199508279e-05 0 -1.0152154955479228e-05 -2.9396166726486358e-05 0 -1.505450396141125e-05 -3.4472030818707176e-05 0 -1.0248903773704606e-05 -3.7673169736560958e-05 0 -4.7936565949142697e-05 2.1726393513614159e-05 0 -3.7249527245285553e-05 1.5046418546561506e-05 0 -3.8532864492821963e-05 1.8603851811420269e-05 0 -2.9373986564563979e-05 -1.2761000543322943e-05 0 -2.5039354775103045e-05 -1.1034430095140985e-05 0 -2.3957484407387186e-05 -9.4799605061716067e-06 0 -1.1345222358506225e-05 -1.7391379527957731e-06 0 -1.4163543417165973e-05 -3.3500024195775529e-06 0 -1.2265653428750809e-05 -1.2654408986087701e-06 0 -5.3698477891563168e-05 0.0001175320212123873 0 -7.1987987375233102e-05 0.00011827343239754364 0 -6.0795696022246264e-05 0.00010391258804088211 0 -5.3698477891563168e-05 0.0001175320212123873 0 -6.4642378383649956e-05 0.00013073354351128945 0 -7.1987987375233102e-05 0.00011827343239754364 0 -2.5537872671293802e-05 -5.320319602915289e-05 0 -2.2793115952133234e-05 -5.866677300113963e-05 0 -1.8684076488580697e-05 -5.2245970179830528e-05 0 -2.5537872671293802e-05 -5.320319602915289e-05 0 -1.8684076488580693e-05 -5.2245970179830528e-05 0 -2.1406889088665583e-05 -4.7083368033948697e-05 0 -1.2849739929130669e-05 -6.413167025044324e-05 0 -1.8836194493422273e-05 -6.8640566494404263e-05 0 -1.4375933006163357e-05 -7.3395254494598014e-05 0 -9.4054276175157062e-05 0.0001672939021100643 0 -9.3259917362249731e-05 0.00014824985598285091 0 -8.0159603186948187e-05 0.00015370146064079716 0 -3.7245163317726128e-06 2.9846700367003766e-07 0 -3.0643369655620256e-06 3.1671100681579197e-07 0 -4.7620890306831134e-06 -2.4353787613192875e-09 0 -3.4344664936978567e-06 -3.2586166266392526e-07 0 -4.746644995048088e-06 -7.2287212070558062e-08 0 -3.0459955044719447e-06 -6.2257537736857465e-07 0 -2.5537872671293802e-05 -5.320319602915289e-05 0 -3.0166697911368781e-05 -5.3917712725540443e-05 0 -2.7642032783430119e-05 -6.0964737754444518e-05 0 -2.5537872671293802e-05 -5.320319602915289e-05 0 -2.5693425829044162e-05 -4.6263771232389523e-05 0 -3.0166697911368781e-05 -5.3917712725540443e-05 0 -3.3604466472052756e-05 -6.2501320586058585e-05 0 -2.7642032783430119e-05 -6.0964737754444518e-05 0 -3.0166697911368781e-05 -5.3917712725540443e-05 0 -3.107165709344447e-05 -4.6328945561304352e-05 0 -3.0166697911368781e-05 -5.3917712725540443e-05 0 -2.5693425829044162e-05 -4.6263771232389523e-05 0 -5.3698477891563168e-05 0.0001175320212123873 0 -4.1559322443448772e-05 0.0001186608263024478 0 -5.3518045898789657e-05 0.0001350644141271206 0 -3.9190472385320933e-05 0.00013482013658877874 0 -5.3518045898789657e-05 0.0001350644141271206 0 -4.1559322443448772e-05 0.0001186608263024478 0 -1.8026172422336896e-09 7.5126330680806019e-11 0 -1.4638686951455566e-06 1.1376822485312711e-07 0 -1.4741742335646193e-06 2.6279998597333863e-07 0 -2.1566066636342681e-09 -2.4099624645725625e-10 0 -1.6411633944137915e-06 -5.6214804819887222e-07 0 -1.7810918334101013e-06 -4.3727391850881293e-07 0 -3.349927577067037e-05 -2.2894918961729881e-05 0 -2.7406086454344763e-05 -1.7017763093029531e-05 0 -3.1368634115823546e-05 -1.7392453435278595e-05 0 -5.2643532453298538e-05 4.4929536363494522e-05 0 -5.007793851476278e-05 3.2919247003700006e-05 0 -4.1891394323608687e-05 3.1806674978152662e-05 0 -1.4164860281663203e-05 -4.0765161118989192e-06 0 -1.7696857036898485e-05 -5.9329013243844451e-06 0 -1.6535277043976532e-05 -5.6877286936234353e-06 0 -3.9605854029907618e-06 9.2943048526860589e-07 0 -4.843145480363993e-06 5.1294378014961999e-07 0 -4.64874117947224e-06 1.1002003851654203e-06 0 -2.1038930531915242e-05 -2.8239964052871243e-05 0 -2.0133863107530385e-05 -2.7181758025022335e-05 0 -2.1607361603186401e-05 -2.6535271946954772e-05 0 -1.5671260655539243e-05 2.9937616935271487e-06 0 -1.8843472160331614e-05 4.2890205513338907e-06 0 -2.0883737982985898e-05 5.1246989313135494e-06 0 -2.549749344149102e-05 7.2045895006753606e-06 0 -2.0883737982985898e-05 5.1246989313135494e-06 0 -1.8843472160331614e-05 4.2890205513338907e-06 0 -2.2692943831155324e-06 6.6664265997059033e-07 0 -2.169354921560894e-06 1.1690698203811356e-07 0 -1.6005408968660254e-06 1.0396112169113639e-07 0 -7.4415238839537279e-06 -7.3322381787044875e-06 0 -1.1250926847327824e-05 -1.1110037947489771e-05 0 -9.394969601697341e-06 -1.0252955865559721e-05 0 -2.9373986564563979e-05 -1.2761000543322943e-05 0 -2.9134961828734794e-05 -1.4170360519515127e-05 0 -2.5039354775103045e-05 -1.1034430095140986e-05 0 -4.7936565949142697e-05 2.1726393513614159e-05 0 -3.8532864492821956e-05 1.8603851811420266e-05 0 -4.6435575928080202e-05 2.5101205310431913e-05 0 -1.829687921354055e-05 -9.7041476613162787e-06 0 -1.9013477593065033e-05 -8.7258527509613482e-06 0 -1.7107000579473685e-05 -8.6127162068813397e-06 0 -8.4750477311991076e-06 4.4894809936032813e-07 0 -8.5541102160939027e-06 6.6328774384173706e-07 0 -1.2444745577377546e-05 1.7741945893322972e-06 0 -1.0600921987463764e-05 1.8518122995647072e-06 0 -1.2444745577377546e-05 1.7741945893322974e-06 0 -8.5541102160939027e-06 6.6328774384173706e-07 0 -2.0699646717820788e-05 4.6982178101251966e-05 0 -1.8508890182020602e-05 3.295357077085611e-05 0 -1.1665692577083124e-05 3.0016053948443222e-05 0 -2.0040162855544593e-05 5.6765893373178523e-06 0 -1.6765306865800141e-05 3.9095188474960308e-06 0 -2.0883737982985898e-05 5.1246989313135494e-06 0 -1.3513987097151553e-05 -4.6460013311560039e-06 0 -1.4004086975587214e-05 -4.2203007062577291e-06 0 -1.1460528144925919e-05 -3.4656961945678764e-06 0 -2.1364026414481605e-05 -1.9322940271114847e-05 0 -2.0907881084060046e-05 -1.6985850163557677e-05 0 -2.3011155662584179e-05 -1.9288431982946778e-05 0 -2.2273116020369363e-05 -1.6770462922547013e-05 0 -2.3011155662584179e-05 -1.9288431982946778e-05 0 -2.0907881084060046e-05 -1.6985850163557677e-05 0 -7.3741306792953937e-06 2.3039659948679655e-07 0 -6.9106144246003348e-06 1.5476880016902093e-06 0 -5.791942814437717e-06 1.3523045787490421e-06 0 -1.107234876959513e-05 6.7254863448446975e-06 0 -9.8277963315353533e-06 3.8213297341387658e-06 0 -7.6757719840963791e-06 4.5941544733910848e-06 0 -3.5171825126679067e-06 2.8017292186297107e-06 0 -3.4920622328249036e-06 2.0883955376344289e-06 0 -4.0373512820037597e-06 3.0854415059265378e-06 0 -1.5838787726071997e-05 2.2615503550005376e-05 0 -1.1665692577083124e-05 3.0016053948443222e-05 0 -1.8508890182020602e-05 3.295357077085611e-05 0 -2.0404307435560021e-05 -7.8479800416405788e-06 0 -1.7620119812611645e-05 -7.2060198268906059e-06 0 -1.6535277043976532e-05 -5.6877286936234353e-06 0 -8.0481544323678268e-06 -1.7349101154878034e-06 0 -6.4316854305277164e-06 -5.7915994190217495e-07 0 -6.8559560426159002e-06 -8.099626504055056e-07 0 8.1963554545139935e-06 6.5688619795040471e-05 0 9.217789132885678e-06 8.4385614110023439e-05 0 -2.9828097616456883e-06 7.890364998228532e-05 0 -5.1889735772212035e-05 -5.1150725046720941e-05 0 -4.3117894419940639e-05 -5.052481831473228e-05 0 -4.4535612998383959e-05 -4.4347969362177856e-05 0 -4.7936565949142697e-05 2.1726393513614159e-05 0 -3.9874465018945223e-05 1.5464710357121015e-05 0 -3.7249527245285553e-05 1.5046418546561506e-05 0 -2.5035711891682512e-05 -9.826120520928441e-06 0 -2.9373986564563979e-05 -1.2761000543322943e-05 0 -2.3957484407387186e-05 -9.4799605061716067e-06 0 -1.0352183801913095e-05 9.9601922462417999e-07 0 -1.1653300046667884e-05 1.4489790406377161e-06 0 -8.6216879056317066e-06 3.7456295129998789e-06 0 -8.4750477311991076e-06 4.4894809936032813e-07 0 -1.2444745577377546e-05 1.7741945893322972e-06 0 -1.1532061812318739e-05 1.5473407388331754e-06 0 -1.5671260655539243e-05 2.9937616935271487e-06 0 -1.1532061812318739e-05 1.5473407388331754e-06 0 -1.2444745577377546e-05 1.7741945893322972e-06 0 -4.4769054439144667e-06 6.6041523804196911e-06 0 -4.6298140266521366e-06 9.130168650062654e-06 0 -5.1814833215142534e-06 7.9280287190232695e-06 0 -4.5400686687314269e-05 -5.9845840143992381e-05 0 -4.3117894419940639e-05 -5.052481831473228e-05 0 -4.8571046387649723e-05 -5.5453099627523935e-05 0 -2.4451790510465244e-05 -1.6616839090922681e-05 0 -2.3568333654293683e-05 -1.6641604820280985e-05 0 -2.2680923804115402e-05 -1.4216444332945775e-05 0 7.4407174821128691e-06 0.00014179091191479233 0 5.7073718156396104e-06 0.00016105408090357501 0 -5.6880321400372124e-06 0.00015201584219845852 0 -5.5123529093994102e-05 -6.8687753939037383e-05 0 -5.5744000008020474e-05 -7.7261020760457173e-05 0 -4.9631697408484735e-05 -7.1707210874597213e-05 0 -2.1823898309194057e-05 1.4124724259883218e-05 0 -1.5542194722816858e-05 9.2275952668860709e-06 0 -1.2810665239354411e-05 1.1189804155488901e-05 0 -1.3768903962818178e-05 -8.3083245416465654e-06 0 -1.6185393670665153e-05 -1.1839580325907876e-05 0 -1.3543885251728483e-05 -9.8729589453470656e-06 0 -1.7646655841259007e-05 -8.6658424376393326e-06 0 -1.678821006101484e-05 -9.952808868729443e-06 0 -1.4233816166102613e-05 -7.0047567731167729e-06 0 -9.3259917362249731e-05 0.00014824985598285091 0 -7.7360853321529192e-05 0.00013650039112672165 0 -8.0159603186948187e-05 0.00015370146064079716 0 -1.2849739929130669e-05 -6.413167025044324e-05 0 -1.8352311771907488e-05 -6.0477257132150347e-05 0 -1.8836194493422273e-05 -6.8640566494404263e-05 0 -8.1307127426192054e-06 -1.4619432671776805e-06 0 -6.5033820377116265e-06 -5.780200431645103e-07 0 -8.1683253360713581e-06 -1.2891722109884306e-06 0 -7.5504615726831489e-06 1.1569322209055971e-05 0 -1.1667453406865237e-05 1.518036199508279e-05 0 -1.2810665239354411e-05 1.1189804155488901e-05 0 -2.0404307435560021e-05 -7.8479800416405788e-06 0 -1.7696857036898485e-05 -5.9329013243844442e-06 0 -2.0767829256683469e-05 -7.434507973179763e-06 0 -2.1587489944422613e-05 -1.1787024312946583e-05 0 -2.4336003465227727e-05 -1.4676727623877034e-05 0 -2.1646409329194728e-05 -1.157512372073519e-05 0 -9.1416797422861646e-06 -1.6968925713175224e-06 0 -8.7556849305889861e-06 -1.63933761148337e-06 0 -1.1336242069683337e-05 -2.685567663489305e-06 0 -4.9322402271526372e-05 -4.2684675834092377e-05 0 -5.1889735772212035e-05 -5.1150725046720941e-05 0 -4.4535612998383959e-05 -4.4347969362177856e-05 0 -1.6674881558052119e-05 -5.2485464352355715e-06 0 -1.3481687853119409e-05 -3.7217649417501204e-06 0 -1.4004086975587214e-05 -4.2203007062577291e-06 0 -1.1050620451027975e-05 -2.7960958750901236e-06 0 -1.4004086975587214e-05 -4.2203007062577291e-06 0 -1.3481687853119409e-05 -3.7217649417501204e-06 0 -5.9190895726103967e-05 9.0393052539451888e-05 0 -4.7089879535366877e-05 9.3129006694732397e-05 0 -6.0795696022246264e-05 0.00010391258804088211 0 -1.4361043106174577e-06 -5.4075019257910714e-07 0 -3.0459955044719447e-06 -6.2257537736857465e-07 0 -1.6411633944137915e-06 -5.6214804819887222e-07 0 -3.6301491543763778e-06 -5.8477323424434232e-07 0 -1.6411633944137915e-06 -5.6214804819887222e-07 0 -3.0459955044719447e-06 -6.2257537736857465e-07 0 -3.1095803617021103e-06 1.1970310116667294e-07 0 -3.0643369655620256e-06 3.1671100681579197e-07 0 -1.4741742335646193e-06 2.6279998597333863e-07 0 -1.428025211403316e-06 3.774973797170153e-07 0 -1.4741742335646193e-06 2.6279998597333863e-07 0 -3.0643369655620256e-06 3.1671100681579197e-07 0 -1.0168909826160182e-05 -4.0225061314684062e-06 0 -9.8791373689856609e-06 -3.3570067538547986e-06 0 -1.1755340119767513e-05 -5.5258185723182478e-06 0 -1.351045865528206e-05 -8.2894795670584591e-07 0 -1.4680021465653634e-05 -2.6548792424238096e-06 0 -1.5177482177870579e-05 -4.5962115695480101e-06 0 -1.6458386882981632e-05 -5.7325489383469379e-06 0 -1.5177482177870579e-05 -4.5962115695480101e-06 0 -1.4680021465653634e-05 -2.6548792424238096e-06 0 -2.4336003465227727e-05 -1.4676727623877034e-05 0 -2.64371185670748e-05 -1.7901105402464927e-05 0 -2.4545598595388941e-05 -1.5826223943672082e-05 0 -1.6458386882981632e-05 -5.7325489383469379e-06 0 -1.6075600315471193e-05 -4.6996761132696734e-06 0 -1.748860471641522e-05 -6.870393751148995e-06 0 -1.4073788290142276e-05 -1.7002601874746064e-05 0 -1.2250096082328979e-05 -1.3738933090494015e-05 0 -1.5313840385605568e-05 -1.6953825217898021e-05 0 -2.7020850388907182e-05 -2.0475605545955606e-05 0 -2.5262378146711735e-05 -1.8263582692319476e-05 0 -2.5970540108752912e-05 -1.8297481086514346e-05 0 -2.9373986564563979e-05 -1.2761000543322943e-05 0 -3.3830411990499367e-05 -1.6720077708368687e-05 0 -2.9134961828734794e-05 -1.4170360519515127e-05 0 -5.6426901016448983e-05 3.0623103603081837e-05 0 -4.7936565949142697e-05 2.1726393513614159e-05 0 -4.6435575928080202e-05 2.5101205310431913e-05 0 -8.1695369230597502e-06 -2.1334866904837339e-06 0 -1.1719411450361616e-05 -5.4986225682563087e-06 0 -9.037129967347941e-06 -7.0939339901827472e-06 0 -1.4073788290142276e-05 -1.7002601874746064e-05 0 -1.6598671945545706e-05 -2.0000343726954378e-05 0 -1.540056293369124e-05 -1.9778331020940729e-05 0 -1.7646655841259007e-05 -8.6658424376393326e-06 0 -1.7620119812611645e-05 -7.2060198268906059e-06 0 -2.134199946713384e-05 -9.8946373423977728e-06 0 -1.3870365540588646e-06 5.3392702739551916e-07 0 -5.6917423693251754e-07 2.4348039863704021e-07 0 -6.5228031599609565e-07 2.9222089342829693e-07 0 -7.1541593656361979e-06 2.7700257100101653e-06 0 -9.8277963315353533e-06 3.8213297341387658e-06 0 -8.3129534196090679e-06 1.7041093179463026e-06 0 -3.9692920832752057e-06 1.7354809129128704e-06 0 -5.6321710455688588e-06 1.6488179912482623e-06 0 -4.4798514185192192e-06 8.5177438414018245e-07 0 -9.2369436166971135e-06 6.5806066885095799e-06 0 -1.1340669919558971e-05 2.994192070598626e-06 0 -1.1135066209423673e-05 8.4600906209187245e-07 0 -8.4947192707436974e-06 -2.3185723618208229e-06 0 -6.495984254958666e-06 -1.3688392601935816e-06 0 -6.1439673126320136e-06 -1.9787743569647588e-06 0 -4.2798569288525742e-06 -8.8680348624105856e-07 0 -6.1439673126320136e-06 -1.9787743569647588e-06 0 -6.495984254958666e-06 -1.3688392601935816e-06 0 -5.8925330692974969e-06 5.2724571914580502e-07 0 -8.9756019340207427e-06 9.9804345098249181e-07 0 -8.7276176135508826e-06 1.9527649247432625e-06 0 -1.2090947130551015e-05 2.2526504211701652e-06 0 -8.7276176135508826e-06 1.9527649247432625e-06 0 -8.9756019340207427e-06 9.9804345098249181e-07 0 -4.2258280173053026e-05 -2.7747781545980338e-05 0 -4.6131264554942761e-05 -3.4853016347065899e-05 0 -3.934553541643103e-05 -3.0167797786308929e-05 0 -2.0699646717820788e-05 4.6982178101251966e-05 0 -2.6141837171198199e-05 3.5168352291787301e-05 0 -1.8508890182020602e-05 3.295357077085611e-05 0 -1.0248903773704606e-05 -3.7673169736560958e-05 0 -1.505450396141125e-05 -3.4472030818707176e-05 0 -1.6490629444922968e-05 -4.3748753330180953e-05 0 -2.0170608948373153e-05 -2.4856822364118304e-05 0 -2.1867479211059451e-05 -2.432787776146793e-05 0 -2.1607361603186401e-05 -2.6535271946954772e-05 0 -6.1699421093160985e-06 -4.3965506098272861e-07 0 -8.1683253360713581e-06 -1.2891722109884306e-06 0 -6.5033820377116265e-06 -5.780200431645103e-07 0 -1.1345222358506225e-05 -1.7391379527957731e-06 0 -8.8601342888162255e-06 4.7709839948274988e-07 0 -9.4940817165555389e-06 -1.3467238424751864e-06 0 -1.4164860281663203e-05 -4.0765161118989192e-06 0 -1.1336242069683337e-05 -2.685567663489305e-06 0 -1.3481687853119409e-05 -3.7217649417501204e-06 0 -1.5665679490468601e-05 8.5410831857112745e-05 0 -2.0741865964889702e-06 9.1247782462101597e-05 0 -9.4954507832205079e-06 0.00010254932171713547 0 -9.7909579839253719e-10 1.6309144568586844e-10 0 -1.0439167849360658e-06 4.3114354130963376e-07 0 -6.5228031599609565e-07 2.9222089342829693e-07 0 -2.2273116020369363e-05 -1.6770462922547013e-05 0 -2.0907881084060046e-05 -1.6985850163557677e-05 0 -2.0130062117816186e-05 -1.4097806793425398e-05 0 -8.1695369230597502e-06 -2.1334866904837339e-06 0 -7.8998609040965601e-06 7.1432626776878855e-06 0 -1.1135066209423673e-05 8.4600906209187245e-07 0 -7.9043939840950353e-05 7.2563157904767024e-05 0 -7.210591189608882e-05 5.6140549012238565e-05 0 -6.4399257866727569e-05 6.2205373673404344e-05 0 -1.0675922235198671e-06 3.8608263371264111e-07 0 -1.2629425370506744e-06 3.4600814371885161e-07 0 -6.9083477885367704e-07 1.5057961857435235e-07 0 -3.1095803617021103e-06 1.1970310116667294e-07 0 -1.4741742335646193e-06 2.6279998597333863e-07 0 -1.4638686951455566e-06 1.1376822485312711e-07 0 -3.6301491543763778e-06 -5.8477323424434232e-07 0 -1.7810918334101013e-06 -4.3727391850881293e-07 0 -1.6411633944137915e-06 -5.6214804819887222e-07 0 -4.5552020279533609e-06 1.9426137312756213e-06 0 -3.7896082928413986e-06 1.4507353220437215e-06 0 -4.64874117947224e-06 1.1002003851654203e-06 0 -2.5982346912467021e-05 -1.3491818312976346e-05 0 -2.5039354775103045e-05 -1.1034430095140986e-05 0 -2.9134961828734794e-05 -1.4170360519515127e-05 0 -3.9054376210347423e-05 2.4153588701590911e-05 0 -4.6435575928080202e-05 2.5101205310431913e-05 0 -3.8532864492821963e-05 1.8603851811420269e-05 0 -1.8248840960356106e-05 0.00014701541015803152 0 -1.0553767185059955e-05 0.00012906180231605656 0 -3.8014379455682168e-06 0.00013892477229763422 0 -4.3516799226811727e-05 -6.8551872971392726e-05 0 -4.5400686687314262e-05 -5.9845840143992381e-05 0 -4.9523856020246339e-05 -6.5632860976158082e-05 0 -7.4415238839537279e-06 -7.3322381787044875e-06 0 -9.037129967347941e-06 -7.0939339901827463e-06 0 -1.1250926847327824e-05 -1.1110037947489771e-05 0 -1.107234876959513e-05 6.7254863448446975e-06 0 -1.2810665239354411e-05 1.1189804155488901e-05 0 -1.5542194722816858e-05 9.2275952668860709e-06 0 -1.2193042335642729e-05 -9.2443035206996846e-06 0 -1.1250926847327824e-05 -1.1110037947489771e-05 0 -9.037129967347941e-06 -7.0939339901827472e-06 0 -3.9605854029907618e-06 9.2943048526860589e-07 0 -3.5603369113915895e-06 7.7570164366985173e-07 0 -4.843145480363993e-06 5.1294378014961999e-07 0 -1.1650633997902163e-06 1.6131065547992463e-07 0 -8.7172935248338383e-07 -1.3241878070609872e-07 0 -5.6067097471770747e-07 3.285037550764346e-09 0 -8.1307127426192054e-06 -1.4619432671776805e-06 0 -6.8559560426159002e-06 -8.0996265040550571e-07 0 -6.5033820377116265e-06 -5.780200431645103e-07 0 -9.5985168495501683e-06 4.9262533292047153e-06 0 -1.1340669919558971e-05 2.994192070598626e-06 0 -7.9409744749084219e-06 8.2733147954624178e-06 0 -9.2369436166971135e-06 6.5806066885095799e-06 0 -7.9409744749084219e-06 8.2733147954624178e-06 0 -1.1340669919558971e-05 2.994192070598626e-06 0 -3.7558230221897842e-05 -5.4330840023000876e-05 0 -4.5400686687314269e-05 -5.9845840143992381e-05 0 -3.9582773297933596e-05 -6.2411595068342335e-05 0 -4.3516799226811727e-05 -6.8551872971392726e-05 0 -3.9582773297933596e-05 -6.2411595068342335e-05 0 -4.5400686687314269e-05 -5.9845840143992381e-05 0 -2.3307744227095582e-05 0.00011661968761907777 0 -1.0553767185059955e-05 0.00012906180231605656 0 -2.4644597190368456e-05 0.00013509628613007259 0 -1.8248840960356106e-05 0.00014701541015803152 0 -2.4644597190368456e-05 0.00013509628613007259 0 -1.0553767185059955e-05 0.00012906180231605656 0 -2.3307744227095582e-05 0.00011661968761907777 0 -2.3604737662936752e-05 9.8637031505700905e-05 0 -9.4954507832205079e-06 0.00010254932171713547 0 -1.5665679490468601e-05 8.5410831857112745e-05 0 -9.4954507832205079e-06 0.00010254932171713547 0 -2.3604737662936752e-05 9.8637031505700905e-05 0 -8.3613761909931572e-10 1.2408475889964812e-10 0 -8.7583533776774338e-10 1.4277617386808152e-10 0 -5.6917423693251754e-07 2.4348039863704021e-07 0 -9.394969601697341e-06 -1.0252955865559721e-05 0 -1.1250926847327825e-05 -1.1110037947489772e-05 0 -1.2250096082328979e-05 -1.3738933090494015e-05 0 -1.4033346883735341e-05 -1.4440189084730733e-05 0 -1.2250096082328979e-05 -1.3738933090494015e-05 0 -1.1250926847327824e-05 -1.1110037947489771e-05 0 -3.8872522662608387e-05 -4.2099798787636911e-05 0 -4.0667466093319297e-05 -3.6847852918655904e-05 0 -4.4535612998383959e-05 -4.4347969362177856e-05 0 -4.6131264554942761e-05 -3.4853016347065899e-05 0 -4.0667466093319297e-05 -3.6847852918655904e-05 0 -3.934553541643103e-05 -3.0167797786308929e-05 0 -7.9043939840950353e-05 7.2563157904767024e-05 0 -6.4399257866727569e-05 6.2205373673404344e-05 0 -6.5730550186757924e-05 7.8168342810603093e-05 0 -4.7385292497998644e-06 4.1375417312119637e-06 0 -4.9209089160246812e-06 5.5255798202693964e-06 0 -4.0907437423436287e-06 4.4566323553833692e-06 0 -4.4769054439144667e-06 6.6041523804196911e-06 0 -4.0907437423436287e-06 4.4566323553833692e-06 0 -4.9209089160246812e-06 5.5255798202693964e-06 0 -2.5907516843253156e-06 8.5907696620015563e-07 0 -3.1282379651541108e-06 1.0497970806398956e-06 0 -2.4278101987105524e-06 9.5555504262704534e-07 0 -1.3870365540588646e-06 5.3392702739551916e-07 0 -6.5228031599609555e-07 2.9222089342829688e-07 0 -1.0439167849360658e-06 4.3114354130963376e-07 0 -1.5671260655539243e-05 2.9937616935271487e-06 0 -2.0883737982985898e-05 5.1246989313135494e-06 0 -1.6765306865800141e-05 3.9095188474960308e-06 0 -1.1050620451027975e-05 -2.7960958750901236e-06 0 -1.1460528144925919e-05 -3.4656961945678764e-06 0 -1.4004086975587214e-05 -4.2203007062577291e-06 0 -1.1050620451027975e-05 -2.7960958750901236e-06 0 -1.3481687853119409e-05 -3.7217649417501204e-06 0 -1.1336242069683337e-05 -2.685567663489305e-06 0 8.6023050357550032e-06 0.00012268175935411653 0 -3.8014379455682168e-06 0.00013892477229763422 0 -1.0553767185059955e-05 0.00012906180231605656 0 -5.3851217924643951e-05 -5.9859327992772621e-05 0 -4.9523856020246346e-05 -6.5632860976158082e-05 0 -4.5400686687314269e-05 -5.9845840143992381e-05 0 -8.4742499336441234e-10 2.1255748009228493e-11 0 -5.6067097471770747e-07 3.2850375507643282e-09 0 -8.7172935248338383e-07 -1.3241878070609872e-07 0 -3.9692920832752057e-06 1.7354809129128704e-06 0 -5.3736527556716765e-06 3.0236455166831597e-06 0 -5.6321710455688588e-06 1.6488179912482623e-06 0 -2.8681061888983937e-05 -3.5751966823875195e-05 0 -3.0724189058642899e-05 -3.0203703397956928e-05 0 -3.3560002533580263e-05 -3.5855837755168861e-05 0 -1.2103258383029407e-05 3.3316400766379536e-06 0 -9.8277963315353516e-06 3.8213297341387658e-06 0 -1.380534988102654e-05 5.7120630371400725e-06 0 -1.3768903962818178e-05 -8.3083245416465654e-06 0 -1.678821006101484e-05 -9.952808868729443e-06 0 -1.6185393670665153e-05 -1.1839580325907876e-05 0 -4.0602578624624695e-06 3.4937995755548953e-06 0 -4.0907437423436287e-06 4.4566323553833692e-06 0 -4.4799127452814513e-06 5.3176899603797434e-06 0 -3.8384522026512455e-05 7.321418574728113e-05 0 -5.1179402814826849e-05 7.6195288578949797e-05 0 -4.4174017754639665e-05 6.2810003575728489e-05 0 -2.5982346912467021e-05 -1.3491818312976346e-05 0 -3.1368634115823546e-05 -1.7392453435278595e-05 0 -2.7406086454344763e-05 -1.7017763093029531e-05 0 -3.9054376210347423e-05 2.4153588701590911e-05 0 -4.1891394323608687e-05 3.1806674978152662e-05 0 -5.007793851476278e-05 3.2919247003700006e-05 0 -2.2928112124931621e-05 -2.6130964881508719e-05 0 -2.2155431223584961e-05 -2.8210886980939427e-05 0 -2.1607361603186401e-05 -2.6535271946954772e-05 0 -2.1038930531915242e-05 -2.8239964052871243e-05 0 -2.1607361603186401e-05 -2.6535271946954772e-05 0 -2.2155431223584961e-05 -2.8210886980939427e-05 0 -1.4164860281663203e-05 -4.0765161118989192e-06 0 -1.1557386446057703e-05 -2.8660667297078903e-06 0 -1.1336242069683337e-05 -2.685567663489305e-06 0 -9.1416797422861646e-06 -1.6968925713175224e-06 0 -1.1336242069683337e-05 -2.685567663489305e-06 0 -1.1557386446057703e-05 -2.8660667297078903e-06 0 -8.0481544323678268e-06 -1.7349101154878034e-06 0 -9.8791373689856609e-06 -3.3570067538547986e-06 0 -8.8132216855178755e-06 -2.455032039734932e-06 0 -1.6674881558052119e-05 -5.2485464352355715e-06 0 -2.0767829256683469e-05 -7.434507973179763e-06 0 -1.7696857036898485e-05 -5.9329013243844442e-06 0 -1.8436664199912553e-05 4.9517979239700602e-06 0 -1.8843472160331614e-05 4.2890205513338907e-06 0 -1.4422234734991532e-05 3.0782929943619016e-06 0 -2.4669217170247714e-05 -2.8428843394843225e-05 0 -2.2527182848967866e-05 -2.9414505999397045e-05 0 -2.3450086797756222e-05 -2.7606132372752848e-05 0 -3.8384522026512455e-05 7.321418574728113e-05 0 -4.7089879535366877e-05 9.3129006694732397e-05 0 -5.1179402814826849e-05 7.6195288578949797e-05 0 -8.7583533776774338e-10 1.4277617386808152e-10 0 -9.7909579839253719e-10 1.6309144568586844e-10 0 -6.5228031599609565e-07 2.9222089342829693e-07 0 9.2121790825956232e-06 0.00010340194286068553 0 -9.4954507832205079e-06 0.00010254932171713547 0 -2.0741865964889702e-06 9.1247782462101597e-05 0 -5.2429038433833704e-06 1.0278400701024665e-05 0 -4.3246484913559765e-06 1.2624897298409687e-05 0 -4.6298140266521374e-06 9.130168650062654e-06 0 -3.9054376210347423e-05 2.4153588701590911e-05 0 -3.1963212830377263e-05 2.291756596577811e-05 0 -4.1891394323608687e-05 3.1806674978152662e-05 0 -5.2429038433833704e-06 1.0278400701024665e-05 0 -5.242816509706664e-06 7.6318030663686891e-06 0 -6.794038908327018e-06 7.6373317447516999e-06 0 -5.2429038433833704e-06 1.0278400701024665e-05 0 -4.6298140266521374e-06 9.130168650062654e-06 0 -5.242816509706664e-06 7.6318030663686891e-06 0 -1.064867348765947e-05 -2.5737078972884268e-06 0 -1.3318577900015863e-05 -3.9787672160592563e-06 0 -1.2424113602749944e-05 -4.0135505633841001e-06 0 -5.1969144786786101e-06 -1.0520644633327075e-08 0 -6.5033820377116265e-06 -5.780200431645103e-07 0 -6.8559560426159002e-06 -8.099626504055056e-07 0 -5.3255019503383362e-05 6.181026406128375e-05 0 -6.5730550186757924e-05 7.8168342810603093e-05 0 -6.4399257866727569e-05 6.2205373673404344e-05 0 -1.2510328789741579e-05 -5.8221900563672814e-06 0 -1.3603291593237625e-05 -4.7406109889015722e-06 0 -1.1376550498661549e-05 -3.4484633810512842e-06 0 -9.5985168495501683e-06 4.9262533292047153e-06 0 -7.9409744749084219e-06 8.2733147954624178e-06 0 -6.794038908327018e-06 7.6373317447516999e-06 0 -2.1603925591739816e-05 -1.4052128323089974e-05 0 -1.9786058385830953e-05 -1.1484352684877253e-05 0 -2.063852019846745e-05 -1.126114579455912e-05 0 -2.5982346912467021e-05 -1.3491818312976346e-05 0 -2.9134961828734794e-05 -1.4170360519515129e-05 0 -3.1368634115823546e-05 -1.7392453435278595e-05 0 -3.9054376210347423e-05 2.4153588701590911e-05 0 -5.007793851476278e-05 3.2919247003700006e-05 0 -4.6435575928080202e-05 2.5101205310431913e-05 0 -6.6945396114763579e-05 0.00014644371894291394 0 -8.0159603186948187e-05 0.00015370146064079716 0 -7.7360853321529192e-05 0.00013650039112672165 0 -2.3479413289745759e-05 -6.6213854535306541e-05 0 -1.8836194493422273e-05 -6.8640566494404263e-05 0 -1.8352311771907488e-05 -6.0477257132150347e-05 0 -2.4451790510465244e-05 -1.6616839090922681e-05 0 -2.2680923804115402e-05 -1.4216444332945775e-05 0 -2.4545598595388941e-05 -1.5826223943672082e-05 0 -4.4769054439144667e-06 6.6041523804196911e-06 0 -4.4799127452814513e-06 5.3176899603797434e-06 0 -4.0907437423436287e-06 4.4566323553833692e-06 0 -1.0600921987463764e-05 1.8518122995647072e-06 0 -1.4422234734991532e-05 3.0782929943619016e-06 0 -1.2444745577377546e-05 1.7741945893322972e-06 0 -2.0404307435560021e-05 -7.8479800416405788e-06 0 -1.6535277043976532e-05 -5.6877286936234353e-06 0 -1.7696857036898485e-05 -5.9329013243844442e-06 0 -3.0493574993583262e-05 1.2621884973502149e-05 0 -2.5100570087083728e-05 1.1436813976613814e-05 0 -3.0883804560888902e-05 1.6813114292541068e-05 0 -1.1862028022951697e-05 -6.6238450491199223e-06 0 -1.3543885251728483e-05 -9.8729589453470656e-06 0 -1.3034223487146997e-05 -8.5277716064255447e-06 0 -1.4869807842110761e-05 -5.3216156335753322e-06 0 -1.6535277043976532e-05 -5.6877286936234353e-06 0 -1.7620119812611645e-05 -7.2060198268906059e-06 0 -9.5985168495501683e-06 4.9262533292047153e-06 0 -8.6216879056317066e-06 3.7456295129998789e-06 0 -1.1653300046667884e-05 1.4489790406377161e-06 0 -8.4742499336441234e-10 2.1255748009228493e-11 0 -8.2771809332416838e-10 -2.3327030251742374e-11 0 -5.6067097471770747e-07 3.285037550764346e-09 0 -2.4775009694142139e-05 -1.9145760025516911e-05 0 -2.5262378146711735e-05 -1.8263582692319476e-05 0 -2.7020850388907182e-05 -2.0475605545955606e-05 0 -2.5035711891682512e-05 -9.826120520928441e-06 0 -2.3957484407387186e-05 -9.4799605061716067e-06 0 -2.0767829256683469e-05 -7.434507973179763e-06 0 -3.9874465018945223e-05 1.5464710357121015e-05 0 -3.1539608790661381e-05 1.0967659723413574e-05 0 -3.7249527245285553e-05 1.5046418546561506e-05 0 -3.4551031800988765e-05 -2.9647585366214318e-05 0 -3.934553541643103e-05 -3.0167797786308929e-05 0 -4.0667466093319297e-05 -3.6847852918655904e-05 0 -1.9461493809873148e-05 -1.4020431794413721e-05 0 -1.9272156170382786e-05 -1.7037154523822574e-05 0 -1.6185393670665153e-05 -1.1839580325907876e-05 0 -1.576180166733644e-05 -1.4118558073045659e-05 0 -1.6185393670665153e-05 -1.1839580325907876e-05 0 -1.9272156170382786e-05 -1.7037154523822574e-05 0 -1.4869807842110761e-05 -5.3216156335753322e-06 0 -1.4710687142831812e-05 -6.0372398030485469e-06 0 -1.2424113602749944e-05 -4.0135505633841001e-06 0 -2.1603925591739816e-05 -1.4052128323089974e-05 0 -2.063852019846745e-05 -1.126114579455912e-05 0 -2.2680923804115402e-05 -1.4216444332945775e-05 0 -3.8872522662608387e-05 -4.2099798787636911e-05 0 -3.3701015296920572e-05 -4.1300197655894806e-05 0 -3.3560002533580263e-05 -3.5855837755168861e-05 0 -1.4869807842110761e-05 -5.3216156335753322e-06 0 -1.2424113602749944e-05 -4.0135505633841001e-06 0 -1.3318577900015863e-05 -3.9787672160592563e-06 0 -1.8925066104813798e-05 -9.1375836271648245e-06 0 -2.063852019846745e-05 -1.126114579455912e-05 0 -1.9786058385830953e-05 -1.1484352684877253e-05 0 -1.6025020505945552e-06 -1.9677133985635488e-07 0 -1.6005408968660254e-06 1.0396112169113642e-07 0 -2.169354921560894e-06 1.1690698203811356e-07 0 -3.3830411990499367e-05 -1.6720077708368687e-05 0 -3.1368634115823546e-05 -1.7392453435278595e-05 0 -2.9134961828734794e-05 -1.4170360519515127e-05 0 -5.6426901016448983e-05 3.0623103603081837e-05 0 -4.6435575928080202e-05 2.5101205310431913e-05 0 -5.007793851476278e-05 3.2919247003700006e-05 0 -5.3851217924643951e-05 -5.9859327992772621e-05 0 -4.5400686687314269e-05 -5.9845840143992381e-05 0 -4.8571046387649723e-05 -5.5453099627523935e-05 0 8.6023050357550032e-06 0.00012268175935411653 0 -1.0553767185059955e-05 0.00012906180231605656 0 -5.3835503013786953e-06 0.00011533584098123098 0 9.2121790825956232e-06 0.00010340194286068553 0 -5.3835503013786953e-06 0.00011533584098123098 0 -9.4954507832205079e-06 0.00010254932171713547 0 -5.3851217924643951e-05 -5.9859327992772621e-05 0 -5.5123529093994102e-05 -6.8687753939037383e-05 0 -4.9523856020246339e-05 -6.5632860976158082e-05 0 8.6023050357550032e-06 0.00012268175935411653 0 7.4407174821128691e-06 0.00014179091191479233 0 -3.8014379455682168e-06 0.00013892477229763422 0 -1.2193042335642729e-05 -9.2443035206996846e-06 0 -1.1719411450361616e-05 -5.4986225682563087e-06 0 -1.4198549249439482e-05 -8.8423932908551351e-06 0 -2.2582723479710777e-05 -1.3204241707689267e-05 0 -2.4545598595388941e-05 -1.5826223943672082e-05 0 -2.2680923804115402e-05 -1.4216444332945775e-05 0 -3.0676797695269542e-05 -2.6965423092006454e-05 0 -3.1087017757830568e-05 -2.8369736331322445e-05 0 -3.0097994562678429e-05 -2.5704307304216924e-05 0 -1.5756559949543872e-05 -2.0811415680925795e-05 0 -1.7798096826861936e-05 -2.531359464351354e-05 0 -1.6775819259126106e-05 -2.328205106854126e-05 0 -3.9054376210347423e-05 2.4153588701590911e-05 0 -3.0883804560888902e-05 1.6813114292541068e-05 0 -3.1963212830377263e-05 2.291756596577811e-05 0 -9.1416797422861646e-06 -1.6968925713175224e-06 0 -7.3164949941775614e-06 -9.4050365190313961e-07 0 -8.7556849305889861e-06 -1.6393376114833698e-06 0 -2.7937518099566541e-06 1.3279015602301579e-06 0 -3.1282379651541108e-06 1.0497970806398956e-06 0 -3.7896082928413986e-06 1.4507353220437215e-06 0 -5.9190895726103967e-05 9.0393052539451888e-05 0 -5.1179402814826849e-05 7.6195288578949797e-05 0 -4.7089879535366877e-05 9.3129006694732397e-05 0 -2.0377805342641236e-05 -3.9858449430822809e-05 0 -1.6490629444922968e-05 -4.3748753330180953e-05 0 -1.505450396141125e-05 -3.4472030818707176e-05 0 -1.1650633997902163e-06 1.6131065547992463e-07 0 -5.6067097471770747e-07 3.285037550764346e-09 0 -6.9083477885367704e-07 1.5057961857435235e-07 0 -1.7646655841259007e-05 -8.6658424376393326e-06 0 -1.4233816166102612e-05 -7.004756773116772e-06 0 -1.4710687142831812e-05 -6.0372398030485469e-06 0 9.217789132885678e-06 8.4385614110023439e-05 0 9.2121790825956249e-06 0.00010340194286068553 0 -2.0741865964889702e-06 9.1247782462101597e-05 0 -3.4344664936978567e-06 -3.2586166266392526e-07 0 -3.7627652113597221e-06 1.3690103859341301e-07 0 -4.746644995048088e-06 -7.2287212070558062e-08 0 -1.2193042335642729e-05 -9.2443035206996846e-06 0 -1.4198549249439482e-05 -8.8423932908551351e-06 0 -1.4008538332052352e-05 -1.2132032474682125e-05 0 -1.6098914475088909e-05 -1.2328756924796033e-05 0 -1.4008538332052352e-05 -1.2132032474682125e-05 0 -1.4198549249439482e-05 -8.8423932908551351e-06 0 -2.859313501108582e-05 -2.4635476285560915e-05 0 -2.9225620127137719e-05 -2.411074070657531e-05 0 -3.0097994562678429e-05 -2.5704307304216924e-05 0 -3.0676797695269542e-05 -2.6965423092006454e-05 0 -3.0097994562678429e-05 -2.5704307304216924e-05 0 -2.9225620127137719e-05 -2.411074070657531e-05 0 -1.5756559949543872e-05 -2.0811415680925795e-05 0 -1.7315787900713063e-05 -2.3645028349720915e-05 0 -1.7798096826861936e-05 -2.531359464351354e-05 0 -1.9030287913009808e-05 -2.7103204304677486e-05 0 -1.7798096826861936e-05 -2.531359464351354e-05 0 -1.7315787900713066e-05 -2.3645028349720915e-05 0 -4.7385292497998644e-06 4.1375417312119637e-06 0 -4.0373512820037597e-06 3.0854415059265378e-06 0 -5.5162608747962078e-06 2.8469856489765524e-06 0 -8.1695369230597502e-06 -2.1334866904837339e-06 0 -1.1135066209423673e-05 8.4600906209187245e-07 0 -1.1719411450361616e-05 -5.4986225682563087e-06 0 -1.3885370859104063e-05 -3.5469755473247105e-06 0 -1.1719411450361616e-05 -5.4986225682563087e-06 0 -1.1135066209423673e-05 8.4600906209187245e-07 0 -3.8872522662608387e-05 -4.2099798787636911e-05 0 -4.4535612998383959e-05 -4.4347969362177856e-05 0 -4.3117894419940639e-05 -5.052481831473228e-05 0 -1.4164860281663203e-05 -4.0765161118989192e-06 0 -1.6535277043976532e-05 -5.6877286936234353e-06 0 -1.3318577900015863e-05 -3.9787672160592563e-06 0 -1.4869807842110761e-05 -5.3216156335753322e-06 0 -1.3318577900015863e-05 -3.9787672160592563e-06 0 -1.6535277043976532e-05 -5.6877286936234353e-06 0 -1.3628463307103867e-05 -1.1583563562516343e-05 0 -1.829687921354055e-05 -9.7041476613162787e-06 0 -1.7107000579473685e-05 -8.6127162068813397e-06 0 -2.7592702927298009e-05 -2.2282732024602123e-05 0 -2.9225620127137719e-05 -2.411074070657531e-05 0 -2.7380719966106395e-05 -2.3179175804903011e-05 0 -1.7443894663014502e-05 -2.2291867317853869e-05 0 -1.8861439175017446e-05 -2.4771164449535346e-05 0 -1.7315787900713066e-05 -2.3645028349720915e-05 0 -3.9605854029907618e-06 9.2943048526860589e-07 0 -3.7896082928413986e-06 1.4507353220437215e-06 0 -3.1282379651541108e-06 1.0497970806398956e-06 0 -2.252718284896787e-05 -2.9414505999397045e-05 0 -2.2155431223584961e-05 -2.8210886980939427e-05 0 -2.3450086797756222e-05 -2.7606132372752848e-05 0 -3.4063624592885947e-06 6.3851017541062237e-07 0 -2.5026731537433418e-06 7.4655371247346631e-07 0 -2.2515068449353355e-06 6.5702363093468601e-07 0 -1.8925066104813798e-05 -9.1375836271648245e-06 0 -1.748860471641522e-05 -6.870393751148995e-06 0 -1.8476973247252514e-05 -7.7042547253655354e-06 0 -1.1650633997902163e-06 1.6131065547992463e-07 0 -1.6410348512986926e-06 4.1356993753439219e-07 0 -1.6005408968660254e-06 1.0396112169113639e-07 0 -3.7513841955537765e-05 0.00010174415161877136 0 -3.1274718399341011e-05 8.6918078851852738e-05 0 -2.3604737662936752e-05 9.8637031505700905e-05 0 -3.9190472385320933e-05 0.00013482013658877874 0 -2.4644597190368456e-05 0.00013509628613007259 0 -3.1282255235746285e-05 0.00014710575630441853 0 -3.3604466472052756e-05 -6.2501320586058585e-05 0 -3.9582773297933596e-05 -6.2411595068342335e-05 0 -3.786677211756008e-05 -6.8119782538715254e-05 0 -1.1671888195740465e-06 1.8906583325037543e-05 0 -7.8998609040965601e-06 7.1432626776878855e-06 0 -2.4177668348043676e-06 2.6981321106696103e-06 0 -1.1650633997902163e-06 1.6131065547992463e-07 0 -6.9083477885367704e-07 1.5057961857435235e-07 0 -1.2629425370506742e-06 3.4600814371885161e-07 0 -5.1889735772212035e-05 -5.1150725046720941e-05 0 -4.8571046387649723e-05 -5.5453099627523935e-05 0 -4.3117894419940639e-05 -5.052481831473228e-05 0 -5.5920324492954276e-05 -0.00010049144259660585 0 -5.1006719282109378e-05 -9.6343088890653148e-05 0 -5.5962491815051972e-05 -9.3155857142870893e-05 0 1.0638216313744084e-06 0.00021348313689443114 0 -9.0687033679626319e-06 0.00020818755418873969 0 2.0556450440209359e-06 0.00019733028417897742 0 1.0638216313744084e-06 0.00021348313689443114 0 -1.4806443013708138e-05 0.00021826403024949843 0 -9.0687033679626336e-06 0.00020818755418873969 0 -1.7683765368063547e-05 -9.7007642189996345e-05 0 -2.1676141368370112e-05 -9.5401410016302679e-05 0 -2.3985464586103991e-05 -9.9612705971861653e-05 0 -9.4263890054459133e-05 0.00022054622162712251 0 -9.4325275676619027e-05 0.00020335239814610947 0 -8.2758115473314527e-05 0.00021081316745939234 0 -5.5920324492954276e-05 -0.00010049144259660585 0 -4.8591344190589512e-05 -0.0001004318619418609 0 -5.1006719282109378e-05 -9.6343088890653148e-05 0 -1.7683765368063547e-05 -9.7007642189996345e-05 0 -1.7166853583962987e-05 -9.0233892961399026e-05 0 -2.1676141368370112e-05 -9.5401410016302679e-05 0 -9.4263890054459133e-05 0.00022054622162712251 0 -8.2758115473314527e-05 0.00021081316745939234 0 -7.7071022688116557e-05 0.000220457316322648 0 -8.2771809332427105e-10 -2.3327030251741766e-11 0 -6.9083477885367704e-07 1.5057961857435235e-07 0 -5.6067097471770747e-07 3.285037550764346e-09 0 -2.1603925591739816e-05 -1.4052128323089974e-05 0 -2.0130062117816186e-05 -1.4097806793425398e-05 0 -1.9786058385830953e-05 -1.1484352684877253e-05 0 -1.4869807842110761e-05 -5.3216156335753322e-06 0 -1.7620119812611645e-05 -7.2060198268906059e-06 0 -1.4710687142831812e-05 -6.0372398030485469e-06 0 -3.8872522662608387e-05 -4.2099798787636911e-05 0 -3.654687244749575e-05 -4.6809567216116394e-05 0 -3.3701015296920572e-05 -4.1300197655894806e-05 0 -3.0398195969394455e-06 4.8893040235853248e-07 0 -4.4798514185192192e-06 8.5177438414018245e-07 0 -3.7627652113597221e-06 1.3690103859341301e-07 0 -4.2572142991071591e-05 0.00015797557576662679 0 -5.4457109499868337e-05 0.00016928042235832142 0 -5.4574000538998604e-05 0.00015202409647186476 0 -3.3953745737547437e-05 -7.2742757820091336e-05 0 -3.002442123807341e-05 -7.7750789440403205e-05 0 -2.8789975372325633e-05 -6.9819937198051929e-05 0 -2.9108611667981947e-05 -2.3319366637031805e-05 0 -3.0050451440668615e-05 -2.5278426846339088e-05 0 -2.869598527645644e-05 -2.2895995711678213e-05 0 -1.2935586353564788e-05 -1.5723598750244418e-05 0 -1.540056293369124e-05 -1.9778331020940729e-05 0 -1.4538464452459855e-05 -1.8348633470040818e-05 0 -5.0321780999027679e-06 -3.4886174668727637e-06 0 -9.037129967347941e-06 -7.0939339901827472e-06 0 -7.4415238839537279e-06 -7.3322381787044875e-06 0 -1.7646655841259007e-05 -8.6658424376393326e-06 0 -1.4710687142831812e-05 -6.0372398030485469e-06 0 -1.7620119812611645e-05 -7.2060198268906059e-06 0 -2.64371185670748e-05 -1.7901105402464927e-05 0 -2.7974735554192892e-05 -2.0827695028868984e-05 0 -2.5970540108752912e-05 -1.8297481086514346e-05 0 -9.394969601697341e-06 -1.0252955865559721e-05 0 -1.2250096082328979e-05 -1.3738933090494015e-05 0 -1.1278076047714949e-05 -1.3048774244715164e-05 0 -2.8681061888983937e-05 -3.5751966823875195e-05 0 -2.4696417206800732e-05 -3.7983316583576356e-05 0 -2.391825648068637e-05 -3.0371696033689243e-05 0 -2.7937518099566541e-06 1.3279015602301579e-06 0 -2.427810198710552e-06 9.5555504262704513e-07 0 -3.1282379651541108e-06 1.0497970806398956e-06 0 -2.3479413289745759e-05 -6.6213854535306541e-05 0 -2.7642032783430119e-05 -6.0964737754444518e-05 0 -2.8789975372325633e-05 -6.9819937198051929e-05 0 -6.6945396114763579e-05 0.00014644371894291394 0 -5.3518045898789657e-05 0.0001350644141271206 0 -5.4574000538998604e-05 0.00015202409647186476 0 -1.4033346883735341e-05 -1.4440189084730733e-05 0 -1.1250926847327824e-05 -1.1110037947489771e-05 0 -1.4008538332052352e-05 -1.2132032474682125e-05 0 -1.2193042335642729e-05 -9.2443035206996846e-06 0 -1.4008538332052354e-05 -1.2132032474682125e-05 0 -1.1250926847327824e-05 -1.1110037947489771e-05 0 -5.1969144786786101e-06 -1.0520644633327075e-08 0 -4.929392894348402e-06 3.109163528743589e-08 0 -6.5033820377116265e-06 -5.780200431645103e-07 0 -1.9461493809873148e-05 -1.4020431794413721e-05 0 -1.6185393670665153e-05 -1.1839580325907874e-05 0 -1.678821006101484e-05 -9.952808868729443e-06 0 -1.8706476288688539e-05 -3.0079864549921861e-05 0 -1.4136292442405588e-05 -2.6442950999055582e-05 0 -1.6470365826646587e-05 -2.0488453904567945e-05 0 -1.8650723294240225e-05 -1.1302033548439479e-05 0 -1.9786058385830953e-05 -1.1484352684877253e-05 0 -2.0130062117816186e-05 -1.4097806793425398e-05 0 -1.1063352448199327e-05 -2.1467016539038666e-05 0 -1.4136292442405588e-05 -2.6442950999055582e-05 0 -1.0152154955479228e-05 -2.9396166726486358e-05 0 -1.4073788290142276e-05 -1.7002601874746064e-05 0 -1.5313840385605568e-05 -1.6953825217898021e-05 0 -1.6598671945545706e-05 -2.0000343726954378e-05 0 -1.7487900005834101e-05 -1.8960792050366027e-05 0 -1.6598671945545706e-05 -2.0000343726954378e-05 0 -1.5313840385605568e-05 -1.6953825217898021e-05 0 -6.535428403396635e-06 -9.0790761035587178e-07 0 -8.4152756443117105e-06 -1.8101873854938195e-06 0 -8.7556849305889861e-06 -1.6393376114833698e-06 0 -9.779008768633996e-06 -2.6028188324213731e-06 0 -1.1376550498661549e-05 -3.4484633810512842e-06 0 -9.4940817165555389e-06 -1.3467238424751864e-06 0 -1.1345222358506225e-05 -1.7391379527957731e-06 0 -9.4940817165555389e-06 -1.3467238424751864e-06 0 -1.1376550498661549e-05 -3.4484633810512842e-06 0 -5.2429038433833704e-06 1.0278400701024665e-05 0 -7.9409744749084219e-06 8.2733147954624178e-06 0 -5.5338493852772417e-06 1.3044471046621912e-05 0 -9.2369436166971135e-06 6.5806066885095799e-06 0 -5.5338493852772417e-06 1.3044471046621912e-05 0 -7.9409744749084219e-06 8.2733147954624178e-06 0 9.2121790825956232e-06 0.00010340194286068553 0 8.6023050357550032e-06 0.00012268175935411653 0 -5.3835503013786953e-06 0.00011533584098123098 0 -6.6560567855193446e-06 6.1106840638304549e-06 0 -4.9209089160246812e-06 5.5255798202693964e-06 0 -6.0650235271895489e-06 4.4632550727001741e-06 0 -5.1889735772212035e-05 -5.1150725046720941e-05 0 -5.3851217924643951e-05 -5.9859327992772621e-05 0 -4.8571046387649723e-05 -5.5453099627523935e-05 0 -6.1699421093160985e-06 -4.3965506098272861e-07 0 -6.5033820377116265e-06 -5.780200431645103e-07 0 -4.929392894348402e-06 3.109163528743589e-08 0 -8.4750477311991076e-06 4.4894809936032813e-07 0 -6.5611096844889088e-06 1.3845365266451091e-07 0 -5.6498798509384831e-06 -2.5487126477804903e-07 0 -6.535428403396635e-06 -9.0790761035587178e-07 0 -4.512498096861293e-06 -2.9239596650115263e-07 0 -4.9601755251622276e-06 -6.5478193511497919e-07 0 -3.9692920832752057e-06 1.7354809129128704e-06 0 -2.8976345644922524e-06 1.3163192337496496e-06 0 -3.4976758888468176e-06 2.4467704589584527e-06 0 -3.610522781697587e-06 -1.9457655003735833e-06 0 -2.9866506570676629e-06 -9.9623403977575513e-07 0 -1.5134769663062059e-06 -6.4372392945486459e-07 0 -2.237919638624376e-09 1.7722554343799525e-10 0 -1.5134769663062061e-06 -6.4372392945486459e-07 0 -2.9866506570676629e-06 -9.9623403977575513e-07 0 -4.9874041530156667e-06 2.3240390225246141e-06 0 -2.1002809514164709e-06 6.935363565263474e-07 0 -4.1985145526689519e-06 9.2020590425631855e-07 0 -3.2022386154226004e-09 -4.1592459813761553e-10 0 -4.1985145526689519e-06 9.2020590425631855e-07 0 -2.1002809514164709e-06 6.935363565263474e-07 0 -1.9461493809873148e-05 -1.4020431794413721e-05 0 -2.3561875472745104e-05 -1.6438363502986562e-05 0 -2.2787719943583798e-05 -1.9417002084805775e-05 0 -1.1650633997902163e-06 1.6131065547992463e-07 0 -1.2629425370506742e-06 3.4600814371885161e-07 0 -1.6410348512986926e-06 4.1356993753439219e-07 0 -1.5665679490468601e-05 8.5410831857112745e-05 0 -2.9828097616456888e-06 7.8903649982285307e-05 0 -2.0741865964889702e-06 9.1247782462101597e-05 0 -1.5838787726071997e-05 2.2615503550005376e-05 0 -1.7447364769214472e-05 1.6947551334278157e-05 0 -1.1667453406865237e-05 1.518036199508279e-05 0 -6.6560567855193446e-06 6.1106840638304549e-06 0 -5.242816509706664e-06 7.6318030663686891e-06 0 -4.9209089160246812e-06 5.5255798202693964e-06 0 -2.1045140126771981e-05 -2.3397068506156656e-05 0 -1.9272156170382786e-05 -1.7037154523822574e-05 0 -2.2787719943583798e-05 -1.9417002084805775e-05 0 -6.0300448467765327e-05 0.00022017677795652861 0 -7.7071022688116557e-05 0.000220457316322648 0 -6.8563142437295127e-05 0.00021168884507286021 0 -2.9456195827598793e-05 -0.00010015835913916143 0 -2.3985464586103991e-05 -9.9612705971861653e-05 0 -2.6598806531933794e-05 -9.6764898938261107e-05 0 -1.4806443013708138e-05 0.00021826403024949843 0 -2.9446486767341541e-05 0.00021961756348367107 0 -2.1849712516122984e-05 0.00021109923483699633 0 -4.8591344190589512e-05 -0.0001004318619418609 0 -4.1566410929560129e-05 -0.00010026651117355215 0 -4.499557257763753e-05 -9.6711223252509242e-05 0 -2.5673857916714686e-05 -2.2993004762831193e-05 0 -2.7380719966106395e-05 -2.3179175804903011e-05 0 -2.6477851858518113e-05 -2.4314977092434277e-05 0 -2.0170608948373153e-05 -2.4856822364118304e-05 0 -2.0133863107530385e-05 -2.7181758025022335e-05 0 -1.8861439175017446e-05 -2.4771164449535346e-05 0 -4.2141203372584937e-09 -1.8021888442822805e-09 0 -1.5134769663062063e-06 -6.4372392945486469e-07 0 -2.237919638624376e-09 1.7722554343799525e-10 0 -5.5952055028268111e-09 2.3868527642702093e-09 0 -3.2022386154226004e-09 -4.1592459813761553e-10 0 -2.1002809514164709e-06 6.935363565263474e-07 0 -5.5952055028268111e-09 2.3868527642702093e-09 0 -2.1002809514164709e-06 6.935363565263474e-07 0 -4.9874041530156667e-06 2.3240390225246141e-06 0 -4.2141203372584937e-09 -1.8021888442822805e-09 0 -3.610522781697587e-06 -1.9457655003735833e-06 0 -1.5134769663062059e-06 -6.4372392945486459e-07 0 -2.0377805342641236e-05 -3.9858449430822809e-05 0 -2.4696417206800729e-05 -3.7983316583576349e-05 0 -2.5693425829044162e-05 -4.6263771232389523e-05 0 -8.1307127426192054e-06 -1.4619432671776805e-06 0 -9.9784141088712547e-06 -2.5061294156471155e-06 0 -9.0312606675503774e-06 -2.2609802669809194e-06 0 -1.8925066104813798e-05 -9.1375836271648245e-06 0 -1.9786058385830953e-05 -1.1484352684877253e-05 0 -1.8054162658666433e-05 -8.7899331376278807e-06 0 -1.8650723294240225e-05 -1.1302033548439479e-05 0 -1.8054162658666433e-05 -8.7899331376278807e-06 0 -1.9786058385830953e-05 -1.1484352684877253e-05 0 -5.1969144786786101e-06 -1.0520644633327075e-08 0 -6.8559560426159002e-06 -8.099626504055056e-07 0 -5.6748850565431129e-06 -1.969712677232442e-07 0 -2.5907516843253156e-06 8.5907696620015563e-07 0 -2.5026731537433418e-06 7.4655371247346631e-07 0 -3.5603369113915895e-06 7.7570164366985173e-07 0 -3.4063624592885947e-06 6.3851017541062237e-07 0 -3.5603369113915895e-06 7.7570164366985173e-07 0 -2.5026731537433418e-06 7.4655371247346631e-07 0 -9.2369436166971135e-06 6.5806066885095799e-06 0 -7.8998609040965601e-06 7.1432626776878864e-06 0 -5.5338493852772417e-06 1.3044471046621912e-05 0 -1.1671888195740465e-06 1.8906583325037543e-05 0 -5.5338493852772408e-06 1.3044471046621914e-05 0 -7.8998609040965601e-06 7.1432626776878855e-06 0 -2.6758859406324456e-05 -1.987220881047401e-05 0 -2.2787719943583798e-05 -1.9417002084805775e-05 0 -2.3561875472745104e-05 -1.6438363502986562e-05 0 -1.4033346883735341e-05 -1.4440189084730733e-05 0 -1.5313840385605568e-05 -1.6953825217898021e-05 0 -1.2250096082328979e-05 -1.3738933090494015e-05 0 -2.4451790510465244e-05 -1.6616839090922681e-05 0 -2.5970540108752912e-05 -1.8297481086514346e-05 0 -2.5262378146711735e-05 -1.8263582692319476e-05 0 -3.9605854029907618e-06 9.2943048526860589e-07 0 -4.64874117947224e-06 1.1002003851654203e-06 0 -3.7896082928413986e-06 1.4507353220437215e-06 0 -1.8248840960356106e-05 0.00014701541015803152 0 -3.8014379455682168e-06 0.00013892477229763422 0 -5.6880321400372124e-06 0.00015201584219845852 0 -4.3516799226811727e-05 -6.8551872971392726e-05 0 -4.9523856020246339e-05 -6.5632860976158082e-05 0 -4.9631697408484735e-05 -7.1707210874597213e-05 0 -1.3628463307103867e-05 -1.1583563562516343e-05 0 -1.3034223487146997e-05 -8.5277716064255447e-06 0 -1.3543885251728483e-05 -9.8729589453470656e-06 0 -1.2193042335642729e-05 -9.2443035206996846e-06 0 -9.037129967347941e-06 -7.0939339901827472e-06 0 -1.1719411450361616e-05 -5.4986225682563087e-06 0 -6.6945396114763579e-05 0.00014644371894291394 0 -7.7360853321529192e-05 0.00013650039112672165 0 -6.4642378383649956e-05 0.00013073354351128945 0 -2.3479413289745759e-05 -6.6213854535306541e-05 0 -1.8352311771907488e-05 -6.0477257132150347e-05 0 -2.2793115952133234e-05 -5.866677300113963e-05 0 -2.0377805342641236e-05 -3.9858449430822809e-05 0 -2.1406889088665579e-05 -4.7083368033948697e-05 0 -1.6490629444922968e-05 -4.3748753330180953e-05 0 -2.4541000366013095e-05 -2.1215331529074195e-05 0 -2.4219410476941021e-05 -2.2581463958891067e-05 0 -2.2941714646180035e-05 -2.1108878693269495e-05 0 -1.7443894663014502e-05 -2.2291867317853869e-05 0 -1.540056293369124e-05 -1.9778331020940729e-05 0 -1.6598671945545706e-05 -2.0000343726954378e-05 0 -7.1541593656361979e-06 2.7700257100101653e-06 0 -5.6321710455688588e-06 1.6488179912482623e-06 0 -5.3736527556716765e-06 3.0236455166831593e-06 0 -2.2928112124931621e-05 -2.6130964881508719e-05 0 -2.1607361603186401e-05 -2.6535271946954772e-05 0 -2.1867479211059451e-05 -2.432787776146793e-05 0 -6.1699421093160985e-06 -4.3965506098272861e-07 0 -4.929392894348402e-06 3.109163528743589e-08 0 -4.7620890306831134e-06 -2.4353787613192875e-09 0 -3.7245163317726128e-06 2.9846700367003766e-07 0 -4.7620890306831134e-06 -2.4353787613192875e-09 0 -4.929392894348402e-06 3.109163528743589e-08 0 -7.3741306792953937e-06 2.3039659948679655e-07 0 -8.385396642768821e-06 -1.1876430764587518e-06 0 -9.4940817165555389e-06 -1.3467238424751864e-06 0 -1.9461493809873148e-05 -1.4020431794413721e-05 0 -2.2787719943583798e-05 -1.9417002084805775e-05 0 -1.9272156170382786e-05 -1.7037154523822574e-05 0 -5.1969144786786101e-06 -1.0520644633327075e-08 0 -5.6748850565431129e-06 -1.969712677232442e-07 0 -4.2953677044557979e-06 3.3482166473916603e-07 0 -4.9425049897127925e-06 2.0865107985849847e-07 0 -4.2953677044557979e-06 3.3482166473916603e-07 0 -5.6748850565431129e-06 -1.969712677232442e-07 0 -6.8559560426159002e-06 -8.099626504055056e-07 0 -6.4316854305277164e-06 -5.7915994190217495e-07 0 -5.6748850565431129e-06 -1.969712677232442e-07 0 -2.5158932052532612e-05 -2.5827946928975097e-05 0 -2.6477851858518113e-05 -2.4314977092434277e-05 0 -2.7326034550589524e-05 -2.5846278269263117e-05 0 -2.859313501108582e-05 -2.4635476285560915e-05 0 -2.732603455058952e-05 -2.5846278269263117e-05 0 -2.6477851858518113e-05 -2.4314977092434277e-05 0 -1.9030287913009808e-05 -2.7103204304677486e-05 0 -2.0133863107530385e-05 -2.7181758025022335e-05 0 -2.0144061940432322e-05 -2.9600392279053056e-05 0 -2.1038930531915242e-05 -2.8239964052871243e-05 0 -2.0144061940432322e-05 -2.9600392279053056e-05 0 -2.0133863107530385e-05 -2.7181758025022335e-05 0 -9.2369436166971135e-06 6.5806066885095799e-06 0 -1.1135066209423673e-05 8.4600906209187235e-07 0 -7.8998609040965601e-06 7.1432626776878855e-06 0 -1.5604484281514452e-05 0.00020016547184323387 0 -2.1849712516122984e-05 0.00021109923483699633 0 -3.0355895731522005e-05 0.00020483929174857518 0 -4.7638981627735565e-05 -9.2240332860451764e-05 0 -4.499557257763753e-05 -9.6711223252509242e-05 0 -4.0959041447580664e-05 -9.3840157585440231e-05 0 -2.4123411379100644e-05 -9.2028626690580107e-05 0 -2.9771934717299709e-05 -9.410074044625315e-05 0 -2.6598806531933794e-05 -9.6764898938261107e-05 0 -7.4908098129478063e-05 0.0002012481596708744 0 -5.8846199710287789e-05 0.00020483535079650008 0 -6.8563142437295127e-05 0.00021168884507286021 0 -6.6945396114763579e-05 0.00014644371894291394 0 -6.4642378383649956e-05 0.00013073354351128945 0 -5.3518045898789657e-05 0.0001350644141271206 0 -2.3479413289745759e-05 -6.6213854535306541e-05 0 -2.2793115952133234e-05 -5.866677300113963e-05 0 -2.7642032783430119e-05 -6.0964737754444518e-05 0 -2.0377805342641236e-05 -3.9858449430822809e-05 0 -2.5693425829044162e-05 -4.6263771232389523e-05 0 -2.1406889088665583e-05 -4.7083368033948697e-05 0 -9.779008768633996e-06 -2.6028188324213731e-06 0 -9.4940817165555389e-06 -1.3467238424751864e-06 0 -8.385396642768821e-06 -1.1876430764587518e-06 0 -2.9446486767341541e-05 0.00021961756348367107 0 -3.0355895731522005e-05 0.00020483929174857518 0 -2.1849712516122984e-05 0.00021109923483699633 0 -4.1566410929560129e-05 -0.00010026651117355215 0 -4.0959041447580664e-05 -9.3840157585440231e-05 0 -4.499557257763753e-05 -9.6711223252509242e-05 0 -6.0300448467765327e-05 0.00022017677795652861 0 -6.8563142437295127e-05 0.00021168884507286021 0 -5.8846199710287789e-05 0.00020483535079650008 0 -2.9456195827598793e-05 -0.00010015835913916143 0 -2.6598806531933794e-05 -9.676489893826112e-05 0 -2.9771934717299709e-05 -9.410074044625315e-05 0 -2.2935388205723606e-05 -2.283483733748588e-05 0 -2.2941714646180035e-05 -2.1108878693269495e-05 0 -2.4219410476941021e-05 -2.2581463958891067e-05 0 -1.1063352448199327e-05 -2.1467016539038666e-05 0 -1.6470365826646587e-05 -2.0488453904567945e-05 0 -1.4136292442405588e-05 -2.6442950999055582e-05 0 -3.1087017757830568e-05 -2.8369736331322445e-05 0 -3.0061223087032058e-05 -2.618609338976315e-05 0 -3.0097994562678429e-05 -2.5704307304216924e-05 0 -1.6775819259126106e-05 -2.328205106854126e-05 0 -1.7798096826861936e-05 -2.531359464351354e-05 0 -1.8832209281272879e-05 -2.8054270254057468e-05 0 -2.5907516843253156e-06 8.5907696620015563e-07 0 -1.8566165818469826e-06 6.6096017999023358e-07 0 -2.5026731537433418e-06 7.4655371247346631e-07 0 -7.1987987375233102e-05 0.00011827343239754364 0 -7.2632809210327793e-05 0.00010081640251315862 0 -6.0795696022246264e-05 0.00010391258804088211 0 -5.9190895726103967e-05 9.0393052539451888e-05 0 -6.0795696022246264e-05 0.00010391258804088211 0 -7.2632809210327793e-05 0.00010081640251315862 0 -2.1364026414481605e-05 -1.9322940271114847e-05 0 -2.3011155662584179e-05 -1.9288431982946778e-05 0 -2.2941714646180035e-05 -2.1108878693269495e-05 0 -6.2913334686293278e-06 -2.5437288187453281e-07 0 -6.4316854305277164e-06 -5.7915994190217495e-07 0 -7.4344217403213999e-06 -1.2410315880830337e-06 0 -1.8925066104813798e-05 -9.1375836271648245e-06 0 -1.8054162658666433e-05 -8.7899331376278807e-06 0 -1.748860471641522e-05 -6.870393751148995e-06 0 -1.6458386882981632e-05 -5.7325489383469379e-06 0 -1.748860471641522e-05 -6.870393751148995e-06 0 -1.8054162658666433e-05 -8.7899331376278807e-06 0 -5.3698477891563168e-05 0.0001175320212123873 0 -5.3518045898789657e-05 0.0001350644141271206 0 -6.4642378383649956e-05 0.00013073354351128945 0 -2.5537872671293802e-05 -5.320319602915289e-05 0 -2.7642032783430119e-05 -6.0964737754444518e-05 0 -2.2793115952133234e-05 -5.866677300113963e-05 0 -2.5537872671293802e-05 -5.320319602915289e-05 0 -2.1406889088665583e-05 -4.7083368033948697e-05 0 -2.5693425829044162e-05 -4.6263771232389523e-05 0 -4.2798569288525742e-06 -8.8680348624105856e-07 0 -6.4959842549586668e-06 -1.3688392601935816e-06 0 -4.9601755251622276e-06 -6.5478193511497919e-07 0 -5.8925330692974969e-06 5.2724571914580502e-07 0 -6.5611096844889088e-06 1.3845365266451091e-07 0 -8.9756019340207427e-06 9.9804345098249181e-07 0 -1.2090947130551015e-05 2.2526504211701652e-06 0 -8.9756019340207427e-06 9.9804345098249181e-07 0 -1.1532061812318739e-05 1.5473407388331754e-06 0 -8.4947192707436974e-06 -2.3185723618208229e-06 0 -8.4152756443117105e-06 -1.8101873854938195e-06 0 -6.495984254958666e-06 -1.3688392601935816e-06 0 -8.3106499084664177e-06 -1.7384878243364638e-06 0 -8.385396642768821e-06 -1.1876430764587518e-06 0 -7.164153507773762e-06 -4.7300991621338018e-07 0 -7.1987987375233102e-05 0.00011827343239754364 0 -6.4642378383649956e-05 0.00013073354351128945 0 -7.7360853321529192e-05 0.00013650039112672165 0 -1.8684076488580697e-05 -5.2245970179830528e-05 0 -2.2793115952133234e-05 -5.866677300113963e-05 0 -1.8352311771907488e-05 -6.0477257132150347e-05 0 -1.8684076488580697e-05 -5.2245970179830528e-05 0 -1.6490629444922968e-05 -4.3748753330180953e-05 0 -2.1406889088665583e-05 -4.7083368033948697e-05 0 -2.8681061888983937e-05 -3.5751966823875195e-05 0 -3.3560002533580263e-05 -3.5855837755168861e-05 0 -3.3701015296920572e-05 -4.1300197655894806e-05 0 -2.4541000366013095e-05 -2.1215331529074195e-05 0 -2.2941714646180035e-05 -2.1108878693269495e-05 0 -2.3011155662584179e-05 -1.9288431982946778e-05 0 -7.1541593656361979e-06 2.7700257100101653e-06 0 -7.6757719840963791e-06 4.5941544733910848e-06 0 -9.8277963315353533e-06 3.8213297341387658e-06 0 -1.0168909826160182e-05 -4.0225061314684062e-06 0 -8.8132216855178755e-06 -2.455032039734932e-06 0 -9.8791373689856609e-06 -3.3570067538547986e-06 0 -6.535428403396635e-06 -9.0790761035587178e-07 0 -8.7556849305889878e-06 -1.63933761148337e-06 0 -7.3164949941775614e-06 -9.4050365190313961e-07 0 -5.3255019503383362e-05 6.181026406128375e-05 0 -4.4174017754639665e-05 6.2810003575728489e-05 0 -5.1179402814826849e-05 7.6195288578949797e-05 0 -3.4551031800988765e-05 -2.9647585366214318e-05 0 -3.3560002533580263e-05 -3.5855837755168861e-05 0 -3.0724189058642899e-05 -3.0203703397956928e-05 0 -1.8248840960356106e-05 0.00014701541015803152 0 -3.1282255235746285e-05 0.00014710575630441853 0 -2.4644597190368456e-05 0.00013509628613007259 0 -4.3516799226811727e-05 -6.8551872971392726e-05 0 -3.786677211756008e-05 -6.8119782538715254e-05 0 -3.9582773297933596e-05 -6.2411595068342335e-05 0 -1.5665679490468601e-05 8.5410831857112745e-05 0 -2.3604737662936752e-05 9.8637031505700905e-05 0 -3.1274718399341011e-05 8.6918078851852738e-05 0 -1.064867348765947e-05 -2.5737078972884268e-06 0 -1.1557386446057703e-05 -2.8660667297078899e-06 0 -1.3318577900015863e-05 -3.9787672160592563e-06 0 -8.0481544323678268e-06 -1.7349101154878034e-06 0 -7.4344217403213999e-06 -1.2410315880830337e-06 0 -6.4316854305277164e-06 -5.7915994190217495e-07 0 -3.107165709344447e-05 -4.6328945561304352e-05 0 -3.3701015296920572e-05 -4.1300197655894806e-05 0 -3.654687244749575e-05 -4.6809567216116394e-05 0 -2.859313501108582e-05 -2.4635476285560915e-05 0 -3.0097994562678429e-05 -2.5704307304216924e-05 0 -3.0061223087032058e-05 -2.618609338976315e-05 0 -1.9030287913009808e-05 -2.7103204304677486e-05 0 -1.8832209281272879e-05 -2.8054270254057468e-05 0 -1.7798096826861936e-05 -2.531359464351354e-05 0 -4.9425049897127925e-06 2.0865107985849847e-07 0 -5.6748850565431129e-06 -1.969712677232442e-07 0 -6.4316854305277164e-06 -5.7915994190217495e-07 0 -7.7071022688116557e-05 0.000220457316322648 0 -8.2758115473314527e-05 0.00021081316745939234 0 -6.8563142437295127e-05 0.00021168884507286021 0 -7.4908098129478063e-05 0.0002012481596708744 0 -6.8563142437295127e-05 0.00021168884507286021 0 -8.2758115473314527e-05 0.00021081316745939234 0 -2.4123411379100644e-05 -9.2028626690580107e-05 0 -2.6598806531933794e-05 -9.6764898938261107e-05 0 -2.1676141368370112e-05 -9.5401410016302679e-05 0 -2.3985464586103991e-05 -9.9612705971861653e-05 0 -2.1676141368370112e-05 -9.5401410016302679e-05 0 -2.6598806531933794e-05 -9.6764898938261107e-05 0 -1.4806443013708138e-05 0.00021826403024949843 0 -2.1849712516122984e-05 0.00021109923483699633 0 -9.0687033679626336e-06 0.00020818755418873969 0 -4.8591344190589512e-05 -0.0001004318619418609 0 -4.499557257763753e-05 -9.6711223252509242e-05 0 -5.1006719282109378e-05 -9.6343088890653148e-05 0 -1.5604484281514452e-05 0.00020016547184323387 0 -9.0687033679626336e-06 0.00020818755418873969 0 -2.1849712516122984e-05 0.00021109923483699633 0 -4.7638981627735565e-05 -9.2240332860451764e-05 0 -5.1006719282109378e-05 -9.6343088890653148e-05 0 -4.499557257763753e-05 -9.6711223252509242e-05 0 -2.1364026414481605e-05 -1.9322940271114847e-05 0 -2.2941714646180035e-05 -2.1108878693269495e-05 0 -2.1502149732414413e-05 -2.1390139370529369e-05 0 -2.4775009694142139e-05 -1.9145760025516911e-05 0 -2.3568333654293683e-05 -1.6641604820280985e-05 0 -2.5262378146711735e-05 -1.8263582692319476e-05 0 -2.4451790510465244e-05 -1.6616839090922681e-05 0 -2.5262378146711735e-05 -1.8263582692319476e-05 0 -2.3568333654293683e-05 -1.6641604820280985e-05 0 -2.2935388205723606e-05 -2.283483733748588e-05 0 -2.4219410476941021e-05 -2.2581463958891067e-05 0 -2.4255532692620697e-05 -2.4194081669529035e-05 0 -2.5673857916714686e-05 -2.2993004762831193e-05 0 -2.4255532692620697e-05 -2.4194081669529035e-05 0 -2.4219410476941021e-05 -2.2581463958891067e-05 0 -5.2429038433833704e-06 1.0278400701024665e-05 0 -6.794038908327018e-06 7.6373317447516999e-06 0 -7.9409744749084219e-06 8.2733147954624178e-06 0 -1.107234876959513e-05 6.7254863448446975e-06 0 -1.5542194722816858e-05 9.2275952668860709e-06 0 -1.380534988102654e-05 5.7120630371400725e-06 0 -1.8757507756581349e-05 8.1193630690977064e-06 0 -1.380534988102654e-05 5.7120630371400725e-06 0 -1.5542194722816858e-05 9.2275952668860709e-06 0 -1.064867348765947e-05 -2.5737078972884268e-06 0 -1.2424113602749944e-05 -4.0135505633841001e-06 0 -9.9784141088712547e-06 -2.5061294156471155e-06 0 -5.3255019503383362e-05 6.181026406128375e-05 0 -4.3608306997066298e-05 5.1291018998428442e-05 0 -4.4174017754639665e-05 6.2810003575728489e-05 0 -3.4302917499863693e-05 5.3060977520967339e-05 0 -4.4174017754639665e-05 6.2810003575728489e-05 0 -4.3608306997066298e-05 5.1291018998428442e-05 0 -6.6560567855193446e-06 6.1106840638304549e-06 0 -6.794038908327018e-06 7.6373317447516999e-06 0 -5.242816509706664e-06 7.6318030663686891e-06 0 -1.7487900005834101e-05 -1.8960792050366027e-05 0 -1.8494952956519315e-05 -2.1766040718118287e-05 0 -1.6598671945545706e-05 -2.0000343726954378e-05 0 -1.7443894663014502e-05 -2.2291867317853869e-05 0 -1.6598671945545706e-05 -2.0000343726954378e-05 0 -1.8494952956519315e-05 -2.1766040718118287e-05 0 -4.4769054439144667e-06 6.6041523804196911e-06 0 -5.242816509706664e-06 7.6318030663686891e-06 0 -4.6298140266521374e-06 9.130168650062654e-06 0 -2.6251737063436072e-05 -2.594637629269233e-05 0 -3.0152073295988496e-05 -2.53205401529029e-05 0 -3.0724189058642899e-05 -3.0203703397956928e-05 0 -3.4551031800988765e-05 -2.9647585366214318e-05 0 -3.0724189058642899e-05 -3.0203703397956928e-05 0 -3.0152073295988496e-05 -2.53205401529029e-05 0 -4.7385292497998644e-06 4.1375417312119637e-06 0 -6.0650235271895489e-06 4.4632550727001741e-06 0 -4.9209089160246812e-06 5.5255798202693964e-06 0 -4.4769054439144667e-06 6.6041523804196911e-06 0 -4.9209089160246812e-06 5.5255798202693964e-06 0 -5.242816509706664e-06 7.6318030663686891e-06 0 -2.4451790510465244e-05 -1.6616839090922681e-05 0 -2.4545598595388941e-05 -1.5826223943672082e-05 0 -2.5970540108752912e-05 -1.8297481086514346e-05 0 -8.0481544323678268e-06 -1.7349101154878034e-06 0 -8.8132216855178755e-06 -2.455032039734932e-06 0 -7.4344217403213999e-06 -1.2410315880830337e-06 0 -8.3106499084664177e-06 -1.7384878243364638e-06 0 -7.4344217403213999e-06 -1.2410315880830337e-06 0 -8.8132216855178755e-06 -2.455032039734932e-06 0 -7.3741306792953937e-06 2.3039659948679655e-07 0 -7.164153507773762e-06 -4.7300991621338018e-07 0 -8.385396642768821e-06 -1.1876430764587518e-06 0 7.4407174821128691e-06 0.00014179091191479233 0 -5.6880321400372124e-06 0.00015201584219845852 0 -3.8014379455682168e-06 0.00013892477229763422 0 -5.5123529093994102e-05 -6.8687753939037383e-05 0 -4.9631697408484735e-05 -7.1707210874597213e-05 0 -4.9523856020246339e-05 -6.5632860976158082e-05 0 -1.4164860281663203e-05 -4.0765161118989192e-06 0 -1.3318577900015863e-05 -3.9787672160592563e-06 0 -1.1557386446057703e-05 -2.8660667297078903e-06 0 -8.7583533776774338e-10 1.4277617386808152e-10 0 -6.5228031599609565e-07 2.9222089342829693e-07 0 -5.6917423693251754e-07 2.4348039863704021e-07 0 9.217789132885678e-06 8.4385614110023439e-05 0 -2.0741865964889702e-06 9.1247782462101597e-05 0 -2.9828097616456883e-06 7.890364998228532e-05 0 -2.2935388205723606e-05 -2.283483733748588e-05 0 -2.1502149732414413e-05 -2.1390139370529369e-05 0 -2.2941714646180035e-05 -2.1108878693269495e-05 0 -1.2103258383029407e-05 3.3316400766379536e-06 0 -1.380534988102654e-05 5.7120630371400725e-06 0 -1.6605570731122411e-05 5.3470499774217116e-06 0 -1.8757507756581349e-05 8.1193630690977064e-06 0 -1.6605570731122411e-05 5.3470499774217116e-06 0 -1.380534988102654e-05 5.7120630371400725e-06 0 -2.64371185670748e-05 -1.7901105402464927e-05 0 -2.5970540108752912e-05 -1.8297481086514346e-05 0 -2.4545598595388941e-05 -1.5826223943672082e-05 0 
</DataArray>
</PointData>
<CellData Scalars="region_id,cross_section_updated," Vectors="" Tensors="stress,">
<DataArray type="Float64" Name="region_id" format="ascii">
2 2 2 2 2 2 2 2 2 2 3 3 3 3 3 3 3 3 3 3 1 1 1 1 1 1 1 1 1 1 1 1 1 1 1 1 1 1 1 1 1 1 1 1 1 1 1 1 1 1 1 1 1 1 1 1 1 1 1 1 1 1 1 1 1 1 1 1 1 1 1 1 1 1 1 1 1 1 1 1 1 1 1 1 1 1 1 1 1 1 1 1 1 1 1 1 1 1 1 1 1 1 1 1 1 1 1 1 1 1 1 1 1 1 1 1 1 1 1 1 1 1 1 1 1 1 1 1 1 1 1 1 1 1 1 1 1 1 1 1 1 1 1 1 1 1 1 1 1 1 1 1 1 1 1 1 1 1 1 1 1 1 1 1 1 1 1 1 1 1 1 1 1 1 1 1 1 1 1 1 1 1 1 1 1 1 1 1 1 1 1 1 1 1 1 1 1 1 1 1 1 1 1 1 1 1 1 1 1 1 1 1 1 1 1 1 1 1 1 1 1 1 1 1 1 1 1 1 1 1 1 1 1 1 1 1 1 1 1 1 1 1 1 1 1 1 1 1 1 1 1 1 1 1 1 1 1 1 1 1 1 1 1 1 1 1 1 1 1 1 1 1 1 1 1 1 1 1 1 1 1 1 1 1 1 1 1 1 1 1 1 1 1 1 1 1 1 1 1 1 1 1 1 1 1 1 1 1 1 1 1 1 1 1 1 1 1 1 1 1 1 1 1 1 1 1 1 1 1 1 1 1 1 1 1 1 1 1 1 1 1 1 1 1 1 1 1 1 1 1 1 1 1 1 1 1 1 1 1 1 1 1 1 1 1 1 1 1 1 1 1 1 1 1 1 1 1 1 1 1 1 1 1 1 1 1 1 1 1 1 1 1 1 1 1 1 1 1 1 1 1 1 1 1 1 1 1 1 1 1 1 1 1 1 1 1 1 1 1 1 1 1 1 1 1 1 1 1 1 1 1 1 1 1 1 1 1 1 1 1 1 1 1 1 1 1 1 1 1 1 1 1 1 1 1 1 1 1 1 1 1 1 1 1 1 1 1 1 1 1 1 1 1 1 1 1 1 1 1 1 1 1 1 1 1 1 1 1 1 1 1 1 1 1 1 1 1 1 1 1 1 1 1 1 1 1 1 1 1 1 1 1 1 1 1 1 1 1 1 1 1 1 1 1 1 1 1 1 1 1 1 1 1 1 1 1 1 1 1 1 1 1 1 1 1 1 1 1 1 1 1 1 1 1 1 1 1 1 1 1 1 1 1 1 1 1 1 1 1 1 1 1 1 1 1 1 1 1 1 1 1 1 1 1 1 1 1 1 1 1 1 1 1 1 1 1 1 1 1 1 1 1 1 1 1 1 1 1 1 1 1 1 1 1 1 1 1 1 1 1 1 1 1 1 1 1 1 1 1 1 1 1 1 1 1 1 1 1 1 1 1 1 1 1 1 1 1 1 1 1 1 1 1 1 1 1 1 1 1 1 1 1 1 1 1 1 1 1 1 1 1 1 1 1 1 1 1 1 1 1 1 1 1 1 1 1 1 1 1 1 1 1 1 1 1 1 1 1 1 1 1 1 1 1 1 1 1 1 1 1 1 1 1 1 1 1 1 1 1 1 1 1 1 1 1 1 1 1 1 1 1 1 1 1 1 1 1 1 1 1 1 1 1 1 1 1 1 1 1 1 1 1 1 1 1 1 1 1 1 1 1 1 1 1 1 1 1 1 1 1 1 1 1 1 1 1 1 1 1 1 1 1 1 1 1 1 1 1 1 1 1 1 1 1 1 1 1 1 1 1 1 1 1 1 1 1 1 1 1 1 1 1 1 1 1 1 1 1 1 1 1 1 1 1 1 1 1 1 1 1 1 1 1 1 1 1 1 1 1 1 1 1 1 1 1 1 1 1 1 1 1 1 1 1 1 1 1 1 1 1 1 1 1 1 1 1 1 1 1 1 1 1 1 1 1 1 1 1 1 1 1 1 1 1 1 1 1 1 1 1 1 1 1 1 1 1 1 1 1 1 1 1 1 1 1 1 1 1 1 1 1 1 1 1 1 1 1 1 1 1 1 1 1 1 1 1 1 1 1 1 1 1 1 1 1 1 1 1 1 1 1 1 1 1 1 1 1 1 1 1 1 1 1 1 1 1 1 1 1 1 1 1 1 1 1 1 1 1 1 1 1 1 1 1 1 1 1 1 1 1 1 1 1 1 1 1 1 1 1 1 1 1 1 1 1 1 1 1 1 1 1 1 1 1 1 1 1 1 1 1 1 1 1 1 1 1 1 1 1 1 1 1 1 1 1 1 1 1 1 1 1 1 1 1 1 1 1 1 1 1 1 1 1 1 1 1 1 1 1 1 1 1 1 1 
</DataArray>
<DataArray type="Float64" Name="stress" NumberOfComponents="9" format="ascii">
-2.7491732215208968e-05 -2.6589028739116161e-05 0 -2.6589028739116161e-05 -9.163910738402994e-06 0 0 0 -9.163910738402994e-06 -2.9923258595933192e-05 -3.7977045794177985e-05 0 -3.7977045794177985e-05 -9.9744195319777305e-06 0 0 0 -9.9744195319777305e-06 -3.4721636378843429e-05 -4.8378415575724132e-05 0 -4.8378415575724132e-05 -1.1573878792947801e-05 0 0 0 -1.1573878792947801e-05 -3.2749301405443295e-05 -5.0697316707010707e-05 0 -5.0697316707010707e-05 -1.0916433801814432e-05 0 0 0 -1.0916433801814432e-05 -2.9722858948072809e-05 -4.3168273107237892e-05 0 -4.3168273107237892e-05 -9.9076196493576209e-06 0 0 0 -9.9076196493576209e-06 -2.8637195780021945e-05 -4.9158375680205741e-05 0 -4.9158375680205741e-05 -9.5457319266739908e-06 0 0 0 -9.5457319266739908e-06 -3.1172110721972707e-05 -4.1904091241815804e-05 0 -4.1904091241815804e-05 -1.0390703573990911e-05 0 0 0 -1.0390703573990911e-05 -2.743795017542917e-05 -5.0770999178336048e-05 0 -5.0770999178336048e-05 -9.1459833918097506e-06 0 0 0 -9.1459833918097506e-06 -2.2057363582883441e-05 -3.508660312164278e-05 0 -3.508660312164278e-05 -7.3524545276277956e-06 0 0 0 -7.3524545276277956e-06 -1.4302686652557296e-05 -1.5851832115362937e-06 0 -1.5851832115362937e-06 -4.7675622175190715e-06 0 0 0 -4.7675622175190715e-06 5.6293554035369528e-05 5.1615274373990595e-05 0 5.1615274373990595e-05 1.8764518011789844e-05 0 0 0 1.8764518011789844e-05 -1.2934358631074878e-05 5.4315348231100569e-05 0 5.4315348231100569e-05 -4.3114528770249589e-06 0 0 0 -4.3114528770249589e-06 -2.0825850701993696e-05 3.8268919312594467e-05 0 3.8268919312594467e-05 -6.9419502339978997e-06 0 0 0 -6.9419502339978997e-06 -2.7854563448683613e-05 7.9891967460196114e-05 0 7.9891967460196114e-05 -9.2848544828945376e-06 0 0 0 -9.2848544828945376e-06 -3.4565046472282848e-05 6.3690423623965586e-05 0 6.3690423623965586e-05 -1.1521682157427617e-05 0 0 0 -1.1521682157427617e-05 -3.9828172999042919e-05 6.4864903194960534e-05 0 6.4864903194960534e-05 -1.3276057666347645e-05 0 0 0 -1.3276057666347645e-05 -4.455664731427137e-05 6.0988134482022082e-05 0 6.0988134482022082e-05 -1.4852215771423789e-05 0 0 0 -1.4852215771423789e-05 -5.3460152107762766e-05 9.2830382809508394e-05 0 9.2830382809508394e-05 -1.7820050702587584e-05 0 0 0 -1.7820050702587584e-05 -8.6877769192974033e-06 5.0459884437189812e-05 0 5.0459884437189812e-05 -2.8959256397658101e-06 0 0 0 -2.8959256397658101e-06 -0.00015489039540148402 -2.7827144572320928e-05 0 -2.7827144572320928e-05 -5.1630131800494664e-05 0 0 0 -5.1630131800494664e-05 -0.032412789827435055 -0.0081182561639577301 0 -0.0081182561639577301 0.014410002330125571 0 0 0 -0.0045006968743273659 -0.029530029318798168 -0.0082916293094534264 0 -0.0082916293094534264 0.025713793319077277 0 0 0 -0.00095405899993022264 -0.044479103356255011 -0.0065076214981718977 0 -0.0065076214981718977 0.022965669052387339 0 0 0 -0.0053783585759669197 -0.044335913930116891 -0.00033333947798341867 0 -0.00033333947798341867 0.024252986017094167 0 0 0 -0.0050207319782556567 -0.094979232362011903 -0.0030182441019143413 0 -0.0030182441019143413 0.0011522870549285705 0 0 0 -0.023456736326770818 -0.066456049407698059 0.00016941136230856461 0 0.00016941136230856461 -4.9295698828928517e-05 0 0 0 -0.016626336276631747 -0.099798232605490589 -0.0013435233954563405 0 -0.0013435233954563405 -0.00086642179542503403 0 0 0 -0.025166163600228903 -0.0684637753856151 -0.00043802672171551759 0 -0.00043802672171551759 -0.00054657814306360505 0 0 0 -0.017252588382169677 -0.08063255501918698 0.0023569275757640978 0 0.0023569275757640978 -0.00030733490073146796 0 0 0 -0.020234972479979588 -0.13985309914256225 -0.006605298155497593 0 -0.006605298155497593 -0.00041478978885520212 0 0 0 -0.03506697223285439 -0.014723008794885894 0.0023821096604165169 0 0.0023821096604165169 -0.010549478761299311 0 0 0 -0.0063181218890462996 -0.017615539175550445 0.0028852323406920819 0 0.0028852323406920819 -0.0081557518548963856 0 0 0 -0.0064428227576117042 -0.034081904063425164 0.0022976168406611307 0 0.0022976168406611307 -0.005627919691761598 0 0 0 -0.009927455938796681 -0.034634680361128892 -0.0043518336457230647 0 -0.0043518336457230647 -0.011547461880985578 0 0 0 -0.011545535560528616 -0.03444053777116822 0.0030378919920329879 0 0.0030378919920329879 -0.011480198041228701 0 0 0 -0.011480183953099229 -0.042645843924979006 -0.010310672734966615 0 -0.010310672734966615 0.017578067215283627 0 0 0 -0.0062669441774238568 0.084563489104972689 0.068556403510772704 0 0.068556403510772704 0.14001591969991045 0 0 0 0.056144852201220757 -0.0038522570738895867 -0.008709782535985866 0 -0.008709782535985866 -0.0061949607557485464 0 0 0 -0.0025118044574096166 -0.0039207060311867714 0.0058149201998427547 0 0.0058149201998427547 -0.00069352431097691181 0 0 0 -0.0011535575855408098 -0.0045617208044430591 0.010960346254003854 0 0.010960346254003854 -0.0026165686308612379 0 0 0 -0.0017945723588259632 -0.0023813403794784582 -0.0047767356643272051 0 -0.0047767356643272051 -0.0017822106727010123 0 0 0 -0.0010408877630448954 -0.011500687134677556 0.017538001820670113 0 0.017538001820670113 -0.0035140409276421813 0 0 0 -0.0037536820155797956 -0.0095225645790773528 -0.017737015522114041 0 -0.017737015522114041 -0.0043537534886086693 0 0 0 -0.0034690795169214916 -0.031084555255311397 0.0039133894772888931 0 0.0039133894772888931 -0.0060863311200935492 0 0 0 -0.0092927215938512359 0.092257755158499419 -0.0034428562331062923 0 -0.0034428562331062923 0.085649000172438899 0 0 0 0.044476688832734576 -0.1566346819205657 0.0091871868932055234 0 0.0091871868932055234 0.0046622192288301445 0 0 0 -0.037993115672933842 -0.085542046513151393 -0.0034798042861935489 0 -0.0034798042861935489 0.0018286405350479429 0 0 0 -0.020928351494525849 -0.065642035274538199 -0.012898865703465802 0 -0.012898865703465802 0.013672980952838448 0 0 0 -0.012992263580424948 -0.075945249143708121 0.014952380627542937 0 0.014952380627542937 0.040768732980031475 0 0 0 -0.0087941290409191686 -0.082704177573517806 -0.013706448516332251 0 -0.013706448516332251 0.0062411747099694881 0 0 0 -0.019115750715887114 -0.036687418498878327 -0.012617120003141221 0 -0.012617120003141221 0.032356893171924431 0 0 0 -0.0010826313317384637 -0.021536592444680452 -0.023616904756586232 0 -0.023616904756586232 0.0007081543643171484 0 0 0 -0.0052071095200908746 -0.02502404426004351 0.031168747754993009 0 0.031168747754993009 -0.0022748145326738634 0 0 0 -0.0068247146981794127 -0.02277916953343917 -0.024262144964687926 0 -0.024262144964687926 0.003802593945122501 0 0 0 -0.0047441438970791117 -0.030668881069217946 0.032764221308898334 0 0.032764221308898334 -0.0034964496952150093 0 0 0 -0.0085413326911081278 -0.063018932996899452 -0.018558154624789727 0 -0.018558154624789727 0.0023695189719415977 0 0 0 -0.015162353506239477 -0.023360262256259246 -0.026866285334524818 0 -0.026866285334524818 0.042270899143662312 0 0 0 0.0047276592218507716 -0.086701135367424229 0.0076415114339779544 0 0.0076415114339779544 0.010309379434384924 0 0 0 -0.019097938983259774 0.17082228504644015 0.076111527625125089 0 0.076111527625125089 0.056377177658508915 0 0 0 0.056799865676237293 0.00010115505550345461 0.0070245632598015251 0 0.0070245632598015251 0.0067910576134233569 0 0 0 0.0017230531672317861 -0.00041735779365906223 -0.0085882680027824371 0 -0.0085882680027824371 0.027701506490978911 0 0 0 0.0068210371743299691 -0.032770372445489297 -0.012881287816768651 0 -0.012881287816768651 0.051509340378822578 0 0 0 0.0046847419833333211 0.00060994976653194755 -0.01362698555374775 0 -0.01362698555374775 0.052683036776955738 0 0 0 0.01332324663587181 -0.0061425409156412591 0.0031593212183307351 0 0.0031593212183307351 -0.0024647646633875198 0 0 0 -0.0021518263947568617 -0.02551859554353628 -0.0035932620055881955 0 -0.0035932620055881955 -0.012561377266157229 0 0 0 -0.0095199932024233776 -0.027366110411089148 0.004657881866139706 0 0.004657881866139706 -0.0091155976531470655 0 0 0 -0.0091204270160590538 -0.05175916007783235 0.042701105274245366 0 0.042701105274245366 0.042176920307630997 0 0 0 -0.0023955599425502794 -0.046852800246249215 0.037614348025419353 0 0.037614348025419353 0.030816289631646177 0 0 0 -0.0040091276536507459 0.075380778729987219 0.094766169800608868 0 0.094766169800608868 0.16192509503029334 0 0 0 0.059326468440070113 -0.0094402152994514515 0.0062065724819595491 0 0.0062065724819595491 0.00040272404757225877 0 0 0 -0.0022593728129695761 -0.013736573581569062 -0.017070797618449984 0 -0.017070797618449984 0.039116964933064324 0 0 0 0.0063450978378737748 -0.019769369240396295 -0.008392852374270024 0 -0.008392852374270024 -0.017049116503892514 0 0 0 -0.0092046214360721745 -0.0346190365341002 -0.011982038758268206 0 -0.011982038758268206 0.039398068427949906 0 0 0 0.0011947579734624299 -0.028838927577126604 -0.017092540662172785 0 -0.017092540662172785 0.0039742899867310222 0 0 0 -0.0062161593975988971 -0.021646858234338276 -0.0056267712795875433 0 -0.0056267712795875433 0.0096085436027590898 0 0 0 -0.0030095786578947931 -0.08063438221291247 0.012865110959382919 0 0.012865110959382919 -0.0006720379076041727 0 0 0 -0.020326605030129119 -0.0071345661004587058 -0.0042365559401685848 0 -0.0042365559401685848 0.00017555220916554148 0 0 0 -0.0017397534728234021 -0.0074415912296699194 0.018907977872165693 0 0.018907977872165693 0.076029870569586766 0 0 0 0.017147069834978934 -0.0073107748843912052 -0.013310937457714056 0 -0.013310937457714056 0.063055534883397116 0 0 0 0.013936189999751589 7.2037427435223123e-05 0.00096908192127922294 0 0.00096908192127922294 -0.00090803904013192493 0 0 0 -0.00020900040317428648 -0.019701320599465971 0.0014033439627528232 0 0.0014033439627528232 -0.0060793585719836063 0 0 0 -0.006445169792862443 0.0029648305819315688 -0.03940410878404127 0 -0.03940410878404127 0.064498422619181511 0 0 0 0.016865813300278261 -0.017765937378097979 0.00022557615381358503 0 0.00022557615381358503 -0.003950960080679855 0 0 0 -0.0054292243646944793 -0.024174795927422332 -0.007795019598584297 0 -0.007795019598584297 0.0010343473423285454 0 0 0 -0.0057851121462734467 -0.031431813367236106 -0.023869714394657876 0 -0.023869714394657876 0.0068411351545785148 0 0 0 -0.0061476695531643699 -0.063176037916215622 -0.0043328619172460442 0 -0.0043328619172460442 -0.010413136544558044 0 0 0 -0.018397293615193419 -0.088555828777875184 0.0017862328499431658 0 0.0017862328499431658 -0.014069561788984136 0 0 0 -0.025656347641714834 0.0015463722831577191 0.0027740844983049628 0 0.0027740844983049628 -0.0059413678568960848 0 0 0 -0.0010987488934346052 0.0026791183078699043 -0.003546883639636067 0 -0.003546883639636067 0.011847670736171767 0 0 0 0.003631697261010397 -0.064933893248997301 -0.005324423003971312 0 -0.005324423003971312 -0.016165851987151817 0 0 0 -0.020274936309037279 -0.050128215005968209 0.00070948127356135139 0 0.00070948127356135139 -0.011730651508103809 0 0 0 -0.015464716628518001 -0.020436133937793657 0.00036279551681282492 0 0.00036279551681282492 -0.012033207586589826 0 0 0 -0.00811733538109587 -0.066858689381385353 0.0020828156956788323 0 0.0020828156956788323 -4.8449436896941256e-05 0 0 0 -0.01672678470457058 -0.097116085408272559 -0.006264504116462264 0 -0.006264504116462264 0.00085825391452030303 0 0 0 -0.024064457873438052 -0.025104177012982634 -0.013170832621698284 0 -0.013170832621698284 -0.0049672038652698314 0 0 0 -0.0075178452195631268 -0.026911653760255644 -0.016076601115906586 0 -0.016076601115906586 0.0043703099472965912 0 0 0 -0.0056353359532397562 0.0086523259062496194 0.013609059904136078 0 0.013609059904136078 0.097110977174894919 0 0 0 0.026440825770286142 -0.0049929951618580132 -0.0024614631961396016 0 -0.0024614631961396016 -0.0018785437204232314 0 0 0 -0.0017178847205703146 -0.026269667183796849 -0.01359541763587406 0 -0.01359541763587406 -0.0056387595069077867 0 0 0 -0.0079771066726761347 -0.021425343686535418 -0.0085639778067057026 0 -0.0085639778067057026 -0.0071990335344814527 0 0 0 -0.0071560943052542056 -0.045615514068426566 0.040807578043085463 0 0.040807578043085463 -0.00095963398464604666 0 0 0 -0.011643787013268181 -0.077120709738062565 9.192493912246659e-06 0 9.192493912246659e-06 -0.025721097830326185 0 0 0 -0.025710451892097187 -0.056591377789018342 -0.002736353763376758 0 -0.002736353763376758 -0.018873454731772855 0 0 0 -0.018866208130197799 -0.025524578480983069 -0.0035653970545832959 0 -0.0035653970545832959 -0.013472402381861218 0 0 0 -0.0097492452157110724 -0.011881163240881398 0.022427847891820507 0 0.022427847891820507 -0.0023649140289778714 0 0 0 -0.0035615193174648452 -0.0096795536307224261 -0.013620367415911994 0 -0.013620367415911994 -0.0028918806362394633 0 0 0 -0.003142858566740403 -0.024707398223899803 -0.02268082820467282 0 -0.02268082820467282 0.0047491059287854478 0 0 0 -0.004989573073778588 -0.017670938605088511 0.0027543876004225165 0 0.0027543876004225165 -0.0094326742610118478 0 0 0 -0.0067759032165250858 -0.048835970394831431 -0.010579347952839789 0 -0.010579347952839789 -0.0059825326183110296 0 0 0 -0.013704625753285602 -0.025236201687767135 -0.0087655005514701012 0 -0.0087655005514701012 -0.003818387388298039 0 0 0 -0.0072636472690162657 -0.015653077418424307 0.0040458255923378744 0 0.0040458255923378744 -0.0084312721225472918 0 0 0 -0.0060210873852428997 -0.018382850847411418 0.0039960797219196036 0 0.0039960797219196036 -0.007376724248183723 0 0 0 -0.0064398937738987857 -0.019696512708009095 0.0032479048971003756 0 0.0032479048971003756 -0.0084912731193568271 0 0 0 -0.0070469464568414814 -0.021147652194436123 -0.00042515847749620417 0 -0.00042515847749620417 0.0069017893911340056 0 0 0 -0.0035614657008255224 -0.024642163570876303 -0.021213933416966625 0 -0.021213933416966625 0.017540394777626145 0 0 0 -0.0017754421983125421 -0.018675175125799692 -0.0085621468581230653 0 -0.0085621468581230653 -0.0064498394427516814 0 0 0 -0.0062812536421378573 -0.03380136745912031 -0.013876372009105856 0 -0.013876372009105856 0.051793881378987106 0 0 0 0.0044981284799667093 0.00030299610910100583 0.014619602402876186 0 0.014619602402876186 0.11458513971840745 0 0 0 0.028722033956877002 -9.5297592173970713e-05 -0.00073696953303548074 0 -0.00073696953303548074 -0.00063379495577997602 0 0 0 -0.00018227313698837566 -0.0056006582578400632 -0.0041639359561299102 0 -0.0041639359561299102 -0.0024705969442830877 0 0 0 -0.0020178138005308988 -0.002082242164327841 0.0096788953939865863 0 0.0096788953939865863 0.11378763549950666 0 0 0 0.027926348333794815 -0.022635695037275125 0.014209973463794195 0 0.014209973463794195 0.06949987298448225 0 0 0 0.011716044486801774 -0.024868863735619383 0.0038340493617724522 0 0.0038340493617724522 -0.0055347675770977198 0 0 0 -0.0076009078281792722 -0.027689156428845244 0.0032660584256812746 0 0.0032660584256812746 -0.00653821969262635 0 0 0 -0.0085568440303679001 0.0013660089891015526 0.025698135212065765 0 0.025698135212065765 0.025637577866578276 0 0 0 0.0067508967139199294 -0.016459529553292107 0.02920556354127396 0 0.02920556354127396 0.019697875900408945 0 0 0 0.0008095865867793206 -0.030017530863460505 -0.021151648039467973 0 -0.021151648039467973 0.017409088508786155 0 0 0 -0.0031521105886685857 -0.0042174039585476664 -0.0058459053643350745 0 -0.0058459053643350745 -0.016944912507117271 0 0 0 -0.0052905791164162275 -0.0034667390276509891 0.0040755479566741866 0 0.0040755479566741866 -0.020746080744566964 0 0 0 -0.0060532049430545021 -0.033575881283361017 0.0071172399879112537 0 0.0071172399879112537 0.045210515891859995 0 0 0 0.002908658652124755 -0.0073822400795484633 0.0058875311421981661 0 0.0058875311421981661 -0.003678600822612843 0 0 0 -0.0027652102255399935 -0.01059811345743622 -0.011192965744219241 0 -0.011192965744219241 0.061836717070296476 0 0 0 0.012809650903215064 -0.073914537423482737 0.0020755505125687815 0 0.0020755505125687815 0.00051366537528553524 0 0 0 -0.018350218012049304 -0.12101061891999133 -0.005941091596939993 0 -0.005941091596939993 0.00082433281226759747 0 0 0 -0.030046571526930931 -0.015996784916779881 -0.020157607584267892 0 -0.020157607584267892 0.0057364281992415278 0 0 0 -0.0025650891793845762 0.065784336445958158 -0.037192377610601124 0 -0.037192377610601124 0.033185914367983571 0 0 0 0.024742562703485432 -0.021743519963505278 -0.013293861618249997 0 -0.013293861618249997 -0.0026733147419232273 0 0 0 -0.0061042086763571507 -0.022174238151397706 -0.016936316311783481 0 -0.016936316311783481 0.0004284793648029056 0 0 0 -0.0054364396966487191 -0.0032054061926922515 -0.0065885774484713 0 -0.0065885774484713 0.0017191170346724882 0 0 0 -0.00037157228950488526 -0.0029242299798966087 0.0064340956164392615 0 0.0064340956164392615 0.00079179465445733399 0 0 0 -0.00053310883135981868 -0.0049522361547547078 0.0083110807120589936 0 0.0083110807120589936 0.0085126253882856773 0 0 0 0.00089009730838252032 -0.0022743629637471006 -0.0049380756539617598 0 -0.0049380756539617598 -0.0012384633531590471 0 0 0 -0.00087820657922648142 -0.046800285780114276 0.021033240059907171 0 0.021033240059907171 0.055559357062036407 0 0 0 0.0021897678204805537 -0.028756357525684201 -0.011033192799272729 0 -0.011033192799272729 -0.00017021086311524991 0 0 0 -0.0072316420971998696 -0.024180683491500002 -0.011295222432019941 0 -0.011295222432019941 -0.0031538330063017733 0 0 0 -0.0068336291244504715 -0.023369109130889309 -0.010703495075014169 0 -0.010703495075014169 -0.0056608648411139058 0 0 0 -0.007257493493000821 -0.01218552763880526 -0.022732481569967933 0 -0.022732481569967933 0.010348465834956189 0 0 0 -0.00045926545096225402 -0.11392641617573027 0.014292792842933277 0 0.014292792842933277 0.0019255580323742638 0 0 0 -0.028000214535839008 -0.046098326901056336 -0.00015007513484751461 0 -0.00015007513484751461 0.013288658810384824 0 0 0 -0.0082024170226678711 -0.038604629319479083 -0.0052594707722502833 0 -0.0052594707722502833 0.012135623149290453 0 0 0 -0.0066172515425471368 -0.015830539612464264 0.0033896377545230005 0 0.0033896377545230005 -0.017991365306642082 0 0 0 -0.0084554762297765901 -0.085195514679539563 0.027150661085662553 0 0.027150661085662553 -0.00086603271092089429 0 0 0 -0.021515386847615003 -0.065545987501149899 0.0044209911900173898 0 0.0044209911900173898 0.003059006469817882 0 0 0 -0.015621745257832997 -0.066114823006483026 -0.0012889669848079877 0 -0.0012889669848079877 0.0035151631386374227 0 0 0 -0.015649914966961428 -0.10998246796706819 -0.00067989427475383113 0 -0.00067989427475383113 0.0079209072252584001 0 0 0 -0.025515390185452444 -0.1058920397455056 -0.014189514354843724 0 -0.014189514354843724 0.0083287465542994377 0 0 0 -0.024390823297801539 -0.02541774385985662 -0.0079234409202688372 0 -0.0079234409202688372 -0.004162481311389625 0 0 0 -0.0073950562928115325 -0.067096213456072723 -0.0061504542172504395 0 -0.0061504542172504395 0.0011743437730319939 0 0 0 -0.016480467420760203 0.0098045220585339932 0.048281193617292162 0 0.048281193617292162 0.018117632196526623 0 0 0 0.0069805385637651818 -0.037329364055562655 -0.0097743923018238019 0 -0.0097743923018238019 0.036217374614053395 0 0 0 -0.00027799736037731836 -0.015922553597970807 0.011359268965008187 0 0.011359268965008187 0.0132278387720315 0 0 0 -0.00067367870648482467 -0.026280162042795374 0.02302167958354584 0 0.02302167958354584 -0.0049425236397431238 0 0 0 -0.0078056714206348188 -0.021160806486194006 -0.023460273799947529 0 -0.023460273799947529 0.0097832501125197924 0 0 0 -0.0028443890934186089 -0.024030720227742202 -0.020385473223287577 0 -0.020385473223287577 0.019416221749682751 0 0 0 -0.0011536246195148567 -0.0073406843606342864 0.004189207709921261 0 0.004189207709921261 -0.015627169050103196 0 0 0 -0.0057419633526843983 -0.024129247843786839 -0.010885688635533491 0 -0.010885688635533491 -0.008566456194975508 0 0 0 -0.0081739260096905797 -0.032064805524117043 -0.0062966149674567005 0 -0.0062966149674567005 -0.014225548523316537 0 0 0 -0.011572588511858396 -0.03169010737182322 0.0048189508947872918 0 0.0048189508947872918 -0.0096476852650266252 0 0 0 -0.010334448159212462 -0.022451126089453141 -0.024262865233059094 0 -0.024262865233059094 0.012251609187962156 0 0 0 -0.0025498792253727393 -0.050280591723255767 -0.016292025634119245 0 -0.016292025634119245 -0.0039514291323077266 0 0 0 -0.013558005213890868 -0.06389157209476351 -0.005968202899340528 0 -0.005968202899340528 0.016649205108180465 0 0 0 -0.011810591746645782 -0.019909675321591977 -0.0009069191894385065 0 -0.0009069191894385065 -0.013176097297297363 0 0 0 -0.0082714431547223355 -0.018626615236115251 0.00074603003020610027 0 0.00074603003020610027 -0.010613638214793802 0 0 0 -0.0073100633627272643 -0.023953800328451531 0.0032312966675051027 0 0.0032312966675051027 -0.0079813089206542884 0 0 0 -0.0079837773122764539 -0.024119342218701063 0.0039113419756257855 0 0.0039113419756257855 -0.0082229499949852541 0 0 0 -0.0080855730534215783 -0.055403274687739673 -0.01287221017131869 0 -0.01287221017131869 0.016736146366954779 0 0 0 -0.0096667820801961957 -0.022200786775542158 0.0094796676664434323 0 0.0094796676664434323 0.0119415529753178 0 0 0 -0.0025648084500560879 -0.016820195875114817 -0.0013965630718282267 0 -0.0013965630718282267 -0.010382670357959967 0 0 0 -0.0068007165582687013 -0.034244775596948392 -0.014501518977775657 0 -0.014501518977775657 -0.0047644516560667871 0 0 0 -0.0097523068132537929 -0.024466989109947317 0.011335114067026239 0 0.011335114067026239 0.036793596248265704 0 0 0 0.0030816517845795952 -0.032945279604513544 0.00030114557456454964 0 0.00030114557456454964 0.00097232019228508243 0 0 0 -0.0079932398530571224 -0.03151476872048535 0.0011487928176972268 0 0.0011487928176972268 0.0042721679218665001 0 0 0 -0.0068106501996547143 -0.077109638811089995 -1.0080166274692323e-07 0 -1.0080166274692323e-07 -0.025685417536788893 0 0 0 -0.025698764086969722 -0.056584270791659626 -0.0027294838493513015 0 -0.0027294838493513015 -0.018850318454317415 0 0 0 -0.01885864731149426 0.059250868184822912 0.025236443084801163 0 0.025236443084801163 0.033197618544829277 0 0 0 0.023112121682413077 -0.025275696057806767 0.0029915843422032989 0 0.0029915843422032989 -0.00046894476343654207 0 0 0 -0.0064361602053108315 -0.042621204738135132 -0.0071767745943072878 0 -0.0071767745943072878 0.04166150053434009 0 0 0 -0.00023992605094874664 -0.013019544851477355 0.00076037843692200457 0 0.00076037843692200457 -0.02651719671990449 0 0 0 -0.0098841853928454959 -0.06999241802976966 0.0029687116101082545 0 0.0029687116101082545 0.0007981842984896223 0 0 0 -0.017298558432819997 -0.11195194676837411 -0.0069373487636600339 0 -0.0069373487636600339 0.0009732111149868411 0 0 0 -0.027744683913346814 -0.024563195159437855 -0.0088322804610040662 0 -0.0088322804610040662 -0.012258273555888682 0 0 0 -0.0092053671788316568 -0.063487528422861192 0.0056614934382598625 0 0.0056614934382598625 0.00029010835238179851 0 0 0 -0.015799355017619858 -0.081454757085383259 -0.019960201373360097 0 -0.019960201373360097 -0.00081712154968367756 0 0 0 -0.020567969658766797 -0.064848705909858889 0.0035042805256863749 0 0.0035042805256863749 -0.0001888844202663359 0 0 0 -0.016259397582531337 -0.041055364077914866 0.0027792358821730201 0 0.0027792358821730201 -0.0030269762773671507 0 0 0 -0.011020585088820515 -0.037989543044300009 -0.0081002486461749599 0 -0.0081002486461749599 -0.0080908522021315519 0 0 0 -0.01152009881160789 -0.059203951013467183 -0.015648741734128904 0 -0.015648741734128904 0.006461713294492244 0 0 0 -0.013185559429743719 -0.02865912745122827 -0.007781729296437806 0 -0.007781729296437806 -0.0018115919360307542 0 0 0 -0.0076176798468147594 -0.0177093500952199 0.028836461777861089 0 0.028836461777861089 0.019798607788273692 0 0 0 0.00052231442326333699 -0.020376760923321857 -0.015186551716785873 0 -0.015186551716785873 -0.0049874445717725813 0 0 0 -0.0063410513737737206 -0.021906167248949147 -0.00080306952675976353 0 -0.00080306952675976353 -0.010929747583082745 0 0 0 -0.0082089787080079739 -0.027197653281945781 0.002913305951853482 0 0.002913305951853482 -0.0087274613895651169 0 0 0 -0.0089812786678777241 -0.040301853942559127 -0.0079652280819394496 0 -0.0079652280819394496 -0.015379234382961611 0 0 0 -0.013920272081380185 -0.03659457624436166 0.0045476122157626069 0 0.0045476122157626069 -0.010501599356570891 0 0 0 -0.011774043900233136 -0.03955145172851024 -0.0077306573531786583 0 -0.0077306573531786583 0.0092568149272762579 0 0 0 -0.0075736592003085093 -0.039895505412807959 -0.013508335094407749 0 -0.013508335094407749 0.011381208577315255 0 0 0 -0.0071285742088731743 -0.04216524075056105 0.043967533366331926 0 0.043967533366331926 0.010048234307362458 0 0 0 -0.0080292516107997036 -0.010004884004597037 0.057663747105477128 0 0.057663747105477128 0.031350853679039448 0 0 0 0.0053364924186106721 0.025745186250717297 0.001092615991892365 0 0.001092615991892365 0.034938911384842786 0 0 0 0.015171024408890024 -0.044970176749596823 -0.0047307652935499184 0 -0.0047307652935499184 0.033400729787927116 0 0 0 -0.0028923617404174387 -0.017358204185310564 0.0029172871058290549 0 0.0029172871058290549 -0.0091525046667620506 0 0 0 -0.0066276772130181511 -0.028492495781395719 -0.011905119239767857 0 -0.011905119239767857 -0.0033616440948137649 0 0 0 -0.0079635349690523466 -0.041784357155762675 0.035001500566508303 0 0.035001500566508303 0.00012926473649943482 0 0 0 -0.010413773104815949 -0.014845053809306064 -0.0020827621793214207 0 -0.0020827621793214207 0.026983266433890263 0 0 0 0.0030345531561460359 -0.017512691162648961 -0.0071169026316288408 0 -0.0071169026316288408 -0.013913604414524217 0 0 0 -0.0078565738942933255 -0.030270739369510292 0.0027406638770968205 0 0.0027406638770968205 -0.0046044345377141884 0 0 0 -0.0087187934768061179 -0.061439791075878325 0.010909873385971464 0 0.010909873385971464 0.032129584075853757 0 0 0 -0.007327551750006156 -0.069817839982243321 0.00097832195762391212 0 0.00097832195762391212 -0.001288600212483032 0 0 0 -0.017776610048681592 -0.10662716457268606 -0.0028171370951875969 0 -0.0028171370951875969 -0.0026609246692410951 0 0 0 -0.027322022310481798 -0.023040503241566611 -0.012677468940850315 0 -0.012677468940850315 -0.00022901343430153931 0 0 0 -0.0058173791689670393 -0.043927972398199802 0.0018711243103198528 0 0.0018711243103198528 -0.0080982267069408392 0 0 0 -0.013006549776285162 -0.049267608856659616 -0.0053203278099658476 0 -0.0053203278099658476 -0.014016088754025432 0 0 0 -0.015820924402671258 -0.13192766539199363 0.002064368588917509 0 0.002064368588917509 0.0028124091993385614 0 0 0 -0.032278814048163712 -0.075058858696036054 -0.00085703166488904081 0 -0.00085703166488904081 0.00078410216543975397 0 0 0 -0.018568689132649072 -0.00077028235605570983 0.0180174376269647 0 0.0180174376269647 0.078524865961927204 0 0 0 0.019438645901467863 0.042204843577488264 0.0014969451697748049 0 0.0014969451697748049 0.19514098010480777 0 0 0 0.059336455920574009 -0.026020602726366235 -0.0252951552304016 0 -0.0252951552304016 0.014546959830813416 0 0 0 -0.0028684107238882012 -0.035152426454703956 -0.022120619568238964 0 -0.022120619568238964 0.010502626402465076 0 0 0 -0.006162450013059706 -0.023133748174931197 -0.024275765324182762 0 -0.024275765324182762 0.035953294204178365 0 0 0 0.0032048865073117886 -0.0045092713737765605 0.0012119802421042825 0 0.0012119802421042825 -0.024427256956765786 0 0 0 -0.0072341320826355554 -0.020218351266385517 0.00024020165005937026 0 0.00024020165005937026 -0.011542959085586743 0 0 0 -0.0079403275879930645 -0.050992636241017714 -0.0038185913465497434 0 -0.0038185913465497434 0.007923032496200022 0 0 0 -0.01076740093620443 -0.0041261933187426991 -0.0030866283045578799 0 -0.0030866283045578799 -0.020082123522950135 0 0 0 -0.0060520792104232224 -0.1141293244595563 0.014165067966342093 0 0.014165067966342093 -0.0001899390926604072 0 0 0 -0.028579815888054177 -0.023999812466649395 0.022939032184559061 0 0.022939032184559061 -0.0058126468682990762 0 0 0 -0.0074531148337373399 -0.018049121456769512 -0.022935866716252473 0 -0.022935866716252473 0.0069778995483731343 0 0 0 -0.0027678054770990945 -0.025397743578352661 0.0030008624702265122 0 0.0030008624702265122 0.0098136143791901637 0 0 0 -0.0038960322997906313 -0.045017253170638066 -0.0111239248588536 0 -0.0111239248588536 0.010930418872865888 0 0 0 -0.0085217085744430376 -0.016201629608204982 0.0068395634247744291 0 0.0068395634247744291 -0.0015875049005797878 0 0 0 -0.0044472836271961871 -0.013679713898646445 0.0096345731799426029 0 0.0096345731799426029 0.004076432856601607 0 0 0 -0.0024008202605112113 -0.061393688625999102 -0.014355765678057783 0 -0.014355765678057783 -0.0022809544669163268 0 0 0 -0.01591866077322884 -0.032353364183898281 -0.021986738932419037 0 -0.021986738932419037 0.0029629793655041592 0 0 0 -0.0073475962045985166 -0.089651130246539229 -0.011462211731757974 0 -0.011462211731757974 -0.0049992063667115179 0 0 0 -0.023662584153312679 -0.026619006284397173 0.037276720570601163 0 0.037276720570601163 0.001601868447679955 0 0 0 -0.0062542844591791935 -0.02881776267951508 0.037716261142781815 0 0.037716261142781815 0.0008036860578041205 0 0 0 -0.0070035191554279619 -0.029931894160921013 0.03876136598511204 0 0.03876136598511204 -0.00084800728666412084 0 0 0 -0.007694975361896228 -0.025973180662671458 -0.02315536736932744 0 -0.02315536736932744 0.0026981805341019793 0 0 0 -0.005818750032142328 -0.030635976998894487 -0.021877933926027049 0 -0.021877933926027049 0.001081213276798082 0 0 0 -0.0073886909305240882 0.02781958665864076 0.026128316447737554 0 0.026128316447737554 0.042448374999239175 0 0 0 0.017566990414469991 -0.020872375437853117 -0.0010594839974586428 0 -0.0010594839974586428 -0.0069620521605067969 0 0 0 -0.006958606899589978 -0.024740793514194278 0.0034092986966938136 0 0.0034092986966938136 -0.0082480042946030431 0 0 0 -0.0082471994521993303 -0.024175007640513869 0.0039602724629087685 0 0.0039602724629087685 0.0010581452723402423 0 0 0 -0.0057792155920434081 -0.0094584110221906242 -0.011607273683279032 0 -0.011607273683279032 0.055868627907219026 0 0 0 0.011602554221257083 -0.072505139540779251 -0.017884496893893265 0 -0.017884496893893265 -0.0025756799839639632 0 0 0 -0.018770204881185804 -0.019552446301273212 0.0021055829396777509 0 0.0021055829396777509 -0.0090214281114822867 0 0 0 -0.0071434686031888748 -0.10706309975655245 -0.0043843436174482928 0 -0.0043843436174482928 -0.0027338475012647565 0 0 0 -0.027449236814454301 -0.069189503134165622 0.0015864867731886639 0 0.0015864867731886639 -0.00089904374773244755 0 0 0 -0.017522136720474531 -0.067334609520882271 -0.006246126671024449 0 -0.006246126671024449 0.00036986810956718408 0 0 0 -0.016741185352828813 -0.021535365750701314 0.003715560136043457 0 0.003715560136043457 -0.0071453784847876674 0 0 0 -0.0071701860588722442 -0.021301967787581734 -0.0028763907964830804 0 -0.0028763907964830804 0.011851975755836353 0 0 0 -0.0023624980079362742 -0.029844049063550999 0.0079570611311234642 0 0.0079570611311234642 0.025017930757261234 0 0 0 -0.0012065295765724404 -0.009405375486499945 0.039552999182751014 0 0.039552999182751014 0.0072553241230616933 0 0 0 -0.00053751284085962192 -0.016471531814906071 0.0028904227003577723 0 0.0028904227003577723 -0.010155003804338199 0 0 0 -0.0066566339048110702 -0.018999399433668129 0.021891650988990374 0 0.021891650988990374 -0.0098341088353732786 0 0 0 -0.0072083770672606295 -0.016102678627932465 -0.021652958029437841 0 -0.021652958029437841 -0.0010511685691456663 0 0 0 -0.0042884617992696716 -0.021553503233432209 0.0037780690876054917 0 0.0037780690876054917 -0.0072811596823531884 0 0 0 -0.0072086657289463498 -0.038348280989785377 0.0024759051539260781 0 0.0024759051539260781 0.032897370337779258 0 0 0 -0.0013627276630015334 -0.01206500942469324 0.018976561924579138 0 0.018976561924579138 0.0042085905937225832 0 0 0 -0.0019641047077425533 -0.0064625924733523465 0.014129240070921423 0 0.014129240070921423 -0.0099048356132240833 0 0 0 -0.004091857021644385 -0.0051254289326022606 -0.010769688987325637 0 -0.010769688987325637 -0.0085875478827719398 0 0 0 -0.0034282442038435779 -0.0090645582319731632 -0.015453797916075263 0 -0.015453797916075263 -0.00019990395762659041 0 0 0 -0.0023161155473999662 -0.081656325448618394 -0.00077679563203113255 0 -0.00077679563203113255 0.017677206802947765 0 0 0 -0.015994779661417713 -0.0520787661511962 -0.012789893538718899 0 -0.012789893538718899 0.005578324379575117 0 0 0 -0.011625110442905297 -0.059258758733807301 -0.013087164580775856 0 -0.013087164580775856 0.0058868090332022671 0 0 0 -0.01334298742515129 -0.095519677358759103 0.030353221350809839 0 0.030353221350809839 0.013664471981431392 0 0 0 -0.0204638013443319 -0.079178402889182375 0.029760764078704302 0 0.029760764078704302 0.013166587993462042 0 0 0 -0.016502953723930125 -0.028670535932164808 0.0025603878534745704 0 0.0025603878534745704 -0.0080771964278839575 0 0 0 -0.00918693309001219 0.058076557772998527 0.024435982209971101 0 0.024435982209971101 0.031052517258171264 0 0 0 0.022282268757792489 -0.063990517360706614 -0.0056358123028095661 0 -0.0056358123028095661 -0.014958278944042842 0 0 0 -0.019737199076187359 -0.050687162870302643 0.0010548302395980819 0 0.0010548302395980819 -0.0095371636270617163 0 0 0 -0.015056081624341097 -0.041151448445068864 -0.0086110252452631687 0 -0.0086110252452631687 0.023054943957295806 0 0 0 -0.0045241261219432618 -0.038965653895924324 0.0035909854236603296 0 0.0035909854236603296 -0.0061298383010276207 0 0 0 -0.011273873049237991 -0.039937195492956726 -0.0083943318268157128 0 -0.0083943318268157128 -0.01443831243357137 0 0 0 -0.013593876981632023 -0.090945320971904872 -0.014768436683521447 0 -0.014768436683521447 0.0011790682246327622 0 0 0 -0.02244156318681801 -0.091698641085506197 -0.015129768649239594 0 -0.015129768649239594 -0.00079874931871846966 0 0 0 -0.02312434760105617 -0.014057231915630242 0.026861959170627669 0 0.026861959170627669 0.020080084261789644 0 0 0 0.0015057130865396839 -0.010124763768662448 -0.011806742995776581 0 -0.011806742995776581 -0.00034864422577296494 0 0 0 -0.0026183519986089365 -0.0036946968942665605 -0.0023715780405311193 0 -0.0023715780405311193 -0.0072993784048808038 0 0 0 -0.002748518824786841 -0.0019267209260986906 0.0022927877793924578 0 0.0022927877793924578 -0.016354645839847581 0 0 0 -0.004570341691486568 -0.038982539668892993 0.0017942465525157721 0 0.0017942465525157721 0.00082805621501274781 0 0 0 -0.0095386208634700535 -0.00074265729100181366 -0.0018214678489661407 0 -0.0018214678489661407 0.05297006315038616 0 0 0 0.013056851464846086 0.0041993151059547124 -0.0025507699018992025 0 -0.0025507699018992025 0.096264600361861352 0 0 0 0.025115978866954006 -0.019483164343373501 -0.0098306861160241121 0 -0.0098306861160241121 -0.0013333313481323182 0 0 0 -0.0052041239228764555 -0.060500245514906015 -0.0053930338351415932 0 -0.0053930338351415932 0.0067906941564759848 0 0 0 -0.013427387839607452 -0.0038299389224826508 0.0010490544835194959 0 0.0010490544835194959 -0.024164768708323625 0 0 0 -0.0069986769077015898 -0.090514078463188971 -0.020658562738223765 0 -0.020658562738223765 0.0050739206653915292 0 0 0 -0.021360039449449364 -0.026382291822381367 0.0034026830588546669 0 0.0034026830588546669 0.0068693907828884081 0 0 0 -0.0048782252598732426 -0.039627364452030189 -0.01860120531549328 0 -0.01860120531549328 0.016452202126970406 0 0 0 -0.0057937905812649182 -0.037602579234227412 -0.01656846272220544 0 -0.01656846272220544 0.015100581592806583 0 0 0 -0.005625499410355228 -0.040446981769641129 0.0043110529860466325 0 0.0043110529860466325 -0.0005625027395383432 0 0 0 -0.010252371127294869 -0.051123850271971555 -0.010033356832518631 0 -0.010033356832518631 0.0098891014097862162 0 0 0 -0.010308687215546369 -0.044532626115762822 0.0025276845650479404 0 0.0025276845650479404 -0.00087824394099928621 0 0 0 -0.011352717514190522 -0.036698579177623453 -0.0094679440926560034 0 -0.0094679440926560034 -0.011472094138136518 0 0 0 -0.012042668328939988 -0.063070269248156757 -0.0053853095256088113 0 -0.0053853095256088113 0.0066371398201067189 0 0 0 -0.014108282357012475 -0.10639616072666382 0.010182555161806439 0 0.010182555161806439 0.023197423639540138 0 0 0 -0.02079968427178093 -0.064193739118301688 -0.0064907769047953812 0 -0.0064907769047953812 -0.014651388330758082 0 0 0 -0.019711281862264948 -0.049703915597928916 0.0016467605791686383 0 0.0016467605791686383 -0.01103357815116803 0 0 0 -0.015184373437274235 -0.046412124599825293 0.0047134056998115112 0 0.0047134056998115112 -0.0023258316921030281 0 0 0 -0.012184489072982078 -0.054061033104436863 -0.01378637181130234 0 -0.01378637181130234 -0.0090444485658474003 0 0 0 -0.015776370417571066 -0.026532818655960775 -0.0026702163071614712 0 -0.0026702163071614712 -0.013984649062207463 0 0 0 -0.01012936692954206 -0.0093701578540298786 -0.025807771216429382 0 -0.025807771216429382 0.03184614195024435 0 0 0 0.0056189960240535936 -0.014346768276064494 0.0045190809822340441 0 0.0045190809822340441 -0.0088016964325324087 0 0 0 -0.0057871161771492199 -0.012065194721875283 0.016813959216188779 0 0.016813959216188779 -0.0032941614882160408 0 0 0 -0.00383983905252272 -0.014043544954450815 -0.021934707739555914 0 -0.021934707739555914 0.0085137769282794817 0 0 0 -0.0013824420065429166 -0.045153417485302876 0.0039595386031143435 0 0.0039595386031143435 -0.004259621942498043 0 0 0 -0.012353259856950224 -0.049443081764822663 -0.010961871296155121 0 -0.010961871296155121 -0.01247337506109545 0 0 0 -0.015479114206479532 -0.017225578943079901 0.0051481858033873874 0 0.0051481858033873874 -0.0047995633620216659 0 0 0 -0.0055062855762753925 -0.023818425354199785 -0.020613992629413866 0 -0.020613992629413866 0.02325246781531165 0 0 0 -0.00014148938472208217 -0.061139143892501968 0.011134071909935818 0 0.011134071909935818 -0.0010757090174400297 0 0 0 -0.015553713227485666 -0.0079112998209613927 -0.011317094975804909 0 -0.011317094975804909 0.032049244090052942 0 0 0 0.006034486067272804 -0.033641873571523484 -0.022132713225670508 0 -0.022132713225670508 0.0031046935965448608 0 0 0 -0.0076342949937446836 -0.04156299921063162 -0.0064941091580661969 0 -0.0064941091580661969 0.036301641038009168 0 0 0 -0.0013153395431556095 -0.092462231100228956 -0.008941161080769781 0 -0.008941161080769781 -0.002574774392682562 0 0 0 -0.023759251373227881 -0.062967260908746395 0.0023602968281304353 0 0.0023602968281304353 -0.0013818556110694741 0 0 0 -0.016087279129953967 -0.0072988622996656601 0.0059909849909094877 0 0.0059909849909094877 0.00036365018187568821 0 0 0 -0.0017338030294474956 -0.019944312306158549 0.0036820415718372195 0 0.0036820415718372195 -0.0076963242987437581 0 0 0 -0.0069101591512255754 -0.037531338303482112 -0.013688959508596221 0 -0.013688959508596221 0.007463324967973195 0 0 0 -0.0075170033338772119 -0.094421973401621034 -0.010994342954702647 0 -0.010994342954702647 -0.0011192703058927091 0 0 0 -0.023885310926878421 -0.064859097281350364 0.0039319601787723528 0 0.0039319601787723528 -0.00046675744722610157 0 0 0 -0.016331463682144103 -0.029457686954169674 0.0052769408059518894 0 0.0052769408059518894 0.036968445491623619 0 0 0 0.001877689634363485 -0.022426346994337321 -0.021232179079147429 0 -0.021232179079147429 0.00017336601995765477 0 0 0 -0.005563245243594972 -0.025054283049712023 0.033444766937630238 0 0.033444766937630238 -0.0002736328674597388 0 0 0 -0.0063319789792930514 -0.058319232853388608 0.0018612242925318129 0 0.0018612242925318129 0.0056147661573206185 0 0 0 -0.013176116674016969 -0.049858956177855622 -0.0023212332336073338 0 -0.0023212332336073338 0.006962085104906794 0 0 0 -0.010724217768237196 -0.023998196692122338 -0.0071816838640090946 0 -0.0071816838640090946 0.013452209700277058 0 0 0 -0.0026364967479613113 -0.02648659153465743 -0.0074592307050152379 0 -0.0074592307050152379 0.018878796358316512 0 0 0 -0.0019019487940852382 -0.033953852859409939 -0.0059015620238544002 0 -0.0059015620238544002 -0.015189464849979559 0 0 0 -0.012285829427347371 -0.032587340563044791 -0.0031536185757681289 0 -0.0031536185757681289 -0.013465403075161721 0 0 0 -0.011513185909551625 -0.035451282305316245 0.0022830094025625782 0 0.0022830094025625782 -0.0085558702332502803 0 0 0 -0.01100178813464163 -0.034685202161060281 0.0039233468142270212 0 0.0039233468142270212 -0.0081939221670678276 0 0 0 -0.010719781082032028 -0.022531035121159032 -0.0040477689767355607 0 -0.0040477689767355607 -0.0044835349376820544 0 0 0 -0.0067536425147103063 -0.035270232193577035 0.00065802219734712765 0 0.00065802219734712765 0.039714490874907277 0 0 0 0.0011110646703325522 -0.012071574584237349 0.0066740488472519181 0 0.0066740488472519181 -0.0012523901345941821 0 0 0 -0.0033309911797078737 -0.02069343055706474 0.035179617589798345 0 0.035179617589798345 0.0045173687545250196 0 0 0 -0.0040440154506349302 -0.030321230633533425 -0.021107268423785394 0 -0.021107268423785394 -0.00081842186515324045 0 0 0 -0.0077849131246716663 -0.016204773686998797 0.040515731243802922 0 0.040515731243802922 0.0038589464683753683 0 0 0 -0.0030864568046558016 -0.0096824442549730879 -0.0045612664986506915 0 -0.0045612664986506915 -0.0012690535773942115 0 0 0 -0.0027378744580918279 -0.0057348106760210585 0.0017290667552994493 0 0.0017290667552994493 0.0060595122641021598 0 0 0 8.117539702026666e-05 -0.043928970881451757 0.041045465626607769 0 0.041045465626607769 0.00076697344237208753 0 0 0 -0.010790499359769945 -0.02956751465213836 0.043489229717114442 0 0.043489229717114442 0.0029096076841379492 0 0 0 -0.0066644767420001583 -0.070800468005603856 -0.0051036993246061681 0 -0.0051036993246061681 -0.0090541393765207149 0 0 0 -0.019963651845531141 -0.05416759640647844 0.00052776210364555978 0 0.00052776210364555978 -0.0065623964118566519 0 0 0 -0.015182498204583771 -0.021930510206875975 -0.021496663581807463 0 -0.021496663581807463 0.011868243242607046 0 0 0 -0.00251556674106726 0.0045687210436929637 -0.0023596856461471018 0 -0.0023596856461471018 0.053792323425538302 0 0 0 0.014590261117307796 0.0076851306743942333 2.8382601282739284e-05 0 2.8382601282739284e-05 0.10101350383655949 0 0 0 0.027174658627738449 -0.035232102763825199 0.0022446675822790623 0 0.0022446675822790623 0.024070521725352005 0 0 0 -0.0027903952596182967 -0.00913349666811962 0.0097997139604743509 0 0.0097997139604743509 0.0024386295444145251 0 0 0 -0.0016737167809262737 -0.010391139480509098 -0.0019507445016379438 0 -0.0019507445016379438 -0.019688092730635987 0 0 0 -0.0075198080527862643 -0.017880458381050623 -0.0027188520782266967 0 -0.0027188520782266967 -0.022221803024093267 0 0 0 -0.010025565351285987 -0.025189082129859625 -0.0094102065101902901 0 -0.0094102065101902901 -0.0064321164911904094 0 0 0 -0.0079052996552625293 -0.018367479875730341 0.013308064207516956 0 0.013308064207516956 -0.0060124147433894826 0 0 0 -0.0060949736547802336 -0.013466706314557861 -0.021489078042134735 0 -0.021489078042134735 0.015920580787263966 0 0 0 0.00061346861817652976 -0.002190121595095712 0.0052865723664402703 0 0.0052865723664402703 0.0061006422197482646 0 0 0 0.00097763015616311733 -0.0022462917968453233 -0.007606854233660143 0 -0.007606854233660143 0.0271318632647366 0 0 0 0.0062213928669728469 -0.018517490384847179 0.027676806666436571 0 0.027676806666436571 0.0030584115932370537 0 0 0 -0.0038647696979026147 -0.014932498225786017 -0.016529750566678603 0 -0.016529750566678603 -0.0072904599098330136 0 0 0 -0.0055557395339048132 -0.018184761794578824 0.0037713306834862917 0 0.0037713306834862917 -0.0077162596868712401 0 0 0 -0.0064752553703625168 -0.015722460998505668 0.0056288922724052354 0 0.0056288922724052354 -0.0052363010098148838 0 0 0 -0.0052396905020801413 -0.019924808674304018 0.030728254279522638 0 0.030728254279522638 0.010587609107448159 0 0 0 -0.0023342998917141866 -0.018023892689042476 -0.016709693764122791 0 -0.016709693764122791 0.0001391470538039119 0 0 0 -0.0044711864088096132 -0.055093725168615958 -0.0072954573079270831 0 -0.0072954573079270831 -0.014310687862261317 0 0 0 -0.017351103257719321 -0.045630346078535403 0.0025694850178138435 0 0.0025694850178138435 -0.0096760226750410364 0 0 0 -0.013826592188394108 -0.00242581935664965 0.043289130991817304 0 0.043289130991817304 0.016027520863242994 0 0 0 0.0034004253766484194 -0.082565447505974152 -0.0025333719775865941 0 -0.0025333719775865941 -0.014140341436607468 0 0 0 -0.024176447235645403 -0.060260711425322022 -0.0014531168680245125 0 -0.0014531168680245125 -0.0097836523314063003 0 0 0 -0.017511090939182086 -0.026163994978319227 0.010911889004928232 0 0.010911889004928232 -0.0048276605928769811 0 0 0 -0.0077479138927991631 -0.0099757089069925642 -0.014437266460446241 0 -0.014437266460446241 0.040554990382878131 0 0 0 0.0076448203689714056 -0.034537765684368726 -0.0067977925925575833 0 -0.0067977925925575833 0.047809274891388531 0 0 0 0.0033178773017549235 -0.054462475759005952 -0.0032545780112463174 0 -0.0032545780112463174 0.045657650248699555 0 0 0 -0.0022012063775765922 -0.036410153425926184 -0.020630146246592033 0 -0.020630146246592033 0.0063522885899545134 0 0 0 -0.0075144662089928205 -0.019611563168647574 -0.015590467791460368 0 -0.015590467791460368 0.003712463951493078 0 0 0 -0.0039747748042886361 -0.042194256493598814 0.045443463532464812 0 0.045443463532464812 0.011512322631283656 0 0 0 -0.0076704834655788035 -0.076659810432574416 0.027383139779625698 0 0.027383139779625698 0.015286395011973708 0 0 0 -0.015343353855150177 -0.051125638129038892 -0.012049632086224255 0 -0.012049632086224255 0.0065326953304462032 0 0 0 -0.011148235699648151 -0.0042540832439392218 -0.030308793411084056 0 -0.030308793411084056 0.023443231992510971 0 0 0 0.0047972871871429512 -0.011672149147169936 0.0024609462780356972 0 0.0024609462780356972 0.024034654252048676 0 0 0 0.0030906262762196712 -0.012974629278022676 -0.0066014605672372328 0 -0.0066014605672372328 0.045497316937960997 0 0 0 0.0081306719149845108 -0.038213358071796211 -0.010973515189794824 0 -0.010973515189794824 0.025845675521018754 0 0 0 -0.0030919206376943745 -0.036092112699089567 -0.0083970257014517428 0 -0.0083970257014517428 0.024353910242560964 0 0 0 -0.0029345506141321628 -0.022341424440367796 0.014200674967469743 0 0.014200674967469743 0.055573148000721384 0 0 0 0.0083079308900883934 -0.011985363345727321 -0.015857403338727233 0 -0.015857403338727233 0.030692991680684123 0 0 0 0.0046769070837392041 -0.012078383797751613 0.024426277814816766 0 0.024426277814816766 0.034959593194658467 0 0 0 0.0057203023492269356 -0.013475237269426454 -0.0099240309923032122 0 -0.0099240309923032122 -0.0049051864571709736 0 0 0 -0.004595105931649357 -0.032404496134445959 0.0088410809696934725 0 0.0088410809696934725 0.033030522742297078 0 0 0 0.00015650665196277613 -0.027589569359143536 -0.0063498129649458557 0 -0.0063498129649458557 0.0075081375593858204 0 0 0 -0.0050203579499394566 -0.019674605964563205 -0.0048317654725028858 0 -0.0048317654725028858 -0.017796212795954613 0 0 0 -0.0093677046901294164 -0.021375538799506984 0.012967146595793413 0 0.012967146595793413 0.021369383594040871 0 0 0 -1.5388013665328494e-06 -0.021473825555292644 -0.0012619098170047005 0 -0.0012619098170047005 -0.014246691615176846 0 0 0 -0.0089301292926173732 -0.067747949520663403 -0.0059182698578005028 0 -0.0059182698578005028 0.00098896529882352979 0 0 0 -0.016689746055459864 -0.036098117917640372 -0.0055179345037343636 0 -0.0055179345037343636 -0.01336266808443828 0 0 0 -0.012365196500519662 -0.01322974079497944 0.0073258571553955799 0 0.0073258571553955799 -0.0022283115285157279 0 0 0 -0.0038645130808737937 -0.03059156493925224 0.007023721106425046 0 0.007023721106425046 0.047721196627296979 0 0 0 0.0042824079220111881 -0.11478763990235663 0.012695795597740089 0 0.012695795597740089 0.0013776292305196502 0 0 0 -0.028352502667959412 -0.020323650785295605 0.0033231136951148302 0 0.0033231136951148302 -0.0086475346039213748 0 0 0 -0.0072427963473042454 -0.014366447791140147 0.00089723887467724542 0 0.00089723887467724542 -0.005380061517618967 0 0 0 -0.0049366273271897847 -0.031328033545704445 -0.011809180638100297 0 -0.011809180638100297 0.0030461450765679465 0 0 0 -0.007070472117284135 -0.036408520588798704 -0.016658585850604701 0 -0.016658585850604701 0.00018616558041506526 0 0 0 -0.0090555887520959166 -0.02631182495267588 -0.0063499642071275647 0 -0.0063499642071275647 -0.012403250750437236 0 0 0 -0.0096787689257782847 -0.017674872641745682 0.0027667786439510974 0 0.0027667786439510974 -0.0093100489517341459 0 0 0 -0.0067462303983699557 -0.017262475350146328 -0.0022046680010665634 0 -0.0022046680010665634 -0.0036504437429542534 0 0 0 -0.0052282297732751375 -0.032433581787530349 -0.013201752118441032 0 -0.013201752118441032 0.0091582106227399984 0 0 0 -0.0058188427911975843 -0.014880253757642709 0.0015943287356371405 0 0.0015943287356371405 0.010197045864924204 0 0 0 -0.0011708019731796193 -0.064905131761343354 -0.020707428070376947 0 -0.020707428070376947 -0.0037210240645483561 0 0 0 -0.017156538956472935 -0.0013715027016734105 0.013422569942025619 0 0.013422569942025619 0.07921597509315853 0 0 0 0.019461118097870989 -0.018301237431025866 -0.007033627678163179 0 -0.007033627678163179 -0.0028688054509977412 0 0 0 -0.0052925107205058636 -0.016452643951801252 0.0046184666833561866 0 0.0046184666833561866 -0.006953344843506311 0 0 0 -0.0058514971988268957 -0.014361694018177693 0.0050841552652343379 0 0.0050841552652343379 -0.0069178157574494963 0 0 0 -0.0053198774439067982 -0.020248247874712799 0.014054597814547487 0 0.014054597814547487 0.001601712772142605 0 0 0 -0.0046616337756422155 -0.018773125334295537 -0.020075531182151607 0 -0.020075531182151607 0.022431456530187965 0 0 0 0.0009145827989730515 -0.015970351508857485 0.0086051020259096476 0 0.0086051020259096476 0.0048048621252572074 0 0 0 -0.0027913723459000658 -0.020764462963489522 0.0073585234413859561 0 0.0073585234413859561 0.0041458735309805282 0 0 0 -0.0041546473581272458 -0.016542911546413665 0.0049356698554811652 0 0.0049356698554811652 -0.0058940153649403582 0 0 0 -0.0056092317278385075 -0.055345509063493725 0.0038907915166520798 0 0.0038907915166520798 -0.001093727127461995 0 0 0 -0.014109809047738927 -0.033719401418371375 -0.0016803417660436679 0 -0.0016803417660436679 0.010116627237662545 0 0 0 -0.0059006935451772005 -0.023437930433405127 -0.0041927321617239825 0 -0.0041927321617239825 0.011953512720722009 0 0 0 -0.002871104428170769 -0.060649366366676595 0.004123158008313331 0 0.004123158008313331 -0.0024684394563581954 0 0 0 -0.015779451455758695 0.026571352193615894 0.058782117535170819 0 0.058782117535170819 0.043849151268609304 0 0 0 0.017605125865556237 -0.019065777768493941 0.025866060304094898 0 0.025866060304094898 -0.0017561076355496752 0 0 0 -0.0052054713510112371 -0.016420106133724022 -0.021906647388806398 0 -0.021906647388806398 -0.0015317907493472838 0 0 0 -0.0044879742207678541 -0.027274124889418203 0.0019631136035085095 0 0.0019631136035085095 0.0050342297910784956 0 0 0 -0.0055599737745849242 -0.019011622333340878 0.0027286172310269862 0 0.0027286172310269862 -0.0081742796279099146 0 0 0 -0.006796475490312699 0.00044674700061535233 -0.0014051020301433861 0 -0.0014051020301433861 0.012347711486905028 0 0 0 0.0031986146218800776 -0.024783977428902759 -0.0089929010249230959 0 -0.0089929010249230959 -0.0036507205111955265 0 0 0 -0.0071086744850245853 -0.02670022723336607 -0.011065565134603772 0 -0.011065565134603772 -0.0083685039146175755 0 0 0 -0.0087671827869958974 -0.020393855004791409 0.0049473303816624306 0 0.0049473303816624306 -0.0014416694221058429 0 0 0 -0.0054588811067243182 -0.055306086388056397 -0.012339294305881959 0 -0.012339294305881959 0.00056148204773964761 0 0 0 -0.013686151085079146 -0.045867413299788828 -0.016212339076034726 0 -0.016212339076034726 0.003736196542384107 0 0 0 -0.010532804189351153 -0.018576274427809767 0.0013510959049602552 0 0.0013510959049602552 -0.0061952362607718397 0 0 0 -0.0061928776721454004 -0.066613917294376601 0.034336699792636205 0 0.034336699792636205 0.0057084678531695854 0 0 0 -0.015226362360301615 -0.086809589346296567 0.026543632825492491 0 0.026543632825492491 -0.00024292075650200751 0 0 0 -0.021763127525699755 -0.0075782197554444264 0.0062093832639096846 0 0.0062093832639096846 0.016315317971306253 0 0 0 0.0021842745539654429 -0.0078842184981818553 -0.01049470791401938 0 -0.01049470791401938 0.032971334210928016 0 0 0 0.0062717789281865333 -0.0088763422644962606 -0.011838499101737031 0 -0.011838499101737031 0.0045512551476562524 0 0 0 -0.0010812717792099899 -0.020954149096967148 -0.00017255790099193757 0 -0.00017255790099193757 -0.014520336616124452 0 0 0 -0.0088686214282728965 0.0089420148719190629 0.028166562266517238 0 0.028166562266517238 0.067903004333179251 0 0 0 0.019211254801274572 -0.022652681127129187 -0.0039867022179406915 0 -0.0039867022179406915 -0.010229658819910734 0 0 0 -0.0082205849867599719 -0.031838112911448536 -0.0082936091257462818 0 -0.0082936091257462818 0.020839473348681664 0 0 0 -0.0027496598906917372 0.023784017051994955 0.023014026553980049 0 0.023014026553980049 0.021130479304813932 0 0 0 0.011228624089202222 -0.027307210282286203 0.0015534335416379017 0 0.0015534335416379017 0.0039120473514142398 0 0 0 -0.00584879073271799 -0.018289148675578182 0.028820949311001876 0 0.028820949311001876 -0.00057327384563987671 0 0 0 -0.0047156056303044869 -0.015716015625299173 -0.018528735075854064 0 -0.018528735075854064 -0.0007343111962856419 0 0 0 -0.0041125817053961899 -0.026496488604299043 0.0023689088002003551 0 0.0023689088002003551 -0.0032692473916207461 0 0 0 -0.0074414339989799455 -0.04470240065323261 -0.0099843362615405495 0 -0.0099843362615405495 0.037025812273062314 0 0 0 -0.001919147095042581 -0.016637195188495268 0.023204210460311403 0 0.023204210460311403 0.039663092482603579 0 0 0 0.0057564743235268834 -0.014298953066598119 -0.009198795068483645 0 -0.009198795068483645 0.0010800535887321994 0 0 0 -0.0033047248694665354 -0.08707464325220704 0.0016253542322137405 0 0.0016253542322137405 0.00079522881850993543 0 0 0 -0.021569853608424297 -0.15510845366172338 -0.0053557252536768031 0 -0.0053557252536768031 0.0012139799306458698 0 0 0 -0.038473618432769328 -0.021861414802788415 0.012809383686871276 0 0.012809383686871276 0.064204171498410512 0 0 0 0.01058568917390551 -0.046797815330459451 0.0055375175797692175 0 0.0055375175797692175 -0.00036249686106495926 0 0 0 -0.011790078047881104 0.018814927756010135 -0.0049376720416328401 0 -0.0049376720416328401 0.048857514078800734 0 0 0 0.016918110458702739 0.025363345005070925 0.0014101637108578091 0 0.0014101637108578091 0.067720444744907127 0 0 0 0.023270947437494555 0.035028099942639057 -0.0029696362050843084 0 -0.0029696362050843084 0.1215874831266357 0 0 0 0.039153895767318703 0.027224146355331075 0.0053760359994511342 0 0.0053760359994511342 0.095948986550841275 0 0 0 0.030793283226543094 -0.012833165670958109 0.0060570982539037976 0 0.0060570982539037976 -0.0048750643686696904 0 0 0 -0.0044270575099069967 -0.013115316093750662 -0.010708307269270897 0 -0.010708307269270897 0.0057542376433125098 0 0 0 -0.0018402696126095797 -0.0090845128938543129 0.001681772532326542 0 0.001681772532326542 0.078827120892826674 0 0 0 0.01743565199974309 -0.011482669470127577 -0.006271417123697387 0 -0.006271417123697387 0.038120062872116889 0 0 0 0.0066593483504973627 -0.042234970534586802 0.0024870572200547565 0 0.0024870572200547565 0.040617409362537688 0 0 0 -0.00040439029301227863 -0.00601533649024244 0.019436260284465101 0 0.019436260284465101 0.024510004932972507 0 0 0 0.0046236671106825167 -0.007716912872831605 0.0075260770694909884 0 0.0075260770694909884 -0.0043254410124449194 0 0 0 -0.0030105884713189646 -0.0057527490915555424 -0.0059490906318687697 0 -0.0059490906318687697 -0.0035756554344548164 0 0 0 -0.0023321011315026174 -0.006683020797958128 -0.016592162696369844 0 -0.016592162696369844 0.0091904535779545604 0 0 0 0.00062685819499908035 -0.022236854502635701 0.0044066688479965036 0 0.0044066688479965036 -0.0019331518363542109 0 0 0 -0.0060425015847474809 -0.01292387483818809 0.02012258063486061 0 0.02012258063486061 0.035366692720362081 0 0 0 0.0056107044705436121 -0.0034183849347271186 -0.0050428392367856123 0 -0.0050428392367856123 -0.0023631576670742616 0 0 0 -0.0014453856504502635 -0.036272112940872771 -0.0029049460737651158 0 -0.0029049460737651158 0.047663646379530827 0 0 0 0.0028478833596645159 -0.0044332227846153316 0.0064755609984474827 0 0.0064755609984474827 -0.0034070668164902784 0 0 0 -0.0019600724002764025 -0.011807187847676204 -0.017412048212614217 0 -0.017412048212614217 0.017594162692632809 0 0 0 0.0014467437112390957 -0.0089396250511861453 -0.01771193428352863 0 -0.01771193428352863 0.015004383801237475 0 0 0 0.0015161896875128533 -0.033764432338842271 -0.014185479319187268 0 -0.014185479319187268 0.0057065880965659621 0 0 0 -0.007014461060569091 -0.033332580821144583 -0.01353871201108639 0 -0.01353871201108639 0.0066198841800109709 0 0 0 -0.0066781741602834205 -0.02296746694938253 -0.0063776331293524087 0 -0.0063776331293524087 -0.0070006582894798185 0 0 0 -0.0074920313097156053 -0.020625166433545367 0.050985009563235262 0 0.050985009563235262 0.012183000896788032 0 0 0 -0.0021105413841892851 -0.053586676763985208 -0.00582447566758032 0 -0.00582447566758032 -0.00023821080994407273 0 0 0 -0.01345622189348239 0.0053933820255185234 -0.012107964559149052 0 -0.012107964559149052 0.023366096850023388 0 0 0 0.0071898697188854978 -0.018092235444379233 -0.0061969758891555482 0 -0.0061969758891555482 0.014677366432564842 0 0 0 -0.00085371725295361328 -0.010385661993726366 0.013921662340890501 0 0.013921662340890501 0.011597991513407437 0 0 0 0.00030308237992026851 -0.022303410945678642 -0.0075684384912111102 0 -0.0075684384912111102 -0.011036434799476857 0 0 0 -0.0083349614362888957 -0.02361155945030366 -0.0084297468176578842 0 -0.0084297468176578842 -0.013840774824992241 0 0 0 -0.0093630835688239544 -0.17474060682744061 0.0031866755995824479 0 0.0031866755995824479 0.0046686108252151914 0 0 0 -0.042517999000556361 -0.092967757246112365 -0.0014314014561197395 0 -0.0014314014561197395 0.0020255118707283581 0 0 0 -0.02273556134384605 -0.025946534955353897 -0.0028775341794245223 0 -0.0028775341794245223 -0.0086501290612122049 0 0 0 -0.0086491660041415255 -0.029253969003827013 0.0034060332658539597 0 0.0034060332658539597 -0.0097510867639848207 0 0 0 -0.0097512639419529579 -0.0056922033580140072 0.0046447389329694125 0 0.0046447389329694125 0.0032854254797800159 0 0 0 -0.00060169446955849609 -0.016451321008089808 0.012210886701474195 0 0.012210886701474195 0.013564870252392981 0 0 0 -0.00072161268892420236 -0.01281214049726692 0.008595906973604385 0 0.008595906973604385 0.0020851421054136447 0 0 0 -0.0026817495979633271 -0.083534777552345632 -0.0094396673080444568 0 -0.0094396673080444568 -0.0078073041930572049 0 0 0 -0.022835520436350724 -0.060547621116323252 0.0023881337960329346 0 0.0023881337960329346 -0.0040657082390263485 0 0 0 -0.016153332338837409 0.028073233463936531 0.024978945295449473 0 0.024978945295449473 0.021450669905853204 0 0 0 0.012380975842447461 -0.070096213733481585 -0.0087419477859340573 0 -0.0087419477859340573 -0.0047212004692090779 0 0 0 -0.018704353550672678 -0.054112991506030245 0.0022715447475414865 0 0.0022715447475414865 -0.0027197299359985883 0 0 0 -0.014208180360507215 -0.026380465101171036 -0.0021757763448882195 0 -0.0021757763448882195 -0.0054319930743469413 0 0 0 -0.0079531145438794804 0.022135218471391438 0.064590224078373781 0 0.064590224078373781 0.044272974129746956 0 0 0 0.016602048150284543 -0.008058368125759427 0.0068994780562282934 0 0.0068994780562282934 -0.0024728286924971046 0 0 0 -0.0026327992045641346 -0.022762620409697149 -0.0069343580752624645 0 -0.0069343580752624645 0.0079448318145045604 0 0 0 -0.0037044471487981401 -0.044623564219357224 -0.0051020220916270223 0 -0.0051020220916270223 -0.014871669931075117 0 0 0 -0.014873808537608085 -0.040084370130208484 0.0023855895545190141 0 0.0023855895545190141 -0.013358724450862664 0 0 0 -0.013360773645267787 -0.078066307779351612 0.0025951728413590685 0 0.0025951728413590685 -0.00041802521788439351 0 0 0 -0.019621083249308998 -0.12818233639620957 -0.0068473409896172843 0 -0.0068473409896172843 -0.00083551929091787991 0 0 0 -0.032254463921781884 -0.048073236718031445 -0.0066232689325284311 0 -0.0066232689325284311 0.016165846628081626 0 0 0 -0.0079768475224875207 0.0050057757792993374 -0.011325308805448464 0 -0.011325308805448464 0.020365733896392402 0 0 0 0.0063428774189229209 -0.041634930436510884 -0.006956983409912465 0 -0.006956983409912465 0.035087143739428943 0 0 0 -0.0016369466742704869 -0.021021384365870293 0.0097939761474933155 0 0.0097939761474933155 0.020091223474428321 0 0 0 -0.00023254022286049118 -0.028247434287688097 0.0062090034098150459 0 0.0062090034098150459 0.022979091092682497 0 0 0 -0.0013170857987514053 -0.0011815794907017643 0.013641143342633895 0 0.013641143342633895 0.019558988025434522 0 0 0 0.0045943521336831872 0.0067094444051585996 0.010967572424170985 0 0.010967572424170985 0.010557978649510115 0 0 0 0.0043168557636671691 -0.016344344122945387 -0.0089252336150248968 0 -0.0089252336150248968 -0.016338699662634126 0 0 0 -0.0081707609463948505 -0.040946529429389485 -0.011062579906201297 0 -0.011062579906201297 0.019809362234694351 0 0 0 -0.0052842917986738527 -0.046051819672228184 -0.019624800824565455 0 -0.019624800824565455 0.041061165064743915 0 0 0 -0.0012476636518710602 -0.014247399440056697 -0.033501735225489368 0 -0.033501735225489368 0.066164153314974036 0 0 0 0.012979188468729318 -0.073751294539061707 0.0023202275394687 0 0.0023202275394687 -0.00044183517470589018 0 0 0 -0.018548282428441906 -0.11620676013217254 -0.0057978530240299893 0 -0.0057978530240299893 -0.00099256850853948753 0 0 0 -0.029299832160178001 -0.0038219456486719627 -0.0031063534811284765 0 -0.0031063534811284765 -0.021176935410421153 0 0 0 -0.0062497202647733207 -0.014500619795788677 -0.018326990999153442 0 -0.018326990999153442 0.049994537781493098 0 0 0 0.0088734794964260844 -0.014156830953781417 0.0077002621896276255 0 0.0077002621896276255 -0.002554177777760222 0 0 0 -0.0041777521828854115 -0.067162301641984654 -0.0084735386097015038 0 -0.0084735386097015038 -0.010274200403866288 0 0 0 -0.019359125511462738 -0.052031293903680241 0.0023374366050670165 0 0.0023374366050670165 -0.0061276792313797492 0 0 0 -0.014539743283764995 -0.027925123957678308 0.002035134919399469 0 0.002035134919399469 -0.0038680398195723303 0 0 0 -0.0079482909443126665 -0.041582472066521464 -0.0043619219278626681 0 -0.0043619219278626681 0.038219930420652984 0 0 0 -0.00084063541146710361 -0.016137606726094628 -0.0094486562974328558 0 -0.0094486562974328558 0.015200842879035947 0 0 0 -0.00023419096176466314 -0.029219965948736371 0.00331244680803952 0 0.00331244680803952 -0.0023619003264763053 0 0 0 -0.0078954665688031698 -0.044815070717567851 0.011196496546923562 0 0.011196496546923562 0.00034943914582674651 0 0 0 -0.011116407892935332 -0.013271521642611084 -0.014544421827626941 0 -0.014544421827626941 0.036225583115801485 0 0 0 0.0057385153682976697 -0.0087643294157379315 -0.012658312521327708 0 -0.012658312521327708 0.030027622776803375 0 0 0 0.0053158233402663402 -0.031460049761671473 -0.016849715762186902 0 -0.016849715762186902 0.026470903880942365 0 0 0 -0.0012472864701822892 -0.032398880817541928 -0.0097503073915771316 0 -0.0097503073915771316 0.022304744486272676 0 0 0 -0.0025235340828173164 -0.028114278417507289 -0.00096645397104309439 0 -0.00096645397104309439 0.015944079869966449 0 0 0 -0.0030425496368852098 -0.040397056032067107 -0.0047175629083406577 0 -0.0047175629083406577 0.036469375299898799 0 0 0 -0.00098192018304208567 0.0072385811253770083 0.01811810886659293 0 0.01811810886659293 0.097948430410597531 0 0 0 0.026296752883993468 1.2299357318390491e-05 0.00029332509350366021 0 0.00029332509350366021 0.00052922851870551568 0 0 0 0.0001353819690057545 0.0024705756432113479 -0.014633712397412513 0 -0.014633712397412513 0.053573111918365057 0 0 0 0.014010921890394157 9.060607842420465e-05 -0.00058741295520814418 0 -0.00058741295520814418 0.0006244069495546789 0 0 0 0.00017875325699451272 -0.028290608238324567 0.0017949587398608602 0 0.0017949587398608602 0.017267722914567098 0 0 0 -0.0027557213309393697 -0.02952867348094295 -0.00019786022318792366 0 -0.00019786022318792366 0.010911637571401388 0 0 0 -0.0046542589773854092 -0.028018540758930441 -0.0071264491431579161 0 -0.0071264491431579161 0.015821232481215544 0 0 0 -0.0030493270694286999 -0.10309901791700836 -0.01007700112196061 0 -0.01007700112196061 0.0012116959475201861 0 0 0 -0.025471830492372047 -0.11830837639962868 -0.015115553481582208 0 -0.015115553481582208 0.0015802366275603497 0 0 0 -0.029182034943017104 -0.026612902137022838 -0.015523096280487723 0 -0.015523096280487723 -0.001047475891586741 0 0 0 -0.006915094507152407 -0.034794810347720584 -0.00070687742829683882 0 -0.00070687742829683882 0.0041204651539598833 0 0 0 -0.0076685862984401873 -0.016308152110620346 -0.02263228953447434 0 -0.02263228953447434 0.036931725656476275 0 0 0 0.0051558933864639875 -0.050615735070222066 0.0030550695684734724 0 0.0030550695684734724 -0.0054392254258116089 0 0 0 -0.014013740124008427 -0.043698564473625447 0.0027009352629064334 0 0.0027009352629064334 -0.0070261528159712983 0 0 0 -0.012681179322399188 -0.049102110733311478 -0.0080019010384487707 0 -0.0080019010384487707 -0.012170186404336588 0 0 0 -0.015318074284412007 -0.063108290058861108 -0.0096618853801199167 0 -0.0096618853801199167 -0.011484188655531901 0 0 0 -0.018648119678598255 -0.044057862707454487 -0.01615368163555192 0 -0.01615368163555192 0.00065906545202021327 0 0 0 -0.010849699313858596 -0.035206242017966016 -0.017176784508761804 0 -0.017176784508761804 0.0010599373654962552 0 0 0 -0.0085365761631174819 -0.027739219251634868 -0.0024352418224112778 0 -0.0024352418224112778 -0.013390028049093746 0 0 0 -0.010282311825182154 -0.026700477473708385 -0.0033723852888689603 0 -0.0033723852888689603 -0.013464652551559472 0 0 0 -0.010041282506316966 -0.029377108274661761 0.0041077538461573521 0 0.0041077538461573521 -0.0077236765951861509 0 0 0 -0.0092751962174619784 -0.031552177642364586 0.0026412375047934183 0 0.0026412375047934183 -0.0099771478452115453 0 0 0 -0.010382331371894035 -0.021802302035672572 0.031718499717895643 0 0.031718499717895643 0.0031179058154764405 0 0 0 -0.0046710990550491438 -0.020619613144237159 -0.020076827453211599 0 -0.020076827453211599 -0.003428847457134232 0 0 0 -0.0060121151503428893 -0.039859551362648349 0.0020270573750704899 0 0.0020270573750704899 -0.0057523903463054527 0 0 0 -0.011402985427238445 -0.035594910528330567 -0.0062381598889987401 0 -0.0062381598889987401 -0.012331954376831461 0 0 0 -0.011981716226290512 -0.02779429174373111 -0.0035515854532619899 0 -0.0035515854532619899 0.0075681243952336469 0 0 0 -0.0050565418371243606 -0.046334944419389575 0.0027089260001712133 0 0.0027089260001712133 -0.0041495935435357911 0 0 0 -0.012621134490731337 -0.052140771543847331 -0.0092322683155111364 0 -0.0092322683155111364 -0.0080739263620414597 0 0 0 -0.015053674476472203 -0.060066979647607398 -0.010256118322200206 0 -0.010256118322200206 0.063214884351818684 0 0 0 0.00078697617605281295 -0.030377073414654128 -0.001672873686453507 0 -0.001672873686453507 0.0085498493488696675 0 0 0 -0.005456806016446129 -0.055429846360813231 -0.0045401348504189032 0 -0.0045401348504189032 -0.018483948074375998 0 0 0 -0.018478448608797306 -0.045556907071548844 0.0011809602143316757 0 0.0011809602143316757 -0.015189256814524149 0 0 0 -0.015186540971518248 0.0091262913419044994 0.0084039251638954194 0 0.0084039251638954194 0.021669202728656967 0 0 0 0.0076988735176403422 -0.0082395827664852317 -0.0019039544346251963 0 -0.0019039544346251963 -0.027708851883962105 0 0 0 -0.0089871086626118202 -0.041022115828805883 0.0013719684915375202 0 0.0013719684915375202 0.0057844872610818415 0 0 0 -0.0088094071419310034 0.00022642592543126172 -0.019234052449745631 0 -0.019234052449745631 0.013848286013102062 0 0 0 0.0035186779846332894 -0.028864575375340738 0.0027987337225337671 0 0.0027987337225337671 0.017307554371171586 0 0 0 -0.0028892552510422801 -0.03389514520796158 -0.0056110010100715278 0 -0.0056110010100715278 0.018945391542743731 0 0 0 -0.0037374384163044588 -0.098054900216831803 -0.0021938965558369041 0 -0.0021938965558369041 -0.0077192387630906131 0 0 0 -0.026443534744980599 -0.068614485182358187 -0.0016175639367223132 0 -0.0016175639367223132 -0.0055595377468709017 0 0 0 -0.018543505732307279 -0.011912176123635911 -0.011516652240761129 0 -0.011516652240761129 0.022749478731969197 0 0 0 0.0027093256520833095 -0.024961224775491474 0.0060467814178044978 0 0.0060467814178044978 0.010919265533623556 0 0 0 -0.0035104898104669768 -0.030226760706711799 -0.0024517374399270556 0 -0.0024517374399270556 0.0051977904292184783 0 0 0 -0.0062572425693733233 -0.059124006843190149 0.00082828157233429123 0 0.00082828157233429123 0.0032709705643103326 0 0 0 -0.013963259069719944 -0.065751335317012161 0.012506837853819341 0 0.012506837853819341 0.00048420192355291825 0 0 0 -0.016316783348364838 -0.033706635482126768 -0.0019804998415984473 0 -0.0019804998415984473 0.016428820826927371 0 0 0 -0.0043194536637998215 -0.034564371002503598 -0.012268657977090772 0 -0.012268657977090772 0.010524120484409538 0 0 0 -0.0060100626295235063 -0.03269430383215808 4.0042994469718929e-05 0 4.0042994469718929e-05 0.0059615312262945863 0 0 0 -0.0066831931514658785 -0.023763770865995786 0.0056128858876830154 0 0.0056128858876830154 0.014230123371840405 0 0 0 -0.0023834118735388387 -0.037416319016217767 -0.013818748859188601 0 -0.013818748859188601 0.010995089982290235 0 0 0 -0.0066053072584818795 0.027316686602123358 0.011289082354872818 0 0.011289082354872818 0.057898812910111341 0 0 0 0.021303874878058668 -0.03678473819746117 0.0030691313198958833 0 0.0030691313198958833 0.0022139664302696649 0 0 0 -0.0086426929417978901 -0.038644503789169837 0.0093454833534881848 0 0.0093454833534881848 -0.0018956505261975565 0 0 0 -0.010135038578841682 -0.011603344980846753 -0.012224981220582354 0 -0.012224981220582354 0.039805400780795308 0 0 0 0.0070505139499871805 -0.0030190398531109164 -0.01027982766792318 0 -0.01027982766792318 0.026997815111662549 0 0 0 0.0059946938146379081 -0.080160543879693402 -0.016509670895199072 0 -0.016509670895199072 0.019932555380860521 0 0 0 -0.015056997124708203 -0.0014181234788829371 -0.0092514752283824574 0 -0.0092514752283824574 0.0035489395293019851 0 0 0 0.00053270401260476288 -0.075210205285320908 0.0042699851353317081 0 0.0042699851353317081 0.0012867737162698401 0 0 0 -0.018480857892262774 -0.12800565340577308 -0.014060365137976163 0 -0.014060365137976163 0.0035767230176811174 0 0 0 -0.031107232597023089 -0.07335104313338385 0.00041920318096025366 0 0.00041920318096025366 7.1318023777390549e-05 0 0 0 -0.01831993127740161 -0.12677269787701181 -0.0033664151152009852 0 -0.0033664151152009852 0.0012863359234285277 0 0 0 -0.031371590488395884 -0.059831113466795052 -0.001444226811168427 0 -0.001444226811168427 -0.0081020207917790223 0 0 0 -0.016983283564643521 -0.082289240648287257 -0.0017761723079465701 0 -0.0017761723079465701 -0.010557414197931526 0 0 0 -0.023211663711554691 -0.035512466408835534 -0.0080086487531841298 0 -0.0080086487531841298 0.025622528322991799 0 0 0 -0.0024724845214609287 -0.033048206068851359 -0.013637442624591607 0 -0.013637442624591607 0.032811085173051771 0 0 0 -5.9280223949916e-05 -0.01105781413056367 -0.0011449795831797727 0 -0.0011449795831797727 0.043660278437940681 0 0 0 0.0081506160768443081 -0.0027294267051466009 -0.0019952717107577234 0 -0.0019952717107577234 0.086001439083600084 0 0 0 0.02081800309461336 -0.014178580860690584 0.0028705063748718229 0 0.0028705063748718229 0.032674020562056455 0 0 0 0.0046238599253414642 -0.0085778696958238865 7.7569054053872044e-06 0 7.7569054053872044e-06 0.074693880356049902 0 0 0 0.016529002665056497 -0.019338135777440285 -0.0055778724720605688 0 -0.0055778724720605688 0.037483751865924619 0 0 0 0.0045364040221210489 -0.033053179562888134 0.00027850184048143489 0 0.00027850184048143489 0.0065563237928809581 0 0 0 -0.0066242139425017835 -0.022982509410234504 -0.013451165966537247 0 -0.013451165966537247 0.027166997383724995 0 0 0 0.0010461219933726243 -0.034505817114170105 -0.014599294697573876 0 -0.014599294697573876 0.024224495933635876 0 0 0 -0.002570330295133573 -0.031554063549936541 0.00018353961204122275 0 0.00018353961204122275 0.03216815204353516 0 0 0 0.0001535221233996578 -0.089556990022369276 0.011774639963749873 0 0.011774639963749873 -0.00096854113660693741 0 0 0 -0.022631382789743859 -0.040610117913614699 -0.0043342484480798256 0 -0.0043342484480798256 0.034444697423118148 0 0 0 -0.0015413551226241204 -0.0009698244749783147 -0.0087910720611165533 0 -0.0087910720611165533 0.094051361049290738 0 0 0 0.023270384143578154 0.030936085535527263 -0.011617986437474498 0 -0.011617986437474498 0.049236877972353987 0 0 0 0.02004324087697032 0.0054655685130932663 -0.010390817701067423 0 -0.010390817701067423 0.022588629905704094 0 0 0 0.007013549604699354 -0.14040133898218854 -0.01076001947007485 0 -0.01076001947007485 0.0033094764084188322 0 0 0 -0.034272965643442468 -0.079723970200468577 0.0037783844076642176 0 0.0037783844076642176 0.0010657153252620864 0 0 0 -0.019664563718801608 -0.041486575938578935 -0.0040198222814953081 0 -0.0040198222814953081 0.036625400012898296 0 0 0 -0.0012152939814201735 -0.056488594836438311 0.028700705654790326 0 0.028700705654790326 -0.0047240825288010768 0 0 0 -0.015303169341309708 -0.040306815340223623 0.028142785410784965 0 0.028142785410784965 0.00066984396993685635 0 0 0 -0.0099092428425717749 -0.021662444689663773 -0.022488722360346769 0 -0.022488722360346769 0.012393985260999996 0 0 0 -0.0023171148571659028 -0.016193560658641571 -0.019898573618878146 0 -0.019898573618878146 0.014216946604675014 0 0 0 -0.00049415351349157022 -0.017540702381936779 -0.013946577530380977 0 -0.013946577530380977 0.045054249784281519 0 0 0 0.0068783868505861157 -0.016792288195498051 0.0073362429907668468 0 0.0073362429907668468 0.00046209943992803204 0 0 0 -0.0040825471888925602 -0.039016304791610827 0.0028927319787135008 0 0.0028927319787135008 -0.0061270012601860628 0 0 0 -0.011285826512949224 -0.038987729500295054 -0.0048836274857201028 0 -0.0048836274857201028 -0.012013269688247513 0 0 0 -0.012750249797135637 -0.023777819429374743 -0.024739659872572761 0 -0.024739659872572761 0.0055119192646253395 0 0 0 -0.0045664750411873525 -0.023888007809265477 -0.023324762283690653 0 -0.023324762283690653 0.0056140125844910127 0 0 0 -0.0045684988061936993 -0.026229097813064428 -0.023428568125152593 0 -0.023428568125152593 0.0029704674843579748 0 0 0 -0.0058146575821765856 -0.026848590694951158 -0.024745542565382778 0 -0.024745542565382778 0.0043732309914419343 0 0 0 -0.0056188399258773614 -0.037158524380488472 0.037014507879343794 0 0.037014507879343794 -0.0036296259167357126 0 0 0 -0.010197037574305984 -0.029931725539511327 0.034550820309697805 0 0.034550820309697805 -0.0032396124194494797 0 0 0 -0.0082928344897404242 -0.042203212677834709 0.003448355676816661 0 0.003448355676816661 -0.010920997565574186 0 0 0 -0.013281052560852222 -0.050589290881901942 -0.0082961103475712797 0 -0.0082961103475712797 -0.015399390498098482 0 0 0 -0.01649717034500011 -0.068538988727618377 -0.0077159472913617411 0 -0.0077159472913617411 0.0053059933906020595 0 0 0 -0.015808248834254107 -0.11837696150667992 0.017240225739586543 0 0.017240225739586543 0.0079021774036707182 0 0 0 -0.027618696025752287 -0.057068250494556022 0.0059933280955498033 0 0.0059933280955498033 0.0011364441072674314 0 0 0 -0.013982951596822155 -0.02299188695594926 0.0055182204324120201 0 0.0055182204324120201 0.0051012750725838441 0 0 0 -0.0044726529708413575 -0.0083487706371784265 -0.0091370106729670719 0 -0.0091370106729670719 -0.013662724170010243 0 0 0 -0.0055028737017971951 -0.089824638373110249 -0.014530518049417762 0 -0.014530518049417762 0.00097719197583098771 0 0 0 -0.022211861599319795 -0.11483508975019235 -0.012239534468038264 0 -0.012239534468038264 -0.0024188552943783109 0 0 0 -0.029313486261142649 -0.017139406271198764 0.00074379018968050723 0 0.00074379018968050723 -0.011825711264305809 0 0 0 -0.0072412793838761416 -0.023878589188079877 0.0048373451166573572 0 0.0048373451166573572 0.053384758371351537 0 0 0 0.0073765422958179186 -0.080145695144234377 -0.0010458515785107814 0 -0.0010458515785107814 3.9948191965233359e-06 0 0 0 -0.020035425081259453 -0.14483976465036685 0.001509039527323619 0 0.001509039527323619 -0.00023732597432586655 0 0 0 -0.03626927265617319 -0.048421264852515203 -0.0046238485794894563 0 -0.0046238485794894563 0.0093637127237452683 0 0 0 -0.0097643880321924975 -0.06977618838835771 -0.012821577106740973 0 -0.012821577106740973 -0.008524700697418279 0 0 0 -0.019575222271444009 -0.053132377984000959 -0.012464944420070437 0 -0.012464944420070437 -0.0058640180163903512 0 0 0 -0.014749099000097824 -0.0062863588053898578 0.056106358337271026 0 0.056106358337271026 0.10998209038300688 0 0 0 0.0259239328944042 -0.10749597179674861 -0.0053680970104510797 0 -0.0053680970104510797 7.7033173022239554e-05 0 0 0 -0.026854734655931609 -0.068939961033033723 0.0021744637096414027 0 0.0021744637096414027 0.00026685917721189223 0 0 0 -0.017168275463955461 -0.024162660560604787 -0.0087495999231481658 0 -0.0087495999231481658 -0.010754867716919803 0 0 0 -0.0087293820693811752 -0.026094207828422922 -0.0087665987287003193 0 -0.0087665987287003193 -0.007561575275787491 0 0 0 -0.0084139457760526171 -0.026881383797052807 0.0051779537717601687 0 0.0051779537717601687 0.025167565279958937 0 0 0 -0.00042845462927347013 -0.0256095831550485 -0.0074467562918901463 0 -0.0074467562918901463 0.0015129074080044436 0 0 0 -0.0060241689367610193 -0.015425496113201207 0.010076486953436506 0 0.010076486953436506 0.0032787302571717324 0 0 0 -0.0030366914640073735 -0.010498829297399148 0.015367890171388232 0 0.015367890171388232 0.10190348220983858 0 0 0 0.022851163228109928 -0.056656620617897474 0.0053204175013338226 0 0.0053204175013338226 0.0019760456318810814 0 0 0 -0.013670143746504104 -0.030193475210353458 -0.00073079254827150292 0 -0.00073079254827150292 0.004190419455262117 0 0 0 -0.0065007639387728404 0.038069550014935394 0.012047639614855499 0 0.012047639614855499 0.048836894629018968 0 0 0 0.021726611160988396 -0.050887563342652029 -0.0071497449282800218 0 -0.0071497449282800218 -0.0018542053442599619 0 0 0 -0.013185442171727941 -0.17210315738117263 -0.00091174854878410538 0 -0.00091174854878410538 -0.00033501261302570917 0 0 0 -0.043109542498549563 -0.092660615097779647 -0.00021666607222572628 0 -0.00021666607222572628 -0.00033226622811605155 0 0 0 -0.023248220331473932 -0.039955820087179107 -0.00066382899310354557 0 -0.00066382899310354557 0.041215532751165761 0 0 0 0.00031492816599666337 -0.070306171433015624 -0.010239716113406112 0 -0.010239716113406112 -0.0046174870806880361 0 0 0 -0.018730914628425913 -0.083278224702193426 -0.014446966180882806 0 -0.014446966180882806 -0.0026257903313505818 0 0 0 -0.02147600375838599 0.010713082661870169 0.016724001431302767 0 0.016724001431302767 0.022088155493677458 0 0 0 0.0082003095388869102 -0.035018442311337328 -0.0080874976843524557 0 -0.0080874976843524557 -0.00060020293535822944 0 0 0 -0.0089046613116738893 -0.031469065896410076 -0.01054433835643373 0 -0.01054433835643373 0.0084949554158916807 0 0 0 -0.0057435276201296126 -0.0077202844438173379 0.014990819509513859 0 0.014990819509513859 0.087773269322837244 0 0 0 0.020013246219754643 -0.012904133932855499 -0.0048003198925396463 0 -0.0048003198925396463 0.00099773669901681572 0 0 0 -0.0029765993084596154 -0.040931475459365499 -0.019145430069044483 0 -0.019145430069044483 0.022761543587377586 0 0 0 -0.0045424829679969886 -0.02443249571189287 -0.0070624032827189612 0 -0.0070624032827189612 0.028414952871842342 0 0 0 0.00099561428998733159 -0.034193728560581657 -0.0017621201745969678 0 -0.0017621201745969678 0.0099622730014070349 0 0 0 -0.0060578638897936382 -0.032261033371085768 0.0084016026701003721 0 0.0084016026701003721 -0.0011069189117032252 0 0 0 -0.0083419880706971927 -0.011430274664557594 -0.01464813876966542 0 -0.01464813876966542 0.045354198392439038 0 0 0 0.00848098093197025 -0.036087773380344176 0.0026215386473065431 0 0.0026215386473065431 -0.0019400585451212551 0 0 0 -0.0095069579813663579 -0.0016793567783546515 -0.0014357480447733939 0 -0.0014357480447733939 0.032453173196375057 0 0 0 0.0076934541045051014 -0.06571477243168454 0.0038738768762651291 0 0.0038738768762651291 0.00015239033134420432 0 0 0 -0.016390595525085094 -0.051934062215460486 -0.012491557972786079 0 -0.012491557972786079 0.020102678685145481 0 0 0 -0.0079578458825787513 -0.054890406793708116 0.0048750127190744959 0 0.0048750127190744959 -0.0021356089920979981 0 0 0 -0.014256503946451539 -0.054392070313848406 -0.0072767593989887525 0 -0.0072767593989887525 0.0011331331019048818 0 0 0 -0.013314734302985798 -0.070563305707701154 0.0032421778364560665 0 0.0032421778364560665 -0.00057857619863141418 0 0 0 -0.017785470476583118 -0.062876388758986435 0.0041301803302062137 0 0.0041301803302062137 0.00017278931958165933 0 0 0 -0.015675899859851211 -0.060695593992505403 0.035941453481066254 0 0.035941453481066254 -0.00031833144630777355 0 0 0 -0.015253481359703447 -0.039624471818396373 -0.0038416974945764625 0 -0.0038416974945764625 -0.013870387845775441 0 0 0 -0.013373714916042953 -0.044167475590427691 -0.0084684107227231773 0 -0.0084684107227231773 -0.01399736050226473 0 0 0 -0.014541209023173103 -0.039906133522852771 0.0039095205786248664 0 0.0039095205786248664 -0.008519324011897084 0 0 0 -0.012106364383687462 -0.038360533426208092 0.0019963369030107955 0 0.0019963369030107955 -0.010269748950589644 0 0 0 -0.012157570594199434 -0.029212486959003588 -0.0056376353740748564 0 -0.0056376353740748564 0.013271288328177519 0 0 0 -0.0039852996577065258 -0.024982737656549854 -0.02203448501140659 0 -0.02203448501140659 0.035752665405652868 0 0 0 0.0026924819372757436 -0.03443220766184632 -0.015364574969521684 0 -0.015364574969521684 0.014962481727585495 0 0 0 -0.0048674314835652202 -0.03547998950043188 -0.010114142118346825 0 -0.010114142118346825 0.028031398016916675 0 0 0 -0.0018621478708787942 -0.033356587214001074 -0.012573311712002926 0 -0.012573311712002926 0.01402031218705746 0 0 0 -0.004834068756735907 -0.022481118033356839 -0.0033642063423375695 0 -0.0033642063423375695 0.034512469914200983 0 0 0 0.0030078379702110358 -0.024745435773963126 -0.0059081471895022358 0 -0.0059081471895022358 0.017693397074574235 0 0 0 -0.0017630096748472435 -0.094921889381740121 0.0013910613004053285 0 0.0013910613004053285 0.00044555911547533578 0 0 0 -0.023619082566566224 -0.1802059664782385 -0.0037125258220241197 0 -0.0037125258220241197 0.0027635448706270216 0 0 0 -0.044360605401902842 -0.016436793523520302 -0.0073768767419295986 0 -0.0073768767419295986 0.021229407454020577 0 0 0 0.0011981534826250584 -0.017626799019353157 -0.0035605711016521713 0 -0.0035605711016521713 0.040426026690308536 0 0 0 0.0056998069177388588 -0.052271159545610971 0.0038095428043654136 0 0.0038095428043654136 0.0062239964706735929 0 0 0 -0.011511790768734334 -0.021246118947091514 0.0028803400694350934 0 0.0028803400694350934 -0.0082051775994262666 0 0 0 -0.0073628241366294443 -0.034208276688853893 -0.0083694846685087761 0 -0.0083694846685087761 -0.0062262993016288619 0 0 0 -0.010108643997620684 -0.024124269899011064 -0.0028765921826520262 0 -0.0028765921826520262 -0.010423370382802225 0 0 0 -0.0086369100704533127 -0.020614921869823284 -0.031376948706791918 0 -0.031376948706791918 0.065815989970917851 0 0 0 0.011300267025273654 -0.066473352657920953 0.0012979087571788513 0 0.0012979087571788513 -0.0028604393567748278 0 0 0 -0.017333448003673944 -0.061849768625023942 0.00082828875316656551 0 0.00082828875316656551 -0.0015082861528755639 0 0 0 -0.015839513694474873 -0.085705354531986785 -0.0054543303317793066 0 -0.0054543303317793066 -0.0017808219177435358 0 0 0 -0.02187154411243257 -0.098339702516238067 -0.0063982106509414306 0 -0.0063982106509414306 -0.0050012670853846267 0 0 0 -0.025835242400405668 -0.082296085331297952 -0.0052977818012509221 0 -0.0052977818012509221 0.00098274444639590008 0 0 0 -0.020328335221225569 -0.019535391540060898 0.053066289501513042 0 0.053066289501513042 0.068000009508373482 0 0 0 0.012116154492078146 -0.0028841080222792581 -0.011052121904405188 0 -0.011052121904405188 0.025178621435894666 0 0 0 0.0055736283534037756 -0.012080228477865397 -0.0072550138857433444 0 -0.0072550138857433444 -0.014516067997155997 0 0 0 -0.0066490741187553559 -0.040292215499916066 0.0034966527130641635 0 0.0034966527130641635 -0.0022462950034468371 0 0 0 -0.010634627625840727 -0.04013086407633254 -0.0024155847656290343 0 -0.0024155847656290343 0.029918015758696861 0 0 0 -0.0025532120794089248 -0.057365172832724992 0.0039570047733405844 0 0.0039570047733405844 -0.00057301654299361793 0 0 0 -0.01448454734392967 -0.0012221426510763966 0.02505312236623225 0 0.02505312236623225 0.020837147106953946 0 0 0 0.0049037511139692902 -0.024103816323851567 0.0042413916903845123 0 0.0042413916903845123 -0.0083259696925873563 0 0 0 -0.0081074465041097339 -0.025909915685543058 -0.011692228540437388 0 -0.011692228540437388 -0.0066520613975635592 0 0 0 -0.0081404942707766336 0.014146427059530325 -0.04199214109845683 0 -0.04199214109845683 0.055122355568217735 0 0 0 0.017317195656937019 -0.14750968783945995 0.012514307003755276 0 0.012514307003755276 0.0015047249558368669 0 0 0 -0.03650124072090577 -0.017739183981146264 0.0022099235997937198 0 0.0022099235997937198 -0.0087355906673365364 0 0 0 -0.0066186936621206978 -0.04485011516195269 0.0014588723793063905 0 0.0014588723793063905 -0.011066975682653675 0 0 0 -0.013979272711151592 -0.052550193545408463 -0.004597616949526818 0 -0.004597616949526818 -0.014729214094088512 0 0 0 -0.016819851909874239 -0.020006849960533465 0.0078422352643480794 0 0.0078422352643480794 0.0088091397626710727 0 0 0 -0.0027994275494655947 -0.073528460911588933 0.0030423767056816653 0 0.0030423767056816653 0.0014114882662600858 0 0 0 -0.018029243161332253 -0.12513309889865093 -0.0095842922619191473 0 -0.0095842922619191473 0.0049797526117827812 0 0 0 -0.030038336571717013 -0.0047436446821409461 0.021219723388497314 0 0.021219723388497314 0.043729368435107219 0 0 0 0.0097464309382413461 -0.031538076085584121 -0.010877369348316623 0 -0.010877369348316623 -0.0024757886005750684 0 0 0 -0.008503466171539964 -0.017290972975051389 0.001885889961361506 0 0.001885889961361506 0.047164912760746552 0 0 0 0.007468484946423784 -0.017082379090218175 -0.015377525160761787 0 -0.015377525160761787 0.0095882697244278337 0 0 0 -0.0018735273414475784 -0.026552105870127983 -1.3648321439262145e-05 0 -1.3648321439262145e-05 0.019879591437997363 0 0 0 -0.001668128608032636 -0.023328623213887831 0.004295423154851952 0 0.004295423154851952 0.0032983921780811269 0 0 0 -0.0050075577589516768 -0.018904518274658569 0.00036785248542052496 0 0.00036785248542052496 -0.011326841408218541 0 0 0 -0.007557839920719278 -0.035338289938963215 0.0023722166040740216 0 0.0023722166040740216 0.0012666638810329852 0 0 0 -0.0085179065144825646 -0.030589647291296304 -0.012803958673842871 0 -0.012803958673842871 0.081865783926696328 0 0 0 0.01281903415885001 -0.031589661173888069 -0.013024448303956571 0 -0.013024448303956571 0.076702794622984002 0 0 0 0.011278283362273982 -0.028663186479612024 -0.017119796375834828 0 -0.017119796375834828 -0.00028964112157803257 0 0 0 -0.0072382069002975835 -0.0246546124112344 -0.016150378999467585 0 -0.016150378999467585 -0.00042344902932467399 0 0 0 -0.0062695153601398101 -0.015044473903550348 0.029645248475004493 0 0.029645248475004493 0.02032464112919774 0 0 0 0.0013200418064117647 -0.020266603484087486 0.030430348955505782 0 0.030430348955505782 0.01836485078097061 0 0 0 -0.00047543817577921921 -0.015247376752567487 0.033403371043118038 0 0.033403371043118038 0.011206431941951145 0 0 0 -0.0010102362026541689 0.0066168550737953913 0.031846206846945446 0 0.031846206846945446 0.016126358444523259 0 0 0 0.0056858033795794682 -0.020327001400610167 0.0029015495065739167 0 0.0029015495065739167 -0.0067760658837227126 0 0 0 -0.0067757668210832196 -0.01598796888284873 0.00069137718654574409 0 0.00069137718654574409 0.060774662665459694 0 0 0 0.011196673445652755 -0.023647091064469564 -0.0012941070823865725 0 -0.0012941070823865725 0.031055298989007357 0 0 0 0.0018520519811344588 -0.057251287180925925 -0.011248467146862395 0 -0.011248467146862395 -0.00032305474566718395 0 0 0 -0.014393585481648319 -0.064937970304797435 -0.0043785454485865682 0 -0.0043785454485865682 -0.0003069151697935868 0 0 0 -0.01631122136864778 -0.10926704061755865 0.010191869714433199 0 0.010191869714433199 -0.00084179638767745146 0 0 0 -0.027527209251309026 -0.010580066014169651 0.016931852321976495 0 0.016931852321976495 0.020268498798548557 0 0 0 0.0024221081960947299 -0.0081782287516676683 0.018129420367343215 0 0.018129420367343215 0.025891667183435829 0 0 0 0.0044283596079420506 -0.020103230689933041 0.0043755688775935437 0 0.0043755688775935437 -0.0053122806482731599 0 0 0 -0.0063538778345515554 -0.021632910011043463 0.0035461274134373365 0 0.0035461274134373365 -0.0085211024100330587 0 0 0 -0.0075385031052691313 -0.11059058304030439 -0.00994668993832825 0 -0.00994668993832825 -0.0040729983541587939 0 0 0 -0.028665895348615768 -0.069731828194076556 0.0031069306917276412 0 0.0031069306917276412 -0.00093451657231273522 0 0 0 -0.017666586191597326 -0.063532038947146985 0.0047332096690306602 0 0.0047332096690306602 -0.0014677143637567142 0 0 0 -0.016249938327725918 -0.0081321299317635987 0.02153300347274012 0 0.02153300347274012 0.056060907274015026 0 0 0 0.011982194335562912 -0.024996507647167376 -0.0074888093970472136 0 -0.0074888093970472136 0.0020199576511290562 0 0 0 -0.0057441374990095384 -0.021601168113774105 -0.0012120542637414984 0 -0.0012120542637414984 -0.010050435843653588 0 0 0 -0.0079129009893569233 -0.01339275037285304 0.00071619727457584992 0 0.00071619727457584992 -0.0070751868311086513 0 0 0 -0.0051169843009904233 -0.043574377160303768 -0.017714325141689913 0 -0.017714325141689913 0.0036469504873768432 0 0 0 -0.0099818566682316479 -0.044416033787691461 -0.012025267249019631 0 -0.012025267249019631 -0.0023084656653800245 0 0 0 -0.011681124863267858 -0.024764828055914866 -0.0070453829252662276 0 -0.0070453829252662276 0.01792743566716308 0 0 0 -0.0017093480971879741 -0.0056461418601634408 0.013134664783004971 0 0.013134664783004971 0.010923406007459738 0 0 0 0.0013193160368240725 -0.06284198552664047 0.037530264539799241 0 0.037530264539799241 0.0023264530553671059 0 0 0 -0.015128883117818265 -0.065883907577443279 -0.00032335506843927941 0 -0.00032335506843927941 0.0027366882410837512 0 0 0 -0.015786804834089924 -0.11094425796275881 0.00037564904735560428 0 0.00037564904735560428 0.0073755498978947953 0 0 0 -0.025892177016215989 -0.0059652174842930172 -0.0031708978168140944 0 -0.0031708978168140944 -0.022729447543647696 0 0 0 -0.0071736662569851783 -0.010217081278172835 -0.0066560354176745107 0 -0.0066560354176745107 -0.025621319966940725 0 0 0 -0.008959600311278404 -0.056469612037493268 0.0051357389288222942 0 0.0051357389288222942 -0.0003391955698151955 0 0 0 -0.014202201901827126 -0.049448860998502923 0.0040140984629652848 0 0.0040140984629652848 -0.0010903683373860266 0 0 0 -0.012634807333972231 -0.029575486316211919 -0.001994096569785244 0 -0.001994096569785244 0.010841573210517985 0 0 0 -0.0046834782764234723 -0.070766221861046502 0.0058591578840022085 0 0.0058591578840022085 0.0014750178228644661 0 0 0 -0.017322801009545488 -0.078171012516366101 -0.013987387576415235 0 -0.013987387576415235 -0.0054893800261825998 0 0 0 -0.020915098135637186 -0.0029682844950144225 0.0017065364106202408 0 0.0017065364106202408 -0.022016897062207878 0 0 0 -0.0062462953893055893 -0.047799782545234537 0.044403107251766993 0 0.044403107251766993 0.0049839192211074135 0 0 0 -0.010703965831031836 -0.022040758710621132 0.0032951654922957234 0 0.0032951654922957234 -0.0073473529626724866 0 0 0 -0.0073470279183234042 0.019592994858358165 0.012888957046852001 0 0.012888957046852001 0.052329380790959279 0 0 0 0.017980593912329285 0.011997269083209618 0.02539062484268316 0 0.02539062484268316 0.067974287983564058 0 0 0 0.019992889266693424 -0.10405720622057664 0.010077596391168842 0 0.010077596391168842 0.017362111621186532 0 0 0 -0.021673773649847534 -0.0037180186106381546 0.02680211342599316 0 0.02680211342599316 0.071816910549952262 0 0 0 0.017024722984828489 0.004377418396025734 0.022686886443449853 0 0.022686886443449853 0.047071673556711768 0 0 0 0.012862272988184376 -0.043767844487345921 0.004501223421997564 0 0.004501223421997564 0.00067588564937111351 0 0 0 -0.010772989709493717 -0.031638600644732201 0.0020828646192706758 0 0.0020828646192706758 -0.0020292155147839924 0 0 0 -0.0084169540398790575 -0.094578878829446045 0.029114954691452366 0 0.029114954691452366 0.009513390698940416 0 0 0 -0.021266372032626379 -0.040603120637848752 -0.010320805467746823 0 -0.010320805467746823 0.037251642087453907 0 0 0 -0.00083786963759874267 -0.019007994133505585 0.017353580455333181 0 0.017353580455333181 0.077485716801717619 0 0 0 0.014619430667053009 -0.03139266700181248 -0.014569485880399448 0 -0.014569485880399448 0.0017849774016690523 0 0 0 -0.007401922400035843 -0.076606345153212824 -0.0027252412763674461 0 -0.0027252412763674461 0.0022095939847626561 0 0 0 -0.018599187792112535 -0.13507156039885429 0.0062606933173070534 0 0.0062606933173070534 0.0075538950004891969 0 0 0 -0.031879416349591294 -0.035963348318810429 0.017862513681425218 0 0.017862513681425218 -0.0053908767520893797 0 0 0 -0.010338556267724952 -0.017839647718490892 -0.019665255675537896 0 -0.019665255675537896 0.02193710270430127 0 0 0 0.001024363746452539 -0.030457533470558185 -0.0099029932674129378 0 -0.0099029932674129378 0.014971828812644028 0 0 0 -0.0038714261644785808 -0.00062494738299406077 0.013926371875426384 0 0.013926371875426384 0.012129033321706353 0 0 0 0.0028760214846780818 -0.070963803309811113 -0.013117449861562007 0 -0.013117449861562007 -0.0092996000643587387 0 0 0 -0.020065850843542461 -0.065282944823850941 0.0037149191881418187 0 0.0037149191881418187 0.0014637409269618318 0 0 0 -0.015954800974222298 -0.093851377292006391 -0.0070249337421063318 0 -0.0070249337421063318 0.0050148682093627342 0 0 0 -0.022209127270660885 -0.023098544434659404 -0.016084645216456632 0 -0.016084645216456632 0.030242865582259554 0 0 0 0.0017860802869000408 -0.052463291108380508 0.0021116936508579071 0 0.0021116936508579071 0.0025102909351068792 0 0 0 -0.012488250043318407 -0.030720017673980218 0.0038840829627647643 0 0.0038840829627647643 0.063037598636527928 0 0 0 0.0080793952406369336 -0.019539035137978403 3.8085862401251091e-05 0 3.8085862401251091e-05 -0.0065120606133898945 0 0 0 -0.0065127739378420752 -0.025440886698716414 -0.0068745861123566399 0 -0.0068745861123566399 0.0090043003105364505 0 0 0 -0.0041091465970449492 -0.077102608635515907 0.0017716027387124078 0 0.0017716027387124078 0.0015785112935281648 0 0 0 -0.018881024335496953 -0.13358822118323899 -0.0062848233290942745 0 -0.0062848233290942745 0.0036060126494508737 0 0 0 -0.032495552133447056 -0.058177499495941851 -0.013134176892981186 0 -0.013134176892981186 0.0045896083576132812 0 0 0 -0.013396972784582115 -0.031041745889578448 -0.013672697361926917 0 -0.013672697361926917 0.020687178214763291 0 0 0 -0.0025886419187037824 -0.024406362985148061 -0.010197210769961162 0 -0.010197210769961162 0.038152110750659218 0 0 0 0.0034364369413777685 -0.0409860491077862 0.0027028744611601527 0 0.0027028744611601527 0.0026923435237744264 0 0 0 -0.009573426396002914 -0.032585984467685597 -0.013290032614705106 0 -0.013290032614705106 0.0032590613901223864 0 0 0 -0.0073317307693908096 -0.044780000001554202 -0.016386962137333483 0 -0.016386962137333483 0.00098170414919019483 0 0 0 -0.010949573963091059 -0.04819574344344859 0.002910885073356434 0 0.002910885073356434 0.0024339921440770865 0 0 0 -0.011440437824842879 -0.03094008591314671 -0.015043850664848465 0 -0.015043850664848465 0.0022447914927118118 0 0 0 -0.0071738236051086951 -0.020221263582738475 0.000587363529319229 0 0.000587363529319229 -0.011452327767130814 0 0 0 -0.0079183978374673235 -0.078498859377953228 0.00061209269802875443 0 0.00061209269802875443 0.0011787795776076748 0 0 0 -0.019330019950086458 -0.14119811208967514 -0.0016056937967298679 0 -0.0016056937967298679 0.0017368537200425638 0 0 0 -0.034865314592408103 -0.037664222936919414 -0.0070018793938969592 0 -0.0070018793938969592 -0.0022398074221913755 0 0 0 -0.009976007589777583 0.0083154297333162819 0.014491104860600013 0 0.014491104860600013 0.064125898128666758 0 0 0 0.018110331965495552 0.00041977486379607409 0.020828937318479457 0 0.020828937318479457 0.049659199689469302 0 0 0 0.012519743638316427 -0.027802028210873519 -0.005819438297275872 0 -0.005819438297275872 -0.0019781697944249998 0 0 0 -0.0074450495013246298 0.0033035337868949632 0.012289995006072097 0 0.012289995006072097 0.084252204793782148 0 0 0 0.021888934645169167 -0.014479917852478347 -0.012716016519986856 0 -0.012716016519986856 0.0099940904314806955 0 0 0 -0.0011214568552494059 -0.037787372703084354 -0.012884470835026959 0 -0.012884470835026959 0.011463165181473445 0 0 0 -0.0065810518804027274 0.013542244974052597 -0.0017081626244977357 0 -0.0017081626244977357 0.066880818926063124 0 0 0 0.020105765975028944 0.018708013981575455 0.00032576902323219747 0 0.00032576902323219747 0.12135663775798933 0 0 0 0.035016162934891154 -0.091389662864277688 -0.010551320051522234 0 -0.010551320051522234 0.016915201578111549 0 0 0 -0.018618615321541465 -0.046936220581333885 0.0034326639537752396 0 0.0034326639537752396 -0.0016768732160340541 0 0 0 -0.012153273449341976 -0.019886591077171747 0.0060157966638949255 0 0.0060157966638949255 -0.0018439817424551839 0 0 0 -0.005432643204906727 -0.065055622208941788 0.033075055026335121 0 0.033075055026335121 -0.0032574335910422469 0 0 0 -0.017078263949995898 -0.0084416485289871557 -0.017914261929980385 0 -0.017914261929980385 0.014442323733788509 0 0 0 0.0015001688012002967 -0.017956022461917555 0.0012117027597852649 0 0.0012117027597852649 -0.0091087511837899832 0 0 0 -0.0067661934114268858 -0.042385295865461692 0.0015813368697845526 0 0.0015813368697845526 0.0091498426220614909 0 0 0 -0.008308863310850071 0.017573177404003104 0.012431329323490461 0 0.012431329323490461 0.053078575430573149 0 0 0 0.017662938208643952 -0.031748343106834262 -0.0059254367980011982 0 -0.0059254367980011982 -0.012370674762363677 0 0 0 -0.011029754467299487 -0.023025446121238184 -0.0066950575060334694 0 -0.0066950575060334694 0.0032366521488239597 0 0 0 -0.0049471984931035787 -0.01890751359648063 -0.010021017267615354 0 -0.010021017267615354 0.0030804361887953203 0 0 0 -0.0039567693519212957 -0.003230513266182955 0.0034749314193801839 0 0.0034749314193801839 0.026330890795351336 0 0 0 0.0057750943822920953 0.0060041065597001841 0.0014976946410429626 0 0.0014976946410429626 0.061203763217414275 0 0 0 0.016801967444278643 0.012225741336350154 -0.0056448441226233936 0 -0.0056448441226233936 0.11017012879696758 0 0 0 0.030598967533329413 -0.0026663501948826357 -0.0066554205347256479 0 -0.0066554205347256479 0.054430446832195258 0 0 0 0.012941024159328199 -0.01496010608939299 0.014084320539895803 0 0.014084320539895803 0.023548233418031056 0 0 0 0.002147031832159519 -0.012101102979321692 -0.015866773844407024 0 -0.015866773844407024 0.0030288347714546443 0 0 0 -0.0022680670519667455 -0.0036386455633588199 -0.03032992357596238 0 -0.03032992357596238 0.027856744515591045 0 0 0 0.0060545247380580309 -0.040716036158419622 -0.013310592367692275 0 -0.013310592367692275 0.0027692719572229296 0 0 0 -0.0094866910502990898 -0.056714496030788181 0.0039351400757525606 0 0.0039351400757525606 0.00093172321180343132 0 0 0 -0.013945693204746177 -0.049061541022195301 0.005232887577672516 0 0.005232887577672516 0.0017099436217919983 0 0 0 -0.011837899350100822 -0.08761260762011451 0.0035671482425311679 0 0.0035671482425311679 0.035940795151604532 0 0 0 -0.012917953117127484 -0.013617770640905164 0.00086263255915874915 0 0.00086263255915874915 0.012518528864018275 0 0 0 -0.00027481044422167367 -0.011494440370277498 -0.00681405678673426 0 -0.00681405678673426 0.030585940980244586 0 0 0 0.0047728751524917234 -0.019460961836975144 0.0065381101837786622 0 0.0065381101837786622 0.0032733123683809737 0 0 0 -0.0040469123671485413 -0.00081534584449677316 -8.2061723230053563e-05 0 -8.2061723230053563e-05 -0.024607046886098827 0 0 0 -0.0063555981826488583 -0.024845194246332566 0.0032605709084682208 0 0.0032605709084682208 -0.0054293119331057758 0 0 0 -0.0075686265448595864 -0.032075939491018141 -0.014939096629953831 0 -0.014939096629953831 0.011703911959093621 0 0 0 -0.0050930068829811298 -0.017550296209372672 0.0013036787268765288 0 0.0013036787268765288 -0.011827816250579826 0 0 0 -0.0073445281149881209 -0.022751438713494498 0.038652809594684479 0 0.038652809594684479 0.0025384540107400433 0 0 0 -0.005053246175688586 -0.023592323431186127 0.034610123887484079 0 0.034610123887484079 0.0034925586662157837 0 0 0 -0.0050249411912424297 -0.022355483684427774 -0.020858169985732422 0 -0.020858169985732422 0.0017747151797281868 0 0 0 -0.0051451921261749523 0.010576174332428353 -0.056686472826984691 0 -0.056686472826984691 0.11176551597202578 0 0 0 0.030585422576113529 -0.018392734490195586 0.0016920883379887574 0 0.0016920883379887574 -0.010527479063793449 0 0 0 -0.0072300533884972597 -0.038785019198349646 -0.0079442947438363998 0 -0.0079442947438363998 0.0022148579591916295 0 0 0 -0.0091425403097895042 0.00090780950896396373 0.00049819764138447908 0 0.00049819764138447908 2.4719912646853359e-05 0 0 0 0.00023313235540267652 0.022441883810787822 0.0010331841680315534 0 0.0010331841680315534 0.13080234984174233 0 0 0 0.038311058413132315 0.018780499329131988 -0.007159479608966457 0 -0.007159479608966457 0.10825255801794542 0 0 0 0.031758264336769239 0.011797679678190454 0.0031937649663669188 0 0.0031937649663669188 0.05950725390571554 0 0 0 0.017826233395976554 0.001345984086758012 -0.00077923698773292864 0 -0.00077923698773292864 0.00010927244205749531 0 0 0 0.00036381413220398784 -0.00045828716068478751 0.00063125311873646339 0 0.00063125311873646339 0.0011182915810003912 0 0 0 0.00016500110507873441 0.01435286176106354 -0.0028245655600061658 0 -0.0028245655600061658 0.076140939465625834 0 0 0 0.022623450306672455 -0.00059575312458259866 -0.0009799050805692211 0 -0.0009799050805692211 0.0016980621205942015 0 0 0 0.00027557724900284519 -0.020171491042400343 0.00060900421715965735 0 0.00060900421715965735 -0.0101410205111159 0 0 0 -0.0075781278883790609 -0.028528107311857516 -0.014151886203750616 0 -0.014151886203750616 -0.0027126734383380868 0 0 0 -0.007810195187548892 -0.048065116494363055 0.004230891867875522 0 0.004230891867875522 0.0048467315368911634 0 0 0 -0.010804596239367983 -0.036507227240112461 -0.019006019208011538 0 -0.019006019208011538 0.0035299238878085948 0 0 0 -0.0082443258380758833 -0.025316244134103605 -0.00075193988767401011 0 -0.00075193988767401011 -0.011463725430651252 0 0 0 -0.0091949923911887176 -0.023021343096402802 0.027863957734496347 0 0.027863957734496347 -0.0056523720792016618 0 0 0 -0.0071684287939008939 -0.019619742294509357 -0.022700318919625095 0 -0.022700318919625095 0.0020478141561215413 0 0 0 -0.0043929820345970372 -0.0039622506165172267 -0.0039318210892599903 0 -0.0039318210892599903 0.048390993602394849 0 0 0 0.011107185746469406 -0.0035610812237752004 0.00017744135791833426 0 0.00017744135791833426 0.091900954657958778 0 0 0 0.022084968358545912 -0.036055022967795516 0.005063955187417854 0 0.005063955187417854 0.046033061275874615 0 0 0 0.002494509577019785 -0.044138181117454767 0.00062242475704397948 0 0.00062242475704397948 0.0050448548451878239 0 0 0 -0.0097733315680667288 -0.021629755295116154 -0.0080914523603435994 0 -0.0080914523603435994 0.03351822129020865 0 0 0 0.0029721164987731308 -0.017141361249004297 0.0033423091334289917 0 0.0033423091334289917 0.069094728798113902 0 0 0 0.012988341887277377 -0.024923859832363338 -0.02220086345272787 0 -0.02220086345272787 0.0059513644625684425 0 0 0 -0.0047431238424487931 -0.017770101972013137 0.0059653256590863016 0 0.0059653256590863016 -0.0011400222005668557 0 0 0 -0.004727531043144992 -0.020921384700648915 -0.023876445976104943 0 -0.023876445976104943 0.0093332417609570673 0 0 0 -0.0028970357349228926 -0.030308122554217221 0.02654258426259104 0 0.02654258426259104 -0.0019534641703939926 0 0 0 -0.0080653966811525812 -0.024148285374725964 -0.0026944201781234633 0 -0.0026944201781234633 0.01675589709056402 0 0 0 -0.0018480970710404859 -0.016966172068748564 -0.0035938297036892386 0 -0.0035938297036892386 0.019147908155389748 0 0 0 0.0005454340216602821 -0.034940730897369009 0.0027038768382877179 0 0.0027038768382877179 -0.0023493497058016816 0 0 0 -0.0093225201507926778 -0.034717048898745877 -0.0046262521593275208 0 -0.0046262521593275208 0.025131864115055705 0 0 0 -0.0023962961959225135 0.0047030500620399429 -0.01826182079166519 0 -0.01826182079166519 0.015666440569092721 0 0 0 0.0050923726577832007 -0.026972319063475161 -0.015050171129634929 0 -0.015050171129634929 -0.00011343654922917404 0 0 0 -0.0067714389031760906 0.026163153410357548 -0.013220576999642797 0 -0.013220576999642797 0.020172820696986005 0 0 0 0.011583993526835895 -0.016669885440735915 -0.0050760081590767725 0 -0.0050760081590767725 0.037347116806601521 0 0 0 0.0051693078414664223 -0.025852060723168563 -0.0064451125448341529 0 -0.0064451125448341529 0.0095470247414544129 0 0 0 -0.0040762589954285167 -0.052966286407477282 0.0033000257480818203 0 0.0033000257480818203 -0.0017650939199984339 0 0 0 -0.013682845081868927 -0.035843017344401207 -0.0060546682054415657 0 -0.0060546682054415657 0.028880682533736678 0 0 0 -0.0017405837026661514 -0.036174281467800468 -0.0051864199279056441 0 -0.0051864199279056441 0.035429166876764798 0 0 0 -0.00018627864775892095 0.013003836576656269 0.040163413052997893 0 0.040163413052997893 0.12008883371433404 0 0 0 0.033273167572747592 -0.021761838708625802 -0.011311293020751859 0 -0.011311293020751859 0.13736735068791445 0 0 0 0.028901377994822175 0.0078758890733385822 0.013696851126536432 0 0.013696851126536432 0.062659606217815078 0 0 0 0.017633873822788582 -0.020735529533488433 0.01552052312013805 0 0.01552052312013805 0.031380527165320443 0 0 0 0.0026612494079580121 -0.041725574217841621 -0.0067632963729029926 0 -0.0067632963729029926 0.00035813510178739349 0 0 0 -0.010341859779013585 -0.03520102713823707 0.0028832540375427185 0 0.0028832540375427185 -0.0038895896015889676 0 0 0 -0.0097726541849565141 -0.068211283414699231 -0.0063065158490786689 0 -0.0063065158490786689 -0.010330549634940471 0 0 0 -0.019635458262409915 -0.053369551908598316 0.0012763575984846951 0 0.0012763575984846951 -0.0064477646856336626 0 0 0 -0.014954329148557984 -0.012828837134663928 0.0033730484296912409 0 0.0033730484296912409 -0.0083101318526876342 0 0 0 -0.0052847422468378881 -0.074060788825517671 -0.0057437246276963311 0 -0.0057437246276963311 -0.0014898861855358915 0 0 0 -0.018887668752763393 -0.064774858147909509 -0.006407259955516293 0 -0.006407259955516293 -0.014639004435430952 0 0 0 -0.019853465645835112 -0.10303042126802558 0.0051778440493242825 0 0.0051778440493242825 -0.00082328171543622625 0 0 0 -0.025963425745865448 -0.090747051800146819 0.0058207743577517778 0 0.0058207743577517778 -0.019524330005393054 0 0 0 -0.027567845451384965 -0.038778732762658925 -0.012594350835787999 0 -0.012594350835787999 0.014769088837590538 0 0 0 -0.0060024109812670742 -0.016597178082849169 0.0025697201683895958 0 0.0025697201683895958 -0.009483625297754093 0 0 0 -0.0065202008451508133 0.014291707186962377 0.022931233352143199 0 0.022931233352143199 0.021124111801784418 0 0 0 0.0088539547471865321 -0.021864303400187829 0.0024590420791743006 0 0.0024590420791743006 0.04857859051955693 0 0 0 0.0066785717798422684 -0.011991462971089087 0.021560050638425601 0 0.021560050638425601 0.048152407110284012 0 0 0 0.0090402360347987317 -0.024853522346930973 -0.021393929472727478 0 -0.021393929472727478 0.020757915692396045 0 0 0 -0.001023901663633725 -0.0034924197875753392 0.00042052535864822715 0 0.00042052535864822715 0.0048206785480049558 0 0 0 0.00033206469010734868 -0.001344853319023702 -0.0049106696793221882 0 -0.0049106696793221882 0.011192316462691507 0 0 0 0.0024618657859169792 -0.0021223179172472958 0.0051945368597556829 0 0.0051945368597556829 0.028167936356665823 0 0 0 0.0065114046098549653 -0.002575437391871245 -0.00054650729080107929 0 -0.00054650729080107929 0.0026690039266399029 0 0 0 2.3391633692053428e-05 -0.010438452013656275 0.0047681843437741567 0 0.0047681843437741567 -0.0020835373818603731 0 0 0 -0.0031304973488791472 -0.011528684889923951 -0.010133070199442207 0 -0.010133070199442207 0.0013406901348466116 0 0 0 -0.0025469986887693419 -0.070319614413122275 -0.0099645886959831599 0 -0.0099645886959831599 -0.023397643964102887 0 0 0 -0.023429314594306284 -0.097587216249062234 0.010731747779484326 0 0.010731747779484326 -0.032469279499289634 0 0 0 -0.032514123937087969 -0.11132541624412672 0.010868255400588214 0 0.010868255400588214 -0.015140476092884741 0 0 0 -0.031616473084252875 -0.080684178954571958 -0.0098588368193651271 0 -0.0098588368193651271 -0.011248782536191597 0 0 0 -0.022983240372690887 -0.023393786394657196 -0.023355414329078339 0 -0.023355414329078339 0.0085552054918643372 0 0 0 -0.0037096452256981383 -0.035243950998076951 0.0028851769585168593 0 0.0028851769585168593 0.0014171188043862817 0 0 0 -0.0084567080484226585 -0.029768446886951988 -0.015460471610334019 0 -0.015460471610334019 0.0055970909643560662 0 0 0 -0.0060428389806489596 -0.028503351079726333 -0.015502593614779799 0 -0.015502593614779799 -0.00054996177050159467 0 0 0 -0.0072633282125569715 -0.030682095895237391 0.002233019419346379 0 0.002233019419346379 0.0012679802044467305 0 0 0 -0.0073535289226976715 -0.022339086903842349 0.0037259980651752939 0 0.0037259980651752939 -0.0043428550568333623 0 0 0 -0.0066704854901689283 -0.022199569939309133 0.0041836928676041024 0 0.0041836928676041024 -0.0038913598524617007 0 0 0 -0.0065227324479427053 -0.035482650638507765 -0.02639832330580244 0 -0.02639832330580244 0.088542878373929573 0 0 0 0.013265056933855442 0.0065306805096195658 -0.0047202080778439154 0 -0.0047202080778439154 0.24734410312449434 0 0 0 0.06346869590852848 -0.04755029740138593 -0.0087324094389906459 0 -0.0087324094389906459 0.010343973640063883 0 0 0 -0.0093015809403304422 -0.018067493181252753 -0.0034854706784346774 0 -0.0034854706784346774 0.034240266359941207 0 0 0 0.0040431932946720928 -0.026301361448230892 -0.0081161851259101414 0 -0.0081161851259101414 0.020570214760159078 0 0 0 -0.0014327866720179466 -0.022866151524939971 0.0051271607898458948 0 0.0051271607898458948 0.0039962898009411191 0 0 0 -0.0047174654309997156 -0.015613490835181598 0.023054141502733216 0 0.023054141502733216 0.039635249114554849 0 0 0 0.0060054395698433405 -0.021518884272861249 -0.010347890428496376 0 -0.010347890428496376 -0.0014540848303159493 0 0 0 -0.0057432422757942025 0.0033323102457613468 -0.019955167868323881 0 -0.019955167868323881 0.039464120585269935 0 0 0 0.01069910770775781 -0.014537213045236776 -0.0046880980386714913 0 -0.0046880980386714913 0.015612155574253536 0 0 0 0.00026873563225420297 -0.033434916876434406 0.020808815949905801 0 0.020808815949905801 0.0015981066531050026 0 0 0 -0.0079592025558326007 -0.019499886741994099 -0.020718858424355946 0 -0.020718858424355946 0.019729794937956013 0 0 0 5.7477048990450808e-05 -0.014031725234289971 -0.018191693979591989 0 -0.018191693979591989 0.017099940350167042 0 0 0 0.00076705377896935101 -0.018168385332489184 -0.0017795601944240735 0 -0.0017795601944240735 -0.010070663942890912 0 0 0 -0.0070597623188450032 -0.012541052950497927 -0.0064545051552893085 0 -0.0064545051552893085 0.045737140856077885 0 0 0 0.0082990219763950102 -0.023786647637111934 -0.0058935095519188282 0 -0.0058935095519188282 -0.007556155422644914 0 0 0 -0.0078357007649392102 -0.01623217563268526 -0.0056168096749780461 0 -0.0056168096749780461 -0.027127683650667755 0 0 0 -0.010839964820838301 -0.03850717036101204 0.0034415378957429158 0 0.0034415378957429158 -0.0044507153815216442 0 0 0 -0.010739471435633415 -0.034674279234312461 0.0035867134809699935 0 0.0035867134809699935 -0.0053195875391260656 0 0 0 -0.0099984666933596363 -0.035873986684836205 -0.0020112461231789457 0 -0.0020112461231789457 0.020672157508000378 0 0 0 -0.0038004572942089451 -0.035429672910664095 -0.011138437768957343 0 -0.011138437768957343 0.024832682130992767 0 0 0 -0.002649247694917839 -0.029548961025466881 0.0020279663846075485 0 0.0020279663846075485 -0.0036139096564498218 0 0 0 -0.0082907176704791787 -0.027204753993774391 0.003241716768024345 0 0.003241716768024345 0.0017773358300458841 0 0 0 -0.006356854540932131 -0.029270485053126603 0.0022693639361417591 0 0.0022693639361417591 0.0013990745301073098 0 0 0 -0.0069678526307548087 -0.010099942835771952 0.0057725510746678144 0 0.0057725510746678144 -0.019309272855527027 0 0 0 -0.0073523039228247933 -0.0044664718457212704 0.007077478300038631 0 0.007077478300038631 -0.0018778992339246736 0 0 0 -0.0015860927699114791 -0.0053146359875203483 -0.010839810135322536 0 -0.010839810135322536 0.0082653946204823137 0 0 0 0.0007376896582404549 -0.011769773236126796 -0.0093930701889909929 0 -0.0093930701889909929 -0.012044377298601083 0 0 0 -0.0059535376336819767 -0.011862404117104444 -0.026053964077828309 0 -0.026053964077828309 0.08864734308080105 0 0 0 0.019196234740924155 -0.0086059248423584478 0.016132110050683268 0 0.016132110050683268 0.025576775678461949 0 0 0 0.0042427127090263195 -0.0010387795317703397 -0.0025549613839375152 0 -0.0025549613839375152 -0.0040649896158089227 0 0 0 -0.0012759422868950931 -0.0062141573370337322 -0.013118757926218194 0 -0.013118757926218194 0.011264592415622832 0 0 0 0.0012626087696472887 -0.0012698291847709209 0.0031092957548719546 0 0.0031092957548719546 -0.0048847432652698863 0 0 0 -0.001538643112510063 -0.036637353824745311 0.027934051927894762 0 0.027934051927894762 -0.0037111345108025162 0 0 0 -0.010087122083887179 -0.022531845510551318 -0.023621219087120685 0 -0.023621219087120685 0.0093152779944656317 0 0 0 -0.0033041418790212829 -0.017047688269832717 -0.021868301280253799 0 -0.021868301280253799 0.0095791128670954517 0 0 0 -0.0018671438506843163 -0.032127972833765429 -0.0040964769820757661 0 -0.0040964769820757661 0.029153660068461422 0 0 0 -0.00074357819132601531 -0.0039149396734363684 0.0098445095101226121 0 0.0098445095101226121 0.010562684767636554 0 0 0 0.0016619362735501575 -0.00066587605144730055 -0.00051798216204787528 0 -0.00051798216204787528 0.00043468294970505639 0 0 0 -5.7798275435505531e-05 -0.0011940741338318794 0.00023999175528643946 0 0.00023999175528643946 0.0015155213669997281 0 0 0 8.0361808291851133e-05 -0.0034685701639248778 -0.0081901872019372046 0 -0.0081901872019372046 -0.00027275902096901561 0 0 0 -0.0009353322962234456 -0.021741494041517928 -0.0038217948749033198 0 -0.0038217948749033198 -0.018630898667261531 0 0 0 -0.010093098177194837 0.0080505305418560949 -0.020790733217040114 0 -0.020790733217040114 0.0083044785983708846 0 0 0 0.0040887522850567362 0.015190385539920415 -0.0015404134419613191 0 -0.0015404134419613191 0.06611751901287713 0 0 0 0.020326976138199393 0.023125778197606778 -1.3995475304368066e-05 0 -1.3995475304368066e-05 0.11946350211658097 0 0 0 0.035647320078546957 -0.019193996379180643 0.0045323559731914372 0 0.0045323559731914372 -0.0057410984432390497 0 0 0 -0.0062337737056049249 -0.056762743388841796 0.02786028550290337 0 0.02786028550290337 0.001350103740253239 0 0 0 -0.013853159912146973 -0.062055376266847873 0.025826791081601123 0 0.025826791081601123 -0.0015131358905939862 0 0 0 -0.015892128039360465 -0.022547996805694429 -0.0057147285995458041 0 -0.0057147285995458041 -0.0099817374449048882 0 0 0 -0.0081324335626498778 -0.028849537414398569 -0.0013003453539037722 0 -0.0013003453539037722 0.0092279243335138244 0 0 0 -0.0049054032702211823 -0.033356015367136144 -0.015202802753459865 0 -0.015202802753459865 0.0043654558069449352 0 0 0 -0.0072476398900477848 -0.028365058024577686 -0.018207123874321302 0 -0.018207123874321302 0.01427347061435965 0 0 0 -0.0035228968525544812 -0.039815705714132843 0.02889259593028165 0 0.02889259593028165 -0.0035752606991579228 0 0 0 -0.010847741603322802 -0.020936843267652439 -0.022433711390329514 0 -0.022433711390329514 0.010585626130542369 0 0 0 -0.0025878042842776283 -0.023135624431466995 -0.023183793266348951 0 -0.023183793266348951 0.0085303291179570362 0 0 0 -0.0036513238283775173 -0.063111219449543871 0.00025483114102958283 0 0.00025483114102958283 -0.0062894280959980807 0 0 0 -0.017350161886385489 -0.088461210762183787 -0.0057043835403976471 0 -0.0057043835403976471 -0.010213912072245243 0 0 0 -0.024668780708607254 -0.081444682117107772 -0.0093635354374265404 0 -0.0093635354374265404 -0.0008903727093897279 0 0 0 -0.020583763706624361 -0.059785334323449804 0.0026179125437272611 0 0.0026179125437272611 -0.00097201432934203649 0 0 0 -0.015189337163197966 -0.032599393092115084 -0.0019616624698321943 0 -0.0019616624698321943 0.013990653490059717 0 0 0 -0.004652184900513833 -0.052729033118914526 0.022901433600070464 0 0.022901433600070464 -0.0044782908456575399 0 0 0 -0.014301830991142905 -0.015726102053090218 -0.019369889543036756 0 -0.019369889543036756 0.018866483165162373 0 0 0 0.00078509527801806644 -0.017138781759898136 -0.019654923135955751 0 -0.019654923135955751 0.014836498461771708 0 0 0 -0.00057557082453163488 -0.038819635035622524 -0.022004935334170861 0 -0.022004935334170861 0.0062604351536404423 0 0 0 -0.0081397999704955759 -0.024269517825783689 -0.0047283553291667946 0 -0.0047283553291667946 -0.013161330153272338 0 0 0 -0.0093577119947640466 -0.018537395384588012 -0.010683007462448577 0 -0.010683007462448577 -0.0037083516505676539 0 0 0 -0.0055614367587889235 -0.028471250058821042 -0.0052116059252229341 0 -0.0052116059252229341 0.0096559775000502612 0 0 0 -0.0047038181396927004 -0.05339622531585065 0.0039446446605526063 0 0.0039446446605526063 -0.0035986373309817091 0 0 0 -0.014248715661708088 -0.066823860821701025 0.040769149069432742 0 0.040769149069432742 0.011703118255704525 0 0 0 -0.013780185641499215 -0.043825554212217677 -0.018740456484046847 0 -0.018740456484046847 0.0071693721236130159 0 0 0 -0.0091640455221512207 -0.017341670051457966 0.031094040390106104 0 0.031094040390106104 0.01148015645096026 0 0 0 -0.0014653784001242148 -0.027697232193378829 -0.017759602594224377 0 -0.017759602594224377 -0.0031539857616302847 0 0 0 -0.0077128044887523339 -0.014795125644571194 0.041541949291616587 0 0.041541949291616587 0.0052173896169303013 0 0 0 -0.0023944340069101955 -0.049798019455632329 0.0033656975343878751 0 0.0033656975343878751 0.00029652572416825201 0 0 0 -0.012375373432866014 -0.030116532081137758 -0.0002543039613945447 0 -0.0002543039613945447 0.0065491636063037999 0 0 0 -0.0058918421187084775 -0.038203395161096998 -0.020091850344614914 0 -0.020091850344614914 0.0015093012375311243 0 0 0 -0.00917352348089151 -0.0016269825924581233 0.0071602132550970254 0 0.0071602132550970254 0.027526335803054615 0 0 0 0.0064748383026491246 -0.0014153800866054111 -0.010149481713365438 0 -0.010149481713365438 0.055603363909772385 0 0 0 0.01354699595579173 -0.028644803308174985 0.0010170546349276563 0 0.0010170546349276563 0.00033808473946864408 0 0 0 -0.0070766796421765817 0.0011430475585281208 1.8621879136482278e-06 0 1.8621879136482278e-06 0.0014523700616493329 0 0 0 0.00064885440504447445 -0.0049460222920103547 0.0013522230131262081 0 0.0013522230131262081 -0.0003215757977068634 0 0 0 -0.0013168995224290825 9.1690779556730106e-06 -0.0093899465939226712 0 -0.0093899465939226712 0.025202993234508142 0 0 0 0.006303040578116037 -0.0054729709894394407 -0.0068275404340929491 0 -0.0068275404340929491 0.02383832042452072 0 0 0 0.0045913373587703754 -0.008311386220966277 0.008581914025242332 0 0.008581914025242332 0.049290811832574555 0 0 0 0.010244856402902069 0.00082626589836332087 -9.3157136107469007e-05 0 -9.3157136107469007e-05 0.00081277521836931044 0 0 0 0.00040976027918326885 0.0024287709520685041 0.0094371939632038604 0 0.0094371939632038604 0.052683280522614062 0 0 0 0.01377801286867042 -0.0038149289684611398 -0.0012315029891847296 0 -0.0012315029891847296 -0.00052052845634964484 0 0 0 -0.0010838643562026684 -0.023969913921471547 -0.0067967490669083586 0 -0.0067967490669083586 -0.01524000222922739 0 0 0 -0.009802479037674755 -0.025392087765415988 -0.0066037794073871333 0 -0.0066037794073871333 0.0082294281833741323 0 0 0 -0.0042906648955104709 -0.030745281825408893 -0.0078617857892458523 0 -0.0078617857892458523 0.0064169225171453181 0 0 0 -0.0060820898270658452 -0.015496733278682676 -0.0012441284034574451 0 -0.0012441284034574451 -0.016146653934980167 0 0 0 -0.0079108468034156977 -0.015648612798153855 0.00052416722471948507 0 0.00052416722471948507 -0.013024592873566498 0 0 0 -0.0071683014179300952 -0.022779019176309395 0.018732272174597678 0 0.018732272174597678 0.067297654225969977 0 0 0 0.011129658762415144 -0.038742393114717291 -0.012011147271277757 0 -0.012011147271277757 0.0073814719541659135 0 0 0 -0.007840230290137841 -0.040391352747040067 -0.018453674190572478 0 -0.018453674190572478 0.0035881922993618032 0 0 0 -0.0092007901119195781 -0.042431622316900716 0.0016874124446301804 0 0.0016874124446301804 0.0023736982327693945 0 0 0 -0.01001448102103283 -0.079022155955400519 0.028649886470611396 0 0.028649886470611396 0.002581146297262249 0 0 0 -0.019110252414534679 -0.064817183450137761 0.0400944915959352 0 0.0400944915959352 0.027536326771744779 0 0 0 -0.0093202141695981622 -0.018482528781517571 0.017971943461637579 0 0.017971943461637579 0.043472942433699313 0 0 0 0.0062476034130454355 -0.019963034076126679 -0.0081136809428715949 0 -0.0081136809428715949 0.011969162905443698 0 0 0 -0.0019984677926707384 -0.023134422639054159 -0.0078154814106383454 0 -0.0078154814106383454 0.012260936725678517 0 0 0 -0.002718371478343945 0.0016856591117054426 0.024354549013462984 0 0.024354549013462984 0.046131095985434578 0 0 0 0.011954188774285002 -0.044673938252558568 -0.018189371827767142 0 -0.018189371827767142 0.012856751351266849 0 0 0 -0.0079542967253228986 -0.052151503662166088 -0.01265949586440418 0 -0.01265949586440418 0.0010910187101925428 0 0 0 -0.012765121237993393 -0.015986730482326211 0.015954490189526348 0 0.015954490189526348 0.032750535537580089 0 0 0 0.0041909512638134555 -0.0075034547901784501 0.019470786741730313 0 0.019470786741730313 0.026025356260500364 0 0 0 0.0046304753675804819 -0.031136112115038472 -0.010351665472622978 0 -0.010351665472622978 0.016778738290010864 0 0 0 -0.0035893434562568882 -0.029269975505402099 -0.0029685220071705553 0 -0.0029685220071705553 0.0074291276370586148 0 0 0 -0.0054602119670858779 -0.028946157724319455 -0.0021496503549450884 0 -0.0021496503549450884 0.01369352015986014 0 0 0 -0.0038131593911148176 -0.029495197196941148 -0.0010728142754889616 0 -0.0010728142754889616 0.023077465953920361 0 0 0 -0.0016044328107551898 0.0019550046552579969 0.015387229114991907 0 0.015387229114991907 0.087842920774948041 0 0 0 0.022449481357551426 -0.022688811774202733 -0.0046828271516664577 0 -0.0046828271516664577 0.00013794643482967217 0 0 0 -0.0056377163348432791 -0.049796173593854985 0.0050722052113604879 0 0.0050722052113604879 0.00036403185966622092 0 0 0 -0.012358035433547203 -0.021329824900247433 0.0035997965229823039 0 0.0035997965229823039 -0.0081300958822859669 0 0 0 -0.0073649801956333499 0.022754973947381407 0.01443313154690995 0 0.01443313154690995 0.051322561008325662 0 0 0 0.018519383738926865 -0.020090152409136058 -0.0045187389790354304 0 -0.0045187389790354304 -0.014012944020267759 0 0 0 -0.0085257741073509752 -0.045045180104499927 -0.018274708500652395 0 -0.018274708500652395 -0.0010225011809682771 0 0 0 -0.011516920321367058 -0.06261827542992382 -0.014717606425315312 0 -0.014717606425315312 0.0012584323591031954 0 0 0 -0.015339960767705135 -0.025908500837407783 -0.0071712693086395385 0 -0.0071712693086395385 0.032879598801293208 0 0 0 0.0017427744909713494 
</DataArray>
<DataArray type="Float64" Name="cross_section_updated" format="ascii">
0.0010058814344388613 0.0010146860056456312 0.0010203027922631119 0.001025648851604653 0.0010312496699319445 0.0010375051911903391 0.0010444645656308353 0.0010514175463917561 0.0010582912108826649 0.001064742962696731 0.0020215168445476234 0.00205610546317858 0.0020804475447753208 0.0021026863755074865 0.0021246927161625386 0.0021466225221319344 0.0021684586125193263 0.0021895487637750249 0.0022101535742119764 0.0022300708140058651 1 1 1 1 1 1 1 1 1 1 1 1 1 1 1 1 1 1 1 1 1 1 1 1 1 1 1 1 1 1 1 1 1 1 1 1 1 1 1 1 1 1 1 1 1 1 1 1 1 1 1 1 1 1 1 1 1 1 1 1 1 1 1 1 1 1 1 1 1 1 1 1 1 1 1 1 1 1 1 1 1 1 1 1 1 1 1 1 1 1 1 1 1 1 1 1 1 1 1 1 1 1 1 1 1 1 1 1 1 1 1 1 1 1 1 1 1 1 1 1 1 1 1 1 1 1 1 1 1 1 1 1 1 1 1 1 1 1 1 1 1 1 1 1 1 1 1 1 1 1 1 1 1 1 1 1 1 1 1 1 1 1 1 1 1 1 1 1 1 1 1 1 1 1 1 1 1 1 1 1 1 1 1 1 1 1 1 1 1 1 1 1 1 1 1 1 1 1 1 1 1 1 1 1 1 1 1 1 1 1 1 1 1 1 1 1 1 1 1 1 1 1 1 1 1 1 1 1 1 1 1 1 1 1 1 1 1 1 1 1 1 1 1 1 1 1 1 1 1 1 1 1 1 1 1 1 1 1 1 1 1 1 1 1 1 1 1 1 1 1 1 1 1 1 1 1 1 1 1 1 1 1 1 1 1 1 1 1 1 1 1 1 1 1 1 1 1 1 1 1 1 1 1 1 1 1 1 1 1 1 1 1 1 1 1 1 1 1 1 1 1 1 1 1 1 1 1 1 1 1 1 1 1 1 1 1 1 1 1 1 1 1 1 1 1 1 1 1 1 1 1 1 1 1 1 1 1 1 1 1 1 1 1 1 1 1 1 1 1 1 1 1 1 1 1 1 1 1 1 1 1 1 1 1 1 1 1 1 1 1 1 1 1 1 1 1 1 1 1 1 1 1 1 1 1 1 1 1 1 1 1 1 1 1 1 1 1 1 1 1 1 1 1 1 1 1 1 1 1 1 1 1 1 1 1 1 1 1 1 1 1 1 1 1 1 1 1 1 1 1 1 1 1 1 1 1 1 1 1 1 1 1 1 1 1 1 1 1 1 1 1 1 1 1 1 1 1 1 1 1 1 1 1 1 1 1 1 1 1 1 1 1 1 1 1 1 1 1 1 1 1 1 1 1 1 1 1 1 1 1 1 1 1 1 1 1 1 1 1 1 1 1 1 1 1 1 1 1 1 1 1 1 1 1 1 1 1 1 1 1 1 1 1 1 1 1 1 1 1 1 1 1 1 1 1 1 1 1 1 1 1 1 1 1 1 1 1 1 1 1 1 1 1 1 1 1 1 1 1 1 1 1 1 1 1 1 1 1 1 1 1 1 1 1 1 1 1 1 1 1 1 1 1 1 1 1 1 1 1 1 1 1 1 1 1 1 1 1 1 1 1 1 1 1 1 1 1 1 1 1 1 1 1 1 1 1 1 1 1 1 1 1 1 1 1 1 1 1 1 1 1 1 1 1 1 1 1 1 1 1 1 1 1 1 1 1 1 1 1 1 1 1 1 1 1 1 1 1 1 1 1 1 1 1 1 1 1 1 1 1 1 1 1 1 1 1 1 1 1 1 1 1 1 1 1 1 1 1 1 1 1 1 1 1 1 1 1 1 1 1 1 1 1 1 1 1 1 1 1 1 1 1 1 1 1 1 1 1 1 1 1 1 1 1 1 1 1 1 1 1 1 1 1 1 1 1 1 1 1 1 1 1 1 1 1 1 1 1 1 1 1 1 1 1 1 1 1 1 1 1 1 1 1 1 1 1 1 1 1 1 1 1 1 1 1 1 1 1 1 1 1 1 1 1 1 1 1 1 1 1 1 1 1 1 1 1 1 1 1 1 1 1 1 1 1 1 1 1 1 1 1 1 1 1 1 1 1 1 1 1 1 1 1 1 1 1 1 1 1 1 1 1 1 1 1 1 1 1 1 1 1 1 1 1 1 1 1 1 1 1 1 1 1 1 1 1 1 1 1 1 1 1 1 1 1 1 1 1 1 1 1 1 1 1 1 1 1 1 1 1 1 1 1 1 1 1 1 1 1 1 1 1 1 1 1 1 1 1 1 1 1 1 1 1 1 1 1 1 1 1 1 1 1 1 1 1 1 1 1 1 1 1 1 1 1 1 1 1 1 1 1 1 1 1 1 1 1 1 1 1 1 1 1 1 1 1 1 1 1 1 1 1 1 1 1 1 1 1 1 1 1 1 1 1 1 1 1 1 1 1 1 1 1 1 1 1 1 1 1 1 1 1 1 1 1 1 1 1 1 1 1 1 1 1 1 1 1 1 1 1 1 1 1 1 1 1 1 1 1 1 1 1 1 1 
</DataArray>
</CellData>
</Piece>
</UnstructuredGrid>
</VTKFile>
