<?xml version="1.0"?>
<VTKFile type="UnstructuredGrid" version="0.1" byte_order="LittleEndian">
<UnstructuredGrid>
<Piece NumberOfPoints="3142" NumberOfCells="1054">
<Points>
<DataArray type="Float64" NumberOfComponents="3" format="ascii">
0.5 0.29999999999999999 0 0.54999999999999993 0.29999999999999999 0 0.54999999999999993 0.29999999999999999 0 0.59999999999999976 0.29999999999999999 0 0.59999999999999976 0.29999999999999999 0 0.6499999999999998 0.29999999999999999 0 0.6499999999999998 0.29999999999999999 0 0.69999999999999984 0.29999999999999999 0 0.69999999999999984 0.29999999999999999 0 0.74999999999999989 0.29999999999999999 0 0.74999999999999989 0.29999999999999999 0 0.79999999999999982 0.29999999999999999 0 0.79999999999999982 0.29999999999999999 0 0.84999999999999987 0.29999999999999999 0 0.84999999999999987 0.29999999999999999 0 0.89999999999999991 0.29999999999999999 0 0.89999999999999991 0.29999999999999999 0 0.94999999999999996 0.29999999999999999 0 0.94999999999999996 0.29999999999999999 0 1 0.29999999999999999 0 0.5 0.69999999999999996 0 0.54999999999999993 0.69999999999999996 0 0.54999999999999993 0.69999999999999996 0 0.59999999999999976 0.69999999999999996 0 0.59999999999999976 0.69999999999999996 0 0.6499999999999998 0.69999999999999996 0 0.6499999999999998 0.69999999999999996 0 0.69999999999999984 0.69999999999999996 0 0.69999999999999984 0.69999999999999996 0 0.74999999999999989 0.69999999999999996 0 0.74999999999999989 0.69999999999999996 0 0.79999999999999982 0.69999999999999996 0 0.79999999999999982 0.69999999999999996 0 0.84999999999999987 0.69999999999999996 0 0.84999999999999987 0.69999999999999996 0 0.89999999999999991 0.69999999999999996 0 0.89999999999999991 0.69999999999999996 0 0.94999999999999996 0.69999999999999996 0 0.94999999999999996 0.69999999999999996 0 1 0.69999999999999996 0 0.40076539126862748 0.34589349467022118 0 0.33277555741076909 0.36432196682010132 0 0.36575549820117997 0.31677992835137742 0 0.38083244760691543 0.38531983672244652 0 0.33277555741076909 0.36432196682010132 0 0.40076539126862748 0.34589349467022118 0 0.56836770495988642 0.3523062350852913 0 0.52289427570932567 0.3932284363388488 0 0.52752007115234678 0.33170632466418198 0 0.52752007115234678 0.33170632466418198 0 0.52289427570932567 0.3932284363388488 0 0.49077833859261139 0.35229981449445641 0 0.10000000000041601 1 0 0.053064897599294662 0.95186845269532028 0 0.10266856499240549 0.95548163909968886 0 0.099999999999814668 0 0 0.10266856499169109 0.044518360900210059 0 0.053064897599215843 0.048131547304697528 0 0.050000000000207989 1 0 0.053064897599294662 0.95186845269532028 0 0.10000000000041601 1 0 0.049999999999899652 0 0 0.099999999999814668 0 0 0.053064897599215843 0.048131547304697528 0 0.24999999999941211 0 0 0.29999999999926641 0 0 0.27499999999933927 0.060310814194988557 0 0.30000000000124832 1 0 0.25000000000104028 1 0 0.27609987656793722 0.94991445621608572 0 0.15720202157091859 0.60665697304410315 0 0.19914261668318661 0.62286739485272158 0 0.16500388252850301 0.66612077714085194 0 0.2236846579037573 0.67380363126050236 0 0.16500388252850301 0.66612077714085194 0 0.19914261668318661 0.62286739485272158 0 0.1247745017231483 0.27198077544791172 0 0.168349569971391 0.28054490850913671 0 0.14223753364722069 0.3341983344262433 0 0 0.75000000000034661 0 0 0.7000000000006934 0 0.049706944316475897 0.72477277076253799 0 0 0.30000000000124832 0 0 0.25000000000104028 0 0.049706944316556423 0.27522722923869108 0 0.59999999999999976 0.29999999999999999 0 0.61959173890754571 0.33832250091341232 0 0.56836770495988642 0.3523062350852913 0 0.5 0.69999999999999996 0 0.43323420005758778 0.6913544522562407 0 0.47913475093885149 0.66010775372412711 0 1 0.14999999999961891 0 0.95391631417672862 0.19584263333809451 0 0.93677536231883773 0.14999999999999089 0 1 0.84999999999982645 0 0.95391631417670719 0.89584263333814784 0 0.93677536231884972 0.85000000000000286 0 1 0.84999999999982645 0 0.93677536231884972 0.85000000000000286 0 0.95386563387742829 0.80414874155775029 0 1 0.14999999999961891 0 0.93677536231883773 0.14999999999999089 0 0.95386563387744361 0.1041487415577465 0 0.90416666666660628 0.9041666666666166 0 0.88088768115933802 0.84674609810493673 0 0.93677536231884972 0.85000000000000286 0 0.90416666666668166 0.20416666666667119 0 0.88088768115941807 0.14674609810479519 0 0.93677536231883773 0.14999999999999089 0 0.1247745017231483 0.27198077544791172 0 0.14223753364722069 0.3341983344262433 0 0.093851963071650835 0.30582068233324772 0 0.5 0.69999999999999996 0 0.45582236402875981 0.73896743678908217 0 0.43323420005758778 0.6913544522562407 0 0.55000000000173355 1 0 0.50000000000205869 1 0 0.52122150208832174 0.94089974453840242 0 0.49999999999869432 0 0 0.5499999999988151 0 0 0.52375890611712683 0.059318771819432882 0 0.54999999999999993 0.29999999999999999 0 0.59999999999999976 0.29999999999999999 0 0.56836770495988642 0.3523062350852913 0 0.50202631463681879 0.87892870825713787 0 0.44003836461056539 0.88093474584252718 0 0.45677673713123867 0.84253684404072415 0 0.33403534827021109 0.84402799729020661 0 0.35864759629805099 0.87963482415279515 0 0.30864387279288652 0.89906554525974958 0 0.53245488764484505 0.55078124999999989 0 0.47793794143994173 0.52940715638744962 0 0.53330375813596242 0.50827942741749099 0 0.82709327591102189 0.14937141670914489 0 0.81283102246527783 0.1881007222486438 0 0.77144070960558853 0.14311854477243749 0 0.82709327591091286 0.84937141670920724 0 0.81159157511211755 0.88795995483179491 0 0.76901770135486491 0.84293557325473656 0 0.77144070960558853 0.14311854477243749 0 0.81283102246527783 0.1881007222486438 0 0.76587607630038135 0.18880039518954719 0 0.76901770135486491 0.84293557325473656 0 0.81159157511211755 0.88795995483179491 0 0.76891166905518427 0.88835469571185499 0 0.33403534827021109 0.84402799729020661 0 0.30864387279288652 0.89906554525974958 0 0.29209212897034281 0.84715728365233667 0 0.57412547362576272 0.58273804879550706 0 0.5166924242153631 0.59825134841919447 0 0.53245488764484505 0.55078124999999989 0 0.50202631463681879 0.87892870825713787 0 0.47401147028110507 0.91529957330468115 0 0.44003836461056539 0.88093474584252718 0 0.5 0.69999999999999996 0 0.54999999999999993 0.69999999999999996 0 0.55363780716230748 0.74348740161571747 0 1 0.34999999999993492 0 0.95871855522754235 0.40006508612975411 0 0.95780851984364423 0.34215720972155339 0 1 0.64999999999986979 0 0.9578014258160763 0.65787212321113708 0 0.95867599106212187 0.60011091146651041 0 0.46666084890304671 0.57634471035397938 0 0.47793794143994173 0.52940715638744962 0 0.53245488764484505 0.55078124999999989 0 0.94999999999999996 0.29999999999999999 0 0.89898474358614167 0.25391965591104898 0 0.94399509803921056 0.24399509803922639 0 0.94999999999979179 1 0 0.89898474358632463 0.95391965591118966 0 0.94399509803919068 0.9439950980391687 0 0 0.65000000000104008 0 0.050069554451969707 0.61308520079857043 0 0.046634677244967337 0.671418230738282 0 0 0.35000000000145642 0 0.046389130980076937 0.32668781832131749 0 0.050583896093752537 0.38543522283434112 0 0.50202631463681879 0.87892870825713787 0 0.50627822638148745 0.8263979829520941 0 0.55899371797446828 0.85003102233514438 0 0.54782696902220018 0.79245182748204157 0 0.55899371797446828 0.85003102233514438 0 0.50627822638148745 0.8263979829520941 0 0.50945740445113552 0.75476055527778108 0 0.5 0.69999999999999996 0 0.55363780716230748 0.74348740161571747 0 0.84999999999965292 1 0 0.85170973911348691 0.93569607295217616 0 0.89898474358632463 0.95391965591118966 0 0.84999999999999987 0.29999999999999999 0 0.8517097391133297 0.2356960729520409 0 0.89898474358614167 0.25391965591104898 0 0.86956835336234861 0.571283299838105 0 0.82862096804812391 0.55037090955459045 0 0.86907294890112186 0.52008116128001669 0 0.49102375406324739 0.49123754822244059 0 0.53330375813596242 0.50827942741749099 0 0.47793794143994173 0.52940715638744962 0 0.57611405284611883 0.50165903596042916 0 0.61547661924074692 0.48539576058873962 0 0.62042975506801734 0.54295974692364424 0 0.71406021706547751 0.63292083137662503 0 0.67529834988829951 0.61613270668143583 0 0.71809016091162536 0.58185040402320831 0 0.65000000000104008 1 0 0.62065498684670595 0.95224934003983619 0 0.68015064798562208 0.95924320340003011 0 0.84999999999960507 0 0 0.899991664607802 0.045289349238254978 0 0.85491058998398861 0.060047533455626502 0 0.84999999999999987 0.69999999999999996 0 0.89999166460796554 0.74528934923809909 0 0.85491058998424563 0.76004753345552634 0 0.89999999999999991 0.29999999999999999 0 0.89898474358614167 0.25391965591104898 0 0.94999999999999996 0.29999999999999999 0 0.94999999999979179 1 0 0.89999999999958358 1 0 0.89898474358632463 0.95391965591118966 0 0.86411095495256451 0.42388805655111889 0 0.81308179852519835 0.39754945808726527 0 0.86844634540301924 0.38530937474099819 0 0.5 0.29999999999999999 0 0.49695729691142171 0.25014895411178018 0 0.54248833945060504 0.2520322959927106 0 0.86411095495256451 0.42388805655111889 0 0.81973119833356312 0.43505687159469048 0 0.81308179852519835 0.39754945808726527 0 0.67323294229744413 0.57556450033612505 0 0.71809016091162536 0.58185040402320831 0 0.67529834988829951 0.61613270668143583 0 0.6236733212988993 0.14864538214901801 0 0.68391457121233579 0.14440470121196541 0 0.64011864159029941 0.18789607982138171 0 0 0.050000000000207989 0 0.053064897599215843 0.048131547304697528 0 0.044310582753132287 0.101412518374475 0 0 0.94999999999979179 0 0.0443105827531413 0.89858748162559932 0 0.053064897599294662 0.95186845269532028 0 1 0.34999999999993492 0 1 0.39999999999978308 0 0.95871855522754235 0.40006508612975411 0 1 0.59999999999973963 0 1 0.64999999999986979 0 0.95867599106212187 0.60011091146651041 0 0 0.84999999999965292 0 0.065374659239661639 0.8551091961254178 0 0.0443105827531413 0.89858748162559932 0 0 0.15000000000062411 0 0.044310582753132287 0.101412518374475 0 0.065374659239632718 0.1448908038746782 0 0.16500388252850301 0.66612077714085194 0 0.1020579365089687 0.69352219419301997 0 0.1241190223511371 0.64391885572885044 0 0.14999999999970359 0 0 0.14618258501891079 0.062070108745602003 0 0.10266856499169109 0.044518360900210059 0 0.15000000000062411 1 0 0.10266856499240549 0.95548163909968886 0 0.14617343800780541 0.93808063414349496 0 0.7152569930854884 0.5237994455134295 0 0.67569444444444449 0.53500863336860327 0 0.69385896817107129 0.48377516041410151 0 0.6541250972820879 0.49999999999999989 0 0.62042975506801734 0.54295974692364424 0 0.61547661924074692 0.48539576058873962 0 0.94999999999999996 0.69999999999999996 0 0.94399509803918602 0.75600490196082126 0 0.89999166460796554 0.74528934923809909 0 0.94999999999986839 0 0 0.94399509803922566 0.056004901960802607 0 0.899991664607802 0.045289349238254978 0 0.6541250972820879 0.49999999999999989 0 0.69385896817107129 0.48377516041410151 0 0.67569444444444449 0.53500863336860327 0 0.82862096804812391 0.55037090955459045 0 0.81723410853263523 0.59419663659258926 0 0.77151014687832564 0.54436834383023036 0 0.7250000000005199 0.89375000000045834 0 0.66412543161245952 0.88015090885499059 0 0.68697391633157634 0.84450604838764298 0 0 0.94999999999979179 0 0 0.89999999999958358 0 0.0443105827531413 0.89858748162559932 0 0 0.10000000000041601 0 0 0.050000000000207989 0 0.044310582753132287 0.101412518374475 0 0.16500388252850301 0.66612077714085194 0 0.15332765547575641 0.71200081858233666 0 0.1020579365089687 0.69352219419301997 0 0.90299850604011456 0.79563452813489832 0 0.93677536231884972 0.85000000000000286 0 0.88088768115933802 0.84674609810493673 0 0.90299850604006393 0.09563452813493091 0 0.93677536231883773 0.14999999999999089 0 0.88088768115941807 0.14674609810479519 0 0.68391457121233579 0.14440470121196541 0 0.6865991819015953 0.189116534044597 0 0.64011864159029941 0.18789607982138171 0 0.085622222639554768 0.53333248912060549 0 0.1216098864341134 0.50637075089503902 0 0.1154888278694548 0.56733818459978413 0 0.21858834311891909 0.81980263716112767 0 0.22556077506376701 0.77837424984191617 0 0.26104540868854792 0.81401944968719064 0 0.81723410853263523 0.59419663659258926 0 0.77293540622714185 0.59448302402785813 0 0.77151014687832564 0.54436834383023036 0 0.1154888278694548 0.56733818459978413 0 0.1216098864341134 0.50637075089503902 0 0.14934928745814749 0.55042914607228977 0 0.1216098864341134 0.50637075089503902 0 0.068743045408989428 0.48853989837882689 0 0.113541300460994 0.46208784312094731 0 0.078358742472063481 0.43365249433908948 0 0.113541300460994 0.46208784312094731 0 0.068743045408989428 0.48853989837882689 0 0.83573492347052902 0.36590755630746369 0 0.81308179852519835 0.39754945808726527 0 0.78145581580700685 0.34881365920033602 0 0.57611405284611883 0.50165903596042916 0 0.62042975506801734 0.54295974692364424 0 0.57435499076887508 0.54267261987897775 0 0.86956835336234861 0.571283299838105 0 0.81723410853263523 0.59419663659258926 0 0.82862096804812391 0.55037090955459045 0 0.46666084890304671 0.57634471035397938 0 0.53245488764484505 0.55078124999999989 0 0.5166924242153631 0.59825134841919447 0 0.89999999999999991 0.69999999999999996 0 0.94999999999999996 0.69999999999999996 0 0.89999166460796554 0.74528934923809909 0 0.89999999999973679 0 0 0.94999999999986839 0 0 0.899991664607802 0.045289349238254978 0 0.84999999999960507 0 0 0.89999999999973679 0 0 0.899991664607802 0.045289349238254978 0 0.84999999999999987 0.69999999999999996 0 0.89999999999999991 0.69999999999999996 0 0.89999166460796554 0.74528934923809909 0 0.43545892161006339 0.61093128915313821 0 0.4089290844030305 0.58728915500154233 0 0.46666084890304671 0.57634471035397938 0 0.1650278706801647 0.38791388161335733 0 0.1117088112799664 0.38831403004970022 0 0.14223753364722069 0.3341983344262433 0 0.087545339447545459 0.35122518864182262 0 0.14223753364722069 0.3341983344262433 0 0.1117088112799664 0.38831403004970022 0 0.6916490518212759 0.75387992374886192 0 0.72501250972655151 0.74067302935308721 0 0.72500000000000064 0.7952620967744265 0 0.72501250972655151 0.74067302935308721 0 0.75841349681148107 0.75422312624214749 0 0.72500000000000064 0.7952620967744265 0 0.57412547362576272 0.58273804879550706 0 0.53245488764484505 0.55078124999999989 0 0.57435499076887508 0.54267261987897775 0 1 0.54999999999963112 0 0.95867599106212187 0.60011091146651041 0 0.93732437411268477 0.55911392101136159 0 1 0.44999999999963131 0 0.93814194660195893 0.44426664081746747 0 0.95871855522754235 0.40006508612975411 0 0.4089290844030305 0.58728915500154233 0 0.42644501560315817 0.54603747078095544 0 0.46666084890304671 0.57634471035397938 0 0.89999999999958358 1 0 0.84999999999965292 1 0 0.89898474358632463 0.95391965591118966 0 0.84999999999999987 0.29999999999999999 0 0.89898474358614167 0.25391965591104898 0 0.89999999999999991 0.29999999999999999 0 0.29999999999926641 0 0 0.32541448401678508 0.046215317981507749 0 0.27499999999933927 0.060310814194988557 0 0.30000000000124832 1 0 0.27609987656793722 0.94991445621608572 0 0.32544832635163229 0.95485394099568932 0 0.57412547362576272 0.58273804879550706 0 0.62042975506801734 0.54295974692364424 0 0.63065402604362242 0.59661356661633302 0 0.5 0.29999999999999999 0 0.54248833945060504 0.2520322959927106 0 0.54999999999999993 0.29999999999999999 0 0.67323294229744413 0.57556450033612505 0 0.62042975506801734 0.54295974692364424 0 0.67569444444444449 0.53500863336860327 0 0.6541250972820879 0.49999999999999989 0 0.67569444444444449 0.53500863336860327 0 0.62042975506801734 0.54295974692364424 0 1 0.14999999999961891 0 1 0.19999999999974799 0 0.95391631417672862 0.19584263333809451 0 1 0.84999999999982645 0 1 0.8999999999998336 0 0.95391631417670719 0.89584263333814784 0 1 0.7999999999998193 0 1 0.84999999999982645 0 0.95386563387742829 0.80414874155775029 0 1 0.099999999999753911 0 1 0.14999999999961891 0 0.95386563387744361 0.1041487415577465 0 0.4656888918609538 0.78493261229743638 0 0.50627822638148745 0.8263979829520941 0 0.45677673713123867 0.84253684404072415 0 0.6879972333610942 0.43038561374960838 0 0.72622533758026719 0.40265885511101601 0 0.73483647259922602 0.44789725365921768 0 0.67323294229744413 0.57556450033612505 0 0.67569444444444449 0.53500863336860327 0 0.71809016091162536 0.58185040402320831 0 0.7152569930854884 0.5237994455134295 0 0.71809016091162536 0.58185040402320831 0 0.67569444444444449 0.53500863336860327 0 0.65394964615507722 0.22666784374016369 0 0.59814117807200873 0.23398510860739519 0 0.64011864159029941 0.18789607982138171 0 0.55000000000173355 1 0 0.52122150208832174 0.94089974453840242 0 0.57382506491224949 0.9629411906298494 0 0.39801143831225599 0.16651381068160659 0 0.44288491854585582 0.14116182884956319 0 0.42905200079338551 0.19982395548231649 0 0.47357141910802508 0.1873585799078378 0 0.42905200079338551 0.19982395548231649 0 0.44288491854585582 0.14116182884956319 0 0.90594285160987287 0.4141265964174129 0 0.88594198078881503 0.46167788676578442 0 0.86411095495256451 0.42388805655111889 0 0.65507451745379841 0.92229208810758578 0 0.68015064798562208 0.95924320340003011 0 0.62065498684670595 0.95224934003983619 0 0.35312867752657662 0.084946736076730367 0 0.39591832466117061 0.056982757562006353 0 0.39823268594401579 0.1116623613130045 0 0.43698630808430822 0.080423614171545449 0 0.39823268594401579 0.1116623613130045 0 0.39591832466117061 0.056982757562006353 0 0.4367309254023824 0.92065556789053882 0 0.39641108128798319 0.94356127926187128 0 0.39767323751400468 0.89584229130535065 0 0.35752321586431363 0.9185439911803448 0 0.39767323751400468 0.89584229130535065 0 0.39641108128798319 0.94356127926187128 0 0.77354604466818633 0.40378688774472771 0 0.77972660463949339 0.45529290596363098 0 0.73483647259922602 0.44789725365921768 0 0.5499999999988151 0 0 0.57396793757665954 0.037011367187645222 0 0.52375890611712683 0.059318771819432882 0 0.64753070846764316 0.77332939069435502 0 0.60294066490120068 0.80851322453934582 0 0.59636844454254345 0.75937156204589151 0 0.49102375406324739 0.49123754822244059 0 0.48858720058566618 0.43964267759203868 0 0.53823865529665704 0.45873898050322898 0 0.28307294598219601 0.50789252727458634 0 0.29110487519241501 0.56588143995431495 0 0.25115337790845271 0.54719303014923271 0 0.79680861578988083 0.92656778056766709 0 0.81159157511211755 0.88795995483179491 0 0.85170973911348691 0.93569607295217616 0 0.79680861578956375 0.22656778056752541 0 0.81283102246527783 0.1881007222486438 0 0.8517097391133297 0.2356960729520409 0 0.57412547362576272 0.58273804879550706 0 0.57435499076887508 0.54267261987897775 0 0.62042975506801734 0.54295974692364424 0 0.93814194660195893 0.44426664081746747 0 0.88594198078881503 0.46167788676578442 0 0.90594285160987287 0.4141265964174129 0 0.7152569930854884 0.5237994455134295 0 0.73947346780852752 0.49062440112282169 0 0.77151014687832564 0.54436834383023036 0 0 0.7000000000006934 0 0.046634677244967337 0.671418230738282 0 0.049706944316475897 0.72477277076253799 0 0 0.30000000000124832 0 0.049706944316556423 0.27522722923869108 0 0.046389130980076937 0.32668781832131749 0 0.59814117807200873 0.23398510860739519 0 0.59443395090188023 0.18455690917515069 0 0.64011864159029941 0.18789607982138171 0 0.21858834311891909 0.81980263716112767 0 0.26104540868854792 0.81401944968719064 0 0.2401283238295133 0.85648409884788523 0 0.39536230704883951 0.84069429572832477 0 0.45677673713123867 0.84253684404072415 0 0.44003836461056539 0.88093474584252718 0 0.086179601630648681 0.64647209519980475 0 0.050069554451969707 0.61308520079857043 0 0.1024350934457823 0.60772393977513839 0 0.077693244765132896 0.56932317963405099 0 0.1024350934457823 0.60772393977513839 0 0.050069554451969707 0.61308520079857043 0 0.078358742472063481 0.43365249433908948 0 0.050583896093752537 0.38543522283434112 0 0.1117088112799664 0.38831403004970022 0 0.087545339447545459 0.35122518864182262 0 0.1117088112799664 0.38831403004970022 0 0.050583896093752537 0.38543522283434112 0 0.33403534827021109 0.84402799729020661 0 0.35642984951668422 0.80994399665655703 0 0.39536230704883951 0.84069429572832477 0 0.28307294598219601 0.50789252727458634 0 0.33190227185843768 0.52715113583864037 0 0.29110487519241501 0.56588143995431495 0 0.2236846579037573 0.67380363126050236 0 0.19068556247388771 0.71028988922845504 0 0.16500388252850301 0.66612077714085194 0 0.26104540868854792 0.81401944968719064 0 0.22556077506376701 0.77837424984191617 0 0.2792923945214143 0.77665808831789485 0 0.38244435121258652 0.51653317813019495 0 0.37272913873093971 0.56192925302619479 0 0.33190227185843768 0.52715113583864037 0 0.25195515620380449 0.25883339815888678 0 0.29132859388405002 0.27203693976649962 0 0.24432083401701241 0.3006253385567515 0 0.29348325746214782 0.31350119524708198 0 0.24432083401701241 0.3006253385567515 0 0.29132859388405002 0.27203693976649962 0 0 0.89999999999958358 0 0 0.84999999999965292 0 0.0443105827531413 0.89858748162559932 0 0 0.15000000000062411 0 0 0.10000000000041601 0 0.044310582753132287 0.101412518374475 0 0.59999999999999976 0.69999999999999996 0 0.59636844454254345 0.75937156204589151 0 0.55363780716230748 0.74348740161571747 0 0.1650278706801647 0.38791388161335733 0 0.22033343844674469 0.36963382230740238 0 0.191953871957803 0.42546416763755879 0 0.52289427570932567 0.3932284363388488 0 0.46655310992796922 0.39650496622958609 0 0.49077833859261139 0.35229981449445641 0 0.91696753777131557 0.497780560203536 0 0.88594198078881503 0.46167788676578442 0 0.93814194660195893 0.44426664081746747 0 0.24999999999941211 0 0 0.27499999999933927 0.060310814194988557 0 0.22668068146512929 0.045875643423131329 0 0.25000000000104028 1 0 0.22850979588452081 0.95594428570238643 0 0.27609987656793722 0.94991445621608572 0 0.77846603114747959 0.49850927265137401 0 0.77151014687832564 0.54436834383023036 0 0.73947346780852752 0.49062440112282169 0 0.27499999999933927 0.060310814194988557 0 0.27474541102162192 0.11822029332053539 0 0.24218496799700481 0.089025544070598317 0 0.27270076654418179 0.87751467830216623 0 0.29209212897034281 0.84715728365233667 0 0.30864387279288652 0.89906554525974958 0 0.3096713403101819 0.085471541595262421 0 0.27474541102162192 0.11822029332053539 0 0.27499999999933927 0.060310814194988557 0 0.17933913398461551 0.2350063570234002 0 0.18124454140915969 0.18790916706335251 0 0.224700362040408 0.22206622194729711 0 0.18269480424590959 0.75905448272264375 0 0.22556077506376701 0.77837424984191617 0 0.17777405986036951 0.81832336108265358 0 0.35864759629805099 0.87963482415279515 0 0.33403534827021109 0.84402799729020661 0 0.39536230704883951 0.84069429572832477 0 0.77354604466818633 0.40378688774472771 0 0.73483647259922602 0.44789725365921768 0 0.72622533758026719 0.40265885511101601 0 0.80185942888539485 0.77452061303608133 0 0.85491058998424563 0.76004753345552634 0 0.84725310900444062 0.80779732082917555 0 0.80185942888501827 0.074520613036224564 0 0.85491058998398861 0.060047533455626502 0 0.84725310900442086 0.10779732082922661 0 0.086179601630648681 0.64647209519980475 0 0.046634677244967337 0.671418230738282 0 0.050069554451969707 0.61308520079857043 0 0.087545339447545459 0.35122518864182262 0 0.050583896093752537 0.38543522283434112 0 0.046389130980076937 0.32668781832131749 0 0 0.75000000000034661 0 0.049706944316475897 0.72477277076253799 0 0.04408157711937423 0.7728941757575627 0 0 0.25000000000104028 0 0.044081577119474857 0.2271058242433576 0 0.049706944316556423 0.27522722923869108 0 0.52289427570932567 0.3932284363388488 0 0.56836770495988642 0.3523062350852913 0 0.57744073070774993 0.41535148636609359 0 0.6084546825910605 0.37989672713932537 0 0.57744073070774993 0.41535148636609359 0 0.56836770495988642 0.3523062350852913 0 0.61343887413683884 0.856862479058357 0 0.55899371797446828 0.85003102233514438 0 0.60294066490120068 0.80851322453934582 0 0.54782696902220018 0.79245182748204157 0 0.60294066490120068 0.80851322453934582 0 0.55899371797446828 0.85003102233514438 0 0.40326160981139969 0.73346192995102844 0 0.36622285152418499 0.69092437780804039 0 0.43323420005758778 0.6913544522562407 0 0.52289427570932567 0.3932284363388488 0 0.48858720058566618 0.43964267759203868 0 0.46655310992796922 0.39650496622958609 0 0.15720202157091859 0.60665697304410315 0 0.1154888278694548 0.56733818459978413 0 0.14934928745814749 0.55042914607228977 0 0.6879972333610942 0.43038561374960838 0 0.73483647259922602 0.44789725365921768 0 0.69385896817107129 0.48377516041410151 0 0.7250000000005199 0.89375000000045834 0 0.68987011941058407 0.92105047536677087 0 0.66412543161245952 0.88015090885499059 0 0.83573492347052902 0.36590755630746369 0 0.78145581580700685 0.34881365920033602 0 0.82500000000000062 0.33010209762754811 0 0.82862096804812391 0.55037090955459045 0 0.81441713509985358 0.51161854125224959 0 0.86907294890112186 0.52008116128001669 0 0.19670163708476801 0.31472518408333222 0 0.14223753364722069 0.3341983344262433 0 0.168349569971391 0.28054490850913671 0 0.50202631463681879 0.87892870825713787 0 0.45677673713123867 0.84253684404072415 0 0.50627822638148745 0.8263979829520941 0 0.099999999999814668 0 0 0.14999999999970359 0 0 0.10266856499169109 0.044518360900210059 0 0.15000000000062411 1 0 0.10000000000041601 1 0 0.10266856499240549 0.95548163909968886 0 0.67323294229744413 0.57556450033612505 0 0.63065402604362242 0.59661356661633302 0 0.62042975506801734 0.54295974692364424 0 0.083105206071467416 0.20007701332709979 0 0.13737030665753211 0.20313708640667491 0 0.095326043202144745 0.24554465089224409 0 0.083105206071452636 0.79992298667296435 0 0.090953281884486245 0.7564451946902494 0 0.1382744753146134 0.79650574229207483 0 0.50000000000205869 1 0 0.47135117303824892 0.95556877749289892 0 0.52122150208832174 0.94089974453840242 0 0.49999999999869432 0 0 0.52375890611712683 0.059318771819432882 0 0.47040171442036788 0.044141676406503738 0 0.4656888918609538 0.78493261229743638 0 0.45582236402875981 0.73896743678908217 0 0.50945740445113552 0.75476055527778108 0 0.5 0.69999999999999996 0 0.50945740445113552 0.75476055527778108 0 0.45582236402875981 0.73896743678908217 0 0.55306006949600994 0.20198184231352201 0 0.56202748619534593 0.15054058349222879 0 0.59443395090188023 0.18455690917515069 0 0.6236733212988993 0.14864538214901801 0 0.59443395090188023 0.18455690917515069 0 0.56202748619534593 0.15054058349222879 0 0.57412547362576272 0.58273804879550706 0 0.5498280205245758 0.6290146943450976 0 0.5166924242153631 0.59825134841919447 0 0.91696753777131557 0.497780560203536 0 0.93814194660195893 0.44426664081746747 0 0.96228564064454991 0.48206450662049471 0 0.15720202157091859 0.60665697304410315 0 0.16500388252850301 0.66612077714085194 0 0.1241190223511371 0.64391885572885044 0 0.44288491854585582 0.14116182884956319 0 0.47881186583059909 0.093591717165689425 0 0.48466639505193998 0.1421439844745814 0 1 0.54999999999963112 0 0.93732437411268477 0.55911392101136159 0 0.95631871884947484 0.51827533208233789 0 0.57724883562309992 0.92155686857100794 0 0.57382506491224949 0.9629411906298494 0 0.52122150208832174 0.94089974453840242 0 0.85170973911348691 0.93569607295217616 0 0.81159157511211755 0.88795995483179491 0 0.85600844944837662 0.88483418979512773 0 0.8517097391133297 0.2356960729520409 0 0.81283102246527783 0.1881007222486438 0 0.85600844944842547 0.1848341897950983 0 0.27866744612395528 0.38416094670951489 0 0.29124338931648802 0.43334555462578611 0 0.24049127783545701 0.41270748208749802 0 0.6084546825910605 0.37989672713932537 0 0.56836770495988642 0.3523062350852913 0 0.61959173890754571 0.33832250091341232 0 0.20050006573841939 0.53248514016039872 0 0.25115337790845271 0.54719303014923271 0 0.22549374774072969 0.58452645269293457 0 0.26573297623774761 0.59828298563722948 0 0.22549374774072969 0.58452645269293457 0 0.25115337790845271 0.54719303014923271 0 0.26104540868854792 0.81401944968719064 0 0.29209212897034281 0.84715728365233667 0 0.2401283238295133 0.85648409884788523 0 0.6236733212988993 0.14864538214901801 0 0.65290632656860115 0.11434202593454081 0 0.68391457121233579 0.14440470121196541 0 0.19901705110390991 0.9175543425573498 0 0.19741632902693801 0.86755867406447229 0 0.24536017905392571 0.90704567837671446 0 0.72500000000000064 0.7952620967744265 0 0.76901770135486491 0.84293557325473656 0 0.72863726579783861 0.85390518901155588 0 0.72500000000000064 0.7952620967744265 0 0.72863726579783861 0.85390518901155588 0 0.68697391633157634 0.84450604838764298 0 0.7250000000005199 0.89375000000045834 0 0.68697391633157634 0.84450604838764298 0 0.72863726579783861 0.85390518901155588 0 0.72525833953073282 0.1032114801687094 0 0.77144070960558853 0.14311854477243749 0 0.72634814642510737 0.16106886917518889 0 0.72525833953073282 0.1032114801687094 0 0.72634814642510737 0.16106886917518889 0 0.68391457121233579 0.14440470121196541 0 0.36622285152418499 0.69092437780804039 0 0.3977710372045391 0.65868194622830212 0 0.43323420005758778 0.6913544522562407 0 0 0.65000000000104008 0 0 0.60000000000138687 0 0.050069554451969707 0.61308520079857043 0 0 0.40000000000166441 0 0 0.35000000000145642 0 0.050583896093752537 0.38543522283434112 0 0.22033343844674469 0.36963382230740238 0 0.24049127783545701 0.41270748208749802 0 0.191953871957803 0.42546416763755879 0 0.5 0.29999999999999999 0 0.4604742573284204 0.27846934318264788 0 0.49695729691142171 0.25014895411178018 0 0.19741632902693801 0.86755867406447229 0 0.2401283238295133 0.85648409884788523 0 0.24536017905392571 0.90704567837671446 0 0 0.50000000000205869 0 0.068743045408989428 0.48853989837882689 0 0.044576108720083309 0.53509043209532614 0 0.15000000000062411 1 0 0.14617343800780541 0.93808063414349496 0 0.18474005699953849 0.96231585248064622 0 0.14999999999970359 0 0 0.184418230509967 0.038773194583122873 0 0.14618258501891079 0.062070108745602003 0 0.57667858002728545 0.078486105337742612 0 0.52375890611712683 0.059318771819432882 0 0.57396793757665954 0.037011367187645222 0 0.113541300460994 0.46208784312094731 0 0.078358742472063481 0.43365249433908948 0 0.13773355295499351 0.42497777642586831 0 0.77354604466818633 0.40378688774472771 0 0.78145581580700685 0.34881365920033602 0 0.81308179852519835 0.39754945808726527 0 0.38244435121258652 0.51653317813019495 0 0.33190227185843768 0.52715113583864037 0 0.35024835142131061 0.48654922671676981 0 0.64753070846764316 0.77332939069435502 0 0.65005442820240822 0.82644988530054031 0 0.60294066490120068 0.80851322453934582 0 0.15720202157091859 0.60665697304410315 0 0.1024350934457823 0.60772393977513839 0 0.1154888278694548 0.56733818459978413 0 0.90416666666660628 0.9041666666666166 0 0.85600844944837662 0.88483418979512773 0 0.88088768115933802 0.84674609810493673 0 0.90416666666668166 0.20416666666667119 0 0.85600844944842547 0.1848341897950983 0 0.88088768115941807 0.14674609810479519 0 0.078358742472063481 0.43365249433908948 0 0.1117088112799664 0.38831403004970022 0 0.13773355295499351 0.42497777642586831 0 0.38244435121258652 0.51653317813019495 0 0.3908716102680424 0.47010282357248828 0 0.43507373378304309 0.49699695397193322 0 0.90299850604011456 0.79563452813489832 0 0.95386563387742829 0.80414874155775029 0 0.93677536231884972 0.85000000000000286 0 0.90416666666660628 0.9041666666666166 0 0.93677536231884972 0.85000000000000286 0 0.95391631417670719 0.89584263333814784 0 0.90299850604006393 0.09563452813493091 0 0.95386563387744361 0.1041487415577465 0 0.93677536231883773 0.14999999999999089 0 0.90416666666668166 0.20416666666667119 0 0.93677536231883773 0.14999999999999089 0 0.95391631417672862 0.19584263333809451 0 0.39536230704883951 0.84069429572832477 0 0.44003836461056539 0.88093474584252718 0 0.39767323751400468 0.89584229130535065 0 0.51076801031701946 0.1202837388510348 0 0.52375890611712683 0.059318771819432882 0 0.54979595918804436 0.1060565713905809 0 0.57667858002728545 0.078486105337742612 0 0.54979595918804436 0.1060565713905809 0 0.52375890611712683 0.059318771819432882 0 0.57724883562309992 0.92155686857100794 0 0.52122150208832174 0.94089974453840242 0 0.54783390826260769 0.89287767010860219 0 0.50202631463681879 0.87892870825713787 0 0.54783390826260769 0.89287767010860219 0 0.52122150208832174 0.94089974453840242 0 0.087545339447545459 0.35122518864182262 0 0.093851963071650835 0.30582068233324772 0 0.14223753364722069 0.3341983344262433 0 0.54999999999999993 0.69999999999999996 0 0.59999999999999976 0.69999999999999996 0 0.55363780716230748 0.74348740161571747 0 0.083105206071452636 0.79992298667296435 0 0.1074251789111534 0.83564394292147814 0 0.065374659239661639 0.8551091961254178 0 0.083105206071467416 0.20007701332709979 0 0.065374659239632718 0.1448908038746782 0 0.106902708054812 0.16453234188234539 0 0.52289427570932567 0.3932284363388488 0 0.53823865529665704 0.45873898050322898 0 0.48858720058566618 0.43964267759203868 0 0.13737030665753211 0.20313708640667491 0 0.14377654328998779 0.2442024734791064 0 0.095326043202144745 0.24554465089224409 0 0.1382744753146134 0.79650574229207483 0 0.090953281884486245 0.7564451946902494 0 0.14335651144331049 0.75565258250209677 0 0.27270076654418179 0.87751467830216623 0 0.30864387279288652 0.89906554525974958 0 0.24536017905392571 0.90704567837671446 0 0.27609987656793722 0.94991445621608572 0 0.24536017905392571 0.90704567837671446 0 0.30864387279288652 0.89906554525974958 0 0.90299850604011456 0.79563452813489832 0 0.84725310900444062 0.80779732082917555 0 0.85491058998424563 0.76004753345552634 0 0.90299850604006393 0.09563452813493091 0 0.84725310900442086 0.10779732082922661 0 0.85491058998398861 0.060047533455626502 0 1 0.54999999999963112 0 1 0.59999999999973963 0 0.95867599106212187 0.60011091146651041 0 1 0.39999999999978308 0 1 0.44999999999963131 0 0.95871855522754235 0.40006508612975411 0 0.28040350263641872 0.23054717217092141 0 0.25195515620380449 0.25883339815888678 0 0.224700362040408 0.22206622194729711 0 0.84999999999999987 0.29999999999999999 0 0.87430060258887643 0.34056085888204451 0 0.82500000000000062 0.33010209762754811 0 0.84999999999999987 0.69999999999999996 0 0.82457059160610424 0.66831947184359608 0 0.87712158428786946 0.65709029563313581 0 0.86956835336234861 0.571283299838105 0 0.87159648282691515 0.61285406320581504 0 0.81723410853263523 0.59419663659258926 0 0.43698630808430822 0.080423614171545449 0 0.47881186583059909 0.093591717165689425 0 0.44288491854585582 0.14116182884956319 0 1 0.44999999999963131 0 0.96228564064454991 0.48206450662049471 0 0.93814194660195893 0.44426664081746747 0 0.35752321586431363 0.9185439911803448 0 0.30864387279288652 0.89906554525974958 0 0.35864759629805099 0.87963482415279515 0 0.29124338931648802 0.43334555462578611 0 0.25982634974572738 0.46097799597715272 0 0.24049127783545701 0.41270748208749802 0 0.51076801031701946 0.1202837388510348 0 0.56202748619534593 0.15054058349222879 0 0.51729576145820033 0.1683240575987815 0 0.55306006949600994 0.20198184231352201 0 0.51729576145820033 0.1683240575987815 0 0.56202748619534593 0.15054058349222879 0 0.26429849586623999 0.19346700179430079 0 0.28040350263641872 0.23054717217092141 0 0.224700362040408 0.22206622194729711 0 0.51076801031701946 0.1202837388510348 0 0.48466639505193998 0.1421439844745814 0 0.47881186583059909 0.093591717165689425 0 0.2185883431182947 0.18019736283949719 0 0.26429849586623999 0.19346700179430079 0 0.224700362040408 0.22206622194729711 0 0.18269480424590959 0.75905448272264375 0 0.2248999640082178 0.72584299459689172 0 0.22556077506376701 0.77837424984191617 0 0.51076801031701946 0.1202837388510348 0 0.47881186583059909 0.093591717165689425 0 0.52375890611712683 0.059318771819432882 0 0.50202631463681879 0.87892870825713787 0 0.52122150208832174 0.94089974453840242 0 0.47401147028110507 0.91529957330468115 0 0 0.84999999999965292 0 0.038512288486097702 0.8155852717111195 0 0.065374659239661639 0.8551091961254178 0 0 0.15000000000062411 0 0.065374659239632718 0.1448908038746782 0 0.038512288486115001 0.1844147282893184 0 0.2185883431182947 0.18019736283949719 0 0.224700362040408 0.22206622194729711 0 0.18124454140915969 0.18790916706335251 0 0.21858834311891909 0.81980263716112767 0 0.17777405986036951 0.81832336108265358 0 0.22556077506376701 0.77837424984191617 0 0.1215415378367805 0.72939333680004137 0 0.1020579365089687 0.69352219419301997 0 0.15332765547575641 0.71200081858233666 0 0.49695729691142171 0.25014895411178018 0 0.50760557329222289 0.20700468884612061 0 0.54248833945060504 0.2520322959927106 0 0.15720202157091859 0.60665697304410315 0 0.14934928745814749 0.55042914607228977 0 0.18381867841758909 0.57774125163628387 0 0.90416666666660628 0.9041666666666166 0 0.85170973911348691 0.93569607295217616 0 0.85600844944837662 0.88483418979512773 0 0.90416666666668166 0.20416666666667119 0 0.8517097391133297 0.2356960729520409 0 0.85600844944842547 0.1848341897950983 0 0.17933913398461551 0.2350063570234002 0 0.13737030665753211 0.20313708640667491 0 0.18124454140915969 0.18790916706335251 0 0.18269480424590959 0.75905448272264375 0 0.17777405986036951 0.81832336108265358 0 0.1382744753146134 0.79650574229207483 0 0.1216098864341134 0.50637075089503902 0 0.15801167086041079 0.46008690540259539 0 0.16618607197337229 0.50652878253548905 0 0.50760557329222289 0.20700468884612061 0 0.55306006949600994 0.20198184231352201 0 0.54248833945060504 0.2520322959927106 0 0.75000000000034661 1 0 0.7000000000006934 1 0 0.7250000000005199 0.94981617647078953 0 0.69999999999999984 0.29999999999999999 0 0.72500000000000064 0.2498161764706 0 0.74999999999999989 0.29999999999999999 0 0.72525833953073282 0.1032114801687094 0 0.68391457121233579 0.14440470121196541 0 0.68330259535470161 0.10038702501083881 0 0.43249999999999988 0.43937499999999979 0 0.46655310992796922 0.39650496622958609 0 0.48858720058566618 0.43964267759203868 0 0.19901705110390991 0.9175543425573498 0 0.14617343800780541 0.93808063414349496 0 0.16206583317966519 0.89685560785156404 0 0.19922788606653311 0.085920220746880993 0 0.16141998738593399 0.10404039647458049 0 0.14618258501891079 0.062070108745602003 0 0.31378396441836959 0.70157213313026345 0 0.26439878998046262 0.7048065392091396 0 0.27820712747429932 0.65530134213254643 0 0.1216098864341134 0.50637075089503902 0 0.113541300460994 0.46208784312094731 0 0.15801167086041079 0.46008690540259539 0 0.6084546825910605 0.37989672713932537 0 0.65481233915350323 0.35652751921065562 0 0.63912439215427275 0.41063340167983359 0 0.19901705110390991 0.9175543425573498 0 0.18474005699953849 0.96231585248064622 0 0.14617343800780541 0.93808063414349496 0 0.19922788606653311 0.085920220746880993 0 0.14618258501891079 0.062070108745602003 0 0.184418230509967 0.038773194583122873 0 0.38244435121258652 0.51653317813019495 0 0.35024835142131061 0.48654922671676981 0 0.3908716102680424 0.47010282357248828 0 0.82709327591102189 0.14937141670914489 0 0.77144070960558853 0.14311854477243749 0 0.80076557130237269 0.1154587552654202 0 0.82709327591091286 0.84937141670920724 0 0.76901770135486491 0.84293557325473656 0 0.80041942726660109 0.81543261647703358 0 0.43698630808430822 0.080423614171545449 0 0.44288491854585582 0.14116182884956319 0 0.39823268594401579 0.1116623613130045 0 0.39801143831225599 0.16651381068160659 0 0.39823268594401579 0.1116623613130045 0 0.44288491854585582 0.14116182884956319 0 0.36575549820117997 0.31677992835137742 0 0.3786248352540974 0.27082301512024259 0 0.41914690343363781 0.30688979866601612 0 0.42377727103934271 0.25099357235810238 0 0.41914690343363781 0.30688979866601612 0 0.3786248352540974 0.27082301512024259 0 0.049706944316475897 0.72477277076253799 0 0.1020579365089687 0.69352219419301997 0 0.090953281884486245 0.7564451946902494 0 0.1215415378367805 0.72939333680004137 0 0.090953281884486245 0.7564451946902494 0 0.1020579365089687 0.69352219419301997 0 0.1247745017231483 0.27198077544791172 0 0.093851963071650835 0.30582068233324772 0 0.095326043202144745 0.24554465089224409 0 0.049706944316556423 0.27522722923869108 0 0.095326043202144745 0.24554465089224409 0 0.093851963071650835 0.30582068233324772 0 0.77354604466818633 0.40378688774472771 0 0.81973119833356312 0.43505687159469048 0 0.77972660463949339 0.45529290596363098 0 0.43249999999999988 0.43937499999999979 0 0.43507373378304309 0.49699695397193322 0 0.3908716102680424 0.47010282357248828 0 0.26573297623774761 0.59828298563722948 0 0.2459498854893499 0.63248470766216769 0 0.22549374774072969 0.58452645269293457 0 0.72500000000000064 0.7952620967744265 0 0.77094201086366854 0.79647480515688507 0 0.76901770135486491 0.84293557325473656 0 0.72525833953073282 0.1032114801687094 0 0.76878382444651716 0.097147941686331368 0 0.77144070960558853 0.14311854477243749 0 0.72500000000000064 0.7952620967744265 0 0.68697391633157634 0.84450604838764298 0 0.68024162096458085 0.79868546898116533 0 0.31378396441836959 0.70157213313026345 0 0.29904318922293632 0.74132814928635593 0 0.26439878998046262 0.7048065392091396 0 0.31378396441836959 0.70157213313026345 0 0.35415581127540569 0.73730480045900215 0 0.29904318922293632 0.74132814928635593 0 0.61343887413683884 0.856862479058357 0 0.65005442820240822 0.82644988530054031 0 0.66412543161245952 0.88015090885499059 0 0.68697391633157634 0.84450604838764298 0 0.66412543161245952 0.88015090885499059 0 0.65005442820240822 0.82644988530054031 0 0.083411279318375747 0.91030024466934134 0 0.065374659239661639 0.8551091961254178 0 0.10562472963403439 0.87143394428979881 0 0.083411279318303222 0.089699755330707398 0 0.1053400320299198 0.12877248826361379 0 0.065374659239632718 0.1448908038746782 0 0.55306006949600994 0.20198184231352201 0 0.59443395090188023 0.18455690917515069 0 0.59814117807200873 0.23398510860739519 0 0.84999999999999987 0.29999999999999999 0 0.89999999999999991 0.29999999999999999 0 0.87430060258887643 0.34056085888204451 0 0.84999999999999987 0.69999999999999996 0 0.87712158428786946 0.65709029563313581 0 0.89999999999999991 0.69999999999999996 0 0.34258405725730701 0.4444034294386992 0 0.3908716102680424 0.47010282357248828 0 0.35024835142131061 0.48654922671676981 0 0.26573297623774761 0.59828298563722948 0 0.31502927232353312 0.6134992213375432 0 0.27820712747429932 0.65530134213254643 0 0.91696753777131557 0.497780560203536 0 0.86907294890112186 0.52008116128001669 0 0.88594198078881503 0.46167788676578442 0 0.84723782639812573 0.48638347960178252 0 0.88594198078881503 0.46167788676578442 0 0.86907294890112186 0.52008116128001669 0 0.7152569930854884 0.5237994455134295 0 0.77151014687832564 0.54436834383023036 0 0.71809016091162536 0.58185040402320831 0 0.90416666666660628 0.9041666666666166 0 0.89898474358632463 0.95391965591118966 0 0.85170973911348691 0.93569607295217616 0 0.90416666666668166 0.20416666666667119 0 0.89898474358614167 0.25391965591104898 0 0.8517097391133297 0.2356960729520409 0 0.91750694127107502 0.36982372220068471 0 0.95780851984364423 0.34215720972155339 0 0.95871855522754235 0.40006508612975411 0 0.91750694127105259 0.63017627779935648 0 0.95867599106212187 0.60011091146651041 0 0.9578014258160763 0.65787212321113708 0 0.90299850604011456 0.79563452813489832 0 0.88088768115933802 0.84674609810493673 0 0.84725310900444062 0.80779732082917555 0 0.90299850604006393 0.09563452813493091 0 0.88088768115941807 0.14674609810479519 0 0.84725310900442086 0.10779732082922661 0 0.1216098864341134 0.50637075089503902 0 0.16618607197337229 0.50652878253548905 0 0.14934928745814749 0.55042914607228977 0 0.20050006573841939 0.53248514016039872 0 0.14934928745814749 0.55042914607228977 0 0.16618607197337229 0.50652878253548905 0 0.80185942888539485 0.77452061303608133 0 0.84725310900444062 0.80779732082917555 0 0.80041942726660109 0.81543261647703358 0 0.80185942888501827 0.074520613036224564 0 0.84725310900442086 0.10779732082922661 0 0.80076557130237269 0.1154587552654202 0 0.083105206071452636 0.79992298667296435 0 0.065374659239661639 0.8551091961254178 0 0.038512288486097702 0.8155852717111195 0 0.083105206071467416 0.20007701332709979 0 0.038512288486115001 0.1844147282893184 0 0.065374659239632718 0.1448908038746782 0 0.54782696902220018 0.79245182748204157 0 0.59636844454254345 0.75937156204589151 0 0.60294066490120068 0.80851322453934582 0 0.083411279318375747 0.91030024466934134 0 0.0443105827531413 0.89858748162559932 0 0.065374659239661639 0.8551091961254178 0 0.083411279318303222 0.089699755330707398 0 0.065374659239632718 0.1448908038746782 0 0.044310582753132287 0.101412518374475 0 0.84999999999965292 1 0 0.81486180804382891 0.96321394949790495 0 0.85170973911348691 0.93569607295217616 0 0.84999999999999987 0.29999999999999999 0 0.81486180804364938 0.26321394949780091 0 0.8517097391133297 0.2356960729520409 0 0.4656888918609538 0.78493261229743638 0 0.45677673713123867 0.84253684404072415 0 0.42609163930740518 0.80361684430568059 0 0.39536230704883951 0.84069429572832477 0 0.42609163930740518 0.80361684430568059 0 0.45677673713123867 0.84253684404072415 0 0.6236733212988993 0.14864538214901801 0 0.56202748619534593 0.15054058349222879 0 0.58516465772821369 0.11653801664834119 0 0.57412547362576272 0.58273804879550706 0 0.63065402604362242 0.59661356661633302 0 0.5991018319127801 0.62925360607495295 0 0.61343887413683884 0.856862479058357 0 0.5832743223239254 0.88483152652961872 0 0.55899371797446828 0.85003102233514438 0 0.50202631463681879 0.87892870825713787 0 0.55899371797446828 0.85003102233514438 0 0.54783390826260769 0.89287767010860219 0 0.51076801031701946 0.1202837388510348 0 0.54979595918804436 0.1060565713905809 0 0.56202748619534593 0.15054058349222879 0 0.55306006949600994 0.20198184231352201 0 0.59814117807200873 0.23398510860739519 0 0.54248833945060504 0.2520322959927106 0 0.83573492347052902 0.36590755630746369 0 0.82500000000000062 0.33010209762754811 0 0.87430060258887643 0.34056085888204451 0 0.83758014339878906 0.63222013025741819 0 0.87712158428786946 0.65709029563313581 0 0.82457059160610424 0.66831947184359608 0 0.49102375406324739 0.49123754822244059 0 0.53823865529665704 0.45873898050322898 0 0.53330375813596242 0.50827942741749099 0 0.52289427570932567 0.3932284363388488 0 0.57744073070774993 0.41535148636609359 0 0.53823865529665704 0.45873898050322898 0 0.4089290844030305 0.58728915500154233 0 0.37272913873093971 0.56192925302619479 0 0.42644501560315817 0.54603747078095544 0 0.49695729691142171 0.25014895411178018 0 0.4604742573284204 0.27846934318264788 0 0.46429753744194407 0.22870891180733599 0 0.90299850604011456 0.79563452813489832 0 0.85491058998424563 0.76004753345552634 0 0.89999166460796554 0.74528934923809909 0 0.90299850604006393 0.09563452813493091 0 0.85491058998398861 0.060047533455626502 0 0.899991664607802 0.045289349238254978 0 0.38244435121258652 0.51653317813019495 0 0.42644501560315817 0.54603747078095544 0 0.37272913873093971 0.56192925302619479 0 0.71406021706547751 0.63292083137662503 0 0.71809016091162536 0.58185040402320831 0 0.74994237037456724 0.62775548192980357 0 0.84723782639812573 0.48638347960178252 0 0.86907294890112186 0.52008116128001669 0 0.81441713509985358 0.51161854125224959 0 0.33122374654748771 0.57588941099433744 0 0.33190227185843768 0.52715113583864037 0 0.37272913873093971 0.56192925302619479 0 0.086179601630648681 0.64647209519980475 0 0.1241190223511371 0.64391885572885044 0 0.1020579365089687 0.69352219419301997 0 0.59999999999894682 0 0 0.64999999999907843 0 0 0.61940220174112337 0.047251958781050582 0 0.18269480424590959 0.75905448272264375 0 0.14335651144331049 0.75565258250209677 0 0.15332765547575641 0.71200081858233666 0 0.22549374774072969 0.58452645269293457 0 0.2459498854893499 0.63248470766216769 0 0.19914261668318661 0.62286739485272158 0 0.38244435121258652 0.51653317813019495 0 0.43507373378304309 0.49699695397193322 0 0.42644501560315817 0.54603747078095544 0 0.65000000000104008 1 0 0.60000000000138687 1 0 0.62065498684670595 0.95224934003983619 0 0.078358742472063481 0.43365249433908948 0 0.068743045408989428 0.48853989837882689 0 0.033550201249889847 0.46247875832467239 0 0.2236846579037573 0.67380363126050236 0 0.27820712747429932 0.65530134213254643 0 0.26439878998046262 0.7048065392091396 0 0.6879972333610942 0.43038561374960838 0 0.68128176404677243 0.38629093627004979 0 0.72622533758026719 0.40265885511101601 0 0.72525833953073282 0.1032114801687094 0 0.7010294155333181 0.056779085686491267 0 0.7527966693318906 0.053051678021508272 0 0.18269480424590959 0.75905448272264375 0 0.15332765547575641 0.71200081858233666 0 0.19068556247388771 0.71028988922845504 0 0.1216098864341134 0.50637075089503902 0 0.085622222639554768 0.53333248912060549 0 0.068743045408989428 0.48853989837882689 0 0.25676291524611189 0.7436741304886243 0 0.26439878998046262 0.7048065392091396 0 0.29904318922293632 0.74132814928635593 0 0.65481233915350323 0.35652751921065562 0 0.68128176404677243 0.38629093627004979 0 0.63912439215427275 0.41063340167983359 0 0.83573492347052902 0.36590755630746369 0 0.86844634540301924 0.38530937474099819 0 0.81308179852519835 0.39754945808726527 0 0.27270076654418179 0.87751467830216623 0 0.2401283238295133 0.85648409884788523 0 0.29209212897034281 0.84715728365233667 0 0.84999999999999987 0.69999999999999996 0 0.85491058998424563 0.76004753345552634 0 0.81864958914779962 0.73589050177899629 0 0.84999999999960507 0 0 0.85491058998398861 0.060047533455626502 0 0.81864958914740749 0.035890501779055867 0 0.18381867841758909 0.57774125163628387 0 0.19914261668318661 0.62286739485272158 0 0.15720202157091859 0.60665697304410315 0 0.22549374774072969 0.58452645269293457 0 0.19914261668318661 0.62286739485272158 0 0.18381867841758909 0.57774125163628387 0 0.79680861578988083 0.92656778056766709 0 0.85170973911348691 0.93569607295217616 0 0.81486180804382891 0.96321394949790495 0 0.79680861578956375 0.22656778056752541 0 0.8517097391133297 0.2356960729520409 0 0.81486180804364938 0.26321394949780091 0 0.20050006573841939 0.53248514016039872 0 0.23975172658309729 0.49475499200540818 0 0.25115337790845271 0.54719303014923271 0 0.28307294598219601 0.50789252727458634 0 0.25115337790845271 0.54719303014923271 0 0.23975172658309729 0.49475499200540818 0 0.20050006573841939 0.53248514016039872 0 0.18381867841758909 0.57774125163628387 0 0.14934928745814749 0.55042914607228977 0 0.19922788606653311 0.085920220746880993 0 0.22985637510995899 0.1298347970200906 0 0.18652628422869419 0.14162325200928061 0 0.33758650185219202 0.23837101504325639 0 0.38831533174504851 0.2189834941785925 0 0.3786248352540974 0.27082301512024259 0 0.42377727103934271 0.25099357235810238 0 0.3786248352540974 0.27082301512024259 0 0.38831533174504851 0.2189834941785925 0 0.19922788606653311 0.085920220746880993 0 0.18652628422869419 0.14162325200928061 0 0.16141998738593399 0.10404039647458049 0 0.54782696902220018 0.79245182748204157 0 0.55363780716230748 0.74348740161571747 0 0.59636844454254345 0.75937156204589151 0 0.82709327591091286 0.84937141670920724 0 0.88088768115933802 0.84674609810493673 0 0.85600844944837662 0.88483418979512773 0 0.82709327591102189 0.14937141670914489 0 0.88088768115941807 0.14674609810479519 0 0.85600844944842547 0.1848341897950983 0 0.27866744612395528 0.38416094670951489 0 0.22033343844674469 0.36963382230740238 0 0.25966125648670141 0.34351016742083729 0 0 0.50000000000205869 0 0.033550201249889847 0.46247875832467239 0 0.068743045408989428 0.48853989837882689 0 0.31378396441836959 0.70157213313026345 0 0.36622285152418499 0.69092437780804039 0 0.35415581127540569 0.73730480045900215 0 0.77293540622714185 0.59448302402785813 0 0.71809016091162536 0.58185040402320831 0 0.77151014687832564 0.54436834383023036 0 0.7152569930854884 0.5237994455134295 0 0.69385896817107129 0.48377516041410151 0 0.73947346780852752 0.49062440112282169 0 0.15801167086041079 0.46008690540259539 0 0.191953871957803 0.42546416763755879 0 0.19604738184454831 0.47787523520405789 0 0.57667858002728545 0.078486105337742612 0 0.61940220174112337 0.047251958781050582 0 0.61956000905586006 0.1043312481793135 0 0.65408113592120842 0.073941773121567966 0 0.61956000905586006 0.1043312481793135 0 0.61940220174112337 0.047251958781050582 0 0 0.55000000000173355 0 0 0.50000000000205869 0 0.044576108720083309 0.53509043209532614 0 0.65507451745379841 0.92229208810758578 0 0.62065498684670595 0.95224934003983619 0 0.61885627562261258 0.90282959257498208 0 0.57724883562309992 0.92155686857100794 0 0.61885627562261258 0.90282959257498208 0 0.62065498684670595 0.95224934003983619 0 0.91750694127107502 0.36982372220068471 0 0.86844634540301924 0.38530937474099819 0 0.87430060258887643 0.34056085888204451 0 0.91750694127105259 0.63017627779935648 0 0.87712158428786946 0.65709029563313581 0 0.87159648282691515 0.61285406320581504 0 0.33123028043633618 0.77629643437932982 0 0.29904318922293632 0.74132814928635593 0 0.35415581127540569 0.73730480045900215 0 0.86411095495256451 0.42388805655111889 0 0.84925632466077294 0.45359738909549091 0 0.81973119833356312 0.43505687159469048 0 0.43846182030517877 0.64845797726506715 0 0.47913475093885149 0.66010775372412711 0 0.43323420005758778 0.6913544522562407 0 0.18269480424590959 0.75905448272264375 0 0.19068556247388771 0.71028988922845504 0 0.2248999640082178 0.72584299459689172 0 0.39536230704883951 0.84069429572832477 0 0.38586766253264881 0.78219501014812498 0 0.42609163930740518 0.80361684430568059 0 0.59999999999999976 0.69999999999999996 0 0.63221990677827677 0.73442891067859706 0 0.59636844454254345 0.75937156204589151 0 0.27866744612395528 0.38416094670951489 0 0.24049127783545701 0.41270748208749802 0 0.22033343844674469 0.36963382230740238 0 0.82709327591091286 0.84937141670920724 0 0.84725310900444062 0.80779732082917555 0 0.88088768115933802 0.84674609810493673 0 0.82709327591102189 0.14937141670914489 0 0.84725310900442086 0.10779732082922661 0 0.88088768115941807 0.14674609810479519 0 0.1650278706801647 0.38791388161335733 0 0.18434624290945251 0.35208838264196463 0 0.22033343844674469 0.36963382230740238 0 0.4409427642593301 0.35743108089689513 0 0.49077833859261139 0.35229981449445641 0 0.46655310992796922 0.39650496622958609 0 0.80185942888539485 0.77452061303608133 0 0.81864958914779962 0.73589050177899629 0 0.85491058998424563 0.76004753345552634 0 0.80185942888501827 0.074520613036224564 0 0.81864958914740749 0.035890501779055867 0 0.85491058998398861 0.060047533455626502 0 0.29999999999926641 0 0 0.34999999999912063 0 0 0.32541448401678508 0.046215317981507749 0 0.35000000000145642 1 0 0.30000000000124832 1 0 0.32544832635163229 0.95485394099568932 0 0.4656888918609538 0.78493261229743638 0 0.50731287292894423 0.78963574450233831 0 0.50627822638148745 0.8263979829520941 0 0.2185883431182947 0.18019736283949719 0 0.25557216766470708 0.15874861286892261 0 0.26429849586623999 0.19346700179430079 0 1 0.29999999999999999 0 1 0.34999999999993492 0 0.95780851984364423 0.34215720972155339 0 1 0.29999999999999999 0 0.95780851984364423 0.34215720972155339 0 0.94999999999999996 0.29999999999999999 0 1 0.69999999999999996 0 0.94999999999999996 0.69999999999999996 0 0.9578014258160763 0.65787212321113708 0 1 0.69999999999999996 0 0.9578014258160763 0.65787212321113708 0 1 0.64999999999986979 0 0.91750694127107502 0.36982372220068471 0 0.90594285160987287 0.4141265964174129 0 0.86844634540301924 0.38530937474099819 0 0.91750694127105259 0.63017627779935648 0 0.87159648282691515 0.61285406320581504 0 0.91143117093204207 0.58709913730335972 0 0.74999999999999989 0.69999999999999996 0 0.7750489929959945 0.66593931409600093 0 0.79999999999999982 0.69999999999999996 0 0.74999999999999989 0.29999999999999999 0 0.79999999999999982 0.29999999999999999 0 0.78145581580700685 0.34881365920033602 0 0.54999999999999993 0.69999999999999996 0 0.57484956128872922 0.66573805030881994 0 0.59999999999999976 0.69999999999999996 0 0.90299850604011456 0.79563452813489832 0 0.94399509803918602 0.75600490196082126 0 0.95386563387742829 0.80414874155775029 0 0.90416666666660628 0.9041666666666166 0 0.95391631417670719 0.89584263333814784 0 0.94399509803919068 0.9439950980391687 0 0.90299850604006393 0.09563452813493091 0 0.94399509803922566 0.056004901960802607 0 0.95386563387744361 0.1041487415577465 0 0.90416666666668166 0.20416666666667119 0 0.95391631417672862 0.19584263333809451 0 0.94399509803921056 0.24399509803922639 0 0.22278230690790279 0.44824268025881547 0 0.19604738184454831 0.47787523520405789 0 0.191953871957803 0.42546416763755879 0 0.90299850604011456 0.79563452813489832 0 0.89999166460796554 0.74528934923809909 0 0.94399509803918602 0.75600490196082126 0 0.90299850604006393 0.09563452813493091 0 0.899991664607802 0.045289349238254978 0 0.94399509803922566 0.056004901960802607 0 0.49102375406324739 0.49123754822244059 0 0.47793794143994173 0.52940715638744962 0 0.43507373378304309 0.49699695397193322 0 0.90416666666660628 0.9041666666666166 0 0.94399509803919068 0.9439950980391687 0 0.89898474358632463 0.95391965591118966 0 0.90416666666668166 0.20416666666667119 0 0.94399509803921056 0.24399509803922639 0 0.89898474358614167 0.25391965591104898 0 0.65394964615507722 0.22666784374016369 0 0.62657463266645097 0.26524202571255862 0 0.59814117807200873 0.23398510860739519 0 0.6084546825910605 0.37989672713932537 0 0.63912439215427275 0.41063340167983359 0 0.57744073070774993 0.41535148636609359 0 0.61209567303293111 0.44669033081290321 0 0.57744073070774993 0.41535148636609359 0 0.63912439215427275 0.41063340167983359 0 0.25676291524611189 0.7436741304886243 0 0.22556077506376701 0.77837424984191617 0 0.2248999640082178 0.72584299459689172 0 0.61343887413683884 0.856862479058357 0 0.60294066490120068 0.80851322453934582 0 0.65005442820240822 0.82644988530054031 0 0.64999999999907843 0 0 0.66369801598854572 0.036327466368102787 0 0.61940220174112337 0.047251958781050582 0 0.40326160981139969 0.73346192995102844 0 0.38586766253264881 0.78219501014812498 0 0.35415581127540569 0.73730480045900215 0 0.33123028043633618 0.77629643437932982 0 0.35415581127540569 0.73730480045900215 0 0.38586766253264881 0.78219501014812498 0 0.26573297623774761 0.59828298563722948 0 0.29110487519241501 0.56588143995431495 0 0.31502927232353312 0.6134992213375432 0 0.77846603114747959 0.49850927265137401 0 0.81441713509985358 0.51161854125224959 0 0.77151014687832564 0.54436834383023036 0 0.82862096804812391 0.55037090955459045 0 0.77151014687832564 0.54436834383023036 0 0.81441713509985358 0.51161854125224959 0 0.50000000000205869 1 0 0.45000000000187229 1 0 0.47135117303824892 0.95556877749289892 0 0.44999999999882923 0 0 0.49999999999869432 0 0 0.47040171442036788 0.044141676406503738 0 0 0.7000000000006934 0 0 0.65000000000104008 0 0.046634677244967337 0.671418230738282 0 0 0.35000000000145642 0 0 0.30000000000124832 0 0.046389130980076937 0.32668781832131749 0 0.31378396441836959 0.70157213313026345 0 0.27820712747429932 0.65530134213254643 0 0.32263089806001177 0.66003674931826484 0 0.33122374654748771 0.57588941099433744 0 0.31502927232353312 0.6134992213375432 0 0.29110487519241501 0.56588143995431495 0 0.26573297623774761 0.59828298563722948 0 0.27820712747429932 0.65530134213254643 0 0.2459498854893499 0.63248470766216769 0 0.14474682429600511 0.85524784522713515 0 0.16206583317966519 0.89685560785156404 0 0.1241151115713819 0.9045666525468371 0 0.14332333627550789 0.14578431753966009 0 0.12372429750337779 0.095814237875728972 0 0.16141998738593399 0.10404039647458049 0 0.64753070846764316 0.77332939069435502 0 0.59636844454254345 0.75937156204589151 0 0.63221990677827677 0.73442891067859706 0 0.14474682429600511 0.85524784522713515 0 0.1241151115713819 0.9045666525468371 0 0.10562472963403439 0.87143394428979881 0 0.14332333627550789 0.14578431753966009 0 0.1053400320299198 0.12877248826361379 0 0.12372429750337779 0.095814237875728972 0 0.77354604466818633 0.40378688774472771 0 0.81308179852519835 0.39754945808726527 0 0.81973119833356312 0.43505687159469048 0 0.54782696902220018 0.79245182748204157 0 0.50945740445113552 0.75476055527778108 0 0.55363780716230748 0.74348740161571747 0 0.2236846579037573 0.67380363126050236 0 0.2459498854893499 0.63248470766216769 0 0.27820712747429932 0.65530134213254643 0 0.77293540622714185 0.59448302402785813 0 0.74994237037456724 0.62775548192980357 0 0.71809016091162536 0.58185040402320831 0 0 0.79999999999999982 0 0 0.75000000000034661 0 0.04408157711937423 0.7728941757575627 0 0 0.25000000000104028 0 0 0.20000000000083221 0 0.044081577119474857 0.2271058242433576 0 0.19999999999955789 0 0 0.24999999999941211 0 0 0.22668068146512929 0.045875643423131329 0 0.25000000000104028 1 0 0.20000000000083221 1 0 0.22850979588452081 0.95594428570238643 0 0.47357141910802508 0.1873585799078378 0 0.44288491854585582 0.14116182884956319 0 0.48466639505193998 0.1421439844745814 0 0.59999999999999976 0.29999999999999999 0 0.5794309697024993 0.27124795968204829 0 0.62657463266645097 0.26524202571255862 0 0.43249999999999988 0.43937499999999979 0 0.42161023666869668 0.39493916313643851 0 0.46655310992796922 0.39650496622958609 0 0.31068898841644388 0.47541502461811092 0 0.33190227185843768 0.52715113583864037 0 0.28307294598219601 0.50789252727458634 0 0.35024835142131061 0.48654922671676981 0 0.33190227185843768 0.52715113583864037 0 0.31068898841644388 0.47541502461811092 0 0.35864735590330371 0.63903383440414463 0 0.36622285152418499 0.69092437780804039 0 0.32263089806001177 0.66003674931826484 0 0.31378396441836959 0.70157213313026345 0 0.32263089806001177 0.66003674931826484 0 0.36622285152418499 0.69092437780804039 0 0.86956835336234861 0.571283299838105 0 0.90900154012161016 0.53607784105648792 0 0.91143117093204207 0.58709913730335972 0 0.6499999999999998 0.29999999999999999 0 0.65481233915350323 0.35652751921065562 0 0.61959173890754571 0.33832250091341232 0 0.4409427642593301 0.35743108089689513 0 0.46226845272279993 0.31901800744800313 0 0.49077833859261139 0.35229981449445641 0 0.5 0.29999999999999999 0 0.49077833859261139 0.35229981449445641 0 0.46226845272279993 0.31901800744800313 0 0.14999999999970359 0 0 0.19999999999955789 0 0 0.184418230509967 0.038773194583122873 0 0.20000000000083221 1 0 0.15000000000062411 1 0 0.18474005699953849 0.96231585248064622 0 1 0.49999999999950101 0 1 0.54999999999963112 0 0.95631871884947484 0.51827533208233789 0 0.38586766253264881 0.78219501014812498 0 0.42676259796334498 0.76772545931379299 0 0.42609163930740518 0.80361684430568059 0 0.20050006573841939 0.53248514016039872 0 0.22549374774072969 0.58452645269293457 0 0.18381867841758909 0.57774125163628387 0 0.065374659239661639 0.8551091961254178 0 0.1074251789111534 0.83564394292147814 0 0.10562472963403439 0.87143394428979881 0 0.065374659239632718 0.1448908038746782 0 0.1053400320299198 0.12877248826361379 0 0.106902708054812 0.16453234188234539 0 0.1650278706801647 0.38791388161335733 0 0.14223753364722069 0.3341983344262433 0 0.18434624290945251 0.35208838264196463 0 0.43249999999999988 0.43937499999999979 0 0.46111841286828259 0.46690301029591341 0 0.43507373378304309 0.49699695397193322 0 0.83758014339878906 0.63222013025741819 0 0.81723410853263523 0.59419663659258926 0 0.87159648282691515 0.61285406320581504 0 0.19670163708476801 0.31472518408333222 0 0.18434624290945251 0.35208838264196463 0 0.14223753364722069 0.3341983344262433 0 0.75000000000034661 1 0 0.7250000000005199 0.94981617647078953 0 0.770759834363826 0.95919399014344442 0 0.74999999999999989 0.29999999999999999 0 0.72500000000000064 0.2498161764706 0 0.77075983436335049 0.25919399014334171 0 0.69999999999999984 0.29999999999999999 0 0.67933712972090698 0.25920070958121938 0 0.72500000000000064 0.2498161764706 0 0.57611405284611883 0.50165903596042916 0 0.53330375813596242 0.50827942741749099 0 0.53823865529665704 0.45873898050322898 0 0.6499999999999998 0.29999999999999999 0 0.68887083591306764 0.33632058575757479 0 0.65481233915350323 0.35652751921065562 0 0.27866744612395528 0.38416094670951489 0 0.33277555741076909 0.36432196682010132 0 0.31778888742534622 0.40581751814196781 0 0.49102375406324739 0.49123754822244059 0 0.43507373378304309 0.49699695397193322 0 0.46111841286828259 0.46690301029591341 0 0.94999999999999996 0.69999999999999996 0 0.97166519676947294 0.73337114490064459 0 0.94399509803918602 0.75600490196082126 0 0.94999999999986839 0 0 0.97166519676946894 0.033371144900598393 0 0.94399509803922566 0.056004901960802607 0 0.94999999999999996 0.29999999999999999 0 0.94399509803921056 0.24399509803922639 0 0.97166519676951801 0.26662885509932011 0 0.94999999999979179 1 0 0.94399509803919068 0.9439950980391687 0 0.97166519676946206 0.96662885509935492 0 0.34258405725730701 0.4444034294386992 0 0.29124338931648802 0.43334555462578611 0 0.31778888742534622 0.40581751814196781 0 0.27866744612395528 0.38416094670951489 0 0.31778888742534622 0.40581751814196781 0 0.29124338931648802 0.43334555462578611 0 0.36575549820117997 0.31677992835137742 0 0.33277555741076909 0.36432196682010132 0 0.32752639306529541 0.32610012995269699 0 0.35752321586431363 0.9185439911803448 0 0.32544832635163229 0.95485394099568932 0 0.30864387279288652 0.89906554525974958 0 0.27609987656793722 0.94991445621608572 0 0.30864387279288652 0.89906554525974958 0 0.32544832635163229 0.95485394099568932 0 0.33123028043633618 0.77629643437932982 0 0.30857225866488791 0.81101973481716805 0 0.2792923945214143 0.77665808831789485 0 0.33758650185219202 0.23837101504325639 0 0.29132859388405002 0.27203693976649962 0 0.28040350263641872 0.23054717217092141 0 0.4409427642593301 0.35743108089689513 0 0.41914690343363781 0.30688979866601612 0 0.46226845272279993 0.31901800744800313 0 0.14332333627550789 0.14578431753966009 0 0.13737030665753211 0.20313708640667491 0 0.106902708054812 0.16453234188234539 0 0.083105206071467416 0.20007701332709979 0 0.106902708054812 0.16453234188234539 0 0.13737030665753211 0.20313708640667491 0 0.083105206071452636 0.79992298667296435 0 0.1382744753146134 0.79650574229207483 0 0.1074251789111534 0.83564394292147814 0 0.14474682429600511 0.85524784522713515 0 0.1074251789111534 0.83564394292147814 0 0.1382744753146134 0.79650574229207483 0 0.65408113592120842 0.073941773121567966 0 0.7010294155333181 0.056779085686491267 0 0.68330259535470161 0.10038702501083881 0 0.72525833953073282 0.1032114801687094 0 0.68330259535470161 0.10038702501083881 0 0.7010294155333181 0.056779085686491267 0 0.049706944316475897 0.72477277076253799 0 0.046634677244967337 0.671418230738282 0 0.1020579365089687 0.69352219419301997 0 0.086179601630648681 0.64647209519980475 0 0.1020579365089687 0.69352219419301997 0 0.046634677244967337 0.671418230738282 0 0.087545339447545459 0.35122518864182262 0 0.046389130980076937 0.32668781832131749 0 0.093851963071650835 0.30582068233324772 0 0.049706944316556423 0.27522722923869108 0 0.093851963071650835 0.30582068233324772 0 0.046389130980076937 0.32668781832131749 0 0.82709327591091286 0.84937141670920724 0 0.80041942726660109 0.81543261647703358 0 0.84725310900444062 0.80779732082917555 0 0.82709327591102189 0.14937141670914489 0 0.80076557130237269 0.1154587552654202 0 0.84725310900442086 0.10779732082922661 0 0.17933913398461551 0.2350063570234002 0 0.14377654328998779 0.2442024734791064 0 0.13737030665753211 0.20313708640667491 0 0.18269480424590959 0.75905448272264375 0 0.1382744753146134 0.79650574229207483 0 0.14335651144331049 0.75565258250209677 0 0.33758650185219202 0.23837101504325639 0 0.3786248352540974 0.27082301512024259 0 0.33402499257867951 0.28911035184473982 0 0.14332333627550789 0.14578431753966009 0 0.18124454140915969 0.18790916706335251 0 0.13737030665753211 0.20313708640667491 0 0.14474682429600511 0.85524784522713515 0 0.1382744753146134 0.79650574229207483 0 0.17777405986036951 0.81832336108265358 0 0.5 0.29999999999999999 0 0.52752007115234678 0.33170632466418198 0 0.49077833859261139 0.35229981449445641 0 0.27866744612395528 0.38416094670951489 0 0.29644548887253103 0.34914008784168082 0 0.33277555741076909 0.36432196682010132 0 0 0.84999999999965292 0 0 0.79999999999999982 0 0.038512288486097702 0.8155852717111195 0 0 0.20000000000083221 0 0 0.15000000000062411 0 0.038512288486115001 0.1844147282893184 0 0.40326160981139969 0.73346192995102844 0 0.35415581127540569 0.73730480045900215 0 0.36622285152418499 0.69092437780804039 0 0.91696753777131557 0.497780560203536 0 0.96228564064454991 0.48206450662049471 0 0.95631871884947484 0.51827533208233789 0 0.33758650185219202 0.23837101504325639 0 0.31255190597181792 0.19850845631528771 0 0.3572130504031617 0.1874703368446563 0 0.59814117807200873 0.23398510860739519 0 0.62657463266645097 0.26524202571255862 0 0.5794309697024993 0.27124795968204829 0 0.34258405725730701 0.4444034294386992 0 0.31068898841644388 0.47541502461811092 0 0.29124338931648802 0.43334555462578611 0 0.38083244760691543 0.38531983672244652 0 0.35221190152536241 0.40457127605439203 0 0.33277555741076909 0.36432196682010132 0 0.083411279318375747 0.91030024466934134 0 0.10266856499240549 0.95548163909968886 0 0.053064897599294662 0.95186845269532028 0 0.083411279318303222 0.089699755330707398 0 0.053064897599215843 0.048131547304697528 0 0.10266856499169109 0.044518360900210059 0 0.42377727103934271 0.25099357235810238 0 0.4604742573284204 0.27846934318264788 0 0.41914690343363781 0.30688979866601612 0 0.28307294598219601 0.50789252727458634 0 0.25982634974572738 0.46097799597715272 0 0.31068898841644388 0.47541502461811092 0 0.29348325746214782 0.31350119524708198 0 0.29132859388405002 0.27203693976649962 0 0.33402499257867951 0.28911035184473982 0 0.35312867752657662 0.084946736076730367 0 0.39823268594401579 0.1116623613130045 0 0.36246644853392812 0.1399454205365751 0 0.7000000000006934 1 0 0.68015064798562208 0.95924320340003011 0 0.7250000000005199 0.94981617647078953 0 0.42377727103934271 0.25099357235810238 0 0.38831533174504851 0.2189834941785925 0 0.42905200079338551 0.19982395548231649 0 0.53823865529665704 0.45873898050322898 0 0.57744073070774993 0.41535148636609359 0 0.57975577671020095 0.46172033326338591 0 0.33758650185219202 0.23837101504325639 0 0.3572130504031617 0.1874703368446563 0 0.38831533174504851 0.2189834941785925 0 0.29124338931648802 0.43334555462578611 0 0.31068898841644388 0.47541502461811092 0 0.25982634974572738 0.46097799597715272 0 0.6084546825910605 0.37989672713932537 0 0.61959173890754571 0.33832250091341232 0 0.65481233915350323 0.35652751921065562 0 0.40326160981139969 0.73346192995102844 0 0.43323420005758778 0.6913544522562407 0 0.45582236402875981 0.73896743678908217 0 0.33758650185219202 0.23837101504325639 0 0.28040350263641872 0.23054717217092141 0 0.31255190597181792 0.19850845631528771 0 0.79999999999999982 1 0 0.75000000000034661 1 0 0.770759834363826 0.95919399014344442 0 0.74999999999999989 0.29999999999999999 0 0.77075983436335049 0.25919399014334171 0 0.79999999999999982 0.29999999999999999 0 0.6499999999999998 0.29999999999999999 0 0.67933712972090698 0.25920070958121938 0 0.69999999999999984 0.29999999999999999 0 0.39536230704883951 0.84069429572832477 0 0.39767323751400468 0.89584229130535065 0 0.35864759629805099 0.87963482415279515 0 0.54999999999999993 0.69999999999999996 0 0.52584555706968406 0.66664215091846768 0 0.57484956128872922 0.66573805030881994 0 0.35312867752657662 0.084946736076730367 0 0.32541448401678508 0.046215317981507749 0 0.3615861437013822 0.03582617922508851 0 0.35752321586431363 0.9185439911803448 0 0.36184234618600131 0.96443954459096326 0 0.32544832635163229 0.95485394099568932 0 0.35312867752657662 0.084946736076730367 0 0.3615861437013822 0.03582617922508851 0 0.39591832466117061 0.056982757562006353 0 0.35752321586431363 0.9185439911803448 0 0.39641108128798319 0.94356127926187128 0 0.36184234618600131 0.96443954459096326 0 0.083411279318303222 0.089699755330707398 0 0.044310582753132287 0.101412518374475 0 0.053064897599215843 0.048131547304697528 0 0.083411279318375747 0.91030024466934134 0 0.053064897599294662 0.95186845269532028 0 0.0443105827531413 0.89858748162559932 0 0.38083244760691543 0.38531983672244652 0 0.40076539126862748 0.34589349467022118 0 0.42161023666869668 0.39493916313643851 0 0.4409427642593301 0.35743108089689513 0 0.42161023666869668 0.39493916313643851 0 0.40076539126862748 0.34589349467022118 0 0.79999999999999982 0.29999999999999999 0 0.82500000000000062 0.33010209762754811 0 0.78145581580700685 0.34881365920033602 0 0.79999999999999982 0.69999999999999996 0 0.7750489929959945 0.66593931409600093 0 0.82457059160610424 0.66831947184359608 0 0.59999999999999976 0.69999999999999996 0 0.57484956128872922 0.66573805030881994 0 0.62460753523532009 0.66851202781000296 0 0.74999999999999989 0.69999999999999996 0 0.72500000000000064 0.67022701834392062 0 0.7750489929959945 0.66593931409600093 0 0.74999999999999989 0.29999999999999999 0 0.78145581580700685 0.34881365920033602 0 0.73090396928863699 0.33699297293167962 0 0.33758650185219202 0.23837101504325639 0 0.33402499257867951 0.28911035184473982 0 0.29132859388405002 0.27203693976649962 0 0.36575549820117997 0.31677992835137742 0 0.41914690343363781 0.30688979866601612 0 0.40076539126862748 0.34589349467022118 0 0.4409427642593301 0.35743108089689513 0 0.40076539126862748 0.34589349467022118 0 0.41914690343363781 0.30688979866601612 0 0.34258405725730701 0.4444034294386992 0 0.38707855792647411 0.42299362914874578 0 0.3908716102680424 0.47010282357248828 0 0.7000000000006934 1 0 0.65000000000104008 1 0 0.68015064798562208 0.95924320340003011 0 0.49102375406324739 0.49123754822244059 0 0.46111841286828259 0.46690301029591341 0 0.48858720058566618 0.43964267759203868 0 0.4656888918609538 0.78493261229743638 0 0.42676259796334498 0.76772545931379299 0 0.45582236402875981 0.73896743678908217 0 0.40326160981139969 0.73346192995102844 0 0.45582236402875981 0.73896743678908217 0 0.42676259796334498 0.76772545931379299 0 0.59999999999999976 0.29999999999999999 0 0.62657463266645097 0.26524202571255862 0 0.6499999999999998 0.29999999999999999 0 0.40000000000166441 1 0 0.36184234618600131 0.96443954459096326 0 0.39641108128798319 0.94356127926187128 0 0.3999999999989749 0 0 0.39591832466117061 0.056982757562006353 0 0.3615861437013822 0.03582617922508851 0 0.43249999999999988 0.43937499999999979 0 0.48858720058566618 0.43964267759203868 0 0.46111841286828259 0.46690301029591341 0 0.7250000000005199 0.89375000000045834 0 0.7250000000005199 0.94981617647078953 0 0.68987011941058407 0.92105047536677087 0 0.7250000000005199 0.89375000000045834 0 0.75729602384198635 0.92353652857884294 0 0.7250000000005199 0.94981617647078953 0 0.72500000000001008 0.19776155966387679 0 0.75668890529066124 0.2244279804069782 0 0.72500000000000064 0.2498161764706 0 0.72500000000001008 0.19776155966387679 0 0.72500000000000064 0.2498161764706 0 0.69397719155551807 0.2245125647000914 0 0.79999999999999982 0.29999999999999999 0 0.81486180804364938 0.26321394949780091 0 0.84999999999999987 0.29999999999999999 0 0.84999999999965292 1 0 0.79999999999999982 1 0 0.81486180804382891 0.96321394949790495 0 0.1247745017231483 0.27198077544791172 0 0.095326043202144745 0.24554465089224409 0 0.14377654328998779 0.2442024734791064 0 0.1215415378367805 0.72939333680004137 0 0.14335651144331049 0.75565258250209677 0 0.090953281884486245 0.7564451946902494 0 0.72500000000001008 0.19776155966387679 0 0.72634814642510737 0.16106886917518889 0 0.76587607630038135 0.18880039518954719 0 0.72500000000001008 0.19776155966387679 0 0.6865991819015953 0.189116534044597 0 0.72634814642510737 0.16106886917518889 0 0.77144070960558853 0.14311854477243749 0 0.76587607630038135 0.18880039518954719 0 0.72634814642510737 0.16106886917518889 0 0.68391457121233579 0.14440470121196541 0 0.72634814642510737 0.16106886917518889 0 0.6865991819015953 0.189116534044597 0 0.7250000000005199 0.89375000000045834 0 0.72863726579783861 0.85390518901155588 0 0.76891166905518427 0.88835469571185499 0 0.76901770135486491 0.84293557325473656 0 0.76891166905518427 0.88835469571185499 0 0.72863726579783861 0.85390518901155588 0 0 0.20000000000083221 0 0.038512288486115001 0.1844147282893184 0 0.044081577119474857 0.2271058242433576 0 0 0.79999999999999982 0 0.04408157711937423 0.7728941757575627 0 0.038512288486097702 0.8155852717111195 0 0.52375890611712683 0.059318771819432882 0 0.47881186583059909 0.093591717165689425 0 0.47040171442036788 0.044141676406503738 0 0.52122150208832174 0.94089974453840242 0 0.47135117303824892 0.95556877749289892 0 0.47401147028110507 0.91529957330468115 0 0.27474541102162192 0.11822029332053539 0 0.3096713403101819 0.085471541595262421 0 0.32215584939770009 0.1218492143506909 0 0.22278230690790279 0.44824268025881547 0 0.24049127783545701 0.41270748208749802 0 0.25982634974572738 0.46097799597715272 0 0.93732437411268477 0.55911392101136159 0 0.91143117093204207 0.58709913730335972 0 0.90900154012161016 0.53607784105648792 0 0.19901705110390991 0.9175543425573498 0 0.24536017905392571 0.90704567837671446 0 0.22850979588452081 0.95594428570238643 0 0.27609987656793722 0.94991445621608572 0 0.22850979588452081 0.95594428570238643 0 0.24536017905392571 0.90704567837671446 0 0.15720202157091859 0.60665697304410315 0 0.1241190223511371 0.64391885572885044 0 0.1024350934457823 0.60772393977513839 0 0.6499999999999998 0.69999999999999996 0 0.675261390228442 0.65996937624687813 0 0.69999999999999984 0.69999999999999996 0 0.3999999999989749 0 0 0.4320097814748517 0.037406712692169303 0 0.39591832466117061 0.056982757562006353 0 0.40000000000166441 1 0 0.39641108128798319 0.94356127926187128 0 0.4308986359464303 0.96395712492906194 0 0.54999999999999993 0.29999999999999999 0 0.56836770495988642 0.3523062350852913 0 0.52752007115234678 0.33170632466418198 0 0.14474682429600511 0.85524784522713515 0 0.17777405986036951 0.81832336108265358 0 0.19741632902693801 0.86755867406447229 0 0.21858834311891909 0.81980263716112767 0 0.19741632902693801 0.86755867406447229 0 0.17777405986036951 0.81832336108265358 0 0.54782696902220018 0.79245182748204157 0 0.50731287292894423 0.78963574450233831 0 0.50945740445113552 0.75476055527778108 0 0.20000000000083221 1 0 0.18474005699953849 0.96231585248064622 0 0.22850979588452081 0.95594428570238643 0 0.19999999999955789 0 0 0.22668068146512929 0.045875643423131329 0 0.184418230509967 0.038773194583122873 0 0.77846603114747959 0.49850927265137401 0 0.73947346780852752 0.49062440112282169 0 0.77972660463949339 0.45529290596363098 0 0.73483647259922602 0.44789725365921768 0 0.77972660463949339 0.45529290596363098 0 0.73947346780852752 0.49062440112282169 0 0.34258405725730701 0.4444034294386992 0 0.35024835142131061 0.48654922671676981 0 0.31068898841644388 0.47541502461811092 0 0.33123028043633618 0.77629643437932982 0 0.2792923945214143 0.77665808831789485 0 0.29904318922293632 0.74132814928635593 0 0.26573297623774761 0.59828298563722948 0 0.25115337790845271 0.54719303014923271 0 0.29110487519241501 0.56588143995431495 0 0.4656888918609538 0.78493261229743638 0 0.50945740445113552 0.75476055527778108 0 0.50731287292894423 0.78963574450233831 0 0.35312867752657662 0.084946736076730367 0 0.36246644853392812 0.1399454205365751 0 0.32215584939770009 0.1218492143506909 0 0.29348325746214782 0.31350119524708198 0 0.25966125648670141 0.34351016742083729 0 0.24432083401701241 0.3006253385567515 0 0.59999999999999976 0.69999999999999996 0 0.6499999999999998 0.69999999999999996 0 0.63221990677827677 0.73442891067859706 0 0.69999999999921003 0 0 0.7010294155333181 0.056779085686491267 0 0.66369801598854572 0.036327466368102787 0 0.40000000000166441 1 0 0.35000000000145642 1 0 0.36184234618600131 0.96443954459096326 0 0.34999999999912063 0 0 0.3999999999989749 0 0 0.3615861437013822 0.03582617922508851 0 0.43507373378304309 0.49699695397193322 0 0.47793794143994173 0.52940715638744962 0 0.42644501560315817 0.54603747078095544 0 0.14474682429600511 0.85524784522713515 0 0.19741632902693801 0.86755867406447229 0 0.16206583317966519 0.89685560785156404 0 0.19901705110390991 0.9175543425573498 0 0.16206583317966519 0.89685560785156404 0 0.19741632902693801 0.86755867406447229 0 0.35864735590330371 0.63903383440414463 0 0.3977710372045391 0.65868194622830212 0 0.36622285152418499 0.69092437780804039 0 0.7527966693318906 0.053051678021508272 0 0.7010294155333181 0.056779085686491267 0 0.72683645290270404 0.027797073151180601 0 0.71508799138962864 0.36622814920737751 0 0.72622533758026719 0.40265885511101601 0 0.68128176404677243 0.38629093627004979 0 0.79999999999999982 0.69999999999999996 0 0.84999999999999987 0.69999999999999996 0 0.81864958914779962 0.73589050177899629 0 0.79999999999947335 0 0 0.84999999999960507 0 0 0.81864958914740749 0.035890501779055867 0 0.39536230704883951 0.84069429572832477 0 0.35642984951668422 0.80994399665655703 0 0.38586766253264881 0.78219501014812498 0 0.42377727103934271 0.25099357235810238 0 0.46429753744194407 0.22870891180733599 0 0.4604742573284204 0.27846934318264788 0 0.39801143831225599 0.16651381068160659 0 0.42905200079338551 0.19982395548231649 0 0.38831533174504851 0.2189834941785925 0 0.79999999999999982 1 0 0.770759834363826 0.95919399014344442 0 0.81486180804382891 0.96321394949790495 0 0.79999999999999982 0.29999999999999999 0 0.77075983436335049 0.25919399014334171 0 0.81486180804364938 0.26321394949780091 0 0.25195515620380449 0.25883339815888678 0 0.21049769590865089 0.26857363548218488 0 0.224700362040408 0.22206622194729711 0 0.40326160981139969 0.73346192995102844 0 0.42676259796334498 0.76772545931379299 0 0.38586766253264881 0.78219501014812498 0 0.35312867752657662 0.084946736076730367 0 0.3096713403101819 0.085471541595262421 0 0.32541448401678508 0.046215317981507749 0 0.59999999999999976 0.29999999999999999 0 0.6499999999999998 0.29999999999999999 0 0.61959173890754571 0.33832250091341232 0 0.2185883431182947 0.18019736283949719 0 0.18652628422869419 0.14162325200928061 0 0.22985637510995899 0.1298347970200906 0 0.64999999999907843 0 0 0.69999999999921003 0 0 0.66369801598854572 0.036327466368102787 0 0.27499999999933927 0.060310814194988557 0 0.24218496799700481 0.089025544070598317 0 0.22668068146512929 0.045875643423131329 0 0.19922788606653311 0.085920220746880993 0 0.22668068146512929 0.045875643423131329 0 0.24218496799700481 0.089025544070598317 0 0.65507451745379841 0.92229208810758578 0 0.66412543161245952 0.88015090885499059 0 0.68987011941058407 0.92105047536677087 0 0.049706944316475897 0.72477277076253799 0 0.090953281884486245 0.7564451946902494 0 0.04408157711937423 0.7728941757575627 0 0.083105206071452636 0.79992298667296435 0 0.04408157711937423 0.7728941757575627 0 0.090953281884486245 0.7564451946902494 0 0.083105206071467416 0.20007701332709979 0 0.095326043202144745 0.24554465089224409 0 0.044081577119474857 0.2271058242433576 0 0.049706944316556423 0.27522722923869108 0 0.044081577119474857 0.2271058242433576 0 0.095326043202144745 0.24554465089224409 0 0.36575549820117997 0.31677992835137742 0 0.33402499257867951 0.28911035184473982 0 0.3786248352540974 0.27082301512024259 0 0.53245488764484505 0.55078124999999989 0 0.53330375813596242 0.50827942741749099 0 0.57435499076887508 0.54267261987897775 0 0.57611405284611883 0.50165903596042916 0 0.57435499076887508 0.54267261987897775 0 0.53330375813596242 0.50827942741749099 0 0.6499999999999998 0.29999999999999999 0 0.69999999999999984 0.29999999999999999 0 0.68887083591306764 0.33632058575757479 0 0.57611405284611883 0.50165903596042916 0 0.53823865529665704 0.45873898050322898 0 0.57975577671020095 0.46172033326338591 0 0.7750489929959945 0.66593931409600093 0 0.72500000000000064 0.67022701834392062 0 0.74994237037456724 0.62775548192980357 0 0.78145581580700685 0.34881365920033602 0 0.74764719760526988 0.3719647154012321 0 0.73090396928863699 0.33699297293167962 0 0.3999999999989749 0 0 0.44999999999882923 0 0 0.4320097814748517 0.037406712692169303 0 0.45000000000187229 1 0 0.40000000000166441 1 0 0.4308986359464303 0.96395712492906194 0 0.57484956128872922 0.66573805030881994 0 0.5991018319127801 0.62925360607495295 0 0.62460753523532009 0.66851202781000296 0 0.7750489929959945 0.66593931409600093 0 0.79884539758237771 0.62875045078114233 0 0.82457059160610424 0.66831947184359608 0 0.39801143831225599 0.16651381068160659 0 0.36246644853392812 0.1399454205365751 0 0.39823268594401579 0.1116623613130045 0 0.078358742472063481 0.43365249433908948 0 0.033550201249889847 0.46247875832467239 0 0.035463093262830522 0.42673416072819947 0 0.25676291524611189 0.7436741304886243 0 0.2792923945214143 0.77665808831789485 0 0.22556077506376701 0.77837424984191617 0 0.2236846579037573 0.67380363126050236 0 0.2248999640082178 0.72584299459689172 0 0.19068556247388771 0.71028988922845504 0 0.50715858906372158 0.63295939104129484 0 0.5166924242153631 0.59825134841919447 0 0.5498280205245758 0.6290146943450976 0 0.14618258501891079 0.062070108745602003 0 0.12372429750337779 0.095814237875728972 0 0.10266856499169109 0.044518360900210059 0 0.083411279318303222 0.089699755330707398 0 0.10266856499169109 0.044518360900210059 0 0.12372429750337779 0.095814237875728972 0 0.083411279318375747 0.91030024466934134 0 0.1241151115713819 0.9045666525468371 0 0.10266856499240549 0.95548163909968886 0 0.14617343800780541 0.93808063414349496 0 0.10266856499240549 0.95548163909968886 0 0.1241151115713819 0.9045666525468371 0 0.5499999999988151 0 0 0.59999999999894682 0 0 0.57396793757665954 0.037011367187645222 0 0.54782696902220018 0.79245182748204157 0 0.50627822638148745 0.8263979829520941 0 0.50731287292894423 0.78963574450233831 0 0.6499999999999998 0.29999999999999999 0 0.62657463266645097 0.26524202571255862 0 0.67933712972090698 0.25920070958121938 0 0.86956835336234861 0.571283299838105 0 0.86907294890112186 0.52008116128001669 0 0.90900154012161016 0.53607784105648792 0 0.17933913398461551 0.2350063570234002 0 0.224700362040408 0.22206622194729711 0 0.21049769590865089 0.26857363548218488 0 0.43249999999999988 0.43937499999999979 0 0.3908716102680424 0.47010282357248828 0 0.38707855792647411 0.42299362914874578 0 0.27474541102162192 0.11822029332053539 0 0.22985637510995899 0.1298347970200906 0 0.24218496799700481 0.089025544070598317 0 0.64753070846764316 0.77332939069435502 0 0.66427993341343905 0.73232764502436276 0 0.6916490518212759 0.75387992374886192 0 0 0.40000000000166441 0 0.050583896093752537 0.38543522283434112 0 0.035463093262830522 0.42673416072819947 0 0.73483647259922602 0.44789725365921768 0 0.73947346780852752 0.49062440112282169 0 0.69385896817107129 0.48377516041410151 0 0.57484956128872922 0.66573805030881994 0 0.52584555706968406 0.66664215091846768 0 0.5498280205245758 0.6290146943450976 0 0.60000000000138687 1 0 0.55000000000173355 1 0 0.57382506491224949 0.9629411906298494 0 0.068743045408989428 0.48853989837882689 0 0.085622222639554768 0.53333248912060549 0 0.044576108720083309 0.53509043209532614 0 0.083105206071467416 0.20007701332709979 0 0.044081577119474857 0.2271058242433576 0 0.038512288486115001 0.1844147282893184 0 0.083105206071452636 0.79992298667296435 0 0.038512288486097702 0.8155852717111195 0 0.04408157711937423 0.7728941757575627 0 0.28307294598219601 0.50789252727458634 0 0.23975172658309729 0.49475499200540818 0 0.25982634974572738 0.46097799597715272 0 0.43698630808430822 0.080423614171545449 0 0.39591832466117061 0.056982757562006353 0 0.4320097814748517 0.037406712692169303 0 0.4367309254023824 0.92065556789053882 0 0.4308986359464303 0.96395712492906194 0 0.39641108128798319 0.94356127926187128 0 0.80185942888539485 0.77452061303608133 0 0.75841349681148107 0.75422312624214749 0 0.78578450296893509 0.73292684821144505 0 0.80185942888501827 0.074520613036224564 0 0.7527966693318906 0.053051678021508272 0 0.78393852574753176 0.032039079577822822 0 0.6499999999999998 0.69999999999999996 0 0.62460753523532009 0.66851202781000296 0 0.675261390228442 0.65996937624687813 0 0.33123028043633618 0.77629643437932982 0 0.38586766253264881 0.78219501014812498 0 0.35642984951668422 0.80994399665655703 0 0.6405463747586706 0.63290524857395714 0 0.675261390228442 0.65996937624687813 0 0.62460753523532009 0.66851202781000296 0 0.22278230690790279 0.44824268025881547 0 0.191953871957803 0.42546416763755879 0 0.24049127783545701 0.41270748208749802 0 0.077693244765132896 0.56932317963405099 0 0.050069554451969707 0.61308520079857043 0 0.034381862692950467 0.57372682250960894 0 0.25195515620380449 0.25883339815888678 0 0.24432083401701241 0.3006253385567515 0 0.21049769590865089 0.26857363548218488 0 0.46666084890304671 0.57634471035397938 0 0.5166924242153631 0.59825134841919447 0 0.47095389620662098 0.61892551373708504 0 0.50715858906372158 0.63295939104129484 0 0.47095389620662098 0.61892551373708504 0 0.5166924242153631 0.59825134841919447 0 0.72525833953073282 0.1032114801687094 0 0.7527966693318906 0.053051678021508272 0 0.76878382444651716 0.097147941686331368 0 0.80185942888501827 0.074520613036224564 0 0.76878382444651716 0.097147941686331368 0 0.7527966693318906 0.053051678021508272 0 0.72500000000000064 0.7952620967744265 0 0.75841349681148107 0.75422312624214749 0 0.77094201086366854 0.79647480515688507 0 0.80185942888539485 0.77452061303608133 0 0.77094201086366854 0.79647480515688507 0 0.75841349681148107 0.75422312624214749 0 0.72500000000000064 0.7952620967744265 0 0.68024162096458085 0.79868546898116533 0 0.6916490518212759 0.75387992374886192 0 0.64753070846764316 0.77332939069435502 0 0.6916490518212759 0.75387992374886192 0 0.68024162096458085 0.79868546898116533 0 0 0.50000000000205869 0 0 0.45000000000187229 0 0.033550201249889847 0.46247875832467239 0 0.69999999999999984 0.69999999999999996 0 0.675261390228442 0.65996937624687813 0 0.72500000000000064 0.67022701834392062 0 0.71406021706547751 0.63292083137662503 0 0.72500000000000064 0.67022701834392062 0 0.675261390228442 0.65996937624687813 0 0.65408113592120842 0.073941773121567966 0 0.61940220174112337 0.047251958781050582 0 0.66369801598854572 0.036327466368102787 0 0.59999999999894682 0 0 0.61940220174112337 0.047251958781050582 0 0.57396793757665954 0.037011367187645222 0 0.60000000000138687 1 0 0.57382506491224949 0.9629411906298494 0 0.62065498684670595 0.95224934003983619 0 0.33122374654748771 0.57588941099433744 0 0.35765792684946668 0.6000687869219653 0 0.31502927232353312 0.6134992213375432 0 0.35864735590330371 0.63903383440414463 0 0.31502927232353312 0.6134992213375432 0 0.35765792684946668 0.6000687869219653 0 0.15801167086041079 0.46008690540259539 0 0.19604738184454831 0.47787523520405789 0 0.16618607197337229 0.50652878253548905 0 0.078358742472063481 0.43365249433908948 0 0.035463093262830522 0.42673416072819947 0 0.050583896093752537 0.38543522283434112 0 0.19901705110390991 0.9175543425573498 0 0.22850979588452081 0.95594428570238643 0 0.18474005699953849 0.96231585248064622 0 0.19922788606653311 0.085920220746880993 0 0.184418230509967 0.038773194583122873 0 0.22668068146512929 0.045875643423131329 0 0.19922788606653311 0.085920220746880993 0 0.24218496799700481 0.089025544070598317 0 0.22985637510995899 0.1298347970200906 0 0.74999999999999989 0.69999999999999996 0 0.78578450296893509 0.73292684821144505 0 0.75841349681148107 0.75422312624214749 0 0.74999999999934175 0 0 0.78393852574753176 0.032039079577822822 0 0.7527966693318906 0.053051678021508272 0 0 0.60000000000138687 0 0.034381862692950467 0.57372682250960894 0 0.050069554451969707 0.61308520079857043 0 0.2236846579037573 0.67380363126050236 0 0.26439878998046262 0.7048065392091396 0 0.2248999640082178 0.72584299459689172 0 0.6236733212988993 0.14864538214901801 0 0.58516465772821369 0.11653801664834119 0 0.61956000905586006 0.1043312481793135 0 0.26104540868854792 0.81401944968719064 0 0.2792923945214143 0.77665808831789485 0 0.30857225866488791 0.81101973481716805 0 0.42377727103934271 0.25099357235810238 0 0.42905200079338551 0.19982395548231649 0 0.46429753744194407 0.22870891180733599 0 0.27820712747429932 0.65530134213254643 0 0.31502927232353312 0.6134992213375432 0 0.32263089806001177 0.66003674931826484 0 0.61343887413683884 0.856862479058357 0 0.61885627562261258 0.90282959257498208 0 0.5832743223239254 0.88483152652961872 0 0.43698630808430822 0.080423614171545449 0 0.47040171442036788 0.044141676406503738 0 0.47881186583059909 0.093591717165689425 0 0.4367309254023824 0.92065556789053882 0 0.47401147028110507 0.91529957330468115 0 0.47135117303824892 0.95556877749289892 0 0.91696753777131557 0.497780560203536 0 0.95631871884947484 0.51827533208233789 0 0.90900154012161016 0.53607784105648792 0 0.93732437411268477 0.55911392101136159 0 0.90900154012161016 0.53607784105648792 0 0.95631871884947484 0.51827533208233789 0 0.27474541102162192 0.11822029332053539 0 0.25557216766470708 0.15874861286892261 0 0.22985637510995899 0.1298347970200906 0 0.2185883431182947 0.18019736283949719 0 0.22985637510995899 0.1298347970200906 0 0.25557216766470708 0.15874861286892261 0 0.29348325746214782 0.31350119524708198 0 0.33402499257867951 0.28911035184473982 0 0.32752639306529541 0.32610012995269699 0 0.27499999999933927 0.060310814194988557 0 0.32541448401678508 0.046215317981507749 0 0.3096713403101819 0.085471541595262421 0 0.27270076654418179 0.87751467830216623 0 0.24536017905392571 0.90704567837671446 0 0.2401283238295133 0.85648409884788523 0 1 0.44999999999963131 0 1 0.49999999999950101 0 0.96228564064454991 0.48206450662049471 0 0.61343887413683884 0.856862479058357 0 0.66412543161245952 0.88015090885499059 0 0.61885627562261258 0.90282959257498208 0 0 0.45000000000187229 0 0 0.40000000000166441 0 0.035463093262830522 0.42673416072819947 0 0.69999999999999984 0.69999999999999996 0 0.6916490518212759 0.75387992374886192 0 0.66427993341343905 0.73232764502436276 0 0.43846182030517877 0.64845797726506715 0 0.43323420005758778 0.6913544522562407 0 0.3977710372045391 0.65868194622830212 0 0.4367309254023824 0.92065556789053882 0 0.44003836461056539 0.88093474584252718 0 0.47401147028110507 0.91529957330468115 0 0.43846182030517877 0.64845797726506715 0 0.39743091024207589 0.6239520004230239 0 0.43545892161006339 0.61093128915313821 0 0.43846182030517877 0.64845797726506715 0 0.3977710372045391 0.65868194622830212 0 0.39743091024207589 0.6239520004230239 0 0.26429849586623999 0.19346700179430079 0 0.29336099386129338 0.15892013001050981 0 0.31255190597181792 0.19850845631528771 0 0.19670163708476801 0.31472518408333222 0 0.21049769590865089 0.26857363548218488 0 0.24432083401701241 0.3006253385567515 0 0.57724883562309992 0.92155686857100794 0 0.62065498684670595 0.95224934003983619 0 0.57382506491224949 0.9629411906298494 0 0.4409427642593301 0.35743108089689513 0 0.46655310992796922 0.39650496622958609 0 0.42161023666869668 0.39493916313643851 0 0.46666084890304671 0.57634471035397938 0 0.47095389620662098 0.61892551373708504 0 0.43545892161006339 0.61093128915313821 0 0.6879972333610942 0.43038561374960838 0 0.65178832218679827 0.45929119821019959 0 0.63912439215427275 0.41063340167983359 0 0.43698630808430822 0.080423614171545449 0 0.4320097814748517 0.037406712692169303 0 0.47040171442036788 0.044141676406503738 0 0.4367309254023824 0.92065556789053882 0 0.47135117303824892 0.95556877749289892 0 0.4308986359464303 0.96395712492906194 0 0.79680861578988083 0.92656778056766709 0 0.81486180804382891 0.96321394949790495 0 0.770759834363826 0.95919399014344442 0 0.79680861578956375 0.22656778056752541 0 0.81486180804364938 0.26321394949780091 0 0.77075983436335049 0.25919399014334171 0 0.71508799138962864 0.36622814920737751 0 0.68128176404677243 0.38629093627004979 0 0.68887083591306764 0.33632058575757479 0 0.35864735590330371 0.63903383440414463 0 0.32263089806001177 0.66003674931826484 0 0.31502927232353312 0.6134992213375432 0 0.21858834311891909 0.81980263716112767 0 0.2401283238295133 0.85648409884788523 0 0.19741632902693801 0.86755867406447229 0 0.35312867752657662 0.084946736076730367 0 0.32215584939770009 0.1218492143506909 0 0.3096713403101819 0.085471541595262421 0 0.35752321586431363 0.9185439911803448 0 0.35864759629805099 0.87963482415279515 0 0.39767323751400468 0.89584229130535065 0 0.41914690343363781 0.30688979866601612 0 0.4604742573284204 0.27846934318264788 0 0.46226845272279993 0.31901800744800313 0 0.33084213324567391 0.16272720141332131 0 0.32215584939770009 0.1218492143506909 0 0.36246644853392812 0.1399454205365751 0 0.46666084890304671 0.57634471035397938 0 0.42644501560315817 0.54603747078095544 0 0.47793794143994173 0.52940715638744962 0 0 0.60000000000138687 0 0 0.55000000000173355 0 0.034381862692950467 0.57372682250960894 0 0.77354604466818633 0.40378688774472771 0 0.74764719760526988 0.3719647154012321 0 0.78145581580700685 0.34881365920033602 0 0.34999999999912063 0 0 0.3615861437013822 0.03582617922508851 0 0.32541448401678508 0.046215317981507749 0 0.35000000000145642 1 0 0.32544832635163229 0.95485394099568932 0 0.36184234618600131 0.96443954459096326 0 0.57667858002728545 0.078486105337742612 0 0.57396793757665954 0.037011367187645222 0 0.61940220174112337 0.047251958781050582 0 0.47357141910802508 0.1873585799078378 0 0.50760557329222289 0.20700468884612061 0 0.46429753744194407 0.22870891180733599 0 0.49695729691142171 0.25014895411178018 0 0.46429753744194407 0.22870891180733599 0 0.50760557329222289 0.20700468884612061 0 0.33084213324567391 0.16272720141332131 0 0.3572130504031617 0.1874703368446563 0 0.31255190597181792 0.19850845631528771 0 0.6879972333610942 0.43038561374960838 0 0.63912439215427275 0.41063340167983359 0 0.68128176404677243 0.38629093627004979 0 0.65408113592120842 0.073941773121567966 0 0.65290632656860115 0.11434202593454081 0 0.61956000905586006 0.1043312481793135 0 0.33084213324567391 0.16272720141332131 0 0.31255190597181792 0.19850845631528771 0 0.29336099386129338 0.15892013001050981 0 0.61209567303293111 0.44669033081290321 0 0.63912439215427275 0.41063340167983359 0 0.65178832218679827 0.45929119821019959 0 0.086179601630648681 0.64647209519980475 0 0.1024350934457823 0.60772393977513839 0 0.1241190223511371 0.64391885572885044 0 0.44999999999882923 0 0 0.47040171442036788 0.044141676406503738 0 0.4320097814748517 0.037406712692169303 0 0.45000000000187229 1 0 0.4308986359464303 0.96395712492906194 0 0.47135117303824892 0.95556877749289892 0 0.74999999999934175 0 0 0.7527966693318906 0.053051678021508272 0 0.72683645290270404 0.027797073151180601 0 0.74999999999999989 0.69999999999999996 0 0.75841349681148107 0.75422312624214749 0 0.72501250972655151 0.74067302935308721 0 0.69999999999999984 0.69999999999999996 0 0.72501250972655151 0.74067302935308721 0 0.6916490518212759 0.75387992374886192 0 0.74999999999934175 0 0 0.79999999999947335 0 0 0.78393852574753176 0.032039079577822822 0 0.74999999999999989 0.69999999999999996 0 0.79999999999999982 0.69999999999999996 0 0.78578450296893509 0.73292684821144505 0 0.6405463747586706 0.63290524857395714 0 0.5991018319127801 0.62925360607495295 0 0.63065402604362242 0.59661356661633302 0 0.65481233915350323 0.35652751921065562 0 0.68887083591306764 0.33632058575757479 0 0.68128176404677243 0.38629093627004979 0 0.89999999999999991 0.29999999999999999 0 0.94999999999999996 0.29999999999999999 0 0.92012390126144183 0.33123581297173937 0 0.89999999999999991 0.69999999999999996 0 0.92057473616084773 0.66770436535372446 0 0.94999999999999996 0.69999999999999996 0 0.4367309254023824 0.92065556789053882 0 0.39767323751400468 0.89584229130535065 0 0.44003836461056539 0.88093474584252718 0 0.2185883431182947 0.18019736283949719 0 0.18124454140915969 0.18790916706335251 0 0.18652628422869419 0.14162325200928061 0 0.20050006573841939 0.53248514016039872 0 0.19604738184454831 0.47787523520405789 0 0.23975172658309729 0.49475499200540818 0 0.65507451745379841 0.92229208810758578 0 0.61885627562261258 0.90282959257498208 0 0.66412543161245952 0.88015090885499059 0 0.65394964615507722 0.22666784374016369 0 0.67933712972090698 0.25920070958121938 0 0.62657463266645097 0.26524202571255862 0 0.077693244765132896 0.56932317963405099 0 0.034381862692950467 0.57372682250960894 0 0.044576108720083309 0.53509043209532614 0 0.39801143831225599 0.16651381068160659 0 0.38831533174504851 0.2189834941785925 0 0.3572130504031617 0.1874703368446563 0 0.6499999999999998 0.69999999999999996 0 0.69999999999999984 0.69999999999999996 0 0.66427993341343905 0.73232764502436276 0 0.1215415378367805 0.72939333680004137 0 0.15332765547575641 0.71200081858233666 0 0.14335651144331049 0.75565258250209677 0 0.6405463747586706 0.63290524857395714 0 0.63065402604362242 0.59661356661633302 0 0.67529834988829951 0.61613270668143583 0 0.67323294229744413 0.57556450033612505 0 0.67529834988829951 0.61613270668143583 0 0.63065402604362242 0.59661356661633302 0 0.91750694127107502 0.36982372220068471 0 0.87430060258887643 0.34056085888204451 0 0.92012390126144183 0.33123581297173937 0 0.89999999999999991 0.29999999999999999 0 0.92012390126144183 0.33123581297173937 0 0.87430060258887643 0.34056085888204451 0 0.89999999999999991 0.69999999999999996 0 0.87712158428786946 0.65709029563313581 0 0.92057473616084773 0.66770436535372446 0 0.91750694127105259 0.63017627779935648 0 0.92057473616084773 0.66770436535372446 0 0.87712158428786946 0.65709029563313581 0 0.33122374654748771 0.57588941099433744 0 0.29110487519241501 0.56588143995431495 0 0.33190227185843768 0.52715113583864037 0 0.57484956128872922 0.66573805030881994 0 0.5498280205245758 0.6290146943450976 0 0.5991018319127801 0.62925360607495295 0 0.57412547362576272 0.58273804879550706 0 0.5991018319127801 0.62925360607495295 0 0.5498280205245758 0.6290146943450976 0 0.65408113592120842 0.073941773121567966 0 0.66369801598854572 0.036327466368102787 0 0.7010294155333181 0.056779085686491267 0 0.27474541102162192 0.11822029332053539 0 0.32215584939770009 0.1218492143506909 0 0.29336099386129338 0.15892013001050981 0 0.33084213324567391 0.16272720141332131 0 0.29336099386129338 0.15892013001050981 0 0.32215584939770009 0.1218492143506909 0 0.5 0.29999999999999999 0 0.54999999999999993 0.29999999999999999 0 0.52752007115234678 0.33170632466418198 0 0.83573492347052902 0.36590755630746369 0 0.87430060258887643 0.34056085888204451 0 0.86844634540301924 0.38530937474099819 0 0.83758014339878906 0.63222013025741819 0 0.87159648282691515 0.61285406320581504 0 0.87712158428786946 0.65709029563313581 0 0.22278230690790279 0.44824268025881547 0 0.23975172658309729 0.49475499200540818 0 0.19604738184454831 0.47787523520405789 0 1 0.49999999999950101 0 0.95631871884947484 0.51827533208233789 0 0.96228564064454991 0.48206450662049471 0 0.1650278706801647 0.38791388161335733 0 0.13773355295499351 0.42497777642586831 0 0.1117088112799664 0.38831403004970022 0 0.61209567303293111 0.44669033081290321 0 0.57975577671020095 0.46172033326338591 0 0.57744073070774993 0.41535148636609359 0 0.077693244765132896 0.56932317963405099 0 0.1154888278694548 0.56733818459978413 0 0.1024350934457823 0.60772393977513839 0 0.68697391633157634 0.84450604838764298 0 0.65005442820240822 0.82644988530054031 0 0.68024162096458085 0.79868546898116533 0 0.76901770135486491 0.84293557325473656 0 0.77094201086366854 0.79647480515688507 0 0.80041942726660109 0.81543261647703358 0 0.77144070960558853 0.14311854477243749 0 0.76878382444651716 0.097147941686331368 0 0.80076557130237269 0.1154587552654202 0 0.5 0.69999999999999996 0 0.52584555706968406 0.66664215091846768 0 0.54999999999999993 0.69999999999999996 0 0.077693244765132896 0.56932317963405099 0 0.044576108720083309 0.53509043209532614 0 0.085622222639554768 0.53333248912060549 0 0.69999999999921003 0 0 0.72683645290270404 0.027797073151180601 0 0.7010294155333181 0.056779085686491267 0 1 0 0 0.97166519676946894 0.033371144900598393 0 0.94999999999986839 0 0 1 0.69999999999999996 0 0.97166519676947294 0.73337114490064459 0 0.94999999999999996 0.69999999999999996 0 1 0.69999999999999996 0 1 0.74999999999993494 0 0.97166519676947294 0.73337114490064459 0 1 0.29999999999999999 0 0.97166519676951801 0.26662885509932011 0 1 0.24999999999987299 0 1 1 0 0.94999999999979179 1 0 0.97166519676946206 0.96662885509935492 0 1 0 0 1 0.049999999999896842 0 0.97166519676946894 0.033371144900598393 0 1 0.29999999999999999 0 0.94999999999999996 0.29999999999999999 0 0.97166519676951801 0.26662885509932011 0 1 1 0 0.97166519676946206 0.96662885509935492 0 1 0.94999999999997109 0 0 0.55000000000173355 0 0.044576108720083309 0.53509043209532614 0 0.034381862692950467 0.57372682250960894 0 0.6879972333610942 0.43038561374960838 0 0.69385896817107129 0.48377516041410151 0 0.65178832218679827 0.45929119821019959 0 0.33084213324567391 0.16272720141332131 0 0.36246644853392812 0.1399454205365751 0 0.3572130504031617 0.1874703368446563 0 0.65408113592120842 0.073941773121567966 0 0.68330259535470161 0.10038702501083881 0 0.65290632656860115 0.11434202593454081 0 0.16500388252850301 0.66612077714085194 0 0.19068556247388771 0.71028988922845504 0 0.15332765547575641 0.71200081858233666 0 0.82709327591091286 0.84937141670920724 0 0.85600844944837662 0.88483418979512773 0 0.81159157511211755 0.88795995483179491 0 0.82709327591102189 0.14937141670914489 0 0.85600844944842547 0.1848341897950983 0 0.81283102246527783 0.1881007222486438 0 0.79999999999999982 0.29999999999999999 0 0.84999999999999987 0.29999999999999999 0 0.82500000000000062 0.33010209762754811 0 0.79999999999999982 0.69999999999999996 0 0.82457059160610424 0.66831947184359608 0 0.84999999999999987 0.69999999999999996 0 0.59999999999999976 0.69999999999999996 0 0.62460753523532009 0.66851202781000296 0 0.6499999999999998 0.69999999999999996 0 0.39801143831225599 0.16651381068160659 0 0.3572130504031617 0.1874703368446563 0 0.36246644853392812 0.1399454205365751 0 0.69999999999999984 0.29999999999999999 0 0.74999999999999989 0.29999999999999999 0 0.73090396928863699 0.33699297293167962 0 0.69999999999999984 0.69999999999999996 0 0.72500000000000064 0.67022701834392062 0 0.74999999999999989 0.69999999999999996 0 0.6236733212988993 0.14864538214901801 0 0.64011864159029941 0.18789607982138171 0 0.59443395090188023 0.18455690917515069 0 0.20050006573841939 0.53248514016039872 0 0.16618607197337229 0.50652878253548905 0 0.19604738184454831 0.47787523520405789 0 0.79680861578956375 0.22656778056752541 0 0.76587607630038135 0.18880039518954719 0 0.81283102246527783 0.1881007222486438 0 0.79680861578988083 0.92656778056766709 0 0.76891166905518427 0.88835469571185499 0 0.81159157511211755 0.88795995483179491 0 0.71406021706547751 0.63292083137662503 0 0.675261390228442 0.65996937624687813 0 0.67529834988829951 0.61613270668143583 0 0.6405463747586706 0.63290524857395714 0 0.67529834988829951 0.61613270668143583 0 0.675261390228442 0.65996937624687813 0 0.19670163708476801 0.31472518408333222 0 0.168349569971391 0.28054490850913671 0 0.21049769590865089 0.26857363548218488 0 0.47357141910802508 0.1873585799078378 0 0.46429753744194407 0.22870891180733599 0 0.42905200079338551 0.19982395548231649 0 0.59814117807200873 0.23398510860739519 0 0.5794309697024993 0.27124795968204829 0 0.54248833945060504 0.2520322959927106 0 0.6541250972820879 0.49999999999999989 0 0.65178832218679827 0.45929119821019959 0 0.69385896817107129 0.48377516041410151 0 0.54999999999999993 0.29999999999999999 0 0.5794309697024993 0.27124795968204829 0 0.59999999999999976 0.29999999999999999 0 0.7750489929959945 0.66593931409600093 0 0.74994237037456724 0.62775548192980357 0 0.79884539758237771 0.62875045078114233 0 0.77293540622714185 0.59448302402785813 0 0.79884539758237771 0.62875045078114233 0 0.74994237037456724 0.62775548192980357 0 0.14332333627550789 0.14578431753966009 0 0.16141998738593399 0.10404039647458049 0 0.18652628422869419 0.14162325200928061 0 0.38083244760691543 0.38531983672244652 0 0.42161023666869668 0.39493916313643851 0 0.38707855792647411 0.42299362914874578 0 0.43249999999999988 0.43937499999999979 0 0.38707855792647411 0.42299362914874578 0 0.42161023666869668 0.39493916313643851 0 0.43846182030517877 0.64845797726506715 0 0.47095389620662098 0.61892551373708504 0 0.47913475093885149 0.66010775372412711 0 0.50715858906372158 0.63295939104129484 0 0.47913475093885149 0.66010775372412711 0 0.47095389620662098 0.61892551373708504 0 0.69999999999999984 0.69999999999999996 0 0.74999999999999989 0.69999999999999996 0 0.72501250972655151 0.74067302935308721 0 0.4089290844030305 0.58728915500154233 0 0.35765792684946668 0.6000687869219653 0 0.37272913873093971 0.56192925302619479 0 0.69999999999921003 0 0 0.74999999999934175 0 0 0.72683645290270404 0.027797073151180601 0 0.17933913398461551 0.2350063570234002 0 0.21049769590865089 0.26857363548218488 0 0.168349569971391 0.28054490850913671 0 0.14474682429600511 0.85524784522713515 0 0.10562472963403439 0.87143394428979881 0 0.1074251789111534 0.83564394292147814 0 0.14332333627550789 0.14578431753966009 0 0.106902708054812 0.16453234188234539 0 0.1053400320299198 0.12877248826361379 0 0.2236846579037573 0.67380363126050236 0 0.19914261668318661 0.62286739485272158 0 0.2459498854893499 0.63248470766216769 0 0.049999999999899652 0 0 0.053064897599215843 0.048131547304697528 0 0.02576622439977887 0.024532886826226379 0 0 0.050000000000207989 0 0.02576622439977887 0.024532886826226379 0 0.053064897599215843 0.048131547304697528 0 0.050000000000207989 1 0 0.025766224399875661 0.97546711317377799 0 0.053064897599294662 0.95186845269532028 0 0 0.94999999999979179 0 0.053064897599294662 0.95186845269532028 0 0.025766224399875661 0.97546711317377799 0 0.47357141910802508 0.1873585799078378 0 0.48466639505193998 0.1421439844745814 0 0.51729576145820033 0.1683240575987815 0 0.077693244765132896 0.56932317963405099 0 0.085622222639554768 0.53333248912060549 0 0.1154888278694548 0.56733818459978413 0 0.64753070846764316 0.77332939069435502 0 0.63221990677827677 0.73442891067859706 0 0.66427993341343905 0.73232764502436276 0 0.4656888918609538 0.78493261229743638 0 0.42609163930740518 0.80361684430568059 0 0.42676259796334498 0.76772545931379299 0 0.4089290844030305 0.58728915500154233 0 0.39743091024207589 0.6239520004230239 0 0.35765792684946668 0.6000687869219653 0 0.55306006949600994 0.20198184231352201 0 0.50760557329222289 0.20700468884612061 0 0.51729576145820033 0.1683240575987815 0 1 0.8999999999998336 0 1 0.94999999999997109 0 0.97435614836744289 0.92499999999990257 0 1 0.19999999999974799 0 1 0.24999999999987299 0 0.97435614836740092 0.22499999999981049 0 1 0.74999999999993494 0 1 0.7999999999998193 0 0.97435614836745565 0.77499999999987745 0 1 0.049999999999896842 0 1 0.099999999999753911 0 0.97435614836748241 0.074999999999825387 0 0.86411095495256451 0.42388805655111889 0 0.86844634540301924 0.38530937474099819 0 0.90594285160987287 0.4141265964174129 0 0.86956835336234861 0.571283299838105 0 0.91143117093204207 0.58709913730335972 0 0.87159648282691515 0.61285406320581504 0 0 0 0 0.02576622439977887 0.024532886826226379 0 0 0.050000000000207989 0 0 1 0 0 0.94999999999979179 0 0.025766224399875661 0.97546711317377799 0 0 1 0 0.025766224399875661 0.97546711317377799 0 0.050000000000207989 1 0 0 0 0 0.049999999999899652 0 0 0.02576622439977887 0.024532886826226379 0 0.65394964615507722 0.22666784374016369 0 0.64011864159029941 0.18789607982138171 0 0.6865991819015953 0.189116534044597 0 0.25195515620380449 0.25883339815888678 0 0.28040350263641872 0.23054717217092141 0 0.29132859388405002 0.27203693976649962 0 0.61209567303293111 0.44669033081290321 0 0.65178832218679827 0.45929119821019959 0 0.61547661924074692 0.48539576058873962 0 0.6541250972820879 0.49999999999999989 0 0.61547661924074692 0.48539576058873962 0 0.65178832218679827 0.45929119821019959 0 0.19670163708476801 0.31472518408333222 0 0.24432083401701241 0.3006253385567515 0 0.22615676742807109 0.33458786033114157 0 0.15801167086041079 0.46008690540259539 0 0.13773355295499351 0.42497777642586831 0 0.191953871957803 0.42546416763755879 0 0.1650278706801647 0.38791388161335733 0 0.191953871957803 0.42546416763755879 0 0.13773355295499351 0.42497777642586831 0 0.50715858906372158 0.63295939104129484 0 0.52584555706968406 0.66664215091846768 0 0.47913475093885149 0.66010775372412711 0 0.5 0.69999999999999996 0 0.47913475093885149 0.66010775372412711 0 0.52584555706968406 0.66664215091846768 0 0.51076801031701946 0.1202837388510348 0 0.51729576145820033 0.1683240575987815 0 0.48466639505193998 0.1421439844745814 0 0.71406021706547751 0.63292083137662503 0 0.74994237037456724 0.62775548192980357 0 0.72500000000000064 0.67022701834392062 0 0.71508799138962864 0.36622814920737751 0 0.73090396928863699 0.33699297293167962 0 0.74764719760526988 0.3719647154012321 0 0.22278230690790279 0.44824268025881547 0 0.25982634974572738 0.46097799597715272 0 0.23975172658309729 0.49475499200540818 0 0.80185942888539485 0.77452061303608133 0 0.78578450296893509 0.73292684821144505 0 0.81864958914779962 0.73589050177899629 0 0.80185942888501827 0.074520613036224564 0 0.78393852574753176 0.032039079577822822 0 0.81864958914740749 0.035890501779055867 0 0.5 0.29999999999999999 0 0.46226845272279993 0.31901800744800313 0 0.4604742573284204 0.27846934318264788 0 0.6405463747586706 0.63290524857395714 0 0.62460753523532009 0.66851202781000296 0 0.5991018319127801 0.62925360607495295 0 0.79680861578988083 0.92656778056766709 0 0.770759834363826 0.95919399014344442 0 0.75729602384198635 0.92353652857884294 0 0.79680861578956375 0.22656778056752541 0 0.77075983436335049 0.25919399014334171 0 0.75668890529066124 0.2244279804069782 0 0.65394964615507722 0.22666784374016369 0 0.69397719155551807 0.2245125647000914 0 0.67933712972090698 0.25920070958121938 0 0.81973119833356312 0.43505687159469048 0 0.84925632466077294 0.45359738909549091 0 0.81400510706333218 0.47357325943904899 0 0.83758014339878906 0.63222013025741819 0 0.82457059160610424 0.66831947184359608 0 0.79884539758237771 0.62875045078114233 0 0.25676291524611189 0.7436741304886243 0 0.2248999640082178 0.72584299459689172 0 0.26439878998046262 0.7048065392091396 0 0.91696753777131557 0.497780560203536 0 0.90900154012161016 0.53607784105648792 0 0.86907294890112186 0.52008116128001669 0 0.17933913398461551 0.2350063570234002 0 0.168349569971391 0.28054490850913671 0 0.14377654328998779 0.2442024734791064 0 0.1247745017231483 0.27198077544791172 0 0.14377654328998779 0.2442024734791064 0 0.168349569971391 0.28054490850913671 0 0.34258405725730701 0.4444034294386992 0 0.35221190152536241 0.40457127605439203 0 0.38707855792647411 0.42299362914874578 0 0.47357141910802508 0.1873585799078378 0 0.51729576145820033 0.1683240575987815 0 0.50760557329222289 0.20700468884612061 0 0.19670163708476801 0.31472518408333222 0 0.22615676742807109 0.33458786033114157 0 0.18434624290945251 0.35208838264196463 0 0.22033343844674469 0.36963382230740238 0 0.18434624290945251 0.35208838264196463 0 0.22615676742807109 0.33458786033114157 0 0.24432083401701241 0.3006253385567515 0 0.25966125648670141 0.34351016742083729 0 0.22615676742807109 0.33458786033114157 0 0.93814194660195893 0.44426664081746747 0 0.90594285160987287 0.4141265964174129 0 0.95871855522754235 0.40006508612975411 0 0.91750694127107502 0.36982372220068471 0 0.95871855522754235 0.40006508612975411 0 0.90594285160987287 0.4141265964174129 0 0.91750694127105259 0.63017627779935648 0 0.91143117093204207 0.58709913730335972 0 0.95867599106212187 0.60011091146651041 0 0.93732437411268477 0.55911392101136159 0 0.95867599106212187 0.60011091146651041 0 0.91143117093204207 0.58709913730335972 0 0.50715858906372158 0.63295939104129484 0 0.5498280205245758 0.6290146943450976 0 0.52584555706968406 0.66664215091846768 0 0.94399509803918602 0.75600490196082126 0 0.97435614836745565 0.77499999999987745 0 0.95386563387742829 0.80414874155775029 0 0.94399509803922566 0.056004901960802607 0 0.97435614836748241 0.074999999999825387 0 0.95386563387744361 0.1041487415577465 0 0.94399509803921056 0.24399509803922639 0 0.95391631417672862 0.19584263333809451 0 0.97435614836740092 0.22499999999981049 0 0.94399509803919068 0.9439950980391687 0 0.95391631417670719 0.89584263333814784 0 0.97435614836744289 0.92499999999990257 0 0.79680861578988083 0.92656778056766709 0 0.75729602384198635 0.92353652857884294 0 0.76891166905518427 0.88835469571185499 0 0.79680861578956375 0.22656778056752541 0 0.75668890529066124 0.2244279804069782 0 0.76587607630038135 0.18880039518954719 0 0.65394964615507722 0.22666784374016369 0 0.6865991819015953 0.189116534044597 0 0.69397719155551807 0.2245125647000914 0 0.38083244760691543 0.38531983672244652 0 0.38707855792647411 0.42299362914874578 0 0.35221190152536241 0.40457127605439203 0 1 0.7999999999998193 0 0.95386563387742829 0.80414874155775029 0 0.97435614836745565 0.77499999999987745 0 1 0.099999999999753911 0 0.95386563387744361 0.1041487415577465 0 0.97435614836748241 0.074999999999825387 0 1 0.8999999999998336 0 0.97435614836744289 0.92499999999990257 0 0.95391631417670719 0.89584263333814784 0 1 0.19999999999974799 0 0.97435614836740092 0.22499999999981049 0 0.95391631417672862 0.19584263333809451 0 0.84723782639812573 0.48638347960178252 0 0.81400510706333218 0.47357325943904899 0 0.84925632466077294 0.45359738909549091 0 0.54999999999999993 0.29999999999999999 0 0.54248833945060504 0.2520322959927106 0 0.5794309697024993 0.27124795968204829 0 0.94999999999999996 0.29999999999999999 0 0.95780851984364423 0.34215720972155339 0 0.92012390126144183 0.33123581297173937 0 0.94999999999999996 0.69999999999999996 0 0.92057473616084773 0.66770436535372446 0 0.9578014258160763 0.65787212321113708 0 0.15801167086041079 0.46008690540259539 0 0.113541300460994 0.46208784312094731 0 0.13773355295499351 0.42497777642586831 0 0.7250000000005199 0.94981617647078953 0 0.68015064798562208 0.95924320340003011 0 0.68987011941058407 0.92105047536677087 0 0.65507451745379841 0.92229208810758578 0 0.68987011941058407 0.92105047536677087 0 0.68015064798562208 0.95924320340003011 0 0.77846603114747959 0.49850927265137401 0 0.77972660463949339 0.45529290596363098 0 0.81400510706333218 0.47357325943904899 0 0.27866744612395528 0.38416094670951489 0 0.25966125648670141 0.34351016742083729 0 0.29644548887253103 0.34914008784168082 0 0.61209567303293111 0.44669033081290321 0 0.61547661924074692 0.48539576058873962 0 0.57975577671020095 0.46172033326338591 0 0.57611405284611883 0.50165903596042916 0 0.57975577671020095 0.46172033326338591 0 0.61547661924074692 0.48539576058873962 0 0.7250000000005199 0.89375000000045834 0 0.76891166905518427 0.88835469571185499 0 0.75729602384198635 0.92353652857884294 0 0.72500000000001008 0.19776155966387679 0 0.76587607630038135 0.18880039518954719 0 0.75668890529066124 0.2244279804069782 0 0.72500000000001008 0.19776155966387679 0 0.69397719155551807 0.2245125647000914 0 0.6865991819015953 0.189116534044597 0 0.083411279318303222 0.089699755330707398 0 0.12372429750337779 0.095814237875728972 0 0.1053400320299198 0.12877248826361379 0 0.083411279318375747 0.91030024466934134 0 0.10562472963403439 0.87143394428979881 0 0.1241151115713819 0.9045666525468371 0 0.14617343800780541 0.93808063414349496 0 0.1241151115713819 0.9045666525468371 0 0.16206583317966519 0.89685560785156404 0 0.14618258501891079 0.062070108745602003 0 0.16141998738593399 0.10404039647458049 0 0.12372429750337779 0.095814237875728972 0 0.33277555741076909 0.36432196682010132 0 0.35221190152536241 0.40457127605439203 0 0.31778888742534622 0.40581751814196781 0 0.7250000000005199 0.94981617647078953 0 0.75729602384198635 0.92353652857884294 0 0.770759834363826 0.95919399014344442 0 0.72500000000000064 0.2498161764706 0 0.75668890529066124 0.2244279804069782 0 0.77075983436335049 0.25919399014334171 0 0.72500000000000064 0.2498161764706 0 0.67933712972090698 0.25920070958121938 0 0.69397719155551807 0.2245125647000914 0 0.6236733212988993 0.14864538214901801 0 0.61956000905586006 0.1043312481793135 0 0.65290632656860115 0.11434202593454081 0 0.81973119833356312 0.43505687159469048 0 0.81400510706333218 0.47357325943904899 0 0.77972660463949339 0.45529290596363098 0 0.25676291524611189 0.7436741304886243 0 0.29904318922293632 0.74132814928635593 0 0.2792923945214143 0.77665808831789485 0 0.36575549820117997 0.31677992835137742 0 0.32752639306529541 0.32610012995269699 0 0.33402499257867951 0.28911035184473982 0 0.14332333627550789 0.14578431753966009 0 0.18652628422869419 0.14162325200928061 0 0.18124454140915969 0.18790916706335251 0 0.57724883562309992 0.92155686857100794 0 0.5832743223239254 0.88483152652961872 0 0.61885627562261258 0.90282959257498208 0 0.57667858002728545 0.078486105337742612 0 0.61956000905586006 0.1043312481793135 0 0.58516465772821369 0.11653801664834119 0 0.80185942888539485 0.77452061303608133 0 0.80041942726660109 0.81543261647703358 0 0.77094201086366854 0.79647480515688507 0 0.80185942888501827 0.074520613036224564 0 0.80076557130237269 0.1154587552654202 0 0.76878382444651716 0.097147941686331368 0 0.64753070846764316 0.77332939069435502 0 0.68024162096458085 0.79868546898116533 0 0.65005442820240822 0.82644988530054031 0 0.26429849586623999 0.19346700179430079 0 0.25557216766470708 0.15874861286892261 0 0.29336099386129338 0.15892013001050981 0 0.29348325746214782 0.31350119524708198 0 0.29644548887253103 0.34914008784168082 0 0.25966125648670141 0.34351016742083729 0 0.68391457121233579 0.14440470121196541 0 0.65290632656860115 0.11434202593454081 0 0.68330259535470161 0.10038702501083881 0 0.91750694127107502 0.36982372220068471 0 0.92012390126144183 0.33123581297173937 0 0.95780851984364423 0.34215720972155339 0 0.91750694127105259 0.63017627779935648 0 0.9578014258160763 0.65787212321113708 0 0.92057473616084773 0.66770436535372446 0 0.22033343844674469 0.36963382230740238 0 0.22615676742807109 0.33458786033114157 0 0.25966125648670141 0.34351016742083729 0 1 0.94999999999997109 0 0.97166519676946206 0.96662885509935492 0 0.97435614836744289 0.92499999999990257 0 0.94399509803919068 0.9439950980391687 0 0.97435614836744289 0.92499999999990257 0 0.97166519676946206 0.96662885509935492 0 0.94399509803921056 0.24399509803922639 0 0.97435614836740092 0.22499999999981049 0 0.97166519676951801 0.26662885509932011 0 1 0.24999999999987299 0 0.97166519676951801 0.26662885509932011 0 0.97435614836740092 0.22499999999981049 0 1 0.74999999999993494 0 0.97435614836745565 0.77499999999987745 0 0.97166519676947294 0.73337114490064459 0 1 0.049999999999896842 0 0.97435614836748241 0.074999999999825387 0 0.97166519676946894 0.033371144900598393 0 0.94399509803918602 0.75600490196082126 0 0.97166519676947294 0.73337114490064459 0 0.97435614836745565 0.77499999999987745 0 0.94399509803922566 0.056004901960802607 0 0.97166519676946894 0.033371144900598393 0 0.97435614836748241 0.074999999999825387 0 0.77846603114747959 0.49850927265137401 0 0.81400510706333218 0.47357325943904899 0 0.81441713509985358 0.51161854125224959 0 0.77354604466818633 0.40378688774472771 0 0.72622533758026719 0.40265885511101601 0 0.74764719760526988 0.3719647154012321 0 0.71508799138962864 0.36622814920737751 0 0.74764719760526988 0.3719647154012321 0 0.72622533758026719 0.40265885511101601 0 0.84723782639812573 0.48638347960178252 0 0.84925632466077294 0.45359738909549091 0 0.88594198078881503 0.46167788676578442 0 0.86411095495256451 0.42388805655111889 0 0.88594198078881503 0.46167788676578442 0 0.84925632466077294 0.45359738909549091 0 0.43846182030517877 0.64845797726506715 0 0.43545892161006339 0.61093128915313821 0 0.47095389620662098 0.61892551373708504 0 0.33123028043633618 0.77629643437932982 0 0.35642984951668422 0.80994399665655703 0 0.30857225866488791 0.81101973481716805 0 0.33403534827021109 0.84402799729020661 0 0.30857225866488791 0.81101973481716805 0 0.35642984951668422 0.80994399665655703 0 0.26429849586623999 0.19346700179430079 0 0.31255190597181792 0.19850845631528771 0 0.28040350263641872 0.23054717217092141 0 0.57724883562309992 0.92155686857100794 0 0.54783390826260769 0.89287767010860219 0 0.5832743223239254 0.88483152652961872 0 0.55899371797446828 0.85003102233514438 0 0.5832743223239254 0.88483152652961872 0 0.54783390826260769 0.89287767010860219 0 0.4089290844030305 0.58728915500154233 0 0.43545892161006339 0.61093128915313821 0 0.39743091024207589 0.6239520004230239 0 0.77293540622714185 0.59448302402785813 0 0.81723410853263523 0.59419663659258926 0 0.79884539758237771 0.62875045078114233 0 0.83758014339878906 0.63222013025741819 0 0.79884539758237771 0.62875045078114233 0 0.81723410853263523 0.59419663659258926 0 0.35864735590330371 0.63903383440414463 0 0.39743091024207589 0.6239520004230239 0 0.3977710372045391 0.65868194622830212 0 0.56202748619534593 0.15054058349222879 0 0.54979595918804436 0.1060565713905809 0 0.58516465772821369 0.11653801664834119 0 0.57667858002728545 0.078486105337742612 0 0.58516465772821369 0.11653801664834119 0 0.54979595918804436 0.1060565713905809 0 0.33122374654748771 0.57588941099433744 0 0.37272913873093971 0.56192925302619479 0 0.35765792684946668 0.6000687869219653 0 0.35864735590330371 0.63903383440414463 0 0.35765792684946668 0.6000687869219653 0 0.39743091024207589 0.6239520004230239 0 0.71508799138962864 0.36622814920737751 0 0.68887083591306764 0.33632058575757479 0 0.73090396928863699 0.33699297293167962 0 0.29348325746214782 0.31350119524708198 0 0.32752639306529541 0.32610012995269699 0 0.29644548887253103 0.34914008784168082 0 0.33277555741076909 0.36432196682010132 0 0.29644548887253103 0.34914008784168082 0 0.32752639306529541 0.32610012995269699 0 0.34258405725730701 0.4444034294386992 0 0.31778888742534622 0.40581751814196781 0 0.35221190152536241 0.40457127605439203 0 0.79999999999999982 0.69999999999999996 0 0.81864958914779962 0.73589050177899629 0 0.78578450296893509 0.73292684821144505 0 0.79999999999947335 0 0 0.81864958914740749 0.035890501779055867 0 0.78393852574753176 0.032039079577822822 0 0.27474541102162192 0.11822029332053539 0 0.29336099386129338 0.15892013001050981 0 0.25557216766470708 0.15874861286892261 0 0 0.45000000000187229 0 0.035463093262830522 0.42673416072819947 0 0.033550201249889847 0.46247875832467239 0 0.6499999999999998 0.69999999999999996 0 0.66427993341343905 0.73232764502436276 0 0.63221990677827677 0.73442891067859706 0 0.84723782639812573 0.48638347960178252 0 0.81441713509985358 0.51161854125224959 0 0.81400510706333218 0.47357325943904899 0 0.26104540868854792 0.81401944968719064 0 0.30857225866488791 0.81101973481716805 0 0.29209212897034281 0.84715728365233667 0 0.33403534827021109 0.84402799729020661 0 0.29209212897034281 0.84715728365233667 0 0.30857225866488791 0.81101973481716805 0 0.69999999999999984 0.29999999999999999 0 0.73090396928863699 0.33699297293167962 0 0.68887083591306764 0.33632058575757479 0 
</DataArray>
</Points>
<Cells>
<DataArray type="UInt32" Name="connectivity" format="ascii">
0 1 2 3 4 5 6 7 8 9 10 11 12 13 14 15 16 17 18 19 20 21 22 23 24 25 26 27 28 29 30 31 32 33 34 35 36 37 38 39 40 41 42 43 44 45 46 47 48 49 50 51 52 53 54 55 56 57 58 59 60 61 62 63 64 65 66 67 68 69 70 71 72 73 74 75 76 77 78 79 80 81 82 83 84 85 86 87 88 89 90 91 92 93 94 95 96 97 98 99 100 101 102 103 104 105 106 107 108 109 110 111 112 113 114 115 116 117 118 119 120 121 122 123 124 125 126 127 128 129 130 131 132 133 134 135 136 137 138 139 140 141 142 143 144 145 146 147 148 149 150 151 152 153 154 155 156 157 158 159 160 161 162 163 164 165 166 167 168 169 170 171 172 173 174 175 176 177 178 179 180 181 182 183 184 185 186 187 188 189 190 191 192 193 194 195 196 197 198 199 200 201 202 203 204 205 206 207 208 209 210 211 212 213 214 215 216 217 218 219 220 221 222 223 224 225 226 227 228 229 230 231 232 233 234 235 236 237 238 239 240 241 242 243 244 245 246 247 248 249 250 251 252 253 254 255 256 257 258 259 260 261 262 263 264 265 266 267 268 269 270 271 272 273 274 275 276 277 278 279 280 281 282 283 284 285 286 287 288 289 290 291 292 293 294 295 296 297 298 299 300 301 302 303 304 305 306 307 308 309 310 311 312 313 314 315 316 317 318 319 320 321 322 323 324 325 326 327 328 329 330 331 332 333 334 335 336 337 338 339 340 341 342 343 344 345 346 347 348 349 350 351 352 353 354 355 356 357 358 359 360 361 362 363 364 365 366 367 368 369 370 371 372 373 374 375 376 377 378 379 380 381 382 383 384 385 386 387 388 389 390 391 392 393 394 395 396 397 398 399 400 401 402 403 404 405 406 407 408 409 410 411 412 413 414 415 416 417 418 419 420 421 422 423 424 425 426 427 428 429 430 431 432 433 434 435 436 437 438 439 440 441 442 443 444 445 446 447 448 449 450 451 452 453 454 455 456 457 458 459 460 461 462 463 464 465 466 467 468 469 470 471 472 473 474 475 476 477 478 479 480 481 482 483 484 485 486 487 488 489 490 491 492 493 494 495 496 497 498 499 500 501 502 503 504 505 506 507 508 509 510 511 512 513 514 515 516 517 518 519 520 521 522 523 524 525 526 527 528 529 530 531 532 533 534 535 536 537 538 539 540 541 542 543 544 545 546 547 548 549 550 551 552 553 554 555 556 557 558 559 560 561 562 563 564 565 566 567 568 569 570 571 572 573 574 575 576 577 578 579 580 581 582 583 584 585 586 587 588 589 590 591 592 593 594 595 596 597 598 599 600 601 602 603 604 605 606 607 608 609 610 611 612 613 614 615 616 617 618 619 620 621 622 623 624 625 626 627 628 629 630 631 632 633 634 635 636 637 638 639 640 641 642 643 644 645 646 647 648 649 650 651 652 653 654 655 656 657 658 659 660 661 662 663 664 665 666 667 668 669 670 671 672 673 674 675 676 677 678 679 680 681 682 683 684 685 686 687 688 689 690 691 692 693 694 695 696 697 698 699 700 701 702 703 704 705 706 707 708 709 710 711 712 713 714 715 716 717 718 719 720 721 722 723 724 725 726 727 728 729 730 731 732 733 734 735 736 737 738 739 740 741 742 743 744 745 746 747 748 749 750 751 752 753 754 755 756 757 758 759 760 761 762 763 764 765 766 767 768 769 770 771 772 773 774 775 776 777 778 779 780 781 782 783 784 785 786 787 788 789 790 791 792 793 794 795 796 797 798 799 800 801 802 803 804 805 806 807 808 809 810 811 812 813 814 815 816 817 818 819 820 821 822 823 824 825 826 827 828 829 830 831 832 833 834 835 836 837 838 839 840 841 842 843 844 845 846 847 848 849 850 851 852 853 854 855 856 857 858 859 860 861 862 863 864 865 866 867 868 869 870 871 872 873 874 875 876 877 878 879 880 881 882 883 884 885 886 887 888 889 890 891 892 893 894 895 896 897 898 899 900 901 902 903 904 905 906 907 908 909 910 911 912 913 914 915 916 917 918 919 920 921 922 923 924 925 926 927 928 929 930 931 932 933 934 935 936 937 938 939 940 941 942 943 944 945 946 947 948 949 950 951 952 953 954 955 956 957 958 959 960 961 962 963 964 965 966 967 968 969 970 971 972 973 974 975 976 977 978 979 980 981 982 983 984 985 986 987 988 989 990 991 992 993 994 995 996 997 998 999 1000 1001 1002 1003 1004 1005 1006 1007 1008 1009 1010 1011 1012 1013 1014 1015 1016 1017 1018 1019 1020 1021 1022 1023 1024 1025 1026 1027 1028 1029 1030 1031 1032 1033 1034 1035 1036 1037 1038 1039 1040 1041 1042 1043 1044 1045 1046 1047 1048 1049 1050 1051 1052 1053 1054 1055 1056 1057 1058 1059 1060 1061 1062 1063 1064 1065 1066 1067 1068 1069 1070 1071 1072 1073 1074 1075 1076 1077 1078 1079 1080 1081 1082 1083 1084 1085 1086 1087 1088 1089 1090 1091 1092 1093 1094 1095 1096 1097 1098 1099 1100 1101 1102 1103 1104 1105 1106 1107 1108 1109 1110 1111 1112 1113 1114 1115 1116 1117 1118 1119 1120 1121 1122 1123 1124 1125 1126 1127 1128 1129 1130 1131 1132 1133 1134 1135 1136 1137 1138 1139 1140 1141 1142 1143 1144 1145 1146 1147 1148 1149 1150 1151 1152 1153 1154 1155 1156 1157 1158 1159 1160 1161 1162 1163 1164 1165 1166 1167 1168 1169 1170 1171 1172 1173 1174 1175 1176 1177 1178 1179 1180 1181 1182 1183 1184 1185 1186 1187 1188 1189 1190 1191 1192 1193 1194 1195 1196 1197 1198 1199 1200 1201 1202 1203 1204 1205 1206 1207 1208 1209 1210 1211 1212 1213 1214 1215 1216 1217 1218 1219 1220 1221 1222 1223 1224 1225 1226 1227 1228 1229 1230 1231 1232 1233 1234 1235 1236 1237 1238 1239 1240 1241 1242 1243 1244 1245 1246 1247 1248 1249 1250 1251 1252 1253 1254 1255 1256 1257 1258 1259 1260 1261 1262 1263 1264 1265 1266 1267 1268 1269 1270 1271 1272 1273 1274 1275 1276 1277 1278 1279 1280 1281 1282 1283 1284 1285 1286 1287 1288 1289 1290 1291 1292 1293 1294 1295 1296 1297 1298 1299 1300 1301 1302 1303 1304 1305 1306 1307 1308 1309 1310 1311 1312 1313 1314 1315 1316 1317 1318 1319 1320 1321 1322 1323 1324 1325 1326 1327 1328 1329 1330 1331 1332 1333 1334 1335 1336 1337 1338 1339 1340 1341 1342 1343 1344 1345 1346 1347 1348 1349 1350 1351 1352 1353 1354 1355 1356 1357 1358 1359 1360 1361 1362 1363 1364 1365 1366 1367 1368 1369 1370 1371 1372 1373 1374 1375 1376 1377 1378 1379 1380 1381 1382 1383 1384 1385 1386 1387 1388 1389 1390 1391 1392 1393 1394 1395 1396 1397 1398 1399 1400 1401 1402 1403 1404 1405 1406 1407 1408 1409 1410 1411 1412 1413 1414 1415 1416 1417 1418 1419 1420 1421 1422 1423 1424 1425 1426 1427 1428 1429 1430 1431 1432 1433 1434 1435 1436 1437 1438 1439 1440 1441 1442 1443 1444 1445 1446 1447 1448 1449 1450 1451 1452 1453 1454 1455 1456 1457 1458 1459 1460 1461 1462 1463 1464 1465 1466 1467 1468 1469 1470 1471 1472 1473 1474 1475 1476 1477 1478 1479 1480 1481 1482 1483 1484 1485 1486 1487 1488 1489 1490 1491 1492 1493 1494 1495 1496 1497 1498 1499 1500 1501 1502 1503 1504 1505 1506 1507 1508 1509 1510 1511 1512 1513 1514 1515 1516 1517 1518 1519 1520 1521 1522 1523 1524 1525 1526 1527 1528 1529 1530 1531 1532 1533 1534 1535 1536 1537 1538 1539 1540 1541 1542 1543 1544 1545 1546 1547 1548 1549 1550 1551 1552 1553 1554 1555 1556 1557 1558 1559 1560 1561 1562 1563 1564 1565 1566 1567 1568 1569 1570 1571 1572 1573 1574 1575 1576 1577 1578 1579 1580 1581 1582 1583 1584 1585 1586 1587 1588 1589 1590 1591 1592 1593 1594 1595 1596 1597 1598 1599 1600 1601 1602 1603 1604 1605 1606 1607 1608 1609 1610 1611 1612 1613 1614 1615 1616 1617 1618 1619 1620 1621 1622 1623 1624 1625 1626 1627 1628 1629 1630 1631 1632 1633 1634 1635 1636 1637 1638 1639 1640 1641 1642 1643 1644 1645 1646 1647 1648 1649 1650 1651 1652 1653 1654 1655 1656 1657 1658 1659 1660 1661 1662 1663 1664 1665 1666 1667 1668 1669 1670 1671 1672 1673 1674 1675 1676 1677 1678 1679 1680 1681 1682 1683 1684 1685 1686 1687 1688 1689 1690 1691 1692 1693 1694 1695 1696 1697 1698 1699 1700 1701 1702 1703 1704 1705 1706 1707 1708 1709 1710 1711 1712 1713 1714 1715 1716 1717 1718 1719 1720 1721 1722 1723 1724 1725 1726 1727 1728 1729 1730 1731 1732 1733 1734 1735 1736 1737 1738 1739 1740 1741 1742 1743 1744 1745 1746 1747 1748 1749 1750 1751 1752 1753 1754 1755 1756 1757 1758 1759 1760 1761 1762 1763 1764 1765 1766 1767 1768 1769 1770 1771 1772 1773 1774 1775 1776 1777 1778 1779 1780 1781 1782 1783 1784 1785 1786 1787 1788 1789 1790 1791 1792 1793 1794 1795 1796 1797 1798 1799 1800 1801 1802 1803 1804 1805 1806 1807 1808 1809 1810 1811 1812 1813 1814 1815 1816 1817 1818 1819 1820 1821 1822 1823 1824 1825 1826 1827 1828 1829 1830 1831 1832 1833 1834 1835 1836 1837 1838 1839 1840 1841 1842 1843 1844 1845 1846 1847 1848 1849 1850 1851 1852 1853 1854 1855 1856 1857 1858 1859 1860 1861 1862 1863 1864 1865 1866 1867 1868 1869 1870 1871 1872 1873 1874 1875 1876 1877 1878 1879 1880 1881 1882 1883 1884 1885 1886 1887 1888 1889 1890 1891 1892 1893 1894 1895 1896 1897 1898 1899 1900 1901 1902 1903 1904 1905 1906 1907 1908 1909 1910 1911 1912 1913 1914 1915 1916 1917 1918 1919 1920 1921 1922 1923 1924 1925 1926 1927 1928 1929 1930 1931 1932 1933 1934 1935 1936 1937 1938 1939 1940 1941 1942 1943 1944 1945 1946 1947 1948 1949 1950 1951 1952 1953 1954 1955 1956 1957 1958 1959 1960 1961 1962 1963 1964 1965 1966 1967 1968 1969 1970 1971 1972 1973 1974 1975 1976 1977 1978 1979 1980 1981 1982 1983 1984 1985 1986 1987 1988 1989 1990 1991 1992 1993 1994 1995 1996 1997 1998 1999 2000 2001 2002 2003 2004 2005 2006 2007 2008 2009 2010 2011 2012 2013 2014 2015 2016 2017 2018 2019 2020 2021 2022 2023 2024 2025 2026 2027 2028 2029 2030 2031 2032 2033 2034 2035 2036 2037 2038 2039 2040 2041 2042 2043 2044 2045 2046 2047 2048 2049 2050 2051 2052 2053 2054 2055 2056 2057 2058 2059 2060 2061 2062 2063 2064 2065 2066 2067 2068 2069 2070 2071 2072 2073 2074 2075 2076 2077 2078 2079 2080 2081 2082 2083 2084 2085 2086 2087 2088 2089 2090 2091 2092 2093 2094 2095 2096 2097 2098 2099 2100 2101 2102 2103 2104 2105 2106 2107 2108 2109 2110 2111 2112 2113 2114 2115 2116 2117 2118 2119 2120 2121 2122 2123 2124 2125 2126 2127 2128 2129 2130 2131 2132 2133 2134 2135 2136 2137 2138 2139 2140 2141 2142 2143 2144 2145 2146 2147 2148 2149 2150 2151 2152 2153 2154 2155 2156 2157 2158 2159 2160 2161 2162 2163 2164 2165 2166 2167 2168 2169 2170 2171 2172 2173 2174 2175 2176 2177 2178 2179 2180 2181 2182 2183 2184 2185 2186 2187 2188 2189 2190 2191 2192 2193 2194 2195 2196 2197 2198 2199 2200 2201 2202 2203 2204 2205 2206 2207 2208 2209 2210 2211 2212 2213 2214 2215 2216 2217 2218 2219 2220 2221 2222 2223 2224 2225 2226 2227 2228 2229 2230 2231 2232 2233 2234 2235 2236 2237 2238 2239 2240 2241 2242 2243 2244 2245 2246 2247 2248 2249 2250 2251 2252 2253 2254 2255 2256 2257 2258 2259 2260 2261 2262 2263 2264 2265 2266 2267 2268 2269 2270 2271 2272 2273 2274 2275 2276 2277 2278 2279 2280 2281 2282 2283 2284 2285 2286 2287 2288 2289 2290 2291 2292 2293 2294 2295 2296 2297 2298 2299 2300 2301 2302 2303 2304 2305 2306 2307 2308 2309 2310 2311 2312 2313 2314 2315 2316 2317 2318 2319 2320 2321 2322 2323 2324 2325 2326 2327 2328 2329 2330 2331 2332 2333 2334 2335 2336 2337 2338 2339 2340 2341 2342 2343 2344 2345 2346 2347 2348 2349 2350 2351 2352 2353 2354 2355 2356 2357 2358 2359 2360 2361 2362 2363 2364 2365 2366 2367 2368 2369 2370 2371 2372 2373 2374 2375 2376 2377 2378 2379 2380 2381 2382 2383 2384 2385 2386 2387 2388 2389 2390 2391 2392 2393 2394 2395 2396 2397 2398 2399 2400 2401 2402 2403 2404 2405 2406 2407 2408 2409 2410 2411 2412 2413 2414 2415 2416 2417 2418 2419 2420 2421 2422 2423 2424 2425 2426 2427 2428 2429 2430 2431 2432 2433 2434 2435 2436 2437 2438 2439 2440 2441 2442 2443 2444 2445 2446 2447 2448 2449 2450 2451 2452 2453 2454 2455 2456 2457 2458 2459 2460 2461 2462 2463 2464 2465 2466 2467 2468 2469 2470 2471 2472 2473 2474 2475 2476 2477 2478 2479 2480 2481 2482 2483 2484 2485 2486 2487 2488 2489 2490 2491 2492 2493 2494 2495 2496 2497 2498 2499 2500 2501 2502 2503 2504 2505 2506 2507 2508 2509 2510 2511 2512 2513 2514 2515 2516 2517 2518 2519 2520 2521 2522 2523 2524 2525 2526 2527 2528 2529 2530 2531 2532 2533 2534 2535 2536 2537 2538 2539 2540 2541 2542 2543 2544 2545 2546 2547 2548 2549 2550 2551 2552 2553 2554 2555 2556 2557 2558 2559 2560 2561 2562 2563 2564 2565 2566 2567 2568 2569 2570 2571 2572 2573 2574 2575 2576 2577 2578 2579 2580 2581 2582 2583 2584 2585 2586 2587 2588 2589 2590 2591 2592 2593 2594 2595 2596 2597 2598 2599 2600 2601 2602 2603 2604 2605 2606 2607 2608 2609 2610 2611 2612 2613 2614 2615 2616 2617 2618 2619 2620 2621 2622 2623 2624 2625 2626 2627 2628 2629 2630 2631 2632 2633 2634 2635 2636 2637 2638 2639 2640 2641 2642 2643 2644 2645 2646 2647 2648 2649 2650 2651 2652 2653 2654 2655 2656 2657 2658 2659 2660 2661 2662 2663 2664 2665 2666 2667 2668 2669 2670 2671 2672 2673 2674 2675 2676 2677 2678 2679 2680 2681 2682 2683 2684 2685 2686 2687 2688 2689 2690 2691 2692 2693 2694 2695 2696 2697 2698 2699 2700 2701 2702 2703 2704 2705 2706 2707 2708 2709 2710 2711 2712 2713 2714 2715 2716 2717 2718 2719 2720 2721 2722 2723 2724 2725 2726 2727 2728 2729 2730 2731 2732 2733 2734 2735 2736 2737 2738 2739 2740 2741 2742 2743 2744 2745 2746 2747 2748 2749 2750 2751 2752 2753 2754 2755 2756 2757 2758 2759 2760 2761 2762 2763 2764 2765 2766 2767 2768 2769 2770 2771 2772 2773 2774 2775 2776 2777 2778 2779 2780 2781 2782 2783 2784 2785 2786 2787 2788 2789 2790 2791 2792 2793 2794 2795 2796 2797 2798 2799 2800 2801 2802 2803 2804 2805 2806 2807 2808 2809 2810 2811 2812 2813 2814 2815 2816 2817 2818 2819 2820 2821 2822 2823 2824 2825 2826 2827 2828 2829 2830 2831 2832 2833 2834 2835 2836 2837 2838 2839 2840 2841 2842 2843 2844 2845 2846 2847 2848 2849 2850 2851 2852 2853 2854 2855 2856 2857 2858 2859 2860 2861 2862 2863 2864 2865 2866 2867 2868 2869 2870 2871 2872 2873 2874 2875 2876 2877 2878 2879 2880 2881 2882 2883 2884 2885 2886 2887 2888 2889 2890 2891 2892 2893 2894 2895 2896 2897 2898 2899 2900 2901 2902 2903 2904 2905 2906 2907 2908 2909 2910 2911 2912 2913 2914 2915 2916 2917 2918 2919 2920 2921 2922 2923 2924 2925 2926 2927 2928 2929 2930 2931 2932 2933 2934 2935 2936 2937 2938 2939 2940 2941 2942 2943 2944 2945 2946 2947 2948 2949 2950 2951 2952 2953 2954 2955 2956 2957 2958 2959 2960 2961 2962 2963 2964 2965 2966 2967 2968 2969 2970 2971 2972 2973 2974 2975 2976 2977 2978 2979 2980 2981 2982 2983 2984 2985 2986 2987 2988 2989 2990 2991 2992 2993 2994 2995 2996 2997 2998 2999 3000 3001 3002 3003 3004 3005 3006 3007 3008 3009 3010 3011 3012 3013 3014 3015 3016 3017 3018 3019 3020 3021 3022 3023 3024 3025 3026 3027 3028 3029 3030 3031 3032 3033 3034 3035 3036 3037 3038 3039 3040 3041 3042 3043 3044 3045 3046 3047 3048 3049 3050 3051 3052 3053 3054 3055 3056 3057 3058 3059 3060 3061 3062 3063 3064 3065 3066 3067 3068 3069 3070 3071 3072 3073 3074 3075 3076 3077 3078 3079 3080 3081 3082 3083 3084 3085 3086 3087 3088 3089 3090 3091 3092 3093 3094 3095 3096 3097 3098 3099 3100 3101 3102 3103 3104 3105 3106 3107 3108 3109 3110 3111 3112 3113 3114 3115 3116 3117 3118 3119 3120 3121 3122 3123 3124 3125 3126 3127 3128 3129 3130 3131 3132 3133 3134 3135 3136 3137 3138 3139 3140 3141 
</DataArray>
<DataArray type="UInt32" Name="offsets" format="ascii">
2 4 6 8 10 12 14 16 18 20 22 24 26 28 30 32 34 36 38 40 43 46 49 52 55 58 61 64 67 70 73 76 79 82 85 88 91 94 97 100 103 106 109 112 115 118 121 124 127 130 133 136 139 142 145 148 151 154 157 160 163 166 169 172 175 178 181 184 187 190 193 196 199 202 205 208 211 214 217 220 223 226 229 232 235 238 241 244 247 250 253 256 259 262 265 268 271 274 277 280 283 286 289 292 295 298 301 304 307 310 313 316 319 322 325 328 331 334 337 340 343 346 349 352 355 358 361 364 367 370 373 376 379 382 385 388 391 394 397 400 403 406 409 412 415 418 421 424 427 430 433 436 439 442 445 448 451 454 457 460 463 466 469 472 475 478 481 484 487 490 493 496 499 502 505 508 511 514 517 520 523 526 529 532 535 538 541 544 547 550 553 556 559 562 565 568 571 574 577 580 583 586 589 592 595 598 601 604 607 610 613 616 619 622 625 628 631 634 637 640 643 646 649 652 655 658 661 664 667 670 673 676 679 682 685 688 691 694 697 700 703 706 709 712 715 718 721 724 727 730 733 736 739 742 745 748 751 754 757 760 763 766 769 772 775 778 781 784 787 790 793 796 799 802 805 808 811 814 817 820 823 826 829 832 835 838 841 844 847 850 853 856 859 862 865 868 871 874 877 880 883 886 889 892 895 898 901 904 907 910 913 916 919 922 925 928 931 934 937 940 943 946 949 952 955 958 961 964 967 970 973 976 979 982 985 988 991 994 997 1000 1003 1006 1009 1012 1015 1018 1021 1024 1027 1030 1033 1036 1039 1042 1045 1048 1051 1054 1057 1060 1063 1066 1069 1072 1075 1078 1081 1084 1087 1090 1093 1096 1099 1102 1105 1108 1111 1114 1117 1120 1123 1126 1129 1132 1135 1138 1141 1144 1147 1150 1153 1156 1159 1162 1165 1168 1171 1174 1177 1180 1183 1186 1189 1192 1195 1198 1201 1204 1207 1210 1213 1216 1219 1222 1225 1228 1231 1234 1237 1240 1243 1246 1249 1252 1255 1258 1261 1264 1267 1270 1273 1276 1279 1282 1285 1288 1291 1294 1297 1300 1303 1306 1309 1312 1315 1318 1321 1324 1327 1330 1333 1336 1339 1342 1345 1348 1351 1354 1357 1360 1363 1366 1369 1372 1375 1378 1381 1384 1387 1390 1393 1396 1399 1402 1405 1408 1411 1414 1417 1420 1423 1426 1429 1432 1435 1438 1441 1444 1447 1450 1453 1456 1459 1462 1465 1468 1471 1474 1477 1480 1483 1486 1489 1492 1495 1498 1501 1504 1507 1510 1513 1516 1519 1522 1525 1528 1531 1534 1537 1540 1543 1546 1549 1552 1555 1558 1561 1564 1567 1570 1573 1576 1579 1582 1585 1588 1591 1594 1597 1600 1603 1606 1609 1612 1615 1618 1621 1624 1627 1630 1633 1636 1639 1642 1645 1648 1651 1654 1657 1660 1663 1666 1669 1672 1675 1678 1681 1684 1687 1690 1693 1696 1699 1702 1705 1708 1711 1714 1717 1720 1723 1726 1729 1732 1735 1738 1741 1744 1747 1750 1753 1756 1759 1762 1765 1768 1771 1774 1777 1780 1783 1786 1789 1792 1795 1798 1801 1804 1807 1810 1813 1816 1819 1822 1825 1828 1831 1834 1837 1840 1843 1846 1849 1852 1855 1858 1861 1864 1867 1870 1873 1876 1879 1882 1885 1888 1891 1894 1897 1900 1903 1906 1909 1912 1915 1918 1921 1924 1927 1930 1933 1936 1939 1942 1945 1948 1951 1954 1957 1960 1963 1966 1969 1972 1975 1978 1981 1984 1987 1990 1993 1996 1999 2002 2005 2008 2011 2014 2017 2020 2023 2026 2029 2032 2035 2038 2041 2044 2047 2050 2053 2056 2059 2062 2065 2068 2071 2074 2077 2080 2083 2086 2089 2092 2095 2098 2101 2104 2107 2110 2113 2116 2119 2122 2125 2128 2131 2134 2137 2140 2143 2146 2149 2152 2155 2158 2161 2164 2167 2170 2173 2176 2179 2182 2185 2188 2191 2194 2197 2200 2203 2206 2209 2212 2215 2218 2221 2224 2227 2230 2233 2236 2239 2242 2245 2248 2251 2254 2257 2260 2263 2266 2269 2272 2275 2278 2281 2284 2287 2290 2293 2296 2299 2302 2305 2308 2311 2314 2317 2320 2323 2326 2329 2332 2335 2338 2341 2344 2347 2350 2353 2356 2359 2362 2365 2368 2371 2374 2377 2380 2383 2386 2389 2392 2395 2398 2401 2404 2407 2410 2413 2416 2419 2422 2425 2428 2431 2434 2437 2440 2443 2446 2449 2452 2455 2458 2461 2464 2467 2470 2473 2476 2479 2482 2485 2488 2491 2494 2497 2500 2503 2506 2509 2512 2515 2518 2521 2524 2527 2530 2533 2536 2539 2542 2545 2548 2551 2554 2557 2560 2563 2566 2569 2572 2575 2578 2581 2584 2587 2590 2593 2596 2599 2602 2605 2608 2611 2614 2617 2620 2623 2626 2629 2632 2635 2638 2641 2644 2647 2650 2653 2656 2659 2662 2665 2668 2671 2674 2677 2680 2683 2686 2689 2692 2695 2698 2701 2704 2707 2710 2713 2716 2719 2722 2725 2728 2731 2734 2737 2740 2743 2746 2749 2752 2755 2758 2761 2764 2767 2770 2773 2776 2779 2782 2785 2788 2791 2794 2797 2800 2803 2806 2809 2812 2815 2818 2821 2824 2827 2830 2833 2836 2839 2842 2845 2848 2851 2854 2857 2860 2863 2866 2869 2872 2875 2878 2881 2884 2887 2890 2893 2896 2899 2902 2905 2908 2911 2914 2917 2920 2923 2926 2929 2932 2935 2938 2941 2944 2947 2950 2953 2956 2959 2962 2965 2968 2971 2974 2977 2980 2983 2986 2989 2992 2995 2998 3001 3004 3007 3010 3013 3016 3019 3022 3025 3028 3031 3034 3037 3040 3043 3046 3049 3052 3055 3058 3061 3064 3067 3070 3073 3076 3079 3082 3085 3088 3091 3094 3097 3100 3103 3106 3109 3112 3115 3118 3121 3124 3127 3130 3133 3136 3139 3142 
</DataArray>
<DataArray type="UInt32" Name="types" format="ascii">
3 3 3 3 3 3 3 3 3 3 3 3 3 3 3 3 3 3 3 3 5 5 5 5 5 5 5 5 5 5 5 5 5 5 5 5 5 5 5 5 5 5 5 5 5 5 5 5 5 5 5 5 5 5 5 5 5 5 5 5 5 5 5 5 5 5 5 5 5 5 5 5 5 5 5 5 5 5 5 5 5 5 5 5 5 5 5 5 5 5 5 5 5 5 5 5 5 5 5 5 5 5 5 5 5 5 5 5 5 5 5 5 5 5 5 5 5 5 5 5 5 5 5 5 5 5 5 5 5 5 5 5 5 5 5 5 5 5 5 5 5 5 5 5 5 5 5 5 5 5 5 5 5 5 5 5 5 5 5 5 5 5 5 5 5 5 5 5 5 5 5 5 5 5 5 5 5 5 5 5 5 5 5 5 5 5 5 5 5 5 5 5 5 5 5 5 5 5 5 5 5 5 5 5 5 5 5 5 5 5 5 5 5 5 5 5 5 5 5 5 5 5 5 5 5 5 5 5 5 5 5 5 5 5 5 5 5 5 5 5 5 5 5 5 5 5 5 5 5 5 5 5 5 5 5 5 5 5 5 5 5 5 5 5 5 5 5 5 5 5 5 5 5 5 5 5 5 5 5 5 5 5 5 5 5 5 5 5 5 5 5 5 5 5 5 5 5 5 5 5 5 5 5 5 5 5 5 5 5 5 5 5 5 5 5 5 5 5 5 5 5 5 5 5 5 5 5 5 5 5 5 5 5 5 5 5 5 5 5 5 5 5 5 5 5 5 5 5 5 5 5 5 5 5 5 5 5 5 5 5 5 5 5 5 5 5 5 5 5 5 5 5 5 5 5 5 5 5 5 5 5 5 5 5 5 5 5 5 5 5 5 5 5 5 5 5 5 5 5 5 5 5 5 5 5 5 5 5 5 5 5 5 5 5 5 5 5 5 5 5 5 5 5 5 5 5 5 5 5 5 5 5 5 5 5 5 5 5 5 5 5 5 5 5 5 5 5 5 5 5 5 5 5 5 5 5 5 5 5 5 5 5 5 5 5 5 5 5 5 5 5 5 5 5 5 5 5 5 5 5 5 5 5 5 5 5 5 5 5 5 5 5 5 5 5 5 5 5 5 5 5 5 5 5 5 5 5 5 5 5 5 5 5 5 5 5 5 5 5 5 5 5 5 5 5 5 5 5 5 5 5 5 5 5 5 5 5 5 5 5 5 5 5 5 5 5 5 5 5 5 5 5 5 5 5 5 5 5 5 5 5 5 5 5 5 5 5 5 5 5 5 5 5 5 5 5 5 5 5 5 5 5 5 5 5 5 5 5 5 5 5 5 5 5 5 5 5 5 5 5 5 5 5 5 5 5 5 5 5 5 5 5 5 5 5 5 5 5 5 5 5 5 5 5 5 5 5 5 5 5 5 5 5 5 5 5 5 5 5 5 5 5 5 5 5 5 5 5 5 5 5 5 5 5 5 5 5 5 5 5 5 5 5 5 5 5 5 5 5 5 5 5 5 5 5 5 5 5 5 5 5 5 5 5 5 5 5 5 5 5 5 5 5 5 5 5 5 5 5 5 5 5 5 5 5 5 5 5 5 5 5 5 5 5 5 5 5 5 5 5 5 5 5 5 5 5 5 5 5 5 5 5 5 5 5 5 5 5 5 5 5 5 5 5 5 5 5 5 5 5 5 5 5 5 5 5 5 5 5 5 5 5 5 5 5 5 5 5 5 5 5 5 5 5 5 5 5 5 5 5 5 5 5 5 5 5 5 5 5 5 5 5 5 5 5 5 5 5 5 5 5 5 5 5 5 5 5 5 5 5 5 5 5 5 5 5 5 5 5 5 5 5 5 5 5 5 5 5 5 5 5 5 5 5 5 5 5 5 5 5 5 5 5 5 5 5 5 5 5 5 5 5 5 5 5 5 5 5 5 5 5 5 5 5 5 5 5 5 5 5 5 5 5 5 5 5 5 5 5 5 5 5 5 5 5 5 5 5 5 5 5 5 5 5 5 5 5 5 5 5 5 5 5 5 5 5 5 5 5 5 5 5 5 5 5 5 5 5 5 5 5 5 5 5 5 5 5 5 5 5 5 5 5 5 5 5 5 5 5 5 5 5 5 5 5 5 5 5 5 5 5 5 5 5 5 5 5 5 5 5 5 5 5 5 5 5 5 5 5 5 5 5 5 5 5 5 5 5 5 5 5 5 5 5 5 5 5 5 5 5 5 5 5 5 5 5 5 5 5 5 5 5 5 5 5 5 5 5 5 5 5 5 5 5 5 5 5 5 5 5 5 5 5 5 5 5 5 5 5 5 5 5 5 5 5 5 5 5 5 5 5 5 5 5 5 5 5 5 5 5 5 5 5 5 
</DataArray>
</Cells>
<PointData Scalars="" Vectors="displacement," Tensors="">
<DataArray type="Float64" Name="displacement" NumberOfComponents="3" format="ascii">
2.8504564688654806e-06 -5.8330289142273906e-06 0 3.9950259542049868e-06 -8.2633973904126046e-06 0 3.9950259542049868e-06 -8.2633973904126046e-06 0 4.4118357111989268e-06 -1.167837704547786e-05 0 4.4118357111989268e-06 -1.167837704547786e-05 0 4.9415531533295018e-06 -1.6057760511561033e-05 0 4.9415531533295018e-06 -1.6057760511561033e-05 0 5.5068064859672609e-06 -2.0938816101447094e-05 0 5.5068064859672609e-06 -2.0938816101447094e-05 0 6.2007452479238471e-06 -2.5441624728793968e-05 0 6.2007452479238471e-06 -2.5441624728793968e-05 0 7.1162972256187867e-06 -3.0785440137361823e-05 0 7.1162972256187867e-06 -3.0785440137361823e-05 0 8.0372007488279913e-06 -3.575642832697434e-05 0 8.0372007488279913e-06 -3.575642832697434e-05 0 9.9680405520717122e-06 -4.2023312764196771e-05 0 9.9680405520717122e-06 -4.2023312764196771e-05 0 1.0144394219708433e-05 -4.6250869848382877e-05 0 1.0144394219708433e-05 -4.6250869848382877e-05 0 2.0095649354455098e-05 -4.740396836381535e-05 0 8.4581018672388003e-06 8.5764905362958978e-06 0 2.0181289742712664e-05 1.2419932786238579e-05 0 2.0181289742712664e-05 1.2419932786238579e-05 0 1.9810754885468928e-05 1.6553111733149892e-05 0 1.9810754885468928e-05 1.6553111733149892e-05 0 2.2154944556852325e-05 1.9588968430421761e-05 0 2.2154944556852325e-05 1.9588968430421761e-05 0 2.3731575386037691e-05 2.6371189178691015e-05 0 2.3731575386037691e-05 2.6371189178691015e-05 0 2.5394055885258519e-05 3.192337082675848e-05 0 2.5394055885258519e-05 3.192337082675848e-05 0 2.7321844526410228e-05 3.7883253903477422e-05 0 2.7321844526410228e-05 3.7883253903477422e-05 0 2.852796257572319e-05 4.3699235276165015e-05 0 2.852796257572319e-05 4.3699235276165015e-05 0 3.3538952195167295e-05 5.3423617593412141e-05 0 3.3538952195167295e-05 5.3423617593412141e-05 0 2.6508417813277914e-05 5.7526654013485862e-05 0 2.6508417813277914e-05 5.7526654013485862e-05 0 6.9063832174663258e-05 5.4058401450892606e-05 0 2.8532050780109281e-06 -1.3460831529176081e-06 0 2.8189482383572108e-06 2.6262855690006628e-07 0 2.1427733320051723e-06 -6.8955660504633499e-07 0 3.4021593645077973e-06 -5.1837344698702495e-07 0 2.8189482383572108e-06 2.6262855690006628e-07 0 2.8532050780109281e-06 -1.3460831529176081e-06 0 2.4754930381303569e-06 -5.0534682501982987e-06 0 3.2841475638600153e-06 -3.5283052004560912e-06 0 2.3267454656197475e-06 -4.4161606146405185e-06 0 2.3267454656197475e-06 -4.4161606146405185e-06 0 3.2841475638600157e-06 -3.5283052004560912e-06 0 2.7729765148522753e-06 -3.6992264200914141e-06 0 -2.1014001750348213e-06 -6.6685238810249723e-07 0 -9.6197234734928528e-07 -6.318499270716865e-07 0 -2.1037798570253654e-06 -1.105234523827019e-06 0 -1.5694974608427544e-06 3.2503689660669224e-07 0 -1.5798624726352954e-06 6.339816026019904e-07 0 -7.3565534665581549e-07 3.6301249826784572e-07 0 -8.6965669867938348e-07 -2.1984322342022674e-07 0 -9.6197234734928528e-07 -6.318499270716865e-07 0 -2.1014001750348213e-06 -6.6685238810249723e-07 0 -6.7945200419102052e-07 6.6556371057833318e-08 0 -1.5694974608427544e-06 3.2503689660669224e-07 0 -7.3565534665581549e-07 3.6301249826784572e-07 0 -5.5444524828534046e-06 -9.2125855639159115e-08 0 -7.1905189681724366e-06 -8.9220813118520891e-07 0 -5.0782386740195362e-06 1.5722128772256028e-07 0 -1.097845212926252e-05 1.2195518118680673e-06 0 -8.1375605513656552e-06 -1.3032430133021979e-07 0 -7.6494284722618796e-06 -3.5934502690506054e-07 0 2.5854065105372111e-06 -1.7240244497627589e-07 0 3.4017684316723351e-06 -1.0721563475916582e-07 0 2.3760604189637187e-06 -7.5695508254419487e-07 0 3.5171188482117705e-06 -4.6923835261482071e-07 0 2.3760604189637187e-06 -7.5695508254419487e-07 0 3.4017684316723351e-06 -1.0721563475916582e-07 0 2.0140317904573489e-07 1.3453397565240613e-06 0 4.3039480700199587e-07 1.4564803602402372e-06 0 9.0245445942273489e-07 1.328611884565192e-06 0 1.488229922083416e-10 -3.9499599740994008e-10 0 3.5517682004821802e-10 -2.6865711625767968e-10 0 3.1938575320583017e-07 -7.6106058591840984e-07 0 1.5914524334711395e-10 2.8612255044911655e-10 0 -2.073742193091126e-11 3.2387941595962872e-10 0 8.0726860068266767e-08 7.3548855586682417e-07 0 1.0145109829221663e-06 -6.8155897781564762e-06 0 1.9494081702138895e-06 -7.2292333766774029e-06 0 2.4754930381303569e-06 -5.0534682501982987e-06 0 1.4446021291301703e-05 8.0673437253854033e-06 0 1.0157444180194146e-05 4.6499392746413438e-06 0 1.1083720109889823e-05 5.2957946182393028e-06 0 -5.9141365164744119e-06 -7.7509138256349626e-05 0 8.1451878771772507e-07 -7.0391995304080538e-05 0 -6.2635940024548293e-06 -6.7213596033112428e-05 0 -3.6441414063739011e-06 0.00015424406402894772 0 -1.7587712984188731e-05 0.00013923855686956947 0 -4.1859279696407831e-06 0.00013412018148736035 0 -3.6441414063739011e-06 0.00015424406402894772 0 -4.1859279696407831e-06 0.00013412018148736035 0 9.972079665103582e-06 0.00014004183912820348 0 -5.9141365164744119e-06 -7.7509138256349626e-05 0 -6.2635940024548293e-06 -6.7213596033112428e-05 0 -1.2929681072157904e-05 -6.9762665647532551e-05 0 -2.0076026306944598e-05 0.00012343665356356881 0 -3.6840996717059433e-06 0.00011617204635332301 0 -4.1859279696407831e-06 0.00013412018148736035 0 1.4354264631678972e-06 -6.1887999803066277e-05 0 -6.947009953190555e-06 -5.7871865807271664e-05 0 -6.2635940024548293e-06 -6.7213596033112428e-05 0 2.0140317904573489e-07 1.3453397565240613e-06 0 9.0245445942273489e-07 1.328611884565192e-06 0 3.7888243608677801e-07 1.1273745146068626e-06 0 1.4446021291301703e-05 8.0673437253854033e-06 0 8.8591352568045437e-06 6.4196882916392123e-06 0 1.0157444180194146e-05 4.6499392746413438e-06 0 -3.1530447447158472e-05 2.7502939505055962e-05 0 -2.7351791456885028e-05 1.8852017757828552e-05 0 -1.9376786718927785e-05 2.0740632276707687e-05 0 -1.5970859735655549e-05 -9.7118522306655077e-06 0 -1.8215058056189783e-05 -1.3831214056166149e-05 0 -1.2279033446251028e-05 -1.0729888193843388e-05 0 1.7752982419008098e-06 -5.0226965849878205e-06 0 1.0145109829221663e-06 -6.8155897781564762e-06 0 2.4754930381303569e-06 -5.0534682501982987e-06 0 -9.1697526788515251e-06 1.62230624400767e-05 0 -7.6957350221393124e-06 8.1579610519280024e-06 0 -3.3488609793801698e-06 9.2855428446794774e-06 0 -2.2843537449530332e-06 5.389377328786311e-07 0 -5.5407956044673014e-06 1.9303705499689574e-06 0 -5.8693414459600028e-06 -4.8538529853023827e-08 0 7.3093444590962323e-06 -1.6398427433387582e-06 0 6.4897263627528518e-06 1.1252310944072201e-07 0 6.1338663518797075e-06 -2.3452300924091998e-06 0 -6.6626155706579505e-06 -4.9052479274864557e-05 0 -1.6433358014309701e-06 -4.6723287969045331e-05 0 -7.4696470754184997e-06 -4.0285232947120176e-05 0 -4.8247353716900356e-06 9.9213133571580053e-05 0 -1.5201691845733049e-05 9.4414089928873099e-05 0 -3.4789206000718441e-06 8.1494059018859328e-05 0 -7.4696470754184997e-06 -4.0285232947120176e-05 0 -1.6433358014309701e-06 -4.6723287969045331e-05 0 -1.7924728844314914e-06 -3.935881366924215e-05 0 -3.4789206000718441e-06 8.1494059018859328e-05 0 -1.5201691845733049e-05 9.4414089928873099e-05 0 -1.5114245346601852e-05 8.148676387195786e-05 0 -2.2843537449530332e-06 5.389377328786311e-07 0 -5.8693414459600028e-06 -4.8538529853023827e-08 0 -2.1391317486178016e-06 -7.2188196284938794e-07 0 8.7736886239297435e-06 -3.7181428244423824e-06 0 8.5769379519490252e-06 1.6740382614245827e-07 0 7.3093444590962323e-06 -1.6398427433387582e-06 0 -9.1697526788515251e-06 1.62230624400767e-05 0 -1.3316971212098492e-05 1.3048248915436471e-05 0 -7.6957350221393124e-06 8.1579610519280024e-06 0 1.4446021291301703e-05 8.0673437253854033e-06 0 2.0758239455588269e-05 2.3896947523673912e-05 0 1.1842590812834832e-05 2.4340972813681235e-05 0 7.7037918357931921e-06 -2.1477320642595548e-05 0 6.3853710719239949e-06 -2.2295789692248946e-05 0 6.1784804884134247e-06 -2.1510542640908118e-05 0 2.4667430489560922e-05 -3.314966897240528e-05 0 2.3396949588645611e-05 -2.8033876435172901e-05 0 1.6996577460077007e-05 -2.7600706217594874e-05 0 7.772849415099294e-06 1.6821893061238923e-06 0 6.4897263627528518e-06 1.1252310944072201e-07 0 7.3093444590962323e-06 -1.6398427433387582e-06 0 1.781635515854219e-05 -6.8862592258914755e-05 0 8.7836522523521102e-06 -6.0971252448572669e-05 0 8.4225030900985974e-06 -6.8840215139490395e-05 0 -4.8702648312837994e-05 0.00013785537695503442 0 -3.4528133727745822e-05 0.00012187544118843245 0 -3.1792304748303019e-05 0.00013593959224974798 0 4.8641374010257638e-10 -2.1355527853953198e-10 0 6.4984035710644978e-07 -2.5601823722451836e-07 0 5.0075408946325009e-07 -4.8648216008183016e-07 0 2.7733788059831815e-10 2.8782922826263059e-10 0 2.3837336024147699e-07 6.3716524477114095e-07 0 4.2096860039684213e-07 5.9832933490089954e-07 0 -9.1697526788515251e-06 1.62230624400767e-05 0 -1.72523993568332e-06 1.5780190601400068e-05 0 -5.7670939984061564e-06 2.6314495037969942e-05 0 3.4804954872630662e-06 2.3227940969221117e-05 0 -5.7670939984061564e-06 2.6314495037969942e-05 0 -1.7252399356833198e-06 1.5780190601400072e-05 0 8.204389644369363e-06 1.3701620271186311e-05 0 1.4446021291301703e-05 8.0673437253854033e-06 0 1.1842590812834832e-05 2.4340972813681235e-05 0 -4.7655203090677309e-05 0.0001067495754330883 0 -2.8731193025342224e-05 0.0001069822690514001 0 -3.4528133727745822e-05 0.00012187544118843245 0 1.4485467079572705e-05 -5.1839402228331422e-05 0 5.1864893487978281e-06 -5.301371352636467e-05 0 8.7836522523521102e-06 -6.0971252448572669e-05 0 1.3111503442022463e-05 -2.0532723015827821e-05 0 1.1331947250826567e-05 -1.7992961220919564e-05 0 9.9634833496330953e-06 -2.0144615508363382e-05 0 5.5563669539433115e-06 -1.0749809267330172e-06 0 6.1338663518797075e-06 -2.3452300924091998e-06 0 6.4897263627528518e-06 1.1252310944072201e-07 0 6.2252718294168551e-06 -4.3883012266656154e-06 0 6.1166860103086233e-06 -6.4358931752181677e-06 0 8.0767317223452165e-06 -6.5840883991171304e-06 0 1.4109060024746431e-05 -1.1874599328969889e-05 0 1.2452895013035288e-05 -9.8761260463037757e-06 0 1.1481012794759265e-05 -1.2044515681630442e-05 0 -3.9261156864155301e-05 4.9762616017529537e-05 0 -2.6607709637853191e-05 4.1660051867970189e-05 0 -3.0875932633500699e-05 5.6842042366002778e-05 0 -2.7956943144859352e-05 -5.3101566184609408e-05 0 -2.1505882837545718e-05 -6.1009361781801787e-05 0 -1.9017792422443423e-05 -5.3700587724811775e-05 0 3.8052323276724964e-05 0.00010475450549230914 0 2.6671342157949752e-05 0.00012223963905856332 0 2.0587683866006404e-05 0.00010794881265053049 0 1.5929807464434579e-05 -6.0039677659177917e-05 0 8.7836522523521102e-06 -6.0971252448572669e-05 0 1.781635515854219e-05 -6.8862592258914755e-05 0 -4.8702648312837994e-05 0.00013785537695503442 0 -4.8374294946064569e-05 0.00012235059158901857 0 -3.4528133727745822e-05 0.00012187544118843245 0 5.8688383556044884e-06 -1.9259282428854002e-05 0 4.5905512674861767e-06 -1.6821162187345084e-05 0 4.7585256716551452e-06 -1.9341070579735551e-05 0 3.21958800528467e-06 -5.5479903695430262e-06 0 1.1661410464369913e-06 -6.5245960292686645e-06 0 1.8483325830923116e-06 -1.0607400551213454e-05 0 5.8688383556044884e-06 -1.9259282428854002e-05 0 5.9400964216741905e-06 -1.7155169309859926e-05 0 4.5905512674861758e-06 -1.6821162187345084e-05 0 1.0416172182362755e-05 -9.6400363192485434e-06 0 1.1481012794759265e-05 -1.2044515681630442e-05 0 1.2452895013035288e-05 -9.8761260463037757e-06 0 -6.3063203206890394e-06 -2.0028731405480166e-05 0 -7.0000446430854717e-06 -2.765841848686339e-05 0 -2.4703344940702464e-06 -2.188801849908294e-05 0 -5.7811432481041963e-10 1.8774032757357694e-10 0 -7.3565534665581549e-07 3.6301249826784572e-07 0 -4.7876824286755652e-07 4.9018687289663107e-07 0 -7.855816391043353e-10 -3.083029966473758e-10 0 -5.8584785232745575e-07 -7.6898172232695593e-07 0 -9.6197234734928528e-07 -6.318499270716865e-07 0 7.7037918357931921e-06 -2.1477320642595548e-05 0 7.4274087978246034e-06 -2.2833956879897942e-05 0 6.3853710719239949e-06 -2.2295789692248946e-05 0 1.8349752208757962e-05 -3.1834703609285297e-05 0 2.4667430489560922e-05 -3.314966897240528e-05 0 1.6996577460077007e-05 -2.7600706217594874e-05 0 -3.1923616258468209e-10 -5.3536738577538382e-10 0 -5.8588302796482646e-07 -1.1866149604782215e-06 0 -5.8584785232745564e-07 -7.6898172232695593e-07 0 -3.141830091611135e-10 3.5794482696951016e-10 0 -4.7876824286755652e-07 4.9018687289663107e-07 0 -5.6516421278365677e-07 8.1471485683126279e-07 0 2.3760604189637187e-06 -7.5695508254419487e-07 0 1.0811278074503324e-06 -9.9602546115703525e-07 0 1.7683344798479921e-06 -5.7286133035483593e-07 0 -2.6824956741606761e-06 4.7406753759487047e-07 0 -2.2900454748612907e-06 8.854586301506321e-07 0 -1.5798624726352954e-06 6.339816026019904e-07 0 -3.7172344166517606e-06 -9.2771711712853955e-07 0 -2.1037798570253659e-06 -1.1052345238270193e-06 0 -3.0482909179821178e-06 -1.5054802513102454e-06 0 8.698358038261823e-06 -1.1741569487079411e-05 0 8.6466277753726064e-06 -9.6338660286265776e-06 0 6.8430579247621577e-06 -1.0519543533775261e-05 0 7.0165698996591602e-06 -8.4009540257022124e-06 0 8.0767317223452165e-06 -6.5840883991171304e-06 0 6.1166860103086233e-06 -6.4358931752181677e-06 0 4.3949788297712089e-05 0.00013684028253752446 0 2.5224215166946151e-05 0.00013682943543699003 0 2.6671342157949752e-05 0.00012223963905856332 0 -2.8617404403306141e-05 -6.9034811565974732e-05 0 -2.0048950880772974e-05 -6.8047494053174816e-05 0 -2.1505882837545718e-05 -6.1009361781801787e-05 0 7.0165698996591602e-06 -8.4009540257022124e-06 0 6.8430579247621577e-06 -1.0519543533775261e-05 0 8.6466277753726064e-06 -9.6338660286265776e-06 0 1.1331947250826567e-05 -1.7992961220919564e-05 0 1.3768787440195598e-05 -1.744904883297591e-05 0 1.0338918576924028e-05 -1.4797940588182867e-05 0 -1.608614685606217e-05 6.8695097517161886e-05 0 -1.2319757966981972e-05 5.1860876890287123e-05 0 -4.4815456863745479e-06 5.7946107508488396e-05 0 -7.855816391043353e-10 -3.083029966473758e-10 0 -7.1428252069167529e-10 -2.2320180183435358e-10 0 -5.8584785232745564e-07 -7.6898172232695593e-07 0 -5.8636382704443262e-10 1.4030670787813571e-10 0 -5.7811432481041963e-10 1.8774032757357694e-10 0 -4.7876824286755652e-07 4.9018687289663107e-07 0 2.3760604189637187e-06 -7.5695508254419487e-07 0 1.6346199548685984e-06 -1.1961880691670799e-06 0 1.0811278074503324e-06 -9.9602546115703525e-07 0 1.1512508735205701e-05 0.00012339510803185182 0 -4.1859279696407831e-06 0.00013412018148736035 0 -3.6840996717059433e-06 0.00011617204635332301 0 -1.4196362860832584e-05 -6.1451202796045532e-05 0 -6.2635940024548293e-06 -6.7213596033112428e-05 0 -6.947009953190555e-06 -5.7871865807271664e-05 0 -7.0000446430854717e-06 -2.765841848686339e-05 0 -2.1553338808250609e-06 -2.7932187568538385e-05 0 -2.4703344940702464e-06 -2.188801849908294e-05 0 1.2398067312408294e-06 2.0618611220527452e-07 0 1.8039043584121452e-06 5.0914438373330563e-07 0 1.8053641360093007e-06 5.4794631530583787e-08 0 -5.9898515017284324e-07 -1.7311336203000365e-06 0 9.5753971551038977e-07 -1.5179354634868787e-06 0 -3.0224806867200135e-07 -1.2617920326673872e-06 0 1.3768787440195598e-05 -1.744904883297591e-05 0 1.3070296385579689e-05 -1.502354275013596e-05 0 1.0338918576924028e-05 -1.4797940588182867e-05 0 1.8053641360093007e-06 5.4794631530583787e-08 0 1.8039043584121452e-06 5.0914438373330563e-07 0 2.4208947510801129e-06 2.8698426947029294e-07 0 1.8039043584121452e-06 5.0914438373330563e-07 0 9.1550777357638272e-07 3.8108021798217548e-07 0 1.4816869581907265e-06 7.1621928169865276e-07 0 8.8674227750005825e-07 6.6143121773557663e-07 0 1.4816869581907265e-06 7.1621928169865276e-07 0 9.1550777357638272e-07 3.8108021798217548e-07 0 3.8163487686838284e-06 -1.7949443708288516e-05 0 4.5905512674861758e-06 -1.6821162187345084e-05 0 2.6954935925433724e-06 -1.5491081544718919e-05 0 6.2252718294168551e-06 -4.3883012266656154e-06 0 8.0767317223452165e-06 -6.5840883991171296e-06 0 7.4861100953841871e-06 -4.0149853417689718e-06 0 1.3111503442022463e-05 -2.0532723015827821e-05 0 1.3768787440195598e-05 -1.744904883297591e-05 0 1.1331947250826567e-05 -1.7992961220919564e-05 0 7.772849415099294e-06 1.6821893061238923e-06 0 7.3093444590962323e-06 -1.639842743338758e-06 0 8.5769379519490252e-06 1.6740382614245827e-07 0 4.0692762572979666e-05 0.00012021486520529543 0 4.3949788297712089e-05 0.00013684028253752446 0 2.6671342157949752e-05 0.00012223963905856332 0 -2.8413133306796727e-05 -6.1107857045780424e-05 0 -2.8617404403306141e-05 -6.9034811565974732e-05 0 -2.1505882837545718e-05 -6.1009361781801787e-05 0 -2.7956943144859352e-05 -5.3101566184609408e-05 0 -2.8413133306796727e-05 -6.1107857045780424e-05 0 -2.1505882837545718e-05 -6.1009361781801787e-05 0 3.8052323276724964e-05 0.00010475450549230914 0 4.0692762572979666e-05 0.00012021486520529543 0 2.6671342157949752e-05 0.00012223963905856332 0 8.6095646971210764e-06 2.9014324465003907e-06 0 7.6737490390790981e-06 2.3678690460921766e-06 0 7.772849415099294e-06 1.6821893061238923e-06 0 1.6179282130795459e-06 1.2241598646495243e-06 0 1.0618038568041046e-06 1.0323741878868737e-06 0 9.0245445942273489e-07 1.328611884565192e-06 0 6.067256981695312e-07 9.8406131435822854e-07 0 9.0245445942273489e-07 1.328611884565192e-06 0 1.0618038568041046e-06 1.0323741878868737e-06 0 1.668720556074404e-05 5.9597424687606031e-05 0 2.1302455272405188e-05 6.8845480723006075e-05 0 7.7025228330391123e-06 6.8736505161245043e-05 0 2.1302455272405188e-05 6.8845480723006075e-05 0 1.9061571450209305e-05 7.8472044351901184e-05 0 7.7025228330391123e-06 6.8736505161245043e-05 0 8.7736886239297435e-06 -3.7181428244423824e-06 0 7.3093444590962323e-06 -1.6398427433387584e-06 0 7.4861100953841871e-06 -4.0149853417689718e-06 0 1.34764248857453e-05 -2.9559143369313389e-05 0 1.6996577460077007e-05 -2.7600706217594874e-05 0 1.3205726091467775e-05 -2.4977417705882942e-05 0 8.1617265622275848e-06 -2.4910557772405988e-05 0 7.1798458009094783e-06 -2.2622639005278553e-05 0 6.3853710719239949e-06 -2.2295789692248946e-05 0 7.6737490390790981e-06 2.3678690460921766e-06 0 6.8099452344664155e-06 1.4373168637896614e-06 0 7.772849415099294e-06 1.6821893061238923e-06 0 -4.8374294946064569e-05 0.00012235059158901857 0 -4.7655203090677309e-05 0.0001067495754330883 0 -3.4528133727745822e-05 0.00012187544118843245 0 1.4485467079572705e-05 -5.1839402228331422e-05 0 8.7836522523521102e-06 -6.0971252448572669e-05 0 1.5929807464434579e-05 -6.0039677659177917e-05 0 -7.1905189681724366e-06 -8.9220813118520891e-07 0 -6.8343348452730953e-06 -9.0699245919652469e-07 0 -5.0782386740195362e-06 1.5722128772256028e-07 0 -1.097845212926252e-05 1.2195518118680673e-06 0 -7.6494284722618796e-06 -3.5934502690506054e-07 0 -1.0134056954516503e-05 1.3490662407229647e-06 0 8.7736886239297435e-06 -3.7181428244423824e-06 0 8.0767317223452165e-06 -6.5840883991171304e-06 0 1.0563662570134154e-05 -7.3424851821517386e-06 0 3.21958800528467e-06 -5.5479903695430262e-06 0 1.8483325830923116e-06 -1.0607400551213454e-05 0 5.9113610654646716e-06 -1.1682482741218384e-05 0 1.0416172182362755e-05 -9.6400363192485434e-06 0 8.0767317223452165e-06 -6.5840883991171304e-06 0 8.6466277753726064e-06 -9.6338660286265776e-06 0 7.0165698996591602e-06 -8.4009540257022124e-06 0 8.6466277753726064e-06 -9.6338660286265776e-06 0 8.0767317223452165e-06 -6.5840883991171304e-06 0 -5.9141365164744119e-06 -7.7509138256349626e-05 0 2.0944896545884278e-06 -7.8267556837794192e-05 0 8.1451878771772507e-07 -7.0391995304080538e-05 0 -3.6441414063739011e-06 0.00015424406402894772 0 -1.8576634389830306e-05 0.00015352583414541716 0 -1.7587712984188727e-05 0.00013923855686956947 0 1.222342934243961e-05 0.00015533746217613175 0 -3.6441414063739011e-06 0.00015424406402894772 0 9.972079665103582e-06 0.00014004183912820348 0 -1.3391769981489217e-05 -7.7033592710632425e-05 0 -5.9141365164744119e-06 -7.7509138256349626e-05 0 -1.2929681072157904e-05 -6.9762665647532551e-05 0 3.8287874210139528e-06 8.9556276365607487e-06 0 -1.7252399356833198e-06 1.5780190601400072e-05 0 -3.3488609793801698e-06 9.2855428446794774e-06 0 4.9409704683694697e-06 -1.0232918363048361e-05 0 4.2254112504411426e-06 -1.2327487934389201e-05 0 5.870510564039053e-06 -1.2702887362080592e-05 0 1.0416172182362755e-05 -9.6400363192485434e-06 0 8.6466277753726064e-06 -9.6338660286265776e-06 0 1.1481012794759265e-05 -1.2044515681630442e-05 0 8.698358038261823e-06 -1.1741569487079411e-05 0 1.1481012794759265e-05 -1.2044515681630442e-05 0 8.6466277753726064e-06 -9.6338660286265776e-06 0 1.536962781107328e-06 -2.3573170833772604e-05 0 1.435152838267615e-06 -1.6771372203242628e-05 0 -2.4703344940702464e-06 -2.188801849908294e-05 0 -3.1530447447158472e-05 2.7502939505055962e-05 0 -1.9376786718927785e-05 2.0740632276707687e-05 0 -2.6301655749161556e-05 3.1380726015931816e-05 0 -3.1342394627455497e-06 -2.2425540868893579e-06 0 -4.97278707551314e-06 -4.4383717815197705e-06 0 -1.6371702625643811e-06 -3.3088202565283035e-06 0 -2.535065221352021e-06 -5.784325239274235e-06 0 -1.6371702625643811e-06 -3.3088202565283035e-06 0 -4.97278707551314e-06 -4.4383717815197705e-06 0 5.9417009130372564e-06 -2.0948090979063804e-05 0 7.3484662665231075e-06 -2.0555966256849207e-05 0 5.8688383556044884e-06 -1.9259282428854002e-05 0 -2.1440349630442001e-05 4.9882127189857782e-05 0 -3.0875932633500699e-05 5.6842042366002778e-05 0 -2.6607709637853191e-05 4.1660051867970189e-05 0 -6.128888558555032e-06 -1.2818212044767629e-06 0 -8.5025652894249457e-06 -3.0640389889588224e-06 0 -5.8529563664113599e-06 -2.6386763805811748e-06 0 -8.389991432702422e-06 -4.703954476937916e-06 0 -5.8529563664113599e-06 -2.6386763805811748e-06 0 -8.5025652894249457e-06 -3.0640389889588224e-06 0 -1.2360860896545538e-05 8.6035279638440833e-06 0 -1.2923415363019126e-05 5.3972579452877559e-06 0 -8.1457027348586082e-06 4.6830726943290337e-06 0 -8.8798627038253889e-06 2.3053781756968982e-06 0 -8.1457027348586082e-06 4.6830726943290337e-06 0 -1.2923415363019126e-05 5.3972579452877559e-06 0 4.5323753228482409e-06 -1.4810808059652435e-05 0 6.447067262096835e-06 -1.5096204184132249e-05 0 5.870510564039053e-06 -1.2702887362080592e-05 0 -1.8215058056189783e-05 -1.3831214056166149e-05 0 -1.5847753440503288e-05 -1.5602498894347584e-05 0 -1.2279033446251028e-05 -1.0729888193843388e-05 0 1.0452540267393829e-05 4.7728071895326553e-05 0 1.8851854237857566e-06 3.6233584624902929e-05 0 1.1147309428793982e-05 3.4795061256122524e-05 0 5.5563669539433115e-06 -1.0749809267330172e-06 0 4.3572937507689028e-06 -1.925632001434e-06 0 4.831766375677953e-06 -3.185188335625099e-06 0 4.5755999103480939e-06 1.1112484582996562e-06 0 5.3564328625267368e-06 1.1619713953866794e-06 0 4.4208327643537311e-06 8.7390714722502849e-07 0 -2.5557448055023052e-05 9.0018325672821303e-05 0 -1.5201691845733049e-05 9.4414089928873099e-05 0 -2.8731193025342224e-05 0.0001069822690514001 0 3.2552778771484807e-06 -4.4077051943282864e-05 0 -1.6433358014309701e-06 -4.6723287969045331e-05 0 5.1864893487978298e-06 -5.301371352636467e-05 0 8.7736886239297435e-06 -3.7181428244423824e-06 0 7.4861100953841871e-06 -4.014985341768971e-06 0 8.0767317223452165e-06 -6.5840883991171304e-06 0 7.1798458009094783e-06 -2.2622639005278553e-05 0 7.3484662665231075e-06 -2.0555966256849207e-05 0 5.9417009130372564e-06 -2.0948090979063804e-05 0 8.698358038261823e-06 -1.1741569487079411e-05 0 7.5408664104454089e-06 -1.2963942355602388e-05 0 1.0338918576924028e-05 -1.4797940588182867e-05 0 3.5517682004821802e-10 -2.6865711625767968e-10 0 5.0075408946325009e-07 -4.8648216008183016e-07 0 3.1938575320583017e-07 -7.6106058591840984e-07 0 1.5914524334711395e-10 2.8612255044911655e-10 0 8.0726860068266767e-08 7.3548855586682417e-07 0 2.3837336024147699e-07 6.3716524477114095e-07 0 1.435152838267615e-06 -1.6771372203242628e-05 0 -2.9696978913033468e-06 -1.6567751107319044e-05 0 -2.4703344940702464e-06 -2.188801849908294e-05 0 -5.9898515017284324e-07 -1.7311336203000365e-06 0 -3.0224806867200135e-07 -1.2617920326673872e-06 0 -2.2614621008795429e-06 -1.5885875275124057e-06 0 -2.4098335423709624e-06 3.6227179242945454e-06 0 -3.3488609793801685e-06 9.2855428446794774e-06 0 -7.6957350221393124e-06 8.1579610519280024e-06 0 1.1194729161168432e-06 -5.7394292808455231e-07 0 6.4984035710644978e-07 -2.5601823722451836e-07 0 1.5303281303608803e-06 -2.9639489980472673e-07 0 1.1322454755899185e-06 -2.526796912745157e-08 0 1.5303281303608803e-06 -2.9639489980472673e-07 0 6.4984035710644978e-07 -2.5601823722451836e-07 0 8.8674227750005825e-07 6.6143121773557663e-07 0 4.2096860039684218e-07 5.9832933490089954e-07 0 1.0618038568041046e-06 1.0323741878868737e-06 0 6.067256981695312e-07 9.8406131435822854e-07 0 1.0618038568041046e-06 1.0323741878868737e-06 0 4.2096860039684213e-07 5.9832933490089954e-07 0 -2.2843537449530332e-06 5.389377328786311e-07 0 4.0880174623833658e-07 1.3831810603995091e-06 0 -2.4098335423709624e-06 3.6227179242945454e-06 0 4.5755999103480939e-06 1.1112484582996562e-06 0 5.5596553515862711e-06 1.3501789871785911e-06 0 5.3564328625267368e-06 1.1619713953866794e-06 0 3.5171188482117705e-06 -4.6923835261482071e-07 0 2.2563125824586074e-06 -1.0817763218356181e-06 0 2.3760604189637187e-06 -7.5695508254419487e-07 0 -3.0224806867200135e-07 -1.2617920326673872e-06 0 9.5753971551038977e-07 -1.5179354634868787e-06 0 1.6289699125525201e-06 -7.6012993007051981e-07 0 5.8682875949900501e-06 1.199250591552666e-06 0 6.7023677278271818e-06 1.8030327776353644e-06 0 5.5596553515862703e-06 1.3501789871785911e-06 0 2.5081913601680419e-07 1.1255578957253581e-06 0 6.7741697805030331e-07 6.8208397723507229e-07 0 1.0642755782254476e-06 1.2008963424322596e-06 0 1.6011384703127752e-06 6.7473857732303946e-07 0 1.0642755782254476e-06 1.2008963424322596e-06 0 6.7741697805030331e-07 6.8208397723507229e-07 0 -7.1428252069166433e-10 -2.2320180183433918e-10 0 -3.1923616258468209e-10 -5.3536738577538382e-10 0 -5.8584785232745564e-07 -7.6898172232695593e-07 0 -3.141830091611135e-10 3.5794482696951016e-10 0 -5.8636382704443262e-10 1.4030670787813571e-10 0 -4.7876824286755652e-07 4.9018687289663107e-07 0 2.4477481285896603e-05 3.6137299852817851e-05 0 1.1147309428793982e-05 3.4795061256122524e-05 0 1.1842590812834832e-05 2.4340972813681235e-05 0 1.6179282130795459e-06 1.2241598646495243e-06 0 1.9874405651742994e-06 1.2502701279962267e-06 0 2.3299381349188198e-06 1.1335301958685192e-06 0 3.2841475638600153e-06 -3.5283052004560912e-06 0 3.5923753150114214e-06 -2.2233618567356192e-06 0 2.7729765148522753e-06 -3.6992264200914141e-06 0 9.1615705933373182e-06 -2.2579773694455774e-05 0 7.3484662665231075e-06 -2.0555966256849207e-05 0 7.1798458009094783e-06 -2.2622639005278553e-05 0 -5.5444524828534046e-06 -9.2125855639159115e-08 0 -5.0782386740195362e-06 1.5722128772256028e-07 0 -4.1554357911989824e-06 5.6840338687643455e-07 0 -8.1375605513656552e-06 -1.3032430133021979e-07 0 -5.9809099574826066e-06 -1.0951888133840724e-06 0 -7.6494284722618796e-06 -3.5934502690506054e-07 0 8.238851084018993e-06 -1.5096204851163733e-05 0 1.0338918576924028e-05 -1.4797940588182867e-05 0 7.5408664104454089e-06 -1.2963942355602388e-05 0 -5.0782386740195362e-06 1.5722128772256028e-07 0 -3.5171542348001274e-06 5.5285646793161584e-07 0 -3.6826605753977351e-06 7.4599702928750559e-07 0 -3.7558560211719578e-06 -1.0442716229517854e-06 0 -2.1391317486178016e-06 -7.2188196284938794e-07 0 -5.8693414459600028e-06 -4.8538529853023827e-08 0 -5.1387488100215623e-06 -2.4547429371734574e-07 0 -3.5171542348001274e-06 5.5285646793161584e-07 0 -5.0782386740195362e-06 1.5722128772256028e-07 0 -2.2897327256454754e-07 1.4797326178168306e-06 0 -1.0060269502751895e-06 1.4326438160261775e-06 0 -5.3117009796624663e-07 1.3370515620867554e-06 0 1.1110650291662291e-06 -1.603523430559996e-06 0 9.5753971551038977e-07 -1.5179354634868787e-06 0 -5.2181910309177694e-07 -1.9482923133410981e-06 0 -5.5407956044673014e-06 1.9303705499689574e-06 0 -2.2843537449530332e-06 5.3893773287863099e-07 0 -2.4098335423709624e-06 3.6227179242945454e-06 0 4.5323753228482409e-06 -1.4810808059652435e-05 0 5.870510564039053e-06 -1.2702887362080592e-05 0 4.2254112504411426e-06 -1.2327487934389201e-05 0 1.4999517547000715e-05 9.150547862007757e-05 0 2.0587683866006404e-05 0.00010794881265053049 0 6.8921255421163266e-06 0.00010559696113639254 0 -1.6533847574487699e-05 -4.520203257879397e-05 0 -1.9017792422443419e-05 -5.3700587724811775e-05 0 -1.2321752457819483e-05 -5.2362096477708287e-05 0 1.1194729161168432e-06 -5.7394292808455231e-07 0 5.007540894632502e-07 -4.8648216008183016e-07 0 6.4984035710644978e-07 -2.5601823722451836e-07 0 6.067256981695312e-07 9.8406131435822854e-07 0 4.2096860039684208e-07 5.9832933490089954e-07 0 2.3837336024147699e-07 6.3716524477114095e-07 0 1.488229922083416e-10 -3.9499599740994008e-10 0 3.1938575320583017e-07 -7.6106058591840984e-07 0 6.6391735094066948e-08 -8.208602697138668e-07 0 -2.073742193091126e-11 3.2387941595962872e-10 0 -8.7706233394459276e-08 6.7247651137297226e-07 0 8.0726860068266767e-08 7.3548855586682417e-07 0 3.2841475638600153e-06 -3.5283052004560912e-06 0 2.4754930381303569e-06 -5.0534682501982987e-06 0 3.8744627222642887e-06 -4.9881824760329482e-06 0 3.0978620174990407e-06 -6.4701832336573543e-06 0 3.8744627222642887e-06 -4.9881824760329482e-06 0 2.4754930381303569e-06 -5.0534682501982987e-06 0 -7.1588811874246793e-06 3.8951295218447311e-05 0 -5.7670939984061564e-06 2.6314495037969942e-05 0 1.8851854237857566e-06 3.6233584624902929e-05 0 3.4804954872630662e-06 2.3227940969221117e-05 0 1.885185423785756e-06 3.6233584624902929e-05 0 -5.7670939984061564e-06 2.6314495037969942e-05 0 7.0535476037374738e-06 3.4965611744590106e-06 0 7.319803228211954e-06 2.1431853143554163e-06 0 1.0157444180194146e-05 4.6499392746413438e-06 0 3.2841475638600153e-06 -3.5283052004560912e-06 0 4.3572937507689028e-06 -1.925632001434e-06 0 3.5923753150114214e-06 -2.2233618567356192e-06 0 2.5854065105372111e-06 -1.7240244497627589e-07 0 1.8053641360093007e-06 5.4794631530583787e-08 0 2.4208947510801129e-06 2.8698426947029294e-07 0 4.9409704683694697e-06 -1.0232918363048361e-05 0 5.870510564039053e-06 -1.2702887362080592e-05 0 6.8430579247621577e-06 -1.0519543533775261e-05 0 -1.608614685606217e-05 6.8695097517161886e-05 0 -2.2070892220689041e-05 5.908038971796366e-05 0 -1.2319757966981972e-05 5.1860876890287123e-05 0 3.8163487686838284e-06 -1.7949443708288516e-05 0 2.6954935925433724e-06 -1.5491081544718919e-05 0 2.5683892196079801e-06 -1.7785528825881275e-05 0 1.1331947250826567e-05 -1.7992961220919564e-05 0 9.1363466691539396e-06 -1.7055506353075732e-05 0 9.9634833496330953e-06 -2.0144615508363382e-05 0 1.0268875098189627e-06 1.3953546028605883e-06 0 9.0245445942273478e-07 1.328611884565192e-06 0 4.3039480700199587e-07 1.4564803602402372e-06 0 -9.1697526788515251e-06 1.62230624400767e-05 0 -3.3488609793801698e-06 9.2855428446794774e-06 0 -1.7252399356833198e-06 1.5780190601400072e-05 0 -1.5694974608427544e-06 3.2503689660669224e-07 0 -2.6824956741606761e-06 4.7406753759487047e-07 0 -1.5798624726352954e-06 6.339816026019904e-07 0 -3.7172344166517606e-06 -9.2771711712853955e-07 0 -2.1014001750348213e-06 -6.6685238810249723e-07 0 -2.1037798570253654e-06 -1.105234523827019e-06 0 1.0416172182362755e-05 -9.6400363192485434e-06 0 1.0563662570134154e-05 -7.3424851821517386e-06 0 8.0767317223452165e-06 -6.5840883991171304e-06 0 -3.6370801753509234e-07 1.0665452573707483e-06 0 -5.5633628084153186e-07 1.4084413704994842e-06 0 -4.5252387729528899e-08 1.1925741858149745e-06 0 -1.3308032410723737e-07 -1.3812055821434992e-06 0 4.0094330065075132e-07 -1.3104874829927094e-06 0 -2.304166442879205e-08 -1.8012903725753116e-06 0 -2.7351791456885028e-05 1.8852017757828552e-05 0 -1.8620372987847074e-05 1.350253172699145e-05 0 -1.9376786718927785e-05 2.0740632276707687e-05 0 -1.5970859735655549e-05 -9.7118522306655077e-06 0 -1.2279033446251028e-05 -1.0729888193843388e-05 0 -1.1624163787011124e-05 -7.0324924863138453e-06 0 3.8287874210139528e-06 8.9556276365607487e-06 0 8.8591352568045437e-06 6.4196882916392131e-06 0 8.204389644369363e-06 1.3701620271186311e-05 0 1.4446021291301703e-05 8.0673437253854033e-06 0 8.2043896443693613e-06 1.3701620271186311e-05 0 8.8591352568045437e-06 6.4196882916392131e-06 0 -1.6397242020402767e-06 -1.2024596363745557e-05 0 -5.7319369698411078e-06 -1.3298816013816846e-05 0 -2.9696978913033468e-06 -1.6567751107319044e-05 0 -6.3063203206890394e-06 -2.0028731405480166e-05 0 -2.9696978913033468e-06 -1.6567751107319044e-05 0 -5.7319369698411078e-06 -1.3298816013816846e-05 0 8.7736886239297435e-06 -3.7181428244423824e-06 0 1.0086476910668955e-05 -1.5380015385783285e-06 0 8.5769379519490252e-06 1.6740382614245827e-07 0 9.1615705933373182e-06 -2.2579773694455774e-05 0 7.1798458009094775e-06 -2.2622639005278553e-05 0 8.8786458102685543e-06 -2.4567469749485269e-05 0 2.5854065105372111e-06 -1.7240244497627589e-07 0 2.3760604189637187e-06 -7.5695508254419487e-07 0 1.7683344798479921e-06 -5.7286133035483593e-07 0 -4.97278707551314e-06 -4.4383717815197705e-06 0 -8.5757238704411579e-06 -7.0247278535093039e-06 0 -5.4951377358434537e-06 -6.9821343870639636e-06 0 1.34764248857453e-05 -2.9559143369313389e-05 0 1.3205726091467775e-05 -2.4977417705882942e-05 0 1.0652694415425702e-05 -2.5292306817960525e-05 0 -1.8656378547964231e-05 3.1291921871841331e-05 0 -2.6301655749161556e-05 3.1380726015931816e-05 0 -1.9376786718927785e-05 2.0740632276707687e-05 0 -2.8731193025342224e-05 0.0001069822690514001 0 -1.5201691845733049e-05 9.4414089928873099e-05 0 -1.4507277129377088e-05 0.00010826761522425137 0 5.1864893487978298e-06 -5.301371352636467e-05 0 -1.6433358014309701e-06 -4.6723287969045331e-05 0 -1.7553416009328381e-06 -5.3786651206407744e-05 0 2.7426957334036892e-06 9.5246504420033666e-07 0 3.6115805914313984e-06 9.6468665659887975e-07 0 2.762110763198622e-06 1.1342513296375907e-06 0 3.0978620174990407e-06 -6.4701832336573543e-06 0 2.4754930381303569e-06 -5.0534682501982987e-06 0 1.9494081702138895e-06 -7.2292333766774029e-06 0 3.3474482391368285e-06 6.5579763416784585e-07 0 4.4208327643537311e-06 8.7390714722502859e-07 0 4.053124516911957e-06 4.5647054708917514e-07 0 4.9791011214212172e-06 7.2861647755149283e-07 0 4.053124516911957e-06 4.5647054708917514e-07 0 4.4208327643537311e-06 8.7390714722502849e-07 0 -3.0224806867200135e-07 -1.2617920326673872e-06 0 -2.1391317486178016e-06 -7.2188196284938794e-07 0 -2.2614621008795429e-06 -1.5885875275124057e-06 0 -6.3063203206890394e-06 -2.0028731405480166e-05 0 -9.9781892921968667e-06 -2.3822713650910387e-05 0 -7.0000446430854717e-06 -2.765841848686339e-05 0 -3.8969668391692056e-06 -1.6610528160270665e-06 0 -2.2218280776679517e-06 -1.9431163564330919e-06 0 -4.6331474365346627e-06 -1.3880052593285599e-06 0 7.7025228330391123e-06 6.8736505161245043e-05 0 -3.4789206000718441e-06 8.1494059018859328e-05 0 -6.4878799404391559e-06 6.9737905279511483e-05 0 7.7025228330391123e-06 6.8736505161245043e-05 0 -6.4878799404391559e-06 6.9737905279511483e-05 0 -4.4815456863745479e-06 5.7946107508488396e-05 0 -1.608614685606217e-05 6.8695097517161886e-05 0 -4.4815456863745479e-06 5.7946107508488396e-05 0 -6.4878799404391559e-06 6.9737905279511483e-05 0 -1.2037398371466611e-05 -3.3573835983169827e-05 0 -7.4696470754184997e-06 -4.0285232947120176e-05 0 -5.2189423548982999e-06 -3.3552054559793586e-05 0 -1.2037398371466611e-05 -3.3573835983169827e-05 0 -5.2189423548982999e-06 -3.3552054559793586e-05 0 -7.0000446430854717e-06 -2.765841848686339e-05 0 7.319803228211954e-06 2.1431853143554163e-06 0 8.7246669223472934e-06 3.2030142968357418e-06 0 1.0157444180194146e-05 4.6499392746413438e-06 0 4.8641374010257638e-10 -2.1355527853953198e-10 0 6.3196989786632371e-10 4.9063238028169424e-12 0 6.4984035710644978e-07 -2.5601823722451836e-07 0 4.4819303860793199e-10 1.9158096905853433e-10 0 2.7733788059831815e-10 2.8782922826263059e-10 0 4.2096860039684213e-07 5.9832933490089954e-07 0 1.9874405651742994e-06 1.2502701279962267e-06 0 2.762110763198622e-06 1.134251329637591e-06 0 2.3299381349188198e-06 1.1335301958685192e-06 0 3.21958800528467e-06 -5.5479903695430262e-06 0 2.0175064192493786e-06 -4.0737580246965313e-06 0 1.1661410464369913e-06 -6.5245960292686645e-06 0 -2.2218280776679517e-06 -1.9431163564330919e-06 0 -2.2614621008795425e-06 -1.5885875275124057e-06 0 -4.6331474365346627e-06 -1.3880052593285599e-06 0 5.7140912789055207e-10 1.3159594300176105e-10 0 9.1550777357638272e-07 3.8108021798217548e-07 0 5.938788507143864e-07 1.0686082793848657e-07 0 -3.7172344166517606e-06 -9.2771711712853955e-07 0 -3.0482909179821178e-06 -1.5054802513102454e-06 0 -4.5554847698521253e-06 -1.3046868196883618e-06 0 -2.6824956741606761e-06 4.7406753759487047e-07 0 -3.2620271910446809e-06 7.2543042931576999e-07 0 -2.2900454748612907e-06 8.8545863015063199e-07 0 -1.2125434367463222e-05 -1.5403099725652423e-05 0 -1.2279033446251028e-05 -1.0729888193843388e-05 0 -1.5847753440503288e-05 -1.5602498894347584e-05 0 1.4816869581907265e-06 7.1621928169865276e-07 0 8.8674227750005825e-07 6.6143121773557663e-07 0 1.6083888632682916e-06 1.0050675587347121e-06 0 4.5323753228482409e-06 -1.4810808059652435e-05 0 2.6954935925433724e-06 -1.5491081544718919e-05 0 4.5905512674861758e-06 -1.6821162187345084e-05 0 5.8682875949900501e-06 1.199250591552666e-06 0 5.5596553515862703e-06 1.3501789871785911e-06 0 5.047403132851856e-06 9.8417858608878501e-07 0 1.0452540267393829e-05 4.7728071895326553e-05 0 -8.6075461177886593e-07 4.8143091186907427e-05 0 1.8851854237857566e-06 3.6233584624902929e-05 0 2.5854065105372111e-06 -1.7240244497627589e-07 0 1.5303281303608803e-06 -2.9639489980472673e-07 0 1.8053641360093007e-06 5.4794631530583787e-08 0 -2.0076026306944598e-05 0.00012343665356356881 0 -1.4507277129377088e-05 0.00010826761522425137 0 -3.6840996717059433e-06 0.00011617204635332301 0 1.4354264631678972e-06 -6.1887999803066277e-05 0 -1.7553416009328381e-06 -5.3786651206407744e-05 0 -6.947009953190555e-06 -5.7871865807271664e-05 0 8.8674227750005825e-07 6.6143121773557663e-07 0 1.0618038568041046e-06 1.0323741878868737e-06 0 1.6083888632682916e-06 1.0050675587347121e-06 0 5.8682875949900501e-06 1.199250591552666e-06 0 4.9735739624010306e-06 4.3354111615144375e-07 0 5.644237280716455e-06 3.2634715249172555e-07 0 1.1512508735205701e-05 0.00012339510803185182 0 9.972079665103582e-06 0.00014004183912820348 0 -4.1859279696407831e-06 0.00013412018148736035 0 -2.0076026306944598e-05 0.00012343665356356881 0 -4.1859279696407806e-06 0.00013412018148736032 0 -1.7587712984188727e-05 0.00013923855686956947 0 -1.4196362860832584e-05 -6.1451202796045532e-05 0 -1.2929681072157904e-05 -6.9762665647532551e-05 0 -6.2635940024548293e-06 -6.7213596033112428e-05 0 1.4354264631678972e-06 -6.1887999803066277e-05 0 -6.2635940024548293e-06 -6.7213596033112428e-05 0 8.1451878771772507e-07 -7.0391995304080538e-05 0 -2.4098335423709624e-06 3.6227179242945454e-06 0 -7.6957350221393124e-06 8.1579610519280024e-06 0 -8.1457027348586082e-06 4.6830726943290337e-06 0 -7.3772903568842692e-06 -9.0636692041790092e-06 0 -1.2279033446251028e-05 -1.0729888193843388e-05 0 -9.1923485327997951e-06 -1.2599391195598128e-05 0 -1.2125434367463222e-05 -1.5403099725652423e-05 0 -9.1923485327997951e-06 -1.2599391195598128e-05 0 -1.2279033446251028e-05 -1.0729888193843388e-05 0 -1.8656378547964231e-05 3.1291921871841331e-05 0 -1.9376786718927785e-05 2.0740632276707687e-05 0 -1.2642312555272752e-05 2.4916529144779151e-05 0 -9.1697526788515251e-06 1.62230624400767e-05 0 -1.2642312555272752e-05 2.4916529144779151e-05 0 -1.9376786718927785e-05 2.0740632276707687e-05 0 6.067256981695312e-07 9.8406131435822854e-07 0 3.7888243608677801e-07 1.1273745146068626e-06 0 9.0245445942273489e-07 1.328611884565192e-06 0 2.0758239455588269e-05 2.3896947523673912e-05 0 2.4477481285896603e-05 3.6137299852817851e-05 0 1.1842590812834832e-05 2.4340972813681235e-05 0 -1.3308032410723737e-07 -1.3812055821434992e-06 0 -6.7783473283679972e-07 -1.6782737923506531e-06 0 -5.8588302796482646e-07 -1.1866149604782215e-06 0 -3.6370801753509234e-07 1.0665452573707483e-06 0 -5.6516421278365677e-07 8.1471485683126279e-07 0 -7.871583355219217e-07 1.1880880778570603e-06 0 3.2841475638600153e-06 -3.5283052004560912e-06 0 4.831766375677953e-06 -3.185188335625099e-06 0 4.3572937507689028e-06 -1.925632001434e-06 0 -5.5633628084153186e-07 1.4084413704994842e-06 0 -9.0259722416997642e-08 1.4265325677287447e-06 0 -4.5252387729528899e-08 1.1925741858149745e-06 0 -2.304166442879205e-08 -1.8012903725753116e-06 0 4.0094330065075132e-07 -1.3104874829927094e-06 0 7.8541003501136762e-07 -1.5349403683949048e-06 0 -3.7558560211719578e-06 -1.0442716229517854e-06 0 -5.8693414459600028e-06 -4.8538529853023827e-08 0 -4.6331474365346627e-06 -1.3880052593285599e-06 0 -7.6494284722618796e-06 -3.5934502690506054e-07 0 -4.6331474365346627e-06 -1.3880052593285599e-06 0 -5.8693414459600028e-06 -4.8538529853023827e-08 0 1.1512508735205701e-05 0.00012339510803185182 0 6.8921255421163266e-06 0.00010559696113639254 0 2.0587683866006404e-05 0.00010794881265053049 0 -1.4196362860832584e-05 -6.1451202796045532e-05 0 -1.2321752457819483e-05 -5.2362096477708287e-05 0 -1.9017792422443423e-05 -5.3700587724811775e-05 0 1.34764248857453e-05 -2.9559143369313389e-05 0 1.8349752208757962e-05 -3.1834703609285297e-05 0 1.6996577460077007e-05 -2.7600706217594874e-05 0 7.4274087978246034e-06 -2.2833956879897942e-05 0 8.1617265622275848e-06 -2.4910557772405988e-05 0 6.3853710719239949e-06 -2.2295789692248946e-05 0 -3.9881378943452487e-07 8.0912947109587797e-07 0 2.5081913601680419e-07 1.1255578957253581e-06 0 -5.3117009796624663e-07 1.3370515620867554e-06 0 2.1230488969342889e-06 -1.9547804515715661e-05 0 3.7853779246744544e-06 -1.9648622861657842e-05 0 2.5683892196079801e-06 -1.7785528825881275e-05 0 2.1762092500577083e-05 -1.7511142352809247e-05 0 1.8763520833416024e-05 -1.7344490753737129e-05 0 1.9754002656550501e-05 -2.0962468996970939e-05 0 1.3111503442022463e-05 -2.0532723015827821e-05 0 1.6089711005949539e-05 -2.0825030382949586e-05 0 1.3768787440195598e-05 -1.744904883297591e-05 0 -8.389991432702422e-06 -4.703954476937916e-06 0 -8.5757238704411579e-06 -7.0247278535093039e-06 0 -4.97278707551314e-06 -4.4383717815197705e-06 0 8.1617265622275848e-06 -2.4910557772405988e-05 0 8.8786458102685543e-06 -2.4567469749485269e-05 0 7.1798458009094783e-06 -2.2622639005278553e-05 0 -8.8798627038253889e-06 2.3053781756968982e-06 0 -5.8693414459600028e-06 -4.8538529853023827e-08 0 -5.5407956044673014e-06 1.9303705499689574e-06 0 3.6115805914313984e-06 9.6468665659887975e-07 0 3.6369733836338095e-06 1.0784819933198872e-06 0 2.762110763198622e-06 1.1342513296375907e-06 0 -7.3772903568842692e-06 -9.0636692041790092e-06 0 -5.7319369698411078e-06 -1.3298816013816846e-05 0 -4.0385354913892646e-06 -9.1165823570521471e-06 0 -1.6397242020402767e-06 -1.2024596363745557e-05 0 -4.0385354913892655e-06 -9.1165823570521471e-06 0 -5.7319369698411078e-06 -1.3298816013816846e-05 0 -1.3293274020042153e-06 9.4722377347036201e-07 0 -3.9881378943452487e-07 8.0912947109587797e-07 0 -5.3117009796624663e-07 1.3370515620867554e-06 0 -7.3772903568842692e-06 -9.0636692041790092e-06 0 -5.4951377358434537e-06 -6.9821343870639636e-06 0 -8.5757238704411579e-06 -7.0247278535093039e-06 0 -1.3824604895455689e-06 1.292517723491322e-06 0 -1.3293274020042153e-06 9.4722377347036201e-07 0 -5.3117009796624663e-07 1.3370515620867554e-06 0 1.1110650291662291e-06 -1.603523430559996e-06 0 2.5642933964890662e-06 -1.0427439243553999e-06 0 9.5753971551038977e-07 -1.5179354634868787e-06 0 -7.3772903568842692e-06 -9.0636692041790092e-06 0 -8.5757238704411579e-06 -7.0247278535093039e-06 0 -1.2279033446251028e-05 -1.0729888193843388e-05 0 -9.1697526788515251e-06 1.62230624400767e-05 0 -1.9376786718927785e-05 2.0740632276707687e-05 0 -1.3316971212098492e-05 1.3048248915436471e-05 0 -3.1923616258468209e-10 -5.3536738577538382e-10 0 -1.4218478775797984e-07 -7.6465818066209419e-07 0 -5.8588302796482646e-07 -1.1866149604782215e-06 0 -3.141830091611135e-10 3.5794482696951016e-10 0 -5.6516421278365677e-07 8.1471485683126279e-07 0 -2.0224133000580133e-07 5.6258316205102339e-07 0 -1.3824604895455689e-06 1.292517723491322e-06 0 -5.3117009796624663e-07 1.3370515620867554e-06 0 -1.0060269502751895e-06 1.4326438160261775e-06 0 -5.9898515017284324e-07 -1.7311336203000365e-06 0 -5.2181910309177694e-07 -1.9482923133410981e-06 0 9.5753971551038977e-07 -1.5179354634868787e-06 0 9.6493171232006804e-07 -1.3129969570031864e-06 0 1.0811278074503324e-06 -9.9602546115703525e-07 0 1.6346199548685984e-06 -1.1961880691670799e-06 0 1.1661410464369913e-06 -6.5245960292686645e-06 0 -1.4138868875337774e-06 -7.9244496406333464e-06 0 1.8483325830923116e-06 -1.0607400551213454e-05 0 2.5854065105372111e-06 -1.7240244497627589e-07 0 2.4208947510801129e-06 2.8698426947029294e-07 0 3.151733570140725e-06 2.202958327010275e-07 0 -2.0076026306944598e-05 0.00012343665356356881 0 -2.8731193025342224e-05 0.0001069822690514001 0 -1.4507277129377088e-05 0.00010826761522425137 0 1.4354264631678972e-06 -6.1887999803066277e-05 0 5.1864893487978298e-06 -5.301371352636467e-05 0 -1.7553416009328381e-06 -5.3786651206407744e-05 0 -2.2897327256454754e-07 1.4797326178168306e-06 0 -5.5633628084153186e-07 1.4084413704994842e-06 0 -1.0060269502751895e-06 1.4326438160261775e-06 0 1.1110650291662291e-06 -1.603523430559996e-06 0 -5.2181910309177694e-07 -1.9482923133410981e-06 0 -2.304166442879205e-08 -1.8012903725753116e-06 0 1.8039043584121452e-06 5.0914438373330563e-07 0 2.1466854802576111e-06 9.0984322597206819e-07 0 2.5730100386707188e-06 6.7062723830204422e-07 0 -1.4138868875337774e-06 -7.9244496406333464e-06 0 -1.6397242020402767e-06 -1.2024596363745557e-05 0 1.8483325830923116e-06 -1.0607400551213454e-05 0 -4.4578012935835467e-05 7.6849783127249229e-05 0 -4.228151636025002e-05 6.2868083941736003e-05 0 -3.0085678369031488e-05 6.9093823102230224e-05 0 1.0752938696393873e-05 -2.9269324506141756e-05 0 5.1776828432638712e-06 -3.3146501824774895e-05 0 1.199280126637719e-05 -3.6215377832967324e-05 0 -1.2037398371466611e-05 -3.3573835983169827e-05 0 -7.0000446430854717e-06 -2.765841848686339e-05 0 -1.186731915473524e-05 -2.7831838032688778e-05 0 4.4358666666074947e-06 -6.9498616701795035e-07 0 3.5923753150114214e-06 -2.2233618567356188e-06 0 4.3572937507689028e-06 -1.925632001434e-06 0 -3.8969668391692056e-06 -1.6610528160270665e-06 0 -3.0482909179821174e-06 -1.5054802513102454e-06 0 -2.5299607325072692e-06 -1.8278048953949541e-06 0 -2.9584332866313806e-06 1.0036748223764271e-06 0 -2.0827985001720017e-06 1.1391580197463285e-06 0 -2.2900454748612907e-06 8.8545863015063199e-07 0 5.3137618507476922e-06 6.5719917136869258e-07 0 3.9121993853745048e-06 -3.0990834434906649e-07 0 5.1194261390466433e-06 4.3883369944107212e-07 0 1.8039043584121452e-06 5.0914438373330563e-07 0 1.4816869581907265e-06 7.1621928169865276e-07 0 2.1466854802576111e-06 9.0984322597206819e-07 0 3.0978620174990407e-06 -6.4701832336573543e-06 0 2.4839823955657685e-06 -8.8121683573957223e-06 0 4.0554132249154519e-06 -7.7704766995365376e-06 0 -3.8969668391692056e-06 -1.6610528160270665e-06 0 -4.5554847698521253e-06 -1.3046868196883618e-06 0 -3.0482909179821178e-06 -1.5054802513102454e-06 0 -2.9584332866313806e-06 1.0036748223764271e-06 0 -2.2900454748612907e-06 8.8545863015063199e-07 0 -3.2620271910446813e-06 7.2543042931576999e-07 0 5.8682875949900501e-06 1.199250591552666e-06 0 5.047403132851856e-06 9.8417858608878501e-07 0 4.9735739624010306e-06 4.3354111615144375e-07 0 -6.6626155706579505e-06 -4.9052479274864557e-05 0 -7.4696470754185006e-06 -4.0285232947120176e-05 0 -1.1089068260371288e-05 -4.4928229361645346e-05 0 -4.8247353716900356e-06 9.9213133571580053e-05 0 -3.4789206000718458e-06 8.1494059018859315e-05 0 4.0093694385808007e-06 9.1056427722031516e-05 0 -8.389991432702422e-06 -4.703954476937916e-06 0 -4.97278707551314e-06 -4.4383717815197697e-06 0 -5.8529563664113599e-06 -2.6386763805811748e-06 0 -3.1342394627455497e-06 -2.2425540868893579e-06 0 -5.852956366411359e-06 -2.6386763805811748e-06 0 -4.97278707551314e-06 -4.4383717815197705e-06 0 2.1427733320051723e-06 -6.8955660504633499e-07 0 1.053897006222687e-06 -1.1832823094869718e-06 0 2.3579172835147873e-06 -2.2479754230848115e-06 0 6.7740762602976293e-07 -2.748842763178508e-06 0 2.3579172835147873e-06 -2.2479754230848115e-06 0 1.053897006222687e-06 -1.1832823094869718e-06 0 3.1938575320583017e-07 -7.6106058591840984e-07 0 1.0811278074503324e-06 -9.9602546115703525e-07 0 4.0094330065075132e-07 -1.3104874829927094e-06 0 9.6493171232006804e-07 -1.3129969570031864e-06 0 4.0094330065075132e-07 -1.3104874829927094e-06 0 1.0811278074503324e-06 -9.9602546115703525e-07 0 2.0140317904573489e-07 1.3453397565240613e-06 0 3.7888243608677801e-07 1.1273745146068626e-06 0 -4.5252387729528899e-08 1.1925741858149745e-06 0 8.0726860068266767e-08 7.3548855586682417e-07 0 -4.5252387729528899e-08 1.1925741858149745e-06 0 3.7888243608677801e-07 1.1273745146068626e-06 0 4.5323753228482409e-06 -1.4810808059652435e-05 0 5.9400964216741914e-06 -1.7155169309859926e-05 0 6.447067262096835e-06 -1.5096204184132249e-05 0 4.4358666666074947e-06 -6.9498616701795035e-07 0 5.644237280716455e-06 3.2634715249172555e-07 0 4.9735739624010306e-06 4.3354111615144375e-07 0 4.9791011214212172e-06 7.2861647755149283e-07 0 4.4381135412024407e-06 2.466647753603677e-07 0 4.053124516911957e-06 4.5647054708917514e-07 0 7.7025228330391123e-06 6.8736505161245043e-05 0 8.4072764966109744e-06 8.2233170122191735e-05 0 -3.4789206000718441e-06 8.1494059018859328e-05 0 -1.2037398371466611e-05 -3.3573835983169827e-05 0 -1.3222348412546755e-05 -4.0074010718614658e-05 0 -7.4696470754184997e-06 -4.0285232947120176e-05 0 7.7025228330391123e-06 6.8736505161245043e-05 0 -4.4815456863745479e-06 5.7946107508488396e-05 0 5.8360593175371286e-06 5.6309518840990664e-05 0 5.3137618507476922e-06 6.5719917136869258e-07 0 3.5730033878505867e-06 -6.4377024216756064e-08 0 3.9121993853745048e-06 -3.0990834434906649e-07 0 5.3137618507476922e-06 6.5719917136869258e-07 0 5.2270543404649113e-06 1.4882909247060277e-06 0 3.5730033878505871e-06 -6.4377024216756012e-08 0 -7.1588811874246793e-06 3.8951295218447311e-05 0 -8.6075461177886508e-07 4.8143091186907427e-05 0 -1.2319757966981972e-05 5.1860876890287123e-05 0 -4.4815456863745479e-06 5.7946107508488396e-05 0 -1.2319757966981972e-05 5.1860876890287123e-05 0 -8.6075461177886508e-07 4.8143091186907427e-05 0 -1.2999242915779485e-06 -1.2247156962432737e-06 0 -5.8588302796482646e-07 -1.1866149604782217e-06 0 -1.1965471244260056e-06 -1.6156756588501996e-06 0 -1.0449843565325997e-06 7.6423005321737787e-07 0 -1.0823145418080736e-06 1.0711516727235144e-06 0 -5.6516421278365677e-07 8.1471485683126279e-07 0 -1.6397242020402767e-06 -1.2024596363745557e-05 0 -2.9696978913033468e-06 -1.6567751107319044e-05 0 1.435152838267615e-06 -1.6771372203242628e-05 0 2.1230488969342889e-06 -1.9547804515715661e-05 0 3.7090742969949572e-06 -2.1392110105855475e-05 0 3.7853779246744544e-06 -1.9648622861657842e-05 0 2.1762092500577083e-05 -1.7511142352809247e-05 0 1.9754002656550501e-05 -2.0962468996970939e-05 0 2.4391552448889048e-05 -2.0807197757142143e-05 0 4.251749327488706e-06 6.5530771762010926e-07 0 4.9735739624010306e-06 4.3354111615144375e-07 0 5.047403132851856e-06 9.8417858608878501e-07 0 4.9791011214212172e-06 7.2861647755149283e-07 0 6.2106981747189193e-06 1.3430970453079705e-06 0 5.1194261390466433e-06 4.3883369944107212e-07 0 9.1615705933373182e-06 -2.2579773694455774e-05 0 9.9634833496330953e-06 -2.0144615508363382e-05 0 7.3484662665231075e-06 -2.0555966256849207e-05 0 8.2001521049159744e-06 -1.8730701203493414e-05 0 7.3484662665231075e-06 -2.0555966256849207e-05 0 9.9634833496330953e-06 -2.0144615508363382e-05 0 8.698358038261823e-06 -1.1741569487079411e-05 0 1.0338918576924026e-05 -1.4797940588182867e-05 0 1.1481012794759265e-05 -1.2044515681630442e-05 0 -2.0076026306944598e-05 0.00012343665356356881 0 -3.4528133727745822e-05 0.00012187544118843245 0 -2.8731193025342224e-05 0.0001069822690514001 0 1.4354264631678972e-06 -6.1887999803066277e-05 0 8.7836522523521102e-06 -6.0971252448572669e-05 0 5.1864893487978298e-06 -5.301371352636467e-05 0 5.2324577947126328e-06 -2.095502327154614e-05 0 6.1784804884134247e-06 -2.1510542640908118e-05 0 6.3853710719239949e-06 -2.2295789692248946e-05 0 1.8792450835439651e-05 -2.4231574879756485e-05 0 1.6996577460077007e-05 -2.7600706217594874e-05 0 2.3396949588645611e-05 -2.8033876435172901e-05 0 1.1512508735205701e-05 0.00012339510803185182 0 -3.6840996717059433e-06 0.00011617204635332301 0 6.8921255421163266e-06 0.00010559696113639254 0 -1.4196362860832584e-05 -6.1451202796045532e-05 0 -6.947009953190555e-06 -5.7871865807271664e-05 0 -1.2321752457819483e-05 -5.2362096477708287e-05 0 1.8039043584121452e-06 5.0914438373330563e-07 0 2.5730100386707188e-06 6.7062723830204422e-07 0 2.4208947510801129e-06 2.8698426947029294e-07 0 3.3474482391368285e-06 6.5579763416784585e-07 0 2.4208947510801129e-06 2.8698426947029294e-07 0 2.5730100386707188e-06 6.7062723830204422e-07 0 1.4999517547000715e-05 9.150547862007757e-05 0 6.8921255421163266e-06 0.00010559696113639254 0 4.0093694385808007e-06 9.1056427722031516e-05 0 -1.6533847574487699e-05 -4.520203257879397e-05 0 -1.2321752457819483e-05 -5.2362096477708287e-05 0 -1.1089068260371288e-05 -4.4928229361645346e-05 0 -1.3308032410723737e-07 -1.3812055821434992e-06 0 -5.8588302796482656e-07 -1.1866149604782215e-06 0 -1.4218478775797984e-07 -7.6465818066209419e-07 0 -3.6370801753509234e-07 1.0665452573707483e-06 0 -2.0224133000580133e-07 5.6258316205102339e-07 0 -5.6516421278365677e-07 8.1471485683126279e-07 0 3.4804954872630662e-06 2.3227940969221117e-05 0 1.1147309428793982e-05 3.4795061256122524e-05 0 1.8851854237857566e-06 3.6233584624902929e-05 0 -1.2999242915779485e-06 -1.2247156962432737e-06 0 -5.8584785232745564e-07 -7.6898172232695593e-07 0 -5.8588302796482646e-07 -1.1866149604782215e-06 0 -1.0449843565325997e-06 7.6423005321737787e-07 0 -5.6516421278365677e-07 8.1471485683126279e-07 0 -4.7876824286755652e-07 4.9018687289663107e-07 0 -4.7655203090677309e-05 0.0001067495754330883 0 -3.6129077056658918e-05 9.5725393820480766e-05 0 -2.8731193025342224e-05 0.0001069822690514001 0 1.4485467079572705e-05 -5.1839402228331422e-05 0 8.4315116590997302e-06 -4.6747788250581667e-05 0 5.1864893487978298e-06 -5.301371352636467e-05 0 3.8287874210139528e-06 8.9556276365607487e-06 0 -3.3488609793801698e-06 9.2855428446794774e-06 0 1.4134719153097803e-06 5.5411756491180625e-06 0 -2.4098335423709624e-06 3.6227179242945454e-06 0 1.4134719153097803e-06 5.5411756491180633e-06 0 -3.3488609793801698e-06 9.2855428446794774e-06 0 -6.3063203206890394e-06 -2.0028731405480166e-05 0 -5.7319369698411078e-06 -1.3298816013816846e-05 0 -8.8882646221143857e-06 -1.5989264445393486e-05 0 8.7736886239297435e-06 -3.7181428244423824e-06 0 1.0563662570134154e-05 -7.3424851821517386e-06 0 1.1400456806633597e-05 -5.4821744499407484e-06 0 -7.1588811874246793e-06 3.8951295218447311e-05 0 -1.2129949653267824e-05 3.2145606579736558e-05 0 -5.7670939984061564e-06 2.6314495037969942e-05 0 -9.1697526788515251e-06 1.62230624400767e-05 0 -5.7670939984061564e-06 2.6314495037969942e-05 0 -1.2642312555272752e-05 2.4916529144779151e-05 0 -7.3772903568842692e-06 -9.0636692041790092e-06 0 -9.1923485327997951e-06 -1.2599391195598128e-05 0 -5.7319369698411078e-06 -1.3298816013816846e-05 0 -1.6397242020402767e-06 -1.2024596363745557e-05 0 1.435152838267615e-06 -1.6771372203242628e-05 0 1.8483325830923116e-06 -1.0607400551213454e-05 0 3.8163487686838284e-06 -1.7949443708288516e-05 0 2.5683892196079801e-06 -1.7785528825881275e-05 0 3.7853779246744544e-06 -1.9648622861657842e-05 0 1.6678567473522009e-05 -1.8627135269924388e-05 0 1.9754002656550501e-05 -2.0962468996970939e-05 0 1.8763520833416024e-05 -1.7344490753737129e-05 0 5.5563669539433115e-06 -1.0749809267330172e-06 0 4.831766375677953e-06 -3.185188335625099e-06 0 6.1338663518797075e-06 -2.3452300924091998e-06 0 3.2841475638600153e-06 -3.5283052004560912e-06 0 3.8744627222642887e-06 -4.9881824760329482e-06 0 4.831766375677953e-06 -3.185188335625099e-06 0 7.6737490390790981e-06 2.3678690460921766e-06 0 6.7023677278271818e-06 1.8030327776353644e-06 0 6.8099452344664155e-06 1.4373168637896614e-06 0 1.1661410464369913e-06 -6.5245960292686645e-06 0 2.0175064192493786e-06 -4.0737580246965313e-06 0 -1.5015564571217394e-07 -4.7888258988362252e-06 0 1.1512508735205701e-05 0.00012339510803185182 0 2.0587683866006404e-05 0.00010794881265053049 0 2.6671342157949752e-05 0.00012223963905856332 0 -1.4196362860832584e-05 -6.1451202796045532e-05 0 -1.9017792422443423e-05 -5.3700587724811775e-05 0 -2.1505882837545718e-05 -6.1009361781801787e-05 0 5.8682875949900501e-06 1.199250591552666e-06 0 6.8099452344664155e-06 1.4373168637896614e-06 0 6.7023677278271818e-06 1.8030327776353644e-06 0 1.4109060024746431e-05 -1.1874599328969889e-05 0 1.1481012794759265e-05 -1.2044515681630442e-05 0 1.4521074406871134e-05 -1.3764232375138358e-05 0 8.2001521049159744e-06 -1.8730701203493414e-05 0 9.9634833496330953e-06 -2.0144615508363382e-05 0 9.1363466691539396e-06 -1.7055506353075732e-05 0 6.231579027750827e-06 1.5522427756217639e-06 0 5.5596553515862694e-06 1.3501789871785909e-06 0 6.7023677278271818e-06 1.8030327776353644e-06 0 1.1194729161168432e-06 -5.7394292808455231e-07 0 1.7683344798479921e-06 -5.7286133035483593e-07 0 1.0811278074503324e-06 -9.9602546115703525e-07 0 -2.0552605254457748e-05 -1.8783577417610429e-05 0 -2.2568663560911365e-05 -2.4479734119301675e-05 0 -1.6262390936493936e-05 -2.0330535374031701e-05 0 1.1110650291662291e-06 -1.603523430559996e-06 0 7.8541003501136762e-07 -1.5349403683949048e-06 0 1.6346199548685984e-06 -1.1961880691670799e-06 0 4.053124516911957e-06 4.5647054708917514e-07 0 4.4381135412024407e-06 2.466647753603677e-07 0 3.4017684316723351e-06 -1.0721563475916582e-07 0 5.8682875949900501e-06 1.199250591552666e-06 0 5.644237280716455e-06 3.2634715249172555e-07 0 6.8099452344664155e-06 1.4373168637896614e-06 0 -3.9261156864155301e-05 4.9762616017529537e-05 0 -3.5772352147111468e-05 3.7929568555530146e-05 0 -2.6607709637853191e-05 4.1660051867970189e-05 0 8.8674227750005825e-07 6.6143121773557663e-07 0 9.1550777357638272e-07 3.8108021798217548e-07 0 3.8512910513147449e-07 2.7088507912934479e-07 0 3.5171188482117705e-06 -4.6923835261482071e-07 0 5.1194261390466433e-06 4.3883369944107212e-07 0 3.9121993853745048e-06 -3.0990834434906649e-07 0 4.9409704683694697e-06 -1.0232918363048361e-05 0 3.4857043530406753e-06 -1.0010059467813588e-05 0 4.2254112504411426e-06 -1.2327487934389201e-05 0 -1.2037398371466611e-05 -3.3573835983169827e-05 0 -1.7265760962398584e-05 -3.0479329338424564e-05 0 -1.8697848920046032e-05 -3.785015028198755e-05 0 1.1110650291662291e-06 -1.603523430559996e-06 0 1.6346199548685984e-06 -1.1961880691670799e-06 0 2.2563125824586074e-06 -1.0817763218356181e-06 0 1.8039043584121452e-06 5.0914438373330563e-07 0 1.2398067312408294e-06 2.0618611220527452e-07 0 9.1550777357638272e-07 3.8108021798217548e-07 0 2.5904666798657557e-06 -8.244814782010699e-07 0 3.9121993853745048e-06 -3.0990834434906649e-07 0 3.5730033878505871e-06 -6.4377024216756012e-08 0 2.4839823955657689e-06 -8.8121683573957223e-06 0 3.4857043530406753e-06 -1.0010059467813588e-05 0 4.0554132249154519e-06 -7.7704766995365376e-06 0 3.8163487686838284e-06 -1.7949443708288516e-05 0 4.7585256716551452e-06 -1.9341070579735551e-05 0 4.5905512674861758e-06 -1.6821162187345084e-05 0 -3.7558560211719578e-06 -1.0442716229517854e-06 0 -2.2614621008795429e-06 -1.5885875275124057e-06 0 -2.1391317486178016e-06 -7.2188196284938794e-07 0 3.8052323276724964e-05 0.00010475450549230914 0 2.0587683866006404e-05 0.00010794881265053049 0 2.6259471570960118e-05 9.6353058144023996e-05 0 -2.7956943144859352e-05 -5.3101566184609408e-05 0 -1.9017792422443423e-05 -5.3700587724811775e-05 0 -2.2163838394838198e-05 -4.8001983844957905e-05 0 3.151733570140725e-06 2.202958327010275e-07 0 3.4017684316723351e-06 -1.0721563475916582e-07 0 2.5854065105372111e-06 -1.7240244497627589e-07 0 4.053124516911957e-06 4.5647054708917514e-07 0 3.4017684316723351e-06 -1.0721563475916582e-07 0 3.151733570140725e-06 2.202958327010275e-07 0 -2.5557448055023052e-05 9.0018325672821303e-05 0 -2.8731193025342224e-05 0.00010698226905140011 0 -3.6129077056658918e-05 9.5725393820480766e-05 0 3.2552778771484807e-06 -4.4077051943282864e-05 0 5.1864893487978289e-06 -5.3013713526364677e-05 0 8.4315116590997302e-06 -4.6747788250581667e-05 0 3.3474482391368285e-06 6.5579763416784585e-07 0 3.7356114152864122e-06 9.9938501651098933e-07 0 4.4208327643537311e-06 8.7390714722502849e-07 0 4.5755999103480939e-06 1.1112484582996562e-06 0 4.4208327643537311e-06 8.7390714722502849e-07 0 3.7356114152864122e-06 9.9938501651098933e-07 0 3.3474482391368285e-06 6.5579763416784585e-07 0 3.151733570140725e-06 2.202958327010275e-07 0 2.4208947510801129e-06 2.8698426947029294e-07 0 -2.9584332866313806e-06 1.0036748223764271e-06 0 -2.5926001771083741e-06 1.0635976159834527e-06 0 -1.8371738815583251e-06 1.2902972048292808e-06 0 -1.1827334471950831e-07 -1.8998248384990745e-07 0 -7.378240889344355e-07 -1.6392357794880426e-06 0 1.053897006222687e-06 -1.1832823094869718e-06 0 6.7740762602976293e-07 -2.748842763178508e-06 0 1.053897006222687e-06 -1.183282309486972e-06 0 -7.378240889344355e-07 -1.6392357794880426e-06 0 -2.9584332866313806e-06 1.0036748223764271e-06 0 -1.8371738815583251e-06 1.2902972048292808e-06 0 -2.0827985001720017e-06 1.1391580197463285e-06 0 3.4804954872630662e-06 2.3227940969221117e-05 0 1.1842590812834832e-05 2.4340972813681235e-05 0 1.1147309428793982e-05 3.4795061256122524e-05 0 -4.8247353716900356e-06 9.9213133571580053e-05 0 -3.6840996717059416e-06 0.00011617204635332302 0 -1.4507277129377088e-05 0.00010826761522425137 0 -6.6626155706579505e-06 -4.9052479274864557e-05 0 -6.947009953190555e-06 -5.7871865807271664e-05 0 -1.7553416009328381e-06 -5.3786651206407744e-05 0 2.7426957334036892e-06 9.5246504420033666e-07 0 1.9874405651742994e-06 1.2502701279962267e-06 0 1.9325863271602167e-06 1.0559474477307505e-06 0 5.7140912789055207e-10 1.3159594300176105e-10 0 3.8512910513147449e-07 2.7088507912934479e-07 0 9.1550777357638272e-07 3.8108021798217548e-07 0 5.3137618507476922e-06 6.5719917136869258e-07 0 7.319803228211954e-06 2.1431853143554163e-06 0 5.2270543404649113e-06 1.4882909247060277e-06 0 1.3070296385579689e-05 -1.502354275013596e-05 0 1.1481012794759265e-05 -1.2044515681630442e-05 0 1.0338918576924028e-05 -1.4797940588182867e-05 0 8.698358038261823e-06 -1.1741569487079411e-05 0 6.8430579247621577e-06 -1.0519543533775261e-05 0 7.5408664104454089e-06 -1.2963942355602388e-05 0 2.1466854802576111e-06 9.0984322597206819e-07 0 2.3299381349188198e-06 1.1335301958685192e-06 0 2.874459436295545e-06 9.2423891401592348e-07 0 -1.2125434367463222e-05 -1.5403099725652423e-05 0 -1.6262390936493936e-05 -2.0330535374031701e-05 0 -1.0532791717431064e-05 -1.9865835697825527e-05 0 -1.431297681458674e-05 -2.4214626588030792e-05 0 -1.0532791717431064e-05 -1.9865835697825527e-05 0 -1.6262390936493936e-05 -2.0330535374031701e-05 0 6.1965189571527826e-10 -4.349543376035446e-11 0 5.7140912789058443e-10 1.3159594300176689e-10 0 5.938788507143864e-07 1.0686082793848657e-07 0 -2.1440349630442001e-05 4.9882127189857782e-05 0 -2.6607709637853191e-05 4.1660051867970189e-05 0 -1.6341072886890311e-05 4.060691815013359e-05 0 -1.8656378547964231e-05 3.1291921871841331e-05 0 -1.6341072886890311e-05 4.060691815013359e-05 0 -2.6607709637853191e-05 4.1660051867970189e-05 0 5.2324577947126328e-06 -2.095502327154614e-05 0 4.7585256716551452e-06 -1.9341070579735551e-05 0 3.7853779246744544e-06 -1.9648622861657842e-05 0 1.8792450835439651e-05 -2.4231574879756485e-05 0 1.9754002656550501e-05 -2.0962468996970939e-05 0 1.6089711005949539e-05 -2.0825030382949586e-05 0 2.4536108985234596e-06 5.1754557949152229e-07 0 3.5730033878505871e-06 -6.4377024216756012e-08 0 5.2270543404649113e-06 1.4882909247060277e-06 0 5.8688383556044884e-06 -1.9259282428854002e-05 0 6.8295386342290764e-06 -1.8675887742960306e-05 0 5.9400964216741905e-06 -1.7155169309859926e-05 0 9.776252377377417e-06 3.9211999716642261e-06 0 1.1083720109889823e-05 5.2957946182393028e-06 0 1.0157444180194146e-05 4.6499392746413438e-06 0 1.1110650291662291e-06 -1.603523430559996e-06 0 2.2563125824586074e-06 -1.0817763218356181e-06 0 2.5642933964890662e-06 -1.0427439243553999e-06 0 -2.4098335423709624e-06 3.6227179242945454e-06 0 3.0969637440303872e-06 2.6809624770072819e-06 0 1.4134719153097803e-06 5.5411756491180625e-06 0 2.4477481285896603e-05 3.6137299852817851e-05 0 1.8607096885328814e-05 4.4076179654005163e-05 0 1.1147309428793982e-05 3.4795061256122524e-05 0 2.7426957334036892e-06 9.5246504420033666e-07 0 2.7621107631986224e-06 1.1342513296375905e-06 0 1.9874405651742994e-06 1.2502701279962267e-06 0 -4.8247353716900356e-06 9.9213133571580053e-05 0 6.8921255421163266e-06 0.00010559696113639254 0 -3.6840996717059433e-06 0.00011617204635332301 0 -6.6626155706579505e-06 -4.9052479274864557e-05 0 -1.2321752457819483e-05 -5.2362096477708287e-05 0 -6.947009953190555e-06 -5.7871865807271664e-05 0 1.6179282130795459e-06 1.2241598646495243e-06 0 1.4286963371381938e-06 1.3272636356766763e-06 0 1.9874405651742994e-06 1.2502701279962267e-06 0 3.1134031565105738e-06 -2.3499716972005834e-06 0 2.7729765148522753e-06 -3.6992264200914141e-06 0 3.5923753150114214e-06 -2.2233618567356192e-06 0 1.4999517547000715e-05 9.150547862007757e-05 0 2.6259471570960118e-05 9.6353058144023996e-05 0 2.0587683866006404e-05 0.00010794881265053049 0 -1.6533847574487699e-05 -4.520203257879397e-05 0 -2.2163838394838195e-05 -4.8001983844957905e-05 0 -1.9017792422443423e-05 -5.3700587724811775e-05 0 -7.1905189681724366e-06 -8.9220813118520891e-07 0 -9.1182416088358313e-06 -2.138901127178164e-06 0 -6.8343348452730953e-06 -9.0699245919652469e-07 0 -1.4376108447077118e-05 3.5345793114867949e-06 0 -1.097845212926252e-05 1.2195518118680673e-06 0 -1.0134056954516503e-05 1.3490662407229647e-06 0 3.8287874210139528e-06 8.9556276365607487e-06 0 3.5080152198015684e-06 1.4965304255980167e-05 0 -1.7252399356833198e-06 1.5780190601400072e-05 0 -1.3824604895455689e-06 1.292517723491322e-06 0 -2.1780390566146956e-06 9.3905456010228807e-07 0 -1.3293274020042153e-06 9.4722377347036201e-07 0 9.2677654880037284e-06 -2.2061379135907315e-05 0 7.7037918357931921e-06 -2.1477320642595548e-05 0 6.1784804884134247e-06 -2.1510542640908118e-05 0 9.2677654880037284e-06 -2.2061379135907315e-05 0 6.1784804884134247e-06 -2.1510542640908118e-05 0 6.0873190755593145e-06 -2.2441541477756392e-05 0 3.2729430882153685e-05 -3.1671026688487848e-05 0 2.8030632858812929e-05 -2.5261179991684146e-05 0 2.3396949588645611e-05 -2.8033876435172901e-05 0 3.2729430882153685e-05 -3.1671026688487848e-05 0 2.3396949588645611e-05 -2.8033876435172901e-05 0 2.4667430489560922e-05 -3.314966897240528e-05 0 5.2324577947126328e-06 -2.095502327154614e-05 0 5.9417009130372564e-06 -2.0948090979063804e-05 0 4.7585256716551452e-06 -1.9341070579735551e-05 0 1.8792450835439651e-05 -2.4231574879756485e-05 0 1.6089711005949539e-05 -2.0825030382949586e-05 0 1.4892015423955052e-05 -2.3476944317062182e-05 0 1.8474467353955411e-05 -1.2349706013575254e-05 0 1.7232947397829492e-05 -1.4687315269147553e-05 0 1.9896000638311771e-05 -1.4795164212087099e-05 0 5.5565378772744725e-07 -1.4682640050762075e-05 0 1.147238961802396e-06 -1.7248634683058779e-05 0 2.6954935925433724e-06 -1.5491081544718919e-05 0 1.5579740835275393e-05 -1.3224266269338784e-06 0 1.2970435912037054e-05 -3.8159745669161998e-06 0 1.5967146503086353e-05 -5.1791037478558178e-06 0 1.1512508735205701e-05 0.00012339510803185182 0 2.5224215166946148e-05 0.00013682943543699005 0 9.972079665103582e-06 0.00014004183912820348 0 -2.0076026306944598e-05 0.00012343665356356881 0 -1.7587712984188727e-05 0.00013923855686956947 0 -3.1792304748303019e-05 0.00013593959224974798 0 -1.4196362860832584e-05 -6.1451202796045532e-05 0 -2.0048950880772974e-05 -6.8047494053174816e-05 0 -1.2929681072157904e-05 -6.9762665647532551e-05 0 1.4354264631678972e-06 -6.1887999803066277e-05 0 8.1451878771772433e-07 -7.0391995304080524e-05 0 8.4225030900985974e-06 -6.8840215139490395e-05 0 2.9826445494759819e-06 1.0862447283626793e-06 0 2.874459436295545e-06 9.2423891401592348e-07 0 2.3299381349188198e-06 1.1335301958685192e-06 0 1.1512508735205701e-05 0.00012339510803185182 0 2.6671342157949755e-05 0.00012223963905856332 0 2.5224215166946151e-05 0.00013682943543699005 0 -1.4196362860832584e-05 -6.1451202796045532e-05 0 -2.1505882837545722e-05 -6.1009361781801787e-05 0 -2.0048950880772974e-05 -6.8047494053174816e-05 0 5.5563669539433115e-06 -1.0749809267330172e-06 0 6.4897263627528518e-06 1.1252310944072201e-07 0 5.644237280716455e-06 3.2634715249172555e-07 0 -2.0076026306944598e-05 0.00012343665356356881 0 -3.1792304748303019e-05 0.00013593959224974798 0 -3.4528133727745822e-05 0.00012187544118843245 0 1.4354264631678972e-06 -6.1887999803066277e-05 0 8.4225030900985974e-06 -6.8840215139490395e-05 0 8.7836522523521102e-06 -6.0971252448572669e-05 0 1.536962781107328e-06 -2.3573170833772604e-05 0 5.0373087725961021e-06 -2.0138524986756005e-05 0 1.435152838267615e-06 -1.6771372203242628e-05 0 3.0978620174990407e-06 -6.4701832336573543e-06 0 4.0554132249154519e-06 -7.7704766995365376e-06 0 3.8744627222642887e-06 -4.9881824760329482e-06 0 4.9354601867921289e-06 -6.3990251828645125e-06 0 3.8744627222642887e-06 -4.9881824760329482e-06 0 4.0554132249154519e-06 -7.7704766995365376e-06 0 2.5904666798657557e-06 -8.244814782010699e-07 0 9.5753971551038977e-07 -1.5179354634868787e-06 0 2.5642933964890662e-06 -1.0427439243553999e-06 0 -7.1588811874246793e-06 3.8951295218447311e-05 0 1.8851854237857566e-06 3.6233584624902929e-05 0 -8.6075461177886508e-07 4.8143091186907427e-05 0 -2.2568663560911365e-05 -2.4479734119301675e-05 0 -1.8787873264849174e-05 -2.5771082769022343e-05 0 -1.6262390936493936e-05 -2.0330535374031701e-05 0 7.0535476037374738e-06 3.4965611744590106e-06 0 3.0969637440303872e-06 2.6809624770072815e-06 0 5.2270543404649113e-06 1.4882909247060277e-06 0 2.4536108985234596e-06 5.1754557949152229e-07 0 5.2270543404649113e-06 1.4882909247060277e-06 0 3.0969637440303872e-06 2.6809624770072815e-06 0 4.9791011214212172e-06 7.2861647755149283e-07 0 5.3564328625267368e-06 1.1619713953866794e-06 0 6.2106981747189193e-06 1.3430970453079705e-06 0 8.238851084018993e-06 -1.5096204851163733e-05 0 9.1363466691539396e-06 -1.7055506353075732e-05 0 1.0338918576924028e-05 -1.4797940588182867e-05 0 1.1331947250826567e-05 -1.7992961220919564e-05 0 1.0338918576924028e-05 -1.4797940588182867e-05 0 9.1363466691539396e-06 -1.7055506353075732e-05 0 -2.7351791456885028e-05 1.8852017757828552e-05 0 -2.2835739766096197e-05 1.1998933830182617e-05 0 -1.8620372987847074e-05 1.350253172699145e-05 0 -1.3592466686736146e-05 -6.4264805872149518e-06 0 -1.5970859735655549e-05 -9.7118522306655077e-06 0 -1.1624163787011124e-05 -7.0324924863138453e-06 0 3.5517682004821802e-10 -2.6865711625767968e-10 0 4.8641374010257638e-10 -2.1355527853953198e-10 0 5.0075408946325009e-07 -4.8648216008183016e-07 0 2.7733788059831815e-10 2.8782922826263059e-10 0 1.5914524334711395e-10 2.8612255044911655e-10 0 2.3837336024147699e-07 6.3716524477114095e-07 0 5.3137618507476922e-06 6.5719917136869258e-07 0 5.1194261390466433e-06 4.3883369944107228e-07 0 6.2939632848111082e-06 1.2367079506164852e-06 0 6.231579027750827e-06 1.5522427756217639e-06 0 6.2106981747189193e-06 1.3430970453079705e-06 0 5.3564328625267368e-06 1.1619713953866794e-06 0 4.9791011214212172e-06 7.2861647755149283e-07 0 5.1194261390466433e-06 4.3883369944107196e-07 0 4.4381135412024407e-06 2.466647753603677e-07 0 -1.3218336616064261e-06 -1.918753337213566e-06 0 -2.5299607325072692e-06 -1.8278048953949541e-06 0 -2.0161823884810397e-06 -1.635675647131902e-06 0 -1.3224846042178502e-06 1.2969395170074377e-06 0 -1.6200897933351187e-06 1.0195383128238077e-06 0 -2.0827985001720017e-06 1.1391580197463285e-06 0 1.0452540267393829e-05 4.7728071895326553e-05 0 1.1147309428793982e-05 3.4795061256122524e-05 0 1.8607096885328814e-05 4.4076179654005163e-05 0 -1.3218336616064261e-06 -1.918753337213566e-06 0 -2.0161823884810397e-06 -1.635675647131902e-06 0 -1.1965471244260056e-06 -1.6156756588501996e-06 0 -1.3224846042178502e-06 1.2969395170074377e-06 0 -1.0823145418080736e-06 1.0711516727235144e-06 0 -1.6200897933351187e-06 1.0195383128238077e-06 0 4.5323753228482409e-06 -1.4810808059652435e-05 0 4.5905512674861758e-06 -1.6821162187345084e-05 0 5.9400964216741905e-06 -1.7155169309859926e-05 0 3.4804954872630662e-06 2.3227940969221117e-05 0 8.204389644369363e-06 1.3701620271186311e-05 0 1.1842590812834832e-05 2.4340972813681235e-05 0 3.5171188482117705e-06 -4.6923835261482071e-07 0 4.4381135412024407e-06 2.466647753603677e-07 0 5.1194261390466433e-06 4.3883369944107212e-07 0 1.3070296385579689e-05 -1.502354275013596e-05 0 1.4521074406871134e-05 -1.3764232375138358e-05 0 1.1481012794759265e-05 -1.2044515681630442e-05 0 -1.1173597672252956e-10 -3.6528370052339677e-10 0 1.488229922083416e-10 -3.9499599740994008e-10 0 6.6391735094066948e-08 -8.208602697138668e-07 0 -2.073742193091126e-11 3.2387941595962872e-10 0 -2.032506922316507e-10 2.6674740762067393e-10 0 -8.7706233394459276e-08 6.7247651137297226e-07 0 -4.0139072291806693e-06 3.4373783372020581e-07 0 -5.5444524828534037e-06 -9.2125855639159128e-08 0 -4.1554357911989824e-06 5.6840338687643455e-07 0 -8.1375605513656552e-06 -1.3032430133021979e-07 0 -5.7124847714399937e-06 -7.6550833839549534e-07 0 -5.9809099574826066e-06 -1.0951888133840724e-06 0 -2.535065221352021e-06 -5.784325239274235e-06 0 -4.97278707551314e-06 -4.4383717815197705e-06 0 -5.4951377358434537e-06 -6.9821343870639636e-06 0 7.8761448795571229e-06 -1.7009438140333929e-05 0 4.4466344643815142e-06 -1.4694589211117917e-05 0 5.0373087725961029e-06 -2.0138524986756002e-05 0 4.4358666666074947e-06 -6.9498616701795035e-07 0 3.6601334177948874e-06 -1.2314065372219945e-06 0 3.5923753150114214e-06 -2.2233618567356192e-06 0 4.476885700061695e-06 1.0488303528886441e-06 0 5.5596553515862703e-06 1.3501789871785911e-06 0 4.5755999103480939e-06 1.1112484582996562e-06 0 5.047403132851856e-06 9.8417858608878501e-07 0 5.5596553515862703e-06 1.3501789871785911e-06 0 4.476885700061695e-06 1.0488303528886441e-06 0 7.4639590750702689e-06 2.1160193233928277e-06 0 7.319803228211954e-06 2.1431853143554163e-06 0 6.2939632848111082e-06 1.2367079506164852e-06 0 5.3137618507476922e-06 6.5719917136869258e-07 0 6.2939632848111082e-06 1.2367079506164852e-06 0 7.319803228211954e-06 2.1431853143554163e-06 0 1.3111503442022463e-05 -2.0532723015827821e-05 0 1.127237708499188e-05 -2.2691859842286507e-05 0 1.4892015423955052e-05 -2.3476944317062182e-05 0 5.0058704449492149e-07 -9.1927980849718303e-06 0 2.4839823955657685e-06 -8.8121683573957206e-06 0 1.9494081702138895e-06 -7.2292333766774029e-06 0 3.1134031565105738e-06 -2.3499716972005834e-06 0 2.8893148174284745e-06 -3.6872728241702752e-06 0 2.7729765148522753e-06 -3.6992264200914141e-06 0 3.21958800528467e-06 -5.5479903695430262e-06 0 2.7729765148522753e-06 -3.6992264200914141e-06 0 2.8893148174284745e-06 -3.6872728241702752e-06 0 -2.6824956741606761e-06 4.7406753759487047e-07 0 -4.0139072291806693e-06 3.4373783372020571e-07 0 -3.2620271910446813e-06 7.2543042931576999e-07 0 -5.7124847714399937e-06 -7.6550833839549534e-07 0 -3.7172344166517606e-06 -9.2771711712853955e-07 0 -4.5554847698521253e-06 -1.3046868196883618e-06 0 1.0332502277867631e-05 -2.7224100475655565e-05 0 1.34764248857453e-05 -2.9559143369313389e-05 0 1.0652694415425702e-05 -2.5292306817960525e-05 0 3.0969637440303872e-06 2.6809624770072815e-06 0 5.1870686422145977e-06 4.9942015292549742e-06 0 1.4134719153097803e-06 5.5411756491180625e-06 0 3.3474482391368285e-06 6.5579763416784585e-07 0 4.053124516911957e-06 4.5647054708917508e-07 0 3.151733570140725e-06 2.202958327010275e-07 0 -5.8588302796482646e-07 -1.1866149604782215e-06 0 -6.7783473283679961e-07 -1.6782737923506531e-06 0 -1.1965471244260056e-06 -1.6156756588501996e-06 0 -5.6516421278365677e-07 8.1471485683126279e-07 0 -1.0823145418080736e-06 1.0711516727235144e-06 0 -7.871583355219217e-07 1.1880880778570603e-06 0 1.6179282130795459e-06 1.2241598646495243e-06 0 9.0245445942273489e-07 1.328611884565192e-06 0 1.4286963371381936e-06 1.3272636356766763e-06 0 4.4358666666074947e-06 -6.9498616701795035e-07 0 4.9934565278717376e-06 -8.0938468051785492e-07 0 5.644237280716455e-06 3.2634715249172555e-07 0 1.6678567473522009e-05 -1.8627135269924388e-05 0 1.3768787440195598e-05 -1.744904883297591e-05 0 1.6089711005949539e-05 -2.0825030382949586e-05 0 1.0268875098189627e-06 1.3953546028605883e-06 0 1.4286963371381933e-06 1.3272636356766763e-06 0 9.0245445942273489e-07 1.328611884565192e-06 0 -4.4578012935835467e-05 7.6849783127249229e-05 0 -3.0085678369031488e-05 6.9093823102230224e-05 0 -3.3953239309761432e-05 8.2445854116253378e-05 0 1.199280126637719e-05 -3.6215377832967324e-05 0 5.1776828432638712e-06 -3.3146501824774895e-05 0 7.1155001835479069e-06 -3.9842641766281511e-05 0 1.0752938696393873e-05 -2.9269324506141756e-05 0 5.4836499427384446e-06 -2.679917919950301e-05 0 5.1776828432638712e-06 -3.3146501824774895e-05 0 6.2252718294168551e-06 -4.3883012266656154e-06 0 6.1338663518797075e-06 -2.3452300924091998e-06 0 4.831766375677953e-06 -3.185188335625099e-06 0 5.0058704449492149e-07 -9.1927980849718303e-06 0 1.8033416324707324e-06 -1.0766180499147817e-05 0 2.4839823955657689e-06 -8.8121683573957223e-06 0 2.7426957334036892e-06 9.5246504420033666e-07 0 2.8189482383572108e-06 2.6262855690006628e-07 0 3.4089728216800462e-06 6.3473936586239358e-07 0 5.5563669539433115e-06 -1.0749809267330172e-06 0 5.644237280716455e-06 3.2634715249172555e-07 0 4.9934565278717376e-06 -8.0938468051785482e-07 0 4.3949788297712089e-05 0.00013684028253752446 0 3.4274826135542412e-05 0.00014592844270420232 0 2.5224215166946151e-05 0.00013682943543699005 0 -2.8617404403306141e-05 -6.9034811565974732e-05 0 -2.3524625363161124e-05 -7.2411077812725293e-05 0 -2.0048950880772974e-05 -6.8047494053174816e-05 0 1.781635515854219e-05 -6.8862592258914755e-05 0 8.4225030900985974e-06 -6.8840215139490382e-05 0 1.3190667415245124e-05 -7.3660671377094459e-05 0 -4.8702648312837994e-05 0.00013785537695503442 0 -3.1792304748303019e-05 0.00013593959224974798 0 -3.8645206220845447e-05 0.00014449959841298491 0 4.251749327488706e-06 6.5530771762010926e-07 0 3.6115805914313984e-06 9.6468665659887975e-07 0 3.4089728216800462e-06 6.3473936586239358e-07 0 2.7426957334036892e-06 9.5246504420033666e-07 0 3.4089728216800462e-06 6.3473936586239358e-07 0 3.6115805914313984e-06 9.6468665659887975e-07 0 2.1427733320051723e-06 -6.8955660504633499e-07 0 2.8189482383572108e-06 2.6262855690006644e-07 0 2.0748735123673576e-06 1.7021411343760015e-07 0 -8.8798627038253889e-06 2.3053781756968982e-06 0 -1.0134056954516503e-05 1.3490662407229647e-06 0 -5.8693414459600028e-06 -4.8538529853023827e-08 0 -7.6494284722618796e-06 -3.5934502690506054e-07 0 -5.8693414459600028e-06 -4.8538529853024019e-08 0 -1.0134056954516503e-05 1.3490662407229647e-06 0 2.4536108985234596e-06 5.1754557949152229e-07 0 4.7457196165602368e-08 -2.9214883756193806e-07 0 1.6289699125525201e-06 -7.6012993007051981e-07 0 -1.1827334471950831e-07 -1.8998248384990745e-07 0 6.7741697805030331e-07 6.8208397723507229e-07 0 -3.9881378943452487e-07 8.0912947109587797e-07 0 3.1134031565105738e-06 -2.3499716972005834e-06 0 2.3579172835147873e-06 -2.2479754230848115e-06 0 2.8893148174284745e-06 -3.6872728241702752e-06 0 -1.3224846042178502e-06 1.2969395170074377e-06 0 -5.5633628084153176e-07 1.4084413704994842e-06 0 -7.871583355219217e-07 1.1880880778570603e-06 0 -3.6370801753509234e-07 1.0665452573707483e-06 0 -7.871583355219217e-07 1.1880880778570603e-06 0 -5.5633628084153186e-07 1.4084413704994842e-06 0 -1.3308032410723737e-07 -1.3812055821434992e-06 0 -2.304166442879205e-08 -1.8012903725753116e-06 0 -6.7783473283679972e-07 -1.6782737923506531e-06 0 -1.3218336616064261e-06 -1.918753337213566e-06 0 -6.7783473283679961e-07 -1.6782737923506531e-06 0 -2.304166442879205e-08 -1.8012903725753116e-06 0 -1.431297681458674e-05 -2.4214626588030792e-05 0 -1.7265760962398588e-05 -3.0479329338424564e-05 0 -1.186731915473524e-05 -2.7831838032688778e-05 0 -1.2037398371466611e-05 -3.3573835983169827e-05 0 -1.186731915473524e-05 -2.7831838032688778e-05 0 -1.7265760962398588e-05 -3.0479329338424564e-05 0 3.1938575320583017e-07 -7.6106058591840984e-07 0 5.0075408946325009e-07 -4.8648216008183016e-07 0 1.0811278074503324e-06 -9.9602546115703525e-07 0 1.1194729161168432e-06 -5.7394292808455231e-07 0 1.0811278074503324e-06 -9.9602546115703525e-07 0 5.0075408946325009e-07 -4.8648216008183016e-07 0 6.067256981695312e-07 9.8406131435822854e-07 0 2.3837336024147699e-07 6.3716524477114095e-07 0 3.7888243608677801e-07 1.1273745146068626e-06 0 8.0726860068266767e-08 7.3548855586682417e-07 0 3.7888243608677801e-07 1.1273745146068626e-06 0 2.3837336024147699e-07 6.3716524477114095e-07 0 -4.8247353716900356e-06 9.9213133571580053e-05 0 4.0093694385807999e-06 9.1056427722031516e-05 0 6.8921255421163266e-06 0.00010559696113639254 0 -6.6626155706579505e-06 -4.9052479274864557e-05 0 -1.1089068260371288e-05 -4.4928229361645346e-05 0 -1.2321752457819483e-05 -5.2362096477708287e-05 0 -2.2897327256454754e-07 1.4797326178168306e-06 0 -9.0259722416997575e-08 1.4265325677287445e-06 0 -5.5633628084153186e-07 1.4084413704994842e-06 0 1.1110650291662291e-06 -1.603523430559996e-06 0 -2.304166442879205e-08 -1.8012903725753116e-06 0 7.8541003501136762e-07 -1.5349403683949048e-06 0 -1.1827334471950831e-07 -1.8998248384990745e-07 0 1.053897006222687e-06 -1.1832823094869718e-06 0 1.2926446802267789e-06 -4.3664233840098306e-08 0 -1.3224846042178502e-06 1.2969395170074377e-06 0 -1.0060269502751895e-06 1.4326438160261775e-06 0 -5.5633628084153186e-07 1.4084413704994842e-06 0 -1.3218336616064261e-06 -1.918753337213566e-06 0 -2.304166442879205e-08 -1.8012903725753116e-06 0 -5.2181910309177694e-07 -1.9482923133410981e-06 0 3.21958800528467e-06 -5.5479903695430262e-06 0 2.3267454656197475e-06 -4.4161606146405185e-06 0 2.7729765148522753e-06 -3.6992264200914141e-06 0 2.7426957334036892e-06 9.5246504420033666e-07 0 2.2915286412222106e-06 6.7768546214952088e-07 0 2.8189482383572108e-06 2.6262855690006628e-07 0 -3.1923616258468209e-10 -5.3536738577538382e-10 0 -1.1173597672252956e-10 -3.6528370052339677e-10 0 -1.4218478775797984e-07 -7.6465818066209419e-07 0 -2.032506922316507e-10 2.6674740762067393e-10 0 -3.141830091611135e-10 3.5794482696951016e-10 0 -2.0224133000580133e-07 5.6258316205102339e-07 0 7.0535476037374738e-06 3.4965611744590106e-06 0 5.2270543404649113e-06 1.4882909247060277e-06 0 7.319803228211954e-06 2.1431853143554163e-06 0 9.1615705933373182e-06 -2.2579773694455774e-05 0 8.8786458102685543e-06 -2.4567469749485269e-05 0 1.0652694415425702e-05 -2.5292306817960525e-05 0 -1.1827334471950831e-07 -1.8998248384990745e-07 0 -1.3992082819431671e-06 2.2980407642217596e-07 0 -1.9570533058570455e-06 -8.2347052197024843e-07 0 1.435152838267615e-06 -1.6771372203242628e-05 0 5.0373087725961029e-06 -2.0138524986756002e-05 0 4.4466344643815142e-06 -1.4694589211117917e-05 0 4.251749327488706e-06 6.5530771762010926e-07 0 4.476885700061695e-06 1.0488303528886441e-06 0 3.6115805914313984e-06 9.6468665659887975e-07 0 3.4021593645077973e-06 -5.1837344698702495e-07 0 3.6160490621074483e-06 1.8574071684955229e-07 0 2.8189482383572108e-06 2.6262855690006628e-07 0 -1.2999242915779485e-06 -1.2247156962432737e-06 0 -2.1037798570253654e-06 -1.105234523827019e-06 0 -9.6197234734928528e-07 -6.318499270716865e-07 0 -1.0449843565325997e-06 7.6423005321737787e-07 0 -7.3565534665581549e-07 3.6301249826784572e-07 0 -1.5798624726352954e-06 6.339816026019904e-07 0 6.7740762602976293e-07 -2.748842763178508e-06 0 2.0175064192493782e-06 -4.0737580246965313e-06 0 2.3579172835147873e-06 -2.2479754230848115e-06 0 4.5755999103480939e-06 1.1112484582996562e-06 0 3.6369733836338095e-06 1.0784819933198872e-06 0 4.476885700061695e-06 1.0488303528886441e-06 0 1.6011384703127752e-06 6.7473857732303946e-07 0 6.7741697805030331e-07 6.8208397723507229e-07 0 1.2926446802267789e-06 -4.3664233840098306e-08 0 -6.128888558555032e-06 -1.2818212044767629e-06 0 -5.8529563664113599e-06 -2.6386763805811748e-06 0 -3.9796772247381923e-06 -1.1991763907713997e-06 0 -4.2281516360250026e-05 6.2868083941736003e-05 0 -3.0875932633500699e-05 5.6842042366002778e-05 0 -3.0085678369031488e-05 6.9093823102230224e-05 0 6.7740762602976293e-07 -2.748842763178508e-06 0 -7.378240889344355e-07 -1.6392357794880426e-06 0 -1.6371702625643811e-06 -3.3088202565283035e-06 0 4.831766375677953e-06 -3.185188335625099e-06 0 3.8744627222642878e-06 -4.9881824760329482e-06 0 5.1540257331923749e-06 -4.8312357934773235e-06 0 -1.1827334471950831e-07 -1.8998248384990745e-07 0 -1.9570533058570455e-06 -8.2347052197024843e-07 0 -7.378240889344355e-07 -1.6392357794880426e-06 0 3.6115805914313984e-06 9.6468665659887975e-07 0 4.476885700061695e-06 1.0488303528886441e-06 0 3.6369733836338095e-06 1.0784819933198872e-06 0 3.0978620174990407e-06 -6.4701832336573543e-06 0 1.9494081702138891e-06 -7.229233376677402e-06 0 2.4839823955657689e-06 -8.8121683573957223e-06 0 7.0535476037374738e-06 3.4965611744590106e-06 0 1.0157444180194146e-05 4.6499392746413438e-06 0 8.8591352568045437e-06 6.4196882916392131e-06 0 -1.1827334471950831e-07 -1.8998248384990745e-07 0 -3.9881378943452503e-07 8.0912947109587786e-07 0 -1.3992082819431671e-06 2.2980407642217596e-07 0 -4.6413023418724084e-05 9.1535909734541236e-05 0 -4.4578012935835467e-05 7.6849783127249229e-05 0 -3.3953239309761432e-05 8.2445854116253378e-05 0 1.199280126637719e-05 -3.6215377832967324e-05 0 7.1155001835479069e-06 -3.9842641766281511e-05 0 1.3237905489437324e-05 -4.3739004426597776e-05 0 9.4003054911442541e-06 -2.2879328373560445e-05 0 5.4836499427384446e-06 -2.679917919950301e-05 0 1.0752938696393873e-05 -2.9269324506141756e-05 0 -2.4098335423709624e-06 3.6227179242945454e-06 0 -8.1457027348586082e-06 4.6830726943290337e-06 0 -5.5407956044673014e-06 1.9303705499689574e-06 0 1.5579740835275393e-05 -1.3224266269338784e-06 0 1.1408766293209005e-05 1.7140267271044829e-06 0 1.2970435912037054e-05 -3.8159745669161998e-06 0 -6.128888558555032e-06 -1.2818212044767629e-06 0 -6.8343348452730953e-06 -9.0699245919652469e-07 0 -8.3241499823180574e-06 -2.0452947750369149e-06 0 -8.8798627038253889e-06 2.3053781756968982e-06 0 -1.2778283161434235e-05 3.3974923110214141e-06 0 -1.0134056954516503e-05 1.3490662407229647e-06 0 -6.128888558555032e-06 -1.2818212044767629e-06 0 -8.3241499823180574e-06 -2.0452947750369149e-06 0 -8.5025652894249457e-06 -3.0640389889588224e-06 0 -8.8798627038253889e-06 2.3053781756968982e-06 0 -1.2923415363019126e-05 5.3972579452877559e-06 0 -1.2778283161434235e-05 3.3974923110214141e-06 0 -1.0449843565325997e-06 7.6423005321737787e-07 0 -4.7876824286755652e-07 4.9018687289663107e-07 0 -7.3565534665581549e-07 3.6301249826784572e-07 0 -1.2999242915779485e-06 -1.2247156962432737e-06 0 -9.6197234734928528e-07 -6.318499270716865e-07 0 -5.8584785232745564e-07 -7.6898172232695593e-07 0 3.4021593645077973e-06 -5.1837344698702495e-07 0 2.8532050780109281e-06 -1.3460831529176081e-06 0 3.6601334177948874e-06 -1.2314065372219945e-06 0 3.1134031565105738e-06 -2.3499716972005834e-06 0 3.6601334177948874e-06 -1.2314065372219945e-06 0 2.8532050780109281e-06 -1.3460831529176081e-06 0 1.147238961802396e-06 -1.7248634683058779e-05 0 2.5683892196079801e-06 -1.7785528825881275e-05 0 2.6954935925433724e-06 -1.5491081544718919e-05 0 1.9896000638311771e-05 -1.4795164212087099e-05 0 1.7232947397829492e-05 -1.4687315269147553e-05 0 1.8763520833416024e-05 -1.7344490753737129e-05 0 1.5967146503086353e-05 -5.1791037478558178e-06 0 1.2970435912037054e-05 -3.8159745669161998e-06 0 1.4294483985779204e-05 -7.0782897073213208e-06 0 1.8474467353955411e-05 -1.2349706013575254e-05 0 1.6319131988403491e-05 -1.206507310416375e-05 0 1.7232947397829492e-05 -1.4687315269147553e-05 0 5.5565378772744725e-07 -1.4682640050762075e-05 0 2.6954935925433724e-06 -1.5491081544718919e-05 0 1.9336729740820434e-06 -1.3026034561867411e-05 0 -1.1827334471950831e-07 -1.8998248384990745e-07 0 1.2926446802267789e-06 -4.3664233840098207e-08 0 6.7741697805030331e-07 6.8208397723507229e-07 0 2.1427733320051723e-06 -6.8955660504633499e-07 0 2.3579172835147873e-06 -2.2479754230848115e-06 0 2.8532050780109281e-06 -1.3460831529176081e-06 0 3.1134031565105738e-06 -2.3499716972005834e-06 0 2.8532050780109281e-06 -1.3460831529176081e-06 0 2.3579172835147873e-06 -2.2479754230848115e-06 0 4.251749327488706e-06 6.5530771762010926e-07 0 4.0853192488281611e-06 -1.5792971209724592e-07 0 4.9735739624010306e-06 4.3354111615144375e-07 0 -4.2281516360250026e-05 6.2868083941736003e-05 0 -3.9261156864155301e-05 4.9762616017529537e-05 0 -3.0875932633500699e-05 5.6842042366002778e-05 0 5.5563669539433115e-06 -1.0749809267330172e-06 0 4.9934565278717376e-06 -8.093846805178546e-07 0 4.3572937507689028e-06 -1.925632001434e-06 0 3.8287874210139528e-06 8.9556276365607487e-06 0 5.1870686422145986e-06 4.9942015292549742e-06 0 8.8591352568045437e-06 6.4196882916392131e-06 0 7.0535476037374738e-06 3.4965611744590106e-06 0 8.8591352568045437e-06 6.4196882916392131e-06 0 5.1870686422145977e-06 4.9942015292549742e-06 0 7.8761448795571229e-06 -1.7009438140333929e-05 0 5.0373087725961029e-06 -2.0138524986756002e-05 0 9.4003054911442541e-06 -2.2879328373560445e-05 0 -1.8397429536848524e-05 6.9062938108880434e-06 0 -1.2778283161434235e-05 3.3974923110214141e-06 0 -1.2923415363019126e-05 5.3972579452877559e-06 0 -1.1280997121656714e-05 -3.9036128641626179e-06 0 -8.502565289424944e-06 -3.0640389889588224e-06 0 -8.3241499823180574e-06 -2.0452947750369149e-06 0 4.4358666666074947e-06 -6.9498616701795035e-07 0 4.3572937507689028e-06 -1.925632001434e-06 0 4.9934565278717376e-06 -8.0938468051785482e-07 0 -1.608614685606217e-05 6.8695097517161886e-05 0 -3.0085678369031488e-05 6.9093823102230224e-05 0 -2.2070892220689041e-05 5.908038971796366e-05 0 -1.608614685606217e-05 6.8695097517161886e-05 0 -2.4116936764141515e-05 7.8198960950567247e-05 0 -3.0085678369031488e-05 6.9093823102230224e-05 0 -9.6179528299688354e-07 -3.3298327248284805e-05 0 2.5364652908404018e-06 -3.7890825288226245e-05 0 5.1776828432638712e-06 -3.3146501824774895e-05 0 -9.6179528299688354e-07 -3.3298327248284805e-05 0 5.1776828432638704e-06 -3.3146501824774888e-05 0 1.8041842559145946e-06 -2.8884722072059531e-05 0 1.3237905489437324e-05 -4.3739004426597776e-05 0 8.4315116590997302e-06 -4.6747788250581667e-05 0 1.4485467079572705e-05 -5.1839402228331422e-05 0 -4.7655203090677309e-05 0.0001067495754330883 0 -4.6413023418724084e-05 9.1535909734541236e-05 0 -3.6129077056658918e-05 9.5725393820480766e-05 0 2.0140317904573489e-07 1.3453397565240613e-06 0 -4.5252387729528905e-08 1.1925741858149745e-06 0 -9.0259722416997642e-08 1.4265325677287447e-06 0 9.6493171232006804e-07 -1.3129969570031864e-06 0 7.8541003501136762e-07 -1.5349403683949048e-06 0 4.0094330065075132e-07 -1.3104874829927094e-06 0 -9.6179528299688354e-07 -3.3298327248284805e-05 0 -5.2189423548982999e-06 -3.3552054559793586e-05 0 -1.7924728844314914e-06 -3.935881366924215e-05 0 -9.6179528299688354e-07 -3.3298327248284805e-05 0 -2.1553338808250609e-06 -2.7932187568538385e-05 0 -5.2189423548982999e-06 -3.3552054559793586e-05 0 -7.4696470754184997e-06 -4.0285232947120176e-05 0 -1.7924728844314914e-06 -3.935881366924215e-05 0 -5.2189423548982999e-06 -3.3552054559793586e-05 0 -7.0000446430854717e-06 -2.765841848686339e-05 0 -5.2189423548982999e-06 -3.3552054559793586e-05 0 -2.1553338808250609e-06 -2.7932187568538385e-05 0 -1.608614685606217e-05 6.8695097517161886e-05 0 -6.4878799404391559e-06 6.9737905279511483e-05 0 -1.5114245346601852e-05 8.148676387195786e-05 0 -3.4789206000718441e-06 8.1494059018859328e-05 0 -1.5114245346601852e-05 8.148676387195786e-05 0 -6.4878799404391559e-06 6.9737905279511483e-05 0 -2.032506922316507e-10 2.6674740762067393e-10 0 -2.0224133000580133e-07 5.6258316205102339e-07 0 -8.7706233394459276e-08 6.7247651137297226e-07 0 -1.1173597672252956e-10 -3.6528370052339677e-10 0 6.6391735094066948e-08 -8.208602697138668e-07 0 -1.4218478775797984e-07 -7.6465818066209419e-07 0 -1.2279033446251028e-05 -1.0729888193843388e-05 0 -8.5757238704411579e-06 -7.0247278535093039e-06 0 -1.1624163787011124e-05 -7.0324924863138453e-06 0 -1.9376786718927785e-05 2.0740632276707687e-05 0 -1.8620372987847074e-05 1.350253172699145e-05 0 -1.3316971212098492e-05 1.3048248915436471e-05 0 -3.5171542348001274e-06 5.5285646793161584e-07 0 -5.1387488100215623e-06 -2.4547429371734574e-07 0 -4.1126698528686966e-06 -2.5641248343201323e-07 0 2.9826445494759819e-06 1.0862447283626793e-06 0 2.762110763198622e-06 1.1342513296375907e-06 0 3.6369733836338095e-06 1.0784819933198872e-06 0 1.3205726091467775e-05 -2.4977417705882942e-05 0 1.4892015423955052e-05 -2.3476944317062182e-05 0 1.127237708499188e-05 -2.2691859842286507e-05 0 -3.8969668391692056e-06 -1.6610528160270665e-06 0 -4.6331474365346627e-06 -1.3880052593285599e-06 0 -5.9809099574826066e-06 -1.0951888133840724e-06 0 -7.6494284722618796e-06 -3.5934502690506054e-07 0 -5.9809099574826066e-06 -1.0951888133840724e-06 0 -4.6331474365346627e-06 -1.3880052593285599e-06 0 2.5854065105372111e-06 -1.7240244497627589e-07 0 1.7683344798479921e-06 -5.7286133035483593e-07 0 1.5303281303608803e-06 -2.9639489980472673e-07 0 1.652032937431742e-05 -7.8153000813304412e-06 0 1.4793388914819785e-05 -9.7888256900147367e-06 0 1.7410495917401427e-05 -1.0053071592185154e-05 0 -1.1280997121656714e-05 -3.9036128641626179e-06 0 -1.0689278564103061e-05 -4.9367331217744921e-06 0 -8.5025652894249457e-06 -3.0640389889588224e-06 0 -1.8397429536848524e-05 6.9062938108880434e-06 0 -1.2923415363019126e-05 5.3972579452877559e-06 0 -1.7076561260647635e-05 8.940507455351361e-06 0 1.7752982419008098e-06 -5.0226965849878205e-06 0 2.4754930381303569e-06 -5.0534682501982978e-06 0 2.3267454656197475e-06 -4.4161606146405185e-06 0 -1.3218336616064261e-06 -1.918753337213566e-06 0 -5.2181910309177694e-07 -1.9482923133410981e-06 0 -2.2218280776679517e-06 -1.9431163564330919e-06 0 -5.9898515017284324e-07 -1.7311336203000365e-06 0 -2.2218280776679517e-06 -1.9431163564330919e-06 0 -5.2181910309177694e-07 -1.9482923133410981e-06 0 3.4804954872630662e-06 2.3227940969221117e-05 0 3.5080152198015693e-06 1.4965304255980167e-05 0 8.204389644369363e-06 1.3701620271186311e-05 0 -5.7124847714399937e-06 -7.6550833839549534e-07 0 -4.5554847698521253e-06 -1.3046868196883618e-06 0 -5.9809099574826066e-06 -1.0951888133840724e-06 0 -4.0139072291806693e-06 3.4373783372020581e-07 0 -4.1554357911989824e-06 5.6840338687643455e-07 0 -3.2620271910446813e-06 7.2543042931576999e-07 0 8.238851084018993e-06 -1.5096204851163733e-05 0 7.5408664104454089e-06 -1.2963942355602388e-05 0 6.447067262096835e-06 -1.5096204184132249e-05 0 5.870510564039053e-06 -1.2702887362080592e-05 0 6.447067262096835e-06 -1.5096204184132249e-05 0 7.5408664104454089e-06 -1.2963942355602388e-05 0 4.251749327488706e-06 6.5530771762010926e-07 0 5.047403132851856e-06 9.8417858608878501e-07 0 4.476885700061695e-06 1.0488303528886441e-06 0 2.4536108985234596e-06 5.1754557949152229e-07 0 1.6289699125525197e-06 -7.6012993007052002e-07 0 3.5730033878505871e-06 -6.4377024216756012e-08 0 4.9791011214212172e-06 7.2861647755149283e-07 0 4.4208327643537311e-06 8.7390714722502849e-07 0 5.3564328625267368e-06 1.1619713953866794e-06 0 3.8287874210139528e-06 8.9556276365607487e-06 0 8.204389644369363e-06 1.3701620271186311e-05 0 3.5080152198015697e-06 1.4965304255980167e-05 0 -6.128888558555032e-06 -1.2818212044767629e-06 0 -3.9796772247381923e-06 -1.1991763907713997e-06 0 -4.1126698528686966e-06 -2.5641248343201323e-07 0 1.6011384703127752e-06 6.7473857732303946e-07 0 1.9325863271602167e-06 1.0559474477307505e-06 0 1.0642755782254476e-06 1.2008963424322596e-06 0 2.4477481285896603e-05 3.6137299852817851e-05 0 2.7691205206523143e-05 4.8341131348106393e-05 0 1.8607096885328814e-05 4.4076179654005163e-05 0 -2.4378713666524856e-05 -3.0859861162507647e-05 0 -1.7265760962398588e-05 -3.0479329338424564e-05 0 -1.8787873264849174e-05 -2.5771082769022343e-05 0 -1.8397429536848524e-05 6.9062938108880434e-06 0 -1.4376108447077118e-05 3.5345793114867949e-06 0 -1.2778283161434235e-05 3.3974923110214141e-06 0 -9.1182416088358313e-06 -2.138901127178164e-06 0 -1.1280997121656714e-05 -3.9036128641626179e-06 0 -8.3241499823180574e-06 -2.0452947750369149e-06 0 5.644237280716455e-06 3.2634715249172555e-07 0 6.4897263627528518e-06 1.1252310944072201e-07 0 6.8099452344664155e-06 1.4373168637896614e-06 0 -1.3218336616064261e-06 -1.918753337213566e-06 0 -2.2218280776679517e-06 -1.9431163564330919e-06 0 -2.5299607325072692e-06 -1.8278048953949541e-06 0 -3.8969668391692056e-06 -1.6610528160270665e-06 0 -2.5299607325072692e-06 -1.8278048953949541e-06 0 -2.2218280776679517e-06 -1.9431163564330919e-06 0 7.4639590750702689e-06 2.1160193233928277e-06 0 8.7246669223472934e-06 3.2030142968357418e-06 0 7.319803228211954e-06 2.1431853143554163e-06 0 -1.8697848920046032e-05 -3.785015028198755e-05 0 -1.7265760962398588e-05 -3.0479329338424564e-05 0 -2.1557230382754022e-05 -3.4289524401335069e-05 0 2.9197680523380891e-06 -1.1915436282813284e-05 0 4.2254112504411426e-06 -1.2327487934389201e-05 0 3.4857043530406753e-06 -1.0010059467813588e-05 0 3.5583977671860558e-05 8.9522537254823598e-05 0 3.8052323276724964e-05 0.00010475450549230914 0 2.6259471570960118e-05 9.6353058144023996e-05 0 -2.7146726075291966e-05 -4.5334327244757656e-05 0 -2.7956943144859352e-05 -5.3101566184609408e-05 0 -2.2163838394838198e-05 -4.8001983844957905e-05 0 -2.4098335423709624e-06 3.6227179242945454e-06 0 4.0880174623833658e-07 1.3831810603995091e-06 0 3.0969637440303872e-06 2.6809624770072815e-06 0 6.7740762602976293e-07 -2.748842763178508e-06 0 -1.5015564571217394e-07 -4.7888258988362252e-06 0 2.0175064192493786e-06 -4.0737580246965313e-06 0 -3.1342394627455497e-06 -2.2425540868893579e-06 0 -1.6371702625643811e-06 -3.3088202565283035e-06 0 -7.378240889344355e-07 -1.6392357794880426e-06 0 -4.6413023418724084e-05 9.1535909734541236e-05 0 -3.3953239309761432e-05 8.2445854116253378e-05 0 -3.6129077056658918e-05 9.5725393820480766e-05 0 1.3237905489437324e-05 -4.3739004426597776e-05 0 7.1155001835479069e-06 -3.9842641766281511e-05 0 8.4315116590997302e-06 -4.6747788250581667e-05 0 2.5081913601680419e-07 1.1255578957253581e-06 0 3.5938799410543111e-07 1.402418077300675e-06 0 -5.3117009796624663e-07 1.3370515620867554e-06 0 7.0535476037374738e-06 3.4965611744590106e-06 0 5.1870686422145977e-06 4.9942015292549742e-06 0 3.0969637440303872e-06 2.6809624770072815e-06 0 -6.128888558555032e-06 -1.2818212044767629e-06 0 -5.1387488100215623e-06 -2.4547429371734574e-07 0 -6.8343348452730953e-06 -9.0699245919652469e-07 0 1.0145109829221663e-06 -6.8155897781564762e-06 0 5.0058704449492149e-07 -9.1927980849718303e-06 0 1.9494081702138895e-06 -7.2292333766774029e-06 0 -1.3824604895455689e-06 1.292517723491322e-06 0 -1.8371738815583253e-06 1.2902972048292808e-06 0 -2.5926001771083741e-06 1.0635976159834527e-06 0 -2.2568663560911365e-05 -2.4479734119301675e-05 0 -2.4378713666524852e-05 -3.0859861162507647e-05 0 -1.8787873264849174e-05 -2.5771082769022343e-05 0 -5.0782386740195362e-06 1.5722128772256028e-07 0 -3.6826605753977351e-06 7.4599702928750559e-07 0 -4.1554357911989824e-06 5.6840338687643455e-07 0 -2.9584332866313806e-06 1.0036748223764271e-06 0 -4.1554357911989824e-06 5.6840338687643455e-07 0 -3.6826605753977351e-06 7.4599702928750559e-07 0 -2.1440349630442001e-05 4.9882127189857782e-05 0 -1.2319757966981972e-05 5.1860876890287123e-05 0 -2.2070892220689041e-05 5.908038971796366e-05 0 3.1938575320583017e-07 -7.6106058591840984e-07 0 4.0094330065075132e-07 -1.3104874829927094e-06 0 6.6391735094066948e-08 -8.208602697138668e-07 0 -1.3308032410723737e-07 -1.3812055821434992e-06 0 6.6391735094066948e-08 -8.208602697138668e-07 0 4.0094330065075132e-07 -1.3104874829927094e-06 0 -3.6370801753509234e-07 1.0665452573707483e-06 0 -4.5252387729528899e-08 1.1925741858149745e-06 0 -8.7706233394459276e-08 6.7247651137297226e-07 0 8.0726860068266767e-08 7.3548855586682417e-07 0 -8.7706233394459276e-08 6.7247651137297226e-07 0 -4.5252387729528899e-08 1.1925741858149745e-06 0 2.1427733320051723e-06 -6.8955660504633499e-07 0 1.2926446802267791e-06 -4.366423384009828e-08 0 1.053897006222687e-06 -1.1832823094869718e-06 0 7.3093444590962323e-06 -1.6398427433387582e-06 0 6.1338663518797075e-06 -2.3452300924091998e-06 0 7.4861100953841871e-06 -4.0149853417689718e-06 0 6.2252718294168551e-06 -4.3883012266656154e-06 0 7.4861100953841871e-06 -4.0149853417689718e-06 0 6.1338663518797075e-06 -2.3452300924091998e-06 0 5.0058704449492149e-07 -9.1927980849718303e-06 0 3.4084090563343382e-07 -1.1943561231297874e-05 0 1.8033416324707324e-06 -1.0766180499147817e-05 0 6.2252718294168551e-06 -4.3883012266656154e-06 0 4.831766375677953e-06 -3.185188335625099e-06 0 5.1540257331923749e-06 -4.8312357934773235e-06 0 1.7232947397829492e-05 -1.4687315269147553e-05 0 1.6319131988403491e-05 -1.206507310416375e-05 0 1.4521074406871134e-05 -1.3764232375138358e-05 0 2.6954935925433724e-06 -1.5491081544718919e-05 0 3.2680180214121382e-06 -1.3594666272623125e-05 0 1.9336729740820434e-06 -1.3026034561867411e-05 0 -1.1280997121656714e-05 -3.9036128641626179e-06 0 -1.3592466686736146e-05 -6.4264805872149518e-06 0 -1.0689278564103061e-05 -4.9367331217744921e-06 0 -2.2835739766096197e-05 1.1998933830182617e-05 0 -1.8397429536848524e-05 6.9062938108880434e-06 0 -1.7076561260647635e-05 8.940507455351361e-06 0 1.2970435912037054e-05 -3.8159745669161998e-06 0 1.1400456806633597e-05 -5.4821744499407484e-06 0 1.4294483985779204e-05 -7.0782897073213208e-06 0 1.7232947397829492e-05 -1.4687315269147553e-05 0 1.5571284935698602e-05 -1.6384965535648153e-05 0 1.8763520833416024e-05 -1.7344490753737129e-05 0 -3.1342394627455497e-06 -2.2425540868893579e-06 0 -3.9796772247381923e-06 -1.1991763907713997e-06 0 -5.8529563664113599e-06 -2.6386763805811748e-06 0 8.8674227750005825e-07 6.6143121773557663e-07 0 3.8512910513147449e-07 2.7088507912934479e-07 0 3.6391698705945178e-07 3.6456375674872148e-07 0 2.5904666798657557e-06 -8.244814782010699e-07 0 1.6289699125525201e-06 -7.6012993007051981e-07 0 9.5753971551038977e-07 -1.5179354634868787e-06 0 3.5171188482117705e-06 -4.6923835261482071e-07 0 2.5642933964890662e-06 -1.0427439243553999e-06 0 2.2563125824586074e-06 -1.0817763218356181e-06 0 9.7679792910617418e-06 1.8641398608371496e-06 0 8.5769379519490252e-06 1.6740382614245827e-07 0 1.0086476910668957e-05 -1.5380015385783291e-06 0 -2.2900454748612907e-06 8.8545863015063199e-07 0 -1.6200897933351187e-06 1.0195383128238077e-06 0 -1.5798624726352954e-06 6.339816026019904e-07 0 -1.0449843565325997e-06 7.6423005321737787e-07 0 -1.5798624726352954e-06 6.339816026019904e-07 0 -1.6200897933351187e-06 1.0195383128238077e-06 0 -1.2999242915779485e-06 -1.2247156962432737e-06 0 -2.0161823884810397e-06 -1.635675647131902e-06 0 -2.1037798570253654e-06 -1.105234523827019e-06 0 -3.0482909179821178e-06 -1.5054802513102454e-06 0 -2.1037798570253654e-06 -1.105234523827019e-06 0 -2.0161823884810397e-06 -1.635675647131902e-06 0 -1.8215058056189783e-05 -1.3831214056166149e-05 0 -2.0552605254457748e-05 -1.8783577417610429e-05 0 -1.5847753440503288e-05 -1.5602498894347584e-05 0 3.4804954872630662e-06 2.3227940969221117e-05 0 -1.7252399356833211e-06 1.5780190601400072e-05 0 3.5080152198015697e-06 1.4965304255980167e-05 0 9.4003054911442541e-06 -2.2879328373560445e-05 0 5.0373087725961029e-06 -2.0138524986756002e-05 0 5.4836499427384446e-06 -2.679917919950301e-05 0 1.3111503442022463e-05 -2.0532723015827821e-05 0 9.9634833496330953e-06 -2.0144615508363382e-05 0 1.127237708499188e-05 -2.2691859842286507e-05 0 -2.2897327256454754e-07 1.4797326178168306e-06 0 -5.3117009796624663e-07 1.3370515620867554e-06 0 3.5938799410543116e-07 1.402418077300675e-06 0 4.4358666666074947e-06 -6.9498616701795035e-07 0 4.9735739624010306e-06 4.3354111615144375e-07 0 4.0853192488281611e-06 -1.5792971209724592e-07 0 -3.5171542348001274e-06 5.5285646793161584e-07 0 -2.5926001771083741e-06 1.0635976159834527e-06 0 -3.6826605753977351e-06 7.4599702928750559e-07 0 1.0452540267393829e-05 4.7728071895326553e-05 0 2.0681489642491785e-05 5.2312055838433713e-05 0 1.668720556074404e-05 5.9597424687606031e-05 0 4.4819303860793199e-10 1.9158096905853433e-10 0 4.2096860039684213e-07 5.9832933490089954e-07 0 3.6391698705945178e-07 3.6456375674872148e-07 0 5.870510564039053e-06 -1.2702887362080592e-05 0 7.5408664104454089e-06 -1.2963942355602388e-05 0 6.8430579247621577e-06 -1.0519543533775261e-05 0 1.2970435912037054e-05 -3.8159745669161998e-06 0 1.1408766293209005e-05 1.7140267271044829e-06 0 1.0086476910668957e-05 -1.5380015385783291e-06 0 -3.5772352147111468e-05 3.7929568555530146e-05 0 -3.1530447447158472e-05 2.7502939505055962e-05 0 -2.6301655749161556e-05 3.1380726015931816e-05 0 9.1550777357638272e-07 3.8108021798217548e-07 0 1.2398067312408296e-06 2.0618611220527452e-07 0 5.938788507143864e-07 1.0686082793848657e-07 0 -3.6370801753509234e-07 1.0665452573707483e-06 0 -8.7706233394459276e-08 6.7247651137297226e-07 0 -2.0224133000580133e-07 5.6258316205102339e-07 0 -1.3308032410723737e-07 -1.3812055821434992e-06 0 -1.4218478775797984e-07 -7.6465818066209419e-07 0 6.6391735094066948e-08 -8.208602697138668e-07 0 4.5755999103480939e-06 1.1112484582996562e-06 0 3.7356114152864122e-06 9.9938501651098933e-07 0 3.6369733836338095e-06 1.0784819933198872e-06 0 -8.389991432702422e-06 -4.703954476937916e-06 0 -8.5025652894249457e-06 -3.0640389889588224e-06 0 -1.0689278564103061e-05 -4.9367331217744921e-06 0 -1.2360860896545538e-05 8.6035279638440833e-06 0 -1.7076561260647635e-05 8.940507455351361e-06 0 -1.2923415363019126e-05 5.3972579452877559e-06 0 1.4999517547000715e-05 9.150547862007757e-05 0 1.9061571450209305e-05 7.8472044351901184e-05 0 2.5830070221283115e-05 8.6361610492246947e-05 0 -1.6533847574487699e-05 -4.520203257879397e-05 0 -1.8697848920046032e-05 -3.785015028198755e-05 0 -2.21659614806342e-05 -4.2678326082988668e-05 0 1.652032937431742e-05 -7.8153000813304412e-06 0 1.4294483985779206e-05 -7.0782897073213199e-06 0 1.4793388914819785e-05 -9.7888256900147367e-06 0 2.4536108985234596e-06 5.1754557949152229e-07 0 3.0969637440303864e-06 2.6809624770072815e-06 0 4.0880174623833658e-07 1.3831810603995091e-06 0 1.2588773060907136e-05 -8.0350032097975317e-06 0 1.4793388914819785e-05 -9.7888256900147367e-06 0 1.4294483985779204e-05 -7.0782897073213208e-06 0 2.9826445494759819e-06 1.0862447283626793e-06 0 2.3299381349188198e-06 1.1335301958685192e-06 0 2.762110763198622e-06 1.1342513296375907e-06 0 1.1322454755899185e-06 -2.526796912745157e-08 0 6.4984035710644978e-07 -2.5601823722451836e-07 0 4.5301701918691323e-07 -5.0870532304134117e-08 0 2.5081913601680419e-07 1.1255578957253581e-06 0 1.0642755782254476e-06 1.2008963424322596e-06 0 3.5938799410543116e-07 1.402418077300675e-06 0 7.772849415099294e-06 1.6821893061238923e-06 0 8.5769379519490252e-06 1.6740382614245827e-07 0 9.1938306260805849e-06 3.1016858217841255e-06 0 9.7679792910617418e-06 1.8641398608371496e-06 0 9.1938306260805849e-06 3.1016858217841255e-06 0 8.5769379519490252e-06 1.6740382614245827e-07 0 -1.2037398371466611e-05 -3.3573835983169827e-05 0 -1.8697848920046032e-05 -3.785015028198755e-05 0 -1.3222348412546755e-05 -4.0074010718614658e-05 0 -1.6533847574487699e-05 -4.520203257879397e-05 0 -1.3222348412546755e-05 -4.0074010718614658e-05 0 -1.8697848920046032e-05 -3.785015028198755e-05 0 7.7025228330391123e-06 6.8736505161245043e-05 0 1.9061571450209305e-05 7.8472044351901184e-05 0 8.4072764966109744e-06 8.2233170122191735e-05 0 1.4999517547000715e-05 9.150547862007757e-05 0 8.4072764966109744e-06 8.2233170122191735e-05 0 1.9061571450209305e-05 7.8472044351901184e-05 0 7.7025228330391123e-06 6.8736505161245043e-05 0 5.8360593175371286e-06 5.6309518840990664e-05 0 1.668720556074404e-05 5.9597424687606031e-05 0 1.0452540267393829e-05 4.7728071895326553e-05 0 1.668720556074404e-05 5.9597424687606031e-05 0 5.8360593175371286e-06 5.6309518840990664e-05 0 5.7140912789055207e-10 1.3159594300176105e-10 0 5.3103893058987888e-10 1.608999995527572e-10 0 3.8512910513147449e-07 2.7088507912934479e-07 0 1.7410495917401427e-05 -1.0053071592185154e-05 0 1.4793388914819785e-05 -9.7888256900147384e-06 0 1.6319131988403491e-05 -1.206507310416375e-05 0 1.4109060024746431e-05 -1.1874599328969889e-05 0 1.6319131988403491e-05 -1.206507310416375e-05 0 1.4793388914819785e-05 -9.7888256900147367e-06 0 -1.431297681458674e-05 -2.4214626588030792e-05 0 -1.6262390936493936e-05 -2.0330535374031701e-05 0 -1.8787873264849174e-05 -2.5771082769022343e-05 0 -2.0552605254457748e-05 -1.8783577417610429e-05 0 -1.6262390936493936e-05 -2.0330535374031701e-05 0 -1.5847753440503288e-05 -1.5602498894347584e-05 0 -3.5772352147111468e-05 3.7929568555530146e-05 0 -2.6301655749161556e-05 3.1380726015931816e-05 0 -2.6607709637853191e-05 4.1660051867970189e-05 0 6.231579027750827e-06 1.5522427756217639e-06 0 7.0649190118099621e-06 1.9931868956593786e-06 0 6.2106981747189193e-06 1.3430970453079705e-06 0 7.4639590750702689e-06 2.1160193233928277e-06 0 6.2106981747189193e-06 1.3430970453079705e-06 0 7.0649190118099621e-06 1.9931868956593786e-06 0 2.1466854802576111e-06 9.0984322597206819e-07 0 2.874459436295545e-06 9.2423891401592348e-07 0 2.5730100386707188e-06 6.7062723830204422e-07 0 8.8674227750005825e-07 6.6143121773557663e-07 0 3.6391698705945173e-07 3.6456375674872148e-07 0 4.2096860039684213e-07 5.9832933490089954e-07 0 -3.8969668391692056e-06 -1.6610528160270665e-06 0 -5.9809099574826066e-06 -1.0951888133840724e-06 0 -4.5554847698521253e-06 -1.3046868196883618e-06 0 -2.9584332866313806e-06 1.0036748223764271e-06 0 -3.2620271910446813e-06 7.2543042931576999e-07 0 -4.1554357911989824e-06 5.6840338687643455e-07 0 -2.9584332866313806e-06 1.0036748223764271e-06 0 -3.6826605753977351e-06 7.4599702928750559e-07 0 -2.5926001771083741e-06 1.0635976159834527e-06 0 3.3109830368349856e-05 7.5126491909070469e-05 0 2.5830070221283115e-05 8.6361610492246947e-05 0 1.9061571450209305e-05 7.8472044351901184e-05 0 -2.5945873005966623e-05 -3.7833176619819751e-05 0 -2.21659614806342e-05 -4.2678326082988668e-05 0 -1.8697848920046032e-05 -3.785015028198755e-05 0 6.3196989786632371e-10 4.9063238028169424e-12 0 4.5301701918691328e-07 -5.0870532304134144e-08 0 6.4984035710644978e-07 -2.5601823722451836e-07 0 3.5171188482117705e-06 -4.6923835261482071e-07 0 3.9121993853745057e-06 -3.0990834434906633e-07 0 2.5642933964890662e-06 -1.0427439243553999e-06 0 -6.3063203206890394e-06 -2.0028731405480166e-05 0 -8.8882646221143857e-06 -1.5989264445393486e-05 0 -1.0532791717431064e-05 -1.9865835697825527e-05 0 -3.0224806867200135e-07 -1.2617920326673872e-06 0 1.6289699125525206e-06 -7.6012993007051992e-07 0 4.7457196165602368e-08 -2.9214883756193806e-07 0 6.7740762602976293e-07 -2.748842763178508e-06 0 -1.6371702625643811e-06 -3.3088202565283035e-06 0 -1.5015564571217394e-07 -4.7888258988362252e-06 0 5.1194261390466433e-06 4.3883369944107212e-07 0 6.2106981747189193e-06 1.3430970453079705e-06 0 6.2939632848111082e-06 1.2367079506164852e-06 0 -7.1588811874246793e-06 3.8951295218447311e-05 0 -1.6341072886890311e-05 4.060691815013359e-05 0 -1.2129949653267824e-05 3.2145606579736558e-05 0 -8.389991432702422e-06 -4.703954476937916e-06 0 -1.1624163787011124e-05 -7.0324924863138453e-06 0 -8.5757238704411579e-06 -7.0247278535093039e-06 0 -1.2360860896545538e-05 8.6035279638440833e-06 0 -1.3316971212098492e-05 1.3048248915436471e-05 0 -1.8620372987847074e-05 1.350253172699145e-05 0 9.1615705933373182e-06 -2.2579773694455774e-05 0 1.0652694415425702e-05 -2.5292306817960525e-05 0 1.127237708499188e-05 -2.2691859842286507e-05 0 1.3205726091467775e-05 -2.4977417705882942e-05 0 1.127237708499188e-05 -2.2691859842286507e-05 0 1.0652694415425702e-05 -2.5292306817960525e-05 0 -3.5171542348001274e-06 5.5285646793161584e-07 0 -2.1780390566146956e-06 9.3905456010228807e-07 0 -2.5926001771083741e-06 1.0635976159834527e-06 0 -1.3824604895455689e-06 1.292517723491322e-06 0 -2.5926001771083741e-06 1.0635976159834527e-06 0 -2.1780390566146956e-06 9.3905456010228807e-07 0 1.6011384703127752e-06 6.7473857732303946e-07 0 1.2926446802267789e-06 -4.3664233840098306e-08 0 2.0748735123673576e-06 1.7021411343760015e-07 0 -5.0782386740195362e-06 1.5722128772256028e-07 0 -6.8343348452730953e-06 -9.0699245919652469e-07 0 -5.1387488100215623e-06 -2.4547429371734574e-07 0 -3.7558560211719578e-06 -1.0442716229517854e-06 0 -4.6331474365346627e-06 -1.3880052593285599e-06 0 -2.2614621008795429e-06 -1.5885875275124057e-06 0 8.1617265622275848e-06 -2.4910557772405988e-05 0 1.0332502277867631e-05 -2.7224100475655565e-05 0 8.8786458102685543e-06 -2.4567469749485269e-05 0 -7.1588811874246793e-06 3.8951295218447311e-05 0 -1.2319757966981972e-05 5.1860876890287123e-05 0 -1.6341072886890311e-05 4.060691815013359e-05 0 5.3103893058987888e-10 1.608999995527572e-10 0 4.4819303860793199e-10 1.9158096905853433e-10 0 3.6391698705945178e-07 3.6456375674872148e-07 0 3.0508614415663505e-05 6.1317690525840686e-05 0 1.668720556074404e-05 5.9597424687606031e-05 0 2.0681489642491785e-05 5.2312055838433713e-05 0 9.776252377377417e-06 3.9211999716642261e-06 0 1.0157444180194146e-05 4.6499392746413438e-06 0 8.7246669223472934e-06 3.2030142968357418e-06 0 -1.2360860896545538e-05 8.6035279638440833e-06 0 -7.6957350221393124e-06 8.1579610519280024e-06 0 -1.3316971212098492e-05 1.3048248915436471e-05 0 9.776252377377417e-06 3.9211999716642261e-06 0 8.2816433802858227e-06 2.8120171771406751e-06 0 8.6095646971210764e-06 2.9014324465003907e-06 0 9.776252377377417e-06 3.9211999716642261e-06 0 8.7246669223472934e-06 3.2030142968357414e-06 0 8.2816433802858227e-06 2.8120171771406751e-06 0 -1.3293274020042153e-06 9.4722377347036201e-07 0 -2.5267710740671888e-06 4.4743149316504272e-07 0 -1.3992082819431671e-06 2.2980407642217596e-07 0 1.0268875098189627e-06 1.3953546028605883e-06 0 3.5938799410543116e-07 1.402418077300675e-06 0 1.0642755782254476e-06 1.2008963424322596e-06 0 -1.8656378547964231e-05 3.1291921871841331e-05 0 -2.6607709637853191e-05 4.1660051867970189e-05 0 -2.6301655749161556e-05 3.1380726015931816e-05 0 3.1134031565105738e-06 -2.3499716972005834e-06 0 3.5923753150114214e-06 -2.2233618567356192e-06 0 3.6601334177948874e-06 -1.2314065372219945e-06 0 7.772849415099294e-06 1.6821893061238923e-06 0 9.1938306260805849e-06 3.1016858217841255e-06 0 8.6095646971210764e-06 2.9014324465003907e-06 0 4.9409704683694697e-06 -1.0232918363048361e-05 0 5.61902349241317e-06 -8.3058369876142494e-06 0 4.0554132249154519e-06 -7.7704766995365376e-06 0 -8.389991432702422e-06 -4.703954476937916e-06 0 -1.0689278564103061e-05 -4.9367331217744921e-06 0 -1.1624163787011124e-05 -7.0324924863138453e-06 0 -1.2360860896545538e-05 8.6035279638440833e-06 0 -1.8620372987847074e-05 1.350253172699145e-05 0 -1.7076561260647635e-05 8.940507455351361e-06 0 -2.5557448055023052e-05 9.0018325672821303e-05 0 -3.6129077056658918e-05 9.5725393820480766e-05 0 -3.3953239309761432e-05 8.2445854116253378e-05 0 3.2552778771484807e-06 -4.4077051943282864e-05 0 8.4315116590997302e-06 -4.6747788250581667e-05 0 7.1155001835479069e-06 -3.9842641766281511e-05 0 2.9197680523380891e-06 -1.1915436282813284e-05 0 3.4857043530406753e-06 -1.0010059467813588e-05 0 1.8033416324707324e-06 -1.0766180499147817e-05 0 7.4639590750702689e-06 2.1160193233928277e-06 0 6.2939632848111082e-06 1.2367079506164852e-06 0 6.2106981747189193e-06 1.3430970453079705e-06 0 -5.9898515017284324e-07 -1.7311336203000365e-06 0 -2.2614621008795429e-06 -1.5885875275124057e-06 0 -2.2218280776679517e-06 -1.9431163564330919e-06 0 -6.128888558555032e-06 -1.2818212044767629e-06 0 -4.1126698528686966e-06 -2.5641248343201323e-07 0 -5.1387488100215623e-06 -2.4547429371734574e-07 0 -8.8798627038253889e-06 2.3053781756968982e-06 0 -5.5407956044673014e-06 1.930370549968957e-06 0 -8.1457027348586082e-06 4.6830726943290337e-06 0 2.3579172835147873e-06 -2.2479754230848115e-06 0 2.0175064192493786e-06 -4.0737580246965313e-06 0 2.8893148174284745e-06 -3.6872728241702752e-06 0 -2.7388544138379594e-06 -2.687404791188266e-07 0 -4.1126698528686966e-06 -2.5641248343201313e-07 0 -3.9796772247381923e-06 -1.1991763907713997e-06 0 7.772849415099294e-06 1.6821893061238923e-06 0 6.8099452344664155e-06 1.4373168637896614e-06 0 6.4897263627528518e-06 1.1252310944072201e-07 0 6.3196989786632371e-10 4.9063238028169424e-12 0 6.1965189571519524e-10 -4.3495433760345135e-11 0 4.5301701918691323e-07 -5.0870532304134117e-08 0 4.5323753228482409e-06 -1.4810808059652435e-05 0 3.2680180214121382e-06 -1.3594666272623125e-05 0 2.6954935925433724e-06 -1.5491081544718919e-05 0 -9.1182416088358313e-06 -2.138901127178164e-06 0 -8.3241499823180574e-06 -2.0452947750369149e-06 0 -6.8343348452730953e-06 -9.0699245919652469e-07 0 -1.4376108447077118e-05 3.5345793114867949e-06 0 -1.0134056954516503e-05 1.3490662407229647e-06 0 -1.2778283161434235e-05 3.3974923110214141e-06 0 -1.2125434367463222e-05 -1.5403099725652423e-05 0 -1.5847753440503288e-05 -1.5602498894347584e-05 0 -1.6262390936493936e-05 -2.0330535374031701e-05 0 -2.535065221352021e-06 -5.784325239274235e-06 0 -1.4138868875337774e-06 -7.9244496406333464e-06 0 -1.5015564571217394e-07 -4.7888258988362252e-06 0 1.1661410464369913e-06 -6.5245960292686645e-06 0 -1.5015564571217394e-07 -4.7888258988362252e-06 0 -1.4138868875337774e-06 -7.9244496406333464e-06 0 -2.7388544138379594e-06 -2.687404791188266e-07 0 -1.9570533058570455e-06 -8.2347052197024843e-07 0 -1.3992082819431671e-06 2.2980407642217596e-07 0 4.9409704683694697e-06 -1.0232918363048361e-05 0 4.0554132249154519e-06 -7.7704766995365376e-06 0 3.4857043530406753e-06 -1.0010059467813588e-05 0 -1.431297681458674e-05 -2.4214626588030792e-05 0 -9.9781892921968667e-06 -2.3822713650910387e-05 0 -1.0532791717431064e-05 -1.9865835697825527e-05 0 -2.7388544138379594e-06 -2.687404791188266e-07 0 -1.3992082819431671e-06 2.2980407642217596e-07 0 -2.5267710740671888e-06 4.4743149316504272e-07 0 4.9354601867921289e-06 -6.3990251828645125e-06 0 4.0554132249154519e-06 -7.7704766995365376e-06 0 5.61902349241317e-06 -8.3058369876142494e-06 0 1.1194729161168432e-06 -5.7394292808455231e-07 0 1.5303281303608805e-06 -2.9639489980472673e-07 0 1.7683344798479921e-06 -5.7286133035483593e-07 0 -1.3592466686736146e-05 -6.4264805872149518e-06 0 -1.1624163787011124e-05 -7.0324924863138453e-06 0 -1.0689278564103061e-05 -4.9367331217744921e-06 0 -2.2835739766096197e-05 1.1998933830182617e-05 0 -1.7076561260647635e-05 8.940507455351361e-06 0 -1.8620372987847074e-05 1.350253172699145e-05 0 -2.5945873005966623e-05 -3.7833176619819751e-05 0 -1.8697848920046032e-05 -3.785015028198755e-05 0 -2.1557230382754022e-05 -3.4289524401335069e-05 0 3.3109830368349856e-05 7.5126491909070469e-05 0 1.9061571450209305e-05 7.8472044351901184e-05 0 2.1302455272405188e-05 6.8845480723006075e-05 0 3.0508614415663505e-05 6.1317690525840686e-05 0 2.1302455272405188e-05 6.8845480723006075e-05 0 1.668720556074404e-05 5.9597424687606031e-05 0 -2.5945873005966623e-05 -3.7833176619819751e-05 0 -2.7146726075291962e-05 -4.5334327244757656e-05 0 -2.21659614806342e-05 -4.2678326082988668e-05 0 3.3109830368349856e-05 7.5126491909070469e-05 0 3.5583977671860558e-05 8.9522537254823598e-05 0 2.5830070221283115e-05 8.6361610492246947e-05 0 1.2588773060907136e-05 -8.0350032097975317e-06 0 1.1400456806633597e-05 -5.4821744499407484e-06 0 1.0563662570134154e-05 -7.3424851821517386e-06 0 2.4839823955657689e-06 -8.8121683573957223e-06 0 1.8033416324707324e-06 -1.0766180499147817e-05 0 3.4857043530406753e-06 -1.0010059467813588e-05 0 3.7090742969949572e-06 -2.1392110105855475e-05 0 6.0873190755593153e-06 -2.2441541477756392e-05 0 4.8767671175964447e-06 -2.1090200321812154e-05 0 2.4391552448889048e-05 -2.0807197757142143e-05 0 2.2580179946912233e-05 -2.4130727951710607e-05 0 2.8030632858812929e-05 -2.5261179991684146e-05 0 -1.2360860896545538e-05 8.6035279638440833e-06 0 -8.1457027348586082e-06 4.6830726943290337e-06 0 -7.6957350221393124e-06 8.1579610519280024e-06 0 -1.3824604895455689e-06 1.292517723491322e-06 0 -1.0060269502751895e-06 1.4326438160261775e-06 0 -1.8371738815583251e-06 1.2902972048292808e-06 0 3.3474482391368285e-06 6.5579763416784585e-07 0 2.874459436295545e-06 9.2423891401592348e-07 0 3.7356114152864122e-06 9.9938501651098933e-07 0 -2.1440349630442001e-05 4.9882127189857782e-05 0 -1.6341072886890311e-05 4.060691815013359e-05 0 -1.2319757966981972e-05 5.1860876890287123e-05 0 1.536962781107328e-06 -2.3573170833772604e-05 0 5.4836499427384446e-06 -2.679917919950301e-05 0 5.0373087725961029e-06 -2.0138524986756002e-05 0 1.1322454755899185e-06 -2.526796912745157e-08 0 4.5301701918691323e-07 -5.0870532304134117e-08 0 5.938788507143864e-07 1.0686082793848657e-07 0 -3.1342394627455497e-06 -2.2425540868893579e-06 0 -7.378240889344355e-07 -1.6392357794880424e-06 0 -1.9570533058570455e-06 -8.2347052197024843e-07 0 2.7691205206523143e-05 4.8341131348106393e-05 0 3.0508614415663505e-05 6.1317690525840686e-05 0 2.0681489642491785e-05 5.2312055838433713e-05 0 9.6493171232006804e-07 -1.3129969570031864e-06 0 1.6346199548685984e-06 -1.1961880691670799e-06 0 7.8541003501136762e-07 -1.5349403683949048e-06 0 1.2588773060907136e-05 -8.0350032097975317e-06 0 1.0563662570134154e-05 -7.3424851821517386e-06 0 1.2452895013035288e-05 -9.8761260463037757e-06 0 1.0416172182362755e-05 -9.6400363192485434e-06 0 1.2452895013035288e-05 -9.8761260463037757e-06 0 1.0563662570134154e-05 -7.3424851821517386e-06 0 5.2324577947126328e-06 -2.095502327154614e-05 0 3.7853779246744544e-06 -1.9648622861657842e-05 0 4.8767671175964447e-06 -2.1090200321812154e-05 0 3.7090742969949572e-06 -2.1392110105855475e-05 0 4.8767671175964447e-06 -2.1090200321812154e-05 0 3.7853779246744544e-06 -1.9648622861657842e-05 0 2.4391552448889048e-05 -2.0807197757142143e-05 0 1.9754002656550501e-05 -2.0962468996970939e-05 0 2.2580179946912233e-05 -2.4130727951710607e-05 0 1.8792450835439651e-05 -2.4231574879756485e-05 0 2.2580179946912233e-05 -2.4130727951710607e-05 0 1.9754002656550501e-05 -2.0962468996970939e-05 0 6.231579027750827e-06 1.5522427756217639e-06 0 5.3564328625267368e-06 1.1619713953866794e-06 0 5.5596553515862703e-06 1.3501789871785911e-06 0 1.2970435912037054e-05 -3.8159745669161998e-06 0 1.0086476910668957e-05 -1.5380015385783291e-06 0 1.1400456806633597e-05 -5.4821744499407484e-06 0 8.7736886239297435e-06 -3.7181428244423824e-06 0 1.1400456806633597e-05 -5.4821744499407493e-06 0 1.0086476910668957e-05 -1.5380015385783291e-06 0 -1.431297681458674e-05 -2.4214626588030792e-05 0 -1.8787873264849174e-05 -2.5771082769022343e-05 0 -1.7265760962398588e-05 -3.0479329338424564e-05 0 -3.5171542348001274e-06 5.5285646793161584e-07 0 -4.1126698528686966e-06 -2.5641248343201323e-07 0 -2.5267710740671888e-06 4.4743149316504272e-07 0 -2.7388544138379594e-06 -2.687404791188266e-07 0 -2.5267710740671888e-06 4.4743149316504272e-07 0 -4.1126698528686966e-06 -2.5641248343201323e-07 0 3.21958800528467e-06 -5.5479903695430262e-06 0 1.7752982419008098e-06 -5.0226965849878205e-06 0 2.3267454656197475e-06 -4.4161606146405185e-06 0 3.8163487686838284e-06 -1.7949443708288516e-05 0 3.7853779246744544e-06 -1.9648622861657842e-05 0 4.7585256716551452e-06 -1.9341070579735551e-05 0 1.6678567473522009e-05 -1.8627135269924388e-05 0 1.6089711005949539e-05 -2.0825030382949586e-05 0 1.9754002656550501e-05 -2.0962468996970939e-05 0 2.9826445494759819e-06 1.0862447283626793e-06 0 3.7356114152864122e-06 9.9938501651098933e-07 0 2.874459436295545e-06 9.2423891401592348e-07 0 1.0332502277867631e-05 -2.7224100475655565e-05 0 1.0652694415425702e-05 -2.5292306817960525e-05 0 8.8786458102685543e-06 -2.4567469749485269e-05 0 1.6179282130795459e-06 1.2241598646495243e-06 0 1.6083888632682916e-06 1.0050675587347121e-06 0 1.0618038568041046e-06 1.0323741878868737e-06 0 4.9354601867921289e-06 -6.3990251828645125e-06 0 5.1540257331923749e-06 -4.8312357934773235e-06 0 3.8744627222642887e-06 -4.9881824760329482e-06 0 1.1322454755899185e-06 -2.526796912745157e-08 0 1.8053641360093007e-06 5.4794631530583787e-08 0 1.5303281303608803e-06 -2.9639489980472673e-07 0 -4.4815456863745479e-06 5.7946107508488396e-05 0 -8.6075461177886508e-07 4.8143091186907427e-05 0 5.8360593175371286e-06 5.6309518840990664e-05 0 -3.4789206000718441e-06 8.1494059018859328e-05 0 8.4072764966109744e-06 8.2233170122191721e-05 0 4.0093694385808007e-06 9.1056427722031516e-05 0 -7.4696470754184997e-06 -4.0285232947120176e-05 0 -1.3222348412546755e-05 -4.0074010718614658e-05 0 -1.1089068260371288e-05 -4.4928229361645346e-05 0 1.4446021291301703e-05 8.0673437253854033e-06 0 1.1408766293209005e-05 1.7140267271044829e-06 0 1.5579740835275393e-05 -1.3224266269338784e-06 0 1.1322454755899185e-06 -2.526796912745157e-08 0 5.938788507143864e-07 1.0686082793848657e-07 0 1.2398067312408294e-06 2.0618611220527452e-07 0 -2.4378713666524856e-05 -3.0859861162507647e-05 0 -2.1557230382754022e-05 -3.4289524401335069e-05 0 -1.7265760962398588e-05 -3.0479329338424564e-05 0 -2.8638597844130354e-05 -7.6790850147796983e-05 0 -2.3524625363161124e-05 -7.2411077812725293e-05 0 -2.8617404403306141e-05 -6.9034811565974732e-05 0 4.8944069760510232e-05 0.00015443275459516194 0 3.4274826135542412e-05 0.00014592844270420232 0 4.3949788297712089e-05 0.00013684028253752446 0 4.8944069760510232e-05 0.00015443275459516194 0 2.9892257753506047e-05 0.00015630375383980809 0 3.4274826135542412e-05 0.00014592844270420232 0 2.104088575584078e-05 -7.7994645826695954e-05 0 1.3190667415245124e-05 -7.3660671377094459e-05 0 1.1211540742510869e-05 -7.9000325527350094e-05 0 -4.87404337272165e-05 0.0001531337256165978 0 -4.8702648312837994e-05 0.00013785537695503442 0 -3.8645206220845447e-05 0.00014449959841298491 0 -2.8638597844130354e-05 -7.6790850147796983e-05 0 -2.0980604995082673e-05 -7.6808398776132748e-05 0 -2.3524625363161124e-05 -7.2411077812725293e-05 0 2.104088575584078e-05 -7.7994645826695954e-05 0 1.781635515854219e-05 -6.8862592258914755e-05 0 1.3190667415245124e-05 -7.3660671377094459e-05 0 -4.87404337272165e-05 0.0001531337256165978 0 -3.8645206220845447e-05 0.00014449959841298491 0 -3.3618145859291912e-05 0.00015316566336566717 0 6.1965189571527826e-10 -4.349543376035446e-11 0 5.938788507143864e-07 1.0686082793848657e-07 0 4.5301701918691323e-07 -5.0870532304134117e-08 0 4.9409704683694697e-06 -1.0232918363048361e-05 0 6.8430579247621577e-06 -1.0519543533775261e-05 0 5.61902349241317e-06 -8.3058369876142494e-06 0 -2.7388544138379594e-06 -2.687404791188266e-07 0 -3.9796772247381923e-06 -1.1991763907713997e-06 0 -1.9570533058570455e-06 -8.2347052197024843e-07 0 -1.431297681458674e-05 -2.4214626588030792e-05 0 -1.186731915473524e-05 -2.7831838032688778e-05 0 -9.9781892921968667e-06 -2.3822713650910387e-05 0 2.3760604189637187e-06 -7.5695508254419487e-07 0 2.2563125824586074e-06 -1.0817763218356181e-06 0 1.6346199548685984e-06 -1.1961880691670799e-06 0 -4.8247353716900356e-06 9.9213133571580053e-05 0 -1.4507277129377088e-05 0.00010826761522425137 0 -1.5201691845733049e-05 9.4414089928873099e-05 0 -6.6626155706579505e-06 -4.9052479274864557e-05 0 -1.7553416009328381e-06 -5.3786651206407744e-05 0 -1.6433358014309701e-06 -4.6723287969045331e-05 0 1.147238961802396e-06 -1.7248634683058779e-05 0 2.1230488969342889e-06 -1.9547804515715661e-05 0 2.5683892196079801e-06 -1.7785528825881275e-05 0 1.9896000638311771e-05 -1.4795164212087099e-05 0 1.8763520833416024e-05 -1.7344490753737129e-05 0 2.1762092500577083e-05 -1.7511142352809247e-05 0 1.5967146503086353e-05 -5.1791037478558178e-06 0 1.4294483985779204e-05 -7.0782897073213208e-06 0 1.652032937431742e-05 -7.8153000813304412e-06 0 -3.1342394627455497e-06 -2.2425540868893579e-06 0 -1.9570533058570455e-06 -8.2347052197024843e-07 0 -3.9796772247381923e-06 -1.1991763907713997e-06 0 3.4084090563343382e-07 -1.1943561231297874e-05 0 5.5565378772744704e-07 -1.4682640050762076e-05 0 1.9336729740820434e-06 -1.3026034561867411e-05 0 1.7410495917401427e-05 -1.0053071592185154e-05 0 1.6319131988403491e-05 -1.206507310416375e-05 0 1.8474467353955411e-05 -1.2349706013575254e-05 0 -6.3063203206890394e-06 -2.0028731405480166e-05 0 -2.4703344940702468e-06 -2.188801849908294e-05 0 -2.9696978913033468e-06 -1.6567751107319044e-05 0 3.3474482391368285e-06 6.5579763416784585e-07 0 2.5730100386707183e-06 6.7062723830204412e-07 0 2.874459436295545e-06 9.2423891401592348e-07 0 3.2552778771484807e-06 -4.4077051943282864e-05 0 -1.7924728844314914e-06 -3.935881366924215e-05 0 -1.6433358014309701e-06 -4.6723287969045331e-05 0 -2.5557448055023052e-05 9.0018325672821303e-05 0 -1.5114245346601852e-05 8.148676387195786e-05 0 -1.5201691845733049e-05 9.4414089928873099e-05 0 1.4109060024746431e-05 -1.1874599328969889e-05 0 1.4793388914819785e-05 -9.7888256900147367e-06 0 1.2452895013035288e-05 -9.8761260463037757e-06 0 1.2588773060907136e-05 -8.0350032097975317e-06 0 1.2452895013035288e-05 -9.8761260463037757e-06 0 1.4793388914819785e-05 -9.7888256900147367e-06 0 1.0268875098189627e-06 1.3953546028605883e-06 0 4.3039480700199587e-07 1.4564803602402372e-06 0 3.5938799410543116e-07 1.402418077300675e-06 0 -2.535065221352021e-06 -5.784325239274235e-06 0 -1.5015564571217389e-07 -4.7888258988362252e-06 0 -1.6371702625643811e-06 -3.3088202565283035e-06 0 1.435152838267615e-06 -1.6771372203242628e-05 0 4.4466344643815142e-06 -1.4694589211117917e-05 0 1.8483325830923116e-06 -1.0607400551213454e-05 0 7.0165698996591602e-06 -8.4009540257022124e-06 0 5.61902349241317e-06 -8.3058369876142494e-06 0 6.8430579247621577e-06 -1.0519543533775261e-05 0 5.9113610654646716e-06 -1.1682482741218384e-05 0 4.4466344643815142e-06 -1.4694589211117917e-05 0 7.8761448795571229e-06 -1.7009438140333929e-05 0 1.7232947397829492e-05 -1.4687315269147553e-05 0 1.4521074406871134e-05 -1.3764232375138358e-05 0 1.5571284935698602e-05 -1.6384965535648153e-05 0 1.3070296385579689e-05 -1.502354275013596e-05 0 1.5571284935698602e-05 -1.6384965535648153e-05 0 1.4521074406871134e-05 -1.3764232375138358e-05 0 -1.3224846042178502e-06 1.2969395170074377e-06 0 -2.0827985001720017e-06 1.1391580197463285e-06 0 -1.8371738815583251e-06 1.2902972048292808e-06 0 3.4021593645077973e-06 -5.1837344698702495e-07 0 3.6601334177948874e-06 -1.2314065372219945e-06 0 4.0853192488281611e-06 -1.5792971209724592e-07 0 4.4358666666074947e-06 -6.9498616701795035e-07 0 4.0853192488281611e-06 -1.5792971209724592e-07 0 3.6601334177948874e-06 -1.2314065372219945e-06 0 9.776252377377417e-06 3.9211999716642261e-06 0 9.1938306260805849e-06 3.1016858217841255e-06 0 1.1083720109889823e-05 5.2957946182393028e-06 0 9.7679792910617418e-06 1.8641398608371496e-06 0 1.1083720109889823e-05 5.2957946182393028e-06 0 9.1938306260805849e-06 3.1016858217841255e-06 0 3.0508614415663505e-05 6.1317690525840686e-05 0 3.3109830368349856e-05 7.5126491909070469e-05 0 2.1302455272405188e-05 6.8845480723006075e-05 0 7.6737490390790981e-06 2.3678690460921766e-06 0 7.0649190118099621e-06 1.9931868956593786e-06 0 6.7023677278271818e-06 1.8030327776353644e-06 0 -2.4378713666524856e-05 -3.0859861162507647e-05 0 -2.5945873005966623e-05 -3.7833176619819751e-05 0 -2.1557230382754022e-05 -3.4289524401335069e-05 0 -2.2897327256454754e-07 1.4797326178168306e-06 0 3.5938799410543116e-07 1.402418077300675e-06 0 4.3039480700199587e-07 1.4564803602402372e-06 0 -1.3218336616064261e-06 -1.918753337213566e-06 0 -1.1965471244260056e-06 -1.6156756588501996e-06 0 -6.7783473283679972e-07 -1.6782737923506531e-06 0 -1.3224846042178502e-06 1.2969395170074377e-06 0 -7.871583355219217e-07 1.1880880778570603e-06 0 -1.0823145418080736e-06 1.0711516727235144e-06 0 3.5171188482117705e-06 -4.6923835261482071e-07 0 3.4017684316723351e-06 -1.0721563475916582e-07 0 4.4381135412024407e-06 2.466647753603677e-07 0 -6.7945200419102052e-07 6.6556371057833318e-08 0 -7.3565534665581549e-07 3.6301249826784572e-07 0 -3.1729677595635347e-07 1.0312835235857353e-07 0 -5.7811432481041963e-10 1.8774032757357694e-10 0 -3.1729677595635352e-07 1.0312835235857356e-07 0 -7.3565534665581549e-07 3.6301249826784572e-07 0 -8.6965669867938348e-07 -2.1984322342022674e-07 0 -4.0821161790748269e-07 -2.0485150978484041e-07 0 -9.6197234734928528e-07 -6.318499270716865e-07 0 -7.855816391043353e-10 -3.083029966473758e-10 0 -9.6197234734928528e-07 -6.318499270716865e-07 0 -4.0821161790748269e-07 -2.0485150978484041e-07 0 -2.535065221352021e-06 -5.784325239274235e-06 0 -5.4951377358434537e-06 -6.9821343870639636e-06 0 -4.0385354913892646e-06 -9.1165823570521471e-06 0 1.1322454755899185e-06 -2.526796912745157e-08 0 1.2398067312408294e-06 2.0618611220527452e-07 0 1.8053641360093007e-06 5.4794631530583787e-08 0 1.0452540267393829e-05 4.7728071895326553e-05 0 1.8607096885328814e-05 4.4076179654005156e-05 0 2.0681489642491785e-05 5.2312055838433713e-05 0 3.8287874210139528e-06 8.9556276365607487e-06 0 1.4134719153097807e-06 5.5411756491180616e-06 0 5.1870686422145977e-06 4.9942015292549742e-06 0 7.6737490390790981e-06 2.3678690460921766e-06 0 8.2816433802858227e-06 2.8120171771406751e-06 0 7.0649190118099621e-06 1.9931868956593786e-06 0 -1.6397242020402767e-06 -1.2024596363745557e-05 0 -1.4138868875337774e-06 -7.9244496406333464e-06 0 -4.0385354913892646e-06 -9.1165823570521471e-06 0 -1.8576634389830306e-05 0.00015352583414541716 0 -3.3618145859291912e-05 0.00015316566336566717 0 -2.6157190970472621e-05 0.0001454191378371482 0 2.0944896545884278e-06 -7.8267556837794192e-05 0 1.1211540742510869e-05 -7.9000325527350094e-05 0 5.961883994269945e-06 -7.4108093147573357e-05 0 2.9892257753506047e-05 0.00015630375383980809 0 1.222342934243961e-05 0.00015533746217613175 0 2.0013691159592733e-05 0.00014706030977414467 0 -2.0980604995082676e-05 -7.6808398776132748e-05 0 -1.3391769981489217e-05 -7.7033592710632425e-05 0 -1.721947436546943e-05 -7.288970603323856e-05 0 5.8688383556044884e-06 -1.9259282428854002e-05 0 4.7585256716551452e-06 -1.9341070579735551e-05 0 5.9417009130372564e-06 -2.0948090979063804e-05 0 1.3111503442022463e-05 -2.0532723015827821e-05 0 1.4892015423955052e-05 -2.3476944317062182e-05 0 1.6089711005949539e-05 -2.0825030382949586e-05 0 -5.6168618373250703e-10 -2.3056633921315441e-10 0 -3.1729677595635352e-07 1.0312835235857356e-07 0 -5.7811432481041963e-10 1.8774032757357694e-10 0 -6.2965311533490125e-10 2.5717307980216939e-10 0 -7.855816391043353e-10 -3.083029966473758e-10 0 -4.0821161790748269e-07 -2.0485150978484041e-07 0 -6.2965311533490125e-10 2.5717307980216939e-10 0 -4.0821161790748269e-07 -2.0485150978484041e-07 0 -8.6965669867938348e-07 -2.1984322342022674e-07 0 -5.6168618373250703e-10 -2.3056633921315441e-10 0 -6.7945200419102052e-07 6.6556371057833318e-08 0 -3.1729677595635347e-07 1.0312835235857353e-07 0 1.536962781107328e-06 -2.3573170833772604e-05 0 -2.4703344940702464e-06 -2.1888018499082936e-05 0 -2.1553338808250609e-06 -2.7932187568538385e-05 0 2.5081913601680419e-07 1.1255578957253581e-06 0 -3.9881378943452487e-07 8.0912947109587797e-07 0 6.7741697805030331e-07 6.8208397723507229e-07 0 4.9354601867921289e-06 -6.3990251828645125e-06 0 5.6190234924131708e-06 -8.3058369876142494e-06 0 6.1166860103086233e-06 -6.4358931752181677e-06 0 7.0165698996591602e-06 -8.4009540257022124e-06 0 6.1166860103086233e-06 -6.4358931752181677e-06 0 5.61902349241317e-06 -8.3058369876142494e-06 0 1.0268875098189627e-06 1.3953546028605883e-06 0 1.0642755782254476e-06 1.2008963424322596e-06 0 1.5225956160026171e-06 1.2675465768295018e-06 0 2.1466854802576111e-06 9.0984322597206819e-07 0 1.6083888632682916e-06 1.0050675587347121e-06 0 2.3299381349188198e-06 1.1335301958685192e-06 0 1.6179282130795459e-06 1.2241598646495243e-06 0 2.3299381349188198e-06 1.1335301958685192e-06 0 1.6083888632682916e-06 1.0050675587347121e-06 0 9.7679792910617418e-06 1.8641398608371496e-06 0 1.1408766293209005e-05 1.7140267271044831e-06 0 1.1083720109889823e-05 5.2957946182393028e-06 0 1.4446021291301703e-05 8.0673437253854033e-06 0 1.1083720109889824e-05 5.2957946182393037e-06 0 1.1408766293209005e-05 1.7140267271044829e-06 0 -7.3772903568842692e-06 -9.0636692041790092e-06 0 -4.0385354913892646e-06 -9.1165823570521471e-06 0 -5.4951377358434537e-06 -6.9821343870639636e-06 0 1.4109060024746431e-05 -1.1874599328969889e-05 0 1.4521074406871134e-05 -1.3764232375138358e-05 0 1.6319131988403491e-05 -1.206507310416375e-05 0 2.9197680523380891e-06 -1.1915436282813284e-05 0 1.9336729740820434e-06 -1.3026034561867411e-05 0 3.2680180214121382e-06 -1.3594666272623125e-05 0 2.9826445494759819e-06 1.0862447283626793e-06 0 3.6369733836338095e-06 1.0784819933198872e-06 0 3.7356114152864122e-06 9.9938501651098933e-07 0 1.4999517547000715e-05 9.150547862007757e-05 0 2.5830070221283115e-05 8.6361610492246947e-05 0 2.6259471570960118e-05 9.6353058144023996e-05 0 -1.6533847574487699e-05 -4.520203257879397e-05 0 -2.21659614806342e-05 -4.2678326082988668e-05 0 -2.2163838394838198e-05 -4.8001983844957905e-05 0 3.21958800528467e-06 -5.5479903695430262e-06 0 2.8893148174284745e-06 -3.6872728241702752e-06 0 2.0175064192493786e-06 -4.0737580246965313e-06 0 1.2588773060907136e-05 -8.0350032097975317e-06 0 1.4294483985779204e-05 -7.0782897073213208e-06 0 1.1400456806633597e-05 -5.4821744499407484e-06 0 -2.5557448055023052e-05 9.0018325672821303e-05 0 -3.3953239309761432e-05 8.2445854116253378e-05 0 -2.4116936764141515e-05 7.8198960950567247e-05 0 3.2552778771484807e-06 -4.4077051943282864e-05 0 7.1155001835479069e-06 -3.9842641766281511e-05 0 2.5364652908404018e-06 -3.7890825288226245e-05 0 1.536962781107328e-06 -2.3573170833772604e-05 0 1.8041842559145948e-06 -2.8884722072059531e-05 0 5.4836499427384446e-06 -2.679917919950301e-05 0 5.9400964216741905e-06 -1.7155169309859926e-05 0 6.8295386342290764e-06 -1.8675887742960306e-05 0 7.4192276192188017e-06 -1.6928176856058659e-05 0 1.6678567473522009e-05 -1.8627135269924388e-05 0 1.8763520833416024e-05 -1.7344490753737129e-05 0 1.5571284935698602e-05 -1.6384965535648153e-05 0 2.5904666798657557e-06 -8.244814782010699e-07 0 2.5642933964890662e-06 -1.0427439243553999e-06 0 3.9121993853745048e-06 -3.0990834434906649e-07 0 9.1615705933373182e-06 -2.2579773694455774e-05 0 1.127237708499188e-05 -2.2691859842286507e-05 0 9.9634833496330953e-06 -2.0144615508363382e-05 0 -2.2897327256454754e-07 1.4797326178168306e-06 0 4.3039480700199587e-07 1.4564803602402372e-06 0 -9.0259722416997642e-08 1.4265325677287447e-06 0 2.0140317904573489e-07 1.3453397565240613e-06 0 -9.0259722416997642e-08 1.4265325677287447e-06 0 4.3039480700199587e-07 1.4564803602402372e-06 0 4.251749327488706e-06 6.5530771762010926e-07 0 3.6160490621074483e-06 1.8574071684955234e-07 0 4.0853192488281611e-06 -1.5792971209724592e-07 0 -2.535065221352021e-06 -5.784325239274235e-06 0 -4.0385354913892646e-06 -9.1165823570521471e-06 0 -1.4138868875337774e-06 -7.9244496406333464e-06 0 1.0268875098189627e-06 1.3953546028605883e-06 0 1.5225956160026171e-06 1.2675465768295018e-06 0 1.4286963371381936e-06 1.3272636356766763e-06 0 1.9874405651742994e-06 1.2502701279962267e-06 0 1.4286963371381936e-06 1.3272636356766763e-06 0 1.5225956160026171e-06 1.2675465768295018e-06 0 1.0642755782254476e-06 1.2008963424322596e-06 0 1.9325863271602167e-06 1.0559474477307505e-06 0 1.5225956160026171e-06 1.2675465768295018e-06 0 7.1798458009094783e-06 -2.2622639005278553e-05 0 5.9417009130372564e-06 -2.0948090979063804e-05 0 6.3853710719239949e-06 -2.2295789692248946e-05 0 5.2324577947126328e-06 -2.095502327154614e-05 0 6.3853710719239949e-06 -2.2295789692248946e-05 0 5.9417009130372564e-06 -2.0948090979063804e-05 0 1.8792450835439651e-05 -2.4231574879756485e-05 0 1.4892015423955052e-05 -2.3476944317062182e-05 0 1.6996577460077007e-05 -2.7600706217594874e-05 0 1.3205726091467775e-05 -2.4977417705882942e-05 0 1.6996577460077007e-05 -2.7600706217594874e-05 0 1.4892015423955052e-05 -2.3476944317062182e-05 0 9.7679792910617418e-06 1.8641398608371496e-06 0 1.0086476910668957e-05 -1.5380015385783291e-06 0 1.1408766293209005e-05 1.7140267271044829e-06 0 2.5224215166946151e-05 0.00013682943543699005 0 2.0013691159592733e-05 0.00014706030977414467 0 9.972079665103582e-06 0.00014004183912820348 0 -2.0048950880772974e-05 -6.8047494053174816e-05 0 -1.721947436546943e-05 -7.288970603323856e-05 0 -1.2929681072157904e-05 -6.9762665647532551e-05 0 8.4225030900985974e-06 -6.8840215139490395e-05 0 8.1451878771772507e-07 -7.0391995304080538e-05 0 5.961883994269945e-06 -7.4108093147573357e-05 0 -3.1792304748303019e-05 0.00013593959224974798 0 -1.7587712984188727e-05 0.00013923855686956947 0 -2.6157190970472621e-05 0.0001454191378371482 0 -2.5557448055023052e-05 9.0018325672821303e-05 0 -2.4116936764141515e-05 7.8198960950567247e-05 0 -1.5114245346601852e-05 8.148676387195786e-05 0 3.2552778771484807e-06 -4.4077051943282864e-05 0 2.5364652908404018e-06 -3.7890825288226245e-05 0 -1.7924728844314914e-06 -3.935881366924215e-05 0 1.536962781107328e-06 -2.3573170833772604e-05 0 -2.1553338808250609e-06 -2.7932187568538385e-05 0 1.8041842559145946e-06 -2.8884722072059531e-05 0 3.4021593645077973e-06 -5.1837344698702495e-07 0 4.0853192488281611e-06 -1.5792971209724592e-07 0 3.6160490621074483e-06 1.8574071684955234e-07 0 1.222342934243961e-05 0.00015533746217613175 0 9.972079665103582e-06 0.00014004183912820348 0 2.0013691159592733e-05 0.00014706030977414467 0 -1.3391769981489217e-05 -7.7033592710632425e-05 0 -1.2929681072157904e-05 -6.9762665647532551e-05 0 -1.721947436546943e-05 -7.288970603323856e-05 0 -1.8576634389830306e-05 0.00015352583414541716 0 -2.6157190970472621e-05 0.0001454191378371482 0 -1.7587712984188727e-05 0.00013923855686956947 0 2.0944896545884278e-06 -7.8267556837794192e-05 0 5.9618839942699466e-06 -7.4108093147573357e-05 0 8.1451878771772507e-07 -7.0391995304080538e-05 0 8.2001521049159744e-06 -1.8730701203493414e-05 0 7.4192276192188026e-06 -1.6928176856058659e-05 0 6.8295386342290764e-06 -1.8675887742960306e-05 0 5.9113610654646716e-06 -1.1682482741218384e-05 0 1.8483325830923116e-06 -1.0607400551213454e-05 0 4.4466344643815142e-06 -1.4694589211117917e-05 0 6.0873190755593145e-06 -2.2441541477756392e-05 0 6.1784804884134247e-06 -2.1510542640908118e-05 0 4.8767671175964447e-06 -2.1090200321812154e-05 0 2.8030632858812929e-05 -2.5261179991684146e-05 0 2.2580179946912233e-05 -2.4130727951710607e-05 0 2.3396949588645611e-05 -2.8033876435172901e-05 0 2.1466854802576111e-06 9.0984322597206819e-07 0 1.4816869581907265e-06 7.1621928169865276e-07 0 1.6083888632682916e-06 1.0050675587347121e-06 0 -3.0085678369031488e-05 6.9093823102230224e-05 0 -3.0875932633500699e-05 5.6842042366002778e-05 0 -2.2070892220689041e-05 5.908038971796366e-05 0 -2.1440349630442001e-05 4.9882127189857782e-05 0 -2.2070892220689041e-05 5.908038971796366e-05 0 -3.0875932633500699e-05 5.6842042366002778e-05 0 8.238851084018993e-06 -1.5096204851163733e-05 0 6.447067262096835e-06 -1.5096204184132249e-05 0 7.4192276192188017e-06 -1.6928176856058659e-05 0 2.7426957334036892e-06 9.5246504420033666e-07 0 1.9325863271602167e-06 1.0559474477307505e-06 0 2.2915286412222106e-06 6.7768546214952088e-07 0 4.9354601867921289e-06 -6.3990251828645125e-06 0 6.1166860103086233e-06 -6.4358931752181677e-06 0 5.1540257331923749e-06 -4.8312357934773235e-06 0 6.2252718294168551e-06 -4.3883012266656154e-06 0 5.1540257331923749e-06 -4.8312357934773235e-06 0 6.1166860103086233e-06 -6.4358931752181677e-06 0 -1.608614685606217e-05 6.8695097517161886e-05 0 -1.5114245346601852e-05 8.148676387195786e-05 0 -2.4116936764141515e-05 7.8198960950567247e-05 0 -9.6179528299688354e-07 -3.3298327248284805e-05 0 -1.7924728844314914e-06 -3.935881366924215e-05 0 2.5364652908404018e-06 -3.7890825288226245e-05 0 -9.6179528299688354e-07 -3.3298327248284805e-05 0 1.8041842559145946e-06 -2.8884722072059531e-05 0 -2.1553338808250609e-06 -2.7932187568538385e-05 0 -1.0449843565325997e-06 7.6423005321737787e-07 0 -1.6200897933351189e-06 1.0195383128238077e-06 0 -1.0823145418080736e-06 1.0711516727235144e-06 0 -1.2999242915779485e-06 -1.2247156962432737e-06 0 -1.1965471244260056e-06 -1.6156756588501996e-06 0 -2.0161823884810397e-06 -1.635675647131902e-06 0 -3.0482909179821178e-06 -1.5054802513102454e-06 0 -2.0161823884810397e-06 -1.635675647131902e-06 0 -2.5299607325072692e-06 -1.8278048953949541e-06 0 -2.2900454748612907e-06 8.8545863015063199e-07 0 -2.0827985001720017e-06 1.1391580197463285e-06 0 -1.6200897933351187e-06 1.0195383128238077e-06 0 2.8189482383572108e-06 2.6262855690006628e-07 0 3.6160490621074483e-06 1.8574071684955234e-07 0 3.4089728216800462e-06 6.3473936586239358e-07 0 -3.0085678369031488e-05 6.9093823102230224e-05 0 -2.4116936764141515e-05 7.8198960950567247e-05 0 -3.3953239309761432e-05 8.2445854116253378e-05 0 5.1776828432638712e-06 -3.3146501824774895e-05 0 2.5364652908404018e-06 -3.7890825288226245e-05 0 7.1155001835479069e-06 -3.9842641766281511e-05 0 5.1776828432638712e-06 -3.3146501824774895e-05 0 5.4836499427384446e-06 -2.679917919950301e-05 0 1.8041842559145946e-06 -2.8884722072059531e-05 0 -6.3063203206890394e-06 -2.0028731405480166e-05 0 -1.0532791717431064e-05 -1.9865835697825527e-05 0 -9.9781892921968667e-06 -2.3822713650910387e-05 0 5.9400964216741905e-06 -1.7155169309859926e-05 0 7.4192276192188017e-06 -1.6928176856058659e-05 0 6.447067262096835e-06 -1.5096204184132249e-05 0 2.5904666798657557e-06 -8.244814782010699e-07 0 3.5730033878505871e-06 -6.4377024216756012e-08 0 1.6289699125525201e-06 -7.6012993007051981e-07 0 2.1427733320051723e-06 -6.8955660504633499e-07 0 2.0748735123673576e-06 1.702141134376002e-07 0 1.2926446802267789e-06 -4.3664233840098306e-08 0 -1.3224846042178502e-06 1.2969395170074377e-06 0 -1.8371738815583253e-06 1.2902972048292806e-06 0 -1.0060269502751895e-06 1.4326438160261775e-06 0 -1.8656378547964231e-05 3.1291921871841331e-05 0 -1.2129949653267824e-05 3.2145606579736558e-05 0 -1.6341072886890311e-05 4.060691815013359e-05 0 -1.2125434367463222e-05 -1.5403099725652423e-05 0 -1.0532791717431064e-05 -1.9865835697825527e-05 0 -8.8882646221143857e-06 -1.5989264445393486e-05 0 1.4999517547000715e-05 9.150547862007757e-05 0 4.0093694385808007e-06 9.1056427722031516e-05 0 8.4072764966109744e-06 8.2233170122191735e-05 0 -1.6533847574487699e-05 -4.520203257879397e-05 0 -1.1089068260371288e-05 -4.4928229361645346e-05 0 -1.3222348412546755e-05 -4.0074010718614658e-05 0 1.0452540267393829e-05 4.7728071895326553e-05 0 5.8360593175371286e-06 5.6309518840990664e-05 0 -8.6075461177886508e-07 4.8143091186907427e-05 0 -1.3293274020042153e-06 9.4722377347036201e-07 0 -2.1780390566146956e-06 9.3905456010228818e-07 0 -2.5267710740671888e-06 4.4743149316504272e-07 0 1.6011384703127752e-06 6.7473857732303946e-07 0 2.2915286412222106e-06 6.7768546214952088e-07 0 1.9325863271602167e-06 1.0559474477307505e-06 0 -7.0000446430854717e-06 -2.765841848686339e-05 0 -9.9781892921968667e-06 -2.3822713650910387e-05 0 -1.186731915473524e-05 -2.7831838032688778e-05 0 5.2324577947126328e-06 -2.095502327154614e-05 0 4.8767671175964447e-06 -2.1090200321812154e-05 0 6.1784804884134247e-06 -2.1510542640908118e-05 0 1.8792450835439651e-05 -2.4231574879756485e-05 0 2.3396949588645611e-05 -2.8033876435172901e-05 0 2.2580179946912233e-05 -2.4130727951710607e-05 0 1.9874405651742994e-06 1.2502701279962267e-06 0 1.5225956160026171e-06 1.2675465768295018e-06 0 1.9325863271602167e-06 1.0559474477307505e-06 0 -3.3618145859291912e-05 0.00015316566336566717 0 -3.8645206220845447e-05 0.00014449959841298491 0 -2.6157190970472621e-05 0.0001454191378371482 0 -3.1792304748303019e-05 0.00013593959224974798 0 -2.6157190970472621e-05 0.0001454191378371482 0 -3.8645206220845447e-05 0.00014449959841298491 0 8.4225030900985974e-06 -6.8840215139490395e-05 0 5.961883994269945e-06 -7.4108093147573357e-05 0 1.3190667415245124e-05 -7.3660671377094459e-05 0 1.1211540742510869e-05 -7.9000325527350094e-05 0 1.3190667415245124e-05 -7.3660671377094459e-05 0 5.961883994269945e-06 -7.4108093147573357e-05 0 2.9892257753506047e-05 0.00015630375383980809 0 2.0013691159592733e-05 0.00014706030977414467 0 3.4274826135542412e-05 0.00014592844270420232 0 -2.0980604995082676e-05 -7.6808398776132748e-05 0 -1.721947436546943e-05 -7.288970603323856e-05 0 -2.3524625363161124e-05 -7.2411077812725293e-05 0 2.5224215166946151e-05 0.00013682943543699005 0 3.4274826135542412e-05 0.00014592844270420232 0 2.0013691159592733e-05 0.00014706030977414467 0 -2.0048950880772974e-05 -6.8047494053174816e-05 0 -2.3524625363161124e-05 -7.2411077812725293e-05 0 -1.721947436546943e-05 -7.288970603323856e-05 0 8.238851084018993e-06 -1.5096204851163733e-05 0 7.4192276192188017e-06 -1.6928176856058659e-05 0 9.1363466691539396e-06 -1.7055506353075732e-05 0 4.5323753228482409e-06 -1.4810808059652435e-05 0 4.2254112504411426e-06 -1.2327487934389201e-05 0 3.2680180214121382e-06 -1.3594666272623125e-05 0 2.9197680523380891e-06 -1.1915436282813284e-05 0 3.2680180214121382e-06 -1.3594666272623125e-05 0 4.2254112504411426e-06 -1.2327487934389201e-05 0 8.2001521049159744e-06 -1.8730701203493414e-05 0 6.8295386342290764e-06 -1.8675887742960306e-05 0 7.3484662665231075e-06 -2.0555966256849207e-05 0 5.8688383556044884e-06 -1.9259282428854002e-05 0 7.3484662665231075e-06 -2.0555966256849207e-05 0 6.8295386342290764e-06 -1.8675887742960306e-05 0 9.776252377377417e-06 3.9211999716642261e-06 0 8.6095646971210764e-06 2.9014324465003907e-06 0 9.1938306260805849e-06 3.1016858217841255e-06 0 2.4536108985234596e-06 5.1754557949152229e-07 0 4.0880174623833658e-07 1.3831810603995091e-06 0 4.7457196165602368e-08 -2.9214883756193806e-07 0 -2.2843537449530332e-06 5.389377328786311e-07 0 4.7457196165602368e-08 -2.9214883756193806e-07 0 4.0880174623833658e-07 1.3831810603995091e-06 0 -1.3293274020042153e-06 9.4722377347036201e-07 0 -1.3992082819431669e-06 2.2980407642217596e-07 0 -3.9881378943452487e-07 8.0912947109587797e-07 0 -1.8656378547964231e-05 3.1291921871841331e-05 0 -1.2642312555272752e-05 2.4916529144779151e-05 0 -1.2129949653267824e-05 3.2145606579736558e-05 0 -5.7670939984061564e-06 2.6314495037969942e-05 0 -1.2129949653267824e-05 3.2145606579736558e-05 0 -1.2642312555272752e-05 2.4916529144779151e-05 0 7.6737490390790981e-06 2.3678690460921766e-06 0 8.6095646971210764e-06 2.9014324465003907e-06 0 8.2816433802858227e-06 2.8120171771406751e-06 0 1.3070296385579689e-05 -1.502354275013596e-05 0 1.3768787440195598e-05 -1.744904883297591e-05 0 1.5571284935698602e-05 -1.6384965535648153e-05 0 1.6678567473522009e-05 -1.8627135269924388e-05 0 1.5571284935698602e-05 -1.6384965535648153e-05 0 1.3768787440195598e-05 -1.744904883297591e-05 0 7.4639590750702689e-06 2.1160193233928277e-06 0 8.2816433802858227e-06 2.8120171771406751e-06 0 8.7246669223472934e-06 3.2030142968357418e-06 0 -5.7319369698411078e-06 -1.3298816013816846e-05 0 -9.1923485327997951e-06 -1.2599391195598128e-05 0 -8.8882646221143857e-06 -1.5989264445393486e-05 0 -1.2125434367463222e-05 -1.5403099725652423e-05 0 -8.8882646221143857e-06 -1.5989264445393486e-05 0 -9.1923485327997951e-06 -1.2599391195598128e-05 0 6.231579027750827e-06 1.5522427756217639e-06 0 6.7023677278271818e-06 1.8030327776353644e-06 0 7.0649190118099621e-06 1.9931868956593786e-06 0 7.4639590750702689e-06 2.1160193233928277e-06 0 7.0649190118099621e-06 1.9931868956593786e-06 0 8.2816433802858227e-06 2.8120171771406751e-06 0 2.9197680523380891e-06 -1.1915436282813284e-05 0 1.8033416324707324e-06 -1.0766180499147817e-05 0 1.9336729740820434e-06 -1.3026034561867411e-05 0 1.6011384703127752e-06 6.7473857732303946e-07 0 2.0748735123673576e-06 1.7021411343760015e-07 0 2.2915286412222106e-06 6.7768546214952088e-07 0 2.8189482383572108e-06 2.6262855690006628e-07 0 2.2915286412222106e-06 6.7768546214952088e-07 0 2.0748735123673576e-06 1.7021411343760015e-07 0 4.251749327488706e-06 6.5530771762010926e-07 0 3.4089728216800462e-06 6.3473936586239358e-07 0 3.6160490621074483e-06 1.8574071684955234e-07 0 3.5583977671860558e-05 8.9522537254823598e-05 0 2.6259471570960118e-05 9.6353058144023996e-05 0 2.5830070221283115e-05 8.6361610492246947e-05 0 -2.7146726075291966e-05 -4.5334327244757656e-05 0 -2.2163838394838195e-05 -4.8001983844957905e-05 0 -2.21659614806342e-05 -4.2678326082988668e-05 0 -3.5171542348001274e-06 5.5285646793161584e-07 0 -2.5267710740671888e-06 4.4743149316504272e-07 0 -2.1780390566146956e-06 9.3905456010228807e-07 0 5.3103893058987888e-10 1.608999995527572e-10 0 3.6391698705945183e-07 3.6456375674872154e-07 0 3.8512910513147449e-07 2.7088507912934479e-07 0 2.7691205206523143e-05 4.8341131348106393e-05 0 2.0681489642491785e-05 5.2312055838433713e-05 0 1.8607096885328814e-05 4.4076179654005163e-05 0 8.2001521049159744e-06 -1.8730701203493414e-05 0 9.1363466691539396e-06 -1.7055506353075732e-05 0 7.4192276192188017e-06 -1.6928176856058659e-05 0 -3.0224806867200135e-07 -1.2617920326673872e-06 0 4.7457196165601965e-08 -2.9214883756193817e-07 0 -2.1391317486178016e-06 -7.2188196284938794e-07 0 -2.2843537449530332e-06 5.389377328786311e-07 0 -2.1391317486178016e-06 -7.2188196284938794e-07 0 4.7457196165602368e-08 -2.9214883756193806e-07 0 3.4084090563343382e-07 -1.1943561231297874e-05 0 1.9336729740820434e-06 -1.3026034561867411e-05 0 1.8033416324707324e-06 -1.0766180499147817e-05 0 
</DataArray>
</PointData>
<CellData Scalars="region_id," Vectors="" Tensors="stress,">
<DataArray type="Float64" Name="region_id" format="ascii">
2 2 2 2 2 2 2 2 2 2 3 3 3 3 3 3 3 3 3 3 1 1 1 1 1 1 1 1 1 1 1 1 1 1 1 1 1 1 1 1 1 1 1 1 1 1 1 1 1 1 1 1 1 1 1 1 1 1 1 1 1 1 1 1 1 1 1 1 1 1 1 1 1 1 1 1 1 1 1 1 1 1 1 1 1 1 1 1 1 1 1 1 1 1 1 1 1 1 1 1 1 1 1 1 1 1 1 1 1 1 1 1 1 1 1 1 1 1 1 1 1 1 1 1 1 1 1 1 1 1 1 1 1 1 1 1 1 1 1 1 1 1 1 1 1 1 1 1 1 1 1 1 1 1 1 1 1 1 1 1 1 1 1 1 1 1 1 1 1 1 1 1 1 1 1 1 1 1 1 1 1 1 1 1 1 1 1 1 1 1 1 1 1 1 1 1 1 1 1 1 1 1 1 1 1 1 1 1 1 1 1 1 1 1 1 1 1 1 1 1 1 1 1 1 1 1 1 1 1 1 1 1 1 1 1 1 1 1 1 1 1 1 1 1 1 1 1 1 1 1 1 1 1 1 1 1 1 1 1 1 1 1 1 1 1 1 1 1 1 1 1 1 1 1 1 1 1 1 1 1 1 1 1 1 1 1 1 1 1 1 1 1 1 1 1 1 1 1 1 1 1 1 1 1 1 1 1 1 1 1 1 1 1 1 1 1 1 1 1 1 1 1 1 1 1 1 1 1 1 1 1 1 1 1 1 1 1 1 1 1 1 1 1 1 1 1 1 1 1 1 1 1 1 1 1 1 1 1 1 1 1 1 1 1 1 1 1 1 1 1 1 1 1 1 1 1 1 1 1 1 1 1 1 1 1 1 1 1 1 1 1 1 1 1 1 1 1 1 1 1 1 1 1 1 1 1 1 1 1 1 1 1 1 1 1 1 1 1 1 1 1 1 1 1 1 1 1 1 1 1 1 1 1 1 1 1 1 1 1 1 1 1 1 1 1 1 1 1 1 1 1 1 1 1 1 1 1 1 1 1 1 1 1 1 1 1 1 1 1 1 1 1 1 1 1 1 1 1 1 1 1 1 1 1 1 1 1 1 1 1 1 1 1 1 1 1 1 1 1 1 1 1 1 1 1 1 1 1 1 1 1 1 1 1 1 1 1 1 1 1 1 1 1 1 1 1 1 1 1 1 1 1 1 1 1 1 1 1 1 1 1 1 1 1 1 1 1 1 1 1 1 1 1 1 1 1 1 1 1 1 1 1 1 1 1 1 1 1 1 1 1 1 1 1 1 1 1 1 1 1 1 1 1 1 1 1 1 1 1 1 1 1 1 1 1 1 1 1 1 1 1 1 1 1 1 1 1 1 1 1 1 1 1 1 1 1 1 1 1 1 1 1 1 1 1 1 1 1 1 1 1 1 1 1 1 1 1 1 1 1 1 1 1 1 1 1 1 1 1 1 1 1 1 1 1 1 1 1 1 1 1 1 1 1 1 1 1 1 1 1 1 1 1 1 1 1 1 1 1 1 1 1 1 1 1 1 1 1 1 1 1 1 1 1 1 1 1 1 1 1 1 1 1 1 1 1 1 1 1 1 1 1 1 1 1 1 1 1 1 1 1 1 1 1 1 1 1 1 1 1 1 1 1 1 1 1 1 1 1 1 1 1 1 1 1 1 1 1 1 1 1 1 1 1 1 1 1 1 1 1 1 1 1 1 1 1 1 1 1 1 1 1 1 1 1 1 1 1 1 1 1 1 1 1 1 1 1 1 1 1 1 1 1 1 1 1 1 1 1 1 1 1 1 1 1 1 1 1 1 1 1 1 1 1 1 1 1 1 1 1 1 1 1 1 1 1 1 1 1 1 1 1 1 1 1 1 1 1 1 1 1 1 1 1 1 1 1 1 1 1 1 1 1 1 1 1 1 1 1 1 1 1 1 1 1 1 1 1 1 1 1 1 1 1 1 1 1 1 1 1 1 1 1 1 1 1 1 1 1 1 1 1 1 1 1 1 1 1 1 1 1 1 1 1 1 1 1 1 1 1 1 1 1 1 1 1 1 1 1 1 1 1 1 1 1 1 1 1 1 1 1 1 1 1 1 1 1 1 1 1 1 1 1 1 1 1 1 1 1 1 1 1 1 1 1 1 1 1 1 1 1 1 1 1 1 1 1 1 1 1 1 1 1 1 1 1 1 1 1 1 1 1 1 1 1 1 1 1 1 1 1 1 1 1 1 1 1 1 1 1 1 1 1 1 1 1 1 1 1 1 1 1 1 1 1 1 1 1 1 1 1 1 1 1 1 1 1 1 1 1 1 1 1 1 1 1 1 1 1 1 1 1 1 1 1 1 1 1 1 1 1 1 1 1 
</DataArray>
<DataArray type="Float64" Name="stress" NumberOfComponents="9" format="ascii">
2.7469667648148183e-05 -1.9442947809481746e-05 0 -1.9442947809481746e-05 9.1565558827160634e-06 0 0 0 9.1565558827160634e-06 1.0003434167854601e-05 -2.7319837240522137e-05 0 -2.7319837240522137e-05 3.3344780559515336e-06 0 0 0 3.3344780559515336e-06 1.2713218611133792e-05 -3.5035067728665361e-05 0 -3.5035067728665361e-05 4.2377395370445995e-06 0 0 0 4.2377395370445995e-06 1.3566079983306191e-05 -3.9048444719088455e-05 0 -3.9048444719088455e-05 4.5220266611020659e-06 0 0 0 4.5220266611020659e-06 1.6654530286958069e-05 -3.6022469018774937e-05 0 -3.6022469018774937e-05 5.5515100956526829e-06 0 0 0 5.5515100956526829e-06 2.1973247464678579e-05 -4.2750523268542898e-05 0 -4.2750523268542898e-05 7.3244158215595307e-06 0 0 0 7.3244158215595307e-06 2.2101684557020889e-05 -3.9767905516900084e-05 0 -3.9767905516900084e-05 7.3672281856736297e-06 0 0 0 7.3672281856736297e-06 4.6340155277849274e-05 -5.0135075497779395e-05 0 -5.0135075497779395e-05 1.5446718425949754e-05 0 0 0 1.5446718425949754e-05 4.2324880232813013e-06 -3.3820456673488845e-05 0 -3.3820456673488845e-05 1.4108293410937671e-06 0 0 0 1.4108293410937671e-06 0.00023883012323391972 -9.2247881234597826e-06 0 -9.2247881234597826e-06 7.9610041077973249e-05 0 0 0 7.9610041077973249e-05 0.00028135650901137317 3.0747537999541491e-05 0 3.0747537999541491e-05 9.3785503003791042e-05 0 0 0 9.3785503003791042e-05 -8.8928365738496725e-06 3.306543157529061e-05 0 3.306543157529061e-05 -2.9642788579498818e-06 0 0 0 -2.9642788579498818e-06 5.6260552113201437e-05 2.428685357817493e-05 0 2.428685357817493e-05 1.8753517371067146e-05 0 0 0 1.8753517371067146e-05 3.7839139900448771e-05 5.4257765986153974e-05 0 5.4257765986153974e-05 1.2613046633482933e-05 0 0 0 1.2613046633482933e-05 3.9899531981299865e-05 4.4417453184539691e-05 0 4.4417453184539691e-05 1.3299843993766594e-05 0 0 0 1.3299843993766594e-05 4.6266927387641067e-05 4.7679064613751648e-05 0 4.7679064613751648e-05 1.5422309129213698e-05 0 0 0 1.5422309129213698e-05 2.894683318351108e-05 4.652785098150069e-05 0 4.652785098150069e-05 9.6489443945036932e-06 0 0 0 9.6489443945036932e-06 0.00012026375086665836 7.7795058537976952e-05 0 7.7795058537976952e-05 4.0087916955552813e-05 0 0 0 4.0087916955552813e-05 -0.0001687328251653449 3.2824291360589717e-05 0 3.2824291360589717e-05 -5.6244275055115022e-05 0 0 0 -5.6244275055115022e-05 0.0010213299446732473 -2.7746020500746e-05 0 -2.7746020500746e-05 0.0003404433148910824 0 0 0 0.0003404433148910824 0.008222527586919921 -0.0018031370774484435 0 -0.0018031370774484435 0.0074892161591816886 0 0 0 0.0039279359365254011 0.010134718944321108 -0.0017578753396062874 0 -0.0017578753396062874 0.014541484378742392 0 0 0 0.0061690508307658742 0.00024618723824708366 -0.0027147807819213922 0 -0.0027147807819213922 0.013707667171658666 0 0 0 0.0034884636024764375 0.001125913162898097 0.0013466253253925503 0 0.0013466253253925503 0.014812347255230156 0 0 0 0.003984565104532066 -0.023812964532370709 -0.0046146399427408101 0 -0.0046146399427408101 0.0019128434596750246 0 0 0 -0.0054750302681739211 -0.017720926016832495 0.0026904633439818406 0 0.0026904633439818406 0.0011154447904427166 0 0 0 -0.0041513703065974451 -0.026365553440690664 -0.0034363537601529931 0 -0.0034363537601529931 -0.00026507783565195243 0 0 0 -0.0066576578190856526 -0.019029050407654333 0.0020541701889981853 0 0.0020541701889981853 -0.00012424199715518371 0 0 0 -0.0047883231012023778 -0.035198651430204307 0.0021500275636755113 0 0.0021500275636755113 -0.000247699229887933 0 0 0 -0.0088615876650230633 -0.060724933159171761 -0.0049426228759751967 0 -0.0049426228759751967 -0.00035773849287250477 0 0 0 -0.015270667913011075 0.022097400676343568 -0.00030363837662288539 0 -0.00030363837662288539 -0.0039092466743745075 0 0 0 0.0045470385004922655 0.020482616557207185 -0.00054255709359985198 0 -0.00054255709359985198 -0.0039536553430018877 0 0 0 0.0041322403035513192 0.0034448196138578777 0.0052479553685879296 0 0.0052479553685879296 3.6554559980687962e-05 0 0 0 0.00087034354345964099 0.0077033328947546213 -0.0061233655646920132 0 -0.0061233655646920132 0.0025650824021202748 0 0 0 0.0025671038242187239 0.0019468746973272332 0.0059175840714915089 0 0.0059175840714915089 0.00064815275264485826 0 0 0 0.00064875686249302297 3.145755719825144e-05 -0.0055375838621880905 0 -0.0055375838621880905 0.010233005520077131 0 0 0 0.0025661157693188524 0.086953808430205032 0.039849580828606478 0 0.039849580828606478 0.077844887178094124 0 0 0 0.041199673902074775 0.003254559290432002 -0.0042028503751316837 0 -0.0042028503751316837 -0.0079234769520812875 0 0 0 -0.001167229415412363 0.0073386683968007516 0.0090977637371250086 0 0.0090977637371250086 -0.0054055359346025789 0 0 0 0.00048328311554968195 0.0060784852271362766 0.0050818372171061617 0 0.0050818372171061617 -0.0091860854435061867 0 0 0 -0.00077690005409247753 0.0045919833919629838 -0.0061581778787504473 0 -0.0061581778787504473 -0.0039112046473965822 0 0 0 0.00017019468614165589 0.0078835677189856845 0.01308872983175291 0 0.01308872983175291 -0.0013933338388527616 0 0 0 0.0016225584700332307 0.0036910094670337124 -0.0090348720216396616 0 -0.0090348720216396616 -0.0011480007499991007 0 0 0 0.00063575217925870842 0.0053632862700370518 0.0060079086660842652 0 0.0060079086660842652 -4.6065612820835392e-05 0 0 0 0.0013293051643040528 0.092131398321099053 -0.0048452814292051054 0 -0.0048452814292051054 0.045355996088564263 0 0 0 0.034371848602415822 -0.088219460506131012 0.0032276126514472758 0 0.0032276126514472758 0.0027756018608466326 0 0 0 -0.021360964661321105 -0.047526207404418222 -0.0008691309400360184 0 -0.0008691309400360184 0.001050070300589484 0 0 0 -0.011619034275957174 -0.013457516347629515 -0.006851318899173852 0 -0.006851318899173852 0.0083178355317448105 0 0 0 -0.0012849202039711821 -0.022305583565050649 0.0022661493999336026 0 0.0022661493999336026 0.022156269617631785 0 0 0 -3.7328486854740217e-05 -0.023705271484590291 -0.013002347429846467 0 -0.013002347429846467 0.0019546971654604076 0 0 0 -0.0054376435797824745 0.011322217246779688 -0.0042439858078781693 0 -0.0042439858078781693 0.020660138497054809 0 0 0 0.0079955889359586228 0.00074800279727241237 -0.011274808358054778 0 -0.011274808358054778 0.0024281244117915768 0 0 0 0.00079403180226597647 0.0069245713054917613 0.01557215444302984 0 0.01557215444302984 0.00047114616592514036 0 0 0 0.0018489293678541074 0.0065152514984849752 -0.012773521639408647 0 -0.012773521639408647 0.0034268679690575565 0 0 0 0.0024855298668856052 -0.0050833992479051293 0.018683269370701527 0 0.018683269370701527 -0.0011115334349240946 0 0 0 -0.0015487331707071395 -0.0090192981480299028 -0.015522563829438363 0 -0.015522563829438363 0.00052205852646381931 0 0 0 -0.00212430990539152 0.020881876034902006 -0.012975596500983769 0 -0.012975596500983769 0.025248199949446735 0 0 0 0.011532518996087189 -0.028503100408467597 -0.0020753742740880973 0 -0.0020753742740880973 0.0046391674984736508 0 0 0 -0.0059659832274984725 0.14498398861902753 0.040405867455408424 0 0.040405867455408424 0.030970003342741914 0 0 0 0.043988497990442327 0.037265391639184742 0.0025324725882377164 0 0.0025324725882377164 -0.0020981174269911196 0 0 0 0.0087918185530484194 0.057361991194807671 -0.0045597217641605917 0 -0.0045597217641605917 0.0091352353020868193 0 0 0 0.016624306624223595 0.014135732568142635 -0.0052297168751521874 0 -0.0052297168751521874 0.029783707908431649 0 0 0 0.010979860119143574 0.041118682980593957 -0.0024698980256551706 0 -0.0024698980256551706 0.032822730694574087 0 0 0 0.018485353418791983 -0.0065179515753148731 0.0045118298884965213 0 0.0045118298884965213 -0.0014383756209785936 0 0 0 -0.0019890817990735332 0.012127515307459619 -0.0041037274806823201 0 -0.0041037274806823201 -0.00069842702988117018 0 0 0 0.0028572720693946117 0.0071213599526506422 0.0062317751292977168 0 0.0062317751292977168 0.00068364426019146968 0 0 0 0.0019512510532105278 -0.0057174613690863171 0.018577962496701184 0 0.018577962496701184 0.023421011797947311 0 0 0 0.0044258876072152606 0.00036676094884361896 0.013170943814831082 0 0.013170943814831082 0.017470923644452102 0 0 0 0.0044594211483239103 0.084705294980380069 0.053202334727408734 0 0.053202334727408734 0.090861185752256643 0 0 0 0.043891620183159175 -0.0090189079462404433 0.0074742682798132343 0 0.0074742682798132343 0.0020169483783169379 0 0 0 -0.0017504898919807367 0.029626043599640023 -0.011375858553832108 0 -0.011375858553832108 0.024431661495022378 0 0 0 0.013514426273665642 0.011737821722082736 0.0011689222050407927 0 0.0011689222050407927 -0.0035694712342267954 0 0 0 0.0020420876219639783 0.011322975820059067 -0.0047261567390494029 0 -0.0047261567390494029 0.023277869588559062 0 0 0 0.0086502113521545309 0.013840153581280101 -0.0072599818957099632 0 -0.0072599818957099632 0.0065720703575996298 0 0 0 0.0051030559847199189 0.023429736052985511 0.00070862382041039784 0 0.00070862382041039784 0.0070453263140508593 0 0 0 0.0076187655917590857 -0.046953395438701584 0.0061778426842936107 0 0.0061778426842936107 -0.00085879822448220455 0 0 0 -0.011953048415795919 -0.0062671204681780668 -0.0046785480965002013 0 -0.0046785480965002013 0.0013210411513595588 0 0 0 -0.0012365198292045854 0.05706297855344622 0.012674604832685343 0 0.012674604832685343 0.04735298554939904 0 0 0 0.026103991025711148 0.054918784486417127 -0.008883702702721874 0 -0.008883702702721874 0.044017301036364254 0 0 0 0.024734021380695359 -0.0064887920191520898 0.0039046837998139884 0 0.0039046837998139884 0.0015482394159560542 0 0 0 -0.0012351381507991199 0.010335004000719517 -0.0065321754109457647 0 -0.0065321754109457647 0.00016913220982128774 0 0 0 0.0026260340526352288 0.026026133099912471 -0.020132418412288161 0 -0.020132418412288161 0.03547756366444025 0 0 0 0.015375924191088176 0.0083661212831448173 -0.0051261874736453772 0 -0.0051261874736453772 0.0022782871540181215 0 0 0 0.0026611021092907416 0.018942722705816331 -0.0015273432283428798 0 -0.0015273432283428798 0.0029939738152355844 0 0 0 0.0054841741302629615 -0.0031909692394301858 -0.010658243475035474 0 -0.010658243475035474 0.0048374046845613972 0 0 0 0.00041160886128280283 -0.015102448566240177 0.0038087426327599407 0 0.0038087426327599407 -0.0012680668686591429 0 0 0 -0.00409262885872483 -0.019740357714576842 -0.0064674460064899145 0 -0.0064674460064899145 -0.0017208723021987782 0 0 0 -0.0053653075041939042 0.019427186121799344 -0.0074427915814647139 0 -0.0074427915814647139 -0.022465844355272595 0 0 0 -0.00075966455836833286 0.029181811668745394 0.0095297780995379777 0 0.0095297780995379777 -0.018325323856904885 0 0 0 0.0027141219529601135 -0.010041972091572152 -0.0089538399468567908 0 -0.0089538399468567908 -0.0025088298506283947 0 0 0 -0.0031377004855501376 -0.0096187360137331319 0.0058732036850317696 0 0.0058732036850317696 -0.0017374156831975063 0 0 0 -0.0028390379242326591 0.018245169672726151 -0.0022917983512206848 0 -0.0022917983512206848 -0.0029683407261929737 0 0 0 0.0038192072366332952 -0.019371454013195146 0.0032883288164374325 0 0.0032883288164374325 0.00081136586841707987 0 0 0 -0.0046400220361945176 -0.026620154737786849 -0.0058278022282868538 0 -0.0058278022282868538 0.0014313123452198706 0 0 0 -0.006297210598141742 0.014337571655691647 -0.0056520647028922878 0 -0.0056520647028922878 0.0028803685794510092 0 0 0 0.0043044850587856537 0.01366524171553582 -0.0073697239530782291 0 -0.0073697239530782291 0.0065401635799904184 0 0 0 0.0050513513238815561 0.070542093353127971 -0.0024459507022165372 0 -0.0024459507022165372 0.060268045026584172 0 0 0 0.032702534594928084 -0.0046630218904563578 -0.0029990191712349068 0 -0.0029990191712349068 -0.0010557272116402672 0 0 0 -0.0014296872755241649 0.013286080545556356 -0.0058958884968651482 0 -0.0058958884968651482 0.0024118927655181199 0 0 0 0.0039244933277686189 0.012656881263758978 0.0011182707590733781 0 0.0011182707590733781 0.0020128555938444814 0 0 0 0.0036674342144008935 -0.011090756187301598 0.019286261096906565 0 0.019286261096906565 0.002409447460228975 0 0 0 -0.002170327181768128 -0.015847069126125927 -0.0069403204652764526 0 -0.0069403204652764526 -0.0052841718675313122 0 0 0 -0.0052828102484143097 -0.012950287584221247 0.0044236890147085362 0 0.0044236890147085362 -0.0043177744452939119 0 0 0 -0.0043170155073787905 0.01439688532536294 -0.0050806183853524551 0 -0.0050806183853524551 -0.0055255769539486171 0 0 0 0.0022178270928535802 0.008818992714972107 0.010990299641143508 0 0.010990299641143508 0.00045112617153364454 0 0 0 0.0023175297216262436 0.0037579998565185901 -0.0094052226900315783 0 -0.0094052226900315783 -0.0011194674457492004 0 0 0 0.00065963310269234743 0.00540076188813568 -0.0087852821890657129 0 -0.0087852821890657129 0.003600162293858844 0 0 0 0.0022502310454986241 0.017505070047389697 0.0019173466159353517 0 0.0019173466159353517 -0.0017858168492796932 0 0 0 0.0039298132995274982 0.00095325577813858055 -0.010661065764467948 0 -0.010661065764467948 -0.0032692293832500934 0 0 0 -0.00057899340127787625 0.018162977944033029 -0.00029131555803679223 0 -0.00029131555803679223 0.0029140684038496678 0 0 0 0.0052692615869706916 0.020132300659741517 0.0020991585425482449 0 0.0020991585425482449 -0.00088485183381406627 0 0 0 0.0048118622064818603 0.016166813787069082 0.0035007546356868265 0 0.0035007546356868265 -0.00042721184669516216 0 0 0 0.00393490048509348 0.015636053908960154 0.0032137654147302457 0 0.0032137654147302457 0.00069441304210905198 0 0 0 0.0040826167377673011 0.013730649806087292 -0.0056368595310591491 0 -0.0056368595310591491 0.0073908847343061301 0 0 0 0.0052803836350983901 0.017832157843110458 -0.0098071395501587166 0 -0.0098071395501587166 0.013100264406752507 0 0 0 0.0077331055624657447 0.014649156944754327 -0.00051865138780245179 0 -0.00051865138780245179 0.0013943847488716576 0 0 0 0.0040108854234065239 0.01437293872464851 -0.0052058249085885095 0 -0.0052058249085885095 0.030883194274102209 0 0 0 0.011314033249687678 0.096076098731253889 0.0091695660011090752 0 0.0091695660011090752 0.079778649810887448 0 0 0 0.043963687135535334 -0.0040442579186753536 -0.0024104194220521125 0 -0.0024104194220521125 0.00094057642054212742 0 0 0 -0.00077592037453333429 -0.01009043230217832 -0.0030454810704767955 0 -0.0030454810704767955 -0.0010751265426198753 0 0 0 -0.0027913897111995212 0.081276309040142269 -0.00015180280241644528 0 -0.00015180280241644528 0.07484081216012628 0 0 0 0.039029280300066915 0.020963352067114888 0.0099140637451578945 0 0.0099140637451578945 0.038560432577979593 0 0 0 0.014880946161273629 0.011212142721362017 0.0049748610012081357 0 0.0049748610012081357 4.7109972323332999e-05 0 0 0 0.0028148131734213391 0.0082736504934580145 0.0051387372374864411 0 0.0051387372374864411 0.00027332023874935413 0 0 0 0.0021367426830518422 0.046887280926438901 0.010920890150575457 0 0.010920890150575457 0.013567287929888261 0 0 0 0.015113642214081846 0.039997508636958334 0.015947930858532466 0 0.015947930858532466 0.011273769503000297 0 0 0 0.012817819534989727 0.015376291467843042 -0.0092466418808976464 0 -0.0092466418808976464 0.012690313838111533 0 0 0 0.0070166513264886335 0.010180940013103823 0.0029041861558883053 0 0.0029041861558883053 -0.022302975604028108 0 0 0 -0.0030305088977310435 0.0069057082695057337 -0.0041942690955034355 0 -0.0041942690955034355 -0.022865470871992755 0 0 0 -0.0039899406506217761 0.015040038188678842 0.0061198686894037126 0 0.0061198686894037126 0.025331315619918818 0 0 0 0.010092838452149408 -0.015883477238504806 0.0047434010910444085 0 0.0047434010910444085 -0.0016285529706658863 0 0 0 -0.0043780075522927842 0.044196063632321425 -0.0038246465643491101 0 -0.0038246465643491101 0.040150406265804017 0 0 0 0.021086617474531444 -0.030074611287137787 0.0019635425012880844 0 0.0019635425012880844 0.00041148667605133923 0 0 0 -0.0074157811527716111 -0.04876228956916389 -0.0046110772035593932 0 -0.0046110772035593932 0.00055307969712728444 0 0 0 -0.012052302468009136 0.024735123862667893 -0.0085303337143507948 0 -0.0085303337143507948 0.0060996793309071873 0 0 0 0.0077087007983937597 0.063322711463940584 -0.01856678830206944 0 -0.01856678830206944 0.017694658540301361 0 0 0 0.020254342501060493 0.018669979040457765 -0.0044180437980756437 0 -0.0044180437980756437 0.0024554454169277151 0 0 0 0.0052813561143463666 0.018303956465601456 -0.0073646279311702159 0 -0.0073646279311702159 0.0049087812710295747 0 0 0 0.0058031844341577682 0.0099229076897489783 -0.0037424159690616632 0 -0.0037424159690616632 -0.012871960507526042 0 0 0 -0.00073726320444426636 0.00083372747335674902 0.0050699926511184046 0 0.0050699926511184046 -0.015044328357531001 0 0 0 -0.0035526502210434519 0.015566334277570482 0.0048908629350059574 0 0.0048908629350059574 -0.018137049047398879 0 0 0 -0.00064267869245715481 0.00031490232974378766 -0.0035623575990976208 0 -0.0035623575990976208 -0.010040004198746583 0 0 0 -0.0024312754672506992 0.0010751288312896082 0.0057037118306922929 0 0.0057037118306922929 0.029593956830432477 0 0 0 0.0076672714154305197 0.0088232408223195696 -0.0073394841765812707 0 -0.0073394841765812707 0.0049386717269805369 0 0 0 0.0034404781373250232 0.019619953316142764 -0.0033747302467782986 0 -0.0033747302467782986 0.0029380579222829384 0 0 0 0.0056395028096064325 0.016589756153345264 -0.0027156199646252571 0 -0.0027156199646252571 0.0027749087572986469 0 0 0 0.004841166227661009 0.017631691174863906 -0.0095038408725975528 0 -0.0095038408725975528 0.0058913290641920968 0 0 0 0.0058807550597640146 -0.060554704788104957 0.0064241937578956576 0 0.0064241937578956576 0.001158885546358901 0 0 0 -0.014848954810436438 -0.0086871891566649359 0.0042202712450812932 0 0.0042202712450812932 0.0066001157014537321 0 0 0 -0.00052176836380279923 -0.0028263065717708952 0.00081029330769119383 0 0.00081029330769119383 0.0060738414832430809 0 0 0 0.00081188372786805685 0.0076293258009464404 -0.0036060274021899874 0 -0.0036060274021899874 -0.0077876632655029532 0 0 0 -3.9584366139114313e-05 -0.047807784561567146 0.011461703089701625 0 0.011461703089701625 0.0016634503646959509 0 0 0 -0.011536083549217813 -0.024083527907198345 0.0055419555723101241 0 0.0055419555723101241 0.0018764187243810321 0 0 0 -0.0055517772957043212 -0.026759393672721624 0.0016269140561637856 0 0.0016269140561637856 0.0014308778360867108 0 0 0 -0.0063321289591587275 -0.045366084362103334 -0.0047633533575354541 0 -0.0047633533575354541 0.0033635124290043172 0 0 0 -0.010500642983274765 -0.039975493931702813 -0.012976288030997162 0 -0.012976288030997162 0.0045776072161036185 0 0 0 -0.0088494716788997951 0.0085753163918922369 -0.0068429496403018125 0 -0.0068429496403018125 0.0037905795620915908 0 0 0 0.0030914739884959595 -0.035098250171872597 -0.0025842093035179925 0 -0.0025842093035179925 0.00071559933922651919 0 0 0 -0.0085956627081615333 0.045244926251214179 0.024135075236441539 0 0.024135075236441539 0.010061748337157561 0 0 0 0.013826668647092921 0.007959905251404607 -0.003634065228854455 0 -0.003634065228854455 0.021866396469959821 0 0 0 0.0074565754303411082 0.021913833317491763 0.0072808357784412622 0 0.0072808357784412622 0.0071631918249301669 0 0 0 0.0072692562856054846 -0.01322800078936659 0.014123719851895755 0 0.014123719851895755 5.9194969208253845e-05 0 0 0 -0.0032922014550395007 0.016085905366453601 -0.012052501824940443 0 -0.012052501824940443 0.0063513384211312807 0 0 0 0.0056093109468962066 0.017977363202690801 -0.0094377757305658602 0 -0.0094377757305658602 0.01355434205302228 0 0 0 0.0078829263139282672 0.0053534684527229426 -0.004008561126216989 0 -0.004008561126216989 -0.0086457444765940528 0 0 0 -0.00082306900596779142 0.014651196449398857 -0.0036707520781514014 0 -0.0036707520781514014 0.0025141789029513584 0 0 0 0.0042913438380875607 0.0082660619616978272 -0.0067989664596983523 0 -0.0067989664596983523 -0.0019283623746734826 0 0 0 0.001584424896756087 0.0035069870434205528 0.0070284184235745494 0 0.0070284184235745494 0.00011425061232123168 0 0 0 0.00090530941393544666 0.0071857750041555059 -0.011204951659435691 0 -0.011204951659435691 0.0073450059453588346 0 0 0 0.0036326952373785717 -5.8626448399413944e-05 -0.014015839572802929 0 -0.014015839572802929 -0.0025927478501370574 0 0 0 -0.00066284357463411436 -0.0098124308635426233 -0.01057507959320401 0 -0.01057507959320401 0.0081309573403003377 0 0 0 -0.00042036838081058181 0.016592549425976266 -0.0021122253355373242 0 -0.0021122253355373242 -0.0028129525568421953 0 0 0 0.0034448992172835188 0.017660293858666007 -0.0007358274000215327 0 -0.0007358274000215327 -0.00068121820439794641 0 0 0 0.0042447689135670158 0.011226787848500962 0.0043829214407673615 0 0.0043829214407673615 0.0006923764917949448 0 0 0 0.0029797910850739781 0.010892126206114856 0.0051496830438038342 0 0.0051496830438038342 -2.6753417657390463e-05 0 0 0 0.0027163431971143665 -0.0044612261221955302 -0.013034254266623167 0 -0.013034254266623167 0.0076601071734433493 0 0 0 0.00079972026281195652 0.018923155640689183 0.0064406652688693469 0 0.0064406652688693469 0.0065299452662101083 0 0 0 0.0063632752267248228 0.02129966764230818 -0.0035292272322264527 0 -0.0035292272322264527 -0.0046822436855984036 0 0 0 0.0041543559891774441 0.010563119177567082 -0.012967330711702222 0 -0.012967330711702222 -0.0035646876351054513 0 0 0 0.0017496078856154059 0.017825548853663113 0.0081622490181978459 0 0.0081622490181978459 0.020082951861460092 0 0 0 0.0094771251787808021 0.0047745147535585477 0.003609244718421889 0 0.003609244718421889 0.0013353956116803865 0 0 0 0.0015274775913097366 0.0063406142356904087 0.0044826213054247385 0 0.0044826213054247385 0.0025233773779221071 0 0 0 0.0022159979034031283 -0.015844138679321971 -0.006942809131662636 0 -0.006942809131662636 -0.0052747200273165719 0 0 0 -0.005279714676659635 -0.012948381557512212 0.0044258648583026796 0 0.0044258648583026796 -0.004311484239296808 0 0 0 -0.0043149664492022543 0.075845643517793798 0.01077042255476876 0 0.01077042255476876 0.0173106202712432 0 0 0 0.023289065947259234 0.011671274162414143 0.0044769059130269585 0 0.0044769059130269585 0.0015173159283769673 0 0 0 0.0032971475226977768 0.0031051771171607817 -0.0023474679905805037 0 -0.0023474679905805037 0.02383509617772471 0 0 0 0.0067350683237213799 0.005760467455374077 -0.001645346487636673 0 -0.001645346487636673 -0.016346127803871791 0 0 0 -0.002646415087124418 -0.025821781832059066 0.0026944146217071432 0 0.0026944146217071432 0.00072042356373656739 0 0 0 -0.0062753395670806286 -0.041223927070128029 -0.0051284368479153977 0 -0.0051284368479153977 0.00068307155963148129 0 0 0 -0.01013521387762413 0.0093648629060145705 -0.0029068198080747787 0 -0.0029068198080747787 0.0012686031414519058 0 0 0 0.0026583665118666278 -0.020103712110529848 0.0059454267837382984 0 0.0059454267837382984 0.00052986477567154436 0 0 0 -0.0048934618337145817 -0.021267397279083215 -0.01641250754448385 0 -0.01641250754448385 -0.0016315792997733097 0 0 0 -0.0057247441447141291 -0.02278451635660339 0.0041376375018770803 0 0.0041376375018770803 -0.0003848844044099832 0 0 0 -0.0057923501902533477 -0.0020207477573077897 0.0054101154444965993 0 0.0054101154444965993 0.00026802274237047599 0 0 0 -0.0004381812537343302 0.0080412180881253466 -0.0089566166811150278 0 -0.0089566166811150278 -0.0031301792130851713 0 0 0 0.0012277597187600464 -0.0064506535524432706 -0.014507972968922082 0 -0.014507972968922082 0.0022909917491523435 0 0 0 -0.0010399154508227305 0.007454258539198122 -0.006891416236469855 0 -0.006891416236469855 0.0042967545297512011 0 0 0 0.0029377532672373308 0.034181061862452511 0.011121936210003347 0 0.011121936210003347 0.011898348508390111 0 0 0 0.0115198525927106 -0.0097682764271234679 -0.0082927878499994834 0 -0.0082927878499994834 -0.00064442229933536765 0 0 0 -0.002603174681614806 0.015794735506923185 -0.0026331987862032221 0 -0.0026331987862032221 0.00074383919092740544 0 0 0 0.0041346436744626475 0.0083674790212897032 0.0047176199974412417 0 0.0047176199974412417 0.0013821600389453247 0 0 0 0.0024374097650587583 0.0034999832002064121 -0.0086918052162033525 0 -0.0086918052162033525 -0.0022709940286161044 0 0 0 0.00030724729289757606 -0.00037219922067342672 0.0074141453032743002 0 0.0074141453032743002 -0.00059975720919526812 0 0 0 -0.00024298910746717306 0.0043985168994186974 -0.002783021793842079 0 -0.002783021793842079 0.0070023367328716918 0 0 0 0.0028502134080726008 0.0030546707926516307 -0.0071471865427688644 0 -0.0071471865427688644 0.0082657683705727181 0 0 0 0.0028301097908060881 -0.00019069499618251662 0.01790466393674639 0 0.01790466393674639 0.0063107822459366192 0 0 0 0.0015300218124384979 0.026038088267681281 0.027711735756853074 0 0.027711735756853074 0.017543398507088415 0 0 0 0.010895371693692396 0.050844679000127603 -0.0023842381705073239 0 -0.0023842381705073239 0.016137093088989279 0 0 0 0.016745443022279226 0.0021030407353611197 -0.00086770258190337068 0 -0.00086770258190337068 0.020105790450410076 0 0 0 0.0055522077964427971 0.018617864457665469 0.0011832138602335326 0 0.0011832138602335326 -0.0028955762220501599 0 0 0 0.0039305720589038248 0.0083417098098896442 -0.007207046911333552 0 -0.007207046911333552 0.0032489444428930314 0 0 0 0.0028976635631956654 -0.010883771025107236 0.017517333684672065 0 0.017517333684672065 -0.00059041553437588767 0 0 0 -0.0028685466398707948 0.016794195577506721 -0.0067080063868253798 0 -0.0067080063868253798 0.016200070427116575 0 0 0 0.0082485665011558518 0.0066188959042405432 -0.0007053908223527694 0 -0.0007053908223527694 -0.0017233673499558733 0 0 0 0.0012238821385711779 0.0070240300119240057 0.0049799814383526585 0 0.0049799814383526585 3.3871160449741589e-05 0 0 0 0.0017644752930934364 -0.0086945217970039734 -0.0021005367343686215 0 -0.0021005367343686215 0.017972939033338853 0 0 0 0.0023196043090837337 -0.024007538170889391 0.0016328467006311539 0 0.0016328467006311539 -0.00079072886016292449 0 0 0 -0.0061995667577630763 -0.034966229579254236 -0.0028404001268206858 0 -0.0028404001268206858 -0.0014852972747090507 0 0 0 -0.0091128817134908183 0.019922372246430189 -0.0050944862485467514 0 -0.0050944862485467514 0.0028853269562947592 0 0 0 0.0057019248006812268 -0.0043685306660827643 0.0057277292867759727 0 0.0057277292867759727 -0.00028819220331115225 0 0 0 -0.00116418071734848 0.00028328011252691651 -0.0079439648984508445 0 -0.0079439648984508445 -0.0031428399825497557 0 0 0 -0.0007148899675057112 -0.064589362661893024 -0.0020787013418150091 0 -0.0020787013418150091 0.0025132696968443446 0 0 0 -0.01551902324126217 -0.035814723410059507 0.0012366341942525103 0 0.0012366341942525103 0.0008133164729085679 0 0 0 -0.0087503517342877486 0.036754979073850294 0.0054248564771655489 0 0.0054248564771655489 0.041887971955499537 0 0 0 0.019660737757337465 0.060477788690743155 -0.0026972740287852862 0 -0.0026972740287852862 0.10943699982528567 0 0 0 0.042478697129007197 0.0041889207143621723 -0.010976926139797588 0 -0.010976926139797588 0.0078756245463490193 0 0 0 0.0030161363151777962 -0.0048802684612977154 -0.0085671627046761262 0 -0.0085671627046761262 0.0065653235852276004 0 0 0 0.00042126378098247819 0.020906920657506291 -0.011541342613253862 0 -0.011541342613253862 0.021374332652295991 0 0 0 0.010570313327450575 0.0015040778211443395 -0.0041825256175353764 0 -0.0041825256175353764 -0.019964462520521531 0 0 0 -0.0046150961748443048 0.017696323253020896 -0.0019963572304510452 0 -0.0019963572304510452 -0.0047128802381643867 0 0 0 0.0032458607537141282 -0.013543093560397304 0.00162589189005094 0 0.00162589189005094 0.0042770712517516407 0 0 0 -0.0023165055771614124 0.0059800853143982535 -0.0031991556946381547 0 -0.0031991556946381547 -0.028083293925356911 0 0 0 -0.0055258021527396228 -0.055602847877225199 0.0022194206332571409 0 0.0022194206332571409 0.00092947219354314048 0 0 0 -0.013668343920920487 -0.004446368537287082 0.012789285409476325 0 0.012789285409476325 -0.00031307629249610613 0 0 0 -0.0011898612074459081 0.0098892220092769989 -0.010537317816790737 0 -0.010537317816790737 0.0047678636717307654 0 0 0 0.0036642714202518856 0.013287358202463795 0.0044391974183923804 0 0.0044391974183923804 0.0057418788955875492 0 0 0 0.0047573092745128382 -0.00056451819751214549 -0.005445567098289833 0 -0.005445567098289833 0.0077286209049728938 0 0 0 0.0017910256768651905 0.021317726834743117 0.0040907735015225264 0 0.0040907735015225264 -0.0002049813844731737 0 0 0 0.0052781863625674819 0.023516033602111731 0.0053613182942380266 0 0.0053613182942380266 0.0021960915061432738 0 0 0 0.0064280312770637503 -0.0075739411541749652 -0.013023494255382195 0 -0.013023494255382195 -0.0019162008269895392 0 0 0 -0.0023725354952911261 -0.003945822931270021 -0.0092079823018281215 0 -0.0092079823018281215 0.0017134131567828614 0 0 0 -0.00055810244362181072 -0.02581108557176106 -0.010255896837360765 0 -0.010255896837360765 -0.00282896104084286 0 0 0 -0.0071600116531509786 0.0099755199966776731 0.019343254526660525 0 0.019343254526660525 0.0022960049611007172 0 0 0 0.0030678812394444588 0.0076363774887167266 0.016300500716522892 0 0.016300500716522892 0.0020282074694414343 0 0 0 0.0024161462395395281 0.0071449420256176621 0.017104842166881573 0 0.017104842166881573 0.0020309963983904389 0 0 0 0.002293984606001942 -0.0023068909108963365 -0.012061424325284426 0 -0.012061424325284426 0.0026073775700834467 0 0 0 7.5121664796784504e-05 -0.0040008805757146878 -0.0088575119823809945 0 -0.0088575119823809945 0.0018822984843695333 0 0 0 -0.00052964552283627474 0.052314582534925255 0.014103776341771243 0 0.014103776341771243 0.021393944717979133 0 0 0 0.018427131813226104 0.015558522102569649 -0.0020460476048747688 0 -0.0020460476048747688 0.0051815135200065452 0 0 0 0.0051850089056440481 0.0099764016242309354 0.0047310121507858167 0 0.0047310121507858167 0.0033234139118806347 0 0 0 0.0033249538840278928 0.013603476085329903 0.0046749298058761327 0 0.0046749298058761327 0.0019694973328108628 0 0 0 0.0038932433545351931 0.018946120238124441 -0.0035723979407410456 0 -0.0035723979407410456 0.030442334047695752 0 0 0 0.01234711357145505 -0.014086988220620798 -0.014600980218357606 0 -0.014600980218357606 -0.0014668759266883956 0 0 0 -0.0038884660368272983 0.014651762241025684 0.0019968372468769265 0 0.0019968372468769265 0.0013645834029141057 0 0 0 0.0040040864109849479 -0.036566029172940273 -0.0037643692455677485 0 -0.0037643692455677485 -0.0021906543454406368 0 0 0 -0.0096891708795952217 -0.02424235893953906 0.0019167416972423607 0 0.0019167416972423607 -0.0010211019128522 0 0 0 -0.0063158652130978175 -0.032052247163777775 -0.000200593353587665 0 -0.000200593353587665 0.00087400088687789035 0 0 0 -0.0077945615692249781 0.013685544047747749 0.0040494843624409079 0 0.0040494843624409079 -0.0001664723409887936 0 0 0 0.0033797679266897394 0.01034999190195585 -0.0062502299459522848 0 -0.0062502299459522848 0.0089708080970841014 0 0 0 0.00483019999975998 0.014998030685650076 0.006312511503702131 0 0.006312511503702131 0.014032911310928674 0 0 0 0.0072577354991446835 0.026152097771133833 0.016132712555912809 0 0.016132712555912809 0.0041584150175736564 0 0 0 0.0075776281971768576 0.019898310703622347 0.00060834322283179719 0 0.00060834322283179719 -0.0019160934585976941 0 0 0 0.0044955543112561638 -0.0020493664608904893 0.012232178921920744 0 0.012232178921920744 -0.0021893404304234032 0 0 0 -0.0010596767228284731 0.010136125263631945 -0.010044242758248834 0 -0.010044242758248834 0.0011586620426977667 0 0 0 0.0028236968265823448 0.013823817205957026 0.0043343345208984056 0 0.0043343345208984056 -8.213906376185881e-05 0 0 0 0.0034354195355487931 0.0095082508509018535 0.0034454166350748414 0 0.0034454166350748414 0.018588180906426558 0 0 0 0.0070241079393321025 0.021473691213871104 0.010846302749747821 0 0.010846302749747821 -4.0034422846169093e-05 0 0 0 0.0053584141977560673 -0.0014328181860205902 0.0095108941521833135 0 0.0095108941521833135 -0.0076180826186509343 0 0 0 -0.0022627252011679921 -0.0013582694771528958 -0.0067900833174828618 0 -0.0067900833174828618 -0.0057827092434572513 0 0 0 -0.001785244680152509 0.01304078720430335 -0.0088351047735010235 0 -0.0088351047735010235 -0.0010924761392554494 0 0 0 0.0029870777662619474 -0.024495827488579404 -0.00617516849149502 0 -0.00617516849149502 0.0084330283777874215 0 0 0 -0.0040156997776979869 -0.018893333877341441 -0.0043971196142883751 0 -0.0043971196142883751 0.0029844783639676603 0 0 0 -0.0039772138783434399 -0.026989117211183779 -0.0047075486302354183 0 -0.0047075486302354183 0.0032912855993647017 0 0 0 -0.0059244579029547675 -0.044154106754402622 0.012460426138949224 0 0.012460426138949224 0.0082404909270139548 0 0 0 -0.0089784039568471807 -0.027755138641533478 0.011641347389077163 0 0.011641347389077163 0.0073712017037110278 0 0 0 -0.0050959842344556194 0.0077874737260558539 0.0046349405336232243 0 0.0046349405336232243 5.2424069711118522e-05 0 0 0 0.0019599744489417412 0.085154540482404367 0.013427116495765215 0 0.013427116495765215 0.017432144307478969 0 0 0 0.025646671197470799 -0.0085447417725708734 -0.0089124652913268061 0 -0.0089124652913268061 -0.0031369836431522982 0 0 0 -0.0029204313539307903 -0.0092174710269412145 0.0057546864815898558 0 0.0057546864815898558 -0.00096611948842373341 0 0 0 -0.002545897628841237 0.0055345100756814796 -0.002636162554942003 0 -0.002636162554942003 0.014950199166700096 0 0 0 0.0051211773105953855 -0.00085882187264487157 0.0065061042475358065 0 0.0065061042475358065 -0.00061844156418688727 0 0 0 -0.00036931585920794052 0.0056344563671368048 -0.0093208738943412594 0 -0.0093208738943412594 -0.0056587062209233763 0 0 0 -6.0624634466432958e-06 -0.028025765199998973 -0.012723177919100829 0 -0.012723177919100829 0.00026662763227244118 0 0 0 -0.0069397843919316391 -0.028026587856430325 -0.011797847923137331 0 -0.011797847923137331 -0.0007161918506274343 0 0 0 -0.0071856949267644363 0.026055618489947197 0.014508351608782916 0 0.014508351608782916 0.010837926112249097 0 0 0 0.0092233861505490733 -0.0029889174148716724 -0.009157101340717691 0 -0.009157101340717691 0.0010862326429392777 0 0 0 -0.0004756711929830848 0.021404015165637984 -0.00204565505179366 0 -0.00204565505179366 -0.041410613397416134 0 0 0 -0.0050016495579445095 0.013705713241484618 0.00063373381560954956 0 0.00063373381560954956 -0.039732247959811229 0 0 0 -0.0065066336795816526 -0.00059208205667956974 0.004917247449547836 0 0.004917247449547836 0.0013334786315534544 0 0 0 0.000185349143718469 0.031218770588440553 -0.0050721820356222636 0 -0.0050721820356222636 0.035035487696563505 0 0 0 0.016563564571251035 0.057095478583719828 0.003260823199284113 0 0.003260823199284113 0.064558527653766185 0 0 0 0.030413501559371531 0.020468891331325862 0.0040155562483918661 0 0.0040155562483918661 0.0024816934431926563 0 0 0 0.0057376461936296148 -0.02339511387399754 -7.0622323248500235e-05 0 -7.0622323248500235e-05 0.0029419784182102698 0 0 0 -0.0051132838639468062 0.0031013388452832136 0.0011001973688889166 0 0.0011001973688889166 -0.030517328187010417 0 0 0 -0.006853997335431794 -0.028135440448885191 -0.017114856043000816 0 -0.017114856043000816 0.0022525596682031815 0 0 0 -0.0064707201951705005 0.013515702850895782 0.0040847758135076594 0 0.0040847758135076594 0.0047383194384448338 0 0 0 0.0045635055723351565 -0.0072400441079897848 -0.0073208341722721879 0 -0.0073208341722721879 0.0093287198835005636 0 0 0 0.00052216894387768775 -0.0043923781019796632 -0.0045971596274358567 0 -0.0045971596274358567 0.0082454257754779325 0 0 0 0.00096326191837456387 -0.0016883506830908069 0.0064900664831395224 0 0.0064900664831395224 -0.00011491289953693799 0 0 0 -0.00045081589565693688 -0.016863513860266091 -0.0024954924461381769 0 -0.0024954924461381769 0.0045450817266584898 0 0 0 -0.0030796080334018969 -0.0050348978584170145 0.0051376649559288154 0 0.0051376649559288154 0.00073476945841127739 0 0 0 -0.0010750321000014308 0.0086654386433374676 -0.0098429786217851742 0 -0.0098429786217851742 -0.0068424221248632316 0 0 0 0.00045575412961855466 -0.025545848453672276 0.00059796977916742183 0 0.00059796977916742183 0.0039216058323619518 0 0 0 -0.0054060606553275881 -0.045529472155270811 -0.00073956114385229088 0 -0.00073956114385229088 0.013576624404796192 0 0 0 -0.0079882119376186445 -0.0095404979106000279 -0.0094824203109928114 0 -0.0094824203109928114 -0.0013160943932820079 0 0 0 -0.0027141480759705081 -0.0091587659555662053 0.0064499059708988133 0 0.0064499059708988133 -0.00070190683631134176 0 0 0 -0.0024651681979693868 -0.0062254708439511263 0.0070945829485366384 0 0.0070945829485366384 -0.00040661396771430203 0 0 0 -0.0016580212029163547 -0.0023208329990090024 -0.012874460518632683 0 -0.012874460518632683 -0.0052802168379804323 0 0 0 -0.0019002624592473587 0.014510023272536959 -0.0048852822470944286 0 -0.0048852822470944286 -0.0040706336686787137 0 0 0 0.0026098474009645647 0.018943753993765945 -0.010894760420643509 0 -0.010894760420643509 0.017205600727851073 0 0 0 0.0090373386804042666 0.021927670610996701 0.0020255939743997319 0 0.0020255939743997319 -0.0021658429104483741 0 0 0 0.0049404569251370826 -0.003388449969064955 0.013810406882348358 0 0.013810406882348358 0.00026351911964317409 0 0 0 -0.00078123271235541747 0.013686751278364551 -0.012472980638183251 0 -0.012472980638183251 0.0055722368069202055 0 0 0 0.0048147470213211752 -0.0050903032524436034 0.0068899175309004666 0 0.0068899175309004666 -0.0005909582975697214 0 0 0 -0.0014203153875033316 0.00062887101521980743 -0.011132441526398636 0 -0.011132441526398636 -0.0060382724105825262 0 0 0 -0.0013523503488406775 0.018361486599398128 0.0039159394419702644 0 0.0039159394419702644 -5.7759284986606471e-05 0 0 0 0.0045759318286028791 0.0071510144640825335 -0.0075494188693096421 0 -0.0075494188693096421 0.012499749615193623 0 0 0 0.0049126910198190321 -0.049017455174837243 0.0054919387477205686 0 0.0054919387477205686 -7.6584686024228077e-05 0 0 0 -0.012273509965215368 0.032978063678718472 -0.0061884734550589071 0 -0.0061884734550589071 0.019582986557223292 0 0 0 0.013140262558985455 -0.011470975057249588 -0.010606670387045936 0 -0.010606670387045936 0.0024141881090157247 0 0 0 -0.0022641967370584659 0.0054744299455835171 -0.0014142543519788317 0 -0.0014142543519788317 0.021188611502863858 0 0 0 0.0066657603621118437 -0.026414733171264457 -0.0087838907681930534 0 -0.0087838907681930534 -0.00042001481346831682 0 0 0 -0.0067086869961831969 -0.01875119961453027 0.0043134130578016336 0 0.0043134130578016336 0.00042373772971573617 0 0 0 -0.0045818654712036343 0.028800948344376822 0.00086481798807191003 0 0.00086481798807191003 -0.00089791707337639678 0 0 0 0.0069757578177501063 0.016018245934061464 0.003449829055910532 0 0.003449829055910532 -0.00044728049436363725 0 0 0 0.0038927413599244547 0.0041231151678147171 -0.0073130733639413942 0 -0.0073130733639413942 0.00712678499882341 0 0 0 0.0028124750416595318 -0.026618514979949083 -0.008987822192449901 0 -0.008987822192449901 -0.00032297775840287035 0 0 0 -0.0067353731845879849 -0.019229900073343006 0.0046449721215094594 0 0.0046449721215094594 5.0882559065962285e-05 0 0 0 -0.0047947543785692628 0.01380809106347855 0.0052074790136968172 0 0.0052074790136968172 0.020756473196426414 0 0 0 0.0086411410649762446 8.5450132133790824e-05 -0.010782146105964452 0 -0.010782146105964452 0.00083117845187397066 0 0 0 0.00022915714600202364 0.0076935030959794926 0.015943831212696796 0 0.015943831212696796 0.0031984887726812516 0 0 0 0.0027229979671652416 -0.018842953941982609 0.0047672355387042391 0 0.0047672355387042391 0.0031642505176757091 0 0 0 -0.0039196758560767243 -0.0127824623651717 0.0018226843063980785 0 0.0018226843063980785 0.0032489344114513805 0 0 0 -0.0023833819884300747 0.011738928006396036 -0.0010026904897299689 0 -0.0010026904897299689 0.0068037715106179612 0 0 0 0.0046356748792534949 0.008586061122478103 -0.00056597600024072686 0 -0.00056597600024072686 0.0096015162028471532 0 0 0 0.0045468943313313123 0.0082731021415817507 -0.0070254911445693929 0 -0.0070254911445693929 -0.0041451379651258509 0 0 0 0.0010319910441139758 0.010248345533440572 -0.0057150525384947514 0 -0.0057150525384947514 -0.0029188012923057928 0 0 0 0.0018323860602836931 0.0020440893984774409 0.0052448440835732336 0 0.0052448440835732336 -0.00031523299109229019 0 0 0 0.00043221410184628856 0.0018754124082907223 0.0066192501835750477 0 0.0066192501835750477 -0.00028171967851919194 0 0 0 0.00039842318244288129 0.0071761554781879511 -0.0058739599884240767 0 -0.0058739599884240767 0.003030623301329527 0 0 0 0.0025516946948793695 0.010309419115285712 0.002912564693810871 0 0.002912564693810871 0.022989772693334645 0 0 0 0.0083247979521550858 0.025073281763924544 0.003030239771934473 0 0.003030239771934473 -0.00070767467929887598 0 0 0 0.0060914017711564119 0.024988207108599614 0.015582321569482457 0 0.015582321569482457 0.004343699231236009 0 0 0 0.0073329765849587947 -0.010053879041557134 -0.0092335643203286591 0 -0.0092335643203286591 0.00091995137490452628 0 0 0 -0.0022834819166631104 0.027039508152714276 0.019412586668099086 0 0.019412586668099086 0.0036584520991029823 0 0 0 0.0076744900629542312 0.026912928999409686 -0.0060956045689276031 0 -0.0060956045689276031 -0.0029331692436514556 0 0 0 0.0059949399389395567 0.029906675921617269 -0.0023888400852676286 0 -0.0023888400852676286 0.0015224136299554587 0 0 0 0.0078572723878931813 -0.0040189180850223605 0.016452505358802605 0 0.016452505358802605 0.0016858546208892156 0 0 0 -0.00058326586603330011 0.0084965767875362919 0.020176655332272753 0 0.020176655332272753 0.002412861204467931 0 0 0 0.0027273594980010141 -0.012441035152460825 -0.0084658460213227101 0 -0.0084658460213227101 -0.00071217538208788109 0 0 0 -0.0032883026336371756 -0.011651449489745051 0.0051833216676737169 0 0.0051833216676737169 -0.00018370321449625616 0 0 0 -0.0029587881760603264 0.007862211738421665 -0.0077609185012638068 0 -0.0077609185012638068 0.0068769745763513357 0 0 0 0.0036847965786932502 0.045909970079052842 -0.0059627022042453848 0 -0.0059627022042453848 0.036224284633275872 0 0 0 0.020533563678082178 0.078613477495282025 0.0056466199040435816 0 0.0056466199040435816 0.067554995793880857 0 0 0 0.036542118322290762 0.010336963491647184 0.0032836469500848765 0 0.0032836469500848765 0.013647248808859046 0 0 0 0.0059960530751265581 0.027823887775828421 0.0047311160937455448 0 0.0047311160937455448 0.00034145918814219162 0 0 0 0.0070413367409926592 0.0021592761427178808 -0.0035241747303213083 0 -0.0035241747303213083 -0.0086988007094913056 0 0 0 -0.0016348811416933562 0.006448686331924719 -0.0020814525064524192 0 -0.0020814525064524192 -0.0064531695287319835 0 0 0 -1.1207992018091861e-06 0.013172236453820166 -0.0024081357229744048 0 -0.0024081357229744048 0.0016029273189843707 0 0 0 0.0036937909432011445 -0.011734105611764051 0.0091833778847023595 0 0.0091833778847023595 -0.0024425198522744496 0 0 0 -0.0035441563660097153 0.022445020930919081 -0.0076174170773126715 0 -0.0076174170773126715 0.0083989570658238311 0 0 0 0.0077109944991856985 0.025498931478723258 -0.0078707504045558013 0 -0.0078707504045558013 -0.0055816809703505554 0 0 0 0.0049793126270931964 0.041725641530216434 0.0092356270801007001 0 0.0092356270801007001 0.0044833506668097156 0 0 0 0.01155224804925653 0.022453899078164696 0.011914580892454563 0 0.011914580892454563 0.0037142340898281834 0 0 0 0.0065420332919982616 -0.0037765745596095024 -0.0090461983981697247 0 -0.0090461983981697247 -0.0018525146626687805 0 0 0 -0.0014072723055695846 0.017755246197585246 0.0027186211082620903 0 0.0027186211082620903 -0.0019105006246084785 0 0 0 0.0039611863932441909 0.020669851987526869 0.0035249877537735846 0 0.0035249877537735846 -0.00047247438351350618 0 0 0 0.0050493444010033415 0.021413774843359046 0.016985414191439063 0 0.016985414191439063 0.0070862366647612696 0 0 0 0.0071250028770298846 -0.0045705857931716554 -0.010653740355993035 0 -0.010653740355993035 0.0010643305141284642 0 0 0 -0.00087656381976075615 -0.0040349355586201899 -0.0093454082301534548 0 -0.0093454082301534548 -0.0024464053567442873 0 0 0 -0.0016203352288411193 -0.0062117007035616565 0.0065433701520205365 0 0.0065433701520205365 -0.00094961178688717993 0 0 0 -0.0017903281226122076 0.031489815269189564 0.017831293366040474 0 0.017831293366040474 0.0079583867986365853 0 0 0 0.0098620505169564887 -0.017755041622481812 -0.0081666697246380315 0 -0.0081666697246380315 -0.0022307593245251556 0 0 0 -0.0049964502367517427 -0.014377465645191882 0.0049856892996682257 0 0.0049856892996682257 -0.0010026209342346229 0 0 0 -0.0038450216448566261 -0.021431917329764683 0.0056485746558109229 0 0.0056485746558109229 -0.0022423959287258821 0 0 0 -0.0059185783146227244 0.030006510969121492 -0.0057714150613347726 0 -0.0057714150613347726 0.024955707101741109 0 0 0 0.013740554517715664 0.011078895816027114 -0.011319884233598643 0 -0.011319884233598643 0.025634082381032035 0 0 0 0.0091782445492647902 -0.0046488222059505313 -0.008598125233859874 0 -0.008598125233859874 0.02413485017425622 0 0 0 0.0048715069920764256 -0.0059450669191472294 -0.0082738957420841735 0 -0.0082738957420841735 0.0032905208773704731 0 0 0 -0.00066363651044418215 0.022996448369340082 -0.0070666484231864304 0 -0.0070666484231864304 0.0033690564773274367 0 0 0 0.0065913762116668675 -0.0009845487924110552 0.020198154371067978 0 0.020198154371067978 0.0062405930717973623 0 0 0 0.0013140110698465768 -0.023730738127788087 0.0072311750994154544 0 0.0072311750994154544 0.0086962263001877371 0 0 0 -0.0037586279569000736 -0.016454813411877281 -0.0020899487187874544 0 -0.0020899487187874544 0.0034220059601900998 0 0 0 -0.0032582018629217918 0.021662410801609092 -0.014365034151434801 0 -0.014365034151434801 0.012855813533625138 0 0 0 0.0086295560838085539 0.025042943631504049 -0.0040010032589001543 0 -0.0040010032589001543 0.016039122277256374 0 0 0 0.010270516477190066 0.045195555316564051 0.0014274381147997006 0 0.0014274381147997006 0.027453576844191085 0 0 0 0.018162283040188743 0.0089050526043883901 -0.0035508790029955464 0 -0.0035508790029955464 0.017286510606234873 0 0 0 0.006547890802655814 0.0067309586377056786 -0.0034471092334213208 0 -0.0034471092334213208 0.015805540152906916 0 0 0 0.0056341246976531478 0.020247622077273715 0.009906737795074165 0 0.009906737795074165 0.030741265116629175 0 0 0 0.012747221798475719 0.017290204600284687 -0.0060629916679026327 0 -0.0060629916679026327 0.016209040904345662 0 0 0 0.0083748113761575871 0.044393887424816869 0.0060255636703023807 0 0.0060255636703023807 0.019001741142975703 0 0 0 0.015848907141948088 -0.0086615207470890354 -0.0064788516759869408 0 -0.0064788516759869408 -0.0019386674199688425 0 0 0 -0.002650047041764525 0.014587033227191952 0.0068020887509272626 0 0.0068020887509272626 0.018349066448714819 0 0 0 0.0082340249189766998 0.022593453878574296 7.3676306019232474e-05 0 7.3676306019232474e-05 0.0066373169201290119 0 0 0 0.0073076926996758339 0.0070061897443450399 -0.0033348924110814804 0 -0.0033348924110814804 -0.0039909656724763098 0 0 0 0.00075380601796710967 0.020965959817223895 0.0085926674017911629 0 0.0085926674017911629 0.011521897236126396 0 0 0 0.0081219642633375746 0.016490527550885592 -0.0028011520778747322 0 -0.0028011520778747322 -0.003869670706628088 0 0 0 0.0031552142110643777 -0.042769533343598509 -0.0026289493506198159 0 -0.0026289493506198159 0.00071913158189629289 0 0 0 -0.01051260044042554 0.0085210657072608224 -0.0073098196943607637 0 -0.0073098196943607637 -0.0056935476820844863 0 0 0 0.00070687950629408358 0.023619749068608763 0.0030877819547890911 0 0.0030877819547890911 -0.0010116181932946929 0 0 0 0.0056520327188285171 0.014308670934626684 0.0063528017838676825 0 0.0063528017838676825 0.02729213332459628 0 0 0 0.010400201064805742 -0.07403305578732805 0.0058206499652108893 0 0.0058206499652108893 0.0011843345303701458 0 0 0 -0.01821218031423949 0.013981523206511672 0.0035682405296010053 0 0.0035682405296010053 0.00035581949488804423 0 0 0 0.0035843356753499302 0.02335414158437718 -0.0020616519936615253 0 -0.0020616519936615253 -0.0045614893893680501 0 0 0 0.0046981630487522869 0.006825088007602103 -0.008141904509073622 0 -0.008141904509073622 0.0054356999125629302 0 0 0 0.0030651969800412453 -0.019667796663845688 -0.0077664235513312252 0 -0.0077664235513312252 0.0013106418317085922 0 0 0 -0.0045892887080342948 0.014710548232054777 -0.0073292866413402786 0 -0.0073292866413402786 -0.0060560169357347267 0 0 0 0.002163632824080013 0.017536965902430986 0.0021294064884728667 0 0.0021294064884728667 -4.1042032020925656e-05 0 0 0 0.004373980967602515 0.021978826674151922 -0.0049327455718263975 0 -0.0049327455718263975 -0.0031422343669136152 0 0 0 0.0047091480768095741 0.0065430101712314753 -0.0081107605754381848 0 -0.0081107605754381848 0.0071128138958837794 0 0 0 0.0034139560167788102 0.01349741707994645 -0.0052234900354914404 0 -0.0052234900354914404 0.0083930792899758466 0 0 0 0.0054726240924806158 -0.0097497147675108271 -0.016707389141574158 0 -0.016707389141574158 -0.0032086563776402843 0 0 0 -0.0032395927862877757 0.058838907485804975 0.0026614093610879408 0 0.0026614093610879408 0.050122894150414543 0 0 0 0.027240450409054734 -0.014539006266442688 -0.0036959975448013216 0 -0.0036959975448013216 -0.0016017200949121069 0 0 0 -0.0040351815903386865 0.020343714958531 0.0015150036408728995 0 0.0015150036408728995 -0.0027779275207533019 0 0 0 0.0043914468594444221 0.022440115403464331 0.0021359743955157067 0 0.0021359743955157067 -0.0028873989584107967 0 0 0 0.004888179111263386 -0.011335023492591301 0.010063156244647931 0 0.010063156244647931 0.00030505616979104033 0 0 0 -0.0027574918307002871 0.018466104714452869 -0.011650266607097559 0 -0.011650266607097559 0.014649362870625016 0 0 0 0.0082788668962694434 0.020861265176949407 0.0057470141501801582 0 0.0057470141501801582 0.0031633918887206715 0 0 0 0.0060061642664175222 0.018554099916166678 0.0052070061604349519 0 0.0052070061604349519 0.0028109621505723291 0 0 0 0.0053412655166847553 0.019674382441872525 0.0028422257884660406 0 0.0028422257884660406 -0.0019749424146177441 0 0 0 0.0044248600068136912 -0.013612868970680397 0.0052547062697980828 0 0.0052547062697980828 -4.2730194532759197e-05 0 0 0 -0.0034138997913032891 0.0027758000410773483 0.0030467253500931534 0 0.0030467253500931534 0.0048942256281746532 0 0 0 0.001917506417313003 0.0099513469967555182 0.00095611744523198868 0 0.00095611744523198868 0.0060061445818693354 0 0 0 0.0039893728946562134 -0.016261037642072165 0.0061662024764670299 0 0.0061662024764670299 -0.00023688030877010678 0 0 0 -0.0041244794877105711 0.056675184321001701 0.030797695770386768 0 0.030797695770386768 0.025330285478263367 0 0 0 0.020501367449816274 0.0084293961550900853 0.014384422076352828 0 0.014384422076352828 0.0010409293910722539 0 0 0 0.0023675813865404738 0.0017615075159567173 -0.010683835367423664 0 -0.010683835367423664 0.00077114545502099396 0 0 0 0.00063316324274431679 0.01077177853578346 0.0042572568112301196 0 0.0042572568112301196 0.0033989674083554841 0 0 0 0.0035426864860347348 0.015296984332839266 0.0028159620055036353 0 0.0028159620055036353 0.002264940375334981 0 0 0 0.004390481177043562 0.034009221091126703 -0.0040955738455627534 0 -0.0040955738455627534 0.0037378118614896719 0 0 0 0.0094367582381540954 0.018648075306798115 0.0001603930856769499 0 0.0001603930856769499 0.0030411518942233817 0 0 0 0.0054223068002553637 0.010059717382466513 -0.0047092319714415881 0 -0.0047092319714415881 0.001170012908944279 0 0 0 0.0028074325728527083 0.016109412400092098 0.0046253603000996858 0 0.0046253603000996858 0.0009161090791385447 0 0 0 0.0042563803698076582 -0.02470080998682439 -0.0034863773008227822 0 -0.0034863773008227822 0.0007723666284387698 0 0 0 -0.0059821108395964051 -0.021916168702806077 -0.007232580362192903 0 -0.007232580362192903 0.001728180582946548 0 0 0 -0.0050469970299648892 0.015969672602118772 0.00095921447791985691 0 0.00095921447791985691 0.005319488918001972 0 0 0 0.0053222903800301848 -0.030796834534070894 0.017143984313238936 0 0.017143984313238936 0.0027778601360818334 0 0 0 -0.0070047435994972096 -0.0395173645210119 0.0093274742159051016 0 0.0093274742159051016 0.00064027701047009167 0 0 0 -0.0097192718776355491 0.021755353692390234 -0.0032197186355158516 0 -0.0032197186355158516 0.010110209329805553 0 0 0 0.0079663907555489188 0.037364178783229146 0.0010302703815381897 0 0.0010302703815381897 0.019351042915734862 0 0 0 0.014178805424741009 0.027637030602253077 -0.011337872782606461 0 -0.011337872782606461 -7.3542170801008111e-05 0 0 0 0.0068908721078630164 0.0071053036572638617 -0.0050040023378084275 0 -0.0050040023378084275 -0.0025965547413468459 0 0 0 0.0011271872289792539 0.04248071285468645 0.016130638149986581 0 0.016130638149986581 0.035914951835247858 0 0 0 0.01959891617248358 0.018062433555989212 -0.0059584512152535494 0 -0.0059584512152535494 -0.0044150223081338459 0 0 0 0.0034118528119638416 0.012871178970313677 -0.010862044364184351 0 -0.010862044364184351 0.0096118353983292402 0 0 0 0.0056207535921607293 0.062181651929182985 0.013099263911720865 0 0.013099263911720865 0.0131817884251757 0 0 0 0.018840860088589678 0.011364665644942729 0.0033918313511974831 0 0.0033918313511974831 0.0034207527448288436 0 0 0 0.0036963545974428927 0.0088766187690336174 0.01483568868608498 0 0.01483568868608498 0.0022137272268447639 0 0 0 0.0027725864989696647 0.0017114181424879582 -0.01085814662618112 0 -0.01085814662618112 0.00068846088598439881 0 0 0 0.00059996975711809619 0.011028955111032931 0.0040915209412157195 0 0.0040915209412157195 0.00027114950668699969 0 0 0 0.002825026154429984 0.0016033960779240734 -0.0037490389274153087 0 -0.0037490389274153087 0.021503923941354836 0 0 0 0.0057768300048197246 0.039334714626475697 0.013623143995845299 0 0.013623143995845299 0.024281832935163949 0 0 0 0.015904136890409981 -0.0083187349245994469 -0.0068213151807620664 0 -0.0068213151807620664 0.00068068733262416359 0 0 0 -0.0019095118979938208 -0.04090870507127195 0.0015899436900696693 0 0.0015899436900696693 0.00064813378900109922 0 0 0 -0.010065142820567717 -0.072251626461217924 -0.0042829975379014068 0 -0.0042829975379014068 0.00069512495557569332 0 0 0 -0.017889125376410554 0.020480770554962252 -0.00027729337287997827 0 -0.00027729337287997827 0.034716761472616708 0 0 0 0.013799383006894761 -0.006760698953045919 0.0071329121591812063 0 0.0071329121591812063 0.00020182087468625237 0 0 0 -0.0016397195195899175 0.055032294752928715 -0.013065369864202564 0 -0.013065369864202564 0.030804012774976752 0 0 0 0.021459076881976388 0.084600983575455674 -0.00080649070183083649 0 -0.00080649070183083649 0.050254380329924686 0 0 0 0.033713840976345083 0.12960160031734236 -0.00032125885189793202 0 -0.00032125885189793202 0.088081727458218961 0 0 0 0.054420831943890358 0.084052870710356692 0.018210160106517437 0 0.018210160106517437 0.059561992293608701 0 0 0 0.035903715750991355 0.015566242800951251 -0.0062411072136926149 0 -0.0062411072136926149 -0.0046111458906291369 0 0 0 0.0027387742275805024 0.02833477854206759 0.0061902423291327474 0 0.0061902423291327474 0.0014992083947281687 0 0 0 0.0074584967341989328 0.047181526328601786 0.0033798477316396708 0 0.0033798477316396708 0.050566448786998175 0 0 0 0.024436993778900018 0.02080166791386559 -0.0060429629122548123 0 -0.0060429629122548123 0.024543552600799934 0 0 0 0.011336305128666374 0.016031891619163203 0.0018574143333545054 0 0.0018574143333545054 0.023301712117588025 0 0 0 0.0098334009341877922 0.028108920337597487 0.0022764600260096746 0 0.0022764600260096746 0.0089608134513046167 0 0 0 0.0092674334472254705 -0.0004516169256334468 0.0088982144873802904 0 0.0088982144873802904 -0.0035392836200571764 0 0 0 -0.00099772513642237826 -0.00069405652443027543 -0.0060735647375038671 0 -0.0060735647375038671 -0.0025800408684319986 0 0 0 -0.00081852434821549913 0.016104425166109548 -0.0041914512826944084 0 -0.0041914512826944084 0.0020618384532833378 0 0 0 0.0045415659048481105 0.01554236536268851 0.0043097182033677607 0 0.0043097182033677607 0.00079604941066263243 0 0 0 0.0040846036933377874 0.050516876850381143 0.010893476975994743 0 0.010893476975994743 0.020247087489878635 0 0 0 0.017690991085065055 -0.0024200205918918846 -0.0059250866213823583 0 -0.0059250866213823583 3.3718669110852084e-05 0 0 0 -0.00059657548069529803 0.0105169575899895 0.00085870224379003138 0 0.00085870224379003138 0.028410834010934517 0 0 0 0.0097319479002310038 -0.0035350907354128047 0.0087609174359527531 0 0.0087609174359527531 9.3378395443100004e-05 0 0 0 -0.00086042808499220413 0.030231782777913274 -0.0097864723669042197 0 -0.0097864723669042197 0.01031456517832674 0 0 0 0.010136586989060059 0.019279018128784742 -0.0080115737405902221 0 -0.0080115737405902221 0.0094218114683418119 0 0 0 0.0071752073992816523 0.0069319317910418801 -0.0074756076995810133 0 -0.0074756076995810133 0.0049896786858133341 0 0 0 0.0029804026192138053 0.007903133842276866 -0.0066154704388047825 0 -0.0066154704388047825 0.0074138258921956635 0 0 0 0.0038292399336181393 0.017999865063885359 -0.0075268518466939643 0 -0.0075268518466939643 -0.0038099583415993378 0 0 0 0.0035474766805715053 0.01749256080066186 0.024846051499870292 0 0.024846051499870292 0.0073689157736424038 0 0 0 0.0062153691435760661 -0.030475374499626007 -0.0022018096232078455 0 -0.0022018096232078455 0.00034772291820256429 0 0 0 -0.0075319128953558467 0.037193011378892617 -0.011655976758772228 0 -0.011655976758772228 0.010050470334940706 0 0 0 0.011810870428458329 0.021343784503359501 -0.008245535946556172 0 -0.008245535946556172 0.005494321847975582 0 0 0 0.0067095265878337734 0.026454230162176965 0.0078959795267527985 0 0.0078959795267527985 0.0057136834713635218 0 0 0 0.008041978408385126 0.0087312576243009504 -0.0027632289189355938 0 -0.0027632289189355938 0.0011289873221064783 0 0 0 0.0024650612366018537 0.012735750600813667 -0.0012969928594796926 0 -0.0012969928594796926 0.00015623559561650513 0 0 0 0.0032229965491075152 -0.0955759624328055 -0.00048622441662125014 0 -0.00048622441662125014 0.0022994209109913899 0 0 0 -0.023319135380453521 -0.05042529827887627 0.00034735949296877343 0 0.00034735949296877343 0.00094126029462349159 0 0 0 -0.012371009496063207 0.012873855889813525 -0.004171723135546989 0 -0.004171723135546989 0.0042901097907331806 0 0 0 0.0042909914201366773 0.0061605376527485399 0.0054925613382903965 0 0.0054925613382903965 0.0020535489600428656 0 0 0 0.0020535216531978513 0.030013857185057925 0.00057889905851222188 0 0.00057889905851222188 -0.00055730720405583467 0 0 0 0.0073641374952505296 0.023292013906642126 0.007206967891660648 0 0.007206967891660648 0.0064423025398957934 0 0 0 0.0074335791116344847 0.024492409812797301 0.0034983671652327191 0 0.0034983671652327191 0.00010584278095872096 0 0 0 0.0061495631484390027 -0.019923065663507964 -0.010333790224508185 0 -0.010333790224508185 -0.0024187771848765971 0 0 0 -0.0055854607120961438 -0.015930225113267277 0.0055694602098441031 0 0.0055694602098441031 -0.00028623320428514815 0 0 0 -0.0040541145793881088 0.05611012760433165 0.010258133117610341 0 0.010258133117610341 0.011993258396676421 0 0 0 0.017025846500252073 -0.01189132387880823 -0.010056923806937765 0 -0.010056923806937765 -0.00074033797131190307 0 0 0 -0.0031579154625300341 -0.011525145450402067 0.0057713088211211929 0 0.0057713088211211929 0.00032469188314272063 0 0 0 -0.0028001133918148392 0.0083868933351778641 -0.0064336758110300485 0 -0.0064336758110300485 0.0029092876039648052 0 0 0 0.0028240452347856881 0.05039182722358887 0.030528286971868324 0 0.030528286971868324 0.023229203578786217 0 0 0 0.018405257700593758 0.02796116719169393 0.0021154430763774871 0 0.0021154430763774871 -0.0015814468701175702 0 0 0 0.0065949300803940895 0.019709189393379976 0.0002047538822098488 0 0.0002047538822098488 0.0068573161433249374 0 0 0 0.0066416263841762233 0.0018067670132064122 -0.0074471799706308881 0 -0.0074471799706308881 0.0006028895334023864 0 0 0 0.00060241413665219955 -0.0023842650490612256 0.0061008679376018593 0 0.0061008679376018593 -0.00079353620017585036 0 0 0 -0.00079445031230926876 -0.032746235339556992 0.0024002340344198882 0 0.0024002340344198882 -0.00028380978333031152 0 0 0 -0.0082575112807218246 -0.051920138069516106 -0.0050361085120810955 0 -0.0050361085120810955 -0.00055556429395188164 0 0 0 -0.013118925590867003 -0.012158153457721255 0.00035559449691179024 0 0.00035559449691179024 0.0081987406787436823 0 0 0 -0.00098985319474440003 0.031260727709675015 -0.0056516092973230847 0 -0.0056516092973230847 0.012472798922516626 0 0 0 0.0109333816580479 0.0044916309090668183 -0.0018821484059819253 0 -0.0018821484059819253 0.020303958626244432 0 0 0 0.0061988973838278125 0.018854755975420023 0.0072821695130872114 0 0.0072821695130872114 0.011143595936913293 0 0 0 0.0074995879780833264 0.014510027981084347 0.0053093895501833063 0 0.0053093895501833063 0.012668306717736407 0 0 0 0.0067945836747051952 0.033011348798399051 0.0063398215404146373 0 0.0063398215404146373 0.0080148347799858244 0 0 0 0.010256545894596222 0.038661135644298641 0.0042031771415289888 0 0.0042031771415289888 0.0040612200354286331 0 0 0 0.010680588919931823 0.014317597246372687 0.00179283809745584 0 0.00179283809745584 -0.0083035359915465401 0 0 0 0.001503515313706516 0.00070504971392069266 -0.0061208558754506509 0 -0.0061208558754506509 0.012017139585890665 0 0 0 0.0031805473249528274 0.00046328165113672035 -0.0090994539705858656 0 -0.0090994539705858656 0.022535680297235204 0 0 0 0.0057497404870929768 0.01756120113482083 -0.016899242394543462 0 -0.016899242394543462 0.037057910096794648 0 0 0 0.013654777807903879 -0.028435186109346547 0.0024336307841842583 0 0.0024336307841842583 -9.5218806511823684e-05 0 0 0 -0.0071326012289645961 -0.042688358264717841 -0.0045196498255977383 0 -0.0045196498255977383 -0.00036905208823807129 0 0 0 -0.010764352588238976 0.0040918586170255273 -0.00035398226300298319 0 -0.00035398226300298319 -0.04845029552556207 0 0 0 -0.011089609227134135 0.023363553349193718 -0.017002999236209713 0 -0.017002999236209713 0.025287222540432891 0 0 0 0.012162693972406644 0.022439426092687797 0.0041062332867073279 0 0.0041062332867073279 -0.00010166374463641643 0 0 0 0.0055844405870128441 -0.01045385000583293 -0.010437326891622231 0 -0.010437326891622231 -0.0022168461517043589 0 0 0 -0.003167674039384321 -0.010158457333861084 0.0065071630512087931 0 0.0065071630512087931 -0.00025241933379881176 0 0 0 -0.0026027191669149748 0.0090681804560127262 0.0042996388385094925 0 0.0042996388385094925 0.00051013006807890809 0 0 0 0.0023945776310229068 0.0066200787450500223 -0.0003955340605478184 0 -0.0003955340605478184 0.022160825834986166 0 0 0 0.0071952261450090446 0.02525148973003212 0.0010843408298749635 0 0.0010843408298749635 0.011352895438629385 0 0 0 0.0091510962921653866 0.0076990845229043545 0.005481492198852073 0 0.005481492198852073 0.00085201836428443374 0 0 0 0.0021377757217971955 -0.029765314038656621 0.0059834803125352609 0 0.0059834803125352609 0.00099893972817710619 0 0 0 -0.007191593577619837 0.024633043356243806 -0.008505565818518912 0 -0.008505565818518912 0.022163960418604023 0 0 0 0.011699250943711964 0.025136504014515393 -0.006847975060746081 0 -0.006847975060746081 0.017899836431213123 0 0 0 0.010759085111432087 0.01251287924237917 -0.0075586644587397802 0 -0.0075586644587397802 0.017389046651884468 0 0 0 0.0074754814735659147 0.0053750229780814424 -0.0063164200106120144 0 -0.0063164200106120144 0.013588143754089566 0 0 0 0.0047407916830427416 0.011171830425497157 0.0024282323813660319 0 0.0024282323813660319 0.0090880694750625039 0 0 0 0.0050649749751399166 0.0079173840655597915 -0.00039320650161507251 0 -0.00039320650161507251 0.021449315922580356 0 0 0 0.0073416749970350434 0.085866532620270997 0.012888600806847617 0 0.012888600806847617 0.069620351659989144 0 0 0 0.038871721070064869 -0.00029404378279690446 -0.0016456983407164838 0 -0.0016456983407164838 0.00074421425454640477 0 0 0 0.00011254261793730569 0.054208943626453815 -0.010798601903567295 0 -0.010798601903567295 0.039442393442874701 0 0 0 0.023412834267332233 -0.00043754542570378918 0.0026259355949811436 0 0.0026259355949811436 0.0010673461584661537 0 0 0 0.00015745018319063275 0.012859665831571413 0.0035692776877547577 0 0.0035692776877547577 0.0097404219060750509 0 0 0 0.0056500219344116139 0.011220189098013939 0.0023540261030183997 0 0.0023540261030183997 0.006629045854348696 0 0 0 0.0044623087380906588 0.0097043390986154485 -0.0010361633443064164 0 -0.0010361633443064164 0.0089180741964142718 0 0 0 0.0046556033237574318 -0.037654767539245168 -0.0089629620141074302 0 -0.0089629620141074302 0.00023188041334573823 0 0 0 -0.0093557217814748631 -0.046797819404935201 -0.012029397586177555 0 -0.012029397586177555 0.0004845114716344294 0 0 0 -0.011578326983325195 0.015638503781095513 -0.013861726086981189 0 -0.013861726086981189 -0.0025731282539957403 0 0 0 0.0032663438817749444 0.0023276338071020163 0.0031513726576601342 0 0.0031513726576601342 0.0024784840788605114 0 0 0 0.0012015294714906319 0.016721436446593938 -0.010550288683444726 0 -0.010550288683444726 0.020597074828791299 0 0 0 0.0093296278188463068 -0.0089635241216174215 0.0066862002985332066 0 0.0066862002985332066 -0.00044745456107955772 0 0 0 -0.0023527446706742448 -0.0045736804355505332 0.0061786836461219042 0 0.0061786836461219042 -0.00070351246532147568 0 0 0 -0.001319298225218004 6.7769268998311982e-06 -0.0094947267270966678 0 -0.0094947267270966678 -0.0032035403889572947 0 0 0 -0.00079919086551436674 -0.0077334165528924002 -0.01086986443749712 0 -0.01086986443749712 -0.0040379776829185393 0 0 0 -0.0029428485589527344 -0.021822842737491299 -0.0061153045442310372 0 -0.0061153045442310372 0.00082902695519282421 0 0 0 -0.0052484539455746049 -0.012492238066220795 -0.0073190931443471337 0 -0.0073190931443471337 0.0011078202987865327 0 0 0 -0.0028461044418585657 0.012636281762360918 -0.0045621721888806522 0 -0.0045621721888806522 -0.00082836191880096403 0 0 0 0.0029519799608899882 0.012258660974401411 -0.0046058394150524182 0 -0.0046058394150524182 -0.0031467692701972584 0 0 0 0.002277972926051041 0.0058696626687323936 0.0061217774442175943 0 0.0061217774442175943 5.3899898905251931e-07 0 0 0 0.0014675504169303598 0.0048070566922153272 0.0052457178506974504 0 0.0052457178506974504 0.00023587595204765943 0 0 0 0.0012607331610657467 0.019031496132028924 0.014530757225018065 0 0.014530757225018065 0.0028678194116236178 0 0 0 0.0054748288859131078 -0.0044272125325921508 -0.010228464915760349 0 -0.010228464915760349 0.00091792205119300974 0 0 0 -0.00087732262034989628 -0.0010341935778024527 0.0052167493683467174 0 0.0052167493683467174 -0.00013231271852569976 0 0 0 -0.00029162657408204028 0.0091940499896853347 -0.0078907190773216881 0 -0.0078907190773216881 -0.0040445114998634776 0 0 0 0.0012873846224554664 0.0079225411348796248 0.0012610087160205917 0 0.0012610087160205917 0.0038381511455120713 0 0 0 0.0029401730700979248 -0.0061569051842726447 0.0056105498454650776 0 0.0056105498454650776 0.00016230639785497214 0 0 0 -0.0014986496966044177 -0.0012071808496743716 -0.0099392381645841896 0 -0.0099392381645841896 -0.0022078257857472321 0 0 0 -0.00085375165885539931 -0.0083825678850613077 -0.0046076180134690566 0 -0.0046076180134690566 0.034974439323330775 0 0 0 0.0066479678595673664 0.0097177755334674938 0.0018311592313861326 0 0.0018311592313861326 0.0050402095378246047 0 0 0 0.003689496267823019 -0.0044261833459215477 -0.0079392810673291313 0 -0.0079392810673291313 -0.0014790229005925866 0 0 0 -0.0014763015616285336 -0.0062949336076730819 0.0058409765315587401 0 0.0058409765315587401 -0.0021002567475037919 0 0 0 -0.0020987975887942181 0.039815577731283303 0.0017752096286408382 0 0.0017752096286408382 0.0094830122813797796 0 0 0 0.012324647503165771 0.0021198255358734763 -0.0012045701401505599 0 -0.0012045701401505599 -0.030115740154611048 0 0 0 -0.0069989786546843513 -0.0032429354028913355 0.0047754671979693027 0 0.0047754671979693027 0.002871174950264118 0 0 0 -9.2940113156803061e-05 0.028301018784972057 -0.0090880829010841629 0 -0.0090880829010841629 0.0068713303440659512 0 0 0 0.0087930872822595124 0.012839138888479627 0.0037084691631560467 0 0.0037084691631560467 0.0099486003571904388 0 0 0 0.0056969348114175172 0.0083070275916445786 -0.00074688439433563572 0 -0.00074688439433563572 0.010796143293394074 0 0 0 0.0047757927212596675 -0.024131546026961596 -0.0073137356736421308 0 -0.0073137356736421308 -0.00065492421003896916 0 0 0 -0.0061966175592501407 -0.017858052043774754 0.0042343590780015532 0 0.0042343590780015532 -0.00021607281781267119 0 0 0 -0.0045185312153968558 0.018076184617550946 -0.0036621867009597516 0 -0.0036621867009597516 0.012021339933395589 0 0 0 0.0075243811377366313 0.015588766982638703 0.0051403429110635076 0 0.0051403429110635076 0.0064217341095574795 0 0 0 0.0055026252730490518 0.0070297632040293096 0.0018797498021151343 0 0.0018797498021151343 0.0031124471674402665 0 0 0 0.0025355525928673949 -0.019779024208687945 0.0031424027519181136 0 0.0031424027519181136 0.0012461884334602456 0 0 0 -0.0046332089438069213 -0.039475891770518745 0.00574320515862492 0 0.00574320515862492 0.0011731681710823727 0 0 0 -0.009575680899859107 0.0018122545448476558 0.0029930746108959433 0 0.0029930746108959433 0.0081358686636831962 0 0 0 0.0024870308021327121 0.0091149138496961352 -0.0050913398144967897 0 -0.0050913398144967897 0.0087807187007331866 0 0 0 0.004473908137607327 0.0029130821110077299 0.0035670614603591291 0 0.0035670614603591291 0.0027598986489814278 0 0 0 0.0014182451899972899 0.015789557763258667 0.0054258235680956519 0 0.0054258235680956519 0.0080496545086644628 0 0 0 0.0059598030679807821 0.0031326867927657896 -0.0079723125720491672 0 -0.0079723125720491672 0.0068701735230705385 0 0 0 0.0025007150789590794 0.051524871268842184 0.0034328997116674295 0 0.0034328997116674295 0.029280963203497892 0 0 0 0.02020145861808503 0.00086223870496212685 0.0056981678959170763 0 0.0056981678959170763 0.00080329563028949322 0 0 0 0.00041638358381290491 -0.039123719647688682 0.0058714943641359728 0 0.0058714943641359728 6.9511962619284162e-05 0 0 0 -0.0097635519212674327 0.034817843938257792 -0.0073118581289788875 0 -0.0073118581289788875 0.024766861538924823 0 0 0 0.014896176369295633 0.034135460487823593 -0.0049397240985285529 0 -0.0049397240985285529 0.015837856327495348 0 0 0 0.012493329203829728 -0.022140827100444491 -0.015738332928024412 0 -0.015738332928024412 0.010283606746695985 0 0 0 -0.0029643050884371139 0.0367932183452453 -0.0049600812235341095 0 -0.0049600812235341095 0.00246110832710697 0 0 0 0.0098135816680880658 -0.031530954635995645 0.0044582645032127041 0 0.0044582645032127041 0.0008510087195402749 0 0 0 -0.0076699864791138373 -0.054286086875863802 -0.01152009804919797 0 -0.01152009804919797 0.0021382239232457367 0 0 0 -0.013036965738154526 -0.031742840135354729 0.0016437477833841432 0 0.0016437477833841432 -0.00051913676118055599 0 0 0 -0.0080654942241338221 -0.056072039750151174 -0.0046649974610363 0 -0.0046649974610363 -0.00016840230745067408 0 0 0 -0.014060110514400467 -0.014965250732691832 0.0042767834719366262 0 0.0042767834719366262 -0.0010187241203677404 0 0 0 -0.0039959937132648948 -0.018492074516513159 -0.0069353525287140427 0 -0.0069353525287140427 -0.0011281313907813301 0 0 0 -0.0049050514768236228 0.007604619450247335 -0.0018998964933917041 0 -0.0018998964933917041 0.01411720259945614 0 0 0 0.0054304555124258724 0.0082976875221079625 -0.0054480086295925177 0 -0.0054480086295925177 0.018508730177531043 0 0 0 0.0067016044249097566 0.023002888389904039 -0.0031606160945578943 0 -0.0031606160945578943 0.028048197059674707 0 0 0 0.01276277136239469 0.048751591611625275 0.00084573773029886223 0 0.00084573773029886223 0.056206379603983392 0 0 0 0.026239492803902156 0.030672573603751092 0.0019125837810679627 0 0.0019125837810679627 0.019502414260267234 0 0 0 0.012543746966004597 0.040231835683821465 0.0014360704909722327 0 0.0014360704909722327 0.047675401848152721 0 0 0 0.02197680938299354 0.013808719488305518 -0.0050696776940230837 0 -0.0050696776940230837 0.023267285995098835 0 0 0 0.0092690013708510849 0.0044978003360328523 0.0041505360156586591 0 0.0041505360156586591 0.003253343937641707 0 0 0 0.00193778606841864 0.012495997061187388 -0.0045174634645675157 0 -0.0045174634645675157 0.015112902692191794 0 0 0 0.0069022249383447944 0.0069888553917252724 -0.0055934364627004511 0 -0.0055934364627004511 0.012991026816935348 0 0 0 0.004994970552165157 0.011561569043146562 0.0026649488691292099 0 0.0026649488691292099 0.018257866448544734 0 0 0 0.0074548588729228243 -0.064408104201419292 0.0046735533775548324 0 0.0046735533775548324 7.8695147144980382e-05 0 0 0 -0.016082352263568578 0.0069231967307642923 2.2519053529287264e-05 0 2.2519053529287264e-05 0.021062057918497037 0 0 0 0.0069963136623153212 0.032603617131168001 -0.010857794803866064 0 -0.010857794803866064 0.050142525664204018 0 0 0 0.02068653569884301 0.054188821466289422 -0.011636092074963768 0 -0.011636092074963768 0.024457540751211648 0 0 0 0.019661590554375268 0.036686688425508235 -0.0049668441302081479 0 -0.0049668441302081479 0.012513786134948468 0 0 0 0.012300118640114155 -0.063663807394995081 -0.0087541567220489197 0 -0.0087541567220489197 0.0024652978513169249 0 0 0 -0.015299627385919546 -0.035674392195186276 0.00369081258747566 0 0.00369081258747566 0.00098887916392635753 0 0 0 -0.0086713782578149694 0.0056931812272278653 -8.4442086217368073e-05 0 -8.4442086217368073e-05 0.021895681183098925 0 0 0 0.0068972156025816998 -0.025578628492159416 0.011808182041689208 0 0.011808182041689208 -0.00094040077071810835 0 0 0 -0.0066297573157193534 -0.019196281159997941 0.01520713003042834 0 0.01520713003042834 0.0011870483400020504 0 0 0 -0.0045023082049989172 0.01453951997900288 -0.011774341583752346 0 -0.011774341583752346 0.0079576066608527674 0 0 0 0.0056242816599638701 0.016218084420282053 -0.0087246559009604985 0 -0.0087246559009604985 0.0085171281412805867 0 0 0 0.006183803140390633 0.036477136888739464 -0.0085077750280445064 0 -0.0085077750280445064 0.029587468897554037 0 0 0 0.016516151446573452 -0.026196077226642744 0.0058701209616807389 0 0.0058701209616807389 0.00091126732563040491 0 0 0 -0.0063212024752530294 -0.00062541247134913734 0.0059577226958702073 0 0.0059577226958702073 0.00020503360814703997 0 0 0 -0.00010509471580052478 0.0066390385206549028 -0.0068509284692123158 0 -0.0068509284692123158 -0.002942193612022477 0 0 0 0.00092421122715810773 0.0067775294780373987 -0.012691799206934529 0 -0.012691799206934529 0.003837162700857738 0 0 0 0.0026536730447238102 0.0066114585174212315 -0.0095741443251376179 0 -0.0095741443251376179 0.0040876025437321939 0 0 0 0.0026747652652883147 0.00032228924508607981 -0.0096897820967483672 0 -0.0096897820967483672 0.0024513191213629965 0 0 0 0.00069340209161221356 0.00019755279461725062 -0.012557054115347174 0 -0.012557054115347174 0.0024870908692488092 0 0 0 0.00067116091596647331 -0.0088890480378441272 0.019910523268266256 0 0.019910523268266256 -0.0025096831256967156 0 0 0 -0.0028496827908852107 0.0061192640165834492 0.014044279722633002 0 0.014044279722633002 0.0025937537028528019 0 0 0 0.0021782544298589515 -0.0044877492921373899 0.0072226667766879709 0 0.0072226667766879709 -0.00081771976299827021 0 0 0 -0.0013263672637839159 -0.0024346888790364191 -0.0097816583360108393 0 -0.0097816583360108393 -0.0021007941312934444 0 0 0 -0.0011338707525824655 -0.032568652594769723 -0.0023562264259394672 0 -0.0023562264259394672 0.0025298087717428031 0 0 0 -0.0075097109557567335 -0.057455830130544824 0.0064272859850263986 0 0.0064272859850263986 0.0035498910860213839 0 0 0 -0.013476484761130836 -0.015857401697221982 0.0063552043689126415 0 0.0063552043689126415 0.00080201017831574035 0 0 0 -0.0037638478797265645 0.015413116076572732 0.0052124066970665097 0 0.0052124066970665097 0.003812356844247855 0 0 0 0.0048063682302051458 0.0083784775567677106 -0.00020322954193763287 0 -0.00020322954193763287 -0.010017596665883866 0 0 0 -0.00040977977727901793 -0.025334741546974959 -0.011189008921423872 0 -0.011189008921423872 0.00083321899005326869 0 0 0 -0.0061253806392304157 -0.043641859644444232 -0.0097970491637019586 0 -0.0097970491637019586 -0.001925295715779228 0 0 0 -0.011391788840055874 0.019446774187252151 -0.0011270359025886533 0 -0.0011270359025886533 -0.003001298686799085 0 0 0 0.0041113688751132655 0.029786960676322333 0.0038479496318213346 0 0.0038479496318213346 0.032390223271590829 0 0 0 0.015544295986978318 -0.038040409960367401 0.00021783085861215579 0 0.00021783085861215579 -0.00045350649927200504 0 0 0 -0.0096234791149098428 -0.070237179347566278 -0.00099969398815225041 0 -0.00099969398815225041 -0.0010188849568459682 0 0 0 -0.017814016076103011 -0.0021571096562867167 -0.0015543329278376525 0 -0.0015543329278376525 0.0056200845075350947 0 0 0 0.00086574371281209622 -0.011805424382632232 -0.012439286486854384 0 -0.012439286486854384 -0.003594390479589385 0 0 0 -0.0038499537155554046 -0.0015971686107405167 -0.011549855689279336 0 -0.011549855689279336 -0.0027159963177434306 0 0 0 -0.0010782912321209859 0.0297999052544832 0.026575220953179275 0 0.026575220953179275 0.061738924503478676 0 0 0 0.022884707439490476 -0.037296599445323438 -0.0040212898228553888 0 -0.0040212898228553888 2.7592234645969216e-05 0 0 0 -0.0093172518026693654 -0.024296765154485991 0.0020707519661459974 0 0.0020707519661459974 0.00024535748917221822 0 0 0 -0.0060128519163284381 0.01071851771508725 -0.0050505759668308114 0 -0.0050505759668308114 0.0018813952623608632 0 0 0 0.0031499782443620283 0.0076916947956233855 -0.0059498696994495226 0 -0.0059498696994495226 0.0022122593217385189 0 0 0 0.0024759885293404588 0.014934527016258511 0.0052382832527662522 0 0.0052382832527662522 0.014084671570150201 0 0 0 0.007254799646602173 0.016280277410469314 -0.0087083216596924567 0 -0.0087083216596924567 -0.00093467368230250964 0 0 0 0.003836400932041701 0.023090012565928492 0.0059017700157607883 0 0.0059017700157607883 0.0016630297919717051 0 0 0 0.0061882605894750383 0.026869399802266852 0.0020456935326547548 0 0.0020456935326547548 0.056744581666461624 0 0 0 0.02090349536718214 -0.016132342827935065 0.0062591798230315727 0 0.0062591798230315727 0.00094258840892860263 0 0 0 -0.0037974386047516196 0.0076354425719798828 0.0028793605156735439 0 0.0028793605156735439 0.0030729225299551306 0 0 0 0.0026770912754837551 0.07799787138285641 0.0053674702732209624 0 0.0053674702732209624 0.028315283228470989 0 0 0 0.026578288652831794 -0.030132475002014721 -0.0021238711066461358 0 -0.0021238711066461358 -0.00036017961745190945 0 0 0 -0.0076231636548666302 -0.085986900479419301 -0.0017127874322629827 0 -0.0017127874322629827 -0.00059615169395857426 0 0 0 -0.021645763043344472 -0.046295370138205096 0.00034381528896681724 0 0.00034381528896681724 -0.00046975759367542946 0 0 0 -0.01169128193297013 0.0095430984115037164 0.0018087337301660508 0 0.0018087337301660508 0.023681801535673674 0 0 0 0.0083062249867943451 -0.012639253374160667 -0.010145899174090429 0 -0.010145899174090429 -0.0014027052424075426 0 0 0 -0.0035104896541420516 -0.020031821171804055 -0.012613726264498484 0 -0.012613726264498484 -0.00070642895363855901 0 0 0 -0.0051845625313606467 0.042009548705762109 0.0086494443907450796 0 0.0086494443907450796 0.009936960088037107 0 0 0 0.012986627198449795 -0.01979934265733907 -0.004050758125470226 0 -0.004050758125470226 -0.0012636716856833097 0 0 0 -0.0052657535857556503 0.0066041419423800186 -0.0074882882716633264 0 -0.0074882882716633264 0.0075462782685198349 0 0 0 0.0035376050527249937 0.072047269525872704 0.0076731268649389544 0 0.0076731268649389544 0.058167689866295724 0 0 0 0.032553739848041996 -0.016887879019288787 -0.0032355086227553241 0 -0.0032355086227553241 0.0011902553943097249 0 0 0 -0.0039244059062446546 0.0057905715004701978 -0.017240327487254195 0 -0.017240327487254195 0.01020393475878742 0 0 0 0.0039986265648144122 0.0088141096282730938 -0.00018749009189831731 0 -0.00018749009189831731 0.014634446778029372 0 0 0 0.0058621391015756183 0.00093584012840316512 0.0026353991094696175 0 0.0026353991094696175 0.00489672247201519 0 0 0 0.0014581406501045901 -0.024613516546085901 0.0046285894231119507 0 0.0046285894231119507 -0.00021855579849416884 0 0 0 -0.0062080180861447953 0.027903149286192808 -0.0082227873137751817 0 -0.0082227873137751817 0.028369707801852218 0 0 0 0.014068214272011326 0.0021573497462431448 0.0051714593636081468 0 0.0051714593636081468 -9.3150096889538236e-06 0 0 0 0.00053700868413854817 0.032322524413933101 -0.0056325282290260702 0 -0.0056325282290260702 0.01499029569104586 0 0 0 0.011828205026244742 -0.02391586124761895 0.0041848975423287435 0 0.0041848975423287435 -0.00016066724922486966 0 0 0 -0.0060191321242109505 -0.0069292110813907876 -0.0071575797419238339 0 -0.0071575797419238339 0.012103498815171254 0 0 0 0.0012935719334451201 -0.012486480552830723 0.0068712887487227085 0 0.0068712887487227085 -0.0003289805169203186 0 0 0 -0.0032038652674377635 -0.038414119272574154 -0.0039507826529747991 0 -0.0039507826529747991 0.00060084894123579868 0 0 0 -0.0094533175828346305 -0.026859289386981476 0.0036204203816638477 0 0.0036204203816638477 -0.0003813902414079879 0 0 0 -0.0068101699070973621 -0.019171164530200166 0.0044016585989386132 0 0.0044016585989386132 0.00047713132656914022 0 0 0 -0.0046735083009077551 -0.027293777820782628 0.017072573244757638 0 0.017072573244757638 0.00145878036014363 0 0 0 -0.0064587493651597216 0.0055951061492429174 -0.0063839976284030577 0 -0.0063839976284030577 -0.0008754764317874808 0 0 0 0.0011799074293638596 0.0021221762070049721 -0.0093999383940179815 0 -0.0093999383940179815 -0.0032922526239585401 0 0 0 -0.00029251910423838852 -0.0022279977514617676 0.0070557026408466835 0 0.0070557026408466835 -0.00069084045797244888 0 0 0 -0.00072970955235855607 -0.00048852667191138003 0.0054623640923479747 0 0.0054623640923479747 -2.5896773375920674e-05 0 0 0 -0.00012860586132182566 0.0075346107227843373 0.0004732972287912968 0 0.0004732972287912968 0.0068350306179858628 0 0 0 0.0035924103351925498 0.017739588729305464 -0.010332990645446405 0 -0.010332990645446405 0.022472641935227348 0 0 0 0.010053057666133193 0.0111632554469457 -0.0062344185504524703 0 -0.0062344185504524703 0.011297080479561933 0 0 0 0.0056150839816269116 0.0023896359496595188 -0.0062911173504371087 0 -0.0062911173504371087 0.017392660736113785 0 0 0 0.004945574171443326 0.0099282351270655669 -0.0051319223274328835 0 -0.0051319223274328835 0.011231081967891382 0 0 0 0.0052898292737392355 0.03154453261544049 0.0017235805812501961 0 0.0017235805812501961 0.020890449499713359 0 0 0 0.013108745528788435 0.011499692540738057 -0.0063153069979228205 0 -0.0063153069979228205 0.012344621545455459 0 0 0 0.0059610785215483963 -0.049251695335363672 0.0019682831887692827 0 0.0019682831887692827 0.00017896615942356031 0 0 0 -0.012268182293985047 -0.094168611086523885 -0.0043565354336173043 0 -0.0043565354336173043 0.001546021411098053 0 0 0 -0.023155647418856465 0.028819621276348455 -0.0028503399036273053 0 -0.0028503399036273053 0.011752817757910816 0 0 0 0.010143109758564813 0.037872996225158079 0.0033403337083056095 0 0.0033403337083056095 0.024334025589901609 0 0 0 0.015551755453764915 -0.013034754699835085 0.0059458202888933442 0 0.0059458202888933442 0.003209190170473622 0 0 0 -0.00245639113234037 0.013494475382884188 0.0034062305866389355 0 0.0034062305866389355 0.0021182580181576729 0 0 0 0.0039031833502604649 0.010574314533775034 -0.0092070983264449253 0 -0.0092070983264449253 -0.0044947591731538915 0 0 0 0.0015198888401552878 0.016546373060484065 -0.0050008415670954338 0 -0.0050008415670954338 -0.0063947175841770291 0 0 0 0.0025379138690767578 0.024171716193559838 -0.015943583134509158 0 -0.015943583134509158 0.037590687364728863 0 0 0 0.015440600889572172 -0.020550191936779403 0.0041525375136302802 0 0.0041525375136302802 -0.00027427970704753737 0 0 0 -0.0052061179109567342 -0.016006308900011375 0.0043784954892434735 0 0.0043784954892434735 0.0002572653740634083 0 0 0 -0.0039372608814869908 -0.020135581050149259 -0.0075527226262907454 0 -0.0075527226262907454 0.0002793426457458649 0 0 0 -0.004964059601100846 -0.029176891995587928 -0.0076478650785939926 0 -0.0076478650785939926 -0.0013324360206473998 0 0 0 -0.0076273320040588215 -0.049587740513627243 -0.0019242353634566888 0 -0.0019242353634566888 0.00083979914787390975 0 0 0 -0.012186985341438333 0.022177828693589058 0.023965424533354956 0 0.023965424533354956 0.037101182762335871 0 0 0 0.014819752863981239 0.027747394400180675 -0.0057348331180535062 0 -0.0057348331180535062 0.015413715255303939 0 0 0 0.010790277413871119 0.0070210890280023499 0.00016334849113716632 0 0.00016334849113716632 -0.0051153771035700171 0 0 0 0.00047642798110807605 -0.0013817694441911263 0.0062964299248524681 0 0.0062964299248524681 5.9300869067684114e-05 0 0 0 -0.00033061714378086228 0.0066984082793647088 0.00077526050631599613 0 0.00077526050631599613 0.01707151100219137 0 0 0 0.0059424798203890185 -0.015929314478493939 0.0048271802067326713 0 0.0048271802067326713 -0.00028179267945072431 0 0 0 -0.0040527767894861684 0.044935865972372813 0.013659877541463694 0 0.013659877541463694 0.012508001828282711 0 0 0 0.014360966950163867 0.010022924352309295 0.0053018033516910703 0 0.0053018033516910703 0.0017539850865128572 0 0 0 0.002944227359705539 0.011381256752672061 -0.0061959476202373964 0 -0.0061959476202373964 0.0034748304722815489 0 0 0 0.0037140218062384125 0.045353800811727088 -0.022585622341747321 0 -0.022585622341747321 0.030770312833884653 0 0 0 0.019031028411402938 -0.090035061921135584 0.0051583348828413422 0 0.0051583348828413422 0.0013767150354673241 0 0 0 -0.022164586721417023 0.017054261240516778 0.0014024072533359972 0 0.0014024072533359972 0.00062885574870301668 0 0 0 0.0044207792473049488 -0.0052777439396545223 0.0056813267428493398 0 0.0056813267428493398 -0.00052976971057879657 0 0 0 -0.0014518784125583297 -0.0021055589990900195 -0.007639152247781375 0 -0.007639152247781375 -0.001246501289954436 0 0 0 -0.00083801507226111301 0.018540522250693619 0.0060111747565377242 0 0.0060111747565377242 0.0054507601758579383 0 0 0 0.0059978206066378832 -0.03138086957774127 0.0043313071615563442 0 0.0043313071615563442 0.00099585638038518498 0 0 0 -0.00759625329933903 -0.054253300141981181 -0.0099980405265406649 0 -0.0099980405265406649 0.0032756735238067963 0 0 0 -0.012744406654543596 0.045002536687140271 0.0087670934205090756 0 0.0087670934205090756 0.025062910556325591 0 0 0 0.017516361810866465 -0.018599104976224023 -0.004846490457848629 0 -0.004846490457848629 -0.0012211211845001291 0 0 0 -0.0049550565401810243 0.029950149618067697 0.0018618887564988001 0 0.0018618887564988001 0.02852431272808037 0 0 0 0.014618615586537022 0.02222902712633211 -0.014261688357700373 0 -0.014261688357700373 0.0028513568374666648 0 0 0 0.0062700959909496919 0.02453203377120558 0.0014422440716106502 0 0.0014422440716106502 0.011541136596673995 0 0 0 0.0090182925919699147 0.013928950989740046 0.0047423964440875604 0 0.0047423964440875604 0.0029938607088329135 0 0 0 0.0042307029246432416 0.016578071688881892 -0.00045701122643338333 0 -0.00045701122643338333 -5.8758496297891898e-05 0 0 0 0.0041298282981460021 0.0026938563792999882 0.0053209290832735828 0 0.0053209290832735828 0.0015474493519171822 0 0 0 0.0010603264328042923 0.017060452299352397 -0.0054912759539179224 0 -0.0054912759539179224 0.046294444591576701 0 0 0 0.015838724222732265 0.017051090159158181 -0.0052271519821729968 0 -0.0052271519821729968 0.043759323832704256 0 0 0 0.015202603497965607 -0.0099249967214642687 -0.0085009473451585493 0 -0.0085009473451585493 0.00046088178436398675 0 0 0 -0.0023660287342751052 -0.012736534071962902 -0.0093172955214181619 0 -0.0093172955214181619 0.00069266424617075995 0 0 0 -0.0030109674564480216 0.027372336273482678 0.013995571374105342 0 0.013995571374105342 0.011173625056888792 0 0 0 0.0096364903325928397 0.033893854556666714 0.015770870233348611 0 0.015770870233348611 0.01137623006640287 0 0 0 0.011317521155767452 0.027266434007055862 0.016508376189071861 0 0.016508376189071861 0.0061588267080561199 0 0 0 0.0083563151787779955 0.044501684431839883 0.013733541716084152 0 0.013733541716084152 0.0089633934218940059 0 0 0 0.013366269463433555 0.013755438313746794 0.0032281008300699974 0 0.0032281008300699974 0.0045845209513758461 0 0 0 0.0045849898162806596 0.033583289090166023 0.00092498003641992843 0 0.00092498003641992843 0.037698563498388654 0 0 0 0.017820463147138692 0.02711490306718721 0.0023564652458551438 0 0.0023564652458551438 0.018477799050354016 0 0 0 0.01139817552938531 -0.031183583503649331 -0.0035121469740733435 0 -0.0035121469740733435 0.00096391499355930055 0 0 0 -0.0075549171275225424 -0.034726139121879815 -0.00094439685440855792 0 -0.00094439685440855792 0.00016867067132825264 0 0 0 -0.0086393671126379218 -0.059580165074385655 0.0030680573978886794 0 0.0030680573978886794 5.2007684657850994e-05 0 0 0 -0.014882039347431902 0.028043072876203813 0.009982811680094383 0 0.009982811680094383 0.010588706991310523 0 0 0 0.0096579449668785806 0.028793865260825828 0.010307689727632444 0 0.010307689727632444 0.012524022130740164 0 0 0 0.0103294718478915 0.017132284631447895 0.003748272449243726 0 0.003748272449243726 -0.0003537707454115864 0 0 0 0.0041946284715090789 0.012882054100704116 0.0041224410483399736 0 0.0041224410483399736 0.0011450811155825323 0 0 0 0.0035067838040716611 -0.039697596042400342 -0.0080345208467184764 0 -0.0080345208467184764 -0.002619123175001771 0 0 0 -0.010579179804350537 -0.025167089392410222 0.003535538658097478 0 0.003535538658097478 -0.00042883078742807397 0 0 0 -0.006398980044959578 -0.019729267074621422 0.0058939915103297406 0 0.0058939915103297406 -0.000344100652719663 0 0 0 -0.0050183419318352695 0.054996806702640177 0.013847753076920655 0 0.013847753076920655 0.034487801652602013 0 0 0 0.022371152088810464 -0.019193226599307112 -0.0049292150922957689 0 -0.0049292150922957689 0.0016911140864136476 0 0 0 -0.0043755281282233383 0.014200616714535277 -0.0017496474707315362 0 -0.0017496474707315362 0.00095403610308518981 0 0 0 0.0037886632044051164 0.024363913195461773 -0.0025375213938857505 0 -0.0025375213938857505 -0.0039460956686712886 0 0 0 0.0051044543816976228 -0.013594934048049456 -0.0054979070838007404 0 -0.0054979070838007404 0.0024755532884471743 0 0 0 -0.0027798451899005705 0.0036416848594333978 -0.011779963853128465 0 -0.011779963853128465 -0.002597592387256935 0 0 0 0.00026102311804411635 0.0081049807940500804 -0.00050803347599358284 0 -0.00050803347599358284 0.0092079591883910301 0 0 0 0.0043282349956102776 0.02993162496906724 0.0063809859984318125 0 0.0063809859984318125 0.0043107186597664653 0 0 0 0.0085605859072084255 -0.018688675210557053 0.014365047169732581 0 0.014365047169732581 0.002835826679824599 0 0 0 -0.0039632121326830735 -0.026183433212197245 0.002901647612135079 0 0.002901647612135079 0.002084627138847911 0 0 0 -0.0060247015183373387 -0.046256653357585664 -0.0050675495434171526 0 -0.0050675495434171526 0.0052114739875053773 0 0 0 -0.010261294842520086 0.0037161405435157391 -0.0015911937816828065 0 -0.0015911937816828065 -0.015377022001304974 0 0 0 -0.0029152203644473296 0.006507531348190515 0.0021174046222024734 0 0.0021174046222024734 -0.020910281329273195 0 0 0 -0.0036006874952706769 -0.01458330951353199 0.0065567031044234565 0 0.0065567031044234565 0.00017863653019715119 0 0 0 -0.0036011682458337085 -0.0093405697289126351 0.0056510615502974619 0 0.0056510615502974619 -0.00016308658901980494 0 0 0 -0.0023759140794831104 0.0080549480217527343 0.0024908218960975172 0 0.0024908218960975172 0.0058682935850907034 0 0 0 0.003480810401710859 -0.026978921600622104 0.005778146636368252 0 0.005778146636368252 0.001081395782185442 0 0 0 -0.0064743814546091624 -0.019092467742412626 -0.012006107248918263 0 -0.012006107248918263 -0.0038061353725801911 0 0 0 -0.0057246507787482043 0.0029745463656690803 -0.0020082729685103051 0 -0.0020082729685103051 -0.048364062214229959 0 0 0 -0.011347378962140185 -0.010199678889746711 0.021309875831428099 0 0.021309875831428099 0.003367445727768148 0 0 0 -0.0017080582904946962 0.012297311170428298 0.0041107225149242393 0 0.0041107225149242393 0.0040984491961266467 0 0 0 0.0040989400916387362 0.063282135901718578 0.0043453712314655002 0 0.0043453712314655002 0.029962957470279439 0 0 0 0.023311273342999456 0.042653067594898328 0.014010633198587752 0 0.014010633198587752 0.035277738715600464 0 0 0 0.019482701577624703 -0.043081153090082813 0.00050679067810541212 0 0.00050679067810541212 0.0084672281556567239 0 0 0 -0.0086534812336065432 0.033011815954353388 0.01637350425374888 0 0.01637350425374888 0.039021682587414688 0 0 0 0.018008374635442026 0.039195854334718401 0.013160304457936145 0 0.013160304457936145 0.02486064327941763 0 0 0 0.016014124403534023 -0.0048714935769101492 0.0062741002435175944 0 0.0062741002435175944 0.00029754185392714353 0 0 0 -0.0011434879307457516 0.0060688299746401754 0.0046381224788968377 0 0.0046381224788968377 0.00041530292704316379 0 0 0 0.0016210332254208361 -0.051303021350125932 0.014152977396045513 0 0.014152977396045513 0.004975285165101373 0 0 0 -0.011581934046256182 0.0048722568305334824 -0.0036587820440336094 0 -0.0036587820440336094 0.020952554972841701 0 0 0 0.0064562029508437955 0.024394508843362927 0.012215569962924118 0 0.012215569962924118 0.043895852125726609 0 0 0 0.017072590242272392 0.0078261266902742432 -0.0082783793668209996 0 -0.0082783793668209996 0.0051249177872057794 0 0 0 0.0032377611193699987 -0.036523946432099365 0.00029808150818677603 0 0.00029808150818677603 0.00059278467385549122 0 0 0 -0.0089827904395609632 -0.065537033669359451 0.00014176126376003184 0 0.00014176126376003184 0.0033615996115661517 0 0 0 -0.015543858514448311 -0.025851571767287085 0.0095240474012927567 0 0.0095240474012927567 -0.0003560365903030327 0 0 0 -0.0065519020893975433 0.023096930713292163 -0.0097919437398772402 0 -0.0097919437398772402 0.012449924971467685 0 0 0 0.0088867139211899482 0.0071617936684696543 -0.0071469443705001953 0 -0.0071469443705001953 0.010091407760055182 0 0 0 0.0043133003571312056 0.034443603404809342 0.0071450090875267228 0 0.0071450090875267228 0.0053709594965191815 0 0 0 0.0099536407253321309 -0.01354762525561894 -0.012312899501024092 0 -0.012312899501024092 -0.0054305917804968983 0 0 0 -0.0047445542590289595 -0.023680691645160269 0.0048497140960206808 0 0.0048497140960206808 0.00048085953992869045 0 0 0 -0.0057999580263078969 -0.032272420614438996 -0.0083845036972160086 0 -0.0083845036972160086 0.0015495878842943624 0 0 0 -0.007680708182536149 0.012085096603886236 -0.0061175031892856113 0 -0.0061175031892856113 0.015918510119979662 0 0 0 0.0070009016809664815 -0.013573067198631951 0.0042690510679104232 0 0.0042690510679104232 0.00098002266527530673 0 0 0 -0.003148261133339162 0.015216979559689219 0.0047334643161612245 0 0.0047334643161612245 0.036596061433582877 0 0 0 0.01295326024831802 0.015789811748395843 -0.00059149250179329528 0 -0.00059149250179329528 0.0052643031536266363 0 0 0 0.0052635287255056199 0.0098255679778739835 -0.007384078734068697 0 -0.007384078734068697 0.008367647367219011 0 0 0 0.0045483038362732348 -0.033552803571727172 0.0017443916794461882 0 0.0017443916794461882 0.0012988660549722482 0 0 0 -0.0080634843791887283 -0.058789061850354957 -0.0050965900639075301 0 -0.0050965900639075301 0.0025653645881116294 0 0 0 -0.014055924315560846 -0.031039622839490664 -0.0060090581889598871 0 -0.0060090581889598871 0.0022214574849576604 0 0 0 -0.0072045413386332725 0.0031593014505074332 -0.0041487983922695558 0 -0.0041487983922695558 0.010470601192504342 0 0 0 0.0034074756607529386 0.0077343421980899385 -0.0016177213707611673 0 -0.0016177213707611673 0.020320871223254738 0 0 0 0.0070138033553361623 -0.0035866619605691777 0.0049973494387172447 0 0.0049973494387172447 0.001097193460407586 0 0 0 -0.00062236712504039663 0.0072301920543571679 -0.0077141637986785846 0 -0.0077141637986785846 0.0053872480285417357 0 0 0 0.0031543600207247502 -0.016054999805646186 -0.0054693189289970467 0 -0.0054693189289970467 0.0012575235252635063 0 0 0 -0.0036993690700956976 -0.00920901317524544 0.0053330003431959769 0 0.0053330003431959769 0.0011546936805818817 0 0 0 -0.0020135798736658859 0.0098367450927271047 -0.0073661548524102047 0 -0.0073661548524102047 0.0050235184669217559 0 0 0 0.0037150658899122169 0.017294703903343357 -0.0015978910570415873 0 -0.0015978910570415873 -0.0020843410557990875 0 0 0 0.0038025907118860681 -0.037008240409184573 0.0015954363581218989 0 0.0015954363581218989 0.001014460934301839 0 0 0 -0.0089984448687206904 -0.068043677986716483 -0.0033124227018160035 0 -0.0033124227018160035 0.0014304933845647183 0 0 0 -0.01665329615053792 -0.025879525448064804 -0.0025424638087180318 0 -0.0025424638087180318 -0.00085695109732043806 0 0 0 -0.0066841191363462941 0.055929292850387585 0.0061935618789590308 0 0.0061935618789590308 0.037971222633901236 0 0 0 0.023475128871072254 0.051733852725534268 0.012558749840738348 0 0.012558749840738348 0.0297842009187681 0 0 0 0.020379513411075689 -0.025744100527240854 -0.0026415746911046837 0 -0.0026415746911046837 -0.00037770514510349074 0 0 0 -0.0065304514180860584 0.070701749045753992 0.0052218204245432715 0 0.0052218204245432715 0.053759819712577706 0 0 0 0.031115392189582813 0.028269108721646861 -0.0048892267682218316 0 -0.0048892267682218316 0.0069178998691070415 0 0 0 0.0087967521476884636 0.0028087480240049922 -0.0078086503994208648 0 -0.0078086503994208648 0.0084602698671972787 0 0 0 0.0028172544728005539 0.066352905892505365 -0.0056998072433850052 0 -0.0056998072433850052 0.046851051849397418 0 0 0 0.02830098943547571 0.10580160177501521 0.0053499642710022055 0 0.0053499642710022055 0.084503659089917749 0 0 0 0.047576315216233206 -0.03052344811835523 -0.012606933603706079 0 -0.012606933603706079 0.0096569655251413922 0 0 0 -0.0052166206483034716 -0.0067464869592457032 0.0056078689118206262 0 0.0056078689118206262 0.00064299001802124722 0 0 0 -0.0015258742353061131 0.018180828830133344 0.004407846644279196 0 0.004407846644279196 0.00049206121788969957 0 0 0 0.0046682225120057586 -0.023462399667936229 0.012428036734199094 0 0.012428036734199094 -0.00012528044775117486 0 0 0 -0.0058969200289217816 0.024381514830096804 -0.008401336032989426 0 -0.008401336032989426 0.007491122447249754 0 0 0 0.007968159319336629 0.017266728891801947 0.00027458321888480206 0 0.00027458321888480206 0.0014518696318030992 0 0 0 0.0046796496309012619 -0.0049101471880968455 0.0050664428643341693 0 0.0050664428643341693 0.0043393322434541965 0 0 0 -0.0001427037361606666 0.070894724985070323 0.0071229202392532054 0 0.0071229202392532054 0.032369985570228188 0 0 0 0.0258161776388246 0.011131441917342944 -0.0069544273732516371 0 -0.0069544273732516371 -0.0047263224870153359 0 0 0 0.0016012798575819054 0.022773490090751553 -0.0018812586243563273 0 -0.0018812586243563273 0.0032162473240733014 0 0 0 0.0064974343537062274 0.023798174372110827 -0.0025188072918756466 0 -0.0025188072918756466 0.0047359837325608792 0 0 0 0.007133539526167916 0.031818725401130205 -0.0080769449261662851 0 -0.0080769449261662851 0.012087559832275496 0 0 0 0.010976571308351418 0.04392440849710641 -0.0026359719181764385 0 -0.0026359719181764385 0.042869646837789654 0 0 0 0.021698513833723981 0.072853916280617076 -0.00018237780576724205 0 -0.00018237780576724205 0.076398092111467641 0 0 0 0.037313002098021159 0.052979972529085886 0.0089977780787331429 0 0.0089977780787331429 0.02707198596475531 0 0 0 0.020012989623460278 0.023679943512742573 0.0090819402498068993 0 0.0090819402498068993 0.012444256219309828 0 0 0 0.0090310499330130949 0.028641537046128138 -0.0077788206269434612 0 -0.0077788206269434612 0.0015301949148863458 0 0 0 0.0075429329902536035 0.033782443606601063 -0.015123413669353897 0 -0.015123413669353897 0.016668970246052246 0 0 0 0.01261285346316332 -0.022480447681294077 -0.0068056164350233095 0 -0.0068056164350233095 0.0010525379025782822 0 0 0 -0.0053569774446789592 -0.01577353006885944 0.0054748123629151527 0 0.0054748123629151527 0.00050888118167300052 0 0 0 -0.0038161622217966103 -0.0095899760901775721 0.0064320999551962252 0 0.0064320999551962252 0.0009009937076349759 0 0 0 -0.0021722455956356495 -0.024031544754936449 0.0029672225895429755 0 0.0029672225895429755 0.020339910591757798 0 0 0 -0.00092290854079465218 0.018195867855717168 -0.007833673058034285 0 -0.007833673058034285 0.0073592777043505198 0 0 0 0.0063887863900169151 0.035293425063580769 0.0069516893075608627 0 0.0069516893075608627 0.016707121179297846 0 0 0 0.013000136560719661 0.01762795859039706 0.0053267805826070717 0 0.0053267805826070717 0.0027784284076891683 0 0 0 0.0051015967495215576 0.0052399549397856293 -0.0020686874163780428 0 -0.0020686874163780428 -0.029534872706288628 0 0 0 -0.0060737294416257637 0.011271173107335188 0.0044148309669291936 0 0.0044148309669291936 0.00025785668468867456 0 0 0 0.0028822574480059666 0.0093841808999232598 -0.0074169749181030829 0 -0.0074169749181030829 0.0091797651824242626 0 0 0 0.0046409865205868858 0.018043975776907192 0.00024734431128447122 0 0.00024734431128447122 -0.0026781706657887762 0 0 0 0.0038414512777796071 0.014163071973295249 0.016071434056672607 0 0.016071434056672607 0.0009337563408511329 0 0 0 0.0037742070785365955 0.016560176561593906 0.018523135762342324 0 0.018523135762342324 0.001872206920312508 0 0 0 0.0046080958704767111 -0.0044073943939247073 -0.011528137719865161 0 -0.011528137719865161 0.0031393646881686388 0 0 0 -0.00031700742643900326 0.045191724511337988 -0.031670670113224011 0 -0.031670670113224011 0.063017122719697616 0 0 0 0.027052211807758908 0.016527177091803482 0.001059078733630515 0 0.001059078733630515 -0.00084188921962060313 0 0 0 0.0039213219680457202 -0.02643545505833636 -0.0046360704281707132 0 -0.0046360704281707132 0.00099255108228379907 0 0 0 -0.0063607259940131333 -0.00069496170367977506 -0.00089413181504427452 0 -0.00089413181504427452 -0.00072850489829323628 0 0 0 -0.00035586665049325283 0.13742610566329561 -0.0011672993637281692 0 -0.0011672993637281692 0.092644303370805758 0 0 0 0.057517602258525313 0.097705595215062377 -0.014731385294477484 0 -0.014731385294477484 0.072483182290857456 0 0 0 0.042547194376479795 0.06267317138185069 0.007976946545209751 0 0.007976946545209751 0.042345557407850842 0 0 0 0.026254682197425439 -0.0011951571839441399 0.0014779844099884669 0 0.0014779844099884669 -0.0011672050316189342 0 0 0 -0.00059059055389054649 -0.00026120302362781363 -0.00073027196483832491 0 -0.00073027196483832491 -0.00046143841237273995 0 0 0 -0.00018066035900027717 0.0874707902138947 -0.00086364571962043964 0 -0.00086364571962043964 0.056042412414575526 0 0 0 0.035878300657117501 -0.00035148203361790031 0.0012098501661939043 0 0.0012098501661939043 -0.00079849932468478713 0 0 0 -0.00028749533957594942 0.014398145729465321 0.00039418711402990059 0 0.00039418711402990059 0.00076355904927550406 0 0 0 0.0037904261946852058 0.010892663457980154 -0.0072907309206482612 0 -0.0072907309206482612 0.0040964185845441189 0 0 0 0.0037472705106310657 -0.0091608399160897566 0.0062998718295363219 0 0.0062998718295363219 0.0023392390537474751 0 0 0 -0.0017054002155855695 -0.013299636501672679 -0.0088999649457355279 0 -0.0088999649457355279 0.0019078029386655482 0 0 0 -0.0028479583907517758 0.015747594954327589 -0.0037643145992908317 0 -0.0037643145992908317 -0.0042417938607946966 0 0 0 0.002876450273383218 -0.0036802155539368275 0.016676816331768318 0 0.016676816331768318 -0.00020544164295865919 0 0 0 -0.00097141429922409372 0.0088585739413090669 -0.012506712248923524 0 -0.012506712248923524 0.0028406633985544882 0 0 0 0.002924809334965861 0.031560941152867228 -0.005992292107201258 0 -0.005992292107201258 0.032230987610160744 0 0 0 0.015947982190756993 0.060122599864517914 0.0041492614647174464 0 0.0041492614647174464 0.060937920408573709 0 0 0 0.03026513006827293 0.020920959637319464 0.0036171566562685636 0 0.0036171566562685636 0.027359175153170129 0 0 0 0.012070033697622384 -0.0071744273383430313 0.0036672788776531996 0 0.0036672788776531996 0.002200522186219106 0 0 0 -0.0012434762880309744 0.011756706915303894 -0.0061251926882636793 0 -0.0061251926882636793 0.021522096291894832 0 0 0 0.0083197008017996954 0.03713891281702926 0.0034366266738670853 0 0.0034366266738670853 0.043322566511632965 0 0 0 0.020115369832165539 0.0052758116734459432 -0.0081880635555881265 0 -0.0081880635555881265 0.0033249650931146402 0 0 0 0.0021501941916401562 0.018403944459987224 0.0043086229988221732 0 0.0043086229988221732 0.00058673377005850902 0 0 0 0.0047476695575114315 0.0075208892566291374 -0.010926855010577274 0 -0.010926855010577274 0.0062252854370854482 0 0 0 0.0034365436734286603 -0.0046039477702435327 0.013175937448914432 0 0.013175937448914432 0.00073474653870198026 0 0 0 -0.00096730030788538812 0.024293239032487021 0.00040265704827033982 0 0.00040265704827033982 0.010174878080603411 0 0 0 0.0086170292782726116 0.027020015005701656 0.00054828782341242305 0 0.00054828782341242305 0.011084129107470531 0 0 0 0.0095260360282930501 0.0029432235332926739 0.0055222478225352162 0 0.0055222478225352162 0.00035573678794160318 0 0 0 0.00082474008030856798 -0.00019402454369835728 0.0018302162661586949 0 0.0018302162661586949 0.013142152999204477 0 0 0 0.0032370321138765349 0.026981417010699907 -0.0074511678091453704 0 -0.0074511678091453704 0.0091472053149502797 0 0 0 0.0090321555814125848 0.011599582932551294 -0.0076966279794056652 0 -0.0076966279794056652 0.0046212464353353744 0 0 0 0.0040552073419716601 0.045437468519857943 -0.0061488543294311304 0 -0.0061488543294311304 0.010566241457656389 0 0 0 0.01400092749437859 0.028847186940396757 0.0015416094474899888 0 0.0015416094474899888 0.021575234036521812 0 0 0 0.012605605244229656 0.024684659328740838 0.001610606528360356 0 0.001610606528360356 0.0090850937918756092 0 0 0 0.0084424382801541464 -0.01117209074396662 0.0055348867855712653 0 0.0055348867855712653 0.00040918316021225365 0 0 0 -0.0026907268959385916 0.0077480885296260637 -0.0011065039092906701 0 -0.0011065039092906701 0.016421589580091173 0 0 0 0.0060424195274293106 0.0084396368634819564 -0.00026833539241732582 0 -0.00026833539241732582 0.020328700205652795 0 0 0 0.007192084267283687 0.043927013041053453 0.024617159826789879 0 0.024617159826789879 0.067307602206389566 0 0 0 0.027808653811860751 0.023522474939347528 -0.0052408582316397084 0 -0.0052408582316397084 0.077258983039295015 0 0 0 0.02519536449466064 0.06852594653144739 0.007134927117585517 0 0.007134927117585517 0.039100018622416188 0 0 0 0.026906491288466006 0.022453966022134862 0.010093755897439903 0 0.010093755897439903 0.016800663794151835 0 0 0 0.009813657454071676 -0.033106057708619296 -0.0030813597736110768 0 -0.0030813597736110768 0.00098002459815060838 0 0 0 -0.008031508277617172 0.0027756091996058987 0.0054302366405150262 0 0.0054302366405150262 -1.3995280192701659e-05 0 0 0 0.00069040347985330035 -0.010717871817182145 -0.0088553717021192854 0 -0.0088553717021192854 -0.0020918618981037584 0 0 0 -0.0032024334288214724 -0.011035567613114229 0.0053078745572054994 0 0.0053078745572054994 -0.0004034561818709731 0 0 0 -0.002859755948746304 0.024095854376525026 0.00027413919603650827 0 0.00027413919603650827 -0.0046947334073987575 0 0 0 0.0048502802422815605 -0.015829068438283175 0.0016947836606832736 0 0.0016947836606832736 0.00099197822857696565 0 0 0 -0.0037092725524265524 -0.015499350807151225 0.00212212511999581 0 0.00212212511999581 -0.0019858552490551722 0 0 0 -0.0043713015140515992 -0.020452957580260483 -0.0032237159140260153 0 -0.0032237159140260153 0.0017206041008739868 0 0 0 -0.0046830883698466231 -0.020175089142614754 -0.0038534641984053247 0 -0.0038534641984053247 -0.0022903243855505089 0 0 0 -0.0056163533820413145 -0.0044180987859220762 -0.0034252470402642288 0 -0.0034252470402642288 0.0078312966062809991 0 0 0 0.00085329945508973506 0.019017323521565575 0.0010989179277158386 0 0.0010989179277158386 -9.7247485106995548e-05 0 0 0 0.0047300190091146442 0.056799391895575702 0.010898648156209667 0 0.010898648156209667 0.011414063677379849 0 0 0 0.01705336389323886 0.02058586576373618 -0.0042690903710209741 0 -0.0042690903710209741 0.024997062274867143 0 0 0 0.011395732009650827 0.027089149058977136 0.013291945453327316 0 0.013291945453327316 0.025699513521209198 0 0 0 0.013197165645046589 0.0065046014869542118 -0.0083051036240122268 0 -0.0083051036240122268 0.011188408037677233 0 0 0 0.0044232523811578717 -8.2995068092299581e-05 0.0033094115877698727 0 0.0033094115877698727 -0.0077113083240092821 0 0 0 -0.001948575848025562 0.026479226382082895 0.0023409599408059645 0 0.0023409599408059645 -0.0068059899164592923 0 0 0 0.0049183091164059006 0.041130613322543738 -0.0047050350532895635 0 -0.0047050350532895635 -0.0069040177176289798 0 0 0 0.0085566489012289665 -0.00024389729859609265 -0.0021705090028136809 0 -0.0021705090028136809 -0.0048854363688716432 0 0 0 -0.0012823334168670171 0.009429808358818785 -0.0044775733526040695 0 -0.0044775733526040695 0.00049591901926596127 0 0 0 0.0024814318445212022 0.017440102104818445 0.00077148436011205412 0 0.00077148436011205412 0.0019008982734726176 0 0 0 0.0048352500945727794 -0.014747454017726863 0.0016012467464652591 0 0.0016012467464652591 -0.0049068941303508761 0 0 0 -0.0049135870370194349 -0.018974063861730176 -0.0031785933505605419 0 -0.0031785933505605419 -0.006312624464279183 0 0 0 -0.0063216720815023391 -0.019361748646060915 -0.0024170480371386409 0 -0.0024170480371386409 -0.0024675150223150049 0 0 0 -0.0054573159170939797 -0.015169293243944572 0.0010742028650719811 0 0.0010742028650719811 -0.0020588993792800894 0 0 0 -0.0043070481558061674 0.0061027467321873308 -0.011288460177045601 0 -0.011288460177045601 0.005183093005179662 0 0 0 0.002821459934341769 0.002769254624638031 0.0056379433961462663 0 0.0056379433961462663 0.00081048069189730218 0 0 0 0.00089493382913383417 0.010631955825456743 -0.0077027944102209013 0 -0.0077027944102209013 0.0071026680410509468 0 0 0 0.004433655966626926 0.012885875189017043 -0.0069375868348322683 0 -0.0069375868348322683 0.0049299228350269397 0 0 0 0.0044539495060109957 0.0067112829052677313 0.0049485579319404251 0 0.0049485579319404251 0.0019562963021482888 0 0 0 0.0021668948018540059 0.014245770564238116 0.0040367162571609324 0 0.0040367162571609324 0.00037320808518204185 0 0 0 0.0036547446623550412 0.014211583568512374 0.0047545513492117594 0 0.0047545513492117594 0.0003221530714665119 0 0 0 0.0036334341599947211 0.016703271399710326 -0.01353175109244413 0 -0.01353175109244413 0.049609500681748686 0 0 0 0.01657819302036477 0.041037299641286093 -0.0024831929656538021 0 -0.0024831929656538021 0.13979468485046598 0 0 0 0.045207996122938007 -0.01148280117669776 -0.00049295060275200697 0 -0.00049295060275200697 0.0054951368417018864 0 0 0 -0.0014969160837489583 0.027007297255422447 0.00095071168756357197 0 0.00095071168756357197 0.019582110978867473 0 0 0 0.01164735205857248 0.0088910431581790267 -0.0068479408899084215 0 -0.0068479408899084215 0.012786816965840775 0 0 0 0.0054194650310049608 0.015780633690584602 0.0046544718373962941 0 0.0046544718373962941 0.0030758275357821892 0 0 0 0.0047141153065916961 0.047998818962624534 0.011365554797623245 0 0.011365554797623245 0.022824735840262234 0 0 0 0.017705888700721817 -0.016221355866264608 -0.005970203240275862 0 -0.005970203240275862 0.0005154393712100136 0 0 0 -0.0039264791237637042 0.027578475990098137 -0.0091548241126114364 0 -0.0091548241126114364 0.021414609910534413 0 0 0 0.01224827147515815 0.027957795605650867 -0.001240958157821534 0 -0.001240958157821534 0.0085970502513312008 0 0 0 0.0091387114642455212 -0.016365369898743487 0.01149387171415539 0 0.01149387171415539 0.0013061978317137068 0 0 0 -0.0037647930167574728 0.015920272484292397 -0.010932486119558715 0 -0.010932486119558715 0.012137807090575325 0 0 0 0.0070145198937168751 0.016896049376879496 -0.0084192575966762113 0 -0.0084192575966762113 0.010126658453027626 0 0 0 0.0067556769574768083 0.0059506017522022725 -0.0045092359845496227 0 -0.0045092359845496227 0.00026279258599642974 0 0 0 0.0015533485845497241 0.03290129673914579 0.0027085812789804931 0 0.0027085812789804931 0.026125936026406976 0 0 0 0.014756808191388214 0.017176485550413553 -0.0070582925657663607 0 -0.0070582925657663607 -0.0057041760845238376 0 0 0 0.0028680773664724294 0.0058715315171495586 -0.00025385980127490271 0 -0.00025385980127490271 -0.013990019980772581 0 0 0 -0.0020296221159057659 -0.00026391614117973576 0.006357518002185359 0 0.006357518002185359 -0.0002581609878825851 0 0 0 -0.00013051928226557978 0.0029605474245083339 0.006071519181302526 0 0.006071519181302526 -0.00012091461926315786 0 0 0 0.00070990820131129444 0.0086851406892727682 0.0011092304512809621 0 0.0011092304512809621 0.011792049253867313 0 0 0 0.0051192974857850225 -0.001261906732779039 -0.0015953968432835253 0 -0.0015953968432835253 0.013620268905291721 0 0 0 0.0030895905431281706 0.0083319581246819943 0.0043202682329422908 0 0.0043202682329422908 -6.3597893129117844e-05 0 0 0 0.0020670900578882226 0.0097426691810893664 0.0051598365712007951 0 0.0051598365712007951 0.002410350472976816 0 0 0 0.003038254913516546 0.0085832396713809191 0.0046222150159350092 0 0.0046222150159350092 0.0015396724635216678 0 0 0 0.0025307280337256433 0.0092719605145495099 -0.002565917812290569 0 -0.002565917812290569 -0.020389226194004628 0 0 0 -0.0027793164198638143 0.013544913033878891 -0.0031345343566887424 0 -0.0031345343566887424 -0.0029470399867882469 0 0 0 0.002649468261772675 0.022314316514433392 0.00075000604064848209 0 0.00075000604064848209 0.0016593838465014388 0 0 0 0.0059934250902336852 0.018076893070364808 -0.00018465757150490369 0 -0.00018465757150490369 -0.01704769336261347 0 0 0 0.00025729992693784842 0.028795695767737797 -0.01353488956400768 0 -0.01353488956400768 0.049958794560910465 0 0 0 0.019688622582162064 0.0355142866200584 0.0062449758915122944 0 0.0062449758915122944 0.0089481286246835268 0 0 0 0.011115603811185482 -0.00041038197356024764 -0.0038683751814602152 0 -0.0038683751814602152 -0.003718996623662596 0 0 0 -0.0010323446493057942 0.022909536743364212 -0.0055315162507263427 0 -0.0055315162507263427 0.0033228898944988039 0 0 0 0.0065581066594656567 -0.00048068848101928685 0.0057919474844956298 0 0.0057919474844956298 -0.0052790455917388623 0 0 0 -0.0014399335181895512 -0.017621473138790478 0.014969370615384989 0 0.014969370615384989 -0.0003509644654777766 0 0 0 -0.0044931094010671746 0.014106245045006627 -0.011942335142791312 0 -0.011942335142791312 0.0062194927547436496 0 0 0 0.005081434449937583 0.015366150269260526 -0.0093647406504711594 0 -0.0093647406504711594 0.0059120140096982077 0 0 0 0.0053195410697396972 0.010011053268200121 0.00043414503833697198 0 0.00043414503833697198 0.016432658609938536 0 0 0 0.0066109279695346704 0.01953226390166618 -0.00012755736444830523 0 -0.00012755736444830523 -0.0022761892680049911 0 0 0 0.0043140186584156304 0.0026236309357625665 -0.0033424555765117769 0 -0.0033424555765117769 -0.0031228755742467307 0 0 0 -0.00012481115962081901 0.0041854914908667773 0.0051432939233195807 0 0.0051432939233195807 -0.0047111233043608536 0 0 0 -0.00013140795337363009 0.01191288853834005 -0.0009960364637400243 0 -0.0009960364637400243 -0.0047375258366295636 0 0 0 0.0017938406754277603 0.0066976275139289942 -0.0040415133367111694 0 -0.0040415133367111694 -0.0029887629387366221 0 0 0 0.00092721614379809303 0.032110742273677398 -0.01101257509864137 0 -0.01101257509864137 0.0047960379464203617 0 0 0 0.0092266950550244642 0.053215319329558704 -0.0092104229979640406 0 -0.0092104229979640406 0.044959673485207102 0 0 0 0.024543748203691436 0.083850373174517878 0.011182567806661381 0 0.011182567806661381 0.079988642691971035 0 0 0 0.040959753966622298 0.01625899668663168 0.004260154835703263 0 0.004260154835703263 -1.4571445277396233e-05 0 0 0 0.0040611063103385692 -0.03448549349217267 0.014706398268859 0 0.014706398268859 0.00080277302013587182 0 0 0 -0.0084206801180092272 -0.028408601792991983 0.010941801441069418 0 0.010941801441069418 -0.00014026372164788192 0 0 0 -0.0071372163786599385 0.0067711834900761056 -0.0043939507558476421 0 -0.0043939507558476421 0.00061969259046707262 0 0 0 0.0018477190201357805 0.0096445991815943249 0.0023577193334217142 0 0.0023577193334217142 0.0058139492713481442 0 0 0 0.0038646371132356147 0.0098240782719668327 -0.0068470280606151845 0 -0.0068470280606151845 0.0066390224223027133 0 0 0 0.0041157751735673934 0.01301739596465621 -0.0086731006972064553 0 -0.0086731006972064553 0.011374462960025592 0 0 0 0.0060979647311704402 -0.010504871012543715 0.013024120008747239 0 0.013024120008747239 -0.00047154855575071153 0 0 0 -0.0027441048920736621 0.0092922926548494322 -0.0097372546718968861 0 -0.0097372546718968861 0.0064565127006297462 0 0 0 0.0039372013388697669 0.008356149056583495 -0.011876169823725996 0 -0.011876169823725996 0.0052665332019278255 0 0 0 0.0034056705646278718 -0.016641596154411242 0.0053309145878661082 0 0.0053309145878661082 -0.00053284532172859222 0 0 0 -0.0042936103690349604 -0.021588324540001407 -0.0093079232170113907 0 -0.0093079232170113907 -0.0022209781043693415 0 0 0 -0.0059523256610926889 -0.018406209211644646 -0.0092293704642008052 0 -0.0092293704642008052 0.00065459880314538282 0 0 0 -0.0044379026021248106 -0.015276134510171584 0.0048865635963754751 0 0.0048865635963754751 0.00057584909121946581 0 0 0 -0.0036750713547380343 0.0096655309215777623 0.0014885461374103291 0 0.0014885461374103291 0.0078224052927469111 0 0 0 0.0043719840535811618 -0.032529233011503789 0.010159963933572658 0 0.010159963933572658 -0.00052095990247513768 0 0 0 -0.0082625482284947038 0.021438317085721748 -0.0088353126059894094 0 -0.0088353126059894094 0.010733102531467198 0 0 0 0.0080428549042972919 0.020477842489857734 -0.010250291558376104 0 -0.010250291558376104 0.0085268373714624257 0 0 0 0.0072511699653300399 -0.011794128242029876 -0.009762069156186326 0 -0.009762069156186326 0.0041205151174888988 0 0 0 -0.0019184032811352322 0.0080019453262530765 -0.0051766794998277799 0 -0.0051766794998277799 0.0006394064921822068 0 0 0 0.002160337954608807 0.02101745025946819 -0.010381520043221381 0 -0.010381520043221381 -0.0036090513303790143 0 0 0 0.0043520997322722913 0.0094554973396969583 0.00015834980233183832 0 0.00015834980233183832 0.0051922023247530638 0 0 0 0.0036619249161125057 -0.011119628934869497 0.0067703362379873972 0 0.0067703362379873972 -0.00040860920269211037 0 0 0 -0.0028820595343903993 -0.025711520339228522 0.019364546301683272 0 0.019364546301683272 0.0069619266786226097 0 0 0 -0.0046873984151515335 -0.015987157050791928 -0.0083169133485402613 0 -0.0083169133485402613 0.0042890542899891582 0 0 0 -0.0029245256902007133 0.027482673832611861 0.012712772401120231 0 0.012712772401120231 0.0087013208553290422 0 0 0 0.0090459986719851129 -0.010125776840919216 -0.0082055634184389215 0 -0.0082055634184389215 -0.00060939280521232764 0 0 0 -0.0026837924115328433 0.027918174263989515 0.02077162632931856 0 0.02077162632931856 0.0041554073345961839 0 0 0 0.008018395399646383 -0.0098163764043574901 0.0055080082858004181 0 0.0055080082858004181 0.00047107517556239237 0 0 0 -0.0023363253071987736 0.0086366047057564801 0.0033485300694762465 0 0.0033485300694762465 0.0038916575183658712 0 0 0 0.003132065556030586 -0.011280116153326969 -0.0074114927441389367 0 -0.0074114927441389367 0.0023593075368040228 0 0 0 -0.0022302021541307226 0.038585387171565212 -0.0002389757532139658 0 -0.0002389757532139658 0.015735067691780638 0 0 0 0.013580113715836483 0.061493209476503219 -0.0019582859797174224 0 -0.0019582859797174224 0.032252705540138593 0 0 0 0.023436478754160495 0.0094122026785726214 0.0034907031253878541 0 0.0034907031253878541 0.0015619171594394065 0 0 0 0.0027435299595030042 0.00073779002238283375 0.0018151585490886468 0 0.0018151585490886468 -0.0023248721988844423 0 0 0 -0.00039677054412545765 -0.0033946450870925293 0.0043438834928486436 0 0.0043438834928486436 -0.0032504774567430061 0 0 0 -0.0016612806359588284 0.034316066236653731 0.00067782747063555027 0 0.00067782747063555027 0.010918531157201983 0 0 0 0.011308649348463984 0.03939439556791613 -0.0054082420733986281 0 -0.0054082420733986281 0.011541855451459693 0 0 0 0.012734062754844011 0.059311667206834784 0.0073308190040490828 0 0.0073308190040490828 0.023673061239783522 0 0 0 0.020746182111654576 0.00050855934368532196 -0.0011586276245310057 0 -0.0011586276245310057 -0.0014555411162922027 0 0 0 -0.00023674544315166468 0.055668559169651743 -0.0048028822933916526 0 -0.0048028822933916526 0.024566734493981279 0 0 0 0.020058823415908256 -0.0024534614772739882 -0.0028585966890753989 0 -0.0028585966890753989 -0.0021384195279088303 0 0 0 -0.0011479702512957601 0.0091415924927034653 -0.0033795405991387389 0 -0.0033795405991387389 9.5202177795239429e-05 0 0 0 0.0023091986676246901 0.0086121661501514235 -0.0069814309390279503 0 -0.0069814309390279503 0.007758554714309529 0 0 0 0.0040926802161152243 0.0074411468038800277 -0.0071924728277820704 0 -0.0071924728277820704 0.0075045952640361846 0 0 0 0.0037364355169790253 0.0039404171762389868 -0.0032378897726106082 0 -0.0032378897726106082 -0.003766429805501105 0 0 0 4.3496842684443565e-05 0.0054338326375948931 -0.0058242925027059134 0 -0.0058242925027059134 -0.0039416547089237142 0 0 0 0.00037304448216779473 0.022443889797283581 0.011932588434329941 0 0.011932588434329941 0.036508982883180996 0 0 0 0.014738218170116141 0.0071053376724713735 -0.01213226347370786 0 -0.01213226347370786 0.0018535723203112796 0 0 0 0.0022397274981956631 0.0063149115076191857 -0.016079283941989216 0 -0.016079283941989216 0.00018993737241447192 0 0 0 0.0016262122200084144 -0.0039709523644433607 0.0047118093463747327 0 0.0047118093463747327 0.0017304501703236282 0 0 0 -0.00056012554852993487 -0.028021807117648345 0.0097070832886861358 0 0.0097070832886861358 0.0019840499006317236 0 0 0 -0.0065094393042541276 -0.019308963718179556 0.016952579951154567 0 0.016952579951154567 0.016805642367562434 0 0 0 -0.00062583033765425955 0.024983969386685973 0.011554465884285527 0 0.011554465884285527 0.023685737742015177 0 0 0 0.012167426782175281 0.020057601228208266 0.0024090117062511287 0 0.0024090117062511287 0.0084588951770456777 0 0 0 0.0071291241013134443 0.027386720821255789 0.0025711037456806855 0 0.0025711037456806855 0.0091185500767368977 0 0 0 0.0091263177244982063 0.035550176086757056 0.013896460533353425 0 0.013896460533353425 0.023626501996417512 0 0 0 0.014794169520793626 -0.014255846013507836 -0.0068625542760418212 0 -0.0068625542760418212 0.0075933257132144993 0 0 0 -0.0016656300750733238 -0.018789999367236992 -0.003479449361698278 0 -0.003479449361698278 0.00055542677932175766 0 0 0 -0.0045586431469788191 0.02352409902861248 0.010013926696332118 0 0.010013926696332118 0.016911943516126585 0 0 0 0.010109010636184777 0.03085285803184884 0.011437927157360004 0 0.011437927157360004 0.013132623394864111 0 0 0 0.010996370356678234 0.0065775264616182022 -0.0075205700768836148 0 -0.0075205700768836148 0.011607312061623576 0 0 0 0.004546209630810441 0.0088951828379845808 0.0013884780286018234 0 0.0013884780286018234 0.0044117027236553301 0 0 0 0.0033267213904099781 0.0098169043171428497 0.0021381187798326156 0 0.0021381187798326156 0.0077838423285047087 0 0 0 0.00440018666141189 0.01146680705734731 0.0019356381239673511 0 0.0019356381239673511 0.013115193457895677 0 0 0 0.0061455001288107363 0.059518389122336646 0.0085018161577214979 0 0.0085018161577214979 0.056033990247037258 0 0 0 0.028888094842343448 -0.017260469162372005 -0.0026824333616107809 0 -0.0026824333616107809 0.00032215211006070277 0 0 0 -0.0042345792630777979 -0.0098831106020783044 0.0062356722595997508 0 0.0062356722595997508 0.00029728517391782068 0 0 0 -0.0023964563570401222 0.012369375262780377 0.0040203403690435447 0 0.0040203403690435447 0.00183381376470258 0 0 0 0.0035507972568707396 0.062523704241606165 0.0075903979091966889 0 0.0075903979091966889 0.030543558909119972 0 0 0 0.023266815787681555 0.0062435423804982626 -0.0032416482621065446 0 -0.0032416482621065446 -0.00087449484002666278 0 0 0 0.0013422618851178514 0.0033070655530242875 -0.015444703336377283 0 -0.015444703336377283 -0.0017394254974478739 0 0 0 0.0003919100138941034 -0.0091567434515983613 -0.013629079606818389 0 -0.013629079606818389 -0.0010458423182042043 0 0 0 -0.0025506464424506427 0.0092793325852290331 -0.0052007684417460093 0 -0.0052007684417460093 0.02001536519374314 0 0 0 0.0073236744447430502 
</DataArray>
</CellData>
</Piece>
</UnstructuredGrid>
</VTKFile>
