<?xml version="1.0"?>
<VTKFile type="UnstructuredGrid" version="0.1" byte_order="LittleEndian">
<UnstructuredGrid>
<Piece NumberOfPoints="3142" NumberOfCells="1054">
<Points>
<DataArray type="Float64" NumberOfComponents="3" format="ascii">
0.5 0.29999999999999999 0 0.54999999999999993 0.29999999999999999 0 0.54999999999999993 0.29999999999999999 0 0.59999999999999976 0.29999999999999999 0 0.59999999999999976 0.29999999999999999 0 0.6499999999999998 0.29999999999999999 0 0.6499999999999998 0.29999999999999999 0 0.69999999999999984 0.29999999999999999 0 0.69999999999999984 0.29999999999999999 0 0.74999999999999989 0.29999999999999999 0 0.74999999999999989 0.29999999999999999 0 0.79999999999999982 0.29999999999999999 0 0.79999999999999982 0.29999999999999999 0 0.84999999999999987 0.29999999999999999 0 0.84999999999999987 0.29999999999999999 0 0.89999999999999991 0.29999999999999999 0 0.89999999999999991 0.29999999999999999 0 0.94999999999999996 0.29999999999999999 0 0.94999999999999996 0.29999999999999999 0 1 0.29999999999999999 0 0.5 0.69999999999999996 0 0.54999999999999993 0.69999999999999996 0 0.54999999999999993 0.69999999999999996 0 0.59999999999999976 0.69999999999999996 0 0.59999999999999976 0.69999999999999996 0 0.6499999999999998 0.69999999999999996 0 0.6499999999999998 0.69999999999999996 0 0.69999999999999984 0.69999999999999996 0 0.69999999999999984 0.69999999999999996 0 0.74999999999999989 0.69999999999999996 0 0.74999999999999989 0.69999999999999996 0 0.79999999999999982 0.69999999999999996 0 0.79999999999999982 0.69999999999999996 0 0.84999999999999987 0.69999999999999996 0 0.84999999999999987 0.69999999999999996 0 0.89999999999999991 0.69999999999999996 0 0.89999999999999991 0.69999999999999996 0 0.94999999999999996 0.69999999999999996 0 0.94999999999999996 0.69999999999999996 0 1 0.69999999999999996 0 0.40076539126862748 0.34589349467022118 0 0.33277555741076909 0.36432196682010132 0 0.36575549820117997 0.31677992835137742 0 0.38083244760691543 0.38531983672244652 0 0.33277555741076909 0.36432196682010132 0 0.40076539126862748 0.34589349467022118 0 0.56836770495988642 0.3523062350852913 0 0.52289427570932567 0.3932284363388488 0 0.52752007115234678 0.33170632466418198 0 0.52752007115234678 0.33170632466418198 0 0.52289427570932567 0.3932284363388488 0 0.49077833859261139 0.35229981449445641 0 0.10000000000041601 1 0 0.053064897599294662 0.95186845269532028 0 0.10266856499240549 0.95548163909968886 0 0.099999999999814668 0 0 0.10266856499169109 0.044518360900210059 0 0.053064897599215843 0.048131547304697528 0 0.050000000000207989 1 0 0.053064897599294662 0.95186845269532028 0 0.10000000000041601 1 0 0.049999999999899652 0 0 0.099999999999814668 0 0 0.053064897599215843 0.048131547304697528 0 0.24999999999941211 0 0 0.29999999999926641 0 0 0.27499999999933927 0.060310814194988557 0 0.30000000000124832 1 0 0.25000000000104028 1 0 0.27609987656793722 0.94991445621608572 0 0.15720202157091859 0.60665697304410315 0 0.19914261668318661 0.62286739485272158 0 0.16500388252850301 0.66612077714085194 0 0.2236846579037573 0.67380363126050236 0 0.16500388252850301 0.66612077714085194 0 0.19914261668318661 0.62286739485272158 0 0.1247745017231483 0.27198077544791172 0 0.168349569971391 0.28054490850913671 0 0.14223753364722069 0.3341983344262433 0 0 0.75000000000034661 0 0 0.7000000000006934 0 0.049706944316475897 0.72477277076253799 0 0 0.30000000000124832 0 0 0.25000000000104028 0 0.049706944316556423 0.27522722923869108 0 0.59999999999999976 0.29999999999999999 0 0.61959173890754571 0.33832250091341232 0 0.56836770495988642 0.3523062350852913 0 0.5 0.69999999999999996 0 0.43323420005758778 0.6913544522562407 0 0.47913475093885149 0.66010775372412711 0 1 0.14999999999961891 0 0.95391631417672862 0.19584263333809451 0 0.93677536231883773 0.14999999999999089 0 1 0.84999999999982645 0 0.95391631417670719 0.89584263333814784 0 0.93677536231884972 0.85000000000000286 0 1 0.84999999999982645 0 0.93677536231884972 0.85000000000000286 0 0.95386563387742829 0.80414874155775029 0 1 0.14999999999961891 0 0.93677536231883773 0.14999999999999089 0 0.95386563387744361 0.1041487415577465 0 0.90416666666660628 0.9041666666666166 0 0.88088768115933802 0.84674609810493673 0 0.93677536231884972 0.85000000000000286 0 0.90416666666668166 0.20416666666667119 0 0.88088768115941807 0.14674609810479519 0 0.93677536231883773 0.14999999999999089 0 0.1247745017231483 0.27198077544791172 0 0.14223753364722069 0.3341983344262433 0 0.093851963071650835 0.30582068233324772 0 0.5 0.69999999999999996 0 0.45582236402875981 0.73896743678908217 0 0.43323420005758778 0.6913544522562407 0 0.55000000000173355 1 0 0.50000000000205869 1 0 0.52122150208832174 0.94089974453840242 0 0.49999999999869432 0 0 0.5499999999988151 0 0 0.52375890611712683 0.059318771819432882 0 0.54999999999999993 0.29999999999999999 0 0.59999999999999976 0.29999999999999999 0 0.56836770495988642 0.3523062350852913 0 0.50202631463681879 0.87892870825713787 0 0.44003836461056539 0.88093474584252718 0 0.45677673713123867 0.84253684404072415 0 0.33403534827021109 0.84402799729020661 0 0.35864759629805099 0.87963482415279515 0 0.30864387279288652 0.89906554525974958 0 0.53245488764484505 0.55078124999999989 0 0.47793794143994173 0.52940715638744962 0 0.53330375813596242 0.50827942741749099 0 0.82709327591102189 0.14937141670914489 0 0.81283102246527783 0.1881007222486438 0 0.77144070960558853 0.14311854477243749 0 0.82709327591091286 0.84937141670920724 0 0.81159157511211755 0.88795995483179491 0 0.76901770135486491 0.84293557325473656 0 0.77144070960558853 0.14311854477243749 0 0.81283102246527783 0.1881007222486438 0 0.76587607630038135 0.18880039518954719 0 0.76901770135486491 0.84293557325473656 0 0.81159157511211755 0.88795995483179491 0 0.76891166905518427 0.88835469571185499 0 0.33403534827021109 0.84402799729020661 0 0.30864387279288652 0.89906554525974958 0 0.29209212897034281 0.84715728365233667 0 0.57412547362576272 0.58273804879550706 0 0.5166924242153631 0.59825134841919447 0 0.53245488764484505 0.55078124999999989 0 0.50202631463681879 0.87892870825713787 0 0.47401147028110507 0.91529957330468115 0 0.44003836461056539 0.88093474584252718 0 0.5 0.69999999999999996 0 0.54999999999999993 0.69999999999999996 0 0.55363780716230748 0.74348740161571747 0 1 0.34999999999993492 0 0.95871855522754235 0.40006508612975411 0 0.95780851984364423 0.34215720972155339 0 1 0.64999999999986979 0 0.9578014258160763 0.65787212321113708 0 0.95867599106212187 0.60011091146651041 0 0.46666084890304671 0.57634471035397938 0 0.47793794143994173 0.52940715638744962 0 0.53245488764484505 0.55078124999999989 0 0.94999999999999996 0.29999999999999999 0 0.89898474358614167 0.25391965591104898 0 0.94399509803921056 0.24399509803922639 0 0.94999999999979179 1 0 0.89898474358632463 0.95391965591118966 0 0.94399509803919068 0.9439950980391687 0 0 0.65000000000104008 0 0.050069554451969707 0.61308520079857043 0 0.046634677244967337 0.671418230738282 0 0 0.35000000000145642 0 0.046389130980076937 0.32668781832131749 0 0.050583896093752537 0.38543522283434112 0 0.50202631463681879 0.87892870825713787 0 0.50627822638148745 0.8263979829520941 0 0.55899371797446828 0.85003102233514438 0 0.54782696902220018 0.79245182748204157 0 0.55899371797446828 0.85003102233514438 0 0.50627822638148745 0.8263979829520941 0 0.50945740445113552 0.75476055527778108 0 0.5 0.69999999999999996 0 0.55363780716230748 0.74348740161571747 0 0.84999999999965292 1 0 0.85170973911348691 0.93569607295217616 0 0.89898474358632463 0.95391965591118966 0 0.84999999999999987 0.29999999999999999 0 0.8517097391133297 0.2356960729520409 0 0.89898474358614167 0.25391965591104898 0 0.86956835336234861 0.571283299838105 0 0.82862096804812391 0.55037090955459045 0 0.86907294890112186 0.52008116128001669 0 0.49102375406324739 0.49123754822244059 0 0.53330375813596242 0.50827942741749099 0 0.47793794143994173 0.52940715638744962 0 0.57611405284611883 0.50165903596042916 0 0.61547661924074692 0.48539576058873962 0 0.62042975506801734 0.54295974692364424 0 0.71406021706547751 0.63292083137662503 0 0.67529834988829951 0.61613270668143583 0 0.71809016091162536 0.58185040402320831 0 0.65000000000104008 1 0 0.62065498684670595 0.95224934003983619 0 0.68015064798562208 0.95924320340003011 0 0.84999999999960507 0 0 0.899991664607802 0.045289349238254978 0 0.85491058998398861 0.060047533455626502 0 0.84999999999999987 0.69999999999999996 0 0.89999166460796554 0.74528934923809909 0 0.85491058998424563 0.76004753345552634 0 0.89999999999999991 0.29999999999999999 0 0.89898474358614167 0.25391965591104898 0 0.94999999999999996 0.29999999999999999 0 0.94999999999979179 1 0 0.89999999999958358 1 0 0.89898474358632463 0.95391965591118966 0 0.86411095495256451 0.42388805655111889 0 0.81308179852519835 0.39754945808726527 0 0.86844634540301924 0.38530937474099819 0 0.5 0.29999999999999999 0 0.49695729691142171 0.25014895411178018 0 0.54248833945060504 0.2520322959927106 0 0.86411095495256451 0.42388805655111889 0 0.81973119833356312 0.43505687159469048 0 0.81308179852519835 0.39754945808726527 0 0.67323294229744413 0.57556450033612505 0 0.71809016091162536 0.58185040402320831 0 0.67529834988829951 0.61613270668143583 0 0.6236733212988993 0.14864538214901801 0 0.68391457121233579 0.14440470121196541 0 0.64011864159029941 0.18789607982138171 0 0 0.050000000000207989 0 0.053064897599215843 0.048131547304697528 0 0.044310582753132287 0.101412518374475 0 0 0.94999999999979179 0 0.0443105827531413 0.89858748162559932 0 0.053064897599294662 0.95186845269532028 0 1 0.34999999999993492 0 1 0.39999999999978308 0 0.95871855522754235 0.40006508612975411 0 1 0.59999999999973963 0 1 0.64999999999986979 0 0.95867599106212187 0.60011091146651041 0 0 0.84999999999965292 0 0.065374659239661639 0.8551091961254178 0 0.0443105827531413 0.89858748162559932 0 0 0.15000000000062411 0 0.044310582753132287 0.101412518374475 0 0.065374659239632718 0.1448908038746782 0 0.16500388252850301 0.66612077714085194 0 0.1020579365089687 0.69352219419301997 0 0.1241190223511371 0.64391885572885044 0 0.14999999999970359 0 0 0.14618258501891079 0.062070108745602003 0 0.10266856499169109 0.044518360900210059 0 0.15000000000062411 1 0 0.10266856499240549 0.95548163909968886 0 0.14617343800780541 0.93808063414349496 0 0.7152569930854884 0.5237994455134295 0 0.67569444444444449 0.53500863336860327 0 0.69385896817107129 0.48377516041410151 0 0.6541250972820879 0.49999999999999989 0 0.62042975506801734 0.54295974692364424 0 0.61547661924074692 0.48539576058873962 0 0.94999999999999996 0.69999999999999996 0 0.94399509803918602 0.75600490196082126 0 0.89999166460796554 0.74528934923809909 0 0.94999999999986839 0 0 0.94399509803922566 0.056004901960802607 0 0.899991664607802 0.045289349238254978 0 0.6541250972820879 0.49999999999999989 0 0.69385896817107129 0.48377516041410151 0 0.67569444444444449 0.53500863336860327 0 0.82862096804812391 0.55037090955459045 0 0.81723410853263523 0.59419663659258926 0 0.77151014687832564 0.54436834383023036 0 0.7250000000005199 0.89375000000045834 0 0.66412543161245952 0.88015090885499059 0 0.68697391633157634 0.84450604838764298 0 0 0.94999999999979179 0 0 0.89999999999958358 0 0.0443105827531413 0.89858748162559932 0 0 0.10000000000041601 0 0 0.050000000000207989 0 0.044310582753132287 0.101412518374475 0 0.16500388252850301 0.66612077714085194 0 0.15332765547575641 0.71200081858233666 0 0.1020579365089687 0.69352219419301997 0 0.90299850604011456 0.79563452813489832 0 0.93677536231884972 0.85000000000000286 0 0.88088768115933802 0.84674609810493673 0 0.90299850604006393 0.09563452813493091 0 0.93677536231883773 0.14999999999999089 0 0.88088768115941807 0.14674609810479519 0 0.68391457121233579 0.14440470121196541 0 0.6865991819015953 0.189116534044597 0 0.64011864159029941 0.18789607982138171 0 0.085622222639554768 0.53333248912060549 0 0.1216098864341134 0.50637075089503902 0 0.1154888278694548 0.56733818459978413 0 0.21858834311891909 0.81980263716112767 0 0.22556077506376701 0.77837424984191617 0 0.26104540868854792 0.81401944968719064 0 0.81723410853263523 0.59419663659258926 0 0.77293540622714185 0.59448302402785813 0 0.77151014687832564 0.54436834383023036 0 0.1154888278694548 0.56733818459978413 0 0.1216098864341134 0.50637075089503902 0 0.14934928745814749 0.55042914607228977 0 0.1216098864341134 0.50637075089503902 0 0.068743045408989428 0.48853989837882689 0 0.113541300460994 0.46208784312094731 0 0.078358742472063481 0.43365249433908948 0 0.113541300460994 0.46208784312094731 0 0.068743045408989428 0.48853989837882689 0 0.83573492347052902 0.36590755630746369 0 0.81308179852519835 0.39754945808726527 0 0.78145581580700685 0.34881365920033602 0 0.57611405284611883 0.50165903596042916 0 0.62042975506801734 0.54295974692364424 0 0.57435499076887508 0.54267261987897775 0 0.86956835336234861 0.571283299838105 0 0.81723410853263523 0.59419663659258926 0 0.82862096804812391 0.55037090955459045 0 0.46666084890304671 0.57634471035397938 0 0.53245488764484505 0.55078124999999989 0 0.5166924242153631 0.59825134841919447 0 0.89999999999999991 0.69999999999999996 0 0.94999999999999996 0.69999999999999996 0 0.89999166460796554 0.74528934923809909 0 0.89999999999973679 0 0 0.94999999999986839 0 0 0.899991664607802 0.045289349238254978 0 0.84999999999960507 0 0 0.89999999999973679 0 0 0.899991664607802 0.045289349238254978 0 0.84999999999999987 0.69999999999999996 0 0.89999999999999991 0.69999999999999996 0 0.89999166460796554 0.74528934923809909 0 0.43545892161006339 0.61093128915313821 0 0.4089290844030305 0.58728915500154233 0 0.46666084890304671 0.57634471035397938 0 0.1650278706801647 0.38791388161335733 0 0.1117088112799664 0.38831403004970022 0 0.14223753364722069 0.3341983344262433 0 0.087545339447545459 0.35122518864182262 0 0.14223753364722069 0.3341983344262433 0 0.1117088112799664 0.38831403004970022 0 0.6916490518212759 0.75387992374886192 0 0.72501250972655151 0.74067302935308721 0 0.72500000000000064 0.7952620967744265 0 0.72501250972655151 0.74067302935308721 0 0.75841349681148107 0.75422312624214749 0 0.72500000000000064 0.7952620967744265 0 0.57412547362576272 0.58273804879550706 0 0.53245488764484505 0.55078124999999989 0 0.57435499076887508 0.54267261987897775 0 1 0.54999999999963112 0 0.95867599106212187 0.60011091146651041 0 0.93732437411268477 0.55911392101136159 0 1 0.44999999999963131 0 0.93814194660195893 0.44426664081746747 0 0.95871855522754235 0.40006508612975411 0 0.4089290844030305 0.58728915500154233 0 0.42644501560315817 0.54603747078095544 0 0.46666084890304671 0.57634471035397938 0 0.89999999999958358 1 0 0.84999999999965292 1 0 0.89898474358632463 0.95391965591118966 0 0.84999999999999987 0.29999999999999999 0 0.89898474358614167 0.25391965591104898 0 0.89999999999999991 0.29999999999999999 0 0.29999999999926641 0 0 0.32541448401678508 0.046215317981507749 0 0.27499999999933927 0.060310814194988557 0 0.30000000000124832 1 0 0.27609987656793722 0.94991445621608572 0 0.32544832635163229 0.95485394099568932 0 0.57412547362576272 0.58273804879550706 0 0.62042975506801734 0.54295974692364424 0 0.63065402604362242 0.59661356661633302 0 0.5 0.29999999999999999 0 0.54248833945060504 0.2520322959927106 0 0.54999999999999993 0.29999999999999999 0 0.67323294229744413 0.57556450033612505 0 0.62042975506801734 0.54295974692364424 0 0.67569444444444449 0.53500863336860327 0 0.6541250972820879 0.49999999999999989 0 0.67569444444444449 0.53500863336860327 0 0.62042975506801734 0.54295974692364424 0 1 0.14999999999961891 0 1 0.19999999999974799 0 0.95391631417672862 0.19584263333809451 0 1 0.84999999999982645 0 1 0.8999999999998336 0 0.95391631417670719 0.89584263333814784 0 1 0.7999999999998193 0 1 0.84999999999982645 0 0.95386563387742829 0.80414874155775029 0 1 0.099999999999753911 0 1 0.14999999999961891 0 0.95386563387744361 0.1041487415577465 0 0.4656888918609538 0.78493261229743638 0 0.50627822638148745 0.8263979829520941 0 0.45677673713123867 0.84253684404072415 0 0.6879972333610942 0.43038561374960838 0 0.72622533758026719 0.40265885511101601 0 0.73483647259922602 0.44789725365921768 0 0.67323294229744413 0.57556450033612505 0 0.67569444444444449 0.53500863336860327 0 0.71809016091162536 0.58185040402320831 0 0.7152569930854884 0.5237994455134295 0 0.71809016091162536 0.58185040402320831 0 0.67569444444444449 0.53500863336860327 0 0.65394964615507722 0.22666784374016369 0 0.59814117807200873 0.23398510860739519 0 0.64011864159029941 0.18789607982138171 0 0.55000000000173355 1 0 0.52122150208832174 0.94089974453840242 0 0.57382506491224949 0.9629411906298494 0 0.39801143831225599 0.16651381068160659 0 0.44288491854585582 0.14116182884956319 0 0.42905200079338551 0.19982395548231649 0 0.47357141910802508 0.1873585799078378 0 0.42905200079338551 0.19982395548231649 0 0.44288491854585582 0.14116182884956319 0 0.90594285160987287 0.4141265964174129 0 0.88594198078881503 0.46167788676578442 0 0.86411095495256451 0.42388805655111889 0 0.65507451745379841 0.92229208810758578 0 0.68015064798562208 0.95924320340003011 0 0.62065498684670595 0.95224934003983619 0 0.35312867752657662 0.084946736076730367 0 0.39591832466117061 0.056982757562006353 0 0.39823268594401579 0.1116623613130045 0 0.43698630808430822 0.080423614171545449 0 0.39823268594401579 0.1116623613130045 0 0.39591832466117061 0.056982757562006353 0 0.4367309254023824 0.92065556789053882 0 0.39641108128798319 0.94356127926187128 0 0.39767323751400468 0.89584229130535065 0 0.35752321586431363 0.9185439911803448 0 0.39767323751400468 0.89584229130535065 0 0.39641108128798319 0.94356127926187128 0 0.77354604466818633 0.40378688774472771 0 0.77972660463949339 0.45529290596363098 0 0.73483647259922602 0.44789725365921768 0 0.5499999999988151 0 0 0.57396793757665954 0.037011367187645222 0 0.52375890611712683 0.059318771819432882 0 0.64753070846764316 0.77332939069435502 0 0.60294066490120068 0.80851322453934582 0 0.59636844454254345 0.75937156204589151 0 0.49102375406324739 0.49123754822244059 0 0.48858720058566618 0.43964267759203868 0 0.53823865529665704 0.45873898050322898 0 0.28307294598219601 0.50789252727458634 0 0.29110487519241501 0.56588143995431495 0 0.25115337790845271 0.54719303014923271 0 0.79680861578988083 0.92656778056766709 0 0.81159157511211755 0.88795995483179491 0 0.85170973911348691 0.93569607295217616 0 0.79680861578956375 0.22656778056752541 0 0.81283102246527783 0.1881007222486438 0 0.8517097391133297 0.2356960729520409 0 0.57412547362576272 0.58273804879550706 0 0.57435499076887508 0.54267261987897775 0 0.62042975506801734 0.54295974692364424 0 0.93814194660195893 0.44426664081746747 0 0.88594198078881503 0.46167788676578442 0 0.90594285160987287 0.4141265964174129 0 0.7152569930854884 0.5237994455134295 0 0.73947346780852752 0.49062440112282169 0 0.77151014687832564 0.54436834383023036 0 0 0.7000000000006934 0 0.046634677244967337 0.671418230738282 0 0.049706944316475897 0.72477277076253799 0 0 0.30000000000124832 0 0.049706944316556423 0.27522722923869108 0 0.046389130980076937 0.32668781832131749 0 0.59814117807200873 0.23398510860739519 0 0.59443395090188023 0.18455690917515069 0 0.64011864159029941 0.18789607982138171 0 0.21858834311891909 0.81980263716112767 0 0.26104540868854792 0.81401944968719064 0 0.2401283238295133 0.85648409884788523 0 0.39536230704883951 0.84069429572832477 0 0.45677673713123867 0.84253684404072415 0 0.44003836461056539 0.88093474584252718 0 0.086179601630648681 0.64647209519980475 0 0.050069554451969707 0.61308520079857043 0 0.1024350934457823 0.60772393977513839 0 0.077693244765132896 0.56932317963405099 0 0.1024350934457823 0.60772393977513839 0 0.050069554451969707 0.61308520079857043 0 0.078358742472063481 0.43365249433908948 0 0.050583896093752537 0.38543522283434112 0 0.1117088112799664 0.38831403004970022 0 0.087545339447545459 0.35122518864182262 0 0.1117088112799664 0.38831403004970022 0 0.050583896093752537 0.38543522283434112 0 0.33403534827021109 0.84402799729020661 0 0.35642984951668422 0.80994399665655703 0 0.39536230704883951 0.84069429572832477 0 0.28307294598219601 0.50789252727458634 0 0.33190227185843768 0.52715113583864037 0 0.29110487519241501 0.56588143995431495 0 0.2236846579037573 0.67380363126050236 0 0.19068556247388771 0.71028988922845504 0 0.16500388252850301 0.66612077714085194 0 0.26104540868854792 0.81401944968719064 0 0.22556077506376701 0.77837424984191617 0 0.2792923945214143 0.77665808831789485 0 0.38244435121258652 0.51653317813019495 0 0.37272913873093971 0.56192925302619479 0 0.33190227185843768 0.52715113583864037 0 0.25195515620380449 0.25883339815888678 0 0.29132859388405002 0.27203693976649962 0 0.24432083401701241 0.3006253385567515 0 0.29348325746214782 0.31350119524708198 0 0.24432083401701241 0.3006253385567515 0 0.29132859388405002 0.27203693976649962 0 0 0.89999999999958358 0 0 0.84999999999965292 0 0.0443105827531413 0.89858748162559932 0 0 0.15000000000062411 0 0 0.10000000000041601 0 0.044310582753132287 0.101412518374475 0 0.59999999999999976 0.69999999999999996 0 0.59636844454254345 0.75937156204589151 0 0.55363780716230748 0.74348740161571747 0 0.1650278706801647 0.38791388161335733 0 0.22033343844674469 0.36963382230740238 0 0.191953871957803 0.42546416763755879 0 0.52289427570932567 0.3932284363388488 0 0.46655310992796922 0.39650496622958609 0 0.49077833859261139 0.35229981449445641 0 0.91696753777131557 0.497780560203536 0 0.88594198078881503 0.46167788676578442 0 0.93814194660195893 0.44426664081746747 0 0.24999999999941211 0 0 0.27499999999933927 0.060310814194988557 0 0.22668068146512929 0.045875643423131329 0 0.25000000000104028 1 0 0.22850979588452081 0.95594428570238643 0 0.27609987656793722 0.94991445621608572 0 0.77846603114747959 0.49850927265137401 0 0.77151014687832564 0.54436834383023036 0 0.73947346780852752 0.49062440112282169 0 0.27499999999933927 0.060310814194988557 0 0.27474541102162192 0.11822029332053539 0 0.24218496799700481 0.089025544070598317 0 0.27270076654418179 0.87751467830216623 0 0.29209212897034281 0.84715728365233667 0 0.30864387279288652 0.89906554525974958 0 0.3096713403101819 0.085471541595262421 0 0.27474541102162192 0.11822029332053539 0 0.27499999999933927 0.060310814194988557 0 0.17933913398461551 0.2350063570234002 0 0.18124454140915969 0.18790916706335251 0 0.224700362040408 0.22206622194729711 0 0.18269480424590959 0.75905448272264375 0 0.22556077506376701 0.77837424984191617 0 0.17777405986036951 0.81832336108265358 0 0.35864759629805099 0.87963482415279515 0 0.33403534827021109 0.84402799729020661 0 0.39536230704883951 0.84069429572832477 0 0.77354604466818633 0.40378688774472771 0 0.73483647259922602 0.44789725365921768 0 0.72622533758026719 0.40265885511101601 0 0.80185942888539485 0.77452061303608133 0 0.85491058998424563 0.76004753345552634 0 0.84725310900444062 0.80779732082917555 0 0.80185942888501827 0.074520613036224564 0 0.85491058998398861 0.060047533455626502 0 0.84725310900442086 0.10779732082922661 0 0.086179601630648681 0.64647209519980475 0 0.046634677244967337 0.671418230738282 0 0.050069554451969707 0.61308520079857043 0 0.087545339447545459 0.35122518864182262 0 0.050583896093752537 0.38543522283434112 0 0.046389130980076937 0.32668781832131749 0 0 0.75000000000034661 0 0.049706944316475897 0.72477277076253799 0 0.04408157711937423 0.7728941757575627 0 0 0.25000000000104028 0 0.044081577119474857 0.2271058242433576 0 0.049706944316556423 0.27522722923869108 0 0.52289427570932567 0.3932284363388488 0 0.56836770495988642 0.3523062350852913 0 0.57744073070774993 0.41535148636609359 0 0.6084546825910605 0.37989672713932537 0 0.57744073070774993 0.41535148636609359 0 0.56836770495988642 0.3523062350852913 0 0.61343887413683884 0.856862479058357 0 0.55899371797446828 0.85003102233514438 0 0.60294066490120068 0.80851322453934582 0 0.54782696902220018 0.79245182748204157 0 0.60294066490120068 0.80851322453934582 0 0.55899371797446828 0.85003102233514438 0 0.40326160981139969 0.73346192995102844 0 0.36622285152418499 0.69092437780804039 0 0.43323420005758778 0.6913544522562407 0 0.52289427570932567 0.3932284363388488 0 0.48858720058566618 0.43964267759203868 0 0.46655310992796922 0.39650496622958609 0 0.15720202157091859 0.60665697304410315 0 0.1154888278694548 0.56733818459978413 0 0.14934928745814749 0.55042914607228977 0 0.6879972333610942 0.43038561374960838 0 0.73483647259922602 0.44789725365921768 0 0.69385896817107129 0.48377516041410151 0 0.7250000000005199 0.89375000000045834 0 0.68987011941058407 0.92105047536677087 0 0.66412543161245952 0.88015090885499059 0 0.83573492347052902 0.36590755630746369 0 0.78145581580700685 0.34881365920033602 0 0.82500000000000062 0.33010209762754811 0 0.82862096804812391 0.55037090955459045 0 0.81441713509985358 0.51161854125224959 0 0.86907294890112186 0.52008116128001669 0 0.19670163708476801 0.31472518408333222 0 0.14223753364722069 0.3341983344262433 0 0.168349569971391 0.28054490850913671 0 0.50202631463681879 0.87892870825713787 0 0.45677673713123867 0.84253684404072415 0 0.50627822638148745 0.8263979829520941 0 0.099999999999814668 0 0 0.14999999999970359 0 0 0.10266856499169109 0.044518360900210059 0 0.15000000000062411 1 0 0.10000000000041601 1 0 0.10266856499240549 0.95548163909968886 0 0.67323294229744413 0.57556450033612505 0 0.63065402604362242 0.59661356661633302 0 0.62042975506801734 0.54295974692364424 0 0.083105206071467416 0.20007701332709979 0 0.13737030665753211 0.20313708640667491 0 0.095326043202144745 0.24554465089224409 0 0.083105206071452636 0.79992298667296435 0 0.090953281884486245 0.7564451946902494 0 0.1382744753146134 0.79650574229207483 0 0.50000000000205869 1 0 0.47135117303824892 0.95556877749289892 0 0.52122150208832174 0.94089974453840242 0 0.49999999999869432 0 0 0.52375890611712683 0.059318771819432882 0 0.47040171442036788 0.044141676406503738 0 0.4656888918609538 0.78493261229743638 0 0.45582236402875981 0.73896743678908217 0 0.50945740445113552 0.75476055527778108 0 0.5 0.69999999999999996 0 0.50945740445113552 0.75476055527778108 0 0.45582236402875981 0.73896743678908217 0 0.55306006949600994 0.20198184231352201 0 0.56202748619534593 0.15054058349222879 0 0.59443395090188023 0.18455690917515069 0 0.6236733212988993 0.14864538214901801 0 0.59443395090188023 0.18455690917515069 0 0.56202748619534593 0.15054058349222879 0 0.57412547362576272 0.58273804879550706 0 0.5498280205245758 0.6290146943450976 0 0.5166924242153631 0.59825134841919447 0 0.91696753777131557 0.497780560203536 0 0.93814194660195893 0.44426664081746747 0 0.96228564064454991 0.48206450662049471 0 0.15720202157091859 0.60665697304410315 0 0.16500388252850301 0.66612077714085194 0 0.1241190223511371 0.64391885572885044 0 0.44288491854585582 0.14116182884956319 0 0.47881186583059909 0.093591717165689425 0 0.48466639505193998 0.1421439844745814 0 1 0.54999999999963112 0 0.93732437411268477 0.55911392101136159 0 0.95631871884947484 0.51827533208233789 0 0.57724883562309992 0.92155686857100794 0 0.57382506491224949 0.9629411906298494 0 0.52122150208832174 0.94089974453840242 0 0.85170973911348691 0.93569607295217616 0 0.81159157511211755 0.88795995483179491 0 0.85600844944837662 0.88483418979512773 0 0.8517097391133297 0.2356960729520409 0 0.81283102246527783 0.1881007222486438 0 0.85600844944842547 0.1848341897950983 0 0.27866744612395528 0.38416094670951489 0 0.29124338931648802 0.43334555462578611 0 0.24049127783545701 0.41270748208749802 0 0.6084546825910605 0.37989672713932537 0 0.56836770495988642 0.3523062350852913 0 0.61959173890754571 0.33832250091341232 0 0.20050006573841939 0.53248514016039872 0 0.25115337790845271 0.54719303014923271 0 0.22549374774072969 0.58452645269293457 0 0.26573297623774761 0.59828298563722948 0 0.22549374774072969 0.58452645269293457 0 0.25115337790845271 0.54719303014923271 0 0.26104540868854792 0.81401944968719064 0 0.29209212897034281 0.84715728365233667 0 0.2401283238295133 0.85648409884788523 0 0.6236733212988993 0.14864538214901801 0 0.65290632656860115 0.11434202593454081 0 0.68391457121233579 0.14440470121196541 0 0.19901705110390991 0.9175543425573498 0 0.19741632902693801 0.86755867406447229 0 0.24536017905392571 0.90704567837671446 0 0.72500000000000064 0.7952620967744265 0 0.76901770135486491 0.84293557325473656 0 0.72863726579783861 0.85390518901155588 0 0.72500000000000064 0.7952620967744265 0 0.72863726579783861 0.85390518901155588 0 0.68697391633157634 0.84450604838764298 0 0.7250000000005199 0.89375000000045834 0 0.68697391633157634 0.84450604838764298 0 0.72863726579783861 0.85390518901155588 0 0.72525833953073282 0.1032114801687094 0 0.77144070960558853 0.14311854477243749 0 0.72634814642510737 0.16106886917518889 0 0.72525833953073282 0.1032114801687094 0 0.72634814642510737 0.16106886917518889 0 0.68391457121233579 0.14440470121196541 0 0.36622285152418499 0.69092437780804039 0 0.3977710372045391 0.65868194622830212 0 0.43323420005758778 0.6913544522562407 0 0 0.65000000000104008 0 0 0.60000000000138687 0 0.050069554451969707 0.61308520079857043 0 0 0.40000000000166441 0 0 0.35000000000145642 0 0.050583896093752537 0.38543522283434112 0 0.22033343844674469 0.36963382230740238 0 0.24049127783545701 0.41270748208749802 0 0.191953871957803 0.42546416763755879 0 0.5 0.29999999999999999 0 0.4604742573284204 0.27846934318264788 0 0.49695729691142171 0.25014895411178018 0 0.19741632902693801 0.86755867406447229 0 0.2401283238295133 0.85648409884788523 0 0.24536017905392571 0.90704567837671446 0 0 0.50000000000205869 0 0.068743045408989428 0.48853989837882689 0 0.044576108720083309 0.53509043209532614 0 0.15000000000062411 1 0 0.14617343800780541 0.93808063414349496 0 0.18474005699953849 0.96231585248064622 0 0.14999999999970359 0 0 0.184418230509967 0.038773194583122873 0 0.14618258501891079 0.062070108745602003 0 0.57667858002728545 0.078486105337742612 0 0.52375890611712683 0.059318771819432882 0 0.57396793757665954 0.037011367187645222 0 0.113541300460994 0.46208784312094731 0 0.078358742472063481 0.43365249433908948 0 0.13773355295499351 0.42497777642586831 0 0.77354604466818633 0.40378688774472771 0 0.78145581580700685 0.34881365920033602 0 0.81308179852519835 0.39754945808726527 0 0.38244435121258652 0.51653317813019495 0 0.33190227185843768 0.52715113583864037 0 0.35024835142131061 0.48654922671676981 0 0.64753070846764316 0.77332939069435502 0 0.65005442820240822 0.82644988530054031 0 0.60294066490120068 0.80851322453934582 0 0.15720202157091859 0.60665697304410315 0 0.1024350934457823 0.60772393977513839 0 0.1154888278694548 0.56733818459978413 0 0.90416666666660628 0.9041666666666166 0 0.85600844944837662 0.88483418979512773 0 0.88088768115933802 0.84674609810493673 0 0.90416666666668166 0.20416666666667119 0 0.85600844944842547 0.1848341897950983 0 0.88088768115941807 0.14674609810479519 0 0.078358742472063481 0.43365249433908948 0 0.1117088112799664 0.38831403004970022 0 0.13773355295499351 0.42497777642586831 0 0.38244435121258652 0.51653317813019495 0 0.3908716102680424 0.47010282357248828 0 0.43507373378304309 0.49699695397193322 0 0.90299850604011456 0.79563452813489832 0 0.95386563387742829 0.80414874155775029 0 0.93677536231884972 0.85000000000000286 0 0.90416666666660628 0.9041666666666166 0 0.93677536231884972 0.85000000000000286 0 0.95391631417670719 0.89584263333814784 0 0.90299850604006393 0.09563452813493091 0 0.95386563387744361 0.1041487415577465 0 0.93677536231883773 0.14999999999999089 0 0.90416666666668166 0.20416666666667119 0 0.93677536231883773 0.14999999999999089 0 0.95391631417672862 0.19584263333809451 0 0.39536230704883951 0.84069429572832477 0 0.44003836461056539 0.88093474584252718 0 0.39767323751400468 0.89584229130535065 0 0.51076801031701946 0.1202837388510348 0 0.52375890611712683 0.059318771819432882 0 0.54979595918804436 0.1060565713905809 0 0.57667858002728545 0.078486105337742612 0 0.54979595918804436 0.1060565713905809 0 0.52375890611712683 0.059318771819432882 0 0.57724883562309992 0.92155686857100794 0 0.52122150208832174 0.94089974453840242 0 0.54783390826260769 0.89287767010860219 0 0.50202631463681879 0.87892870825713787 0 0.54783390826260769 0.89287767010860219 0 0.52122150208832174 0.94089974453840242 0 0.087545339447545459 0.35122518864182262 0 0.093851963071650835 0.30582068233324772 0 0.14223753364722069 0.3341983344262433 0 0.54999999999999993 0.69999999999999996 0 0.59999999999999976 0.69999999999999996 0 0.55363780716230748 0.74348740161571747 0 0.083105206071452636 0.79992298667296435 0 0.1074251789111534 0.83564394292147814 0 0.065374659239661639 0.8551091961254178 0 0.083105206071467416 0.20007701332709979 0 0.065374659239632718 0.1448908038746782 0 0.106902708054812 0.16453234188234539 0 0.52289427570932567 0.3932284363388488 0 0.53823865529665704 0.45873898050322898 0 0.48858720058566618 0.43964267759203868 0 0.13737030665753211 0.20313708640667491 0 0.14377654328998779 0.2442024734791064 0 0.095326043202144745 0.24554465089224409 0 0.1382744753146134 0.79650574229207483 0 0.090953281884486245 0.7564451946902494 0 0.14335651144331049 0.75565258250209677 0 0.27270076654418179 0.87751467830216623 0 0.30864387279288652 0.89906554525974958 0 0.24536017905392571 0.90704567837671446 0 0.27609987656793722 0.94991445621608572 0 0.24536017905392571 0.90704567837671446 0 0.30864387279288652 0.89906554525974958 0 0.90299850604011456 0.79563452813489832 0 0.84725310900444062 0.80779732082917555 0 0.85491058998424563 0.76004753345552634 0 0.90299850604006393 0.09563452813493091 0 0.84725310900442086 0.10779732082922661 0 0.85491058998398861 0.060047533455626502 0 1 0.54999999999963112 0 1 0.59999999999973963 0 0.95867599106212187 0.60011091146651041 0 1 0.39999999999978308 0 1 0.44999999999963131 0 0.95871855522754235 0.40006508612975411 0 0.28040350263641872 0.23054717217092141 0 0.25195515620380449 0.25883339815888678 0 0.224700362040408 0.22206622194729711 0 0.84999999999999987 0.29999999999999999 0 0.87430060258887643 0.34056085888204451 0 0.82500000000000062 0.33010209762754811 0 0.84999999999999987 0.69999999999999996 0 0.82457059160610424 0.66831947184359608 0 0.87712158428786946 0.65709029563313581 0 0.86956835336234861 0.571283299838105 0 0.87159648282691515 0.61285406320581504 0 0.81723410853263523 0.59419663659258926 0 0.43698630808430822 0.080423614171545449 0 0.47881186583059909 0.093591717165689425 0 0.44288491854585582 0.14116182884956319 0 1 0.44999999999963131 0 0.96228564064454991 0.48206450662049471 0 0.93814194660195893 0.44426664081746747 0 0.35752321586431363 0.9185439911803448 0 0.30864387279288652 0.89906554525974958 0 0.35864759629805099 0.87963482415279515 0 0.29124338931648802 0.43334555462578611 0 0.25982634974572738 0.46097799597715272 0 0.24049127783545701 0.41270748208749802 0 0.51076801031701946 0.1202837388510348 0 0.56202748619534593 0.15054058349222879 0 0.51729576145820033 0.1683240575987815 0 0.55306006949600994 0.20198184231352201 0 0.51729576145820033 0.1683240575987815 0 0.56202748619534593 0.15054058349222879 0 0.26429849586623999 0.19346700179430079 0 0.28040350263641872 0.23054717217092141 0 0.224700362040408 0.22206622194729711 0 0.51076801031701946 0.1202837388510348 0 0.48466639505193998 0.1421439844745814 0 0.47881186583059909 0.093591717165689425 0 0.2185883431182947 0.18019736283949719 0 0.26429849586623999 0.19346700179430079 0 0.224700362040408 0.22206622194729711 0 0.18269480424590959 0.75905448272264375 0 0.2248999640082178 0.72584299459689172 0 0.22556077506376701 0.77837424984191617 0 0.51076801031701946 0.1202837388510348 0 0.47881186583059909 0.093591717165689425 0 0.52375890611712683 0.059318771819432882 0 0.50202631463681879 0.87892870825713787 0 0.52122150208832174 0.94089974453840242 0 0.47401147028110507 0.91529957330468115 0 0 0.84999999999965292 0 0.038512288486097702 0.8155852717111195 0 0.065374659239661639 0.8551091961254178 0 0 0.15000000000062411 0 0.065374659239632718 0.1448908038746782 0 0.038512288486115001 0.1844147282893184 0 0.2185883431182947 0.18019736283949719 0 0.224700362040408 0.22206622194729711 0 0.18124454140915969 0.18790916706335251 0 0.21858834311891909 0.81980263716112767 0 0.17777405986036951 0.81832336108265358 0 0.22556077506376701 0.77837424984191617 0 0.1215415378367805 0.72939333680004137 0 0.1020579365089687 0.69352219419301997 0 0.15332765547575641 0.71200081858233666 0 0.49695729691142171 0.25014895411178018 0 0.50760557329222289 0.20700468884612061 0 0.54248833945060504 0.2520322959927106 0 0.15720202157091859 0.60665697304410315 0 0.14934928745814749 0.55042914607228977 0 0.18381867841758909 0.57774125163628387 0 0.90416666666660628 0.9041666666666166 0 0.85170973911348691 0.93569607295217616 0 0.85600844944837662 0.88483418979512773 0 0.90416666666668166 0.20416666666667119 0 0.8517097391133297 0.2356960729520409 0 0.85600844944842547 0.1848341897950983 0 0.17933913398461551 0.2350063570234002 0 0.13737030665753211 0.20313708640667491 0 0.18124454140915969 0.18790916706335251 0 0.18269480424590959 0.75905448272264375 0 0.17777405986036951 0.81832336108265358 0 0.1382744753146134 0.79650574229207483 0 0.1216098864341134 0.50637075089503902 0 0.15801167086041079 0.46008690540259539 0 0.16618607197337229 0.50652878253548905 0 0.50760557329222289 0.20700468884612061 0 0.55306006949600994 0.20198184231352201 0 0.54248833945060504 0.2520322959927106 0 0.75000000000034661 1 0 0.7000000000006934 1 0 0.7250000000005199 0.94981617647078953 0 0.69999999999999984 0.29999999999999999 0 0.72500000000000064 0.2498161764706 0 0.74999999999999989 0.29999999999999999 0 0.72525833953073282 0.1032114801687094 0 0.68391457121233579 0.14440470121196541 0 0.68330259535470161 0.10038702501083881 0 0.43249999999999988 0.43937499999999979 0 0.46655310992796922 0.39650496622958609 0 0.48858720058566618 0.43964267759203868 0 0.19901705110390991 0.9175543425573498 0 0.14617343800780541 0.93808063414349496 0 0.16206583317966519 0.89685560785156404 0 0.19922788606653311 0.085920220746880993 0 0.16141998738593399 0.10404039647458049 0 0.14618258501891079 0.062070108745602003 0 0.31378396441836959 0.70157213313026345 0 0.26439878998046262 0.7048065392091396 0 0.27820712747429932 0.65530134213254643 0 0.1216098864341134 0.50637075089503902 0 0.113541300460994 0.46208784312094731 0 0.15801167086041079 0.46008690540259539 0 0.6084546825910605 0.37989672713932537 0 0.65481233915350323 0.35652751921065562 0 0.63912439215427275 0.41063340167983359 0 0.19901705110390991 0.9175543425573498 0 0.18474005699953849 0.96231585248064622 0 0.14617343800780541 0.93808063414349496 0 0.19922788606653311 0.085920220746880993 0 0.14618258501891079 0.062070108745602003 0 0.184418230509967 0.038773194583122873 0 0.38244435121258652 0.51653317813019495 0 0.35024835142131061 0.48654922671676981 0 0.3908716102680424 0.47010282357248828 0 0.82709327591102189 0.14937141670914489 0 0.77144070960558853 0.14311854477243749 0 0.80076557130237269 0.1154587552654202 0 0.82709327591091286 0.84937141670920724 0 0.76901770135486491 0.84293557325473656 0 0.80041942726660109 0.81543261647703358 0 0.43698630808430822 0.080423614171545449 0 0.44288491854585582 0.14116182884956319 0 0.39823268594401579 0.1116623613130045 0 0.39801143831225599 0.16651381068160659 0 0.39823268594401579 0.1116623613130045 0 0.44288491854585582 0.14116182884956319 0 0.36575549820117997 0.31677992835137742 0 0.3786248352540974 0.27082301512024259 0 0.41914690343363781 0.30688979866601612 0 0.42377727103934271 0.25099357235810238 0 0.41914690343363781 0.30688979866601612 0 0.3786248352540974 0.27082301512024259 0 0.049706944316475897 0.72477277076253799 0 0.1020579365089687 0.69352219419301997 0 0.090953281884486245 0.7564451946902494 0 0.1215415378367805 0.72939333680004137 0 0.090953281884486245 0.7564451946902494 0 0.1020579365089687 0.69352219419301997 0 0.1247745017231483 0.27198077544791172 0 0.093851963071650835 0.30582068233324772 0 0.095326043202144745 0.24554465089224409 0 0.049706944316556423 0.27522722923869108 0 0.095326043202144745 0.24554465089224409 0 0.093851963071650835 0.30582068233324772 0 0.77354604466818633 0.40378688774472771 0 0.81973119833356312 0.43505687159469048 0 0.77972660463949339 0.45529290596363098 0 0.43249999999999988 0.43937499999999979 0 0.43507373378304309 0.49699695397193322 0 0.3908716102680424 0.47010282357248828 0 0.26573297623774761 0.59828298563722948 0 0.2459498854893499 0.63248470766216769 0 0.22549374774072969 0.58452645269293457 0 0.72500000000000064 0.7952620967744265 0 0.77094201086366854 0.79647480515688507 0 0.76901770135486491 0.84293557325473656 0 0.72525833953073282 0.1032114801687094 0 0.76878382444651716 0.097147941686331368 0 0.77144070960558853 0.14311854477243749 0 0.72500000000000064 0.7952620967744265 0 0.68697391633157634 0.84450604838764298 0 0.68024162096458085 0.79868546898116533 0 0.31378396441836959 0.70157213313026345 0 0.29904318922293632 0.74132814928635593 0 0.26439878998046262 0.7048065392091396 0 0.31378396441836959 0.70157213313026345 0 0.35415581127540569 0.73730480045900215 0 0.29904318922293632 0.74132814928635593 0 0.61343887413683884 0.856862479058357 0 0.65005442820240822 0.82644988530054031 0 0.66412543161245952 0.88015090885499059 0 0.68697391633157634 0.84450604838764298 0 0.66412543161245952 0.88015090885499059 0 0.65005442820240822 0.82644988530054031 0 0.083411279318375747 0.91030024466934134 0 0.065374659239661639 0.8551091961254178 0 0.10562472963403439 0.87143394428979881 0 0.083411279318303222 0.089699755330707398 0 0.1053400320299198 0.12877248826361379 0 0.065374659239632718 0.1448908038746782 0 0.55306006949600994 0.20198184231352201 0 0.59443395090188023 0.18455690917515069 0 0.59814117807200873 0.23398510860739519 0 0.84999999999999987 0.29999999999999999 0 0.89999999999999991 0.29999999999999999 0 0.87430060258887643 0.34056085888204451 0 0.84999999999999987 0.69999999999999996 0 0.87712158428786946 0.65709029563313581 0 0.89999999999999991 0.69999999999999996 0 0.34258405725730701 0.4444034294386992 0 0.3908716102680424 0.47010282357248828 0 0.35024835142131061 0.48654922671676981 0 0.26573297623774761 0.59828298563722948 0 0.31502927232353312 0.6134992213375432 0 0.27820712747429932 0.65530134213254643 0 0.91696753777131557 0.497780560203536 0 0.86907294890112186 0.52008116128001669 0 0.88594198078881503 0.46167788676578442 0 0.84723782639812573 0.48638347960178252 0 0.88594198078881503 0.46167788676578442 0 0.86907294890112186 0.52008116128001669 0 0.7152569930854884 0.5237994455134295 0 0.77151014687832564 0.54436834383023036 0 0.71809016091162536 0.58185040402320831 0 0.90416666666660628 0.9041666666666166 0 0.89898474358632463 0.95391965591118966 0 0.85170973911348691 0.93569607295217616 0 0.90416666666668166 0.20416666666667119 0 0.89898474358614167 0.25391965591104898 0 0.8517097391133297 0.2356960729520409 0 0.91750694127107502 0.36982372220068471 0 0.95780851984364423 0.34215720972155339 0 0.95871855522754235 0.40006508612975411 0 0.91750694127105259 0.63017627779935648 0 0.95867599106212187 0.60011091146651041 0 0.9578014258160763 0.65787212321113708 0 0.90299850604011456 0.79563452813489832 0 0.88088768115933802 0.84674609810493673 0 0.84725310900444062 0.80779732082917555 0 0.90299850604006393 0.09563452813493091 0 0.88088768115941807 0.14674609810479519 0 0.84725310900442086 0.10779732082922661 0 0.1216098864341134 0.50637075089503902 0 0.16618607197337229 0.50652878253548905 0 0.14934928745814749 0.55042914607228977 0 0.20050006573841939 0.53248514016039872 0 0.14934928745814749 0.55042914607228977 0 0.16618607197337229 0.50652878253548905 0 0.80185942888539485 0.77452061303608133 0 0.84725310900444062 0.80779732082917555 0 0.80041942726660109 0.81543261647703358 0 0.80185942888501827 0.074520613036224564 0 0.84725310900442086 0.10779732082922661 0 0.80076557130237269 0.1154587552654202 0 0.083105206071452636 0.79992298667296435 0 0.065374659239661639 0.8551091961254178 0 0.038512288486097702 0.8155852717111195 0 0.083105206071467416 0.20007701332709979 0 0.038512288486115001 0.1844147282893184 0 0.065374659239632718 0.1448908038746782 0 0.54782696902220018 0.79245182748204157 0 0.59636844454254345 0.75937156204589151 0 0.60294066490120068 0.80851322453934582 0 0.083411279318375747 0.91030024466934134 0 0.0443105827531413 0.89858748162559932 0 0.065374659239661639 0.8551091961254178 0 0.083411279318303222 0.089699755330707398 0 0.065374659239632718 0.1448908038746782 0 0.044310582753132287 0.101412518374475 0 0.84999999999965292 1 0 0.81486180804382891 0.96321394949790495 0 0.85170973911348691 0.93569607295217616 0 0.84999999999999987 0.29999999999999999 0 0.81486180804364938 0.26321394949780091 0 0.8517097391133297 0.2356960729520409 0 0.4656888918609538 0.78493261229743638 0 0.45677673713123867 0.84253684404072415 0 0.42609163930740518 0.80361684430568059 0 0.39536230704883951 0.84069429572832477 0 0.42609163930740518 0.80361684430568059 0 0.45677673713123867 0.84253684404072415 0 0.6236733212988993 0.14864538214901801 0 0.56202748619534593 0.15054058349222879 0 0.58516465772821369 0.11653801664834119 0 0.57412547362576272 0.58273804879550706 0 0.63065402604362242 0.59661356661633302 0 0.5991018319127801 0.62925360607495295 0 0.61343887413683884 0.856862479058357 0 0.5832743223239254 0.88483152652961872 0 0.55899371797446828 0.85003102233514438 0 0.50202631463681879 0.87892870825713787 0 0.55899371797446828 0.85003102233514438 0 0.54783390826260769 0.89287767010860219 0 0.51076801031701946 0.1202837388510348 0 0.54979595918804436 0.1060565713905809 0 0.56202748619534593 0.15054058349222879 0 0.55306006949600994 0.20198184231352201 0 0.59814117807200873 0.23398510860739519 0 0.54248833945060504 0.2520322959927106 0 0.83573492347052902 0.36590755630746369 0 0.82500000000000062 0.33010209762754811 0 0.87430060258887643 0.34056085888204451 0 0.83758014339878906 0.63222013025741819 0 0.87712158428786946 0.65709029563313581 0 0.82457059160610424 0.66831947184359608 0 0.49102375406324739 0.49123754822244059 0 0.53823865529665704 0.45873898050322898 0 0.53330375813596242 0.50827942741749099 0 0.52289427570932567 0.3932284363388488 0 0.57744073070774993 0.41535148636609359 0 0.53823865529665704 0.45873898050322898 0 0.4089290844030305 0.58728915500154233 0 0.37272913873093971 0.56192925302619479 0 0.42644501560315817 0.54603747078095544 0 0.49695729691142171 0.25014895411178018 0 0.4604742573284204 0.27846934318264788 0 0.46429753744194407 0.22870891180733599 0 0.90299850604011456 0.79563452813489832 0 0.85491058998424563 0.76004753345552634 0 0.89999166460796554 0.74528934923809909 0 0.90299850604006393 0.09563452813493091 0 0.85491058998398861 0.060047533455626502 0 0.899991664607802 0.045289349238254978 0 0.38244435121258652 0.51653317813019495 0 0.42644501560315817 0.54603747078095544 0 0.37272913873093971 0.56192925302619479 0 0.71406021706547751 0.63292083137662503 0 0.71809016091162536 0.58185040402320831 0 0.74994237037456724 0.62775548192980357 0 0.84723782639812573 0.48638347960178252 0 0.86907294890112186 0.52008116128001669 0 0.81441713509985358 0.51161854125224959 0 0.33122374654748771 0.57588941099433744 0 0.33190227185843768 0.52715113583864037 0 0.37272913873093971 0.56192925302619479 0 0.086179601630648681 0.64647209519980475 0 0.1241190223511371 0.64391885572885044 0 0.1020579365089687 0.69352219419301997 0 0.59999999999894682 0 0 0.64999999999907843 0 0 0.61940220174112337 0.047251958781050582 0 0.18269480424590959 0.75905448272264375 0 0.14335651144331049 0.75565258250209677 0 0.15332765547575641 0.71200081858233666 0 0.22549374774072969 0.58452645269293457 0 0.2459498854893499 0.63248470766216769 0 0.19914261668318661 0.62286739485272158 0 0.38244435121258652 0.51653317813019495 0 0.43507373378304309 0.49699695397193322 0 0.42644501560315817 0.54603747078095544 0 0.65000000000104008 1 0 0.60000000000138687 1 0 0.62065498684670595 0.95224934003983619 0 0.078358742472063481 0.43365249433908948 0 0.068743045408989428 0.48853989837882689 0 0.033550201249889847 0.46247875832467239 0 0.2236846579037573 0.67380363126050236 0 0.27820712747429932 0.65530134213254643 0 0.26439878998046262 0.7048065392091396 0 0.6879972333610942 0.43038561374960838 0 0.68128176404677243 0.38629093627004979 0 0.72622533758026719 0.40265885511101601 0 0.72525833953073282 0.1032114801687094 0 0.7010294155333181 0.056779085686491267 0 0.7527966693318906 0.053051678021508272 0 0.18269480424590959 0.75905448272264375 0 0.15332765547575641 0.71200081858233666 0 0.19068556247388771 0.71028988922845504 0 0.1216098864341134 0.50637075089503902 0 0.085622222639554768 0.53333248912060549 0 0.068743045408989428 0.48853989837882689 0 0.25676291524611189 0.7436741304886243 0 0.26439878998046262 0.7048065392091396 0 0.29904318922293632 0.74132814928635593 0 0.65481233915350323 0.35652751921065562 0 0.68128176404677243 0.38629093627004979 0 0.63912439215427275 0.41063340167983359 0 0.83573492347052902 0.36590755630746369 0 0.86844634540301924 0.38530937474099819 0 0.81308179852519835 0.39754945808726527 0 0.27270076654418179 0.87751467830216623 0 0.2401283238295133 0.85648409884788523 0 0.29209212897034281 0.84715728365233667 0 0.84999999999999987 0.69999999999999996 0 0.85491058998424563 0.76004753345552634 0 0.81864958914779962 0.73589050177899629 0 0.84999999999960507 0 0 0.85491058998398861 0.060047533455626502 0 0.81864958914740749 0.035890501779055867 0 0.18381867841758909 0.57774125163628387 0 0.19914261668318661 0.62286739485272158 0 0.15720202157091859 0.60665697304410315 0 0.22549374774072969 0.58452645269293457 0 0.19914261668318661 0.62286739485272158 0 0.18381867841758909 0.57774125163628387 0 0.79680861578988083 0.92656778056766709 0 0.85170973911348691 0.93569607295217616 0 0.81486180804382891 0.96321394949790495 0 0.79680861578956375 0.22656778056752541 0 0.8517097391133297 0.2356960729520409 0 0.81486180804364938 0.26321394949780091 0 0.20050006573841939 0.53248514016039872 0 0.23975172658309729 0.49475499200540818 0 0.25115337790845271 0.54719303014923271 0 0.28307294598219601 0.50789252727458634 0 0.25115337790845271 0.54719303014923271 0 0.23975172658309729 0.49475499200540818 0 0.20050006573841939 0.53248514016039872 0 0.18381867841758909 0.57774125163628387 0 0.14934928745814749 0.55042914607228977 0 0.19922788606653311 0.085920220746880993 0 0.22985637510995899 0.1298347970200906 0 0.18652628422869419 0.14162325200928061 0 0.33758650185219202 0.23837101504325639 0 0.38831533174504851 0.2189834941785925 0 0.3786248352540974 0.27082301512024259 0 0.42377727103934271 0.25099357235810238 0 0.3786248352540974 0.27082301512024259 0 0.38831533174504851 0.2189834941785925 0 0.19922788606653311 0.085920220746880993 0 0.18652628422869419 0.14162325200928061 0 0.16141998738593399 0.10404039647458049 0 0.54782696902220018 0.79245182748204157 0 0.55363780716230748 0.74348740161571747 0 0.59636844454254345 0.75937156204589151 0 0.82709327591091286 0.84937141670920724 0 0.88088768115933802 0.84674609810493673 0 0.85600844944837662 0.88483418979512773 0 0.82709327591102189 0.14937141670914489 0 0.88088768115941807 0.14674609810479519 0 0.85600844944842547 0.1848341897950983 0 0.27866744612395528 0.38416094670951489 0 0.22033343844674469 0.36963382230740238 0 0.25966125648670141 0.34351016742083729 0 0 0.50000000000205869 0 0.033550201249889847 0.46247875832467239 0 0.068743045408989428 0.48853989837882689 0 0.31378396441836959 0.70157213313026345 0 0.36622285152418499 0.69092437780804039 0 0.35415581127540569 0.73730480045900215 0 0.77293540622714185 0.59448302402785813 0 0.71809016091162536 0.58185040402320831 0 0.77151014687832564 0.54436834383023036 0 0.7152569930854884 0.5237994455134295 0 0.69385896817107129 0.48377516041410151 0 0.73947346780852752 0.49062440112282169 0 0.15801167086041079 0.46008690540259539 0 0.191953871957803 0.42546416763755879 0 0.19604738184454831 0.47787523520405789 0 0.57667858002728545 0.078486105337742612 0 0.61940220174112337 0.047251958781050582 0 0.61956000905586006 0.1043312481793135 0 0.65408113592120842 0.073941773121567966 0 0.61956000905586006 0.1043312481793135 0 0.61940220174112337 0.047251958781050582 0 0 0.55000000000173355 0 0 0.50000000000205869 0 0.044576108720083309 0.53509043209532614 0 0.65507451745379841 0.92229208810758578 0 0.62065498684670595 0.95224934003983619 0 0.61885627562261258 0.90282959257498208 0 0.57724883562309992 0.92155686857100794 0 0.61885627562261258 0.90282959257498208 0 0.62065498684670595 0.95224934003983619 0 0.91750694127107502 0.36982372220068471 0 0.86844634540301924 0.38530937474099819 0 0.87430060258887643 0.34056085888204451 0 0.91750694127105259 0.63017627779935648 0 0.87712158428786946 0.65709029563313581 0 0.87159648282691515 0.61285406320581504 0 0.33123028043633618 0.77629643437932982 0 0.29904318922293632 0.74132814928635593 0 0.35415581127540569 0.73730480045900215 0 0.86411095495256451 0.42388805655111889 0 0.84925632466077294 0.45359738909549091 0 0.81973119833356312 0.43505687159469048 0 0.43846182030517877 0.64845797726506715 0 0.47913475093885149 0.66010775372412711 0 0.43323420005758778 0.6913544522562407 0 0.18269480424590959 0.75905448272264375 0 0.19068556247388771 0.71028988922845504 0 0.2248999640082178 0.72584299459689172 0 0.39536230704883951 0.84069429572832477 0 0.38586766253264881 0.78219501014812498 0 0.42609163930740518 0.80361684430568059 0 0.59999999999999976 0.69999999999999996 0 0.63221990677827677 0.73442891067859706 0 0.59636844454254345 0.75937156204589151 0 0.27866744612395528 0.38416094670951489 0 0.24049127783545701 0.41270748208749802 0 0.22033343844674469 0.36963382230740238 0 0.82709327591091286 0.84937141670920724 0 0.84725310900444062 0.80779732082917555 0 0.88088768115933802 0.84674609810493673 0 0.82709327591102189 0.14937141670914489 0 0.84725310900442086 0.10779732082922661 0 0.88088768115941807 0.14674609810479519 0 0.1650278706801647 0.38791388161335733 0 0.18434624290945251 0.35208838264196463 0 0.22033343844674469 0.36963382230740238 0 0.4409427642593301 0.35743108089689513 0 0.49077833859261139 0.35229981449445641 0 0.46655310992796922 0.39650496622958609 0 0.80185942888539485 0.77452061303608133 0 0.81864958914779962 0.73589050177899629 0 0.85491058998424563 0.76004753345552634 0 0.80185942888501827 0.074520613036224564 0 0.81864958914740749 0.035890501779055867 0 0.85491058998398861 0.060047533455626502 0 0.29999999999926641 0 0 0.34999999999912063 0 0 0.32541448401678508 0.046215317981507749 0 0.35000000000145642 1 0 0.30000000000124832 1 0 0.32544832635163229 0.95485394099568932 0 0.4656888918609538 0.78493261229743638 0 0.50731287292894423 0.78963574450233831 0 0.50627822638148745 0.8263979829520941 0 0.2185883431182947 0.18019736283949719 0 0.25557216766470708 0.15874861286892261 0 0.26429849586623999 0.19346700179430079 0 1 0.29999999999999999 0 1 0.34999999999993492 0 0.95780851984364423 0.34215720972155339 0 1 0.29999999999999999 0 0.95780851984364423 0.34215720972155339 0 0.94999999999999996 0.29999999999999999 0 1 0.69999999999999996 0 0.94999999999999996 0.69999999999999996 0 0.9578014258160763 0.65787212321113708 0 1 0.69999999999999996 0 0.9578014258160763 0.65787212321113708 0 1 0.64999999999986979 0 0.91750694127107502 0.36982372220068471 0 0.90594285160987287 0.4141265964174129 0 0.86844634540301924 0.38530937474099819 0 0.91750694127105259 0.63017627779935648 0 0.87159648282691515 0.61285406320581504 0 0.91143117093204207 0.58709913730335972 0 0.74999999999999989 0.69999999999999996 0 0.7750489929959945 0.66593931409600093 0 0.79999999999999982 0.69999999999999996 0 0.74999999999999989 0.29999999999999999 0 0.79999999999999982 0.29999999999999999 0 0.78145581580700685 0.34881365920033602 0 0.54999999999999993 0.69999999999999996 0 0.57484956128872922 0.66573805030881994 0 0.59999999999999976 0.69999999999999996 0 0.90299850604011456 0.79563452813489832 0 0.94399509803918602 0.75600490196082126 0 0.95386563387742829 0.80414874155775029 0 0.90416666666660628 0.9041666666666166 0 0.95391631417670719 0.89584263333814784 0 0.94399509803919068 0.9439950980391687 0 0.90299850604006393 0.09563452813493091 0 0.94399509803922566 0.056004901960802607 0 0.95386563387744361 0.1041487415577465 0 0.90416666666668166 0.20416666666667119 0 0.95391631417672862 0.19584263333809451 0 0.94399509803921056 0.24399509803922639 0 0.22278230690790279 0.44824268025881547 0 0.19604738184454831 0.47787523520405789 0 0.191953871957803 0.42546416763755879 0 0.90299850604011456 0.79563452813489832 0 0.89999166460796554 0.74528934923809909 0 0.94399509803918602 0.75600490196082126 0 0.90299850604006393 0.09563452813493091 0 0.899991664607802 0.045289349238254978 0 0.94399509803922566 0.056004901960802607 0 0.49102375406324739 0.49123754822244059 0 0.47793794143994173 0.52940715638744962 0 0.43507373378304309 0.49699695397193322 0 0.90416666666660628 0.9041666666666166 0 0.94399509803919068 0.9439950980391687 0 0.89898474358632463 0.95391965591118966 0 0.90416666666668166 0.20416666666667119 0 0.94399509803921056 0.24399509803922639 0 0.89898474358614167 0.25391965591104898 0 0.65394964615507722 0.22666784374016369 0 0.62657463266645097 0.26524202571255862 0 0.59814117807200873 0.23398510860739519 0 0.6084546825910605 0.37989672713932537 0 0.63912439215427275 0.41063340167983359 0 0.57744073070774993 0.41535148636609359 0 0.61209567303293111 0.44669033081290321 0 0.57744073070774993 0.41535148636609359 0 0.63912439215427275 0.41063340167983359 0 0.25676291524611189 0.7436741304886243 0 0.22556077506376701 0.77837424984191617 0 0.2248999640082178 0.72584299459689172 0 0.61343887413683884 0.856862479058357 0 0.60294066490120068 0.80851322453934582 0 0.65005442820240822 0.82644988530054031 0 0.64999999999907843 0 0 0.66369801598854572 0.036327466368102787 0 0.61940220174112337 0.047251958781050582 0 0.40326160981139969 0.73346192995102844 0 0.38586766253264881 0.78219501014812498 0 0.35415581127540569 0.73730480045900215 0 0.33123028043633618 0.77629643437932982 0 0.35415581127540569 0.73730480045900215 0 0.38586766253264881 0.78219501014812498 0 0.26573297623774761 0.59828298563722948 0 0.29110487519241501 0.56588143995431495 0 0.31502927232353312 0.6134992213375432 0 0.77846603114747959 0.49850927265137401 0 0.81441713509985358 0.51161854125224959 0 0.77151014687832564 0.54436834383023036 0 0.82862096804812391 0.55037090955459045 0 0.77151014687832564 0.54436834383023036 0 0.81441713509985358 0.51161854125224959 0 0.50000000000205869 1 0 0.45000000000187229 1 0 0.47135117303824892 0.95556877749289892 0 0.44999999999882923 0 0 0.49999999999869432 0 0 0.47040171442036788 0.044141676406503738 0 0 0.7000000000006934 0 0 0.65000000000104008 0 0.046634677244967337 0.671418230738282 0 0 0.35000000000145642 0 0 0.30000000000124832 0 0.046389130980076937 0.32668781832131749 0 0.31378396441836959 0.70157213313026345 0 0.27820712747429932 0.65530134213254643 0 0.32263089806001177 0.66003674931826484 0 0.33122374654748771 0.57588941099433744 0 0.31502927232353312 0.6134992213375432 0 0.29110487519241501 0.56588143995431495 0 0.26573297623774761 0.59828298563722948 0 0.27820712747429932 0.65530134213254643 0 0.2459498854893499 0.63248470766216769 0 0.14474682429600511 0.85524784522713515 0 0.16206583317966519 0.89685560785156404 0 0.1241151115713819 0.9045666525468371 0 0.14332333627550789 0.14578431753966009 0 0.12372429750337779 0.095814237875728972 0 0.16141998738593399 0.10404039647458049 0 0.64753070846764316 0.77332939069435502 0 0.59636844454254345 0.75937156204589151 0 0.63221990677827677 0.73442891067859706 0 0.14474682429600511 0.85524784522713515 0 0.1241151115713819 0.9045666525468371 0 0.10562472963403439 0.87143394428979881 0 0.14332333627550789 0.14578431753966009 0 0.1053400320299198 0.12877248826361379 0 0.12372429750337779 0.095814237875728972 0 0.77354604466818633 0.40378688774472771 0 0.81308179852519835 0.39754945808726527 0 0.81973119833356312 0.43505687159469048 0 0.54782696902220018 0.79245182748204157 0 0.50945740445113552 0.75476055527778108 0 0.55363780716230748 0.74348740161571747 0 0.2236846579037573 0.67380363126050236 0 0.2459498854893499 0.63248470766216769 0 0.27820712747429932 0.65530134213254643 0 0.77293540622714185 0.59448302402785813 0 0.74994237037456724 0.62775548192980357 0 0.71809016091162536 0.58185040402320831 0 0 0.79999999999999982 0 0 0.75000000000034661 0 0.04408157711937423 0.7728941757575627 0 0 0.25000000000104028 0 0 0.20000000000083221 0 0.044081577119474857 0.2271058242433576 0 0.19999999999955789 0 0 0.24999999999941211 0 0 0.22668068146512929 0.045875643423131329 0 0.25000000000104028 1 0 0.20000000000083221 1 0 0.22850979588452081 0.95594428570238643 0 0.47357141910802508 0.1873585799078378 0 0.44288491854585582 0.14116182884956319 0 0.48466639505193998 0.1421439844745814 0 0.59999999999999976 0.29999999999999999 0 0.5794309697024993 0.27124795968204829 0 0.62657463266645097 0.26524202571255862 0 0.43249999999999988 0.43937499999999979 0 0.42161023666869668 0.39493916313643851 0 0.46655310992796922 0.39650496622958609 0 0.31068898841644388 0.47541502461811092 0 0.33190227185843768 0.52715113583864037 0 0.28307294598219601 0.50789252727458634 0 0.35024835142131061 0.48654922671676981 0 0.33190227185843768 0.52715113583864037 0 0.31068898841644388 0.47541502461811092 0 0.35864735590330371 0.63903383440414463 0 0.36622285152418499 0.69092437780804039 0 0.32263089806001177 0.66003674931826484 0 0.31378396441836959 0.70157213313026345 0 0.32263089806001177 0.66003674931826484 0 0.36622285152418499 0.69092437780804039 0 0.86956835336234861 0.571283299838105 0 0.90900154012161016 0.53607784105648792 0 0.91143117093204207 0.58709913730335972 0 0.6499999999999998 0.29999999999999999 0 0.65481233915350323 0.35652751921065562 0 0.61959173890754571 0.33832250091341232 0 0.4409427642593301 0.35743108089689513 0 0.46226845272279993 0.31901800744800313 0 0.49077833859261139 0.35229981449445641 0 0.5 0.29999999999999999 0 0.49077833859261139 0.35229981449445641 0 0.46226845272279993 0.31901800744800313 0 0.14999999999970359 0 0 0.19999999999955789 0 0 0.184418230509967 0.038773194583122873 0 0.20000000000083221 1 0 0.15000000000062411 1 0 0.18474005699953849 0.96231585248064622 0 1 0.49999999999950101 0 1 0.54999999999963112 0 0.95631871884947484 0.51827533208233789 0 0.38586766253264881 0.78219501014812498 0 0.42676259796334498 0.76772545931379299 0 0.42609163930740518 0.80361684430568059 0 0.20050006573841939 0.53248514016039872 0 0.22549374774072969 0.58452645269293457 0 0.18381867841758909 0.57774125163628387 0 0.065374659239661639 0.8551091961254178 0 0.1074251789111534 0.83564394292147814 0 0.10562472963403439 0.87143394428979881 0 0.065374659239632718 0.1448908038746782 0 0.1053400320299198 0.12877248826361379 0 0.106902708054812 0.16453234188234539 0 0.1650278706801647 0.38791388161335733 0 0.14223753364722069 0.3341983344262433 0 0.18434624290945251 0.35208838264196463 0 0.43249999999999988 0.43937499999999979 0 0.46111841286828259 0.46690301029591341 0 0.43507373378304309 0.49699695397193322 0 0.83758014339878906 0.63222013025741819 0 0.81723410853263523 0.59419663659258926 0 0.87159648282691515 0.61285406320581504 0 0.19670163708476801 0.31472518408333222 0 0.18434624290945251 0.35208838264196463 0 0.14223753364722069 0.3341983344262433 0 0.75000000000034661 1 0 0.7250000000005199 0.94981617647078953 0 0.770759834363826 0.95919399014344442 0 0.74999999999999989 0.29999999999999999 0 0.72500000000000064 0.2498161764706 0 0.77075983436335049 0.25919399014334171 0 0.69999999999999984 0.29999999999999999 0 0.67933712972090698 0.25920070958121938 0 0.72500000000000064 0.2498161764706 0 0.57611405284611883 0.50165903596042916 0 0.53330375813596242 0.50827942741749099 0 0.53823865529665704 0.45873898050322898 0 0.6499999999999998 0.29999999999999999 0 0.68887083591306764 0.33632058575757479 0 0.65481233915350323 0.35652751921065562 0 0.27866744612395528 0.38416094670951489 0 0.33277555741076909 0.36432196682010132 0 0.31778888742534622 0.40581751814196781 0 0.49102375406324739 0.49123754822244059 0 0.43507373378304309 0.49699695397193322 0 0.46111841286828259 0.46690301029591341 0 0.94999999999999996 0.69999999999999996 0 0.97166519676947294 0.73337114490064459 0 0.94399509803918602 0.75600490196082126 0 0.94999999999986839 0 0 0.97166519676946894 0.033371144900598393 0 0.94399509803922566 0.056004901960802607 0 0.94999999999999996 0.29999999999999999 0 0.94399509803921056 0.24399509803922639 0 0.97166519676951801 0.26662885509932011 0 0.94999999999979179 1 0 0.94399509803919068 0.9439950980391687 0 0.97166519676946206 0.96662885509935492 0 0.34258405725730701 0.4444034294386992 0 0.29124338931648802 0.43334555462578611 0 0.31778888742534622 0.40581751814196781 0 0.27866744612395528 0.38416094670951489 0 0.31778888742534622 0.40581751814196781 0 0.29124338931648802 0.43334555462578611 0 0.36575549820117997 0.31677992835137742 0 0.33277555741076909 0.36432196682010132 0 0.32752639306529541 0.32610012995269699 0 0.35752321586431363 0.9185439911803448 0 0.32544832635163229 0.95485394099568932 0 0.30864387279288652 0.89906554525974958 0 0.27609987656793722 0.94991445621608572 0 0.30864387279288652 0.89906554525974958 0 0.32544832635163229 0.95485394099568932 0 0.33123028043633618 0.77629643437932982 0 0.30857225866488791 0.81101973481716805 0 0.2792923945214143 0.77665808831789485 0 0.33758650185219202 0.23837101504325639 0 0.29132859388405002 0.27203693976649962 0 0.28040350263641872 0.23054717217092141 0 0.4409427642593301 0.35743108089689513 0 0.41914690343363781 0.30688979866601612 0 0.46226845272279993 0.31901800744800313 0 0.14332333627550789 0.14578431753966009 0 0.13737030665753211 0.20313708640667491 0 0.106902708054812 0.16453234188234539 0 0.083105206071467416 0.20007701332709979 0 0.106902708054812 0.16453234188234539 0 0.13737030665753211 0.20313708640667491 0 0.083105206071452636 0.79992298667296435 0 0.1382744753146134 0.79650574229207483 0 0.1074251789111534 0.83564394292147814 0 0.14474682429600511 0.85524784522713515 0 0.1074251789111534 0.83564394292147814 0 0.1382744753146134 0.79650574229207483 0 0.65408113592120842 0.073941773121567966 0 0.7010294155333181 0.056779085686491267 0 0.68330259535470161 0.10038702501083881 0 0.72525833953073282 0.1032114801687094 0 0.68330259535470161 0.10038702501083881 0 0.7010294155333181 0.056779085686491267 0 0.049706944316475897 0.72477277076253799 0 0.046634677244967337 0.671418230738282 0 0.1020579365089687 0.69352219419301997 0 0.086179601630648681 0.64647209519980475 0 0.1020579365089687 0.69352219419301997 0 0.046634677244967337 0.671418230738282 0 0.087545339447545459 0.35122518864182262 0 0.046389130980076937 0.32668781832131749 0 0.093851963071650835 0.30582068233324772 0 0.049706944316556423 0.27522722923869108 0 0.093851963071650835 0.30582068233324772 0 0.046389130980076937 0.32668781832131749 0 0.82709327591091286 0.84937141670920724 0 0.80041942726660109 0.81543261647703358 0 0.84725310900444062 0.80779732082917555 0 0.82709327591102189 0.14937141670914489 0 0.80076557130237269 0.1154587552654202 0 0.84725310900442086 0.10779732082922661 0 0.17933913398461551 0.2350063570234002 0 0.14377654328998779 0.2442024734791064 0 0.13737030665753211 0.20313708640667491 0 0.18269480424590959 0.75905448272264375 0 0.1382744753146134 0.79650574229207483 0 0.14335651144331049 0.75565258250209677 0 0.33758650185219202 0.23837101504325639 0 0.3786248352540974 0.27082301512024259 0 0.33402499257867951 0.28911035184473982 0 0.14332333627550789 0.14578431753966009 0 0.18124454140915969 0.18790916706335251 0 0.13737030665753211 0.20313708640667491 0 0.14474682429600511 0.85524784522713515 0 0.1382744753146134 0.79650574229207483 0 0.17777405986036951 0.81832336108265358 0 0.5 0.29999999999999999 0 0.52752007115234678 0.33170632466418198 0 0.49077833859261139 0.35229981449445641 0 0.27866744612395528 0.38416094670951489 0 0.29644548887253103 0.34914008784168082 0 0.33277555741076909 0.36432196682010132 0 0 0.84999999999965292 0 0 0.79999999999999982 0 0.038512288486097702 0.8155852717111195 0 0 0.20000000000083221 0 0 0.15000000000062411 0 0.038512288486115001 0.1844147282893184 0 0.40326160981139969 0.73346192995102844 0 0.35415581127540569 0.73730480045900215 0 0.36622285152418499 0.69092437780804039 0 0.91696753777131557 0.497780560203536 0 0.96228564064454991 0.48206450662049471 0 0.95631871884947484 0.51827533208233789 0 0.33758650185219202 0.23837101504325639 0 0.31255190597181792 0.19850845631528771 0 0.3572130504031617 0.1874703368446563 0 0.59814117807200873 0.23398510860739519 0 0.62657463266645097 0.26524202571255862 0 0.5794309697024993 0.27124795968204829 0 0.34258405725730701 0.4444034294386992 0 0.31068898841644388 0.47541502461811092 0 0.29124338931648802 0.43334555462578611 0 0.38083244760691543 0.38531983672244652 0 0.35221190152536241 0.40457127605439203 0 0.33277555741076909 0.36432196682010132 0 0.083411279318375747 0.91030024466934134 0 0.10266856499240549 0.95548163909968886 0 0.053064897599294662 0.95186845269532028 0 0.083411279318303222 0.089699755330707398 0 0.053064897599215843 0.048131547304697528 0 0.10266856499169109 0.044518360900210059 0 0.42377727103934271 0.25099357235810238 0 0.4604742573284204 0.27846934318264788 0 0.41914690343363781 0.30688979866601612 0 0.28307294598219601 0.50789252727458634 0 0.25982634974572738 0.46097799597715272 0 0.31068898841644388 0.47541502461811092 0 0.29348325746214782 0.31350119524708198 0 0.29132859388405002 0.27203693976649962 0 0.33402499257867951 0.28911035184473982 0 0.35312867752657662 0.084946736076730367 0 0.39823268594401579 0.1116623613130045 0 0.36246644853392812 0.1399454205365751 0 0.7000000000006934 1 0 0.68015064798562208 0.95924320340003011 0 0.7250000000005199 0.94981617647078953 0 0.42377727103934271 0.25099357235810238 0 0.38831533174504851 0.2189834941785925 0 0.42905200079338551 0.19982395548231649 0 0.53823865529665704 0.45873898050322898 0 0.57744073070774993 0.41535148636609359 0 0.57975577671020095 0.46172033326338591 0 0.33758650185219202 0.23837101504325639 0 0.3572130504031617 0.1874703368446563 0 0.38831533174504851 0.2189834941785925 0 0.29124338931648802 0.43334555462578611 0 0.31068898841644388 0.47541502461811092 0 0.25982634974572738 0.46097799597715272 0 0.6084546825910605 0.37989672713932537 0 0.61959173890754571 0.33832250091341232 0 0.65481233915350323 0.35652751921065562 0 0.40326160981139969 0.73346192995102844 0 0.43323420005758778 0.6913544522562407 0 0.45582236402875981 0.73896743678908217 0 0.33758650185219202 0.23837101504325639 0 0.28040350263641872 0.23054717217092141 0 0.31255190597181792 0.19850845631528771 0 0.79999999999999982 1 0 0.75000000000034661 1 0 0.770759834363826 0.95919399014344442 0 0.74999999999999989 0.29999999999999999 0 0.77075983436335049 0.25919399014334171 0 0.79999999999999982 0.29999999999999999 0 0.6499999999999998 0.29999999999999999 0 0.67933712972090698 0.25920070958121938 0 0.69999999999999984 0.29999999999999999 0 0.39536230704883951 0.84069429572832477 0 0.39767323751400468 0.89584229130535065 0 0.35864759629805099 0.87963482415279515 0 0.54999999999999993 0.69999999999999996 0 0.52584555706968406 0.66664215091846768 0 0.57484956128872922 0.66573805030881994 0 0.35312867752657662 0.084946736076730367 0 0.32541448401678508 0.046215317981507749 0 0.3615861437013822 0.03582617922508851 0 0.35752321586431363 0.9185439911803448 0 0.36184234618600131 0.96443954459096326 0 0.32544832635163229 0.95485394099568932 0 0.35312867752657662 0.084946736076730367 0 0.3615861437013822 0.03582617922508851 0 0.39591832466117061 0.056982757562006353 0 0.35752321586431363 0.9185439911803448 0 0.39641108128798319 0.94356127926187128 0 0.36184234618600131 0.96443954459096326 0 0.083411279318303222 0.089699755330707398 0 0.044310582753132287 0.101412518374475 0 0.053064897599215843 0.048131547304697528 0 0.083411279318375747 0.91030024466934134 0 0.053064897599294662 0.95186845269532028 0 0.0443105827531413 0.89858748162559932 0 0.38083244760691543 0.38531983672244652 0 0.40076539126862748 0.34589349467022118 0 0.42161023666869668 0.39493916313643851 0 0.4409427642593301 0.35743108089689513 0 0.42161023666869668 0.39493916313643851 0 0.40076539126862748 0.34589349467022118 0 0.79999999999999982 0.29999999999999999 0 0.82500000000000062 0.33010209762754811 0 0.78145581580700685 0.34881365920033602 0 0.79999999999999982 0.69999999999999996 0 0.7750489929959945 0.66593931409600093 0 0.82457059160610424 0.66831947184359608 0 0.59999999999999976 0.69999999999999996 0 0.57484956128872922 0.66573805030881994 0 0.62460753523532009 0.66851202781000296 0 0.74999999999999989 0.69999999999999996 0 0.72500000000000064 0.67022701834392062 0 0.7750489929959945 0.66593931409600093 0 0.74999999999999989 0.29999999999999999 0 0.78145581580700685 0.34881365920033602 0 0.73090396928863699 0.33699297293167962 0 0.33758650185219202 0.23837101504325639 0 0.33402499257867951 0.28911035184473982 0 0.29132859388405002 0.27203693976649962 0 0.36575549820117997 0.31677992835137742 0 0.41914690343363781 0.30688979866601612 0 0.40076539126862748 0.34589349467022118 0 0.4409427642593301 0.35743108089689513 0 0.40076539126862748 0.34589349467022118 0 0.41914690343363781 0.30688979866601612 0 0.34258405725730701 0.4444034294386992 0 0.38707855792647411 0.42299362914874578 0 0.3908716102680424 0.47010282357248828 0 0.7000000000006934 1 0 0.65000000000104008 1 0 0.68015064798562208 0.95924320340003011 0 0.49102375406324739 0.49123754822244059 0 0.46111841286828259 0.46690301029591341 0 0.48858720058566618 0.43964267759203868 0 0.4656888918609538 0.78493261229743638 0 0.42676259796334498 0.76772545931379299 0 0.45582236402875981 0.73896743678908217 0 0.40326160981139969 0.73346192995102844 0 0.45582236402875981 0.73896743678908217 0 0.42676259796334498 0.76772545931379299 0 0.59999999999999976 0.29999999999999999 0 0.62657463266645097 0.26524202571255862 0 0.6499999999999998 0.29999999999999999 0 0.40000000000166441 1 0 0.36184234618600131 0.96443954459096326 0 0.39641108128798319 0.94356127926187128 0 0.3999999999989749 0 0 0.39591832466117061 0.056982757562006353 0 0.3615861437013822 0.03582617922508851 0 0.43249999999999988 0.43937499999999979 0 0.48858720058566618 0.43964267759203868 0 0.46111841286828259 0.46690301029591341 0 0.7250000000005199 0.89375000000045834 0 0.7250000000005199 0.94981617647078953 0 0.68987011941058407 0.92105047536677087 0 0.7250000000005199 0.89375000000045834 0 0.75729602384198635 0.92353652857884294 0 0.7250000000005199 0.94981617647078953 0 0.72500000000001008 0.19776155966387679 0 0.75668890529066124 0.2244279804069782 0 0.72500000000000064 0.2498161764706 0 0.72500000000001008 0.19776155966387679 0 0.72500000000000064 0.2498161764706 0 0.69397719155551807 0.2245125647000914 0 0.79999999999999982 0.29999999999999999 0 0.81486180804364938 0.26321394949780091 0 0.84999999999999987 0.29999999999999999 0 0.84999999999965292 1 0 0.79999999999999982 1 0 0.81486180804382891 0.96321394949790495 0 0.1247745017231483 0.27198077544791172 0 0.095326043202144745 0.24554465089224409 0 0.14377654328998779 0.2442024734791064 0 0.1215415378367805 0.72939333680004137 0 0.14335651144331049 0.75565258250209677 0 0.090953281884486245 0.7564451946902494 0 0.72500000000001008 0.19776155966387679 0 0.72634814642510737 0.16106886917518889 0 0.76587607630038135 0.18880039518954719 0 0.72500000000001008 0.19776155966387679 0 0.6865991819015953 0.189116534044597 0 0.72634814642510737 0.16106886917518889 0 0.77144070960558853 0.14311854477243749 0 0.76587607630038135 0.18880039518954719 0 0.72634814642510737 0.16106886917518889 0 0.68391457121233579 0.14440470121196541 0 0.72634814642510737 0.16106886917518889 0 0.6865991819015953 0.189116534044597 0 0.7250000000005199 0.89375000000045834 0 0.72863726579783861 0.85390518901155588 0 0.76891166905518427 0.88835469571185499 0 0.76901770135486491 0.84293557325473656 0 0.76891166905518427 0.88835469571185499 0 0.72863726579783861 0.85390518901155588 0 0 0.20000000000083221 0 0.038512288486115001 0.1844147282893184 0 0.044081577119474857 0.2271058242433576 0 0 0.79999999999999982 0 0.04408157711937423 0.7728941757575627 0 0.038512288486097702 0.8155852717111195 0 0.52375890611712683 0.059318771819432882 0 0.47881186583059909 0.093591717165689425 0 0.47040171442036788 0.044141676406503738 0 0.52122150208832174 0.94089974453840242 0 0.47135117303824892 0.95556877749289892 0 0.47401147028110507 0.91529957330468115 0 0.27474541102162192 0.11822029332053539 0 0.3096713403101819 0.085471541595262421 0 0.32215584939770009 0.1218492143506909 0 0.22278230690790279 0.44824268025881547 0 0.24049127783545701 0.41270748208749802 0 0.25982634974572738 0.46097799597715272 0 0.93732437411268477 0.55911392101136159 0 0.91143117093204207 0.58709913730335972 0 0.90900154012161016 0.53607784105648792 0 0.19901705110390991 0.9175543425573498 0 0.24536017905392571 0.90704567837671446 0 0.22850979588452081 0.95594428570238643 0 0.27609987656793722 0.94991445621608572 0 0.22850979588452081 0.95594428570238643 0 0.24536017905392571 0.90704567837671446 0 0.15720202157091859 0.60665697304410315 0 0.1241190223511371 0.64391885572885044 0 0.1024350934457823 0.60772393977513839 0 0.6499999999999998 0.69999999999999996 0 0.675261390228442 0.65996937624687813 0 0.69999999999999984 0.69999999999999996 0 0.3999999999989749 0 0 0.4320097814748517 0.037406712692169303 0 0.39591832466117061 0.056982757562006353 0 0.40000000000166441 1 0 0.39641108128798319 0.94356127926187128 0 0.4308986359464303 0.96395712492906194 0 0.54999999999999993 0.29999999999999999 0 0.56836770495988642 0.3523062350852913 0 0.52752007115234678 0.33170632466418198 0 0.14474682429600511 0.85524784522713515 0 0.17777405986036951 0.81832336108265358 0 0.19741632902693801 0.86755867406447229 0 0.21858834311891909 0.81980263716112767 0 0.19741632902693801 0.86755867406447229 0 0.17777405986036951 0.81832336108265358 0 0.54782696902220018 0.79245182748204157 0 0.50731287292894423 0.78963574450233831 0 0.50945740445113552 0.75476055527778108 0 0.20000000000083221 1 0 0.18474005699953849 0.96231585248064622 0 0.22850979588452081 0.95594428570238643 0 0.19999999999955789 0 0 0.22668068146512929 0.045875643423131329 0 0.184418230509967 0.038773194583122873 0 0.77846603114747959 0.49850927265137401 0 0.73947346780852752 0.49062440112282169 0 0.77972660463949339 0.45529290596363098 0 0.73483647259922602 0.44789725365921768 0 0.77972660463949339 0.45529290596363098 0 0.73947346780852752 0.49062440112282169 0 0.34258405725730701 0.4444034294386992 0 0.35024835142131061 0.48654922671676981 0 0.31068898841644388 0.47541502461811092 0 0.33123028043633618 0.77629643437932982 0 0.2792923945214143 0.77665808831789485 0 0.29904318922293632 0.74132814928635593 0 0.26573297623774761 0.59828298563722948 0 0.25115337790845271 0.54719303014923271 0 0.29110487519241501 0.56588143995431495 0 0.4656888918609538 0.78493261229743638 0 0.50945740445113552 0.75476055527778108 0 0.50731287292894423 0.78963574450233831 0 0.35312867752657662 0.084946736076730367 0 0.36246644853392812 0.1399454205365751 0 0.32215584939770009 0.1218492143506909 0 0.29348325746214782 0.31350119524708198 0 0.25966125648670141 0.34351016742083729 0 0.24432083401701241 0.3006253385567515 0 0.59999999999999976 0.69999999999999996 0 0.6499999999999998 0.69999999999999996 0 0.63221990677827677 0.73442891067859706 0 0.69999999999921003 0 0 0.7010294155333181 0.056779085686491267 0 0.66369801598854572 0.036327466368102787 0 0.40000000000166441 1 0 0.35000000000145642 1 0 0.36184234618600131 0.96443954459096326 0 0.34999999999912063 0 0 0.3999999999989749 0 0 0.3615861437013822 0.03582617922508851 0 0.43507373378304309 0.49699695397193322 0 0.47793794143994173 0.52940715638744962 0 0.42644501560315817 0.54603747078095544 0 0.14474682429600511 0.85524784522713515 0 0.19741632902693801 0.86755867406447229 0 0.16206583317966519 0.89685560785156404 0 0.19901705110390991 0.9175543425573498 0 0.16206583317966519 0.89685560785156404 0 0.19741632902693801 0.86755867406447229 0 0.35864735590330371 0.63903383440414463 0 0.3977710372045391 0.65868194622830212 0 0.36622285152418499 0.69092437780804039 0 0.7527966693318906 0.053051678021508272 0 0.7010294155333181 0.056779085686491267 0 0.72683645290270404 0.027797073151180601 0 0.71508799138962864 0.36622814920737751 0 0.72622533758026719 0.40265885511101601 0 0.68128176404677243 0.38629093627004979 0 0.79999999999999982 0.69999999999999996 0 0.84999999999999987 0.69999999999999996 0 0.81864958914779962 0.73589050177899629 0 0.79999999999947335 0 0 0.84999999999960507 0 0 0.81864958914740749 0.035890501779055867 0 0.39536230704883951 0.84069429572832477 0 0.35642984951668422 0.80994399665655703 0 0.38586766253264881 0.78219501014812498 0 0.42377727103934271 0.25099357235810238 0 0.46429753744194407 0.22870891180733599 0 0.4604742573284204 0.27846934318264788 0 0.39801143831225599 0.16651381068160659 0 0.42905200079338551 0.19982395548231649 0 0.38831533174504851 0.2189834941785925 0 0.79999999999999982 1 0 0.770759834363826 0.95919399014344442 0 0.81486180804382891 0.96321394949790495 0 0.79999999999999982 0.29999999999999999 0 0.77075983436335049 0.25919399014334171 0 0.81486180804364938 0.26321394949780091 0 0.25195515620380449 0.25883339815888678 0 0.21049769590865089 0.26857363548218488 0 0.224700362040408 0.22206622194729711 0 0.40326160981139969 0.73346192995102844 0 0.42676259796334498 0.76772545931379299 0 0.38586766253264881 0.78219501014812498 0 0.35312867752657662 0.084946736076730367 0 0.3096713403101819 0.085471541595262421 0 0.32541448401678508 0.046215317981507749 0 0.59999999999999976 0.29999999999999999 0 0.6499999999999998 0.29999999999999999 0 0.61959173890754571 0.33832250091341232 0 0.2185883431182947 0.18019736283949719 0 0.18652628422869419 0.14162325200928061 0 0.22985637510995899 0.1298347970200906 0 0.64999999999907843 0 0 0.69999999999921003 0 0 0.66369801598854572 0.036327466368102787 0 0.27499999999933927 0.060310814194988557 0 0.24218496799700481 0.089025544070598317 0 0.22668068146512929 0.045875643423131329 0 0.19922788606653311 0.085920220746880993 0 0.22668068146512929 0.045875643423131329 0 0.24218496799700481 0.089025544070598317 0 0.65507451745379841 0.92229208810758578 0 0.66412543161245952 0.88015090885499059 0 0.68987011941058407 0.92105047536677087 0 0.049706944316475897 0.72477277076253799 0 0.090953281884486245 0.7564451946902494 0 0.04408157711937423 0.7728941757575627 0 0.083105206071452636 0.79992298667296435 0 0.04408157711937423 0.7728941757575627 0 0.090953281884486245 0.7564451946902494 0 0.083105206071467416 0.20007701332709979 0 0.095326043202144745 0.24554465089224409 0 0.044081577119474857 0.2271058242433576 0 0.049706944316556423 0.27522722923869108 0 0.044081577119474857 0.2271058242433576 0 0.095326043202144745 0.24554465089224409 0 0.36575549820117997 0.31677992835137742 0 0.33402499257867951 0.28911035184473982 0 0.3786248352540974 0.27082301512024259 0 0.53245488764484505 0.55078124999999989 0 0.53330375813596242 0.50827942741749099 0 0.57435499076887508 0.54267261987897775 0 0.57611405284611883 0.50165903596042916 0 0.57435499076887508 0.54267261987897775 0 0.53330375813596242 0.50827942741749099 0 0.6499999999999998 0.29999999999999999 0 0.69999999999999984 0.29999999999999999 0 0.68887083591306764 0.33632058575757479 0 0.57611405284611883 0.50165903596042916 0 0.53823865529665704 0.45873898050322898 0 0.57975577671020095 0.46172033326338591 0 0.7750489929959945 0.66593931409600093 0 0.72500000000000064 0.67022701834392062 0 0.74994237037456724 0.62775548192980357 0 0.78145581580700685 0.34881365920033602 0 0.74764719760526988 0.3719647154012321 0 0.73090396928863699 0.33699297293167962 0 0.3999999999989749 0 0 0.44999999999882923 0 0 0.4320097814748517 0.037406712692169303 0 0.45000000000187229 1 0 0.40000000000166441 1 0 0.4308986359464303 0.96395712492906194 0 0.57484956128872922 0.66573805030881994 0 0.5991018319127801 0.62925360607495295 0 0.62460753523532009 0.66851202781000296 0 0.7750489929959945 0.66593931409600093 0 0.79884539758237771 0.62875045078114233 0 0.82457059160610424 0.66831947184359608 0 0.39801143831225599 0.16651381068160659 0 0.36246644853392812 0.1399454205365751 0 0.39823268594401579 0.1116623613130045 0 0.078358742472063481 0.43365249433908948 0 0.033550201249889847 0.46247875832467239 0 0.035463093262830522 0.42673416072819947 0 0.25676291524611189 0.7436741304886243 0 0.2792923945214143 0.77665808831789485 0 0.22556077506376701 0.77837424984191617 0 0.2236846579037573 0.67380363126050236 0 0.2248999640082178 0.72584299459689172 0 0.19068556247388771 0.71028988922845504 0 0.50715858906372158 0.63295939104129484 0 0.5166924242153631 0.59825134841919447 0 0.5498280205245758 0.6290146943450976 0 0.14618258501891079 0.062070108745602003 0 0.12372429750337779 0.095814237875728972 0 0.10266856499169109 0.044518360900210059 0 0.083411279318303222 0.089699755330707398 0 0.10266856499169109 0.044518360900210059 0 0.12372429750337779 0.095814237875728972 0 0.083411279318375747 0.91030024466934134 0 0.1241151115713819 0.9045666525468371 0 0.10266856499240549 0.95548163909968886 0 0.14617343800780541 0.93808063414349496 0 0.10266856499240549 0.95548163909968886 0 0.1241151115713819 0.9045666525468371 0 0.5499999999988151 0 0 0.59999999999894682 0 0 0.57396793757665954 0.037011367187645222 0 0.54782696902220018 0.79245182748204157 0 0.50627822638148745 0.8263979829520941 0 0.50731287292894423 0.78963574450233831 0 0.6499999999999998 0.29999999999999999 0 0.62657463266645097 0.26524202571255862 0 0.67933712972090698 0.25920070958121938 0 0.86956835336234861 0.571283299838105 0 0.86907294890112186 0.52008116128001669 0 0.90900154012161016 0.53607784105648792 0 0.17933913398461551 0.2350063570234002 0 0.224700362040408 0.22206622194729711 0 0.21049769590865089 0.26857363548218488 0 0.43249999999999988 0.43937499999999979 0 0.3908716102680424 0.47010282357248828 0 0.38707855792647411 0.42299362914874578 0 0.27474541102162192 0.11822029332053539 0 0.22985637510995899 0.1298347970200906 0 0.24218496799700481 0.089025544070598317 0 0.64753070846764316 0.77332939069435502 0 0.66427993341343905 0.73232764502436276 0 0.6916490518212759 0.75387992374886192 0 0 0.40000000000166441 0 0.050583896093752537 0.38543522283434112 0 0.035463093262830522 0.42673416072819947 0 0.73483647259922602 0.44789725365921768 0 0.73947346780852752 0.49062440112282169 0 0.69385896817107129 0.48377516041410151 0 0.57484956128872922 0.66573805030881994 0 0.52584555706968406 0.66664215091846768 0 0.5498280205245758 0.6290146943450976 0 0.60000000000138687 1 0 0.55000000000173355 1 0 0.57382506491224949 0.9629411906298494 0 0.068743045408989428 0.48853989837882689 0 0.085622222639554768 0.53333248912060549 0 0.044576108720083309 0.53509043209532614 0 0.083105206071467416 0.20007701332709979 0 0.044081577119474857 0.2271058242433576 0 0.038512288486115001 0.1844147282893184 0 0.083105206071452636 0.79992298667296435 0 0.038512288486097702 0.8155852717111195 0 0.04408157711937423 0.7728941757575627 0 0.28307294598219601 0.50789252727458634 0 0.23975172658309729 0.49475499200540818 0 0.25982634974572738 0.46097799597715272 0 0.43698630808430822 0.080423614171545449 0 0.39591832466117061 0.056982757562006353 0 0.4320097814748517 0.037406712692169303 0 0.4367309254023824 0.92065556789053882 0 0.4308986359464303 0.96395712492906194 0 0.39641108128798319 0.94356127926187128 0 0.80185942888539485 0.77452061303608133 0 0.75841349681148107 0.75422312624214749 0 0.78578450296893509 0.73292684821144505 0 0.80185942888501827 0.074520613036224564 0 0.7527966693318906 0.053051678021508272 0 0.78393852574753176 0.032039079577822822 0 0.6499999999999998 0.69999999999999996 0 0.62460753523532009 0.66851202781000296 0 0.675261390228442 0.65996937624687813 0 0.33123028043633618 0.77629643437932982 0 0.38586766253264881 0.78219501014812498 0 0.35642984951668422 0.80994399665655703 0 0.6405463747586706 0.63290524857395714 0 0.675261390228442 0.65996937624687813 0 0.62460753523532009 0.66851202781000296 0 0.22278230690790279 0.44824268025881547 0 0.191953871957803 0.42546416763755879 0 0.24049127783545701 0.41270748208749802 0 0.077693244765132896 0.56932317963405099 0 0.050069554451969707 0.61308520079857043 0 0.034381862692950467 0.57372682250960894 0 0.25195515620380449 0.25883339815888678 0 0.24432083401701241 0.3006253385567515 0 0.21049769590865089 0.26857363548218488 0 0.46666084890304671 0.57634471035397938 0 0.5166924242153631 0.59825134841919447 0 0.47095389620662098 0.61892551373708504 0 0.50715858906372158 0.63295939104129484 0 0.47095389620662098 0.61892551373708504 0 0.5166924242153631 0.59825134841919447 0 0.72525833953073282 0.1032114801687094 0 0.7527966693318906 0.053051678021508272 0 0.76878382444651716 0.097147941686331368 0 0.80185942888501827 0.074520613036224564 0 0.76878382444651716 0.097147941686331368 0 0.7527966693318906 0.053051678021508272 0 0.72500000000000064 0.7952620967744265 0 0.75841349681148107 0.75422312624214749 0 0.77094201086366854 0.79647480515688507 0 0.80185942888539485 0.77452061303608133 0 0.77094201086366854 0.79647480515688507 0 0.75841349681148107 0.75422312624214749 0 0.72500000000000064 0.7952620967744265 0 0.68024162096458085 0.79868546898116533 0 0.6916490518212759 0.75387992374886192 0 0.64753070846764316 0.77332939069435502 0 0.6916490518212759 0.75387992374886192 0 0.68024162096458085 0.79868546898116533 0 0 0.50000000000205869 0 0 0.45000000000187229 0 0.033550201249889847 0.46247875832467239 0 0.69999999999999984 0.69999999999999996 0 0.675261390228442 0.65996937624687813 0 0.72500000000000064 0.67022701834392062 0 0.71406021706547751 0.63292083137662503 0 0.72500000000000064 0.67022701834392062 0 0.675261390228442 0.65996937624687813 0 0.65408113592120842 0.073941773121567966 0 0.61940220174112337 0.047251958781050582 0 0.66369801598854572 0.036327466368102787 0 0.59999999999894682 0 0 0.61940220174112337 0.047251958781050582 0 0.57396793757665954 0.037011367187645222 0 0.60000000000138687 1 0 0.57382506491224949 0.9629411906298494 0 0.62065498684670595 0.95224934003983619 0 0.33122374654748771 0.57588941099433744 0 0.35765792684946668 0.6000687869219653 0 0.31502927232353312 0.6134992213375432 0 0.35864735590330371 0.63903383440414463 0 0.31502927232353312 0.6134992213375432 0 0.35765792684946668 0.6000687869219653 0 0.15801167086041079 0.46008690540259539 0 0.19604738184454831 0.47787523520405789 0 0.16618607197337229 0.50652878253548905 0 0.078358742472063481 0.43365249433908948 0 0.035463093262830522 0.42673416072819947 0 0.050583896093752537 0.38543522283434112 0 0.19901705110390991 0.9175543425573498 0 0.22850979588452081 0.95594428570238643 0 0.18474005699953849 0.96231585248064622 0 0.19922788606653311 0.085920220746880993 0 0.184418230509967 0.038773194583122873 0 0.22668068146512929 0.045875643423131329 0 0.19922788606653311 0.085920220746880993 0 0.24218496799700481 0.089025544070598317 0 0.22985637510995899 0.1298347970200906 0 0.74999999999999989 0.69999999999999996 0 0.78578450296893509 0.73292684821144505 0 0.75841349681148107 0.75422312624214749 0 0.74999999999934175 0 0 0.78393852574753176 0.032039079577822822 0 0.7527966693318906 0.053051678021508272 0 0 0.60000000000138687 0 0.034381862692950467 0.57372682250960894 0 0.050069554451969707 0.61308520079857043 0 0.2236846579037573 0.67380363126050236 0 0.26439878998046262 0.7048065392091396 0 0.2248999640082178 0.72584299459689172 0 0.6236733212988993 0.14864538214901801 0 0.58516465772821369 0.11653801664834119 0 0.61956000905586006 0.1043312481793135 0 0.26104540868854792 0.81401944968719064 0 0.2792923945214143 0.77665808831789485 0 0.30857225866488791 0.81101973481716805 0 0.42377727103934271 0.25099357235810238 0 0.42905200079338551 0.19982395548231649 0 0.46429753744194407 0.22870891180733599 0 0.27820712747429932 0.65530134213254643 0 0.31502927232353312 0.6134992213375432 0 0.32263089806001177 0.66003674931826484 0 0.61343887413683884 0.856862479058357 0 0.61885627562261258 0.90282959257498208 0 0.5832743223239254 0.88483152652961872 0 0.43698630808430822 0.080423614171545449 0 0.47040171442036788 0.044141676406503738 0 0.47881186583059909 0.093591717165689425 0 0.4367309254023824 0.92065556789053882 0 0.47401147028110507 0.91529957330468115 0 0.47135117303824892 0.95556877749289892 0 0.91696753777131557 0.497780560203536 0 0.95631871884947484 0.51827533208233789 0 0.90900154012161016 0.53607784105648792 0 0.93732437411268477 0.55911392101136159 0 0.90900154012161016 0.53607784105648792 0 0.95631871884947484 0.51827533208233789 0 0.27474541102162192 0.11822029332053539 0 0.25557216766470708 0.15874861286892261 0 0.22985637510995899 0.1298347970200906 0 0.2185883431182947 0.18019736283949719 0 0.22985637510995899 0.1298347970200906 0 0.25557216766470708 0.15874861286892261 0 0.29348325746214782 0.31350119524708198 0 0.33402499257867951 0.28911035184473982 0 0.32752639306529541 0.32610012995269699 0 0.27499999999933927 0.060310814194988557 0 0.32541448401678508 0.046215317981507749 0 0.3096713403101819 0.085471541595262421 0 0.27270076654418179 0.87751467830216623 0 0.24536017905392571 0.90704567837671446 0 0.2401283238295133 0.85648409884788523 0 1 0.44999999999963131 0 1 0.49999999999950101 0 0.96228564064454991 0.48206450662049471 0 0.61343887413683884 0.856862479058357 0 0.66412543161245952 0.88015090885499059 0 0.61885627562261258 0.90282959257498208 0 0 0.45000000000187229 0 0 0.40000000000166441 0 0.035463093262830522 0.42673416072819947 0 0.69999999999999984 0.69999999999999996 0 0.6916490518212759 0.75387992374886192 0 0.66427993341343905 0.73232764502436276 0 0.43846182030517877 0.64845797726506715 0 0.43323420005758778 0.6913544522562407 0 0.3977710372045391 0.65868194622830212 0 0.4367309254023824 0.92065556789053882 0 0.44003836461056539 0.88093474584252718 0 0.47401147028110507 0.91529957330468115 0 0.43846182030517877 0.64845797726506715 0 0.39743091024207589 0.6239520004230239 0 0.43545892161006339 0.61093128915313821 0 0.43846182030517877 0.64845797726506715 0 0.3977710372045391 0.65868194622830212 0 0.39743091024207589 0.6239520004230239 0 0.26429849586623999 0.19346700179430079 0 0.29336099386129338 0.15892013001050981 0 0.31255190597181792 0.19850845631528771 0 0.19670163708476801 0.31472518408333222 0 0.21049769590865089 0.26857363548218488 0 0.24432083401701241 0.3006253385567515 0 0.57724883562309992 0.92155686857100794 0 0.62065498684670595 0.95224934003983619 0 0.57382506491224949 0.9629411906298494 0 0.4409427642593301 0.35743108089689513 0 0.46655310992796922 0.39650496622958609 0 0.42161023666869668 0.39493916313643851 0 0.46666084890304671 0.57634471035397938 0 0.47095389620662098 0.61892551373708504 0 0.43545892161006339 0.61093128915313821 0 0.6879972333610942 0.43038561374960838 0 0.65178832218679827 0.45929119821019959 0 0.63912439215427275 0.41063340167983359 0 0.43698630808430822 0.080423614171545449 0 0.4320097814748517 0.037406712692169303 0 0.47040171442036788 0.044141676406503738 0 0.4367309254023824 0.92065556789053882 0 0.47135117303824892 0.95556877749289892 0 0.4308986359464303 0.96395712492906194 0 0.79680861578988083 0.92656778056766709 0 0.81486180804382891 0.96321394949790495 0 0.770759834363826 0.95919399014344442 0 0.79680861578956375 0.22656778056752541 0 0.81486180804364938 0.26321394949780091 0 0.77075983436335049 0.25919399014334171 0 0.71508799138962864 0.36622814920737751 0 0.68128176404677243 0.38629093627004979 0 0.68887083591306764 0.33632058575757479 0 0.35864735590330371 0.63903383440414463 0 0.32263089806001177 0.66003674931826484 0 0.31502927232353312 0.6134992213375432 0 0.21858834311891909 0.81980263716112767 0 0.2401283238295133 0.85648409884788523 0 0.19741632902693801 0.86755867406447229 0 0.35312867752657662 0.084946736076730367 0 0.32215584939770009 0.1218492143506909 0 0.3096713403101819 0.085471541595262421 0 0.35752321586431363 0.9185439911803448 0 0.35864759629805099 0.87963482415279515 0 0.39767323751400468 0.89584229130535065 0 0.41914690343363781 0.30688979866601612 0 0.4604742573284204 0.27846934318264788 0 0.46226845272279993 0.31901800744800313 0 0.33084213324567391 0.16272720141332131 0 0.32215584939770009 0.1218492143506909 0 0.36246644853392812 0.1399454205365751 0 0.46666084890304671 0.57634471035397938 0 0.42644501560315817 0.54603747078095544 0 0.47793794143994173 0.52940715638744962 0 0 0.60000000000138687 0 0 0.55000000000173355 0 0.034381862692950467 0.57372682250960894 0 0.77354604466818633 0.40378688774472771 0 0.74764719760526988 0.3719647154012321 0 0.78145581580700685 0.34881365920033602 0 0.34999999999912063 0 0 0.3615861437013822 0.03582617922508851 0 0.32541448401678508 0.046215317981507749 0 0.35000000000145642 1 0 0.32544832635163229 0.95485394099568932 0 0.36184234618600131 0.96443954459096326 0 0.57667858002728545 0.078486105337742612 0 0.57396793757665954 0.037011367187645222 0 0.61940220174112337 0.047251958781050582 0 0.47357141910802508 0.1873585799078378 0 0.50760557329222289 0.20700468884612061 0 0.46429753744194407 0.22870891180733599 0 0.49695729691142171 0.25014895411178018 0 0.46429753744194407 0.22870891180733599 0 0.50760557329222289 0.20700468884612061 0 0.33084213324567391 0.16272720141332131 0 0.3572130504031617 0.1874703368446563 0 0.31255190597181792 0.19850845631528771 0 0.6879972333610942 0.43038561374960838 0 0.63912439215427275 0.41063340167983359 0 0.68128176404677243 0.38629093627004979 0 0.65408113592120842 0.073941773121567966 0 0.65290632656860115 0.11434202593454081 0 0.61956000905586006 0.1043312481793135 0 0.33084213324567391 0.16272720141332131 0 0.31255190597181792 0.19850845631528771 0 0.29336099386129338 0.15892013001050981 0 0.61209567303293111 0.44669033081290321 0 0.63912439215427275 0.41063340167983359 0 0.65178832218679827 0.45929119821019959 0 0.086179601630648681 0.64647209519980475 0 0.1024350934457823 0.60772393977513839 0 0.1241190223511371 0.64391885572885044 0 0.44999999999882923 0 0 0.47040171442036788 0.044141676406503738 0 0.4320097814748517 0.037406712692169303 0 0.45000000000187229 1 0 0.4308986359464303 0.96395712492906194 0 0.47135117303824892 0.95556877749289892 0 0.74999999999934175 0 0 0.7527966693318906 0.053051678021508272 0 0.72683645290270404 0.027797073151180601 0 0.74999999999999989 0.69999999999999996 0 0.75841349681148107 0.75422312624214749 0 0.72501250972655151 0.74067302935308721 0 0.69999999999999984 0.69999999999999996 0 0.72501250972655151 0.74067302935308721 0 0.6916490518212759 0.75387992374886192 0 0.74999999999934175 0 0 0.79999999999947335 0 0 0.78393852574753176 0.032039079577822822 0 0.74999999999999989 0.69999999999999996 0 0.79999999999999982 0.69999999999999996 0 0.78578450296893509 0.73292684821144505 0 0.6405463747586706 0.63290524857395714 0 0.5991018319127801 0.62925360607495295 0 0.63065402604362242 0.59661356661633302 0 0.65481233915350323 0.35652751921065562 0 0.68887083591306764 0.33632058575757479 0 0.68128176404677243 0.38629093627004979 0 0.89999999999999991 0.29999999999999999 0 0.94999999999999996 0.29999999999999999 0 0.92012390126144183 0.33123581297173937 0 0.89999999999999991 0.69999999999999996 0 0.92057473616084773 0.66770436535372446 0 0.94999999999999996 0.69999999999999996 0 0.4367309254023824 0.92065556789053882 0 0.39767323751400468 0.89584229130535065 0 0.44003836461056539 0.88093474584252718 0 0.2185883431182947 0.18019736283949719 0 0.18124454140915969 0.18790916706335251 0 0.18652628422869419 0.14162325200928061 0 0.20050006573841939 0.53248514016039872 0 0.19604738184454831 0.47787523520405789 0 0.23975172658309729 0.49475499200540818 0 0.65507451745379841 0.92229208810758578 0 0.61885627562261258 0.90282959257498208 0 0.66412543161245952 0.88015090885499059 0 0.65394964615507722 0.22666784374016369 0 0.67933712972090698 0.25920070958121938 0 0.62657463266645097 0.26524202571255862 0 0.077693244765132896 0.56932317963405099 0 0.034381862692950467 0.57372682250960894 0 0.044576108720083309 0.53509043209532614 0 0.39801143831225599 0.16651381068160659 0 0.38831533174504851 0.2189834941785925 0 0.3572130504031617 0.1874703368446563 0 0.6499999999999998 0.69999999999999996 0 0.69999999999999984 0.69999999999999996 0 0.66427993341343905 0.73232764502436276 0 0.1215415378367805 0.72939333680004137 0 0.15332765547575641 0.71200081858233666 0 0.14335651144331049 0.75565258250209677 0 0.6405463747586706 0.63290524857395714 0 0.63065402604362242 0.59661356661633302 0 0.67529834988829951 0.61613270668143583 0 0.67323294229744413 0.57556450033612505 0 0.67529834988829951 0.61613270668143583 0 0.63065402604362242 0.59661356661633302 0 0.91750694127107502 0.36982372220068471 0 0.87430060258887643 0.34056085888204451 0 0.92012390126144183 0.33123581297173937 0 0.89999999999999991 0.29999999999999999 0 0.92012390126144183 0.33123581297173937 0 0.87430060258887643 0.34056085888204451 0 0.89999999999999991 0.69999999999999996 0 0.87712158428786946 0.65709029563313581 0 0.92057473616084773 0.66770436535372446 0 0.91750694127105259 0.63017627779935648 0 0.92057473616084773 0.66770436535372446 0 0.87712158428786946 0.65709029563313581 0 0.33122374654748771 0.57588941099433744 0 0.29110487519241501 0.56588143995431495 0 0.33190227185843768 0.52715113583864037 0 0.57484956128872922 0.66573805030881994 0 0.5498280205245758 0.6290146943450976 0 0.5991018319127801 0.62925360607495295 0 0.57412547362576272 0.58273804879550706 0 0.5991018319127801 0.62925360607495295 0 0.5498280205245758 0.6290146943450976 0 0.65408113592120842 0.073941773121567966 0 0.66369801598854572 0.036327466368102787 0 0.7010294155333181 0.056779085686491267 0 0.27474541102162192 0.11822029332053539 0 0.32215584939770009 0.1218492143506909 0 0.29336099386129338 0.15892013001050981 0 0.33084213324567391 0.16272720141332131 0 0.29336099386129338 0.15892013001050981 0 0.32215584939770009 0.1218492143506909 0 0.5 0.29999999999999999 0 0.54999999999999993 0.29999999999999999 0 0.52752007115234678 0.33170632466418198 0 0.83573492347052902 0.36590755630746369 0 0.87430060258887643 0.34056085888204451 0 0.86844634540301924 0.38530937474099819 0 0.83758014339878906 0.63222013025741819 0 0.87159648282691515 0.61285406320581504 0 0.87712158428786946 0.65709029563313581 0 0.22278230690790279 0.44824268025881547 0 0.23975172658309729 0.49475499200540818 0 0.19604738184454831 0.47787523520405789 0 1 0.49999999999950101 0 0.95631871884947484 0.51827533208233789 0 0.96228564064454991 0.48206450662049471 0 0.1650278706801647 0.38791388161335733 0 0.13773355295499351 0.42497777642586831 0 0.1117088112799664 0.38831403004970022 0 0.61209567303293111 0.44669033081290321 0 0.57975577671020095 0.46172033326338591 0 0.57744073070774993 0.41535148636609359 0 0.077693244765132896 0.56932317963405099 0 0.1154888278694548 0.56733818459978413 0 0.1024350934457823 0.60772393977513839 0 0.68697391633157634 0.84450604838764298 0 0.65005442820240822 0.82644988530054031 0 0.68024162096458085 0.79868546898116533 0 0.76901770135486491 0.84293557325473656 0 0.77094201086366854 0.79647480515688507 0 0.80041942726660109 0.81543261647703358 0 0.77144070960558853 0.14311854477243749 0 0.76878382444651716 0.097147941686331368 0 0.80076557130237269 0.1154587552654202 0 0.5 0.69999999999999996 0 0.52584555706968406 0.66664215091846768 0 0.54999999999999993 0.69999999999999996 0 0.077693244765132896 0.56932317963405099 0 0.044576108720083309 0.53509043209532614 0 0.085622222639554768 0.53333248912060549 0 0.69999999999921003 0 0 0.72683645290270404 0.027797073151180601 0 0.7010294155333181 0.056779085686491267 0 1 0 0 0.97166519676946894 0.033371144900598393 0 0.94999999999986839 0 0 1 0.69999999999999996 0 0.97166519676947294 0.73337114490064459 0 0.94999999999999996 0.69999999999999996 0 1 0.69999999999999996 0 1 0.74999999999993494 0 0.97166519676947294 0.73337114490064459 0 1 0.29999999999999999 0 0.97166519676951801 0.26662885509932011 0 1 0.24999999999987299 0 1 1 0 0.94999999999979179 1 0 0.97166519676946206 0.96662885509935492 0 1 0 0 1 0.049999999999896842 0 0.97166519676946894 0.033371144900598393 0 1 0.29999999999999999 0 0.94999999999999996 0.29999999999999999 0 0.97166519676951801 0.26662885509932011 0 1 1 0 0.97166519676946206 0.96662885509935492 0 1 0.94999999999997109 0 0 0.55000000000173355 0 0.044576108720083309 0.53509043209532614 0 0.034381862692950467 0.57372682250960894 0 0.6879972333610942 0.43038561374960838 0 0.69385896817107129 0.48377516041410151 0 0.65178832218679827 0.45929119821019959 0 0.33084213324567391 0.16272720141332131 0 0.36246644853392812 0.1399454205365751 0 0.3572130504031617 0.1874703368446563 0 0.65408113592120842 0.073941773121567966 0 0.68330259535470161 0.10038702501083881 0 0.65290632656860115 0.11434202593454081 0 0.16500388252850301 0.66612077714085194 0 0.19068556247388771 0.71028988922845504 0 0.15332765547575641 0.71200081858233666 0 0.82709327591091286 0.84937141670920724 0 0.85600844944837662 0.88483418979512773 0 0.81159157511211755 0.88795995483179491 0 0.82709327591102189 0.14937141670914489 0 0.85600844944842547 0.1848341897950983 0 0.81283102246527783 0.1881007222486438 0 0.79999999999999982 0.29999999999999999 0 0.84999999999999987 0.29999999999999999 0 0.82500000000000062 0.33010209762754811 0 0.79999999999999982 0.69999999999999996 0 0.82457059160610424 0.66831947184359608 0 0.84999999999999987 0.69999999999999996 0 0.59999999999999976 0.69999999999999996 0 0.62460753523532009 0.66851202781000296 0 0.6499999999999998 0.69999999999999996 0 0.39801143831225599 0.16651381068160659 0 0.3572130504031617 0.1874703368446563 0 0.36246644853392812 0.1399454205365751 0 0.69999999999999984 0.29999999999999999 0 0.74999999999999989 0.29999999999999999 0 0.73090396928863699 0.33699297293167962 0 0.69999999999999984 0.69999999999999996 0 0.72500000000000064 0.67022701834392062 0 0.74999999999999989 0.69999999999999996 0 0.6236733212988993 0.14864538214901801 0 0.64011864159029941 0.18789607982138171 0 0.59443395090188023 0.18455690917515069 0 0.20050006573841939 0.53248514016039872 0 0.16618607197337229 0.50652878253548905 0 0.19604738184454831 0.47787523520405789 0 0.79680861578956375 0.22656778056752541 0 0.76587607630038135 0.18880039518954719 0 0.81283102246527783 0.1881007222486438 0 0.79680861578988083 0.92656778056766709 0 0.76891166905518427 0.88835469571185499 0 0.81159157511211755 0.88795995483179491 0 0.71406021706547751 0.63292083137662503 0 0.675261390228442 0.65996937624687813 0 0.67529834988829951 0.61613270668143583 0 0.6405463747586706 0.63290524857395714 0 0.67529834988829951 0.61613270668143583 0 0.675261390228442 0.65996937624687813 0 0.19670163708476801 0.31472518408333222 0 0.168349569971391 0.28054490850913671 0 0.21049769590865089 0.26857363548218488 0 0.47357141910802508 0.1873585799078378 0 0.46429753744194407 0.22870891180733599 0 0.42905200079338551 0.19982395548231649 0 0.59814117807200873 0.23398510860739519 0 0.5794309697024993 0.27124795968204829 0 0.54248833945060504 0.2520322959927106 0 0.6541250972820879 0.49999999999999989 0 0.65178832218679827 0.45929119821019959 0 0.69385896817107129 0.48377516041410151 0 0.54999999999999993 0.29999999999999999 0 0.5794309697024993 0.27124795968204829 0 0.59999999999999976 0.29999999999999999 0 0.7750489929959945 0.66593931409600093 0 0.74994237037456724 0.62775548192980357 0 0.79884539758237771 0.62875045078114233 0 0.77293540622714185 0.59448302402785813 0 0.79884539758237771 0.62875045078114233 0 0.74994237037456724 0.62775548192980357 0 0.14332333627550789 0.14578431753966009 0 0.16141998738593399 0.10404039647458049 0 0.18652628422869419 0.14162325200928061 0 0.38083244760691543 0.38531983672244652 0 0.42161023666869668 0.39493916313643851 0 0.38707855792647411 0.42299362914874578 0 0.43249999999999988 0.43937499999999979 0 0.38707855792647411 0.42299362914874578 0 0.42161023666869668 0.39493916313643851 0 0.43846182030517877 0.64845797726506715 0 0.47095389620662098 0.61892551373708504 0 0.47913475093885149 0.66010775372412711 0 0.50715858906372158 0.63295939104129484 0 0.47913475093885149 0.66010775372412711 0 0.47095389620662098 0.61892551373708504 0 0.69999999999999984 0.69999999999999996 0 0.74999999999999989 0.69999999999999996 0 0.72501250972655151 0.74067302935308721 0 0.4089290844030305 0.58728915500154233 0 0.35765792684946668 0.6000687869219653 0 0.37272913873093971 0.56192925302619479 0 0.69999999999921003 0 0 0.74999999999934175 0 0 0.72683645290270404 0.027797073151180601 0 0.17933913398461551 0.2350063570234002 0 0.21049769590865089 0.26857363548218488 0 0.168349569971391 0.28054490850913671 0 0.14474682429600511 0.85524784522713515 0 0.10562472963403439 0.87143394428979881 0 0.1074251789111534 0.83564394292147814 0 0.14332333627550789 0.14578431753966009 0 0.106902708054812 0.16453234188234539 0 0.1053400320299198 0.12877248826361379 0 0.2236846579037573 0.67380363126050236 0 0.19914261668318661 0.62286739485272158 0 0.2459498854893499 0.63248470766216769 0 0.049999999999899652 0 0 0.053064897599215843 0.048131547304697528 0 0.02576622439977887 0.024532886826226379 0 0 0.050000000000207989 0 0.02576622439977887 0.024532886826226379 0 0.053064897599215843 0.048131547304697528 0 0.050000000000207989 1 0 0.025766224399875661 0.97546711317377799 0 0.053064897599294662 0.95186845269532028 0 0 0.94999999999979179 0 0.053064897599294662 0.95186845269532028 0 0.025766224399875661 0.97546711317377799 0 0.47357141910802508 0.1873585799078378 0 0.48466639505193998 0.1421439844745814 0 0.51729576145820033 0.1683240575987815 0 0.077693244765132896 0.56932317963405099 0 0.085622222639554768 0.53333248912060549 0 0.1154888278694548 0.56733818459978413 0 0.64753070846764316 0.77332939069435502 0 0.63221990677827677 0.73442891067859706 0 0.66427993341343905 0.73232764502436276 0 0.4656888918609538 0.78493261229743638 0 0.42609163930740518 0.80361684430568059 0 0.42676259796334498 0.76772545931379299 0 0.4089290844030305 0.58728915500154233 0 0.39743091024207589 0.6239520004230239 0 0.35765792684946668 0.6000687869219653 0 0.55306006949600994 0.20198184231352201 0 0.50760557329222289 0.20700468884612061 0 0.51729576145820033 0.1683240575987815 0 1 0.8999999999998336 0 1 0.94999999999997109 0 0.97435614836744289 0.92499999999990257 0 1 0.19999999999974799 0 1 0.24999999999987299 0 0.97435614836740092 0.22499999999981049 0 1 0.74999999999993494 0 1 0.7999999999998193 0 0.97435614836745565 0.77499999999987745 0 1 0.049999999999896842 0 1 0.099999999999753911 0 0.97435614836748241 0.074999999999825387 0 0.86411095495256451 0.42388805655111889 0 0.86844634540301924 0.38530937474099819 0 0.90594285160987287 0.4141265964174129 0 0.86956835336234861 0.571283299838105 0 0.91143117093204207 0.58709913730335972 0 0.87159648282691515 0.61285406320581504 0 0 0 0 0.02576622439977887 0.024532886826226379 0 0 0.050000000000207989 0 0 1 0 0 0.94999999999979179 0 0.025766224399875661 0.97546711317377799 0 0 1 0 0.025766224399875661 0.97546711317377799 0 0.050000000000207989 1 0 0 0 0 0.049999999999899652 0 0 0.02576622439977887 0.024532886826226379 0 0.65394964615507722 0.22666784374016369 0 0.64011864159029941 0.18789607982138171 0 0.6865991819015953 0.189116534044597 0 0.25195515620380449 0.25883339815888678 0 0.28040350263641872 0.23054717217092141 0 0.29132859388405002 0.27203693976649962 0 0.61209567303293111 0.44669033081290321 0 0.65178832218679827 0.45929119821019959 0 0.61547661924074692 0.48539576058873962 0 0.6541250972820879 0.49999999999999989 0 0.61547661924074692 0.48539576058873962 0 0.65178832218679827 0.45929119821019959 0 0.19670163708476801 0.31472518408333222 0 0.24432083401701241 0.3006253385567515 0 0.22615676742807109 0.33458786033114157 0 0.15801167086041079 0.46008690540259539 0 0.13773355295499351 0.42497777642586831 0 0.191953871957803 0.42546416763755879 0 0.1650278706801647 0.38791388161335733 0 0.191953871957803 0.42546416763755879 0 0.13773355295499351 0.42497777642586831 0 0.50715858906372158 0.63295939104129484 0 0.52584555706968406 0.66664215091846768 0 0.47913475093885149 0.66010775372412711 0 0.5 0.69999999999999996 0 0.47913475093885149 0.66010775372412711 0 0.52584555706968406 0.66664215091846768 0 0.51076801031701946 0.1202837388510348 0 0.51729576145820033 0.1683240575987815 0 0.48466639505193998 0.1421439844745814 0 0.71406021706547751 0.63292083137662503 0 0.74994237037456724 0.62775548192980357 0 0.72500000000000064 0.67022701834392062 0 0.71508799138962864 0.36622814920737751 0 0.73090396928863699 0.33699297293167962 0 0.74764719760526988 0.3719647154012321 0 0.22278230690790279 0.44824268025881547 0 0.25982634974572738 0.46097799597715272 0 0.23975172658309729 0.49475499200540818 0 0.80185942888539485 0.77452061303608133 0 0.78578450296893509 0.73292684821144505 0 0.81864958914779962 0.73589050177899629 0 0.80185942888501827 0.074520613036224564 0 0.78393852574753176 0.032039079577822822 0 0.81864958914740749 0.035890501779055867 0 0.5 0.29999999999999999 0 0.46226845272279993 0.31901800744800313 0 0.4604742573284204 0.27846934318264788 0 0.6405463747586706 0.63290524857395714 0 0.62460753523532009 0.66851202781000296 0 0.5991018319127801 0.62925360607495295 0 0.79680861578988083 0.92656778056766709 0 0.770759834363826 0.95919399014344442 0 0.75729602384198635 0.92353652857884294 0 0.79680861578956375 0.22656778056752541 0 0.77075983436335049 0.25919399014334171 0 0.75668890529066124 0.2244279804069782 0 0.65394964615507722 0.22666784374016369 0 0.69397719155551807 0.2245125647000914 0 0.67933712972090698 0.25920070958121938 0 0.81973119833356312 0.43505687159469048 0 0.84925632466077294 0.45359738909549091 0 0.81400510706333218 0.47357325943904899 0 0.83758014339878906 0.63222013025741819 0 0.82457059160610424 0.66831947184359608 0 0.79884539758237771 0.62875045078114233 0 0.25676291524611189 0.7436741304886243 0 0.2248999640082178 0.72584299459689172 0 0.26439878998046262 0.7048065392091396 0 0.91696753777131557 0.497780560203536 0 0.90900154012161016 0.53607784105648792 0 0.86907294890112186 0.52008116128001669 0 0.17933913398461551 0.2350063570234002 0 0.168349569971391 0.28054490850913671 0 0.14377654328998779 0.2442024734791064 0 0.1247745017231483 0.27198077544791172 0 0.14377654328998779 0.2442024734791064 0 0.168349569971391 0.28054490850913671 0 0.34258405725730701 0.4444034294386992 0 0.35221190152536241 0.40457127605439203 0 0.38707855792647411 0.42299362914874578 0 0.47357141910802508 0.1873585799078378 0 0.51729576145820033 0.1683240575987815 0 0.50760557329222289 0.20700468884612061 0 0.19670163708476801 0.31472518408333222 0 0.22615676742807109 0.33458786033114157 0 0.18434624290945251 0.35208838264196463 0 0.22033343844674469 0.36963382230740238 0 0.18434624290945251 0.35208838264196463 0 0.22615676742807109 0.33458786033114157 0 0.24432083401701241 0.3006253385567515 0 0.25966125648670141 0.34351016742083729 0 0.22615676742807109 0.33458786033114157 0 0.93814194660195893 0.44426664081746747 0 0.90594285160987287 0.4141265964174129 0 0.95871855522754235 0.40006508612975411 0 0.91750694127107502 0.36982372220068471 0 0.95871855522754235 0.40006508612975411 0 0.90594285160987287 0.4141265964174129 0 0.91750694127105259 0.63017627779935648 0 0.91143117093204207 0.58709913730335972 0 0.95867599106212187 0.60011091146651041 0 0.93732437411268477 0.55911392101136159 0 0.95867599106212187 0.60011091146651041 0 0.91143117093204207 0.58709913730335972 0 0.50715858906372158 0.63295939104129484 0 0.5498280205245758 0.6290146943450976 0 0.52584555706968406 0.66664215091846768 0 0.94399509803918602 0.75600490196082126 0 0.97435614836745565 0.77499999999987745 0 0.95386563387742829 0.80414874155775029 0 0.94399509803922566 0.056004901960802607 0 0.97435614836748241 0.074999999999825387 0 0.95386563387744361 0.1041487415577465 0 0.94399509803921056 0.24399509803922639 0 0.95391631417672862 0.19584263333809451 0 0.97435614836740092 0.22499999999981049 0 0.94399509803919068 0.9439950980391687 0 0.95391631417670719 0.89584263333814784 0 0.97435614836744289 0.92499999999990257 0 0.79680861578988083 0.92656778056766709 0 0.75729602384198635 0.92353652857884294 0 0.76891166905518427 0.88835469571185499 0 0.79680861578956375 0.22656778056752541 0 0.75668890529066124 0.2244279804069782 0 0.76587607630038135 0.18880039518954719 0 0.65394964615507722 0.22666784374016369 0 0.6865991819015953 0.189116534044597 0 0.69397719155551807 0.2245125647000914 0 0.38083244760691543 0.38531983672244652 0 0.38707855792647411 0.42299362914874578 0 0.35221190152536241 0.40457127605439203 0 1 0.7999999999998193 0 0.95386563387742829 0.80414874155775029 0 0.97435614836745565 0.77499999999987745 0 1 0.099999999999753911 0 0.95386563387744361 0.1041487415577465 0 0.97435614836748241 0.074999999999825387 0 1 0.8999999999998336 0 0.97435614836744289 0.92499999999990257 0 0.95391631417670719 0.89584263333814784 0 1 0.19999999999974799 0 0.97435614836740092 0.22499999999981049 0 0.95391631417672862 0.19584263333809451 0 0.84723782639812573 0.48638347960178252 0 0.81400510706333218 0.47357325943904899 0 0.84925632466077294 0.45359738909549091 0 0.54999999999999993 0.29999999999999999 0 0.54248833945060504 0.2520322959927106 0 0.5794309697024993 0.27124795968204829 0 0.94999999999999996 0.29999999999999999 0 0.95780851984364423 0.34215720972155339 0 0.92012390126144183 0.33123581297173937 0 0.94999999999999996 0.69999999999999996 0 0.92057473616084773 0.66770436535372446 0 0.9578014258160763 0.65787212321113708 0 0.15801167086041079 0.46008690540259539 0 0.113541300460994 0.46208784312094731 0 0.13773355295499351 0.42497777642586831 0 0.7250000000005199 0.94981617647078953 0 0.68015064798562208 0.95924320340003011 0 0.68987011941058407 0.92105047536677087 0 0.65507451745379841 0.92229208810758578 0 0.68987011941058407 0.92105047536677087 0 0.68015064798562208 0.95924320340003011 0 0.77846603114747959 0.49850927265137401 0 0.77972660463949339 0.45529290596363098 0 0.81400510706333218 0.47357325943904899 0 0.27866744612395528 0.38416094670951489 0 0.25966125648670141 0.34351016742083729 0 0.29644548887253103 0.34914008784168082 0 0.61209567303293111 0.44669033081290321 0 0.61547661924074692 0.48539576058873962 0 0.57975577671020095 0.46172033326338591 0 0.57611405284611883 0.50165903596042916 0 0.57975577671020095 0.46172033326338591 0 0.61547661924074692 0.48539576058873962 0 0.7250000000005199 0.89375000000045834 0 0.76891166905518427 0.88835469571185499 0 0.75729602384198635 0.92353652857884294 0 0.72500000000001008 0.19776155966387679 0 0.76587607630038135 0.18880039518954719 0 0.75668890529066124 0.2244279804069782 0 0.72500000000001008 0.19776155966387679 0 0.69397719155551807 0.2245125647000914 0 0.6865991819015953 0.189116534044597 0 0.083411279318303222 0.089699755330707398 0 0.12372429750337779 0.095814237875728972 0 0.1053400320299198 0.12877248826361379 0 0.083411279318375747 0.91030024466934134 0 0.10562472963403439 0.87143394428979881 0 0.1241151115713819 0.9045666525468371 0 0.14617343800780541 0.93808063414349496 0 0.1241151115713819 0.9045666525468371 0 0.16206583317966519 0.89685560785156404 0 0.14618258501891079 0.062070108745602003 0 0.16141998738593399 0.10404039647458049 0 0.12372429750337779 0.095814237875728972 0 0.33277555741076909 0.36432196682010132 0 0.35221190152536241 0.40457127605439203 0 0.31778888742534622 0.40581751814196781 0 0.7250000000005199 0.94981617647078953 0 0.75729602384198635 0.92353652857884294 0 0.770759834363826 0.95919399014344442 0 0.72500000000000064 0.2498161764706 0 0.75668890529066124 0.2244279804069782 0 0.77075983436335049 0.25919399014334171 0 0.72500000000000064 0.2498161764706 0 0.67933712972090698 0.25920070958121938 0 0.69397719155551807 0.2245125647000914 0 0.6236733212988993 0.14864538214901801 0 0.61956000905586006 0.1043312481793135 0 0.65290632656860115 0.11434202593454081 0 0.81973119833356312 0.43505687159469048 0 0.81400510706333218 0.47357325943904899 0 0.77972660463949339 0.45529290596363098 0 0.25676291524611189 0.7436741304886243 0 0.29904318922293632 0.74132814928635593 0 0.2792923945214143 0.77665808831789485 0 0.36575549820117997 0.31677992835137742 0 0.32752639306529541 0.32610012995269699 0 0.33402499257867951 0.28911035184473982 0 0.14332333627550789 0.14578431753966009 0 0.18652628422869419 0.14162325200928061 0 0.18124454140915969 0.18790916706335251 0 0.57724883562309992 0.92155686857100794 0 0.5832743223239254 0.88483152652961872 0 0.61885627562261258 0.90282959257498208 0 0.57667858002728545 0.078486105337742612 0 0.61956000905586006 0.1043312481793135 0 0.58516465772821369 0.11653801664834119 0 0.80185942888539485 0.77452061303608133 0 0.80041942726660109 0.81543261647703358 0 0.77094201086366854 0.79647480515688507 0 0.80185942888501827 0.074520613036224564 0 0.80076557130237269 0.1154587552654202 0 0.76878382444651716 0.097147941686331368 0 0.64753070846764316 0.77332939069435502 0 0.68024162096458085 0.79868546898116533 0 0.65005442820240822 0.82644988530054031 0 0.26429849586623999 0.19346700179430079 0 0.25557216766470708 0.15874861286892261 0 0.29336099386129338 0.15892013001050981 0 0.29348325746214782 0.31350119524708198 0 0.29644548887253103 0.34914008784168082 0 0.25966125648670141 0.34351016742083729 0 0.68391457121233579 0.14440470121196541 0 0.65290632656860115 0.11434202593454081 0 0.68330259535470161 0.10038702501083881 0 0.91750694127107502 0.36982372220068471 0 0.92012390126144183 0.33123581297173937 0 0.95780851984364423 0.34215720972155339 0 0.91750694127105259 0.63017627779935648 0 0.9578014258160763 0.65787212321113708 0 0.92057473616084773 0.66770436535372446 0 0.22033343844674469 0.36963382230740238 0 0.22615676742807109 0.33458786033114157 0 0.25966125648670141 0.34351016742083729 0 1 0.94999999999997109 0 0.97166519676946206 0.96662885509935492 0 0.97435614836744289 0.92499999999990257 0 0.94399509803919068 0.9439950980391687 0 0.97435614836744289 0.92499999999990257 0 0.97166519676946206 0.96662885509935492 0 0.94399509803921056 0.24399509803922639 0 0.97435614836740092 0.22499999999981049 0 0.97166519676951801 0.26662885509932011 0 1 0.24999999999987299 0 0.97166519676951801 0.26662885509932011 0 0.97435614836740092 0.22499999999981049 0 1 0.74999999999993494 0 0.97435614836745565 0.77499999999987745 0 0.97166519676947294 0.73337114490064459 0 1 0.049999999999896842 0 0.97435614836748241 0.074999999999825387 0 0.97166519676946894 0.033371144900598393 0 0.94399509803918602 0.75600490196082126 0 0.97166519676947294 0.73337114490064459 0 0.97435614836745565 0.77499999999987745 0 0.94399509803922566 0.056004901960802607 0 0.97166519676946894 0.033371144900598393 0 0.97435614836748241 0.074999999999825387 0 0.77846603114747959 0.49850927265137401 0 0.81400510706333218 0.47357325943904899 0 0.81441713509985358 0.51161854125224959 0 0.77354604466818633 0.40378688774472771 0 0.72622533758026719 0.40265885511101601 0 0.74764719760526988 0.3719647154012321 0 0.71508799138962864 0.36622814920737751 0 0.74764719760526988 0.3719647154012321 0 0.72622533758026719 0.40265885511101601 0 0.84723782639812573 0.48638347960178252 0 0.84925632466077294 0.45359738909549091 0 0.88594198078881503 0.46167788676578442 0 0.86411095495256451 0.42388805655111889 0 0.88594198078881503 0.46167788676578442 0 0.84925632466077294 0.45359738909549091 0 0.43846182030517877 0.64845797726506715 0 0.43545892161006339 0.61093128915313821 0 0.47095389620662098 0.61892551373708504 0 0.33123028043633618 0.77629643437932982 0 0.35642984951668422 0.80994399665655703 0 0.30857225866488791 0.81101973481716805 0 0.33403534827021109 0.84402799729020661 0 0.30857225866488791 0.81101973481716805 0 0.35642984951668422 0.80994399665655703 0 0.26429849586623999 0.19346700179430079 0 0.31255190597181792 0.19850845631528771 0 0.28040350263641872 0.23054717217092141 0 0.57724883562309992 0.92155686857100794 0 0.54783390826260769 0.89287767010860219 0 0.5832743223239254 0.88483152652961872 0 0.55899371797446828 0.85003102233514438 0 0.5832743223239254 0.88483152652961872 0 0.54783390826260769 0.89287767010860219 0 0.4089290844030305 0.58728915500154233 0 0.43545892161006339 0.61093128915313821 0 0.39743091024207589 0.6239520004230239 0 0.77293540622714185 0.59448302402785813 0 0.81723410853263523 0.59419663659258926 0 0.79884539758237771 0.62875045078114233 0 0.83758014339878906 0.63222013025741819 0 0.79884539758237771 0.62875045078114233 0 0.81723410853263523 0.59419663659258926 0 0.35864735590330371 0.63903383440414463 0 0.39743091024207589 0.6239520004230239 0 0.3977710372045391 0.65868194622830212 0 0.56202748619534593 0.15054058349222879 0 0.54979595918804436 0.1060565713905809 0 0.58516465772821369 0.11653801664834119 0 0.57667858002728545 0.078486105337742612 0 0.58516465772821369 0.11653801664834119 0 0.54979595918804436 0.1060565713905809 0 0.33122374654748771 0.57588941099433744 0 0.37272913873093971 0.56192925302619479 0 0.35765792684946668 0.6000687869219653 0 0.35864735590330371 0.63903383440414463 0 0.35765792684946668 0.6000687869219653 0 0.39743091024207589 0.6239520004230239 0 0.71508799138962864 0.36622814920737751 0 0.68887083591306764 0.33632058575757479 0 0.73090396928863699 0.33699297293167962 0 0.29348325746214782 0.31350119524708198 0 0.32752639306529541 0.32610012995269699 0 0.29644548887253103 0.34914008784168082 0 0.33277555741076909 0.36432196682010132 0 0.29644548887253103 0.34914008784168082 0 0.32752639306529541 0.32610012995269699 0 0.34258405725730701 0.4444034294386992 0 0.31778888742534622 0.40581751814196781 0 0.35221190152536241 0.40457127605439203 0 0.79999999999999982 0.69999999999999996 0 0.81864958914779962 0.73589050177899629 0 0.78578450296893509 0.73292684821144505 0 0.79999999999947335 0 0 0.81864958914740749 0.035890501779055867 0 0.78393852574753176 0.032039079577822822 0 0.27474541102162192 0.11822029332053539 0 0.29336099386129338 0.15892013001050981 0 0.25557216766470708 0.15874861286892261 0 0 0.45000000000187229 0 0.035463093262830522 0.42673416072819947 0 0.033550201249889847 0.46247875832467239 0 0.6499999999999998 0.69999999999999996 0 0.66427993341343905 0.73232764502436276 0 0.63221990677827677 0.73442891067859706 0 0.84723782639812573 0.48638347960178252 0 0.81441713509985358 0.51161854125224959 0 0.81400510706333218 0.47357325943904899 0 0.26104540868854792 0.81401944968719064 0 0.30857225866488791 0.81101973481716805 0 0.29209212897034281 0.84715728365233667 0 0.33403534827021109 0.84402799729020661 0 0.29209212897034281 0.84715728365233667 0 0.30857225866488791 0.81101973481716805 0 0.69999999999999984 0.29999999999999999 0 0.73090396928863699 0.33699297293167962 0 0.68887083591306764 0.33632058575757479 0 
</DataArray>
</Points>
<Cells>
<DataArray type="UInt32" Name="connectivity" format="ascii">
0 1 2 3 4 5 6 7 8 9 10 11 12 13 14 15 16 17 18 19 20 21 22 23 24 25 26 27 28 29 30 31 32 33 34 35 36 37 38 39 40 41 42 43 44 45 46 47 48 49 50 51 52 53 54 55 56 57 58 59 60 61 62 63 64 65 66 67 68 69 70 71 72 73 74 75 76 77 78 79 80 81 82 83 84 85 86 87 88 89 90 91 92 93 94 95 96 97 98 99 100 101 102 103 104 105 106 107 108 109 110 111 112 113 114 115 116 117 118 119 120 121 122 123 124 125 126 127 128 129 130 131 132 133 134 135 136 137 138 139 140 141 142 143 144 145 146 147 148 149 150 151 152 153 154 155 156 157 158 159 160 161 162 163 164 165 166 167 168 169 170 171 172 173 174 175 176 177 178 179 180 181 182 183 184 185 186 187 188 189 190 191 192 193 194 195 196 197 198 199 200 201 202 203 204 205 206 207 208 209 210 211 212 213 214 215 216 217 218 219 220 221 222 223 224 225 226 227 228 229 230 231 232 233 234 235 236 237 238 239 240 241 242 243 244 245 246 247 248 249 250 251 252 253 254 255 256 257 258 259 260 261 262 263 264 265 266 267 268 269 270 271 272 273 274 275 276 277 278 279 280 281 282 283 284 285 286 287 288 289 290 291 292 293 294 295 296 297 298 299 300 301 302 303 304 305 306 307 308 309 310 311 312 313 314 315 316 317 318 319 320 321 322 323 324 325 326 327 328 329 330 331 332 333 334 335 336 337 338 339 340 341 342 343 344 345 346 347 348 349 350 351 352 353 354 355 356 357 358 359 360 361 362 363 364 365 366 367 368 369 370 371 372 373 374 375 376 377 378 379 380 381 382 383 384 385 386 387 388 389 390 391 392 393 394 395 396 397 398 399 400 401 402 403 404 405 406 407 408 409 410 411 412 413 414 415 416 417 418 419 420 421 422 423 424 425 426 427 428 429 430 431 432 433 434 435 436 437 438 439 440 441 442 443 444 445 446 447 448 449 450 451 452 453 454 455 456 457 458 459 460 461 462 463 464 465 466 467 468 469 470 471 472 473 474 475 476 477 478 479 480 481 482 483 484 485 486 487 488 489 490 491 492 493 494 495 496 497 498 499 500 501 502 503 504 505 506 507 508 509 510 511 512 513 514 515 516 517 518 519 520 521 522 523 524 525 526 527 528 529 530 531 532 533 534 535 536 537 538 539 540 541 542 543 544 545 546 547 548 549 550 551 552 553 554 555 556 557 558 559 560 561 562 563 564 565 566 567 568 569 570 571 572 573 574 575 576 577 578 579 580 581 582 583 584 585 586 587 588 589 590 591 592 593 594 595 596 597 598 599 600 601 602 603 604 605 606 607 608 609 610 611 612 613 614 615 616 617 618 619 620 621 622 623 624 625 626 627 628 629 630 631 632 633 634 635 636 637 638 639 640 641 642 643 644 645 646 647 648 649 650 651 652 653 654 655 656 657 658 659 660 661 662 663 664 665 666 667 668 669 670 671 672 673 674 675 676 677 678 679 680 681 682 683 684 685 686 687 688 689 690 691 692 693 694 695 696 697 698 699 700 701 702 703 704 705 706 707 708 709 710 711 712 713 714 715 716 717 718 719 720 721 722 723 724 725 726 727 728 729 730 731 732 733 734 735 736 737 738 739 740 741 742 743 744 745 746 747 748 749 750 751 752 753 754 755 756 757 758 759 760 761 762 763 764 765 766 767 768 769 770 771 772 773 774 775 776 777 778 779 780 781 782 783 784 785 786 787 788 789 790 791 792 793 794 795 796 797 798 799 800 801 802 803 804 805 806 807 808 809 810 811 812 813 814 815 816 817 818 819 820 821 822 823 824 825 826 827 828 829 830 831 832 833 834 835 836 837 838 839 840 841 842 843 844 845 846 847 848 849 850 851 852 853 854 855 856 857 858 859 860 861 862 863 864 865 866 867 868 869 870 871 872 873 874 875 876 877 878 879 880 881 882 883 884 885 886 887 888 889 890 891 892 893 894 895 896 897 898 899 900 901 902 903 904 905 906 907 908 909 910 911 912 913 914 915 916 917 918 919 920 921 922 923 924 925 926 927 928 929 930 931 932 933 934 935 936 937 938 939 940 941 942 943 944 945 946 947 948 949 950 951 952 953 954 955 956 957 958 959 960 961 962 963 964 965 966 967 968 969 970 971 972 973 974 975 976 977 978 979 980 981 982 983 984 985 986 987 988 989 990 991 992 993 994 995 996 997 998 999 1000 1001 1002 1003 1004 1005 1006 1007 1008 1009 1010 1011 1012 1013 1014 1015 1016 1017 1018 1019 1020 1021 1022 1023 1024 1025 1026 1027 1028 1029 1030 1031 1032 1033 1034 1035 1036 1037 1038 1039 1040 1041 1042 1043 1044 1045 1046 1047 1048 1049 1050 1051 1052 1053 1054 1055 1056 1057 1058 1059 1060 1061 1062 1063 1064 1065 1066 1067 1068 1069 1070 1071 1072 1073 1074 1075 1076 1077 1078 1079 1080 1081 1082 1083 1084 1085 1086 1087 1088 1089 1090 1091 1092 1093 1094 1095 1096 1097 1098 1099 1100 1101 1102 1103 1104 1105 1106 1107 1108 1109 1110 1111 1112 1113 1114 1115 1116 1117 1118 1119 1120 1121 1122 1123 1124 1125 1126 1127 1128 1129 1130 1131 1132 1133 1134 1135 1136 1137 1138 1139 1140 1141 1142 1143 1144 1145 1146 1147 1148 1149 1150 1151 1152 1153 1154 1155 1156 1157 1158 1159 1160 1161 1162 1163 1164 1165 1166 1167 1168 1169 1170 1171 1172 1173 1174 1175 1176 1177 1178 1179 1180 1181 1182 1183 1184 1185 1186 1187 1188 1189 1190 1191 1192 1193 1194 1195 1196 1197 1198 1199 1200 1201 1202 1203 1204 1205 1206 1207 1208 1209 1210 1211 1212 1213 1214 1215 1216 1217 1218 1219 1220 1221 1222 1223 1224 1225 1226 1227 1228 1229 1230 1231 1232 1233 1234 1235 1236 1237 1238 1239 1240 1241 1242 1243 1244 1245 1246 1247 1248 1249 1250 1251 1252 1253 1254 1255 1256 1257 1258 1259 1260 1261 1262 1263 1264 1265 1266 1267 1268 1269 1270 1271 1272 1273 1274 1275 1276 1277 1278 1279 1280 1281 1282 1283 1284 1285 1286 1287 1288 1289 1290 1291 1292 1293 1294 1295 1296 1297 1298 1299 1300 1301 1302 1303 1304 1305 1306 1307 1308 1309 1310 1311 1312 1313 1314 1315 1316 1317 1318 1319 1320 1321 1322 1323 1324 1325 1326 1327 1328 1329 1330 1331 1332 1333 1334 1335 1336 1337 1338 1339 1340 1341 1342 1343 1344 1345 1346 1347 1348 1349 1350 1351 1352 1353 1354 1355 1356 1357 1358 1359 1360 1361 1362 1363 1364 1365 1366 1367 1368 1369 1370 1371 1372 1373 1374 1375 1376 1377 1378 1379 1380 1381 1382 1383 1384 1385 1386 1387 1388 1389 1390 1391 1392 1393 1394 1395 1396 1397 1398 1399 1400 1401 1402 1403 1404 1405 1406 1407 1408 1409 1410 1411 1412 1413 1414 1415 1416 1417 1418 1419 1420 1421 1422 1423 1424 1425 1426 1427 1428 1429 1430 1431 1432 1433 1434 1435 1436 1437 1438 1439 1440 1441 1442 1443 1444 1445 1446 1447 1448 1449 1450 1451 1452 1453 1454 1455 1456 1457 1458 1459 1460 1461 1462 1463 1464 1465 1466 1467 1468 1469 1470 1471 1472 1473 1474 1475 1476 1477 1478 1479 1480 1481 1482 1483 1484 1485 1486 1487 1488 1489 1490 1491 1492 1493 1494 1495 1496 1497 1498 1499 1500 1501 1502 1503 1504 1505 1506 1507 1508 1509 1510 1511 1512 1513 1514 1515 1516 1517 1518 1519 1520 1521 1522 1523 1524 1525 1526 1527 1528 1529 1530 1531 1532 1533 1534 1535 1536 1537 1538 1539 1540 1541 1542 1543 1544 1545 1546 1547 1548 1549 1550 1551 1552 1553 1554 1555 1556 1557 1558 1559 1560 1561 1562 1563 1564 1565 1566 1567 1568 1569 1570 1571 1572 1573 1574 1575 1576 1577 1578 1579 1580 1581 1582 1583 1584 1585 1586 1587 1588 1589 1590 1591 1592 1593 1594 1595 1596 1597 1598 1599 1600 1601 1602 1603 1604 1605 1606 1607 1608 1609 1610 1611 1612 1613 1614 1615 1616 1617 1618 1619 1620 1621 1622 1623 1624 1625 1626 1627 1628 1629 1630 1631 1632 1633 1634 1635 1636 1637 1638 1639 1640 1641 1642 1643 1644 1645 1646 1647 1648 1649 1650 1651 1652 1653 1654 1655 1656 1657 1658 1659 1660 1661 1662 1663 1664 1665 1666 1667 1668 1669 1670 1671 1672 1673 1674 1675 1676 1677 1678 1679 1680 1681 1682 1683 1684 1685 1686 1687 1688 1689 1690 1691 1692 1693 1694 1695 1696 1697 1698 1699 1700 1701 1702 1703 1704 1705 1706 1707 1708 1709 1710 1711 1712 1713 1714 1715 1716 1717 1718 1719 1720 1721 1722 1723 1724 1725 1726 1727 1728 1729 1730 1731 1732 1733 1734 1735 1736 1737 1738 1739 1740 1741 1742 1743 1744 1745 1746 1747 1748 1749 1750 1751 1752 1753 1754 1755 1756 1757 1758 1759 1760 1761 1762 1763 1764 1765 1766 1767 1768 1769 1770 1771 1772 1773 1774 1775 1776 1777 1778 1779 1780 1781 1782 1783 1784 1785 1786 1787 1788 1789 1790 1791 1792 1793 1794 1795 1796 1797 1798 1799 1800 1801 1802 1803 1804 1805 1806 1807 1808 1809 1810 1811 1812 1813 1814 1815 1816 1817 1818 1819 1820 1821 1822 1823 1824 1825 1826 1827 1828 1829 1830 1831 1832 1833 1834 1835 1836 1837 1838 1839 1840 1841 1842 1843 1844 1845 1846 1847 1848 1849 1850 1851 1852 1853 1854 1855 1856 1857 1858 1859 1860 1861 1862 1863 1864 1865 1866 1867 1868 1869 1870 1871 1872 1873 1874 1875 1876 1877 1878 1879 1880 1881 1882 1883 1884 1885 1886 1887 1888 1889 1890 1891 1892 1893 1894 1895 1896 1897 1898 1899 1900 1901 1902 1903 1904 1905 1906 1907 1908 1909 1910 1911 1912 1913 1914 1915 1916 1917 1918 1919 1920 1921 1922 1923 1924 1925 1926 1927 1928 1929 1930 1931 1932 1933 1934 1935 1936 1937 1938 1939 1940 1941 1942 1943 1944 1945 1946 1947 1948 1949 1950 1951 1952 1953 1954 1955 1956 1957 1958 1959 1960 1961 1962 1963 1964 1965 1966 1967 1968 1969 1970 1971 1972 1973 1974 1975 1976 1977 1978 1979 1980 1981 1982 1983 1984 1985 1986 1987 1988 1989 1990 1991 1992 1993 1994 1995 1996 1997 1998 1999 2000 2001 2002 2003 2004 2005 2006 2007 2008 2009 2010 2011 2012 2013 2014 2015 2016 2017 2018 2019 2020 2021 2022 2023 2024 2025 2026 2027 2028 2029 2030 2031 2032 2033 2034 2035 2036 2037 2038 2039 2040 2041 2042 2043 2044 2045 2046 2047 2048 2049 2050 2051 2052 2053 2054 2055 2056 2057 2058 2059 2060 2061 2062 2063 2064 2065 2066 2067 2068 2069 2070 2071 2072 2073 2074 2075 2076 2077 2078 2079 2080 2081 2082 2083 2084 2085 2086 2087 2088 2089 2090 2091 2092 2093 2094 2095 2096 2097 2098 2099 2100 2101 2102 2103 2104 2105 2106 2107 2108 2109 2110 2111 2112 2113 2114 2115 2116 2117 2118 2119 2120 2121 2122 2123 2124 2125 2126 2127 2128 2129 2130 2131 2132 2133 2134 2135 2136 2137 2138 2139 2140 2141 2142 2143 2144 2145 2146 2147 2148 2149 2150 2151 2152 2153 2154 2155 2156 2157 2158 2159 2160 2161 2162 2163 2164 2165 2166 2167 2168 2169 2170 2171 2172 2173 2174 2175 2176 2177 2178 2179 2180 2181 2182 2183 2184 2185 2186 2187 2188 2189 2190 2191 2192 2193 2194 2195 2196 2197 2198 2199 2200 2201 2202 2203 2204 2205 2206 2207 2208 2209 2210 2211 2212 2213 2214 2215 2216 2217 2218 2219 2220 2221 2222 2223 2224 2225 2226 2227 2228 2229 2230 2231 2232 2233 2234 2235 2236 2237 2238 2239 2240 2241 2242 2243 2244 2245 2246 2247 2248 2249 2250 2251 2252 2253 2254 2255 2256 2257 2258 2259 2260 2261 2262 2263 2264 2265 2266 2267 2268 2269 2270 2271 2272 2273 2274 2275 2276 2277 2278 2279 2280 2281 2282 2283 2284 2285 2286 2287 2288 2289 2290 2291 2292 2293 2294 2295 2296 2297 2298 2299 2300 2301 2302 2303 2304 2305 2306 2307 2308 2309 2310 2311 2312 2313 2314 2315 2316 2317 2318 2319 2320 2321 2322 2323 2324 2325 2326 2327 2328 2329 2330 2331 2332 2333 2334 2335 2336 2337 2338 2339 2340 2341 2342 2343 2344 2345 2346 2347 2348 2349 2350 2351 2352 2353 2354 2355 2356 2357 2358 2359 2360 2361 2362 2363 2364 2365 2366 2367 2368 2369 2370 2371 2372 2373 2374 2375 2376 2377 2378 2379 2380 2381 2382 2383 2384 2385 2386 2387 2388 2389 2390 2391 2392 2393 2394 2395 2396 2397 2398 2399 2400 2401 2402 2403 2404 2405 2406 2407 2408 2409 2410 2411 2412 2413 2414 2415 2416 2417 2418 2419 2420 2421 2422 2423 2424 2425 2426 2427 2428 2429 2430 2431 2432 2433 2434 2435 2436 2437 2438 2439 2440 2441 2442 2443 2444 2445 2446 2447 2448 2449 2450 2451 2452 2453 2454 2455 2456 2457 2458 2459 2460 2461 2462 2463 2464 2465 2466 2467 2468 2469 2470 2471 2472 2473 2474 2475 2476 2477 2478 2479 2480 2481 2482 2483 2484 2485 2486 2487 2488 2489 2490 2491 2492 2493 2494 2495 2496 2497 2498 2499 2500 2501 2502 2503 2504 2505 2506 2507 2508 2509 2510 2511 2512 2513 2514 2515 2516 2517 2518 2519 2520 2521 2522 2523 2524 2525 2526 2527 2528 2529 2530 2531 2532 2533 2534 2535 2536 2537 2538 2539 2540 2541 2542 2543 2544 2545 2546 2547 2548 2549 2550 2551 2552 2553 2554 2555 2556 2557 2558 2559 2560 2561 2562 2563 2564 2565 2566 2567 2568 2569 2570 2571 2572 2573 2574 2575 2576 2577 2578 2579 2580 2581 2582 2583 2584 2585 2586 2587 2588 2589 2590 2591 2592 2593 2594 2595 2596 2597 2598 2599 2600 2601 2602 2603 2604 2605 2606 2607 2608 2609 2610 2611 2612 2613 2614 2615 2616 2617 2618 2619 2620 2621 2622 2623 2624 2625 2626 2627 2628 2629 2630 2631 2632 2633 2634 2635 2636 2637 2638 2639 2640 2641 2642 2643 2644 2645 2646 2647 2648 2649 2650 2651 2652 2653 2654 2655 2656 2657 2658 2659 2660 2661 2662 2663 2664 2665 2666 2667 2668 2669 2670 2671 2672 2673 2674 2675 2676 2677 2678 2679 2680 2681 2682 2683 2684 2685 2686 2687 2688 2689 2690 2691 2692 2693 2694 2695 2696 2697 2698 2699 2700 2701 2702 2703 2704 2705 2706 2707 2708 2709 2710 2711 2712 2713 2714 2715 2716 2717 2718 2719 2720 2721 2722 2723 2724 2725 2726 2727 2728 2729 2730 2731 2732 2733 2734 2735 2736 2737 2738 2739 2740 2741 2742 2743 2744 2745 2746 2747 2748 2749 2750 2751 2752 2753 2754 2755 2756 2757 2758 2759 2760 2761 2762 2763 2764 2765 2766 2767 2768 2769 2770 2771 2772 2773 2774 2775 2776 2777 2778 2779 2780 2781 2782 2783 2784 2785 2786 2787 2788 2789 2790 2791 2792 2793 2794 2795 2796 2797 2798 2799 2800 2801 2802 2803 2804 2805 2806 2807 2808 2809 2810 2811 2812 2813 2814 2815 2816 2817 2818 2819 2820 2821 2822 2823 2824 2825 2826 2827 2828 2829 2830 2831 2832 2833 2834 2835 2836 2837 2838 2839 2840 2841 2842 2843 2844 2845 2846 2847 2848 2849 2850 2851 2852 2853 2854 2855 2856 2857 2858 2859 2860 2861 2862 2863 2864 2865 2866 2867 2868 2869 2870 2871 2872 2873 2874 2875 2876 2877 2878 2879 2880 2881 2882 2883 2884 2885 2886 2887 2888 2889 2890 2891 2892 2893 2894 2895 2896 2897 2898 2899 2900 2901 2902 2903 2904 2905 2906 2907 2908 2909 2910 2911 2912 2913 2914 2915 2916 2917 2918 2919 2920 2921 2922 2923 2924 2925 2926 2927 2928 2929 2930 2931 2932 2933 2934 2935 2936 2937 2938 2939 2940 2941 2942 2943 2944 2945 2946 2947 2948 2949 2950 2951 2952 2953 2954 2955 2956 2957 2958 2959 2960 2961 2962 2963 2964 2965 2966 2967 2968 2969 2970 2971 2972 2973 2974 2975 2976 2977 2978 2979 2980 2981 2982 2983 2984 2985 2986 2987 2988 2989 2990 2991 2992 2993 2994 2995 2996 2997 2998 2999 3000 3001 3002 3003 3004 3005 3006 3007 3008 3009 3010 3011 3012 3013 3014 3015 3016 3017 3018 3019 3020 3021 3022 3023 3024 3025 3026 3027 3028 3029 3030 3031 3032 3033 3034 3035 3036 3037 3038 3039 3040 3041 3042 3043 3044 3045 3046 3047 3048 3049 3050 3051 3052 3053 3054 3055 3056 3057 3058 3059 3060 3061 3062 3063 3064 3065 3066 3067 3068 3069 3070 3071 3072 3073 3074 3075 3076 3077 3078 3079 3080 3081 3082 3083 3084 3085 3086 3087 3088 3089 3090 3091 3092 3093 3094 3095 3096 3097 3098 3099 3100 3101 3102 3103 3104 3105 3106 3107 3108 3109 3110 3111 3112 3113 3114 3115 3116 3117 3118 3119 3120 3121 3122 3123 3124 3125 3126 3127 3128 3129 3130 3131 3132 3133 3134 3135 3136 3137 3138 3139 3140 3141 
</DataArray>
<DataArray type="UInt32" Name="offsets" format="ascii">
2 4 6 8 10 12 14 16 18 20 22 24 26 28 30 32 34 36 38 40 43 46 49 52 55 58 61 64 67 70 73 76 79 82 85 88 91 94 97 100 103 106 109 112 115 118 121 124 127 130 133 136 139 142 145 148 151 154 157 160 163 166 169 172 175 178 181 184 187 190 193 196 199 202 205 208 211 214 217 220 223 226 229 232 235 238 241 244 247 250 253 256 259 262 265 268 271 274 277 280 283 286 289 292 295 298 301 304 307 310 313 316 319 322 325 328 331 334 337 340 343 346 349 352 355 358 361 364 367 370 373 376 379 382 385 388 391 394 397 400 403 406 409 412 415 418 421 424 427 430 433 436 439 442 445 448 451 454 457 460 463 466 469 472 475 478 481 484 487 490 493 496 499 502 505 508 511 514 517 520 523 526 529 532 535 538 541 544 547 550 553 556 559 562 565 568 571 574 577 580 583 586 589 592 595 598 601 604 607 610 613 616 619 622 625 628 631 634 637 640 643 646 649 652 655 658 661 664 667 670 673 676 679 682 685 688 691 694 697 700 703 706 709 712 715 718 721 724 727 730 733 736 739 742 745 748 751 754 757 760 763 766 769 772 775 778 781 784 787 790 793 796 799 802 805 808 811 814 817 820 823 826 829 832 835 838 841 844 847 850 853 856 859 862 865 868 871 874 877 880 883 886 889 892 895 898 901 904 907 910 913 916 919 922 925 928 931 934 937 940 943 946 949 952 955 958 961 964 967 970 973 976 979 982 985 988 991 994 997 1000 1003 1006 1009 1012 1015 1018 1021 1024 1027 1030 1033 1036 1039 1042 1045 1048 1051 1054 1057 1060 1063 1066 1069 1072 1075 1078 1081 1084 1087 1090 1093 1096 1099 1102 1105 1108 1111 1114 1117 1120 1123 1126 1129 1132 1135 1138 1141 1144 1147 1150 1153 1156 1159 1162 1165 1168 1171 1174 1177 1180 1183 1186 1189 1192 1195 1198 1201 1204 1207 1210 1213 1216 1219 1222 1225 1228 1231 1234 1237 1240 1243 1246 1249 1252 1255 1258 1261 1264 1267 1270 1273 1276 1279 1282 1285 1288 1291 1294 1297 1300 1303 1306 1309 1312 1315 1318 1321 1324 1327 1330 1333 1336 1339 1342 1345 1348 1351 1354 1357 1360 1363 1366 1369 1372 1375 1378 1381 1384 1387 1390 1393 1396 1399 1402 1405 1408 1411 1414 1417 1420 1423 1426 1429 1432 1435 1438 1441 1444 1447 1450 1453 1456 1459 1462 1465 1468 1471 1474 1477 1480 1483 1486 1489 1492 1495 1498 1501 1504 1507 1510 1513 1516 1519 1522 1525 1528 1531 1534 1537 1540 1543 1546 1549 1552 1555 1558 1561 1564 1567 1570 1573 1576 1579 1582 1585 1588 1591 1594 1597 1600 1603 1606 1609 1612 1615 1618 1621 1624 1627 1630 1633 1636 1639 1642 1645 1648 1651 1654 1657 1660 1663 1666 1669 1672 1675 1678 1681 1684 1687 1690 1693 1696 1699 1702 1705 1708 1711 1714 1717 1720 1723 1726 1729 1732 1735 1738 1741 1744 1747 1750 1753 1756 1759 1762 1765 1768 1771 1774 1777 1780 1783 1786 1789 1792 1795 1798 1801 1804 1807 1810 1813 1816 1819 1822 1825 1828 1831 1834 1837 1840 1843 1846 1849 1852 1855 1858 1861 1864 1867 1870 1873 1876 1879 1882 1885 1888 1891 1894 1897 1900 1903 1906 1909 1912 1915 1918 1921 1924 1927 1930 1933 1936 1939 1942 1945 1948 1951 1954 1957 1960 1963 1966 1969 1972 1975 1978 1981 1984 1987 1990 1993 1996 1999 2002 2005 2008 2011 2014 2017 2020 2023 2026 2029 2032 2035 2038 2041 2044 2047 2050 2053 2056 2059 2062 2065 2068 2071 2074 2077 2080 2083 2086 2089 2092 2095 2098 2101 2104 2107 2110 2113 2116 2119 2122 2125 2128 2131 2134 2137 2140 2143 2146 2149 2152 2155 2158 2161 2164 2167 2170 2173 2176 2179 2182 2185 2188 2191 2194 2197 2200 2203 2206 2209 2212 2215 2218 2221 2224 2227 2230 2233 2236 2239 2242 2245 2248 2251 2254 2257 2260 2263 2266 2269 2272 2275 2278 2281 2284 2287 2290 2293 2296 2299 2302 2305 2308 2311 2314 2317 2320 2323 2326 2329 2332 2335 2338 2341 2344 2347 2350 2353 2356 2359 2362 2365 2368 2371 2374 2377 2380 2383 2386 2389 2392 2395 2398 2401 2404 2407 2410 2413 2416 2419 2422 2425 2428 2431 2434 2437 2440 2443 2446 2449 2452 2455 2458 2461 2464 2467 2470 2473 2476 2479 2482 2485 2488 2491 2494 2497 2500 2503 2506 2509 2512 2515 2518 2521 2524 2527 2530 2533 2536 2539 2542 2545 2548 2551 2554 2557 2560 2563 2566 2569 2572 2575 2578 2581 2584 2587 2590 2593 2596 2599 2602 2605 2608 2611 2614 2617 2620 2623 2626 2629 2632 2635 2638 2641 2644 2647 2650 2653 2656 2659 2662 2665 2668 2671 2674 2677 2680 2683 2686 2689 2692 2695 2698 2701 2704 2707 2710 2713 2716 2719 2722 2725 2728 2731 2734 2737 2740 2743 2746 2749 2752 2755 2758 2761 2764 2767 2770 2773 2776 2779 2782 2785 2788 2791 2794 2797 2800 2803 2806 2809 2812 2815 2818 2821 2824 2827 2830 2833 2836 2839 2842 2845 2848 2851 2854 2857 2860 2863 2866 2869 2872 2875 2878 2881 2884 2887 2890 2893 2896 2899 2902 2905 2908 2911 2914 2917 2920 2923 2926 2929 2932 2935 2938 2941 2944 2947 2950 2953 2956 2959 2962 2965 2968 2971 2974 2977 2980 2983 2986 2989 2992 2995 2998 3001 3004 3007 3010 3013 3016 3019 3022 3025 3028 3031 3034 3037 3040 3043 3046 3049 3052 3055 3058 3061 3064 3067 3070 3073 3076 3079 3082 3085 3088 3091 3094 3097 3100 3103 3106 3109 3112 3115 3118 3121 3124 3127 3130 3133 3136 3139 3142 
</DataArray>
<DataArray type="UInt32" Name="types" format="ascii">
3 3 3 3 3 3 3 3 3 3 3 3 3 3 3 3 3 3 3 3 5 5 5 5 5 5 5 5 5 5 5 5 5 5 5 5 5 5 5 5 5 5 5 5 5 5 5 5 5 5 5 5 5 5 5 5 5 5 5 5 5 5 5 5 5 5 5 5 5 5 5 5 5 5 5 5 5 5 5 5 5 5 5 5 5 5 5 5 5 5 5 5 5 5 5 5 5 5 5 5 5 5 5 5 5 5 5 5 5 5 5 5 5 5 5 5 5 5 5 5 5 5 5 5 5 5 5 5 5 5 5 5 5 5 5 5 5 5 5 5 5 5 5 5 5 5 5 5 5 5 5 5 5 5 5 5 5 5 5 5 5 5 5 5 5 5 5 5 5 5 5 5 5 5 5 5 5 5 5 5 5 5 5 5 5 5 5 5 5 5 5 5 5 5 5 5 5 5 5 5 5 5 5 5 5 5 5 5 5 5 5 5 5 5 5 5 5 5 5 5 5 5 5 5 5 5 5 5 5 5 5 5 5 5 5 5 5 5 5 5 5 5 5 5 5 5 5 5 5 5 5 5 5 5 5 5 5 5 5 5 5 5 5 5 5 5 5 5 5 5 5 5 5 5 5 5 5 5 5 5 5 5 5 5 5 5 5 5 5 5 5 5 5 5 5 5 5 5 5 5 5 5 5 5 5 5 5 5 5 5 5 5 5 5 5 5 5 5 5 5 5 5 5 5 5 5 5 5 5 5 5 5 5 5 5 5 5 5 5 5 5 5 5 5 5 5 5 5 5 5 5 5 5 5 5 5 5 5 5 5 5 5 5 5 5 5 5 5 5 5 5 5 5 5 5 5 5 5 5 5 5 5 5 5 5 5 5 5 5 5 5 5 5 5 5 5 5 5 5 5 5 5 5 5 5 5 5 5 5 5 5 5 5 5 5 5 5 5 5 5 5 5 5 5 5 5 5 5 5 5 5 5 5 5 5 5 5 5 5 5 5 5 5 5 5 5 5 5 5 5 5 5 5 5 5 5 5 5 5 5 5 5 5 5 5 5 5 5 5 5 5 5 5 5 5 5 5 5 5 5 5 5 5 5 5 5 5 5 5 5 5 5 5 5 5 5 5 5 5 5 5 5 5 5 5 5 5 5 5 5 5 5 5 5 5 5 5 5 5 5 5 5 5 5 5 5 5 5 5 5 5 5 5 5 5 5 5 5 5 5 5 5 5 5 5 5 5 5 5 5 5 5 5 5 5 5 5 5 5 5 5 5 5 5 5 5 5 5 5 5 5 5 5 5 5 5 5 5 5 5 5 5 5 5 5 5 5 5 5 5 5 5 5 5 5 5 5 5 5 5 5 5 5 5 5 5 5 5 5 5 5 5 5 5 5 5 5 5 5 5 5 5 5 5 5 5 5 5 5 5 5 5 5 5 5 5 5 5 5 5 5 5 5 5 5 5 5 5 5 5 5 5 5 5 5 5 5 5 5 5 5 5 5 5 5 5 5 5 5 5 5 5 5 5 5 5 5 5 5 5 5 5 5 5 5 5 5 5 5 5 5 5 5 5 5 5 5 5 5 5 5 5 5 5 5 5 5 5 5 5 5 5 5 5 5 5 5 5 5 5 5 5 5 5 5 5 5 5 5 5 5 5 5 5 5 5 5 5 5 5 5 5 5 5 5 5 5 5 5 5 5 5 5 5 5 5 5 5 5 5 5 5 5 5 5 5 5 5 5 5 5 5 5 5 5 5 5 5 5 5 5 5 5 5 5 5 5 5 5 5 5 5 5 5 5 5 5 5 5 5 5 5 5 5 5 5 5 5 5 5 5 5 5 5 5 5 5 5 5 5 5 5 5 5 5 5 5 5 5 5 5 5 5 5 5 5 5 5 5 5 5 5 5 5 5 5 5 5 5 5 5 5 5 5 5 5 5 5 5 5 5 5 5 5 5 5 5 5 5 5 5 5 5 5 5 5 5 5 5 5 5 5 5 5 5 5 5 5 5 5 5 5 5 5 5 5 5 5 5 5 5 5 5 5 5 5 5 5 5 5 5 5 5 5 5 5 5 5 5 5 5 5 5 5 5 5 5 5 5 5 5 5 5 5 5 5 5 5 5 5 5 5 5 5 5 5 5 5 5 5 5 5 5 5 5 5 5 5 5 5 5 5 5 5 5 5 5 5 5 5 5 5 5 5 5 5 5 5 5 5 5 5 5 5 5 5 5 5 5 5 5 5 5 5 5 5 5 5 5 5 5 5 5 5 5 5 5 5 5 5 5 5 5 5 5 5 5 5 5 5 5 5 5 5 5 5 5 5 5 5 5 5 5 5 5 5 5 5 5 5 5 5 5 5 5 5 5 5 5 5 5 5 5 5 
</DataArray>
</Cells>
<PointData Scalars="" Vectors="displacement," Tensors="">
<DataArray type="Float64" Name="displacement" NumberOfComponents="3" format="ascii">
-2.4526124685450433e-05 -2.2552922432047856e-05 0 -2.643770042862174e-05 -2.9998490002303998e-05 0 -2.643770042862174e-05 -2.9998490002303998e-05 0 -2.8670583821575263e-05 -3.8403946004774073e-05 0 -2.8670583821575263e-05 -3.8403946004774073e-05 0 -3.1162784311091012e-05 -4.8025419579724638e-05 0 -3.1162784311091012e-05 -4.8025419579724638e-05 0 -3.3462249127029355e-05 -5.7906865193997335e-05 0 -3.3462249127029355e-05 -5.7906865193997335e-05 0 -3.5501746783490818e-05 -6.7701947268256925e-05 0 -3.5501746783490818e-05 -6.7701947268256925e-05 0 -3.7448722639500002e-05 -7.727605958992388e-05 0 -3.7448722639500002e-05 -7.727605958992388e-05 0 -3.9431622772747213e-05 -8.6323947412028448e-05 0 -3.9431622772747213e-05 -8.6323947412028448e-05 0 -4.145424205552188e-05 -9.4967147742142414e-05 0 -4.145424205552188e-05 -9.4967147742142414e-05 0 -4.2764973188257857e-05 -0.00010227256750849906 0 -4.2764973188257857e-05 -0.00010227256750849906 0 -4.6742459029997024e-05 -0.00010981542910374427 0 -1.8153132952637183e-06 2.7825558842337208e-05 0 2.4191734275629384e-06 4.2577326249654268e-05 0 2.4191734275629384e-06 4.2577326249654268e-05 0 9.255588699177303e-07 4.996933615463191e-05 0 9.255588699177303e-07 4.996933615463191e-05 0 -8.5776554732629554e-07 6.3704844702723565e-05 0 -8.5776554732629554e-07 6.3704844702723565e-05 0 -3.0258765382445078e-06 7.5975982020591801e-05 0 -3.0258765382445078e-06 7.5975982020591801e-05 0 -5.5115015711259855e-06 8.9386117841185094e-05 0 -5.5115015711259855e-06 8.9386117841185094e-05 0 -8.3044497357313597e-06 0.00010274967787017261 0 -8.3044497357313597e-06 0.00010274967787017261 0 -1.1175791872229522e-05 0.00011522173904923446 0 -1.1175791872229522e-05 0.00011522173904923446 0 -1.5564260270541693e-05 0.00012905227767737103 0 -1.5564260270541693e-05 0.00012905227767737103 0 -1.4617186734035518e-05 0.00013941637121812637 0 -1.4617186734035518e-05 0.00013941637121812637 0 -3.4658684740277553e-05 0.00015295150675147514 0 -2.0245793948637056e-05 -1.0119291915818076e-05 0 -1.5490175657372107e-05 -4.8243973800859647e-06 0 -1.8706244406010065e-05 -9.0691303949927405e-06 0 -1.8243295612997651e-05 -6.5224063789470308e-06 0 -1.5490175657372107e-05 -4.8243973800859647e-06 0 -2.0245793948637056e-05 -1.0119291915818076e-05 0 -3.4319304863580562e-05 -1.7331451699500144e-05 0 -3.0379244846334791e-05 -1.3339772740646762e-05 0 -3.1058764172376785e-05 -1.7230672468176107e-05 0 -3.1058764172376785e-05 -1.7230672468176107e-05 0 -3.0379244846334795e-05 -1.3339772740646762e-05 0 -2.783461814071026e-05 -1.5724526526944881e-05 0 -1.6587966082012405e-05 5.7102581767044012e-06 0 -7.2161781775489286e-06 1.6356662497529171e-06 0 -1.4991436577705158e-05 3.4512865704391286e-06 0 -1.2501197626019593e-05 -5.6832881455437858e-06 0 -1.1127689010540917e-05 -4.1317654525652069e-06 0 -5.4132223022772601e-06 -2.0628599706188042e-06 0 -8.5854563013464543e-06 4.0413848081174698e-06 0 -7.2161781775489286e-06 1.6356662497529171e-06 0 -1.6587966082012405e-05 5.7102581767044012e-06 0 -6.6887668622640554e-06 -3.7737743572197312e-06 0 -1.2501197626019593e-05 -5.6832881455437858e-06 0 -5.4132223022772601e-06 -2.0628599706188042e-06 0 -3.0849459738040703e-05 -1.197651407460215e-05 0 -3.7418143667186295e-05 -1.5194522182670262e-05 0 -2.9730653987213456e-05 -1.0967468630935575e-05 0 -5.5682798624165144e-05 1.88049290695063e-05 0 -4.4564466187814679e-05 1.3440633658906013e-05 0 -4.36462473348716e-05 1.2550083601698457e-05 0 -4.3972566816470249e-06 8.2029156352929077e-07 0 -5.6309690336072334e-06 1.8613077493766943e-06 0 -5.6828321931739715e-06 6.3715937439601652e-07 0 -7.4962541123605634e-06 2.6717794305248624e-06 0 -5.6828321931739715e-06 6.3715937439601652e-07 0 -5.6309690336072334e-06 1.8613077493766943e-06 0 -6.7697211433408129e-06 -2.0345341713361462e-07 0 -8.9847990246452093e-06 -9.2488935549425374e-07 0 -6.3640354051780166e-06 1.1122649484117489e-07 0 -2.9383111662255815e-09 -6.2647486646875427e-10 0 -2.3446266761555111e-09 -4.3604266295075718e-10 0 -2.5543204241070817e-06 -9.2308376833332948e-07 0 -2.3820288564543922e-09 2.5899289074040854e-10 0 -2.7578638006530241e-09 2.5716406494565727e-10 0 -2.5953307463905121e-06 3.7512895299930253e-07 0 -3.8550891072507043e-05 -2.2442801009256028e-05 0 -3.8665143435835356e-05 -2.2262564168812661e-05 0 -3.4319304863580562e-05 -1.7331451699500144e-05 0 -3.4780857067997459e-06 3.1209276214217025e-05 0 -8.9361323301648759e-06 2.0710866879804339e-05 0 -1.1305920732229625e-05 2.0889497756387451e-05 0 -6.0168172523155779e-05 -0.00017015573769314267 0 -5.1085516227508545e-05 -0.00015955681380230816 0 -6.0032337660051711e-05 -0.00015584876351768201 0 -7.437132631232995e-05 0.00035858088433055144 0 -9.7644557635914213e-05 0.00033479312429890619 0 -7.4046285918210822e-05 0.00032522873531753971 0 -7.437132631232995e-05 0.00035858088433055144 0 -7.4046285918210822e-05 0.00032522873531753971 0 -5.1638865406462389e-05 0.00033346071045391499 0 -6.0168172523155779e-05 -0.00017015573769314267 0 -6.0032337660051711e-05 -0.00015584876351768201 0 -6.9807176271456163e-05 -0.00015992832242688417 0 -0.00010165168797967695 0.00030697939241393308 0 -7.1564283537789907e-05 0.00029307419838686097 0 -7.4046285918210822e-05 0.00032522873531753971 0 -4.883040225426476e-05 -0.00014693782068854027 0 -6.0069316662731603e-05 -0.00014116277983270553 0 -6.0032337660051711e-05 -0.00015584876351768201 0 -6.7697211433408129e-06 -2.0345341713361462e-07 0 -6.3640354051780166e-06 1.1122649484117489e-07 0 -4.5250955428951379e-06 3.5775222857643797e-07 0 -3.4780857067997459e-06 3.1209276214217025e-05 0 -1.432579013090007e-05 2.8572770869912788e-05 0 -8.9361323301648759e-06 2.0710866879804339e-05 0 -0.00012113043163286859 9.5439548213714949e-05 0 -0.00010916643302399498 7.197170189750925e-05 0 -8.9009347668213528e-05 7.6831450559973117e-05 0 -6.6702482366409009e-05 -4.0625907823454558e-05 0 -7.3329261427695425e-05 -5.1090095589275841e-05 0 -5.844533800008443e-05 -4.2824887763645578e-05 0 -3.2893652231173508e-05 -1.8814974450929246e-05 0 -3.8550891072507043e-05 -2.2442801009256028e-05 0 -3.4319304863580562e-05 -1.7331451699500144e-05 0 -6.2969051318586099e-05 6.3058802374643769e-05 0 -5.4859621140794335e-05 3.9491357409607456e-05 0 -4.5360692043062836e-05 4.1769615708038048e-05 0 -3.2539457345747829e-05 1.4043513965137115e-05 0 -4.319311571505906e-05 1.9816444533858892e-05 0 -4.0387404787626051e-05 1.3245431859121417e-05 0 -2.5305026675790645e-05 -4.1131037212535668e-06 0 -2.2055907013789736e-05 2.2279510676997907e-07 0 -2.7242724525052019e-05 -7.2133998505075543e-06 0 -5.8321886537343299e-05 -0.00012582033162118379 0 -4.9754482028057902e-05 -0.00012098113342054435 0 -5.7892240090690554e-05 -0.00010932870943730997 0 -7.1515988134248886e-05 0.00026041662269854385 0 -9.0953427531319586e-05 0.00025121636121714584 0 -6.6177035744716391e-05 0.00022372177594307495 0 -5.7892240090690554e-05 -0.00010932870943730997 0 -4.9754482028057902e-05 -0.00012098113342054435 0 -4.7982034097810806e-05 -0.00010674428355434673 0 -6.6177035744716391e-05 0.00022372177594307495 0 -9.0953427531319586e-05 0.00025121636121714584 0 -8.9392993023049003e-05 0.00022426813143849479 0 -3.2539457345747829e-05 1.4043513965137115e-05 0 -4.0387404787626051e-05 1.3245431859121417e-05 0 -2.8788337679095606e-05 9.2890506510289274e-06 0 -2.5887984325624544e-05 -9.1315594780546537e-06 0 -2.1620205448798947e-05 2.6576983765810091e-06 0 -2.5305026675790645e-05 -4.1131037212535668e-06 0 -6.2969051318586099e-05 6.3058802374643769e-05 0 -7.1315485105108743e-05 5.466190917552455e-05 0 -5.4859621140794341e-05 3.9491357409607456e-05 0 -3.4780857067997459e-06 3.1209276214217025e-05 0 8.3966778695031449e-06 7.8471246089416221e-05 0 -1.6558130904912815e-05 8.1516573426409461e-05 0 -5.2365060705937596e-05 -5.1825378825859204e-05 0 -4.7713882729867652e-05 -4.8040167153796197e-05 0 -5.2618367556904668e-05 -4.9282159471634066e-05 0 -3.6043835103544598e-05 -4.8878488243869348e-05 0 -3.4790044447337823e-05 -4.6523877878328572e-05 0 -3.6107485148898009e-05 -5.0134018554904715e-05 0 -1.8538214582285284e-05 6.412816804498701e-06 0 -2.2055907013789736e-05 2.2279510676997907e-07 0 -2.5305026675790645e-05 -4.1131037212535668e-06 0 -3.0951007245226177e-05 -0.00015335178890729762 0 -3.8678471542024609e-05 -0.00014360699728278143 0 -4.1895985682679328e-05 -0.00015583703133934066 0 -0.00015436588113649496 0.00033272138048272488 0 -0.00012858762814765389 0.00030405719806030822 0 -0.00012340230791335155 0.00032935261797837777 0 -1.9624258809737339e-09 -3.3747891116630973e-10 0 -1.6251011072270175e-06 -3.0003622268928909e-07 0 -1.8375497116998796e-06 -6.0564148335216622e-07 0 -2.111407380463103e-09 2.795498708542342e-10 0 -2.0783303031512597e-06 4.3860281839061128e-07 0 -1.9410148219358884e-06 5.0244901068194587e-07 0 -6.2969051318586099e-05 6.3058802374643769e-05 0 -4.5554733611241915e-05 6.0252672702788546e-05 0 -5.8935594988361833e-05 9.0613616607359933e-05 0 -3.6704466338879357e-05 8.0335569732875971e-05 0 -5.8935594988361833e-05 9.0613616607359933e-05 0 -4.5554733611241915e-05 6.0252672702788546e-05 0 -2.1599682846334768e-05 5.0946030165305593e-05 0 -3.4780857067997459e-06 3.1209276214217025e-05 0 -1.6558130904912815e-05 8.1516573426409461e-05 0 -0.00015415758936643731 0.00027548650687374103 0 -0.00011765955860362213 0.00027617926430080578 0 -0.00012858762814765389 0.00030405719806030822 0 -2.6115151616293505e-05 -0.00012637346681658253 0 -4.0991411922164511e-05 -0.00013107020722833004 0 -3.8678471542024602e-05 -0.0001436069972827814 0 -3.5768298268682973e-05 -4.3943710988871343e-05 0 -3.5986777145252885e-05 -4.0488605308043492e-05 0 -3.8464609933169377e-05 -4.3735964001253376e-05 0 -2.472315535563436e-05 -4.2852836060843496e-06 0 -2.7242724525052019e-05 -7.2133998505075543e-06 0 -2.2055907013789736e-05 2.2279510676997907e-07 0 -3.0198628672680704e-05 -1.2681248510436805e-05 0 -3.2761207577602493e-05 -1.7968158012515935e-05 0 -3.0126706649124604e-05 -1.7559772868634857e-05 0 -2.5626453571127927e-05 -2.7419980249832365e-05 0 -2.5645942237619538e-05 -2.3872640405232493e-05 0 -3.0244753212867013e-05 -2.9424587610374643e-05 0 -0.00014037175995998578 0.00015207176609232945 0 -0.00011003538543512773 0.00013214411323259753 0 -0.0001208506819897516 0.000169139397341071 0 -9.4159057596647196e-05 -0.00013323490197383539 0 -8.3155798262395407e-05 -0.00014647548103533407 0 -7.8971092845564651e-05 -0.00013433569575787039 0 5.8432692161165676e-06 0.00026416018473967835 0 -2.1169900727070129e-05 0.00029956375523355953 0 -2.683461728579952e-05 0.00027410103114068818 0 -2.8512369152968062e-05 -0.00013977512366291668 0 -3.8678471542024602e-05 -0.0001436069972827814 0 -3.0951007245226177e-05 -0.00015335178890729762 0 -0.00015436588113649496 0.00033272138048272488 0 -0.0001544624634896658 0.0003045505807866338 0 -0.00012858762814765389 0.00030405719806030822 0 -4.4815633501617948e-05 -4.2465701102903802e-05 0 -4.5353526425831757e-05 -3.9125595843315919e-05 0 -4.7718782245627912e-05 -4.3156787927289513e-05 0 -2.4761736768691587e-05 -2.277222311559924e-05 0 -2.8466967017696683e-05 -2.7398666041963018e-05 0 -2.9745261445318876e-05 -3.885091926663455e-05 0 -4.4815633501617948e-05 -4.2465701102903802e-05 0 -4.2977076624410347e-05 -3.9262793294258874e-05 0 -4.5353526425831757e-05 -3.9125595843315919e-05 0 -2.9229506995955598e-05 -2.4254329627235329e-05 0 -3.0244753212867013e-05 -2.9424587610374643e-05 0 -2.5645942237619538e-05 -2.3872640405232493e-05 0 -5.0111880258756879e-05 -6.5081702452257626e-05 0 -5.3939782585063193e-05 -8.281177771206489e-05 0 -4.3408802458357509e-05 -6.8884668247940639e-05 0 -4.0531881365136146e-09 2.9614888073470376e-10 0 -5.4132223022772601e-06 -2.0628599706188042e-06 0 -3.7688356224587777e-06 -7.8219372702021594e-07 0 -5.4988903565479029e-09 -6.9743468308166344e-10 0 -4.9090141691529741e-06 5.1353635927003376e-08 0 -7.2161781775489286e-06 1.6356662497529171e-06 0 -5.2365060705937596e-05 -5.1825378825859204e-05 0 -4.7746976983681679e-05 -5.1388302423330319e-05 0 -4.7713882729867652e-05 -4.8040167153796197e-05 0 -3.6573684820685704e-05 -5.1172392513874841e-05 0 -3.6043835103544598e-05 -4.8878488243869348e-05 0 -3.6107485148898009e-05 -5.0134018554904715e-05 0 -4.1836459378918535e-09 -9.7419321962899233e-10 0 -6.3783190901000015e-06 -5.1989054204352234e-07 0 -4.9090141691529733e-06 5.1353635927002979e-08 0 -3.3954770246421019e-09 3.5218845018345653e-10 0 -3.7688356224587777e-06 -7.8219372702021594e-07 0 -5.1205779942834377e-06 -6.2287892538089673e-07 0 -5.6828321931739715e-06 6.3715937439601652e-07 0 -4.2968347310926239e-06 -7.1777781093446073e-07 0 -4.0671529385200274e-06 2.7783581504452524e-08 0 -1.8324468529734232e-05 -7.4473617021573519e-06 0 -1.5287500205248713e-05 -5.0047603464520842e-06 0 -1.1127689010540917e-05 -4.1317654525652069e-06 0 -2.5070076940844123e-05 7.4260958994527692e-06 0 -1.4991436577705159e-05 3.4512865704391286e-06 0 -2.0762183558653512e-05 3.9927298006081913e-06 0 -3.4294046239408597e-05 -2.9387758883148794e-05 0 -3.2297923048205713e-05 -2.4831354932492847e-05 0 -3.5961770239445816e-05 -2.7095632086922124e-05 0 -3.3629350835061875e-05 -2.2365033270224693e-05 0 -3.0126706649124604e-05 -1.7559772868634857e-05 0 -3.2761207577602493e-05 -1.7968158012515935e-05 0 -8.7971792986142229e-07 0.00032124484252408548 0 -2.8270645324580003e-05 0.0003253463444965789 0 -2.1169900727070129e-05 0.00029956375523355953 0 -9.4401724865105242e-05 -0.00015898802996423437 0 -8.0815884652518061e-05 -0.00015748601218313038 0 -8.3155798262395407e-05 -0.00014647548103533407 0 -3.3629350835061875e-05 -2.2365033270224693e-05 0 -3.5961770239445816e-05 -2.7095632086922124e-05 0 -3.2297923048205713e-05 -2.4831354932492847e-05 0 -3.5986777145252885e-05 -4.0488605308043492e-05 0 -3.3001272279150742e-05 -3.8992060349501318e-05 0 -3.4697945859072276e-05 -3.5295029432800876e-05 0 -8.9864096019631582e-05 0.00019623951761759987 0 -7.9399114876391809e-05 0.00015679781588670111 0 -6.3707926116290866e-05 0.00017075720158793442 0 -5.4988903565479029e-09 -6.9743468308166344e-10 0 -5.8789763960006256e-09 4.4461801295863959e-10 0 -4.9090141691529733e-06 5.1353635927002979e-08 0 -4.5097602724052217e-09 -6.0167635331498463e-10 0 -4.0531881365136146e-09 2.9614888073470376e-10 0 -3.7688356224587777e-06 -7.8219372702021594e-07 0 -5.6828321931739715e-06 6.3715937439601652e-07 0 -6.8211685035563463e-06 1.4180358574763167e-07 0 -4.2968347310926239e-06 -7.1777781093446073e-07 0 -4.6468337948414847e-05 0.00030492171542877719 0 -7.4046285918210822e-05 0.00032522873531753971 0 -7.1564283537789907e-05 0.00029307419838686097 0 -7.1424037687766888e-05 -0.00014724285197694717 0 -6.0032337660051711e-05 -0.00015584876351768201 0 -6.0069316662731603e-05 -0.00014116277983270553 0 -5.3939782585063193e-05 -8.281177771206489e-05 0 -4.4954235046609621e-05 -8.2714180417135504e-05 0 -4.3408802458357509e-05 -6.8884668247940639e-05 0 -2.4305155520912627e-06 3.5025202390723109e-07 0 -3.4499688501256343e-06 7.103650612880632e-07 0 -3.1799272801069431e-06 4.2421340331265873e-07 0 -1.8474711224062462e-05 3.2421737736061022e-06 0 -1.4687234103688271e-05 2.9097334623672806e-06 0 -2.1150167624896916e-05 5.763725223614664e-06 0 -3.3001272279150742e-05 -3.8992060349501318e-05 0 -3.1346367945514654e-05 -3.4698979503739639e-05 0 -3.4697945859072276e-05 -3.5295029432800876e-05 0 -3.1799272801069431e-06 4.2421340331265873e-07 0 -3.4499688501256343e-06 7.103650612880632e-07 0 -4.0483751131297577e-06 9.040767548604777e-07 0 -3.4499688501256343e-06 7.103650612880632e-07 0 -2.0440164340693224e-06 4.2660865722391314e-07 0 -3.5593477353885306e-06 6.8805904376033161e-07 0 -2.6246598033084407e-06 5.8807005426190559e-07 0 -3.5593477353885306e-06 6.8805904376033161e-07 0 -2.0440164340693224e-06 4.2660865722391314e-07 0 -4.8114990402475425e-05 -4.1573201091078688e-05 0 -4.5353526425831757e-05 -3.9125595843315919e-05 0 -4.7272336771642119e-05 -3.8163993464433427e-05 0 -3.0198628672680704e-05 -1.2681248510436805e-05 0 -3.0126706649124604e-05 -1.7559772868634857e-05 0 -2.8059415674664513e-05 -1.0844871892426951e-05 0 -3.5768298268682973e-05 -4.3943710988871343e-05 0 -3.3001272279150742e-05 -3.8992060349501318e-05 0 -3.5986777145252885e-05 -4.0488605308043492e-05 0 -1.8538214582285284e-05 6.412816804498701e-06 0 -2.5305026675790645e-05 -4.113103721253566e-06 0 -2.1620205448798947e-05 2.6576983765810091e-06 0 2.5760057227646719e-06 0.00029247669436723104 0 -8.7971792986142229e-07 0.00032124484252408548 0 -2.1169900727070129e-05 0.00029956375523355953 0 -9.4441936851080856e-05 -0.00014643180227528785 0 -9.4401724865105242e-05 -0.00015898802996423437 0 -8.3155798262395407e-05 -0.00014647548103533407 0 -9.4159057596647196e-05 -0.00013323490197383539 0 -9.4441936851080856e-05 -0.00014643180227528785 0 -8.3155798262395407e-05 -0.00014647548103533407 0 5.8432692161165676e-06 0.00026416018473967835 0 2.5760057227646719e-06 0.00029247669436723104 0 -2.1169900727070129e-05 0.00029956375523355953 0 -1.3538851565226223e-05 1.1526204670115618e-05 0 -1.3219624807933309e-05 8.9707370451197713e-06 0 -1.8538214582285284e-05 6.412816804498701e-06 0 -6.3986492505804985e-06 2.863309567658347e-07 0 -4.2198890626557555e-06 5.9459315969934339e-07 0 -6.3640354051780166e-06 1.1122649484117489e-07 0 -3.6848941137575043e-06 5.4131856197674228e-07 0 -6.3640354051780166e-06 1.1122649484117489e-07 0 -4.2198890626557555e-06 5.9459315969934339e-07 0 -1.8028529824822461e-05 0.00017175334203314093 0 -1.143333491754011e-05 0.00019204131568265528 0 -4.0462443615206716e-05 0.00019446453765247201 0 -1.143333491754011e-05 0.00019204131568265528 0 -1.9817170566959333e-05 0.00021383559695783261 0 -4.0462443615206716e-05 0.00019446453765247201 0 -2.5887984325624544e-05 -9.1315594780546537e-06 0 -2.5305026675790645e-05 -4.1131037212535677e-06 0 -2.8059415674664513e-05 -1.0844871892426951e-05 0 -3.742564468322367e-05 -5.2283129508062532e-05 0 -3.6107485148898009e-05 -5.0134018554904715e-05 0 -3.7209890517443527e-05 -4.9105744473924827e-05 0 -4.3210570305153493e-05 -5.1503418659789526e-05 0 -4.3942733884830653e-05 -4.7162026861609711e-05 0 -4.7713882729867652e-05 -4.8040167153796197e-05 0 -1.3219624807933309e-05 8.9707370451197713e-06 0 -1.6697355979601997e-05 4.5856079558742269e-06 0 -1.8538214582285284e-05 6.412816804498701e-06 0 -0.0001544624634896658 0.0003045505807866338 0 -0.00015415758936643731 0.00027548650687374103 0 -0.00012858762814765389 0.00030405719806030822 0 -2.6115151616293505e-05 -0.00012637346681658253 0 -3.8678471542024602e-05 -0.0001436069972827814 0 -2.8512369152968062e-05 -0.00013977512366291668 0 -3.7418143667186295e-05 -1.5194522182670262e-05 0 -3.6897509357041242e-05 -1.5089722326108558e-05 0 -2.9730653987213456e-05 -1.0967468630935575e-05 0 -5.5682798624165144e-05 1.88049290695063e-05 0 -4.36462473348716e-05 1.2550083601698457e-05 0 -5.3893718350221267e-05 1.9017618814680349e-05 0 -2.5887984325624544e-05 -9.1315594780546537e-06 0 -3.0126706649124604e-05 -1.7559772868634857e-05 0 -2.6154639917024996e-05 -1.8410494510383192e-05 0 -2.4761736768691587e-05 -2.277222311559924e-05 0 -2.9745261445318876e-05 -3.885091926663455e-05 0 -2.0222474316362371e-05 -4.0755433011581078e-05 0 -2.9229506995955598e-05 -2.4254329627235329e-05 0 -3.0126706649124604e-05 -1.7559772868634857e-05 0 -3.2297923048205713e-05 -2.4831354932492847e-05 0 -3.3629350835061875e-05 -2.2365033270224693e-05 0 -3.2297923048205713e-05 -2.4831354932492847e-05 0 -3.0126706649124604e-05 -1.7559772868634857e-05 0 -6.0168172523155779e-05 -0.00017015573769314267 0 -5.0561147622488302e-05 -0.00016927215476113746 0 -5.1085516227508545e-05 -0.00015955681380230816 0 -7.437132631232995e-05 0.00035858088433055144 0 -0.00010008202147830819 0.00035931739310069067 0 -9.7644557635914199e-05 0.00033479312429890619 0 -5.0224717456297455e-05 0.00035668758988354702 0 -7.437132631232995e-05 0.00035858088433055144 0 -5.1638865406462389e-05 0.00033346071045391499 0 -7.0867741863307762e-05 -0.00017047809865719648 0 -6.0168172523155779e-05 -0.00017015573769314267 0 -6.9807176271456163e-05 -0.00015992832242688417 0 -2.8329113741257125e-05 3.8552077033083857e-05 0 -4.5554733611241915e-05 6.0252672702788546e-05 0 -4.5360692043062836e-05 4.1769615708038048e-05 0 -3.8452963581555784e-05 -2.6881545142962844e-05 0 -4.162033783760997e-05 -3.1344504263884762e-05 0 -3.9408055928918607e-05 -3.1595718205799152e-05 0 -2.9229506995955598e-05 -2.4254329627235329e-05 0 -3.2297923048205713e-05 -2.4831354932492847e-05 0 -3.0244753212867013e-05 -2.9424587610374643e-05 0 -3.4294046239408597e-05 -2.9387758883148794e-05 0 -3.0244753212867013e-05 -2.9424587610374643e-05 0 -3.2297923048205713e-05 -2.4831354932492847e-05 0 -3.6133697214774759e-05 -7.2055835356710603e-05 0 -3.3422600768176424e-05 -5.5518929861327876e-05 0 -4.3408802458357509e-05 -6.8884668247940639e-05 0 -0.00012113043163286859 9.5439548213714949e-05 0 -8.9009347668213528e-05 7.6831450559973117e-05 0 -0.00010816241266392522 0.00010568464974960999 0 -3.143759683820263e-05 -1.7608625670296275e-05 0 -3.8162043987551182e-05 -2.4552076074135091e-05 0 -3.0056248780807263e-05 -1.9960714206807046e-05 0 -3.4694180309982701e-05 -2.729006551739556e-05 0 -3.0056248780807263e-05 -1.9960714206807046e-05 0 -3.8162043987551182e-05 -2.4552076074135091e-05 0 -4.6164833876432999e-05 -4.495644197461898e-05 0 -4.2400097529534518e-05 -4.4119911988260039e-05 0 -4.4815633501617948e-05 -4.2465701102903802e-05 0 -9.9148098567773457e-05 0.00015223595916259705 0 -0.0001208506819897516 0.000169139397341071 0 -0.00011003538543512773 0.00013214411323259753 0 -3.6171587473517908e-05 -1.5978277165253603e-05 0 -4.4199082428554842e-05 -2.1754019592094655e-05 0 -3.7781225195232385e-05 -1.9790949026019627e-05 0 -4.5757854385094448e-05 -2.6244774620008133e-05 0 -3.7781225195232385e-05 -1.9790949026019627e-05 0 -4.4199082428554842e-05 -2.1754019592094655e-05 0 -6.6583445185819913e-05 4.1619616575880714e-05 0 -6.567150953852814e-05 3.2115347658640815e-05 0 -5.2934879409244703e-05 2.9048271555823086e-05 0 -5.2180602902759738e-05 2.1881013139241579e-05 0 -5.2934879409244703e-05 2.9048271555823086e-05 0 -6.567150953852814e-05 3.2115347658640815e-05 0 -4.3486615699184823e-05 -3.5757158135116543e-05 0 -4.0512027391317507e-05 -3.588122498357307e-05 0 -3.9408055928918607e-05 -3.1595718205799152e-05 0 -7.3329261427695425e-05 -5.1090095589275841e-05 0 -6.8195453047126622e-05 -5.5350061764037797e-05 0 -5.844533800008443e-05 -4.2824887763645578e-05 0 -2.814194260014176e-05 0.00014417346533362847 0 -4.4411149477830997e-05 0.00011601374598270912 0 -2.2239718318009927e-05 0.00011055992800960617 0 -2.472315535563436e-05 -4.2852836060843496e-06 0 -2.6237651844790696e-05 -8.1335800109773893e-06 0 -2.9557903260663092e-05 -1.0648657130252474e-05 0 -8.9649349700047882e-06 2.2108153084355487e-06 0 -8.1040590307243587e-06 4.3471470707303289e-06 0 -6.9688422401166136e-06 2.7503573193390582e-06 0 -0.00011096625572956823 0.00024242051916055805 0 -9.0953427531319586e-05 0.00025121636121714584 0 -0.00011765955860362213 0.00027617926430080578 0 -4.0978971028684936e-05 -0.00011503746689719827 0 -4.9754482028057902e-05 -0.00012098113342054435 0 -4.0991411922164511e-05 -0.00013107020722833004 0 -2.5887984325624544e-05 -9.1315594780546537e-06 0 -2.8059415674664513e-05 -1.084487189242695e-05 0 -3.0126706649124604e-05 -1.7559772868634857e-05 0 -4.3942733884830653e-05 -4.7162026861609704e-05 0 -4.2400097529534518e-05 -4.4119911988260039e-05 0 -4.6164833876432999e-05 -4.495644197461898e-05 0 -3.4294046239408597e-05 -2.9387758883148794e-05 0 -3.7107361675768628e-05 -3.1965702944393113e-05 0 -3.4697945859072276e-05 -3.5295029432800876e-05 0 -2.3446266761555111e-09 -4.3604266295075718e-10 0 -1.8375497116998796e-06 -6.0564148335216622e-07 0 -2.5543204241070817e-06 -9.2308376833332948e-07 0 -2.3820288564543922e-09 2.5899289074040854e-10 0 -2.5953307463905121e-06 3.7512895299930253e-07 0 -2.0783303031512597e-06 4.3860281839061128e-07 0 -3.3422600768176424e-05 -5.5518929861327876e-05 0 -4.2199841265186942e-05 -5.5940719168642461e-05 0 -4.3408802458357509e-05 -6.8884668247940639e-05 0 -1.8474711224062462e-05 3.2421737736061022e-06 0 -2.1150167624896916e-05 5.763725223614664e-06 0 -2.4942084507738856e-05 5.4033825967488794e-06 0 -3.7911370493051823e-05 2.4331559953322576e-05 0 -4.5360692043062829e-05 4.1769615708038041e-05 0 -5.4859621140794341e-05 3.9491357409607456e-05 0 -2.9719856599071454e-06 -4.358715448642763e-07 0 -1.6251011072270175e-06 -3.0003622268928909e-07 0 -3.0458475500163884e-06 -5.2709323343313542e-09 0 -2.2278081384204402e-06 9.9248238142274926e-08 0 -3.0458475500163884e-06 -5.2709323343313542e-09 0 -1.6251011072270175e-06 -3.0003622268928909e-07 0 -2.6246598033084407e-06 5.8807005426190559e-07 0 -1.9410148219358884e-06 5.0244901068194587e-07 0 -4.2198890626557555e-06 5.9459315969934339e-07 0 -3.6848941137575043e-06 5.4131856197674228e-07 0 -4.2198890626557555e-06 5.9459315969934339e-07 0 -1.9410148219358884e-06 5.0244901068194587e-07 0 -3.2539457345747829e-05 1.4043513965137115e-05 0 -2.7285423501107041e-05 1.5827296655563131e-05 0 -3.7911370493051823e-05 2.4331559953322576e-05 0 -8.9649349700047882e-06 2.2108153084355487e-06 0 -1.0877119168226772e-05 3.5707503634081926e-06 0 -8.1040590307243587e-06 4.3471470707303289e-06 0 -7.4962541123605634e-06 2.6717794305248624e-06 0 -8.1735252748043244e-06 1.3187132580524699e-06 0 -5.6828321931739715e-06 6.3715937439601652e-07 0 -2.1150167624896916e-05 5.763725223614664e-06 0 -1.4687234103688271e-05 2.9097334623672806e-06 0 -1.7444745107593143e-05 6.4916618808134632e-06 0 -1.457998030391751e-05 2.7790604916503393e-06 0 -1.2034542792155634e-05 6.2511935686822697e-06 0 -1.0877119168226772e-05 3.5707503634081922e-06 0 -1.4756372458647519e-05 -4.063564966082527e-06 0 -1.6443296698638614e-05 -5.6742237333488906e-06 0 -1.2567388684405965e-05 -2.8227521730892586e-06 0 -1.4807355178774908e-05 -4.6997587081567875e-06 0 -1.2567388684405965e-05 -2.8227521730892586e-06 0 -1.6443296698638614e-05 -5.6742237333488906e-06 0 -5.8789763960005338e-09 4.4461801295863872e-10 0 -4.1836459378918535e-09 -9.7419321962899233e-10 0 -4.9090141691529733e-06 5.1353635927002979e-08 0 -3.3954770246421019e-09 3.5218845018345653e-10 0 -4.5097602724052217e-09 -6.0167635331498463e-10 0 -3.7688356224587777e-06 -7.8219372702021594e-07 0 1.1491325272530159e-05 0.00011207799800135517 0 -2.2239718318009927e-05 0.00011055992800960617 0 -1.6558130904912815e-05 8.1516573426409461e-05 0 -6.3986492505804985e-06 2.863309567658347e-07 0 -9.2482059777284346e-06 -7.9646353448130295e-07 0 -6.7919277797943104e-06 4.4963503121516174e-07 0 -3.0379244846334791e-05 -1.3339772740646762e-05 0 -2.5134114926279041e-05 -1.0530153710268379e-05 0 -2.783461814071026e-05 -1.5724526526944881e-05 0 -4.020068401110824e-05 -4.6835617300772776e-05 0 -4.2400097529534518e-05 -4.4119911988260039e-05 0 -4.3942733884830653e-05 -4.7162026861609704e-05 0 -3.0849459738040703e-05 -1.197651407460215e-05 0 -2.9730653987213456e-05 -1.0967468630935575e-05 0 -2.5103153700262658e-05 -8.867584131882819e-06 0 -4.4564466187814679e-05 1.3440633658906013e-05 0 -3.5785826492709223e-05 8.9565679274077373e-06 0 -4.36462473348716e-05 1.2550083601698457e-05 0 -3.7767949426000302e-05 -3.5833101626493774e-05 0 -3.4697945859072276e-05 -3.5295029432800876e-05 0 -3.7107361675768628e-05 -3.1965702944393113e-05 0 -2.9730653987213456e-05 -1.0967468630935575e-05 0 -2.525262673364535e-05 -8.9025070624036877e-06 0 -2.4076720965155619e-05 -8.0861675163314424e-06 0 -3.1770113411990779e-05 8.6575932189956784e-06 0 -2.8788337679095606e-05 9.2890506510289274e-06 0 -4.0387404787626051e-05 1.3245431859121417e-05 0 -3.1469580233498801e-05 -1.2371651150467551e-05 0 -2.525262673364535e-05 -8.9025070624036877e-06 0 -2.9730653987213456e-05 -1.0967468630935575e-05 0 -1.1145150312424521e-05 -1.8533928455616109e-06 0 -1.3135610481590625e-05 -2.7727918007780394e-06 0 -1.4723565620836722e-05 -3.6346728132071767e-06 0 -1.068009366768972e-05 8.9262304543252964e-07 0 -1.4687234103688271e-05 2.9097334623672806e-06 0 -1.4898050003240025e-05 1.2130680522687096e-06 0 -4.319311571505906e-05 1.9816444533858892e-05 0 -3.2539457345747829e-05 1.4043513965137115e-05 0 -3.7911370493051823e-05 2.4331559953322576e-05 0 -4.3486615699184823e-05 -3.5757158135116543e-05 0 -3.9408055928918607e-05 -3.1595718205799152e-05 0 -4.162033783760997e-05 -3.1344504263884762e-05 0 -3.225511954142363e-05 0.00024232171459660591 0 -2.683461728579952e-05 0.00027410103114068818 0 -5.0983532059357872e-05 0.00027188549106513796 0 -7.4255697957373605e-05 -0.00011917336517529592 0 -7.8971092845564651e-05 -0.00013433569575787042 0 -6.7835355495633965e-05 -0.00013197350141298916 0 -2.9719856599071454e-06 -4.358715448642763e-07 0 -1.8375497116998798e-06 -6.0564148335216622e-07 0 -1.6251011072270175e-06 -3.0003622268928909e-07 0 -3.6848941137575043e-06 5.4131856197674228e-07 0 -1.9410148219358884e-06 5.0244901068194587e-07 0 -2.0783303031512597e-06 4.3860281839061128e-07 0 -2.9383111662255815e-09 -6.2647486646875427e-10 0 -2.5543204241070817e-06 -9.2308376833332948e-07 0 -2.8772990981977308e-06 -9.3804016043178378e-07 0 -2.7578638006530241e-09 2.5716406494565727e-10 0 -2.6610576432114419e-06 2.0193176063948517e-07 0 -2.5953307463905121e-06 3.7512895299930253e-07 0 -3.0379244846334791e-05 -1.3339772740646762e-05 0 -3.4319304863580562e-05 -1.7331451699500144e-05 0 -3.3517285575295275e-05 -1.5757248277446953e-05 0 -3.6397631307742096e-05 -1.9674598323901554e-05 0 -3.3517285575295275e-05 -1.5757248277446953e-05 0 -3.4319304863580562e-05 -1.7331451699500144e-05 0 -6.5428964070743753e-05 0.00012417102274482985 0 -5.8935594988361833e-05 9.0613616607359933e-05 0 -4.4411149477830997e-05 0.00011601374598270912 0 -3.6704466338879357e-05 8.0335569732875971e-05 0 -4.4411149477831004e-05 0.00011601374598270913 0 -5.8935594988361833e-05 9.0613616607359933e-05 0 -1.4199780284686194e-05 1.9328254635847034e-05 0 -1.0178497828713276e-05 1.2945695107810559e-05 0 -8.9361323301648759e-06 2.0710866879804339e-05 0 -3.0379244846334791e-05 -1.3339772740646762e-05 0 -2.6237651844790696e-05 -8.1335800109773893e-06 0 -2.5134114926279041e-05 -1.0530153710268379e-05 0 -4.3972566816470249e-06 8.2029156352929077e-07 0 -3.1799272801069431e-06 4.2421340331265873e-07 0 -4.0483751131297577e-06 9.040767548604777e-07 0 -3.8452963581555784e-05 -2.6881545142962844e-05 0 -3.9408055928918607e-05 -3.1595718205799152e-05 0 -3.5961770239445816e-05 -2.7095632086922124e-05 0 -8.9864096019631582e-05 0.00019623951761759987 0 -0.00010155509229482072 0.00017422561444485428 0 -7.9399114876391809e-05 0.00015679781588670111 0 -4.8114990402475425e-05 -4.1573201091078688e-05 0 -4.7272336771642119e-05 -3.8163993464433427e-05 0 -5.0048814147204676e-05 -4.2573885221970034e-05 0 -3.5986777145252885e-05 -4.0488605308043492e-05 0 -3.7913459074907003e-05 -3.9142917400753399e-05 0 -3.8464609933169377e-05 -4.3735964001253376e-05 0 -9.5560162027121639e-06 -1.1272810424492214e-06 0 -6.3640354051780166e-06 1.1122649484117491e-07 0 -8.9847990246452093e-06 -9.2488935549425374e-07 0 -6.2969051318586099e-05 6.3058802374643769e-05 0 -4.5360692043062836e-05 4.1769615708038048e-05 0 -4.5554733611241915e-05 6.0252672702788546e-05 0 -1.2501197626019593e-05 -5.6832881455437858e-06 0 -1.8324468529734232e-05 -7.4473617021573519e-06 0 -1.1127689010540917e-05 -4.1317654525652069e-06 0 -2.5070076940844123e-05 7.4260958994527692e-06 0 -1.6587966082012405e-05 5.7102581767044012e-06 0 -1.4991436577705158e-05 3.4512865704391286e-06 0 -2.9229506995955598e-05 -2.4254329627235329e-05 0 -2.6154639917024996e-05 -1.8410494510383192e-05 0 -3.0126706649124604e-05 -1.7559772868634857e-05 0 -5.5936040779254017e-06 -2.8544381466294284e-07 0 -9.3038550855480926e-06 -1.2315558872501961e-06 0 -5.5434920049141304e-06 -6.3843589933237804e-09 0 -6.3298285232448325e-06 -9.5309420814000161e-07 0 -5.3808148628968496e-06 -1.0504566713492149e-06 0 -1.0256114263559016e-05 -2.3792818373012314e-07 0 -0.00010916643302399498 7.197170189750925e-05 0 -8.4897346030244372e-05 5.6497323400480662e-05 0 -8.9009347668213528e-05 7.6831450559973117e-05 0 -6.6702482366409009e-05 -4.0625907823454558e-05 0 -5.844533800008443e-05 -4.2824887763645578e-05 0 -5.4977285235457214e-05 -3.3125906951351618e-05 0 -2.8329113741257125e-05 3.8552077033083857e-05 0 -1.432579013090007e-05 2.8572770869912791e-05 0 -2.1599682846334768e-05 5.0946030165305593e-05 0 -3.4780857067997459e-06 3.1209276214217025e-05 0 -2.1599682846334768e-05 5.0946030165305593e-05 0 -1.432579013090007e-05 2.8572770869912791e-05 0 -3.7431024632528189e-05 -4.389153105828083e-05 0 -4.6158313705720906e-05 -4.8278300176274537e-05 0 -4.2199841265186942e-05 -5.5940719168642461e-05 0 -5.0111880258756879e-05 -6.5081702452257626e-05 0 -4.2199841265186942e-05 -5.5940719168642461e-05 0 -4.6158313705720906e-05 -4.8278300176274537e-05 0 -2.5887984325624544e-05 -9.1315594780546537e-06 0 -2.1206774648463163e-05 -1.3663913879418817e-06 0 -2.1620205448798947e-05 2.6576983765810091e-06 0 -4.020068401110824e-05 -4.6835617300772776e-05 0 -4.3942733884830653e-05 -4.7162026861609711e-05 0 -4.1156909921263713e-05 -4.9475331164878299e-05 0 -4.3972566816470249e-06 8.2029156352929077e-07 0 -5.6828321931739715e-06 6.3715937439601652e-07 0 -4.0671529385200274e-06 2.7783581504452524e-08 0 -3.8162043987551182e-05 -2.4552076074135091e-05 0 -4.8155947999115862e-05 -3.2558361060547687e-05 0 -4.162730204767884e-05 -3.1573851253872897e-05 0 -3.742564468322367e-05 -5.2283129508062532e-05 0 -3.7209890517443527e-05 -4.9105744473924827e-05 0 -3.9001745184811109e-05 -4.9756036307379571e-05 0 -8.9837851133154692e-05 0.0001051277757536489 0 -0.00010816241266392522 0.00010568464974960999 0 -8.9009347668213528e-05 7.6831450559973117e-05 0 -0.00011765955860362213 0.00027617926430080578 0 -9.0953427531319586e-05 0.00025121636121714584 0 -9.0640921985191196e-05 0.00027849190928150986 0 -4.0991411922164511e-05 -0.00013107020722833004 0 -4.9754482028057902e-05 -0.00012098113342054435 0 -5.1706206214694351e-05 -0.00013365055611498029 0 -1.1822437844670369e-05 -1.9009866665440334e-06 0 -1.1267692550359187e-05 -5.5107881795983786e-07 0 -9.1954416868736136e-06 -2.9202716635290674e-07 0 -3.6397631307742096e-05 -1.9674598323901554e-05 0 -3.4319304863580562e-05 -1.7331451699500144e-05 0 -3.8665143435835356e-05 -2.2262564168812661e-05 0 -5.5293433460666217e-06 1.6196674043706377e-06 0 -6.9688422401166136e-06 2.7503573193390582e-06 0 -5.9685482633296161e-06 2.5936920115839879e-06 0 -7.0468171232692934e-06 4.0965943244994437e-06 0 -5.9685482633296161e-06 2.5936920115839879e-06 0 -6.9688422401166136e-06 2.7503573193390582e-06 0 -2.1150167624896916e-05 5.763725223614664e-06 0 -2.8788337679095606e-05 9.2890506510289274e-06 0 -2.4942084507738856e-05 5.4033825967488794e-06 0 -5.0111880258756879e-05 -6.5081702452257626e-05 0 -5.841771304103976e-05 -7.436208316872209e-05 0 -5.3939782585063193e-05 -8.281177771206489e-05 0 -2.692023837004755e-05 5.2861637166546535e-06 0 -2.1483415732484297e-05 3.1711607571489495e-06 0 -3.2374686728179095e-05 7.5269275601051582e-06 0 -4.0462443615206716e-05 0.00019446453765247201 0 -6.6177035744716391e-05 0.00022372177594307495 0 -7.0147063841652062e-05 0.00019797958281962533 0 -4.0462443615206716e-05 0.00019446453765247201 0 -7.0147063841652062e-05 0.00019797958281962533 0 -6.3707926116290866e-05 0.00017075720158793442 0 -8.9864096019631582e-05 0.00019623951761759987 0 -6.3707926116290852e-05 0.00017075720158793442 0 -7.0147063841652062e-05 0.00019797958281962533 0 -6.461852674533341e-05 -9.5997828733979169e-05 0 -5.7892240090690554e-05 -0.00010932870943730997 0 -5.23049197448379e-05 -9.5323107768372888e-05 0 -6.461852674533341e-05 -9.5997828733979169e-05 0 -5.23049197448379e-05 -9.5323107768372888e-05 0 -5.3939782585063193e-05 -8.281177771206489e-05 0 -1.0178497828713276e-05 1.2945695107810559e-05 0 -9.4838765196489806e-06 1.4661003449360928e-05 0 -8.9361323301648759e-06 2.0710866879804339e-05 0 -1.9624258809737339e-09 -3.3747891116630973e-10 0 -1.5810093031843212e-09 -4.575209606631158e-13 0 -1.6251011072270175e-06 -3.0003622268928909e-07 0 -1.8244047083013851e-09 2.0872190992517803e-10 0 -2.111407380463103e-09 2.795498708542342e-10 0 -1.9410148219358884e-06 5.0244901068194587e-07 0 -9.2482059777284346e-06 -7.9646353448130295e-07 0 -9.1954416868736136e-06 -2.9202716635290685e-07 0 -6.7919277797943104e-06 4.4963503121516174e-07 0 -2.4761736768691587e-05 -2.277222311559924e-05 0 -2.4610436371112842e-05 -1.9744952261434056e-05 0 -2.8466967017696683e-05 -2.7398666041963018e-05 0 -2.1483415732484297e-05 3.1711607571489495e-06 0 -2.4942084507738856e-05 5.4033825967488785e-06 0 -3.2374686728179095e-05 7.5269275601051582e-06 0 -1.567762596997396e-09 1.6065623987578869e-10 0 -2.0440164340693224e-06 4.2660865722391314e-07 0 -1.3123729634693435e-06 1.3588264070539622e-07 0 -2.5070076940844123e-05 7.4260958994527692e-06 0 -2.0762183558653512e-05 3.9927298006081913e-06 0 -2.8753143987692508e-05 6.8522867660487401e-06 0 -1.8324468529734232e-05 -7.4473617021573519e-06 0 -2.0639152507457038e-05 -7.2814413620578839e-06 0 -1.5287500205248713e-05 -5.0047603464520842e-06 0 -6.0071826109503505e-05 -5.4537266136421789e-05 0 -5.844533800008443e-05 -4.2824887763645578e-05 0 -6.8195453047126622e-05 -5.5350061764037797e-05 0 -3.5593477353885306e-06 6.8805904376033161e-07 0 -2.6246598033084407e-06 5.8807005426190559e-07 0 -4.7557922094105555e-06 6.7043855685726867e-07 0 -4.3486615699184823e-05 -3.5757158135116543e-05 0 -4.7272336771642119e-05 -3.8163993464433427e-05 0 -4.5353526425831757e-05 -3.9125595843315919e-05 0 -1.457998030391751e-05 2.7790604916503393e-06 0 -1.0877119168226772e-05 3.5707503634081922e-06 0 -1.3348225919035202e-05 1.0831164019552433e-06 0 -2.814194260014176e-05 0.00014417346533362847 0 -5.3686243125935868e-05 0.00014667475912475436 0 -4.4411149477830997e-05 0.00011601374598270912 0 -4.3972566816470249e-06 8.2029156352929077e-07 0 -3.0458475500163884e-06 -5.2709323343313542e-09 0 -3.1799272801069431e-06 4.2421340331265873e-07 0 -0.00010165168797967695 0.00030697939241393308 0 -9.0640921985191196e-05 0.00027849190928150986 0 -7.1564283537789907e-05 0.00029307419838686097 0 -4.883040225426476e-05 -0.00014693782068854027 0 -5.1706206214694351e-05 -0.00013365055611498029 0 -6.0069316662731603e-05 -0.00014116277983270553 0 -2.6246598033084407e-06 5.8807005426190559e-07 0 -4.2198890626557555e-06 5.9459315969934339e-07 0 -4.7557922094105555e-06 6.7043855685726867e-07 0 -1.457998030391751e-05 2.7790604916503393e-06 0 -1.6872342632959538e-05 -1.0424449933524017e-06 0 -1.9655808371844466e-05 -3.3745915152727081e-07 0 -4.6468337948414847e-05 0.00030492171542877719 0 -5.1638865406462389e-05 0.00033346071045391499 0 -7.4046285918210822e-05 0.00032522873531753971 0 -0.00010165168797967695 0.00030697939241393308 0 -7.4046285918210822e-05 0.00032522873531753966 0 -9.7644557635914199e-05 0.00033479312429890619 0 -7.1424037687766888e-05 -0.00014724285197694717 0 -6.9807176271456163e-05 -0.00015992832242688417 0 -6.0032337660051711e-05 -0.00015584876351768201 0 -4.883040225426476e-05 -0.00014693782068854027 0 -6.0032337660051711e-05 -0.00015584876351768201 0 -5.1085516227508545e-05 -0.00015955681380230816 0 -3.7911370493051823e-05 2.4331559953322576e-05 0 -5.4859621140794341e-05 3.9491357409607456e-05 0 -5.2934879409244703e-05 2.9048271555823086e-05 0 -4.703496671925472e-05 -3.7622131840772146e-05 0 -5.844533800008443e-05 -4.2824887763645578e-05 0 -5.271886526797733e-05 -4.7116455247833199e-05 0 -6.0071826109503505e-05 -5.4537266136421789e-05 0 -5.271886526797733e-05 -4.7116455247833199e-05 0 -5.844533800008443e-05 -4.2824887763645578e-05 0 -8.9837851133154692e-05 0.0001051277757536489 0 -8.9009347668213528e-05 7.6831450559973117e-05 0 -7.4129040637620664e-05 8.7593042163949347e-05 0 -6.2969051318586099e-05 6.3058802374643769e-05 0 -7.4129040637620664e-05 8.7593042163949347e-05 0 -8.9009347668213528e-05 7.6831450559973117e-05 0 -3.6848941137575043e-06 5.4131856197674228e-07 0 -4.5250955428951379e-06 3.5775222857643797e-07 0 -6.3640354051780166e-06 1.1122649484117489e-07 0 8.3966778695031449e-06 7.8471246089416221e-05 0 1.1491325272530159e-05 0.00011207799800135517 0 -1.6558130904912815e-05 8.1516573426409461e-05 0 -6.3298285232448325e-06 -9.5309420814000161e-07 0 -9.7919923812907007e-06 -3.576902922565554e-07 0 -6.3783190901000007e-06 -5.1989054204352223e-07 0 -5.5936040779254017e-06 -2.8544381466294284e-07 0 -5.1205779942834377e-06 -6.2287892538089673e-07 0 -8.0983859402411635e-06 -1.1632786974143379e-06 0 -3.0379244846334791e-05 -1.3339772740646762e-05 0 -2.9557903260663092e-05 -1.0648657130252474e-05 0 -2.6237651844790696e-05 -8.1335800109773893e-06 0 -9.3038550855480926e-06 -1.2315558872501961e-06 0 -8.6127191527396526e-06 -8.6116154688511646e-07 0 -5.5434920049141304e-06 -6.3843589933237804e-09 0 -1.0256114263559016e-05 -2.3792818373012314e-07 0 -5.3808148628968496e-06 -1.0504566713492149e-06 0 -8.414175394468561e-06 -1.3267403214001409e-07 0 -3.1770113411990779e-05 8.6575932189956784e-06 0 -4.0387404787626051e-05 1.3245431859121417e-05 0 -3.2374686728179095e-05 7.5269275601051582e-06 0 -4.36462473348716e-05 1.2550083601698457e-05 0 -3.2374686728179095e-05 7.5269275601051582e-06 0 -4.0387404787626051e-05 1.3245431859121417e-05 0 -4.6468337948414847e-05 0.00030492171542877719 0 -5.0983532059357872e-05 0.00027188549106513796 0 -2.683461728579952e-05 0.00027410103114068818 0 -7.1424037687766888e-05 -0.00014724285197694717 0 -6.7835355495633965e-05 -0.00013197350141298916 0 -7.8971092845564651e-05 -0.00013433569575787039 0 -3.742564468322367e-05 -5.2283129508062532e-05 0 -3.6573684820685704e-05 -5.1172392513874841e-05 0 -3.6107485148898009e-05 -5.0134018554904715e-05 0 -4.7746976983681679e-05 -5.1388302423330319e-05 0 -4.3210570305153493e-05 -5.1503418659789526e-05 0 -4.7713882729867652e-05 -4.8040167153796197e-05 0 -1.8007485473029058e-05 -6.096106890745623e-06 0 -1.4756372458647519e-05 -4.063564966082527e-06 0 -1.4723565620836722e-05 -3.6346728132071767e-06 0 -5.2408623250185223e-05 -4.6501380111542489e-05 0 -5.0911907290755662e-05 -4.5074705826495574e-05 0 -5.0048814147204676e-05 -4.2573885221970034e-05 0 -2.7054079749210127e-05 -3.2705515653512097e-05 0 -2.8176908656269011e-05 -3.4880247624218153e-05 0 -3.155438840118827e-05 -4.0614447597561413e-05 0 -3.5768298268682973e-05 -4.3943710988871343e-05 0 -3.3778174092070134e-05 -4.3120193421510342e-05 0 -3.3001272279150742e-05 -3.8992060349501318e-05 0 -4.5757854385094448e-05 -2.6244774620008133e-05 0 -4.8155947999115862e-05 -3.2558361060547687e-05 0 -3.8162043987551182e-05 -2.4552076074135091e-05 0 -4.3210570305153493e-05 -5.1503418659789526e-05 0 -4.1156909921263713e-05 -4.9475331164878299e-05 0 -4.3942733884830653e-05 -4.7162026861609704e-05 0 -5.2180602902759738e-05 2.1881013139241579e-05 0 -4.0387404787626051e-05 1.3245431859121417e-05 0 -4.319311571505906e-05 1.9816444533858892e-05 0 -1.1267692550359187e-05 -5.5107881795983797e-07 0 -8.988315998502763e-06 7.3940186762488623e-07 0 -9.1954416868736136e-06 -2.9202716635290674e-07 0 -4.703496671925472e-05 -3.7622131840772146e-05 0 -4.6158313705720906e-05 -4.8278300176274537e-05 0 -4.0355932783487734e-05 -3.6869640289190221e-05 0 -3.7431024632528189e-05 -4.389153105828083e-05 0 -4.0355932783487734e-05 -3.6869640289190221e-05 0 -4.6158313705720906e-05 -4.8278300176274537e-05 0 -1.910882041640817e-05 -6.1551284000916755e-06 0 -1.8007485473029058e-05 -6.096106890745623e-06 0 -1.4723565620836722e-05 -3.6346728132071767e-06 0 -4.703496671925472e-05 -3.7622131840772146e-05 0 -4.162730204767884e-05 -3.1573851253872897e-05 0 -4.8155947999115862e-05 -3.2558361060547687e-05 0 -1.6391180684225207e-05 -4.3412795794947994e-06 0 -1.910882041640817e-05 -6.1551284000916755e-06 0 -1.4723565620836722e-05 -3.6346728132071767e-06 0 -1.068009366768972e-05 8.9262304543252964e-07 0 -1.0236978452829809e-05 2.6806015217721854e-06 0 -1.4687234103688271e-05 2.9097334623672806e-06 0 -4.703496671925472e-05 -3.7622131840772146e-05 0 -4.8155947999115862e-05 -3.2558361060547687e-05 0 -5.844533800008443e-05 -4.2824887763645578e-05 0 -6.2969051318586099e-05 6.3058802374643769e-05 0 -8.9009347668213528e-05 7.6831450559973117e-05 0 -7.1315485105108743e-05 5.466190917552455e-05 0 -4.1836459378918535e-09 -9.7419321962899233e-10 0 -3.0947567001240633e-06 -7.1539206464694489e-07 0 -6.3783190901000007e-06 -5.1989054204352223e-07 0 -3.3954770246421019e-09 3.5218845018345653e-10 0 -5.1205779942834377e-06 -6.2287892538089673e-07 0 -2.6342547745367707e-06 -2.5838272450758122e-08 0 -1.6391180684225207e-05 -4.3412795794947994e-06 0 -1.4723565620836722e-05 -3.6346728132071767e-06 0 -1.3135610481590625e-05 -2.7727918007780394e-06 0 -1.8474711224062462e-05 3.2421737736061022e-06 0 -1.4898050003240025e-05 1.2130680522687096e-06 0 -1.4687234103688271e-05 2.9097334623672806e-06 0 -6.1442411954473351e-06 -5.8699941650469309e-07 0 -4.2968347310926239e-06 -7.1777781093446073e-07 0 -6.8211685035563463e-06 1.4180358574763167e-07 0 -2.8466967017696683e-05 -2.7398666041963018e-05 0 -3.4449895051257342e-05 -3.2667057472036174e-05 0 -2.9745261445318876e-05 -3.885091926663455e-05 0 -4.3972566816470249e-06 8.2029156352929077e-07 0 -4.0483751131297569e-06 9.0407675486047781e-07 0 -4.9135336339848935e-06 1.4678875168851126e-06 0 -0.00010165168797967695 0.00030697939241393308 0 -0.00011765955860362213 0.00027617926430080578 0 -9.0640921985191196e-05 0.00027849190928150986 0 -4.883040225426476e-05 -0.00014693782068854027 0 -4.0991411922164511e-05 -0.00013107020722833004 0 -5.1706206214694351e-05 -0.00013365055611498029 0 -1.1145150312424521e-05 -1.8533928455616109e-06 0 -9.3038550855480926e-06 -1.2315558872501961e-06 0 -1.3135610481590625e-05 -2.7727918007780394e-06 0 -1.068009366768972e-05 8.9262304543252964e-07 0 -1.4898050003240025e-05 1.2130680522687096e-06 0 -1.0256114263559016e-05 -2.3792818373012314e-07 0 -3.4499688501256343e-06 7.103650612880632e-07 0 -4.9943780619969026e-06 8.2826244449261753e-07 0 -4.7527204607311177e-06 1.0544371351065423e-06 0 -3.4449895051257342e-05 -3.2667057472036174e-05 0 -3.7431024632528189e-05 -4.389153105828083e-05 0 -2.9745261445318876e-05 -3.885091926663455e-05 0 -0.00015070651266659157 0.00021426630346049971 0 -0.00014659861077259061 0.00018305688251069941 0 -0.00011949334694104282 0.00019736947891317854 0 -2.0167078921658053e-05 -8.2684112610629558e-05 0 -3.3194588561510957e-05 -9.2497355149156657e-05 0 -2.1705639204766896e-05 -9.714676844490399e-05 0 -6.461852674533341e-05 -9.5997828733979169e-05 0 -5.3939782585063193e-05 -8.2811777712064877e-05 0 -6.3074175471791746e-05 -8.3555083668243078e-05 0 -2.1251707623376382e-05 -5.1550852689292556e-06 0 -2.5134114926279041e-05 -1.0530153710268378e-05 0 -2.6237651844790696e-05 -8.1335800109773893e-06 0 -2.692023837004755e-05 5.2861637166546535e-06 0 -2.0762183558653509e-05 3.9927298006081904e-06 0 -1.984853034480408e-05 2.7850208792777053e-06 0 -1.9784532234198502e-05 -6.1842384708813031e-06 0 -1.508246514495971e-05 -4.2012968124192828e-06 0 -1.5287500205248713e-05 -5.0047603464520842e-06 0 -1.0660842337187807e-05 8.4270402640198294e-06 0 -1.0002379109249446e-05 4.8958510810867259e-06 0 -7.9412265966232915e-06 5.4724882304513716e-06 0 -3.4499688501256343e-06 7.103650612880632e-07 0 -3.5593477353885306e-06 6.8805904376033161e-07 0 -4.9943780619969026e-06 8.2826244449261743e-07 0 -3.6397631307742096e-05 -1.9674598323901554e-05 0 -4.0178829239956182e-05 -2.5195236463719396e-05 0 -3.6985951901262606e-05 -2.1960400222193246e-05 0 -2.692023837004755e-05 5.2861637166546535e-06 0 -2.8753143987692508e-05 6.8522867660487401e-06 0 -2.0762183558653512e-05 3.9927298006081913e-06 0 -1.9784532234198502e-05 -6.1842384708813031e-06 0 -1.5287500205248713e-05 -5.0047603464520842e-06 0 -2.0639152507457041e-05 -7.2814413620578847e-06 0 -1.457998030391751e-05 2.7790604916503393e-06 0 -1.3348225919035202e-05 1.0831164019552433e-06 0 -1.6872342632959538e-05 -1.0424449933524017e-06 0 -5.8321886537343299e-05 -0.00012582033162118379 0 -5.7892240090690554e-05 -0.00010932870943730997 0 -6.4896576748518352e-05 -0.00011844340686815304 0 -7.1515988134248886e-05 0.00026041662269854385 0 -6.6177035744716391e-05 0.00022372177594307495 0 -5.3306515435930659e-05 0.0002429450888142167 0 -4.5757854385094448e-05 -2.6244774620008133e-05 0 -3.8162043987551182e-05 -2.4552076074135091e-05 0 -3.7781225195232385e-05 -1.9790949026019627e-05 0 -3.143759683820263e-05 -1.7608625670296275e-05 0 -3.7781225195232385e-05 -1.9790949026019627e-05 0 -3.8162043987551182e-05 -2.4552076074135091e-05 0 -1.8706244406010065e-05 -9.0691303949927405e-06 0 -2.1385208019504589e-05 -1.184575474398505e-05 0 -2.1728499019549715e-05 -1.3867472710906712e-05 0 -2.4913088940455163e-05 -1.6949530289672423e-05 0 -2.1728499019549715e-05 -1.3867472710906712e-05 0 -2.1385208019504589e-05 -1.184575474398505e-05 0 -2.5543204241070817e-06 -9.2308376833332948e-07 0 -4.2968347310926239e-06 -7.1777781093446073e-07 0 -5.3808148628968496e-06 -1.0504566713492149e-06 0 -6.1442411954473351e-06 -5.8699941650469309e-07 0 -5.3808148628968496e-06 -1.0504566713492149e-06 0 -4.2968347310926239e-06 -7.1777781093446073e-07 0 -6.7697211433408129e-06 -2.0345341713361462e-07 0 -4.5250955428951379e-06 3.5775222857643797e-07 0 -5.5434920049141304e-06 -6.3843589933237804e-09 0 -2.5953307463905121e-06 3.7512895299930253e-07 0 -5.5434920049141304e-06 -6.3843589933237804e-09 0 -4.5250955428951379e-06 3.5775222857643797e-07 0 -4.3486615699184823e-05 -3.5757158135116543e-05 0 -4.2977076624410341e-05 -3.9262793294258874e-05 0 -4.0512027391317507e-05 -3.588122498357307e-05 0 -2.1251707623376382e-05 -5.1550852689292556e-06 0 -1.9655808371844466e-05 -3.3745915152727081e-07 0 -1.6872342632959538e-05 -1.0424449933524017e-06 0 -7.0468171232692934e-06 4.0965943244994437e-06 0 -6.8606120788803002e-06 3.6858112274733742e-06 0 -5.9685482633296161e-06 2.5936920115839879e-06 0 -4.0462443615206716e-05 0.00019446453765247201 0 -4.2594711872783851e-05 0.00022377868576527315 0 -6.6177035744716391e-05 0.00022372177594307495 0 -6.461852674533341e-05 -9.5997828733979169e-05 0 -6.7842953878896462e-05 -0.00010919607438137358 0 -5.7892240090690554e-05 -0.00010932870943730997 0 -4.0462443615206716e-05 0.00019446453765247201 0 -6.3707926116290866e-05 0.00017075720158793442 0 -4.1054527884413499e-05 0.00016562799236181512 0 -1.0660842337187807e-05 8.4270402640198294e-06 0 -1.39665838211908e-05 7.6638840488906799e-06 0 -1.0002379109249444e-05 4.8958510810867259e-06 0 -1.0660842337187807e-05 8.4270402640198294e-06 0 -1.4519844394418598e-05 1.3017533492843576e-05 0 -1.39665838211908e-05 7.6638840488906799e-06 0 -6.5428964070743753e-05 0.00012417102274482985 0 -5.3686243125935861e-05 0.00014667475912475439 0 -7.9399114876391809e-05 0.00015679781588670111 0 -6.3707926116290866e-05 0.00017075720158793442 0 -7.9399114876391809e-05 0.00015679781588670111 0 -5.3686243125935861e-05 0.00014667475912475439 0 -1.0138094415959719e-05 9.8909572804854954e-07 0 -6.3783190901000015e-06 -5.1989054204352213e-07 0 -1.1320488083773857e-05 3.3106752334634989e-07 0 -7.7027362105404746e-06 -2.0563386874510984e-06 0 -8.900381894401952e-06 -1.7924632285923894e-06 0 -5.1205779942834377e-06 -6.2287892538089673e-07 0 -3.7431024632528189e-05 -4.389153105828083e-05 0 -4.2199841265186942e-05 -5.5940719168642461e-05 0 -3.3422600768176424e-05 -5.5518929861327876e-05 0 -5.2408623250185223e-05 -4.6501380111542489e-05 0 -5.3580342889507226e-05 -4.9607712623616849e-05 0 -5.0911907290755662e-05 -4.5074705826495581e-05 0 -2.7054079749210127e-05 -3.2705515653512097e-05 0 -3.155438840118827e-05 -4.0614447597561413e-05 0 -2.963736046766508e-05 -3.6305513198278367e-05 0 -1.4056206635724526e-05 -1.2703064856087472e-06 0 -1.6872342632959538e-05 -1.0424449933524017e-06 0 -1.3348225919035202e-05 1.0831164019552433e-06 0 -7.0468171232692934e-06 4.0965943244994437e-06 0 -8.2683856656408138e-06 6.7951664703257438e-06 0 -7.9412265966232915e-06 5.4724882304513716e-06 0 -4.020068401110824e-05 -4.6835617300772776e-05 0 -3.8464609933169377e-05 -4.3735964001253376e-05 0 -4.2400097529534518e-05 -4.4119911988260039e-05 0 -4.0236591386551687e-05 -4.1639622972931405e-05 0 -4.2400097529534518e-05 -4.4119911988260039e-05 0 -3.8464609933169377e-05 -4.3735964001253376e-05 0 -3.4294046239408597e-05 -2.9387758883148794e-05 0 -3.4697945859072276e-05 -3.5295029432800876e-05 0 -3.0244753212867013e-05 -2.9424587610374643e-05 0 -0.00010165168797967695 0.00030697939241393308 0 -0.00012858762814765389 0.00030405719806030822 0 -0.00011765955860362213 0.00027617926430080578 0 -4.883040225426476e-05 -0.00014693782068854027 0 -3.8678471542024602e-05 -0.0001436069972827814 0 -4.0991411922164511e-05 -0.00013107020722833004 0 -4.9843997864119022e-05 -4.611618951932656e-05 0 -5.2618367556904668e-05 -4.9282159471634066e-05 0 -4.7713882729867652e-05 -4.8040167153796197e-05 0 -3.4390183421777246e-05 -4.6054334152604014e-05 0 -3.6107485148898009e-05 -5.0134018554904715e-05 0 -3.4790044447337823e-05 -4.6523877878328572e-05 0 -4.6468337948414847e-05 0.00030492171542877719 0 -7.1564283537789907e-05 0.00029307419838686097 0 -5.0983532059357872e-05 0.00027188549106513796 0 -7.1424037687766888e-05 -0.00014724285197694717 0 -6.0069316662731603e-05 -0.00014116277983270553 0 -6.7835355495633965e-05 -0.00013197350141298916 0 -3.4499688501256343e-06 7.103650612880632e-07 0 -4.7527204607311177e-06 1.0544371351065423e-06 0 -4.0483751131297577e-06 9.040767548604777e-07 0 -5.5293433460666217e-06 1.6196674043706377e-06 0 -4.0483751131297577e-06 9.040767548604777e-07 0 -4.7527204607311177e-06 1.0544371351065423e-06 0 -3.225511954142363e-05 0.00024232171459660591 0 -5.0983532059357872e-05 0.00027188549106513796 0 -5.3306515435930659e-05 0.0002429450888142167 0 -7.4255697957373605e-05 -0.00011917336517529592 0 -6.7835355495633965e-05 -0.00013197350141298916 0 -6.4896576748518352e-05 -0.00011844340686815304 0 -6.3298285232448325e-06 -9.5309420814000161e-07 0 -6.3783190901000007e-06 -5.1989054204352213e-07 0 -3.0947567001240633e-06 -7.1539206464694489e-07 0 -5.5936040779254017e-06 -2.8544381466294284e-07 0 -2.6342547745367707e-06 -2.5838272450758122e-08 0 -5.1205779942834377e-06 -6.2287892538089673e-07 0 -3.6704466338879357e-05 8.0335569732875971e-05 0 -2.2239718318009927e-05 0.00011055992800960617 0 -4.4411149477830997e-05 0.00011601374598270912 0 -1.0138094415959719e-05 9.8909572804854954e-07 0 -4.9090141691529733e-06 5.1353635927002979e-08 0 -6.3783190901000007e-06 -5.1989054204352223e-07 0 -7.7027362105404746e-06 -2.0563386874510984e-06 0 -5.1205779942834377e-06 -6.2287892538089673e-07 0 -3.7688356224587777e-06 -7.8219372702021594e-07 0 -0.00015415758936643731 0.00027548650687374103 0 -0.00013211575147992481 0.00025394595950019376 0 -0.00011765955860362213 0.00027617926430080578 0 -2.6115151616293505e-05 -0.00012637346681658253 0 -3.332359596647984e-05 -0.00011875341033445024 0 -4.0991411922164511e-05 -0.00013107020722833004 0 -2.8329113741257125e-05 3.8552077033083857e-05 0 -4.5360692043062836e-05 4.1769615708038048e-05 0 -3.0793714115136302e-05 2.8984624345334715e-05 0 -3.7911370493051823e-05 2.4331559953322576e-05 0 -3.0793714115136302e-05 2.8984624345334715e-05 0 -4.5360692043062836e-05 4.1769615708038048e-05 0 -5.0111880258756879e-05 -6.5081702452257626e-05 0 -4.6158313705720906e-05 -4.8278300176274537e-05 0 -5.3615870721912162e-05 -5.5545334019345072e-05 0 -2.5887984325624544e-05 -9.1315594780546537e-06 0 -2.6154639917024996e-05 -1.8410494510383192e-05 0 -2.198958088612061e-05 -1.2698956864000753e-05 0 -6.5428964070743753e-05 0.00012417102274482985 0 -7.497856731101262e-05 0.00010684574960153801 0 -5.8935594988361833e-05 9.0613616607359933e-05 0 -6.2969051318586099e-05 6.3058802374643769e-05 0 -5.8935594988361833e-05 9.0613616607359933e-05 0 -7.4129040637620664e-05 8.7593042163949347e-05 0 -4.703496671925472e-05 -3.7622131840772146e-05 0 -5.271886526797733e-05 -4.7116455247833199e-05 0 -4.6158313705720906e-05 -4.8278300176274537e-05 0 -3.7431024632528189e-05 -4.389153105828083e-05 0 -3.3422600768176424e-05 -5.5518929861327876e-05 0 -2.9745261445318876e-05 -3.885091926663455e-05 0 -4.8114990402475425e-05 -4.1573201091078688e-05 0 -5.0048814147204676e-05 -4.2573885221970034e-05 0 -5.0911907290755662e-05 -4.5074705826495581e-05 0 -3.1413593949262724e-05 -3.9129892680710572e-05 0 -3.155438840118827e-05 -4.0614447597561413e-05 0 -2.8176908656269011e-05 -3.4880247624218153e-05 0 -2.472315535563436e-05 -4.2852836060843496e-06 0 -2.9557903260663092e-05 -1.0648657130252474e-05 0 -2.7242724525052019e-05 -7.2133998505075543e-06 0 -3.0379244846334791e-05 -1.3339772740646762e-05 0 -3.3517285575295275e-05 -1.5757248277446953e-05 0 -2.9557903260663092e-05 -1.0648657130252474e-05 0 -1.3219624807933309e-05 8.9707370451197713e-06 0 -1.2034542792155634e-05 6.2511935686822697e-06 0 -1.6697355979601997e-05 4.5856079558742269e-06 0 -2.8466967017696683e-05 -2.7398666041963018e-05 0 -2.4610436371112842e-05 -1.9744952261434056e-05 0 -2.9120534339641011e-05 -2.3350569948887275e-05 0 -4.6468337948414847e-05 0.00030492171542877719 0 -2.683461728579952e-05 0.00027410103114068818 0 -2.1169900727070129e-05 0.00029956375523355953 0 -7.1424037687766888e-05 -0.00014724285197694717 0 -7.8971092845564651e-05 -0.00013433569575787039 0 -8.3155798262395407e-05 -0.00014647548103533407 0 -1.457998030391751e-05 2.7790604916503393e-06 0 -1.6697355979601997e-05 4.5856079558742269e-06 0 -1.2034542792155634e-05 6.2511935686822697e-06 0 -2.5626453571127927e-05 -2.7419980249832365e-05 0 -3.0244753212867013e-05 -2.9424587610374643e-05 0 -2.7727941164574749e-05 -3.1287532523376199e-05 0 -4.0236591386551687e-05 -4.1639622972931405e-05 0 -3.8464609933169377e-05 -4.3735964001253376e-05 0 -3.7913459074907003e-05 -3.9142917400753399e-05 0 -9.5195764321706487e-06 5.994493975972015e-06 0 -1.0877119168226772e-05 3.5707503634081922e-06 0 -1.2034542792155634e-05 6.2511935686822697e-06 0 -2.9719856599071454e-06 -4.358715448642763e-07 0 -4.0671529385200274e-06 2.7783581504452531e-08 0 -4.2968347310926239e-06 -7.1777781093446073e-07 0 -7.9556052062653148e-05 -6.3267552860049979e-05 0 -8.4581046836259719e-05 -7.6490899633848002e-05 0 -7.0213184120651587e-05 -6.6759840259584787e-05 0 -1.068009366768972e-05 8.9262304543252964e-07 0 -8.414175394468561e-06 -1.3267403214001409e-07 0 -6.8211685035563463e-06 1.4180358574763167e-07 0 -5.9685482633296161e-06 2.5936920115839879e-06 0 -6.8606120788803002e-06 3.6858112274733742e-06 0 -5.6309690336072334e-06 1.8613077493766943e-06 0 -1.457998030391751e-05 2.7790604916503393e-06 0 -1.9655808371844466e-05 -3.3745915152727081e-07 0 -1.6697355979601997e-05 4.5856079558742269e-06 0 -0.00014037175995998578 0.00015207176609232945 0 -0.00013207150710613146 0.00012273544773685802 0 -0.00011003538543512773 0.00013214411323259753 0 -2.6246598033084407e-06 5.8807005426190559e-07 0 -2.0440164340693224e-06 4.2660865722391314e-07 0 -1.0733065321094783e-06 2.9026075491686683e-07 0 -7.4962541123605634e-06 2.6717794305248624e-06 0 -7.9412265966232915e-06 5.4724882304513716e-06 0 -1.0002379109249444e-05 4.8958510810867259e-06 0 -3.8452963581555784e-05 -2.6881545142962844e-05 0 -4.0280625382618128e-05 -2.7054648349849149e-05 0 -4.162033783760997e-05 -3.1344504263884762e-05 0 -6.461852674533341e-05 -9.5997828733979169e-05 0 -7.3949494473614093e-05 -8.9668141090231088e-05 0 -7.7531751394695393e-05 -0.00010499640430093021 0 -1.068009366768972e-05 8.9262304543252964e-07 0 -6.8211685035563463e-06 1.4180358574763167e-07 0 -8.1735252748043244e-06 1.3187132580524697e-06 0 -3.4499688501256343e-06 7.103650612880632e-07 0 -2.4305155520912627e-06 3.5025202390723109e-07 0 -2.0440164340693224e-06 4.2660865722391314e-07 0 -1.2904989297033595e-05 4.6091282911075612e-06 0 -1.0002379109249444e-05 4.8958510810867259e-06 0 -1.39665838211908e-05 7.6638840488906799e-06 0 -4.0178829239956182e-05 -2.5195236463719396e-05 0 -4.0280625382618128e-05 -2.7054648349849149e-05 0 -3.6985951901262606e-05 -2.1960400222193246e-05 0 -4.8114990402475425e-05 -4.1573201091078688e-05 0 -4.7718782245627912e-05 -4.3156787927289513e-05 0 -4.5353526425831757e-05 -3.9125595843315919e-05 0 -3.1770113411990779e-05 8.6575932189956784e-06 0 -2.4942084507738856e-05 5.4033825967488794e-06 0 -2.8788337679095606e-05 9.2890506510289274e-06 0 5.8432692161165676e-06 0.00026416018473967835 0 -2.683461728579952e-05 0.00027410103114068818 0 -1.2162006698487252e-05 0.00024976197558577578 0 -9.4159057596647196e-05 -0.00013323490197383539 0 -7.8971092845564651e-05 -0.00013433569575787039 0 -8.4266284020079505e-05 -0.00012427056831425785 0 -4.9135336339848935e-06 1.4678875168851126e-06 0 -5.6309690336072334e-06 1.8613077493766943e-06 0 -4.3972566816470249e-06 8.2029156352929077e-07 0 -5.9685482633296161e-06 2.5936920115839879e-06 0 -5.6309690336072334e-06 1.8613077493766943e-06 0 -4.9135336339848935e-06 1.4678875168851126e-06 0 -0.00011096625572956823 0.00024242051916055805 0 -0.00011765955860362213 0.00027617926430080578 0 -0.00013211575147992481 0.00025394595950019376 0 -4.0978971028684936e-05 -0.00011503746689719827 0 -4.0991411922164511e-05 -0.00013107020722833004 0 -3.332359596647984e-05 -0.00011875341033445024 0 -5.5293433460666217e-06 1.6196674043706377e-06 0 -7.429636243621127e-06 1.5435627249564548e-06 0 -6.9688422401166136e-06 2.7503573193390582e-06 0 -8.9649349700047882e-06 2.2108153084355487e-06 0 -6.9688422401166136e-06 2.7503573193390582e-06 0 -7.429636243621127e-06 1.5435627249564548e-06 0 -5.5293433460666217e-06 1.6196674043706377e-06 0 -4.9135336339848935e-06 1.4678875168851126e-06 0 -4.0483751131297577e-06 9.040767548604777e-07 0 -1.9784532234198502e-05 -6.1842384708813031e-06 0 -2.025673286516961e-05 -6.1761928820523929e-06 0 -1.5672346048076426e-05 -4.0527305229049951e-06 0 -2.108489851584627e-05 -9.5651682494601818e-06 0 -2.5600902186951799e-05 -1.4574247938854252e-05 0 -2.1385208019504589e-05 -1.184575474398505e-05 0 -2.4913088940455163e-05 -1.6949530289672423e-05 0 -2.1385208019504589e-05 -1.1845754743985052e-05 0 -2.5600902186951799e-05 -1.4574247938854252e-05 0 -1.9784532234198502e-05 -6.1842384708813031e-06 0 -1.5672346048076426e-05 -4.0527305229049951e-06 0 -1.508246514495971e-05 -4.2012968124192828e-06 0 -3.6704466338879357e-05 8.0335569732875971e-05 0 -1.6558130904912815e-05 8.1516573426409461e-05 0 -2.2239718318009927e-05 0.00011055992800960617 0 -7.1515988134248886e-05 0.00026041662269854385 0 -7.1564283537789907e-05 0.00029307419838686097 0 -9.0640921985191196e-05 0.00027849190928150986 0 -5.8321886537343299e-05 -0.00012582033162118379 0 -6.0069316662731603e-05 -0.00014116277983270553 0 -5.1706206214694351e-05 -0.00013365055611498029 0 -1.1822437844670369e-05 -1.9009866665440334e-06 0 -9.2482059777284346e-06 -7.9646353448130316e-07 0 -1.1937197294359248e-05 -2.4386036971144884e-06 0 -1.567762596997396e-09 1.6065623987578869e-10 0 -1.0733065321094783e-06 2.9026075491686683e-07 0 -2.0440164340693224e-06 4.2660865722391314e-07 0 -1.0660842337187807e-05 8.4270402640198294e-06 0 -1.0178497828713276e-05 1.2945695107810559e-05 0 -1.4519844394418598e-05 1.3017533492843576e-05 0 -3.1346367945514654e-05 -3.4698979503739639e-05 0 -3.0244753212867013e-05 -2.9424587610374643e-05 0 -3.4697945859072276e-05 -3.5295029432800876e-05 0 -3.4294046239408597e-05 -2.9387758883148794e-05 0 -3.5961770239445816e-05 -2.7095632086922124e-05 0 -3.7107361675768628e-05 -3.1965702944393113e-05 0 -4.9943780619969026e-06 8.2826244449261743e-07 0 -6.7919277797943104e-06 4.4963503121516174e-07 0 -6.0865508173454853e-06 1.0178598842863761e-06 0 -6.0071826109503505e-05 -5.4537266136421789e-05 0 -7.0213184120651587e-05 -6.6759840259584787e-05 0 -5.8280026917688643e-05 -6.5173214804083979e-05 0 -6.7062948713857585e-05 -7.5655199274401918e-05 0 -5.8280026917688643e-05 -6.5173214804083979e-05 0 -7.0213184120651587e-05 -6.6759840259584787e-05 0 -1.5511142588455489e-09 -7.1764410860345494e-11 0 -1.5677625969974675e-09 1.6065623987579611e-10 0 -1.3123729634693435e-06 1.3588264070539622e-07 0 -9.9148098567773457e-05 0.00015223595916259705 0 -0.00011003538543512773 0.00013214411323259753 0 -8.6266038031263797e-05 0.00012899633576292995 0 -8.9837851133154692e-05 0.0001051277757536489 0 -8.6266038031263797e-05 0.00012899633576292995 0 -0.00011003538543512773 0.00013214411323259753 0 -4.9843997864119022e-05 -4.611618951932656e-05 0 -4.7718782245627912e-05 -4.3156787927289513e-05 0 -5.0911907290755662e-05 -4.5074705826495581e-05 0 -3.4390183421777246e-05 -4.6054334152604014e-05 0 -3.155438840118827e-05 -4.0614447597561413e-05 0 -3.3778174092070134e-05 -4.3120193421510342e-05 0 -1.9747652569749813e-05 1.1416881211009504e-05 0 -1.39665838211908e-05 7.6638840488906799e-06 0 -1.4519844394418598e-05 1.3017533492843576e-05 0 -4.4815633501617948e-05 -4.2465701102903802e-05 0 -4.2382232285246026e-05 -4.1485024145436749e-05 0 -4.2977076624410347e-05 -3.9262793294258874e-05 0 -1.0742605262347247e-05 1.6310958361399436e-05 0 -1.1305920732229625e-05 2.0889497756387451e-05 0 -8.9361323301648759e-06 2.0710866879804339e-05 0 -1.068009366768972e-05 8.9262304543252964e-07 0 -8.1735252748043244e-06 1.3187132580524697e-06 0 -1.0236978452829809e-05 2.6806015217721854e-06 0 -3.7911370493051823e-05 2.4331559953322576e-05 0 -2.2883751342787758e-05 1.9025389308215231e-05 0 -3.0793714115136302e-05 2.8984624345334715e-05 0 1.1491325272530159e-05 0.00011207799800135517 0 -7.2629725895138375e-06 0.00013353322821329215 0 -2.2239718318009927e-05 0.00011055992800960617 0 -1.1822437844670369e-05 -1.9009866665440334e-06 0 -9.1954416868736136e-06 -2.9202716635290685e-07 0 -9.2482059777284346e-06 -7.9646353448130295e-07 0 -7.1515988134248886e-05 0.00026041662269854385 0 -5.0983532059357872e-05 0.00027188549106513796 0 -7.1564283537789907e-05 0.00029307419838686097 0 -5.8321886537343299e-05 -0.00012582033162118379 0 -6.7835355495633965e-05 -0.00013197350141298916 0 -6.0069316662731603e-05 -0.00014116277983270553 0 -6.3986492505804985e-06 2.863309567658347e-07 0 -7.9847918008912888e-06 -4.0454316250327286e-07 0 -9.2482059777284346e-06 -7.9646353448130295e-07 0 -2.3069427462101959e-05 -1.2434836137940893e-05 0 -2.783461814071026e-05 -1.5724526526944881e-05 0 -2.5134114926279041e-05 -1.0530153710268379e-05 0 -3.225511954142363e-05 0.00024232171459660591 0 -1.2162006698487252e-05 0.00024976197558577578 0 -2.683461728579952e-05 0.00027410103114068818 0 -7.4255697957373605e-05 -0.00011917336517529592 0 -8.4266284020079491e-05 -0.00012427056831425785 0 -7.8971092845564651e-05 -0.00013433569575787039 0 -3.7418143667186295e-05 -1.5194522182670262e-05 0 -4.447322413434412e-05 -1.9363913881409825e-05 0 -3.6897509357041242e-05 -1.5089722326108558e-05 0 -6.7995261159037228e-05 2.6668582143360863e-05 0 -5.5682798624165144e-05 1.88049290695063e-05 0 -5.3893718350221267e-05 1.9017618814680349e-05 0 -2.8329113741257125e-05 3.8552077033083857e-05 0 -3.2930084760507354e-05 5.6243757847212336e-05 0 -4.5554733611241915e-05 6.0252672702788546e-05 0 -1.6391180684225207e-05 -4.3412795794947994e-06 0 -2.0668968518810219e-05 -6.6392259278949433e-06 0 -1.910882041640817e-05 -6.1551284000916755e-06 0 -5.5769561116089872e-05 -5.473050225839629e-05 0 -5.2365060705937596e-05 -5.1825378825859204e-05 0 -5.2618367556904668e-05 -4.9282159471634066e-05 0 -5.5769561116089872e-05 -5.473050225839629e-05 0 -5.2618367556904668e-05 -4.9282159471634066e-05 0 -5.4782587429380643e-05 -5.2217798256431311e-05 0 -3.4684393592810161e-05 -4.2606110920825935e-05 0 -3.2383952319530646e-05 -3.9644030271704382e-05 0 -3.4790044447337823e-05 -4.6523877878328572e-05 0 -3.4684393592810161e-05 -4.2606110920825935e-05 0 -3.4790044447337823e-05 -4.6523877878328572e-05 0 -3.6043835103544598e-05 -4.8878488243869348e-05 0 -4.9843997864119022e-05 -4.611618951932656e-05 0 -4.6164833876432999e-05 -4.495644197461898e-05 0 -4.7718782245627912e-05 -4.3156787927289513e-05 0 -3.4390183421777246e-05 -4.6054334152604014e-05 0 -3.3778174092070134e-05 -4.3120193421510342e-05 0 -3.5831771565223316e-05 -4.7095372859970074e-05 0 -2.1291612980259813e-05 -2.49318976263891e-05 0 -2.5778515154835219e-05 -3.0876098975573851e-05 0 -2.4186755179593123e-05 -2.8790950129371427e-05 0 -4.9108689355562581e-05 -3.8242824485884714e-05 0 -5.0929957516371394e-05 -4.2795709404283166e-05 0 -4.7272336771642119e-05 -3.8163993464433427e-05 0 -5.5297477570649853e-06 1.1370547098346078e-06 0 -1.5807305948710383e-05 -6.9851749683271736e-06 0 -1.026282711521748e-05 -9.7531725238779806e-06 0 -4.6468337948414847e-05 0.00030492171542877719 0 -2.8270645324580006e-05 0.00032534634449657895 0 -5.1638865406462389e-05 0.00033346071045391499 0 -0.00010165168797967695 0.00030697939241393308 0 -9.7644557635914199e-05 0.00033479312429890619 0 -0.00012340230791335155 0.00032935261797837777 0 -7.1424037687766888e-05 -0.00014724285197694717 0 -8.0815884652518061e-05 -0.00015748601218313038 0 -6.9807176271456163e-05 -0.00015992832242688417 0 -4.883040225426476e-05 -0.00014693782068854027 0 -5.1085516227508545e-05 -0.00015955681380230816 0 -4.1895985682679328e-05 -0.00015583703133934066 0 -7.6254563748366513e-06 6.0519064598211818e-07 0 -6.0865508173454853e-06 1.0178598842863761e-06 0 -6.7919277797943104e-06 4.4963503121516174e-07 0 -4.6468337948414847e-05 0.00030492171542877719 0 -2.1169900727070126e-05 0.00029956375523355953 0 -2.8270645324580003e-05 0.00032534634449657895 0 -7.1424037687766888e-05 -0.00014724285197694717 0 -8.3155798262395407e-05 -0.00014647548103533407 0 -8.0815884652518061e-05 -0.00015748601218313038 0 -2.472315535563436e-05 -4.2852836060843496e-06 0 -2.2055907013789736e-05 2.2279510676997907e-07 0 -1.9655808371844466e-05 -3.3745915152727081e-07 0 -0.00010165168797967695 0.00030697939241393308 0 -0.00012340230791335155 0.00032935261797837777 0 -0.00012858762814765389 0.00030405719806030822 0 -4.883040225426476e-05 -0.00014693782068854027 0 -4.1895985682679328e-05 -0.00015583703133934066 0 -3.8678471542024602e-05 -0.0001436069972827814 0 -3.6133697214774759e-05 -7.2055835356710603e-05 0 -2.7180652888581432e-05 -6.301706517262844e-05 0 -3.3422600768176424e-05 -5.5518929861327876e-05 0 -3.6397631307742096e-05 -1.9674598323901554e-05 0 -3.6985951901262606e-05 -2.1960400222193246e-05 0 -3.3517285575295275e-05 -1.5757248277446953e-05 0 -3.4208022536387289e-05 -1.8399624620885448e-05 0 -3.3517285575295275e-05 -1.5757248277446953e-05 0 -3.6985951901262606e-05 -2.1960400222193246e-05 0 -1.2904989297033595e-05 4.6091282911075612e-06 0 -1.4687234103688271e-05 2.9097334623672806e-06 0 -1.0236978452829809e-05 2.6806015217721854e-06 0 -6.5428964070743753e-05 0.00012417102274482985 0 -4.4411149477830997e-05 0.00011601374598270912 0 -5.3686243125935861e-05 0.00014667475912475439 0 -8.4581046836259719e-05 -7.6490899633848002e-05 0 -7.6480110028014612e-05 -7.9353743858663262e-05 0 -7.0213184120651587e-05 -6.6759840259584787e-05 0 -1.4199780284686194e-05 1.9328254635847034e-05 0 -2.2883751342787761e-05 1.9025389308215231e-05 0 -1.4519844394418598e-05 1.3017533492843576e-05 0 -1.9747652569749813e-05 1.1416881211009504e-05 0 -1.4519844394418598e-05 1.3017533492843576e-05 0 -2.2883751342787761e-05 1.9025389308215231e-05 0 -7.0468171232692934e-06 4.0965943244994437e-06 0 -8.1040590307243587e-06 4.3471470707303289e-06 0 -8.2683856656408138e-06 6.7951664703257438e-06 0 -3.7767949426000302e-05 -3.5833101626493774e-05 0 -3.7913459074907003e-05 -3.9142917400753399e-05 0 -3.4697945859072276e-05 -3.5295029432800876e-05 0 -3.5986777145252885e-05 -4.0488605308043492e-05 0 -3.4697945859072276e-05 -3.5295029432800876e-05 0 -3.7913459074907003e-05 -3.9142917400753399e-05 0 -0.00010916643302399498 7.197170189750925e-05 0 -9.561928904907361e-05 5.2506882904288283e-05 0 -8.4897346030244372e-05 5.6497323400480662e-05 0 -5.939471296124181e-05 -3.1818486871567028e-05 0 -6.6702482366409009e-05 -4.0625907823454558e-05 0 -5.4977285235457214e-05 -3.3125906951351618e-05 0 -2.3446266761555111e-09 -4.3604266295075718e-10 0 -1.9624258809737339e-09 -3.3747891116630973e-10 0 -1.8375497116998796e-06 -6.0564148335216622e-07 0 -2.111407380463103e-09 2.795498708542342e-10 0 -2.3820288564543922e-09 2.5899289074040854e-10 0 -2.0783303031512597e-06 4.3860281839061128e-07 0 -1.0660842337187807e-05 8.4270402640198294e-06 0 -7.9412265966232898e-06 5.4724882304513716e-06 0 -8.8704382231886784e-06 8.4624742888948604e-06 0 -9.5195764321706487e-06 5.994493975972015e-06 0 -8.2683856656408138e-06 6.7951664703257438e-06 0 -8.1040590307243587e-06 4.3471470707303289e-06 0 -7.0468171232692934e-06 4.0965943244994437e-06 0 -7.9412265966232898e-06 5.4724882304513707e-06 0 -6.8606120788803002e-06 3.6858112274733742e-06 0 -1.465221682894348e-05 8.7413596236678881e-07 0 -1.984853034480408e-05 2.7850208792777053e-06 0 -1.5440910646622625e-05 1.8255550959302728e-06 0 -1.1711672343061981e-05 -2.4855370836925779e-06 0 -1.1665116920125826e-05 -3.1782872552546742e-06 0 -1.508246514495971e-05 -4.2012968124192828e-06 0 -2.814194260014176e-05 0.00014417346533362847 0 -2.2239718318009927e-05 0.00011055992800960617 0 -7.2629725895138375e-06 0.00013353322821329215 0 -1.465221682894348e-05 8.7413596236678881e-07 0 -1.5440910646622621e-05 1.8255550959302723e-06 0 -1.1320488083773857e-05 3.3106752334634989e-07 0 -1.1711672343061981e-05 -2.4855370836925779e-06 0 -8.900381894401952e-06 -1.7924632285923894e-06 0 -1.1665116920125826e-05 -3.1782872552546742e-06 0 -4.3486615699184823e-05 -3.5757158135116543e-05 0 -4.5353526425831757e-05 -3.9125595843315919e-05 0 -4.2977076624410347e-05 -3.9262793294258874e-05 0 -3.6704466338879357e-05 8.0335569732875971e-05 0 -2.1599682846334768e-05 5.0946030165305593e-05 0 -1.6558130904912815e-05 8.1516573426409461e-05 0 -7.4962541123605634e-06 2.6717794305248624e-06 0 -6.8606120788803002e-06 3.6858112274733742e-06 0 -7.9412265966232915e-06 5.4724882304513716e-06 0 -3.1346367945514654e-05 -3.4698979503739639e-05 0 -2.7727941164574749e-05 -3.1287532523376199e-05 0 -3.0244753212867013e-05 -2.9424587610374643e-05 0 -3.7537871317283066e-09 -3.9587709535341738e-10 0 -2.9383111662255815e-09 -6.2647486646875427e-10 0 -2.8772990981977308e-06 -9.3804016043178378e-07 0 -2.7578638006530241e-09 2.5716406494565727e-10 0 -3.2475140469422546e-09 2.9949448612173374e-11 0 -2.6610576432114419e-06 2.0193176063948517e-07 0 -2.4440865147887131e-05 -9.4617530156679711e-06 0 -3.0849459738040703e-05 -1.197651407460215e-05 0 -2.5103153700262658e-05 -8.867584131882819e-06 0 -4.4564466187814679e-05 1.3440633658906013e-05 0 -3.4349019111974935e-05 9.8808101894587301e-06 0 -3.5785826492709223e-05 8.9565679274077373e-06 0 -3.4694180309982701e-05 -2.729006551739556e-05 0 -3.8162043987551182e-05 -2.4552076074135091e-05 0 -4.162730204767884e-05 -3.1573851253872897e-05 0 -1.8798585340274208e-05 -5.4467888907163553e-05 0 -2.5614605299110828e-05 -4.9312697916001803e-05 0 -2.7180652888581432e-05 -6.3017065172628426e-05 0 -2.1251707623376382e-05 -5.1550852689292556e-06 0 -2.1162903372007467e-05 -8.1566983862097991e-06 0 -2.5134114926279041e-05 -1.0530153710268379e-05 0 -1.121521625230571e-05 9.3794361475440733e-07 0 -1.0877119168226772e-05 3.5707503634081922e-06 0 -8.9649349700047882e-06 2.2108153084355487e-06 0 -1.3348225919035202e-05 1.0831164019552433e-06 0 -1.0877119168226772e-05 3.5707503634081922e-06 0 -1.121521625230571e-05 9.3794361475440733e-07 0 -9.1054621613162852e-06 1.0407586568990251e-05 0 -1.0178497828713276e-05 1.2945695107810559e-05 0 -8.8704382231886784e-06 8.4624742888948604e-06 0 -1.0660842337187807e-05 8.4270402640198294e-06 0 -8.8704382231886784e-06 8.4624742888948604e-06 0 -1.0178497828713276e-05 1.2945695107810559e-05 0 -3.5768298268682973e-05 -4.3943710988871343e-05 0 -3.8054895362821501e-05 -4.6946722937950925e-05 0 -3.5831771565223316e-05 -4.7095372859970074e-05 0 -4.3182723409279529e-05 -2.7519594739487207e-05 0 -4.0178829239956182e-05 -2.5195236463719396e-05 0 -3.8665143435835356e-05 -2.2262564168812661e-05 0 -2.3069427462101959e-05 -1.2434836137940893e-05 0 -2.3839353765558849e-05 -1.7299931337593263e-05 0 -2.783461814071026e-05 -1.5724526526944881e-05 0 -2.4761736768691587e-05 -2.277222311559924e-05 0 -2.7834618140710264e-05 -1.5724526526944881e-05 0 -2.3839353765558849e-05 -1.7299931337593263e-05 0 -1.8324468529734232e-05 -7.4473617021573519e-06 0 -2.4440865147887134e-05 -9.4617530156679711e-06 0 -2.0639152507457041e-05 -7.2814413620578847e-06 0 -3.4349019111974935e-05 9.8808101894587301e-06 0 -2.5070076940844123e-05 7.4260958994527692e-06 0 -2.8753143987692508e-05 6.8522867660487401e-06 0 -3.9862480498020182e-05 -5.2014367457773648e-05 0 -3.742564468322367e-05 -5.2283129508062532e-05 0 -3.9001745184811109e-05 -4.9756036307379571e-05 0 -2.2883751342787761e-05 1.9025389308215231e-05 0 -2.1141891879800028e-05 2.5699721811752539e-05 0 -3.0793714115136302e-05 2.8984624345334715e-05 0 -5.5293433460666217e-06 1.6196674043706377e-06 0 -5.9685482633296161e-06 2.5936920115839879e-06 0 -4.9135336339848935e-06 1.4678875168851126e-06 0 -6.3783190901000007e-06 -5.1989054204352223e-07 0 -9.7919923812907007e-06 -3.5769029225655556e-07 0 -1.1320488083773857e-05 3.3106752334634989e-07 0 -5.1205779942834377e-06 -6.2287892538089673e-07 0 -8.900381894401952e-06 -1.7924632285923897e-06 0 -8.0983859402411635e-06 -1.1632786974143379e-06 0 -6.3986492505804985e-06 2.863309567658347e-07 0 -6.3640354051780166e-06 1.1122649484117489e-07 0 -7.9847918008912888e-06 -4.0454316250327286e-07 0 -2.1251707623376382e-05 -5.1550852689292556e-06 0 -2.2975520277200136e-05 -4.4151158755289733e-06 0 -1.9655808371844466e-05 -3.3745915152727081e-07 0 -3.1413593949262724e-05 -3.9129892680710572e-05 0 -3.3001272279150742e-05 -3.8992060349501318e-05 0 -3.3778174092070134e-05 -4.3120193421510342e-05 0 -9.5560162027121639e-06 -1.1272810424492214e-06 0 -7.9847918008912871e-06 -4.0454316250327281e-07 0 -6.3640354051780166e-06 1.1122649484117489e-07 0 -0.00015070651266659157 0.00021426630346049971 0 -0.00011949334694104282 0.00019736947891317854 0 -0.00012786222297842898 0.00022655493653398951 0 -2.1705639204766896e-05 -9.714676844490399e-05 0 -3.3194588561510957e-05 -9.2497355149156657e-05 0 -3.2580454016521776e-05 -0.00010578134368645046 0 -2.0167078921658053e-05 -8.2684112610629558e-05 0 -2.9591338591029222e-05 -7.8541589099018541e-05 0 -3.3194588561510957e-05 -9.2497355149156657e-05 0 -3.0198628672680704e-05 -1.2681248510436805e-05 0 -2.7242724525052019e-05 -7.2133998505075543e-06 0 -2.9557903260663092e-05 -1.0648657130252474e-05 0 -4.3182723409279529e-05 -2.7519594739487207e-05 0 -4.3419225588193381e-05 -2.9734796908172755e-05 0 -4.0178829239956182e-05 -2.5195236463719396e-05 0 -1.1822437844670369e-05 -1.9009866665440334e-06 0 -1.5490175657372107e-05 -4.8243973800859647e-06 0 -1.3522937086756826e-05 -2.4495694570901924e-06 0 -2.472315535563436e-05 -4.2852836060843496e-06 0 -1.9655808371844466e-05 -3.3745915152727081e-07 0 -2.2975520277200133e-05 -4.4151158755289725e-06 0 -8.7971792986142229e-07 0.00032124484252408548 0 -1.832516907452138e-05 0.00033761199472013789 0 -2.8270645324580003e-05 0.00032534634449657895 0 -9.4401724865105242e-05 -0.00015898802996423437 0 -8.6309329854428144e-05 -0.00016418309971711446 0 -8.0815884652518061e-05 -0.00015748601218313038 0 -3.0951007245226177e-05 -0.00015335178890729762 0 -4.1895985682679328e-05 -0.00015583703133934066 0 -3.8147327744855255e-05 -0.00016106549157986742 0 -0.00015436588113649496 0.00033272138048272488 0 -0.00012340230791335155 0.00032935261797837777 0 -0.00013591390184956018 0.00034460051512466647 0 -1.4056206635724526e-05 -1.2703064856087472e-06 0 -1.1267692550359187e-05 -5.5107881795983797e-07 0 -1.3522937086756826e-05 -2.4495694570901924e-06 0 -1.1822437844670369e-05 -1.9009866665440334e-06 0 -1.3522937086756826e-05 -2.4495694570901924e-06 0 -1.1267692550359187e-05 -5.5107881795983797e-07 0 -1.8706244406010065e-05 -9.0691303949927405e-06 0 -1.5490175657372107e-05 -4.8243973800859638e-06 0 -1.6262798245289965e-05 -6.1198767217839309e-06 0 -5.2180602902759738e-05 2.1881013139241579e-05 0 -5.3893718350221267e-05 1.9017618814680349e-05 0 -4.0387404787626051e-05 1.3245431859121417e-05 0 -4.36462473348716e-05 1.2550083601698457e-05 0 -4.0387404787626051e-05 1.3245431859121417e-05 0 -5.3893718350221267e-05 1.9017618814680349e-05 0 -1.9747652569749813e-05 1.1416881211009504e-05 0 -2.4187297177056832e-05 9.8243821788298101e-06 0 -1.7444745107593143e-05 6.4916618808134632e-06 0 -2.108489851584627e-05 -9.5651682494601818e-06 0 -1.6443296698638614e-05 -5.6742237333488906e-06 0 -1.8007485473029058e-05 -6.096106890745623e-06 0 -2.3069427462101959e-05 -1.2434836137940893e-05 0 -2.1728499019549715e-05 -1.3867472710906712e-05 0 -2.3839353765558849e-05 -1.7299931337593263e-05 0 -1.1711672343061981e-05 -2.4855370836925779e-06 0 -9.3038550855480909e-06 -1.2315558872501959e-06 0 -8.0983859402411635e-06 -1.1632786974143379e-06 0 -5.5936040779254017e-06 -2.8544381466294284e-07 0 -8.0983859402411635e-06 -1.1632786974143379e-06 0 -9.3038550855480926e-06 -1.2315558872501961e-06 0 -6.3298285232448325e-06 -9.5309420814000161e-07 0 -1.0256114263559016e-05 -2.3792818373012314e-07 0 -9.7919923812907007e-06 -3.576902922565554e-07 0 -1.465221682894348e-05 8.7413596236678881e-07 0 -9.791992381290699e-06 -3.5769029225655561e-07 0 -1.0256114263559016e-05 -2.3792818373012314e-07 0 -6.7062948713857585e-05 -7.5655199274401918e-05 0 -7.3949494473614106e-05 -8.9668141090231088e-05 0 -6.3074175471791746e-05 -8.3555083668243078e-05 0 -6.461852674533341e-05 -9.5997828733979169e-05 0 -6.3074175471791746e-05 -8.3555083668243078e-05 0 -7.3949494473614106e-05 -8.9668141090231088e-05 0 -2.5543204241070817e-06 -9.2308376833332948e-07 0 -1.8375497116998796e-06 -6.0564148335216622e-07 0 -4.2968347310926239e-06 -7.1777781093446073e-07 0 -2.9719856599071454e-06 -4.358715448642763e-07 0 -4.2968347310926239e-06 -7.1777781093446073e-07 0 -1.8375497116998796e-06 -6.0564148335216622e-07 0 -3.6848941137575043e-06 5.4131856197674228e-07 0 -2.0783303031512597e-06 4.3860281839061128e-07 0 -4.5250955428951379e-06 3.5775222857643797e-07 0 -2.5953307463905121e-06 3.7512895299930253e-07 0 -4.5250955428951379e-06 3.5775222857643797e-07 0 -2.0783303031512597e-06 4.3860281839061128e-07 0 -7.1515988134248886e-05 0.00026041662269854385 0 -5.3306515435930666e-05 0.0002429450888142167 0 -5.0983532059357872e-05 0.00027188549106513796 0 -5.8321886537343299e-05 -0.00012582033162118379 0 -6.4896576748518352e-05 -0.00011844340686815304 0 -6.7835355495633965e-05 -0.00013197350141298916 0 -1.1145150312424521e-05 -1.8533928455616109e-06 0 -8.6127191527396509e-06 -8.6116154688511636e-07 0 -9.3038550855480926e-06 -1.2315558872501961e-06 0 -1.068009366768972e-05 8.9262304543252964e-07 0 -1.0256114263559016e-05 -2.3792818373012314e-07 0 -8.414175394468561e-06 -1.3267403214001409e-07 0 -2.108489851584627e-05 -9.5651682494601818e-06 0 -2.1385208019504589e-05 -1.184575474398505e-05 0 -1.8059661195077288e-05 -7.7978985350550086e-06 0 -1.1711672343061981e-05 -2.4855370836925779e-06 0 -1.3135610481590625e-05 -2.7727918007780394e-06 0 -9.3038550855480926e-06 -1.2315558872501961e-06 0 -1.465221682894348e-05 8.7413596236678881e-07 0 -1.0256114263559016e-05 -2.3792818373012314e-07 0 -1.4898050003240025e-05 1.2130680522687096e-06 0 -2.4761736768691587e-05 -2.277222311559924e-05 0 -3.1058764172376785e-05 -1.7230672468176107e-05 0 -2.783461814071026e-05 -1.5724526526944881e-05 0 -1.1822437844670369e-05 -1.9009866665440334e-06 0 -1.3813756946879969e-05 -3.7890927611539988e-06 0 -1.5490175657372107e-05 -4.8243973800859647e-06 0 -4.1836459378918535e-09 -9.7419321962899233e-10 0 -3.7537871317283066e-09 -3.9587709535341738e-10 0 -3.0947567001240633e-06 -7.1539206464694489e-07 0 -3.2475140469422546e-09 2.9949448612173374e-11 0 -3.3954770246421019e-09 3.5218845018345653e-10 0 -2.6342547745367707e-06 -2.5838272450758122e-08 0 -1.4199780284686194e-05 1.9328254635847034e-05 0 -1.4519844394418598e-05 1.3017533492843576e-05 0 -1.0178497828713276e-05 1.2945695107810559e-05 0 -4.020068401110824e-05 -4.6835617300772776e-05 0 -4.1156909921263713e-05 -4.9475331164878299e-05 0 -3.9001745184811109e-05 -4.9756036307379571e-05 0 -2.108489851584627e-05 -9.5651682494601818e-06 0 -2.2290204885241709e-05 -8.9622535714950696e-06 0 -2.6324143192938749e-05 -1.2768367140969157e-05 0 -3.3422600768176424e-05 -5.5518929861327876e-05 0 -2.7180652888581432e-05 -6.3017065172628426e-05 0 -2.5614605299110828e-05 -4.9312697916001803e-05 0 -1.4056206635724526e-05 -1.2703064856087472e-06 0 -1.121521625230571e-05 9.3794361475440733e-07 0 -1.1267692550359187e-05 -5.5107881795983797e-07 0 -1.8243295612997651e-05 -6.5224063789470308e-06 0 -1.5770160600648929e-05 -3.8766599781332154e-06 0 -1.5490175657372107e-05 -4.8243973800859647e-06 0 -1.0138094415959719e-05 9.8909572804854954e-07 0 -1.4991436577705158e-05 3.4512865704391286e-06 0 -7.2161781775489286e-06 1.6356662497529171e-06 0 -7.7027362105404746e-06 -2.0563386874510984e-06 0 -5.4132223022772601e-06 -2.0628599706188042e-06 0 -1.1127689010540917e-05 -4.1317654525652069e-06 0 -2.4913088940455163e-05 -1.6949530289672423e-05 0 -2.4610436371112842e-05 -1.9744952261434056e-05 0 -2.1728499019549715e-05 -1.3867472710906712e-05 0 -8.9649349700047882e-06 2.2108153084355487e-06 0 -8.988315998502763e-06 7.3940186762488623e-07 0 -1.121521625230571e-05 9.3794361475440733e-07 0 -1.4807355178774908e-05 -4.6997587081567875e-06 0 -1.6443296698638614e-05 -5.6742237333488914e-06 0 -1.8059661195077288e-05 -7.7978985350550086e-06 0 -3.6171587473517908e-05 -1.5978277165253603e-05 0 -3.7781225195232385e-05 -1.9790949026019627e-05 0 -3.1332746736335273e-05 -1.4889071582143119e-05 0 -0.00014659861077259061 0.00018305688251069941 0 -0.0001208506819897516 0.000169139397341071 0 -0.00011949334694104282 0.00019736947891317854 0 -2.4913088940455163e-05 -1.6949530289672423e-05 0 -2.5600902186951799e-05 -1.4574247938854252e-05 0 -3.0056248780807263e-05 -1.9960714206807046e-05 0 -2.9557903260663092e-05 -1.0648657130252474e-05 0 -3.3517285575295275e-05 -1.5757248277446953e-05 0 -3.1878474369247173e-05 -1.4496538852778748e-05 0 -2.108489851584627e-05 -9.5651682494601818e-06 0 -2.6324143192938749e-05 -1.2768367140969157e-05 0 -2.5600902186951799e-05 -1.4574247938854252e-05 0 -1.1267692550359187e-05 -5.5107881795983797e-07 0 -1.121521625230571e-05 9.3794361475440733e-07 0 -8.988315998502763e-06 7.3940186762488623e-07 0 -3.6397631307742096e-05 -1.9674598323901554e-05 0 -3.8665143435835356e-05 -2.2262564168812661e-05 0 -4.0178829239956182e-05 -2.5195236463719396e-05 0 -1.4199780284686194e-05 1.9328254635847034e-05 0 -8.9361323301648759e-06 2.0710866879804339e-05 0 -1.432579013090007e-05 2.8572770869912791e-05 0 -2.108489851584627e-05 -9.5651682494601818e-06 0 -1.8007485473029058e-05 -6.096106890745623e-06 0 -2.2290204885241709e-05 -8.9622535714950696e-06 0 -0.00015315735059006106 0.00024521355103897626 0 -0.00015070651266659157 0.00021426630346049971 0 -0.00012786222297842898 0.00022655493653398951 0 -2.1705639204766896e-05 -9.714676844490399e-05 0 -3.2580454016521776e-05 -0.00010578134368645046 0 -2.3669033511948421e-05 -0.00011172926135412107 0 -1.910287802031413e-05 -6.8467836064662035e-05 0 -2.9591338591029222e-05 -7.8541589099018541e-05 0 -2.0167078921658053e-05 -8.2684112610629558e-05 0 -3.7911370493051823e-05 2.4331559953322576e-05 0 -5.2934879409244703e-05 2.9048271555823086e-05 0 -4.319311571505906e-05 1.9816444533858892e-05 0 -5.5297477570649853e-06 1.1370547098346078e-06 0 -1.5559763635037648e-05 9.906336136890867e-06 0 -1.5807305948710383e-05 -6.9851749683271736e-06 0 -3.6171587473517908e-05 -1.5978277165253603e-05 0 -3.6897509357041242e-05 -1.5089722326108558e-05 0 -4.2432886945155263e-05 -1.8851661414365114e-05 0 -5.2180602902759738e-05 2.1881013139241579e-05 0 -6.3525503587128309e-05 2.6005328874554552e-05 0 -5.3893718350221267e-05 1.9017618814680349e-05 0 -3.6171587473517908e-05 -1.5978277165253603e-05 0 -4.2432886945155263e-05 -1.8851661414365114e-05 0 -4.4199082428554842e-05 -2.1754019592094655e-05 0 -5.2180602902759738e-05 2.1881013139241579e-05 0 -6.567150953852814e-05 3.2115347658640815e-05 0 -6.3525503587128309e-05 2.6005328874554552e-05 0 -7.7027362105404746e-06 -2.0563386874510984e-06 0 -3.7688356224587777e-06 -7.8219372702021594e-07 0 -5.4132223022772601e-06 -2.0628599706188042e-06 0 -1.0138094415959719e-05 9.8909572804854954e-07 0 -7.2161781775489286e-06 1.6356662497529171e-06 0 -4.9090141691529733e-06 5.1353635927002979e-08 0 -1.8243295612997651e-05 -6.5224063789470308e-06 0 -2.0245793948637056e-05 -1.0119291915818076e-05 0 -2.1162903372007467e-05 -8.1566983862097991e-06 0 -2.3069427462101959e-05 -1.2434836137940893e-05 0 -2.1162903372007467e-05 -8.1566983862097991e-06 0 -2.0245793948637056e-05 -1.0119291915818076e-05 0 -5.0929957516371394e-05 -4.2795709404283166e-05 0 -5.0048814147204676e-05 -4.2573885221970034e-05 0 -4.7272336771642119e-05 -3.8163993464433427e-05 0 -2.4186755179593123e-05 -2.8790950129371427e-05 0 -2.5778515154835219e-05 -3.0876098975573851e-05 0 -2.8176908656269011e-05 -3.4880247624218153e-05 0 -1.026282711521748e-05 -9.7531725238779806e-06 0 -1.5807305948710383e-05 -6.9851749683271727e-06 0 -1.7218647870154721e-05 -1.555901883171081e-05 0 -2.1291612980259813e-05 -2.49318976263891e-05 0 -2.267102326341118e-05 -2.607760697044007e-05 0 -2.5778515154835219e-05 -3.0876098975573851e-05 0 -4.9108689355562581e-05 -3.8242824485884714e-05 0 -4.7272336771642119e-05 -3.8163993464433427e-05 0 -4.5702238259287412e-05 -3.4105359407316238e-05 0 -2.108489851584627e-05 -9.5651682494601818e-06 0 -1.8059661195077288e-05 -7.797898535055007e-06 0 -1.6443296698638614e-05 -5.6742237333488906e-06 0 -1.8706244406010065e-05 -9.0691303949927405e-06 0 -2.1728499019549715e-05 -1.3867472710906712e-05 0 -2.0245793948637056e-05 -1.0119291915818076e-05 0 -2.3069427462101959e-05 -1.2434836137940893e-05 0 -2.0245793948637056e-05 -1.0119291915818076e-05 0 -2.1728499019549715e-05 -1.3867472710906712e-05 0 -1.4056206635724526e-05 -1.2703064856087472e-06 0 -1.785934264691986e-05 -4.2904784265307501e-06 0 -1.6872342632959538e-05 -1.0424449933524017e-06 0 -0.00014659861077259061 0.00018305688251069941 0 -0.00014037175995998578 0.00015207176609232945 0 -0.0001208506819897516 0.000169139397341071 0 -2.472315535563436e-05 -4.2852836060843496e-06 0 -2.2975520277200133e-05 -4.4151158755289725e-06 0 -2.6237651844790696e-05 -8.1335800109773893e-06 0 -2.8329113741257125e-05 3.8552077033083857e-05 0 -2.1141891879800028e-05 2.5699721811752539e-05 0 -1.432579013090007e-05 2.8572770869912791e-05 0 -1.4199780284686194e-05 1.9328254635847034e-05 0 -1.432579013090007e-05 2.8572770869912791e-05 0 -2.1141891879800028e-05 2.5699721811752539e-05 0 -1.8798585340274208e-05 -5.4467888907163553e-05 0 -2.7180652888581432e-05 -6.3017065172628426e-05 0 -1.910287802031413e-05 -6.8467836064662035e-05 0 -8.1509541388236835e-05 3.7372910051707692e-05 0 -6.3525503587128309e-05 2.6005328874554552e-05 0 -6.567150953852814e-05 3.2115347658640815e-05 0 -5.187091623834329e-05 -2.4730782473830259e-05 0 -4.4199082428554835e-05 -2.1754019592094652e-05 0 -4.2432886945155263e-05 -1.8851661414365114e-05 0 -2.1251707623376382e-05 -5.1550852689292556e-06 0 -2.6237651844790696e-05 -8.1335800109773876e-06 0 -2.2975520277200133e-05 -4.4151158755289725e-06 0 -8.9864096019631582e-05 0.00019623951761759987 0 -0.00011949334694104282 0.00019736947891317854 0 -0.00010155509229482072 0.00017422561444485428 0 -8.9864096019631582e-05 0.00019623951761759987 0 -0.00010742751079314701 0.00021737434722410865 0 -0.00011949334694104282 0.00019736947891317854 0 -4.4592878301326575e-05 -9.4119090124915449e-05 0 -3.9949113036679707e-05 -0.0001029376819447582 0 -3.3194588561510957e-05 -9.2497355149156657e-05 0 -4.4592878301326575e-05 -9.4119090124915449e-05 0 -3.3194588561510951e-05 -9.2497355149156644e-05 0 -3.7778529860477837e-05 -8.4050869881013694e-05 0 -2.3669033511948421e-05 -0.00011172926135412107 0 -3.332359596647984e-05 -0.00011875341033445024 0 -2.6115151616293505e-05 -0.00012637346681658253 0 -0.00015415758936643731 0.00027548650687374103 0 -0.00015315735059006106 0.00024521355103897626 0 -0.00013211575147992481 0.00025394595950019376 0 -6.7697211433408129e-06 -2.0345341713361462e-07 0 -5.5434920049141304e-06 -6.3843589933237961e-09 0 -8.6127191527396526e-06 -8.6116154688511646e-07 0 -6.1442411954473351e-06 -5.8699941650469309e-07 0 -8.414175394468561e-06 -1.3267403214001409e-07 0 -5.3808148628968496e-06 -1.0504566713492149e-06 0 -4.4592878301326575e-05 -9.4119090124915449e-05 0 -5.23049197448379e-05 -9.5323107768372888e-05 0 -4.7982034097810806e-05 -0.00010674428355434673 0 -4.4592878301326575e-05 -9.4119090124915449e-05 0 -4.4954235046609621e-05 -8.2714180417135504e-05 0 -5.23049197448379e-05 -9.5323107768372888e-05 0 -5.7892240090690554e-05 -0.00010932870943730997 0 -4.7982034097810806e-05 -0.00010674428355434673 0 -5.23049197448379e-05 -9.5323107768372888e-05 0 -5.3939782585063193e-05 -8.281177771206489e-05 0 -5.23049197448379e-05 -9.5323107768372888e-05 0 -4.4954235046609621e-05 -8.2714180417135504e-05 0 -8.9864096019631582e-05 0.00019623951761759987 0 -7.0147063841652062e-05 0.00019797958281962533 0 -8.9392993023049003e-05 0.00022426813143849479 0 -6.6177035744716391e-05 0.00022372177594307495 0 -8.9392993023049003e-05 0.00022426813143849479 0 -7.0147063841652062e-05 0.00019797958281962533 0 -3.2475140469422546e-09 2.9949448612173374e-11 0 -2.6342547745367707e-06 -2.5838272450758122e-08 0 -2.6610576432114419e-06 2.0193176063948517e-07 0 -3.7537871317283066e-09 -3.9587709535341738e-10 0 -2.8772990981977308e-06 -9.3804016043178378e-07 0 -3.0947567001240633e-06 -7.1539206464694489e-07 0 -5.844533800008443e-05 -4.2824887763645578e-05 0 -4.8155947999115862e-05 -3.2558361060547687e-05 0 -5.4977285235457214e-05 -3.3125906951351618e-05 0 -8.9009347668213528e-05 7.6831450559973117e-05 0 -8.4897346030244372e-05 5.6497323400480662e-05 0 -7.1315485105108743e-05 5.466190917552455e-05 0 -2.525262673364535e-05 -8.9025070624036877e-06 0 -3.1469580233498801e-05 -1.2371651150467553e-05 0 -2.9421377806162259e-05 -1.2009133972538995e-05 0 -7.6254563748366513e-06 6.0519064598211818e-07 0 -9.1954416868736136e-06 -2.9202716635290674e-07 0 -8.988315998502763e-06 7.3940186762488623e-07 0 -3.7209890517443527e-05 -4.9105744473924827e-05 0 -3.5831771565223316e-05 -4.7095372859970074e-05 0 -3.8054895362821501e-05 -4.6946722937950925e-05 0 -2.692023837004755e-05 5.2861637166546535e-06 0 -3.2374686728179095e-05 7.5269275601051574e-06 0 -3.5785826492709223e-05 8.9565679274077373e-06 0 -4.36462473348716e-05 1.2550083601698457e-05 0 -3.5785826492709223e-05 8.9565679274077373e-06 0 -3.2374686728179095e-05 7.5269275601051582e-06 0 -4.3972566816470249e-06 8.2029156352929077e-07 0 -4.0671529385200274e-06 2.7783581504452524e-08 0 -3.0458475500163884e-06 -5.2709323343313542e-09 0 -1.4553566474927978e-05 -1.6153473292468357e-05 0 -2.0966100572603348e-05 -2.2094577947511303e-05 0 -1.8018022764817154e-05 -2.0819705671541931e-05 0 -5.187091623834329e-05 -2.4730782473830259e-05 0 -5.1247578299642296e-05 -2.7367235395100026e-05 0 -4.4199082428554842e-05 -2.1754019592094655e-05 0 -8.1509541388236835e-05 3.7372910051707692e-05 0 -6.5671509538528126e-05 3.2115347658640815e-05 0 -7.889036814018446e-05 4.3188139528669001e-05 0 -3.2893652231173508e-05 -1.8814974450929246e-05 0 -3.4319304863580555e-05 -1.7331451699500141e-05 0 -3.1058764172376785e-05 -1.7230672468176107e-05 0 -1.465221682894348e-05 8.7413596236678881e-07 0 -1.4898050003240025e-05 1.2130680522687096e-06 0 -2.1483415732484297e-05 3.1711607571489495e-06 0 -1.8474711224062462e-05 3.2421737736061022e-06 0 -2.1483415732484297e-05 3.17116075714895e-06 0 -1.4898050003240025e-05 1.2130680522687096e-06 0 -3.6704466338879357e-05 8.0335569732875971e-05 0 -3.2930084760507354e-05 5.6243757847212336e-05 0 -2.1599682846334768e-05 5.0946030165305593e-05 0 -3.4349019111974935e-05 9.8808101894587301e-06 0 -2.8753143987692508e-05 6.8522867660487401e-06 0 -3.5785826492709223e-05 8.9565679274077373e-06 0 -2.4440865147887131e-05 -9.4617530156679711e-06 0 -2.5103153700262658e-05 -8.867584131882819e-06 0 -2.0639152507457041e-05 -7.2814413620578847e-06 0 -3.7767949426000302e-05 -3.5833101626493774e-05 0 -3.7107361675768628e-05 -3.1965702944393113e-05 0 -4.0512027391317507e-05 -3.588122498357307e-05 0 -3.9408055928918607e-05 -3.1595718205799152e-05 0 -4.0512027391317507e-05 -3.588122498357307e-05 0 -3.7107361675768628e-05 -3.1965702944393113e-05 0 -1.4056206635724526e-05 -1.2703064856087472e-06 0 -1.3348225919035202e-05 1.0831164019552433e-06 0 -1.121521625230571e-05 9.3794361475440733e-07 0 -1.9747652569749813e-05 1.1416881211009504e-05 0 -1.7444745107593143e-05 6.4916618808134623e-06 0 -1.39665838211908e-05 7.6638840488906799e-06 0 -7.0468171232692934e-06 4.0965943244994437e-06 0 -6.9688422401166136e-06 2.7503573193390582e-06 0 -8.1040590307243587e-06 4.3471470707303289e-06 0 -2.8329113741257125e-05 3.8552077033083857e-05 0 -2.1599682846334768e-05 5.0946030165305593e-05 0 -3.2930084760507354e-05 5.6243757847212336e-05 0 -3.6171587473517908e-05 -1.5978277165253603e-05 0 -3.1332746736335273e-05 -1.4889071582143119e-05 0 -2.9421377806162259e-05 -1.2009133972538995e-05 0 -1.4807355178774908e-05 -4.6997587081567875e-06 0 -1.1937197294359248e-05 -2.4386036971144884e-06 0 -1.2567388684405965e-05 -2.8227521730892586e-06 0 1.1491325272530159e-05 0.00011207799800135517 0 1.2593332257113656e-05 0.0001426003626625594 0 -7.2629725895138375e-06 0.00013353322821329215 0 -8.851762517426436e-05 -9.0607021229641859e-05 0 -7.3949494473614106e-05 -8.9668141090231088e-05 0 -7.6480110028014612e-05 -7.9353743858663262e-05 0 -8.1509541388236835e-05 3.7372910051707692e-05 0 -6.7995261159037228e-05 2.6668582143360863e-05 0 -6.3525503587128309e-05 2.6005328874554552e-05 0 -4.447322413434412e-05 -1.9363913881409825e-05 0 -5.187091623834329e-05 -2.4730782473830259e-05 0 -4.2432886945155263e-05 -1.8851661414365114e-05 0 -1.9655808371844466e-05 -3.3745915152727081e-07 0 -2.2055907013789736e-05 2.2279510676997907e-07 0 -1.6697355979601997e-05 4.5856079558742269e-06 0 -1.465221682894348e-05 8.7413596236678881e-07 0 -2.1483415732484297e-05 3.1711607571489495e-06 0 -1.984853034480408e-05 2.7850208792777053e-06 0 -2.692023837004755e-05 5.2861637166546535e-06 0 -1.984853034480408e-05 2.7850208792777053e-06 0 -2.1483415732484297e-05 3.1711607571489495e-06 0 -9.1054621613162852e-06 1.0407586568990251e-05 0 -9.4838765196489789e-06 1.4661003449360928e-05 0 -1.0178497828713276e-05 1.2945695107810559e-05 0 -7.7531751394695393e-05 -0.00010499640430093021 0 -7.3949494473614106e-05 -8.9668141090231088e-05 0 -8.2870545582384484e-05 -9.7751191267462866e-05 0 -4.3159904606049008e-05 -3.1233366187884774e-05 0 -4.162033783760997e-05 -3.1344504263884762e-05 0 -4.0280625382618128e-05 -2.7054648349849149e-05 0 8.7811811615528995e-06 0.00023385985640239626 0 5.8432692161165676e-06 0.00026416018473967835 0 -1.2162006698487252e-05 0.00024976197558577578 0 -9.329865640277541e-05 -0.00011933503171254231 0 -9.4159057596647196e-05 -0.00013323490197383539 0 -8.4266284020079505e-05 -0.00012427056831425785 0 -3.7911370493051823e-05 2.4331559953322576e-05 0 -2.7285423501107041e-05 1.5827296655563131e-05 0 -2.2883751342787761e-05 1.9025389308215231e-05 0 -2.4913088940455163e-05 -1.6949530289672423e-05 0 -2.9120534339641011e-05 -2.3350569948887275e-05 0 -2.4610436371112842e-05 -1.9744952261434056e-05 0 -3.143759683820263e-05 -1.7608625670296275e-05 0 -3.0056248780807263e-05 -1.9960714206807046e-05 0 -2.5600902186951799e-05 -1.4574247938854252e-05 0 -0.00015315735059006106 0.00024521355103897626 0 -0.00012786222297842898 0.00022655493653398951 0 -0.00013211575147992481 0.00025394595950019376 0 -2.3669033511948421e-05 -0.00011172926135412107 0 -3.2580454016521776e-05 -0.00010578134368645046 0 -3.332359596647984e-05 -0.00011875341033445024 0 -1.4756372458647519e-05 -4.063564966082527e-06 0 -1.1826353793830886e-05 -2.2563944093550966e-06 0 -1.4723565620836722e-05 -3.6346728132071767e-06 0 -1.4199780284686194e-05 1.9328254635847034e-05 0 -2.1141891879800028e-05 2.5699721811752539e-05 0 -2.2883751342787761e-05 1.9025389308215231e-05 0 -3.6171587473517908e-05 -1.5978277165253603e-05 0 -3.1469580233498801e-05 -1.2371651150467551e-05 0 -3.6897509357041242e-05 -1.5089722326108558e-05 0 -3.8550891072507043e-05 -2.2442801009256028e-05 0 -4.3182723409279529e-05 -2.7519594739487207e-05 0 -3.8665143435835356e-05 -2.2262564168812661e-05 0 -1.6391180684225207e-05 -4.3412795794947994e-06 0 -1.5672346048076426e-05 -4.0527305229049951e-06 0 -2.025673286516961e-05 -6.1761928820523929e-06 0 -8.4581046836259719e-05 -7.6490899633848002e-05 0 -8.8517625174264347e-05 -9.0607021229641859e-05 0 -7.6480110028014612e-05 -7.9353743858663262e-05 0 -2.9730653987213456e-05 -1.0967468630935575e-05 0 -2.4076720965155619e-05 -8.0861675163314424e-06 0 -2.5103153700262658e-05 -8.867584131882819e-06 0 -1.9784532234198502e-05 -6.1842384708813031e-06 0 -2.5103153700262658e-05 -8.867584131882819e-06 0 -2.4076720965155619e-05 -8.0861675163314424e-06 0 -9.9148098567773457e-05 0.00015223595916259705 0 -7.9399114876391809e-05 0.00015679781588670111 0 -0.00010155509229482072 0.00017422561444485428 0 -2.5543204241070817e-06 -9.2308376833332948e-07 0 -5.3808148628968496e-06 -1.0504566713492149e-06 0 -2.8772990981977308e-06 -9.3804016043178378e-07 0 -6.3298285232448325e-06 -9.5309420814000161e-07 0 -2.8772990981977308e-06 -9.3804016043178378e-07 0 -5.3808148628968496e-06 -1.0504566713492149e-06 0 -5.5936040779254017e-06 -2.8544381466294284e-07 0 -5.5434920049141304e-06 -6.3843589933237804e-09 0 -2.6610576432114419e-06 2.0193176063948517e-07 0 -2.5953307463905121e-06 3.7512895299930253e-07 0 -2.6610576432114419e-06 2.0193176063948517e-07 0 -5.5434920049141304e-06 -6.3843589933237804e-09 0 -1.8706244406010065e-05 -9.0691303949927405e-06 0 -1.8059661195077288e-05 -7.7978985350550086e-06 0 -2.1385208019504589e-05 -1.184575474398505e-05 0 -2.5305026675790645e-05 -4.1131037212535668e-06 0 -2.7242724525052019e-05 -7.2133998505075543e-06 0 -2.8059415674664513e-05 -1.0844871892426951e-05 0 -3.0198628672680704e-05 -1.2681248510436805e-05 0 -2.8059415674664513e-05 -1.0844871892426951e-05 0 -2.7242724525052019e-05 -7.2133998505075543e-06 0 -4.3182723409279529e-05 -2.7519594739487207e-05 0 -4.6634997294162726e-05 -3.3114202085816026e-05 0 -4.3419225588193381e-05 -2.9734796908172755e-05 0 -3.0198628672680704e-05 -1.2681248510436805e-05 0 -2.9557903260663092e-05 -1.0648657130252474e-05 0 -3.1878474369247173e-05 -1.4496538852778748e-05 0 -2.5778515154835219e-05 -3.0876098975573851e-05 0 -2.267102326341118e-05 -2.607760697044007e-05 0 -2.7727941164574749e-05 -3.1287532523376199e-05 0 -4.7272336771642119e-05 -3.8163993464433427e-05 0 -4.4396968894155614e-05 -3.419264788566527e-05 0 -4.5702238259287412e-05 -3.4105359407316238e-05 0 -5.187091623834329e-05 -2.4730782473830259e-05 0 -5.939471296124181e-05 -3.1818486871567028e-05 0 -5.1247578299642296e-05 -2.7367235395100026e-05 0 -9.561928904907361e-05 5.2506882904288283e-05 0 -8.1509541388236835e-05 3.7372910051707692e-05 0 -7.889036814018446e-05 4.3188139528669001e-05 0 -1.5807305948710383e-05 -6.9851749683271736e-06 0 -2.198958088612061e-05 -1.2698956864000753e-05 0 -1.7218647870154721e-05 -1.555901883171081e-05 0 -2.5778515154835219e-05 -3.0876098975573851e-05 0 -2.9915567663669208e-05 -3.5826807029338985e-05 0 -2.8176908656269011e-05 -3.4880247624218153e-05 0 -3.143759683820263e-05 -1.7608625670296275e-05 0 -3.1332746736335273e-05 -1.4889071582143119e-05 0 -3.7781225195232385e-05 -1.9790949026019627e-05 0 -2.6246598033084407e-06 5.8807005426190559e-07 0 -1.0733065321094783e-06 2.9026075491686683e-07 0 -1.2247674170626343e-06 3.4977397581845306e-07 0 -1.2904989297033595e-05 4.6091282911075612e-06 0 -1.7444745107593143e-05 6.4916618808134632e-06 0 -1.4687234103688271e-05 2.9097334623672806e-06 0 -7.4962541123605634e-06 2.6717794305248624e-06 0 -1.0236978452829809e-05 2.6806015217721854e-06 0 -8.1735252748043244e-06 1.3187132580524697e-06 0 -1.7936318890931371e-05 9.0872206751698366e-06 0 -2.1620205448798947e-05 2.6576983765810091e-06 0 -2.1206774648463166e-05 -1.3663913879418836e-06 0 -1.5287500205248713e-05 -5.0047603464520842e-06 0 -1.1665116920125826e-05 -3.1782872552546742e-06 0 -1.1127689010540917e-05 -4.1317654525652069e-06 0 -7.7027362105404746e-06 -2.0563386874510984e-06 0 -1.1127689010540917e-05 -4.1317654525652069e-06 0 -1.1665116920125826e-05 -3.1782872552546742e-06 0 -1.0138094415959719e-05 9.8909572804854954e-07 0 -1.5440910646622625e-05 1.8255550959302728e-06 0 -1.4991436577705158e-05 3.4512865704391286e-06 0 -2.0762183558653512e-05 3.9927298006081913e-06 0 -1.4991436577705158e-05 3.4512865704391286e-06 0 -1.5440910646622625e-05 1.8255550959302728e-06 0 -7.3329261427695425e-05 -5.1090095589275841e-05 0 -7.9556052062653148e-05 -6.3267552860049979e-05 0 -6.8195453047126622e-05 -5.5350061764037797e-05 0 -3.6704466338879357e-05 8.0335569732875971e-05 0 -4.5554733611241915e-05 6.0252672702788552e-05 0 -3.2930084760507354e-05 5.6243757847212336e-05 0 -1.910287802031413e-05 -6.8467836064662035e-05 0 -2.7180652888581432e-05 -6.3017065172628426e-05 0 -2.9591338591029222e-05 -7.8541589099018541e-05 0 -3.5768298268682973e-05 -4.3943710988871343e-05 0 -3.8464609933169377e-05 -4.3735964001253376e-05 0 -3.8054895362821501e-05 -4.6946722937950925e-05 0 -1.1145150312424521e-05 -1.8533928455616109e-06 0 -1.4723565620836722e-05 -3.6346728132071767e-06 0 -1.1826353793830886e-05 -2.2563944093550966e-06 0 -2.1251707623376382e-05 -5.1550852689292556e-06 0 -1.6872342632959538e-05 -1.0424449933524017e-06 0 -1.785934264691986e-05 -4.2904784265307501e-06 0 -2.525262673364535e-05 -8.9025070624036877e-06 0 -2.025673286516961e-05 -6.1761928820523929e-06 0 -2.4076720965155619e-05 -8.0861675163314424e-06 0 -2.814194260014176e-05 0.00014417346533362847 0 -5.8856699896914581e-06 0.0001535290926319351 0 -1.8028529824822461e-05 0.00017175334203314093 0 -1.8244047083013851e-09 2.0872190992517803e-10 0 -1.9410148219358884e-06 5.0244901068194587e-07 0 -1.2247674170626343e-06 3.4977397581845306e-07 0 -3.9408055928918607e-05 -3.1595718205799152e-05 0 -3.7107361675768628e-05 -3.1965702944393113e-05 0 -3.5961770239445816e-05 -2.7095632086922124e-05 0 -1.5807305948710383e-05 -6.9851749683271736e-06 0 -1.5559763635037648e-05 9.906336136890867e-06 0 -2.1206774648463166e-05 -1.3663913879418836e-06 0 -0.00013207150710613146 0.00012273544773685802 0 -0.00012113043163286859 9.5439548213714949e-05 0 -0.00010816241266392522 0.00010568464974960999 0 -2.0440164340693224e-06 4.2660865722391314e-07 0 -2.4305155520912631e-06 3.5025202390723109e-07 0 -1.3123729634693435e-06 1.3588264070539622e-07 0 -5.5936040779254017e-06 -2.8544381466294284e-07 0 -2.6610576432114419e-06 2.0193176063948517e-07 0 -2.6342547745367707e-06 -2.5838272450758122e-08 0 -6.3298285232448325e-06 -9.5309420814000161e-07 0 -3.0947567001240633e-06 -7.1539206464694489e-07 0 -2.8772990981977308e-06 -9.3804016043178378e-07 0 -8.9649349700047882e-06 2.2108153084355487e-06 0 -7.429636243621127e-06 1.5435627249564548e-06 0 -8.988315998502763e-06 7.3940186762488623e-07 0 -4.5757854385094448e-05 -2.6244774620008133e-05 0 -4.4199082428554842e-05 -2.1754019592094655e-05 0 -5.1247578299642296e-05 -2.7367235395100026e-05 0 -6.6583445185819913e-05 4.1619616575880714e-05 0 -7.889036814018446e-05 4.3188139528669001e-05 0 -6.567150953852814e-05 3.2115347658640815e-05 0 -3.225511954142363e-05 0.00024232171459660591 0 -1.9817170566959333e-05 0.00021383559695783261 0 -9.0742458534991155e-06 0.00022919442746118681 0 -7.4255697957373605e-05 -0.00011917336517529592 0 -7.7531751394695393e-05 -0.00010499640430093021 0 -8.4201488161913808e-05 -0.00011440378747962531 0 -1.4553566474927978e-05 -1.6153473292468357e-05 0 -1.7218647870154721e-05 -1.555901883171081e-05 0 -2.0966100572603348e-05 -2.2094577947511303e-05 0 -1.9747652569749813e-05 1.1416881211009504e-05 0 -2.2883751342787761e-05 1.9025389308215231e-05 0 -2.7285423501107041e-05 1.5827296655563131e-05 0 -2.2640663944374591e-05 -1.9089517149363087e-05 0 -2.0966100572603348e-05 -2.2094577947511303e-05 0 -1.7218647870154721e-05 -1.555901883171081e-05 0 -7.6254563748366513e-06 6.0519064598211818e-07 0 -6.7919277797943104e-06 4.4963503121516174e-07 0 -9.1954416868736136e-06 -2.9202716635290674e-07 0 -2.2278081384204402e-06 9.9248238142274926e-08 0 -1.6251011072270175e-06 -3.0003622268928909e-07 0 -1.0549880057834933e-06 -6.5024346172513227e-08 0 -1.4756372458647519e-05 -4.063564966082527e-06 0 -1.2567388684405967e-05 -2.822752173089259e-06 0 -1.1826353793830886e-05 -2.2563944093550966e-06 0 -1.8538214582285284e-05 6.412816804498701e-06 0 -2.1620205448798947e-05 2.6576983765810091e-06 0 -1.56331742839122e-05 1.2371425532138269e-05 0 -1.7936318890931371e-05 9.0872206751698366e-06 0 -1.56331742839122e-05 1.2371425532138269e-05 0 -2.1620205448798947e-05 2.6576983765810091e-06 0 -6.461852674533341e-05 -9.5997828733979169e-05 0 -7.7531751394695393e-05 -0.00010499640430093021 0 -6.7842953878896462e-05 -0.00010919607438137358 0 -7.4255697957373605e-05 -0.00011917336517529592 0 -6.7842953878896462e-05 -0.00010919607438137358 0 -7.7531751394695393e-05 -0.00010499640430093021 0 -4.0462443615206716e-05 0.00019446453765247201 0 -1.9817170566959333e-05 0.00021383559695783261 0 -4.2594711872783851e-05 0.00022377868576527315 0 -3.225511954142363e-05 0.00024232171459660591 0 -4.2594711872783851e-05 0.00022377868576527315 0 -1.9817170566959333e-05 0.00021383559695783261 0 -4.0462443615206716e-05 0.00019446453765247201 0 -4.1054527884413499e-05 0.00016562799236181512 0 -1.8028529824822461e-05 0.00017175334203314093 0 -2.814194260014176e-05 0.00014417346533362847 0 -1.8028529824822461e-05 0.00017175334203314093 0 -4.1054527884413499e-05 0.00016562799236181512 0 -1.567762596997396e-09 1.6065623987578869e-10 0 -1.643802230935003e-09 1.7845288266375675e-10 0 -1.0733065321094783e-06 2.9026075491686683e-07 0 -1.8018022764817154e-05 -2.0819705671541931e-05 0 -2.0966100572603352e-05 -2.2094577947511306e-05 0 -2.267102326341118e-05 -2.607760697044007e-05 0 -2.5626453571127927e-05 -2.7419980249832365e-05 0 -2.267102326341118e-05 -2.607760697044007e-05 0 -2.0966100572603348e-05 -2.2094577947511303e-05 0 -6.7062948713857585e-05 -7.5655199274401918e-05 0 -7.0213184120651587e-05 -6.6759840259584787e-05 0 -7.6480110028014612e-05 -7.9353743858663262e-05 0 -7.9556052062653148e-05 -6.3267552860049979e-05 0 -7.0213184120651587e-05 -6.6759840259584787e-05 0 -6.8195453047126622e-05 -5.5350061764037797e-05 0 -0.00013207150710613146 0.00012273544773685802 0 -0.00010816241266392522 0.00010568464974960999 0 -0.00011003538543512773 0.00013214411323259753 0 -9.5195764321706487e-06 5.994493975972015e-06 0 -9.9487180419219672e-06 8.3533400402375509e-06 0 -8.2683856656408138e-06 6.7951664703257438e-06 0 -9.1054621613162852e-06 1.0407586568990251e-05 0 -8.2683856656408138e-06 6.7951664703257438e-06 0 -9.9487180419219672e-06 8.3533400402375509e-06 0 -4.9943780619969026e-06 8.2826244449261743e-07 0 -6.0865508173454853e-06 1.0178598842863761e-06 0 -4.7527204607311177e-06 1.0544371351065423e-06 0 -2.6246598033084407e-06 5.8807005426190559e-07 0 -1.224767417062634e-06 3.49773975818453e-07 0 -1.9410148219358884e-06 5.0244901068194587e-07 0 -2.692023837004755e-05 5.2861637166546535e-06 0 -3.5785826492709223e-05 8.9565679274077373e-06 0 -2.8753143987692508e-05 6.8522867660487401e-06 0 -1.9784532234198502e-05 -6.1842384708813031e-06 0 -2.0639152507457041e-05 -7.2814413620578847e-06 0 -2.5103153700262658e-05 -8.867584131882819e-06 0 -1.9784532234198502e-05 -6.1842384708813031e-06 0 -2.4076720965155619e-05 -8.0861675163314407e-06 0 -2.025673286516961e-05 -6.1761928820523929e-06 0 1.0864026519279683e-05 0.00020371579111842729 0 -9.0742458534991155e-06 0.00022919442746118681 0 -1.9817170566959333e-05 0.00021383559695783261 0 -9.1452884462546515e-05 -0.00010494488573998211 0 -8.4201488161913808e-05 -0.00011440378747962533 0 -7.7531751394695393e-05 -0.00010499640430093021 0 -1.5810093031843212e-09 -4.575209606631158e-13 0 -1.0549880057834933e-06 -6.5024346172513253e-08 0 -1.6251011072270175e-06 -3.0003622268928909e-07 0 -7.4962541123605634e-06 2.6717794305248624e-06 0 -1.0002379109249444e-05 4.8958510810867268e-06 0 -1.0236978452829809e-05 2.6806015217721854e-06 0 -5.0111880258756879e-05 -6.5081702452257626e-05 0 -5.3615870721912162e-05 -5.5545334019345072e-05 0 -5.8280026917688643e-05 -6.5173214804083979e-05 0 -2.1150167624896916e-05 5.763725223614664e-06 0 -1.7444745107593139e-05 6.4916618808134632e-06 0 -2.4187297177056832e-05 9.8243821788298101e-06 0 -2.4913088940455163e-05 -1.6949530289672423e-05 0 -3.0056248780807263e-05 -1.9960714206807046e-05 0 -2.9120534339641011e-05 -2.3350569948887275e-05 0 -7.9412265966232915e-06 5.4724882304513716e-06 0 -8.2683856656408138e-06 6.7951664703257438e-06 0 -8.8704382231886784e-06 8.4624742888948604e-06 0 -6.5428964070743753e-05 0.00012417102274482985 0 -8.6266038031263797e-05 0.00012899633576292995 0 -7.497856731101262e-05 0.00010684574960153801 0 -4.5757854385094448e-05 -2.6244774620008133e-05 0 -5.4977285235457214e-05 -3.3125906951351618e-05 0 -4.8155947999115862e-05 -3.2558361060547687e-05 0 -6.6583445185819913e-05 4.1619616575880714e-05 0 -7.1315485105108743e-05 5.466190917552455e-05 0 -8.4897346030244372e-05 5.6497323400480662e-05 0 -4.020068401110824e-05 -4.6835617300772776e-05 0 -3.9001745184811109e-05 -4.9756036307379571e-05 0 -3.8054895362821501e-05 -4.6946722937950925e-05 0 -3.7209890517443527e-05 -4.9105744473924827e-05 0 -3.8054895362821501e-05 -4.6946722937950925e-05 0 -3.9001745184811109e-05 -4.9756036307379571e-05 0 -2.525262673364535e-05 -8.9025070624036877e-06 0 -2.0668968518810219e-05 -6.6392259278949433e-06 0 -2.025673286516961e-05 -6.1761928820523929e-06 0 -1.6391180684225207e-05 -4.3412795794947994e-06 0 -2.025673286516961e-05 -6.1761928820523929e-06 0 -2.0668968518810219e-05 -6.6392259278949433e-06 0 -1.4807355178774908e-05 -4.6997587081567875e-06 0 -1.8059661195077288e-05 -7.7978985350550086e-06 0 -1.6262798245289965e-05 -6.1198767217839309e-06 0 -2.9730653987213456e-05 -1.0967468630935575e-05 0 -3.6897509357041242e-05 -1.5089722326108558e-05 0 -3.1469580233498801e-05 -1.2371651150467551e-05 0 -3.1770113411990779e-05 8.6575932189956784e-06 0 -3.2374686728179095e-05 7.5269275601051582e-06 0 -2.4942084507738856e-05 5.4033825967488794e-06 0 -4.3210570305153493e-05 -5.1503418659789526e-05 0 -3.9862480498020182e-05 -5.2014367457773648e-05 0 -4.1156909921263713e-05 -4.9475331164878299e-05 0 -6.5428964070743753e-05 0.00012417102274482985 0 -7.9399114876391809e-05 0.00015679781588670111 0 -8.6266038031263797e-05 0.00012899633576292995 0 -1.643802230935003e-09 1.7845288266375675e-10 0 -1.8244047083013851e-09 2.0872190992517803e-10 0 -1.2247674170626343e-06 3.4977397581845306e-07 0 1.217119654437804e-05 0.0001731952189463108 0 -1.8028529824822461e-05 0.00017175334203314093 0 -5.8856699896914581e-06 0.0001535290926319351 0 -1.0742605262347247e-05 1.6310958361399436e-05 0 -8.9361323301648759e-06 2.0710866879804339e-05 0 -9.4838765196489806e-06 1.4661003449360928e-05 0 -6.6583445185819913e-05 4.1619616575880714e-05 0 -5.4859621140794341e-05 3.9491357409607456e-05 0 -7.1315485105108743e-05 5.466190917552455e-05 0 -1.0742605262347247e-05 1.6310958361399436e-05 0 -1.0657946182010835e-05 1.1868697687643807e-05 0 -1.3538851565226223e-05 1.1526204670115618e-05 0 -1.0742605262347247e-05 1.6310958361399436e-05 0 -9.4838765196489789e-06 1.4661003449360927e-05 0 -1.0657946182010835e-05 1.1868697687643807e-05 0 -1.910882041640817e-05 -6.1551284000916755e-06 0 -2.3790959377703779e-05 -8.823058813842419e-06 0 -2.2290204885241709e-05 -8.9622535714950696e-06 0 -9.5560162027121639e-06 -1.1272810424492214e-06 0 -1.1826353793830886e-05 -2.2563944093550966e-06 0 -1.2567388684405965e-05 -2.8227521730892586e-06 0 -8.9837851133154692e-05 0.0001051277757536489 0 -0.00011003538543512773 0.00013214411323259753 0 -0.00010816241266392522 0.00010568464974960999 0 -2.3069427462101959e-05 -1.2434836137940893e-05 0 -2.5134114926279041e-05 -1.0530153710268378e-05 0 -2.1162903372007467e-05 -8.1566983862097991e-06 0 -1.8538214582285284e-05 6.412816804498701e-06 0 -1.56331742839122e-05 1.2371425532138269e-05 0 -1.3538851565226223e-05 1.1526204670115618e-05 0 -3.8452963581555784e-05 -2.6881545142962844e-05 0 -3.5535325535916885e-05 -2.2529595689692764e-05 0 -3.6985951901262606e-05 -2.1960400222193246e-05 0 -4.5757854385094448e-05 -2.6244774620008133e-05 0 -5.1247578299642296e-05 -2.736723539510003e-05 0 -5.4977285235457214e-05 -3.3125906951351618e-05 0 -6.6583445185819913e-05 4.1619616575880714e-05 0 -8.4897346030244372e-05 5.6497323400480662e-05 0 -7.889036814018446e-05 4.3188139528669001e-05 0 -0.00011096625572956823 0.00024242051916055805 0 -0.00013211575147992481 0.00025394595950019376 0 -0.00012786222297842898 0.00022655493653398951 0 -4.0978971028684936e-05 -0.00011503746689719827 0 -3.332359596647984e-05 -0.00011875341033445024 0 -3.2580454016521776e-05 -0.00010578134368645046 0 -4.3159904606049008e-05 -3.1233366187884774e-05 0 -4.0280625382618128e-05 -2.7054648349849149e-05 0 -4.3419225588193381e-05 -2.9734796908172755e-05 0 -9.1054621613162852e-06 1.0407586568990251e-05 0 -8.8704382231886784e-06 8.4624742888948604e-06 0 -8.2683856656408138e-06 6.7951664703257438e-06 0 -1.8474711224062462e-05 3.2421737736061022e-06 0 -2.4942084507738856e-05 5.4033825967488794e-06 0 -2.1483415732484297e-05 3.1711607571489495e-06 0 -3.6171587473517908e-05 -1.5978277165253603e-05 0 -2.9421377806162259e-05 -1.2009133972538995e-05 0 -3.1469580233498801e-05 -1.2371651150467551e-05 0 -5.2180602902759738e-05 2.1881013139241579e-05 0 -4.319311571505906e-05 1.9816444533858889e-05 0 -5.2934879409244703e-05 2.9048271555823086e-05 0 -2.1728499019549715e-05 -1.3867472710906712e-05 0 -2.4610436371112842e-05 -1.9744952261434056e-05 0 -2.3839353765558849e-05 -1.7299931337593263e-05 0 -2.6539647047846388e-05 -1.1393307798132328e-05 0 -2.9421377806162259e-05 -1.2009133972538995e-05 0 -3.1332746736335273e-05 -1.4889071582143119e-05 0 -1.8538214582285284e-05 6.412816804498701e-06 0 -1.6697355979601997e-05 4.5856079558742269e-06 0 -2.2055907013789736e-05 2.2279510676997907e-07 0 -1.5810093031843212e-09 -4.575209606631158e-13 0 -1.5511142588453557e-09 -7.1764410860333578e-11 0 -1.0549880057834933e-06 -6.5024346172513227e-08 0 -4.3486615699184823e-05 -3.5757158135116543e-05 0 -4.4396968894155614e-05 -3.419264788566527e-05 0 -4.7272336771642119e-05 -3.8163993464433427e-05 0 -4.447322413434412e-05 -1.9363913881409825e-05 0 -4.2432886945155263e-05 -1.8851661414365114e-05 0 -3.6897509357041242e-05 -1.5089722326108558e-05 0 -6.7995261159037228e-05 2.6668582143360863e-05 0 -5.3893718350221267e-05 1.9017618814680349e-05 0 -6.3525503587128309e-05 2.6005328874554552e-05 0 -6.0071826109503505e-05 -5.4537266136421789e-05 0 -6.8195453047126622e-05 -5.5350061764037797e-05 0 -7.0213184120651587e-05 -6.6759840259584787e-05 0 -3.4694180309982701e-05 -2.729006551739556e-05 0 -3.4449895051257342e-05 -3.2667057472036174e-05 0 -2.9120534339641011e-05 -2.3350569948887275e-05 0 -2.8466967017696683e-05 -2.7398666041963018e-05 0 -2.9120534339641011e-05 -2.3350569948887275e-05 0 -3.4449895051257342e-05 -3.2667057472036174e-05 0 -2.6539647047846388e-05 -1.1393307798132328e-05 0 -2.6324143192938749e-05 -1.2768367140969157e-05 0 -2.2290204885241709e-05 -8.9622535714950696e-06 0 -3.8452963581555784e-05 -2.6881545142962844e-05 0 -3.6985951901262606e-05 -2.1960400222193246e-05 0 -4.0280625382618128e-05 -2.7054648349849149e-05 0 -6.7062948713857585e-05 -7.5655199274401918e-05 0 -5.841771304103976e-05 -7.436208316872209e-05 0 -5.8280026917688643e-05 -6.5173214804083979e-05 0 -2.6539647047846388e-05 -1.1393307798132328e-05 0 -2.2290204885241709e-05 -8.9622535714950696e-06 0 -2.3790959377703779e-05 -8.823058813842419e-06 0 -3.4208022536387289e-05 -1.8399624620885448e-05 0 -3.6985951901262606e-05 -2.1960400222193246e-05 0 -3.5535325535916885e-05 -2.2529595689692764e-05 0 -2.9719856599071454e-06 -4.358715448642763e-07 0 -3.0458475500163884e-06 -5.2709323343313112e-09 0 -4.0671529385200274e-06 2.7783581504452524e-08 0 -5.939471296124181e-05 -3.1818486871567028e-05 0 -5.4977285235457214e-05 -3.3125906951351618e-05 0 -5.1247578299642296e-05 -2.7367235395100026e-05 0 -9.561928904907361e-05 5.2506882904288283e-05 0 -7.889036814018446e-05 4.3188139528669001e-05 0 -8.4897346030244372e-05 5.6497323400480662e-05 0 -9.1452884462546515e-05 -0.00010494488573998211 0 -7.7531751394695393e-05 -0.00010499640430093021 0 -8.2870545582384484e-05 -9.7751191267462866e-05 0 1.0864026519279683e-05 0.00020371579111842729 0 -1.9817170566959333e-05 0.00021383559695783261 0 -1.143333491754011e-05 0.00019204131568265528 0 1.217119654437804e-05 0.0001731952189463108 0 -1.143333491754011e-05 0.00019204131568265528 0 -1.8028529824822461e-05 0.00017175334203314093 0 -9.1452884462546515e-05 -0.00010494488573998211 0 -9.3298656402775396e-05 -0.00011933503171254231 0 -8.4201488161913808e-05 -0.00011440378747962531 0 1.0864026519279683e-05 0.00020371579111842729 0 8.7811811615528995e-06 0.00023385985640239626 0 -9.0742458534991155e-06 0.00022919442746118681 0 -2.2640663944374591e-05 -1.9089517149363087e-05 0 -2.198958088612061e-05 -1.2698956864000753e-05 0 -2.6154639917024996e-05 -1.8410494510383192e-05 0 -4.0178829239956182e-05 -2.5195236463719396e-05 0 -4.3419225588193381e-05 -2.9734796908172755e-05 0 -4.0280625382618128e-05 -2.7054648349849149e-05 0 -5.3580342889507226e-05 -4.9607712623616849e-05 0 -5.4782587429380643e-05 -5.2217798256431311e-05 0 -5.256239447863139e-05 -4.8075556960460278e-05 0 -2.963736046766508e-05 -3.6305513198278367e-05 0 -3.2848640622392863e-05 -4.275578998663025e-05 0 -3.2383952319530646e-05 -3.9644030271704382e-05 0 -6.6583445185819913e-05 4.1619616575880714e-05 0 -5.2934879409244703e-05 2.9048271555823086e-05 0 -5.4859621140794341e-05 3.9491357409607456e-05 0 -1.6391180684225207e-05 -4.3412795794947994e-06 0 -1.3135610481590625e-05 -2.7727918007780394e-06 0 -1.5672346048076426e-05 -4.0527305229049951e-06 0 -5.5293433460666217e-06 1.6196674043706377e-06 0 -6.0865508173454853e-06 1.0178598842863761e-06 0 -7.429636243621127e-06 1.5435627249564548e-06 0 -9.9148098567773457e-05 0.00015223595916259705 0 -8.6266038031263797e-05 0.00012899633576292995 0 -7.9399114876391809e-05 0.00015679781588670111 0 -3.6133697214774759e-05 -7.2055835356710603e-05 0 -2.9591338591029222e-05 -7.8541589099018541e-05 0 -2.7180652888581432e-05 -6.3017065172628426e-05 0 -2.2278081384204402e-06 9.9248238142274926e-08 0 -1.0549880057834933e-06 -6.5024346172513227e-08 0 -1.3123729634693435e-06 1.3588264070539622e-07 0 -3.143759683820263e-05 -1.7608625670296275e-05 0 -2.5600902186951799e-05 -1.457424793885425e-05 0 -2.6324143192938749e-05 -1.2768367140969157e-05 0 1.2593332257113656e-05 0.0001426003626625594 0 1.2171196544378042e-05 0.0001731952189463108 0 -5.8856699896914581e-06 0.0001535290926319351 0 -6.1442411954473351e-06 -5.8699941650469309e-07 0 -6.8211685035563463e-06 1.4180358574763167e-07 0 -8.414175394468561e-06 -1.3267403214001409e-07 0 -2.2640663944374591e-05 -1.9089517149363087e-05 0 -2.6154639917024996e-05 -1.8410494510383192e-05 0 -2.5645942237619538e-05 -2.3872640405232493e-05 0 -2.9229506995955598e-05 -2.4254329627235329e-05 0 -2.5645942237619538e-05 -2.3872640405232493e-05 0 -2.6154639917024996e-05 -1.8410494510383192e-05 0 -4.9843997864119022e-05 -4.611618951932656e-05 0 -5.0911907290755662e-05 -4.5074705826495581e-05 0 -5.256239447863139e-05 -4.8075556960460278e-05 0 -5.3580342889507226e-05 -4.9607712623616849e-05 0 -5.256239447863139e-05 -4.8075556960460278e-05 0 -5.0911907290755662e-05 -4.5074705826495581e-05 0 -2.963736046766508e-05 -3.6305513198278367e-05 0 -3.155438840118827e-05 -4.0614447597561413e-05 0 -3.2848640622392863e-05 -4.275578998663025e-05 0 -3.4390183421777246e-05 -4.6054334152604014e-05 0 -3.2848640622392863e-05 -4.275578998663025e-05 0 -3.155438840118827e-05 -4.0614447597561413e-05 0 -9.5195764321706487e-06 5.994493975972015e-06 0 -8.1040590307243587e-06 4.3471470707303289e-06 0 -1.0877119168226772e-05 3.5707503634081922e-06 0 -1.5807305948710383e-05 -6.9851749683271736e-06 0 -2.1206774648463166e-05 -1.3663913879418836e-06 0 -2.198958088612061e-05 -1.2698956864000753e-05 0 -2.5887984325624544e-05 -9.1315594780546537e-06 0 -2.198958088612061e-05 -1.2698956864000755e-05 0 -2.1206774648463166e-05 -1.3663913879418836e-06 0 -6.7062948713857585e-05 -7.5655199274401918e-05 0 -7.6480110028014612e-05 -7.9353743858663262e-05 0 -7.3949494473614106e-05 -8.9668141090231088e-05 0 -2.525262673364535e-05 -8.9025070624036877e-06 0 -2.9421377806162259e-05 -1.2009133972538995e-05 0 -2.3790959377703779e-05 -8.823058813842419e-06 0 -2.6539647047846388e-05 -1.1393307798132328e-05 0 -2.3790959377703779e-05 -8.823058813842419e-06 0 -2.9421377806162259e-05 -1.2009133972538995e-05 0 -2.4761736768691587e-05 -2.277222311559924e-05 0 -3.2893652231173508e-05 -1.8814974450929246e-05 0 -3.1058764172376785e-05 -1.7230672468176107e-05 0 -4.8114990402475425e-05 -4.1573201091078688e-05 0 -5.0911907290755662e-05 -4.5074705826495581e-05 0 -4.7718782245627912e-05 -4.3156787927289513e-05 0 -3.1413593949262724e-05 -3.9129892680710572e-05 0 -3.3778174092070134e-05 -4.3120193421510342e-05 0 -3.155438840118827e-05 -4.0614447597561413e-05 0 -7.6254563748366513e-06 6.0519064598211818e-07 0 -7.429636243621127e-06 1.5435627249564548e-06 0 -6.0865508173454853e-06 1.0178598842863761e-06 0 -3.9862480498020182e-05 -5.2014367457773648e-05 0 -3.9001745184811109e-05 -4.9756036307379571e-05 0 -4.1156909921263713e-05 -4.9475331164878299e-05 0 -6.3986492505804985e-06 2.863309567658347e-07 0 -4.7557922094105555e-06 6.7043855685726867e-07 0 -4.2198890626557555e-06 5.9459315969934339e-07 0 -3.4208022536387289e-05 -1.8399624620885448e-05 0 -3.1878474369247173e-05 -1.4496538852778748e-05 0 -3.3517285575295275e-05 -1.5757248277446953e-05 0 -2.2278081384204402e-06 9.9248238142274926e-08 0 -3.1799272801069431e-06 4.2421340331265873e-07 0 -3.0458475500163884e-06 -5.2709323343313542e-09 0 -6.3707926116290866e-05 0.00017075720158793442 0 -5.3686243125935861e-05 0.00014667475912475439 0 -4.1054527884413499e-05 0.00016562799236181512 0 -6.6177035744716391e-05 0.00022372177594307495 0 -4.2594711872783844e-05 0.00022377868576527315 0 -5.3306515435930659e-05 0.0002429450888142167 0 -5.7892240090690554e-05 -0.00010932870943730997 0 -6.7842953878896462e-05 -0.00010919607438137358 0 -6.4896576748518352e-05 -0.00011844340686815304 0 -3.4780857067997459e-06 3.1209276214217025e-05 0 -1.5559763635037648e-05 9.906336136890867e-06 0 -5.5297477570649853e-06 1.1370547098346078e-06 0 -2.2278081384204402e-06 9.9248238142274926e-08 0 -1.3123729634693435e-06 1.3588264070539622e-07 0 -2.4305155520912627e-06 3.5025202390723109e-07 0 -8.851762517426436e-05 -9.0607021229641859e-05 0 -8.2870545582384484e-05 -9.7751191267462853e-05 0 -7.3949494473614106e-05 -8.9668141090231088e-05 0 -9.4315987070626455e-05 -0.00017095066169109187 0 -8.6309329854428144e-05 -0.00016418309971711443 0 -9.4401724865105242e-05 -0.00015898802996423437 0 -4.2461547260514102e-06 0.00034588056512055247 0 -1.8325169074521376e-05 0.00033761199472013789 0 -8.7971792986142229e-07 0.00032124484252408548 0 -4.2461547260514102e-06 0.00034588056512055247 0 -2.7083159040407181e-05 0.00035308542097451642 0 -1.832516907452138e-05 0.00033761199472013789 0 -3.29280714598281e-05 -0.00016379760540256126 0 -3.8147327744855255e-05 -0.00016106549157986742 0 -4.1651735071780623e-05 -0.00016753826772994272 0 -0.00015423506981631692 0.00036010896013565592 0 -0.00015436588113649496 0.00033272138048272488 0 -0.00013591390184956018 0.00034460051512466647 0 -9.4315987070626455e-05 -0.00017095066169109187 0 -8.2363625405861387e-05 -0.00017084830047418658 0 -8.6309329854428144e-05 -0.00016418309971711443 0 -3.29280714598281e-05 -0.00016379760540256126 0 -3.0951007245226177e-05 -0.00015335178890729762 0 -3.8147327744855255e-05 -0.00016106549157986742 0 -0.00015423506981631692 0.00036010896013565592 0 -0.00013591390184956018 0.00034460051512466647 0 -0.00012684432559790476 0.00035995233418656002 0 -1.5511142588455489e-09 -7.1764410860345494e-11 0 -1.3123729634693435e-06 1.3588264070539622e-07 0 -1.0549880057834933e-06 -6.5024346172513227e-08 0 -3.8452963581555784e-05 -2.6881545142962844e-05 0 -3.5961770239445816e-05 -2.7095632086922124e-05 0 -3.5535325535916885e-05 -2.2529595689692764e-05 0 -2.6539647047846388e-05 -1.1393307798132328e-05 0 -3.1332746736335273e-05 -1.4889071582143119e-05 0 -2.6324143192938749e-05 -1.2768367140969157e-05 0 -6.7062948713857585e-05 -7.5655199274401918e-05 0 -6.3074175471791746e-05 -8.3555083668243078e-05 0 -5.841771304103976e-05 -7.436208316872209e-05 0 -5.6828321931739715e-06 6.3715937439601652e-07 0 -8.1735252748043244e-06 1.3187132580524697e-06 0 -6.8211685035563463e-06 1.4180358574763167e-07 0 -7.1515988134248886e-05 0.00026041662269854385 0 -9.0640921985191196e-05 0.00027849190928150986 0 -9.0953427531319586e-05 0.00025121636121714584 0 -5.8321886537343299e-05 -0.00012582033162118379 0 -5.1706206214694351e-05 -0.00013365055611498029 0 -4.9754482028057902e-05 -0.00012098113342054435 0 -5.0929957516371394e-05 -4.2795709404283166e-05 0 -5.2408623250185223e-05 -4.6501380111542489e-05 0 -5.0048814147204676e-05 -4.2573885221970034e-05 0 -2.4186755179593123e-05 -2.8790950129371427e-05 0 -2.8176908656269011e-05 -3.4880247624218153e-05 0 -2.7054079749210127e-05 -3.2705515653512097e-05 0 -1.026282711521748e-05 -9.7531725238779806e-06 0 -1.7218647870154721e-05 -1.555901883171081e-05 0 -1.4553566474927978e-05 -1.6153473292468357e-05 0 -3.143759683820263e-05 -1.7608625670296275e-05 0 -2.6324143192938749e-05 -1.2768367140969157e-05 0 -3.1332746736335273e-05 -1.4889071582143119e-05 0 -4.6634997294162726e-05 -3.3114202085816026e-05 0 -4.9108689355562587e-05 -3.8242824485884714e-05 0 -4.5702238259287412e-05 -3.4105359407316238e-05 0 -1.8018022764817154e-05 -2.0819705671541931e-05 0 -2.267102326341118e-05 -2.607760697044007e-05 0 -2.1291612980259813e-05 -2.49318976263891e-05 0 -5.0111880258756879e-05 -6.5081702452257626e-05 0 -4.3408802458357509e-05 -6.8884668247940639e-05 0 -4.2199841265186942e-05 -5.5940719168642461e-05 0 -5.5293433460666217e-06 1.6196674043706377e-06 0 -4.7527204607311168e-06 1.0544371351065421e-06 0 -6.0865508173454853e-06 1.0178598842863761e-06 0 -4.0978971028684936e-05 -0.00011503746689719827 0 -4.7982034097810806e-05 -0.00010674428355434673 0 -4.9754482028057902e-05 -0.00012098113342054435 0 -0.00011096625572956823 0.00024242051916055805 0 -8.9392993023049003e-05 0.00022426813143849479 0 -9.0953427531319586e-05 0.00025121636121714584 0 -2.5626453571127927e-05 -2.7419980249832365e-05 0 -2.0966100572603348e-05 -2.2094577947511303e-05 0 -2.5645942237619538e-05 -2.3872640405232493e-05 0 -2.2640663944374591e-05 -1.9089517149363087e-05 0 -2.5645942237619538e-05 -2.3872640405232493e-05 0 -2.0966100572603348e-05 -2.2094577947511303e-05 0 -9.5560162027121639e-06 -1.1272810424492214e-06 0 -8.9847990246452093e-06 -9.2488935549425374e-07 0 -1.1826353793830886e-05 -2.2563944093550966e-06 0 -3.4694180309982701e-05 -2.729006551739556e-05 0 -2.9120534339641011e-05 -2.3350569948887272e-05 0 -3.0056248780807263e-05 -1.9960714206807046e-05 0 -3.3422600768176424e-05 -5.5518929861327876e-05 0 -2.5614605299110828e-05 -4.9312697916001803e-05 0 -2.9745261445318876e-05 -3.885091926663455e-05 0 -3.3629350835061875e-05 -2.2365033270224693e-05 0 -3.5535325535916885e-05 -2.2529595689692764e-05 0 -3.5961770239445816e-05 -2.7095632086922124e-05 0 -2.0222474316362371e-05 -4.0755433011581078e-05 0 -2.5614605299110828e-05 -4.9312697916001803e-05 0 -1.8798585340274208e-05 -5.4467888907163553e-05 0 -2.5778515154835219e-05 -3.0876098975573851e-05 0 -2.7727941164574749e-05 -3.1287532523376199e-05 0 -2.9915567663669208e-05 -3.5826807029338985e-05 0 -3.1346367945514654e-05 -3.4698979503739639e-05 0 -2.9915567663669208e-05 -3.5826807029338985e-05 0 -2.7727941164574749e-05 -3.1287532523376199e-05 0 -1.1711672343061981e-05 -2.4855370836925779e-06 0 -1.508246514495971e-05 -4.2012968124192828e-06 0 -1.5672346048076426e-05 -4.0527305229049951e-06 0 -1.8243295612997651e-05 -6.5224063789470308e-06 0 -2.1162903372007467e-05 -8.1566983862097991e-06 0 -1.785934264691986e-05 -4.2904784265307501e-06 0 -2.1251707623376382e-05 -5.1550852689292556e-06 0 -1.785934264691986e-05 -4.2904784265307501e-06 0 -2.1162903372007467e-05 -8.1566983862097991e-06 0 -1.0742605262347247e-05 1.6310958361399436e-05 0 -1.56331742839122e-05 1.2371425532138269e-05 0 -1.1305920732229625e-05 2.0889497756387451e-05 0 -1.7936318890931371e-05 9.0872206751698366e-06 0 -1.1305920732229625e-05 2.0889497756387451e-05 0 -1.56331742839122e-05 1.2371425532138269e-05 0 1.217119654437804e-05 0.0001731952189463108 0 1.0864026519279683e-05 0.00020371579111842729 0 -1.143333491754011e-05 0.00019204131568265528 0 -1.3219624807933309e-05 8.9707370451197713e-06 0 -9.9487180419219672e-06 8.3533400402375509e-06 0 -1.2034542792155634e-05 6.2511935686822697e-06 0 -8.851762517426436e-05 -9.0607021229641859e-05 0 -9.1452884462546515e-05 -0.00010494488573998211 0 -8.2870545582384484e-05 -9.7751191267462866e-05 0 -1.1145150312424521e-05 -1.8533928455616109e-06 0 -1.1826353793830886e-05 -2.2563944093550966e-06 0 -8.9847990246452093e-06 -9.2488935549425374e-07 0 -1.465221682894348e-05 8.7413596236678881e-07 0 -1.1320488083773857e-05 3.3106752334634989e-07 0 -9.7919923812907007e-06 -3.576902922565554e-07 0 -1.1711672343061981e-05 -2.4855370836925779e-06 0 -8.0983859402411635e-06 -1.1632786974143379e-06 0 -8.900381894401952e-06 -1.7924632285923894e-06 0 -7.4962541123605634e-06 2.6717794305248624e-06 0 -5.6309690336072334e-06 1.8613077493766943e-06 0 -6.8606120788803002e-06 3.6858112274733742e-06 0 -6.6887668622640554e-06 -3.7737743572197312e-06 0 -5.4132223022772601e-06 -2.0628599706188042e-06 0 -2.7781878572449338e-06 -1.274453962933629e-06 0 -4.0531881365136146e-09 2.9614888073470376e-10 0 -2.7781878572449338e-06 -1.274453962933629e-06 0 -5.4132223022772601e-06 -2.0628599706188042e-06 0 -8.5854563013464543e-06 4.0413848081174698e-06 0 -3.6136332385273874e-06 1.2155410130412576e-06 0 -7.2161781775489286e-06 1.6356662497529171e-06 0 -5.4988903565479029e-09 -6.9743468308166344e-10 0 -7.2161781775489286e-06 1.6356662497529171e-06 0 -3.6136332385273874e-06 1.2155410130412576e-06 0 -3.4694180309982701e-05 -2.729006551739556e-05 0 -4.162730204767884e-05 -3.1573851253872897e-05 0 -4.0355932783487734e-05 -3.6869640289190221e-05 0 -2.2278081384204402e-06 9.9248238142274926e-08 0 -2.4305155520912627e-06 3.5025202390723109e-07 0 -3.1799272801069431e-06 4.2421340331265873e-07 0 -2.814194260014176e-05 0.00014417346533362847 0 -7.2629725895138375e-06 0.00013353322821329215 0 -5.8856699896914581e-06 0.0001535290926319351 0 -2.8329113741257125e-05 3.8552077033083857e-05 0 -3.0793714115136302e-05 2.8984624345334715e-05 0 -2.1141891879800028e-05 2.5699721811752539e-05 0 -1.3219624807933309e-05 8.9707370451197713e-06 0 -1.0657946182010835e-05 1.1868697687643807e-05 0 -9.9487180419219672e-06 8.3533400402375509e-06 0 -3.7431024632528189e-05 -4.389153105828083e-05 0 -3.4449895051257342e-05 -3.2667057472036174e-05 0 -4.0355932783487734e-05 -3.6869640289190221e-05 0 -0.00010008202147830819 0.00035931739310069067 0 -0.00012684432559790476 0.00035995233418656002 0 -0.00011326088012642904 0.00034591119121335203 0 -5.0561147622488302e-05 -0.00016927215476113746 0 -4.1651735071780623e-05 -0.00016753826772994272 0 -4.5839554095214196e-05 -0.00016343854343664328 0 -2.7083159040407181e-05 0.00035308542097451642 0 -5.0224717456297455e-05 0.00035668758988354702 0 -3.8079464876293499e-05 0.00034263819143932694 0 -8.23636254058614e-05 -0.0001708483004741866 0 -7.0867741863307762e-05 -0.00017047809865719648 0 -7.648018816424719e-05 -0.00016473616609153637 0 -4.4815633501617948e-05 -4.2465701102903802e-05 0 -4.7718782245627912e-05 -4.3156787927289513e-05 0 -4.6164833876432999e-05 -4.495644197461898e-05 0 -3.5768298268682973e-05 -4.3943710988871343e-05 0 -3.5831771565223316e-05 -4.7095372859970074e-05 0 -3.3778174092070134e-05 -4.3120193421510342e-05 0 -7.8814715008301892e-09 -3.3715518775109098e-09 0 -2.7781878572449342e-06 -1.2744539629336293e-06 0 -4.0531881365136146e-09 2.9614888073470376e-10 0 -9.6554192753214361e-09 4.1200282629563555e-09 0 -5.4988903565479029e-09 -6.9743468308166344e-10 0 -3.6136332385273874e-06 1.2155410130412576e-06 0 -9.6554192753214361e-09 4.1200282629563555e-09 0 -3.6136332385273874e-06 1.2155410130412576e-06 0 -8.5854563013464543e-06 4.0413848081174698e-06 0 -7.8814715008301892e-09 -3.3715518775109098e-09 0 -6.6887668622640554e-06 -3.7737743572197312e-06 0 -2.7781878572449338e-06 -1.274453962933629e-06 0 -3.6133697214774759e-05 -7.2055835356710603e-05 0 -4.3408802458357503e-05 -6.8884668247940625e-05 0 -4.4954235046609621e-05 -8.2714180417135504e-05 0 -1.4756372458647519e-05 -4.063564966082527e-06 0 -1.8007485473029058e-05 -6.096106890745623e-06 0 -1.6443296698638614e-05 -5.6742237333488906e-06 0 -3.4208022536387289e-05 -1.8399624620885448e-05 0 -3.5535325535916885e-05 -2.2529595689692764e-05 0 -3.2761207577602493e-05 -1.7968158012515935e-05 0 -3.3629350835061875e-05 -2.2365033270224693e-05 0 -3.2761207577602493e-05 -1.7968158012515935e-05 0 -3.5535325535916885e-05 -2.2529595689692764e-05 0 -9.5560162027121639e-06 -1.1272810424492214e-06 0 -1.2567388684405965e-05 -2.8227521730892586e-06 0 -1.050039995015377e-05 -1.5948570451041945e-06 0 -4.9943780619969026e-06 8.2826244449261743e-07 0 -4.7557922094105555e-06 6.7043855685726867e-07 0 -6.7919277797943104e-06 4.4963503121516174e-07 0 -6.3986492505804985e-06 2.863309567658347e-07 0 -6.7919277797943104e-06 4.4963503121516174e-07 0 -4.7557922094105555e-06 6.7043855685726867e-07 0 -1.7936318890931371e-05 9.0872206751698366e-06 0 -1.5559763635037648e-05 9.906336136890867e-06 0 -1.1305920732229625e-05 2.0889497756387451e-05 0 -3.4780857067997459e-06 3.1209276214217025e-05 0 -1.1305920732229623e-05 2.0889497756387454e-05 0 -1.5559763635037648e-05 9.906336136890867e-06 0 -4.703496671925472e-05 -3.7622131840772146e-05 0 -4.0355932783487734e-05 -3.6869640289190221e-05 0 -4.162730204767884e-05 -3.1573851253872897e-05 0 -2.5626453571127927e-05 -2.7419980249832365e-05 0 -2.7727941164574749e-05 -3.1287532523376199e-05 0 -2.267102326341118e-05 -2.607760697044007e-05 0 -4.3159904606049008e-05 -3.1233366187884774e-05 0 -4.5702238259287412e-05 -3.4105359407316238e-05 0 -4.4396968894155614e-05 -3.419264788566527e-05 0 -7.6254563748366513e-06 6.0519064598211818e-07 0 -8.988315998502763e-06 7.3940186762488623e-07 0 -7.429636243621127e-06 1.5435627249564548e-06 0 -3.225511954142363e-05 0.00024232171459660591 0 -9.0742458534991155e-06 0.00022919442746118681 0 -1.2162006698487252e-05 0.00024976197558577578 0 -7.4255697957373605e-05 -0.00011917336517529592 0 -8.4201488161913808e-05 -0.00011440378747962531 0 -8.4266284020079505e-05 -0.00012427056831425785 0 -2.4761736768691587e-05 -2.277222311559924e-05 0 -2.3839353765558849e-05 -1.7299931337593263e-05 0 -2.4610436371112842e-05 -1.9744952261434056e-05 0 -2.2640663944374591e-05 -1.9089517149363087e-05 0 -1.7218647870154721e-05 -1.555901883171081e-05 0 -2.198958088612061e-05 -1.2698956864000753e-05 0 -0.00011096625572956823 0.00024242051916055805 0 -0.00012786222297842898 0.00022655493653398951 0 -0.00010742751079314701 0.00021737434722410865 0 -4.0978971028684936e-05 -0.00011503746689719827 0 -3.2580454016521776e-05 -0.00010578134368645046 0 -3.9949113036679707e-05 -0.0001029376819447582 0 -3.6133697214774759e-05 -7.2055835356710603e-05 0 -3.777852986047783e-05 -8.4050869881013694e-05 0 -2.9591338591029222e-05 -7.8541589099018541e-05 0 -4.2977076624410347e-05 -3.9262793294258874e-05 0 -4.2382232285246026e-05 -4.1485024145436749e-05 0 -4.0306721164549874e-05 -3.887869656369323e-05 0 -3.1413593949262724e-05 -3.9129892680710572e-05 0 -2.8176908656269011e-05 -3.4880247624218153e-05 0 -2.9915567663669208e-05 -3.5826807029338985e-05 0 -1.2904989297033595e-05 4.6091282911075612e-06 0 -1.0236978452829809e-05 2.6806015217721854e-06 0 -1.0002379109249444e-05 4.8958510810867259e-06 0 -4.020068401110824e-05 -4.6835617300772776e-05 0 -3.8054895362821501e-05 -4.6946722937950925e-05 0 -3.8464609933169377e-05 -4.3735964001253376e-05 0 -1.1145150312424521e-05 -1.8533928455616109e-06 0 -8.9847990246452093e-06 -9.2488935549425374e-07 0 -8.6127191527396526e-06 -8.6116154688511646e-07 0 -6.7697211433408129e-06 -2.0345341713361462e-07 0 -8.6127191527396526e-06 -8.6116154688511646e-07 0 -8.9847990246452093e-06 -9.2488935549425374e-07 0 -1.4056206635724526e-05 -1.2703064856087472e-06 0 -1.5770160600648929e-05 -3.8766599781332154e-06 0 -1.785934264691986e-05 -4.2904784265307501e-06 0 -3.4694180309982701e-05 -2.729006551739556e-05 0 -4.0355932783487734e-05 -3.6869640289190221e-05 0 -3.4449895051257342e-05 -3.2667057472036174e-05 0 -9.5560162027121639e-06 -1.1272810424492214e-06 0 -1.050039995015377e-05 -1.5948570451041945e-06 0 -7.9847918008912888e-06 -4.0454316250327286e-07 0 -9.2482059777284346e-06 -7.9646353448130295e-07 0 -7.9847918008912888e-06 -4.0454316250327286e-07 0 -1.050039995015377e-05 -1.5948570451041945e-06 0 -1.2567388684405965e-05 -2.8227521730892586e-06 0 -1.1937197294359248e-05 -2.4386036971144884e-06 0 -1.050039995015377e-05 -1.5948570451041945e-06 0 -4.3942733884830653e-05 -4.7162026861609704e-05 0 -4.6164833876432999e-05 -4.495644197461898e-05 0 -4.7713882729867652e-05 -4.8040167153796197e-05 0 -4.9843997864119022e-05 -4.611618951932656e-05 0 -4.7713882729867652e-05 -4.8040167153796197e-05 0 -4.6164833876432999e-05 -4.495644197461898e-05 0 -3.4390183421777246e-05 -4.6054334152604014e-05 0 -3.5831771565223316e-05 -4.7095372859970074e-05 0 -3.6107485148898009e-05 -5.0134018554904715e-05 0 -3.7209890517443527e-05 -4.9105744473924827e-05 0 -3.6107485148898009e-05 -5.0134018554904715e-05 0 -3.5831771565223316e-05 -4.7095372859970074e-05 0 -1.7936318890931371e-05 9.0872206751698366e-06 0 -2.1206774648463166e-05 -1.3663913879418836e-06 0 -1.5559763635037648e-05 9.906336136890867e-06 0 -2.8270645324580003e-05 0.00032534634449657895 0 -3.8079464876293499e-05 0.00034263819143932694 0 -5.1638865406462389e-05 0.00033346071045391499 0 -8.0815884652518061e-05 -0.00015748601218313038 0 -7.648018816424719e-05 -0.00016473616609153637 0 -6.9807176271456163e-05 -0.00015992832242688417 0 -4.1895985682679328e-05 -0.00015583703133934066 0 -5.1085516227508545e-05 -0.00015955681380230816 0 -4.5839554095214196e-05 -0.00016343854343664328 0 -0.00012340230791335155 0.00032935261797837777 0 -9.7644557635914199e-05 0.00033479312429890619 0 -0.00011326088012642904 0.00034591119121335203 0 -0.00011096625572956823 0.00024242051916055805 0 -0.00010742751079314701 0.00021737434722410862 0 -8.9392993023049003e-05 0.00022426813143849479 0 -4.0978971028684936e-05 -0.00011503746689719827 0 -3.9949113036679707e-05 -0.0001029376819447582 0 -4.7982034097810806e-05 -0.00010674428355434673 0 -3.6133697214774759e-05 -7.2055835356710603e-05 0 -4.4954235046609621e-05 -8.2714180417135504e-05 0 -3.7778529860477837e-05 -8.4050869881013694e-05 0 -1.8243295612997651e-05 -6.5224063789470308e-06 0 -1.785934264691986e-05 -4.2904784265307501e-06 0 -1.5770160600648929e-05 -3.8766599781332154e-06 0 -5.0224717456297455e-05 0.00035668758988354702 0 -5.1638865406462389e-05 0.00033346071045391499 0 -3.8079464876293499e-05 0.00034263819143932694 0 -7.0867741863307762e-05 -0.00017047809865719648 0 -6.9807176271456163e-05 -0.00015992832242688417 0 -7.648018816424719e-05 -0.00016473616609153637 0 -0.00010008202147830819 0.00035931739310069067 0 -0.00011326088012642904 0.00034591119121335203 0 -9.7644557635914199e-05 0.00033479312429890619 0 -5.0561147622488302e-05 -0.00016927215476113746 0 -4.5839554095214203e-05 -0.00016343854343664328 0 -5.1085516227508545e-05 -0.00015955681380230816 0 -4.0236591386551687e-05 -4.1639622972931405e-05 0 -4.0306721164549874e-05 -3.887869656369323e-05 0 -4.2382232285246026e-05 -4.1485024145436749e-05 0 -2.0222474316362371e-05 -4.0755433011581078e-05 0 -2.9745261445318876e-05 -3.885091926663455e-05 0 -2.5614605299110828e-05 -4.9312697916001803e-05 0 -5.4782587429380643e-05 -5.2217798256431311e-05 0 -5.2618367556904668e-05 -4.9282159471634066e-05 0 -5.256239447863139e-05 -4.8075556960460278e-05 0 -3.2383952319530646e-05 -3.9644030271704382e-05 0 -3.2848640622392863e-05 -4.275578998663025e-05 0 -3.4790044447337823e-05 -4.6523877878328572e-05 0 -4.9943780619969026e-06 8.2826244449261743e-07 0 -3.5593477353885306e-06 6.8805904376033161e-07 0 -4.7557922094105555e-06 6.7043855685726867e-07 0 -0.00011949334694104282 0.00019736947891317854 0 -0.0001208506819897516 0.000169139397341071 0 -0.00010155509229482072 0.00017422561444485428 0 -9.9148098567773457e-05 0.00015223595916259705 0 -0.00010155509229482072 0.00017422561444485428 0 -0.0001208506819897516 0.000169139397341071 0 -3.7767949426000302e-05 -3.5833101626493774e-05 0 -4.0512027391317507e-05 -3.588122498357307e-05 0 -4.0306721164549874e-05 -3.887869656369323e-05 0 -1.1822437844670369e-05 -1.9009866665440334e-06 0 -1.1937197294359248e-05 -2.4386036971144884e-06 0 -1.3813756946879971e-05 -3.7890927611539988e-06 0 -3.4208022536387289e-05 -1.8399624620885448e-05 0 -3.2761207577602493e-05 -1.7968158012515935e-05 0 -3.1878474369247173e-05 -1.4496538852778748e-05 0 -3.0198628672680704e-05 -1.2681248510436805e-05 0 -3.1878474369247173e-05 -1.4496538852778748e-05 0 -3.2761207577602493e-05 -1.7968158012515935e-05 0 -8.9864096019631582e-05 0.00019623951761759987 0 -8.9392993023049003e-05 0.00022426813143849479 0 -0.00010742751079314701 0.00021737434722410865 0 -4.4592878301326575e-05 -9.4119090124915449e-05 0 -4.7982034097810806e-05 -0.00010674428355434673 0 -3.9949113036679707e-05 -0.0001029376819447582 0 -4.4592878301326575e-05 -9.4119090124915449e-05 0 -3.7778529860477837e-05 -8.4050869881013694e-05 0 -4.4954235046609621e-05 -8.2714180417135504e-05 0 -7.7027362105404746e-06 -2.0563386874510984e-06 0 -1.1665116920125827e-05 -3.1782872552546746e-06 0 -8.900381894401952e-06 -1.7924632285923894e-06 0 -1.0138094415959719e-05 9.8909572804854954e-07 0 -1.1320488083773857e-05 3.3106752334634989e-07 0 -1.5440910646622625e-05 1.8255550959302728e-06 0 -2.0762183558653512e-05 3.9927298006081913e-06 0 -1.5440910646622625e-05 1.8255550959302728e-06 0 -1.984853034480408e-05 2.7850208792777053e-06 0 -1.5287500205248713e-05 -5.0047603464520842e-06 0 -1.508246514495971e-05 -4.2012968124192828e-06 0 -1.1665116920125826e-05 -3.1782872552546742e-06 0 -1.5490175657372107e-05 -4.8243973800859647e-06 0 -1.5770160600648929e-05 -3.8766599781332154e-06 0 -1.3522937086756826e-05 -2.4495694570901924e-06 0 -0.00011949334694104282 0.00019736947891317854 0 -0.00010742751079314701 0.00021737434722410865 0 -0.00012786222297842898 0.00022655493653398951 0 -3.3194588561510957e-05 -9.2497355149156657e-05 0 -3.9949113036679707e-05 -0.0001029376819447582 0 -3.2580454016521776e-05 -0.00010578134368645046 0 -3.3194588561510957e-05 -9.2497355149156657e-05 0 -2.9591338591029222e-05 -7.8541589099018541e-05 0 -3.7778529860477837e-05 -8.4050869881013694e-05 0 -5.0111880258756879e-05 -6.5081702452257626e-05 0 -5.8280026917688643e-05 -6.5173214804083979e-05 0 -5.841771304103976e-05 -7.436208316872209e-05 0 -4.2977076624410347e-05 -3.9262793294258874e-05 0 -4.0306721164549874e-05 -3.887869656369323e-05 0 -4.0512027391317507e-05 -3.588122498357307e-05 0 -1.2904989297033595e-05 4.6091282911075612e-06 0 -1.39665838211908e-05 7.6638840488906799e-06 0 -1.7444745107593143e-05 6.4916618808134632e-06 0 -1.8706244406010065e-05 -9.0691303949927405e-06 0 -1.6262798245289961e-05 -6.1198767217839309e-06 0 -1.8059661195077288e-05 -7.7978985350550086e-06 0 -1.1711672343061981e-05 -2.4855370836925779e-06 0 -1.567234604807643e-05 -4.052730522904996e-06 0 -1.3135610481590625e-05 -2.7727918007780394e-06 0 -8.9837851133154692e-05 0.0001051277757536489 0 -7.497856731101262e-05 0.00010684574960153801 0 -8.6266038031263797e-05 0.00012899633576292995 0 -6.0071826109503505e-05 -5.4537266136421789e-05 0 -5.8280026917688643e-05 -6.5173214804083979e-05 0 -5.3615870721912162e-05 -5.5545334019345072e-05 0 -3.225511954142363e-05 0.00024232171459660591 0 -5.3306515435930659e-05 0.0002429450888142167 0 -4.2594711872783851e-05 0.00022377868576527315 0 -7.4255697957373605e-05 -0.00011917336517529592 0 -6.4896576748518352e-05 -0.00011844340686815304 0 -6.7842953878896462e-05 -0.00010919607438137358 0 -2.814194260014176e-05 0.00014417346533362847 0 -4.1054527884413499e-05 0.00016562799236181512 0 -5.3686243125935861e-05 0.00014667475912475439 0 -1.910882041640817e-05 -6.1551284000916755e-06 0 -2.0668968518810215e-05 -6.6392259278949433e-06 0 -2.3790959377703779e-05 -8.823058813842419e-06 0 -1.4807355178774908e-05 -4.6997587081567875e-06 0 -1.3813756946879971e-05 -3.7890927611539988e-06 0 -1.1937197294359248e-05 -2.4386036971144884e-06 0 -5.3939782585063193e-05 -8.281177771206489e-05 0 -5.841771304103976e-05 -7.436208316872209e-05 0 -6.3074175471791746e-05 -8.3555083668243078e-05 0 -4.9843997864119022e-05 -4.611618951932656e-05 0 -5.256239447863139e-05 -4.8075556960460278e-05 0 -5.2618367556904668e-05 -4.9282159471634066e-05 0 -3.4390183421777246e-05 -4.6054334152604014e-05 0 -3.4790044447337823e-05 -4.6523877878328572e-05 0 -3.2848640622392863e-05 -4.275578998663025e-05 0 -9.2482059777284346e-06 -7.9646353448130295e-07 0 -1.050039995015377e-05 -1.5948570451041945e-06 0 -1.1937197294359248e-05 -2.4386036971144884e-06 0 -0.00012684432559790476 0.00035995233418656002 0 -0.00013591390184956018 0.00034460051512466647 0 -0.00011326088012642904 0.00034591119121335203 0 -0.00012340230791335155 0.00032935261797837777 0 -0.00011326088012642904 0.00034591119121335203 0 -0.00013591390184956018 0.00034460051512466647 0 -4.1895985682679328e-05 -0.00015583703133934066 0 -4.5839554095214196e-05 -0.00016343854343664328 0 -3.8147327744855255e-05 -0.00016106549157986742 0 -4.1651735071780623e-05 -0.00016753826772994272 0 -3.8147327744855255e-05 -0.00016106549157986742 0 -4.5839554095214196e-05 -0.00016343854343664328 0 -2.7083159040407181e-05 0.00035308542097451642 0 -3.8079464876293499e-05 0.00034263819143932694 0 -1.832516907452138e-05 0.00033761199472013789 0 -8.23636254058614e-05 -0.0001708483004741866 0 -7.648018816424719e-05 -0.00016473616609153637 0 -8.6309329854428144e-05 -0.00016418309971711443 0 -2.8270645324580003e-05 0.00032534634449657895 0 -1.832516907452138e-05 0.00033761199472013789 0 -3.8079464876293499e-05 0.00034263819143932694 0 -8.0815884652518061e-05 -0.00015748601218313038 0 -8.6309329854428144e-05 -0.00016418309971711443 0 -7.648018816424719e-05 -0.00016473616609153637 0 -3.7767949426000302e-05 -3.5833101626493774e-05 0 -4.0306721164549874e-05 -3.887869656369323e-05 0 -3.7913459074907003e-05 -3.9142917400753399e-05 0 -4.3486615699184823e-05 -3.5757158135116543e-05 0 -4.162033783760997e-05 -3.1344504263884762e-05 0 -4.4396968894155614e-05 -3.419264788566527e-05 0 -4.3159904606049008e-05 -3.1233366187884774e-05 0 -4.4396968894155614e-05 -3.419264788566527e-05 0 -4.162033783760997e-05 -3.1344504263884762e-05 0 -4.0236591386551687e-05 -4.1639622972931405e-05 0 -4.2382232285246026e-05 -4.1485024145436749e-05 0 -4.2400097529534518e-05 -4.4119911988260039e-05 0 -4.4815633501617948e-05 -4.2465701102903802e-05 0 -4.2400097529534518e-05 -4.4119911988260039e-05 0 -4.2382232285246026e-05 -4.1485024145436749e-05 0 -1.0742605262347247e-05 1.6310958361399436e-05 0 -1.3538851565226223e-05 1.1526204670115618e-05 0 -1.56331742839122e-05 1.2371425532138269e-05 0 -1.9747652569749813e-05 1.1416881211009504e-05 0 -2.7285423501107041e-05 1.5827296655563131e-05 0 -2.4187297177056832e-05 9.8243821788298101e-06 0 -3.2539457345747829e-05 1.4043513965137115e-05 0 -2.4187297177056832e-05 9.8243821788298101e-06 0 -2.7285423501107041e-05 1.5827296655563131e-05 0 -1.910882041640817e-05 -6.1551284000916755e-06 0 -2.2290204885241709e-05 -8.9622535714950696e-06 0 -1.8007485473029058e-05 -6.096106890745623e-06 0 -8.9837851133154692e-05 0.0001051277757536489 0 -7.4129040637620664e-05 8.7593042163949347e-05 0 -7.497856731101262e-05 0.00010684574960153801 0 -5.8935594988361833e-05 9.0613616607359933e-05 0 -7.497856731101262e-05 0.00010684574960153801 0 -7.4129040637620664e-05 8.7593042163949347e-05 0 -1.3219624807933309e-05 8.9707370451197713e-06 0 -1.3538851565226223e-05 1.1526204670115618e-05 0 -1.0657946182010835e-05 1.1868697687643807e-05 0 -3.1346367945514654e-05 -3.4698979503739639e-05 0 -3.3001272279150742e-05 -3.8992060349501318e-05 0 -2.9915567663669208e-05 -3.5826807029338985e-05 0 -3.1413593949262724e-05 -3.9129892680710572e-05 0 -2.9915567663669208e-05 -3.5826807029338985e-05 0 -3.3001272279150742e-05 -3.8992060349501318e-05 0 -9.1054621613162852e-06 1.0407586568990251e-05 0 -1.0657946182010835e-05 1.1868697687643807e-05 0 -9.4838765196489806e-06 1.4661003449360928e-05 0 -4.6158313705720906e-05 -4.8278300176274537e-05 0 -5.271886526797733e-05 -4.7116455247833199e-05 0 -5.3615870721912162e-05 -5.5545334019345072e-05 0 -6.0071826109503505e-05 -5.4537266136421789e-05 0 -5.3615870721912162e-05 -5.5545334019345072e-05 0 -5.271886526797733e-05 -4.7116455247833199e-05 0 -9.5195764321706487e-06 5.994493975972015e-06 0 -1.2034542792155634e-05 6.2511935686822697e-06 0 -9.9487180419219672e-06 8.3533400402375509e-06 0 -9.1054621613162852e-06 1.0407586568990251e-05 0 -9.9487180419219672e-06 8.3533400402375509e-06 0 -1.0657946182010835e-05 1.1868697687643807e-05 0 -4.3159904606049008e-05 -3.1233366187884774e-05 0 -4.3419225588193381e-05 -2.9734796908172755e-05 0 -4.5702238259287412e-05 -3.4105359407316238e-05 0 -1.4807355178774908e-05 -4.6997587081567875e-06 0 -1.6262798245289965e-05 -6.1198767217839309e-06 0 -1.3813756946879971e-05 -3.7890927611539988e-06 0 -1.5490175657372107e-05 -4.8243973800859647e-06 0 -1.3813756946879971e-05 -3.7890927611539988e-06 0 -1.6262798245289965e-05 -6.1198767217839309e-06 0 -1.4056206635724526e-05 -1.2703064856087472e-06 0 -1.3522937086756826e-05 -2.4495694570901924e-06 0 -1.5770160600648929e-05 -3.8766599781332154e-06 0 8.7811811615528995e-06 0.00023385985640239626 0 -1.2162006698487252e-05 0.00024976197558577578 0 -9.0742458534991155e-06 0.00022919442746118681 0 -9.329865640277541e-05 -0.00011933503171254231 0 -8.4266284020079491e-05 -0.00012427056831425785 0 -8.4201488161913808e-05 -0.00011440378747962531 0 -2.525262673364535e-05 -8.9025070624036877e-06 0 -2.3790959377703779e-05 -8.823058813842419e-06 0 -2.0668968518810219e-05 -6.6392259278949433e-06 0 -1.643802230935003e-09 1.7845288266375675e-10 0 -1.2247674170626343e-06 3.4977397581845306e-07 0 -1.0733065321094783e-06 2.9026075491686683e-07 0 1.2593332257113656e-05 0.0001426003626625594 0 -5.8856699896914581e-06 0.0001535290926319351 0 -7.2629725895138375e-06 0.00013353322821329215 0 -4.0236591386551687e-05 -4.1639622972931405e-05 0 -3.7913459074907003e-05 -3.9142917400753399e-05 0 -4.0306721164549874e-05 -3.887869656369323e-05 0 -2.1150167624896916e-05 5.763725223614664e-06 0 -2.4187297177056832e-05 9.8243821788298101e-06 0 -2.8788337679095606e-05 9.2890506510289274e-06 0 -3.2539457345747829e-05 1.4043513965137115e-05 0 -2.8788337679095606e-05 9.2890506510289274e-06 0 -2.4187297177056832e-05 9.8243821788298101e-06 0 -4.6634997294162726e-05 -3.3114202085816026e-05 0 -4.5702238259287412e-05 -3.4105359407316238e-05 0 -4.3419225588193381e-05 -2.9734796908172755e-05 0 
</DataArray>
</PointData>
<CellData Scalars="region_id,cross_section_updated,displacement_divergence," Vectors="" Tensors="stress,">
<DataArray type="Float64" Name="region_id" format="ascii">
2 2 2 2 2 2 2 2 2 2 3 3 3 3 3 3 3 3 3 3 1 1 1 1 1 1 1 1 1 1 1 1 1 1 1 1 1 1 1 1 1 1 1 1 1 1 1 1 1 1 1 1 1 1 1 1 1 1 1 1 1 1 1 1 1 1 1 1 1 1 1 1 1 1 1 1 1 1 1 1 1 1 1 1 1 1 1 1 1 1 1 1 1 1 1 1 1 1 1 1 1 1 1 1 1 1 1 1 1 1 1 1 1 1 1 1 1 1 1 1 1 1 1 1 1 1 1 1 1 1 1 1 1 1 1 1 1 1 1 1 1 1 1 1 1 1 1 1 1 1 1 1 1 1 1 1 1 1 1 1 1 1 1 1 1 1 1 1 1 1 1 1 1 1 1 1 1 1 1 1 1 1 1 1 1 1 1 1 1 1 1 1 1 1 1 1 1 1 1 1 1 1 1 1 1 1 1 1 1 1 1 1 1 1 1 1 1 1 1 1 1 1 1 1 1 1 1 1 1 1 1 1 1 1 1 1 1 1 1 1 1 1 1 1 1 1 1 1 1 1 1 1 1 1 1 1 1 1 1 1 1 1 1 1 1 1 1 1 1 1 1 1 1 1 1 1 1 1 1 1 1 1 1 1 1 1 1 1 1 1 1 1 1 1 1 1 1 1 1 1 1 1 1 1 1 1 1 1 1 1 1 1 1 1 1 1 1 1 1 1 1 1 1 1 1 1 1 1 1 1 1 1 1 1 1 1 1 1 1 1 1 1 1 1 1 1 1 1 1 1 1 1 1 1 1 1 1 1 1 1 1 1 1 1 1 1 1 1 1 1 1 1 1 1 1 1 1 1 1 1 1 1 1 1 1 1 1 1 1 1 1 1 1 1 1 1 1 1 1 1 1 1 1 1 1 1 1 1 1 1 1 1 1 1 1 1 1 1 1 1 1 1 1 1 1 1 1 1 1 1 1 1 1 1 1 1 1 1 1 1 1 1 1 1 1 1 1 1 1 1 1 1 1 1 1 1 1 1 1 1 1 1 1 1 1 1 1 1 1 1 1 1 1 1 1 1 1 1 1 1 1 1 1 1 1 1 1 1 1 1 1 1 1 1 1 1 1 1 1 1 1 1 1 1 1 1 1 1 1 1 1 1 1 1 1 1 1 1 1 1 1 1 1 1 1 1 1 1 1 1 1 1 1 1 1 1 1 1 1 1 1 1 1 1 1 1 1 1 1 1 1 1 1 1 1 1 1 1 1 1 1 1 1 1 1 1 1 1 1 1 1 1 1 1 1 1 1 1 1 1 1 1 1 1 1 1 1 1 1 1 1 1 1 1 1 1 1 1 1 1 1 1 1 1 1 1 1 1 1 1 1 1 1 1 1 1 1 1 1 1 1 1 1 1 1 1 1 1 1 1 1 1 1 1 1 1 1 1 1 1 1 1 1 1 1 1 1 1 1 1 1 1 1 1 1 1 1 1 1 1 1 1 1 1 1 1 1 1 1 1 1 1 1 1 1 1 1 1 1 1 1 1 1 1 1 1 1 1 1 1 1 1 1 1 1 1 1 1 1 1 1 1 1 1 1 1 1 1 1 1 1 1 1 1 1 1 1 1 1 1 1 1 1 1 1 1 1 1 1 1 1 1 1 1 1 1 1 1 1 1 1 1 1 1 1 1 1 1 1 1 1 1 1 1 1 1 1 1 1 1 1 1 1 1 1 1 1 1 1 1 1 1 1 1 1 1 1 1 1 1 1 1 1 1 1 1 1 1 1 1 1 1 1 1 1 1 1 1 1 1 1 1 1 1 1 1 1 1 1 1 1 1 1 1 1 1 1 1 1 1 1 1 1 1 1 1 1 1 1 1 1 1 1 1 1 1 1 1 1 1 1 1 1 1 1 1 1 1 1 1 1 1 1 1 1 1 1 1 1 1 1 1 1 1 1 1 1 1 1 1 1 1 1 1 1 1 1 1 1 1 1 1 1 1 1 1 1 1 1 1 1 1 1 1 1 1 1 1 1 1 1 1 1 1 1 1 1 1 1 1 1 1 1 1 1 1 1 1 1 1 1 1 1 1 1 1 1 1 1 1 1 1 1 1 1 1 1 1 1 1 1 1 1 1 1 1 1 1 1 1 1 1 1 1 1 1 1 1 1 1 1 1 1 1 1 1 1 1 1 1 1 1 1 1 1 1 1 1 1 1 1 1 1 1 1 1 1 1 1 1 1 1 1 1 1 1 1 1 1 1 1 1 1 1 1 1 1 1 1 1 1 1 1 1 1 1 1 1 1 1 1 1 1 1 1 1 1 1 1 1 1 1 1 1 1 1 1 1 1 1 1 1 1 1 1 1 1 1 1 1 1 1 1 1 
</DataArray>
<DataArray type="Float64" Name="stress" NumberOfComponents="9" format="ascii">
-4.5877817836111382e-05 -5.9564540562049239e-05 0 -5.9564540562049239e-05 -1.5292605945370488e-05 0 0 0 -1.5292605945370488e-05 -5.3589201430884713e-05 -6.7243648019760851e-05 0 -6.7243648019760851e-05 -1.7863067143628238e-05 0 0 0 -1.7863067143628238e-05 -5.9812811748377842e-05 -7.697178859960446e-05 0 -7.697178859960446e-05 -1.9937603916125992e-05 0 0 0 -1.9937603916125992e-05 -5.5187155582520227e-05 -7.9051564914181473e-05 0 -7.9051564914181473e-05 -1.8395718527506742e-05 0 0 0 -1.8395718527506742e-05 -4.8947943755075097e-05 -7.8360656594076718e-05 0 -7.8360656594076718e-05 -1.6315981251691645e-05 0 0 0 -1.6315981251691645e-05 -4.6727420544220529e-05 -7.6592898573335749e-05 0 -7.6592898573335749e-05 -1.5575806848073528e-05 0 0 0 -1.5575806848073528e-05 -4.7589603197933017e-05 -7.2383102576836431e-05 0 -7.2383102576836431e-05 -1.586320106597769e-05 0 0 0 -1.586320106597769e-05 -4.8542862786592005e-05 -6.9145602640911731e-05 0 -6.9145602640911731e-05 -1.6180954262197335e-05 0 0 0 -1.6180954262197335e-05 -3.1457547185663459e-05 -5.8443358130853026e-05 0 -5.8443358130853026e-05 -1.0485849061887766e-05 0 0 0 -1.0485849061887766e-05 -9.5459660201739844e-05 -6.0342892761961701e-05 0 -6.0342892761961701e-05 -3.1819886733913335e-05 0 0 0 -3.1819886733913335e-05 0.0001016276813478399 0.00011801413925853667 0 0.00011801413925853667 3.3875893782613306e-05 0 0 0 3.3875893782613306e-05 -3.5846749383485125e-05 5.9136079239821354e-05 0 5.9136079239821354e-05 -1.1948916461161707e-05 0 0 0 -1.1948916461161707e-05 -4.2799786013856576e-05 0.00010988406838473319 0 0.00010988406838473319 -1.4266595337952193e-05 0 0 0 -1.4266595337952193e-05 -5.2034663782037043e-05 9.8169098542945778e-05 0 9.8169098542945778e-05 -1.7344887927345686e-05 0 0 0 -1.7344887927345686e-05 -5.9655000789155414e-05 0.00010728108656474623 0 0.00010728108656474623 -1.9885000263051801e-05 0 0 0 -1.9885000263051801e-05 -6.7030755950529076e-05 0.00010690848023190032 0 0.00010690848023190032 -2.2343585316843034e-05 0 0 0 -2.2343585316843034e-05 -6.8912211275955844e-05 9.9776489432494737e-05 0 9.9776489432494737e-05 -2.2970737091985272e-05 0 0 0 -2.2970737091985272e-05 -0.00010532324155949202 0.00011064430902509254 0 0.00011064430902509254 -3.510774718649734e-05 0 0 0 -3.510774718649734e-05 2.2729764876148182e-05 8.2912748326042498e-05 0 8.2912748326042498e-05 7.5765882920494031e-06 0 0 0 7.5765882920494031e-06 -0.00048099595214980845 0.00010828108426679016 0 0.00010828108426679016 -0.00016033198404993612 0 0 0 -0.00016033198404993612 -0.058904135827890974 -0.017021403115868132 0 -0.017021403115868132 0.026685245670707403 0 0 0 -0.0080547225392958999 -0.054083426829771838 -0.017484814091596048 0 -0.017484814091596048 0.046070596926653079 0 0 0 -0.0020032074757796864 -0.074425164562994417 -0.011298931303668214 0 -0.011298931303668214 0.039996601281973021 0 0 0 -0.008607140820255349 -0.077055743820433092 -0.00045845825189705369 0 -0.00045845825189705369 0.041310652178121583 0 0 0 -0.0089362729105778912 -0.16307582969018508 -0.0049192387471652319 0 -0.0049192387471652319 0.0018615547745106514 0 0 0 -0.040303568728918604 -0.12008130597938813 -0.00056230261197423234 0 -0.00056230261197423234 -0.00035876481508403729 0 0 0 -0.030110017698618048 -0.17121721415162136 -0.0021051177329004245 0 -0.0021051177329004245 -0.0014910164943741731 0 0 0 -0.043177057661498881 -0.12430694080854859 -0.0017146542284452641 0 -0.0017146542284452641 -0.00092525354465892301 0 0 0 -0.031308048588301871 -0.14028469913446887 0.0034589745847525 0 0.0034589745847525 -0.00045832593686381817 0 0 0 -0.035185756267833192 -0.23736481466100368 -0.010769477835594007 0 -0.010769477835594007 -0.00052116805954260936 0 0 0 -0.059471495680136627 -0.029291459871612361 0.0034769322058088672 0 0.0034769322058088672 -0.016883655538440897 0 0 0 -0.011543778852513318 -0.033779037435550892 0.0046361326059074608 0 0.0046361326059074608 -0.012164160021786122 0 0 0 -0.011485799364334245 -0.062080873242882785 0.001370844623888808 0 0.001370844623888808 -0.0097376066094414584 0 0 0 -0.017954619963081061 -0.061602936016547281 -0.0074286890295585271 0 -0.0074286890295585271 -0.020538374559190831 0 0 0 -0.020535327643934526 -0.06259315122317434 0.0030196545251572606 0 0.0030196545251572606 -0.020864344726107827 0 0 0 -0.020864373987320543 -0.071270796153100835 -0.019161764846660045 0 -0.019161764846660045 0.02671141419198142 0 0 0 -0.011139845490279819 0.1482259628220052 0.11893989734703672 0 0.11893989734703672 0.25129243538799528 0 0 0 0.099879599552500115 -0.0010883394270347901 -0.012128343591158552 0 -0.012128343591158552 0.0036100161618248805 0 0 0 0.00063041918369766137 -0.0016125780305502602 0.0058694310282123574 0 0.0058694310282123574 0.011613594055396526 0 0 0 0.0025002540062115663 0.000665501584050876 0.014761579149815723 0 0.014761579149815723 0.018447832899001426 0 0 0 0.0047783336207625204 -0.0007266183849286012 -0.0055611700365413826 0 -0.0055611700365413826 0.0046951792878351384 0 0 0 0.00099214022572668981 -0.013435506558559629 0.022640127575821456 0 0.022640127575821456 0.0052589801051290408 0 0 0 -0.0020441316133579246 -0.010751383377800072 -0.025178135522860856 0 -0.025178135522860856 0.0029254915879739496 0 0 0 -0.0019564729474563225 -0.056980901653412908 0.0043699547813577395 0 0.0043699547813577395 -0.010709664735360256 0 0 0 -0.01692264159719329 0.1618400443001381 -0.0068697389594084279 0 -0.0068697389594084279 0.15682497109468313 0 0 0 0.079666253848705307 -0.25261354170176775 0.016948478103640197 0 0.016948478103640197 0.0078552858675879911 0 0 0 -0.061189563958545024 -0.14034121010379191 -0.0067999420632495252 0 -0.0067999420632495252 0.0030902296099309945 0 0 0 -0.03431274512346516 -0.11423733444350236 -0.024032329797380972 0 -0.024032329797380972 0.019351282514840584 0 0 0 -0.023721512982165446 -0.12580850156635698 0.029968491698271867 0 0.029968491698271867 0.073182074679459141 0 0 0 -0.013156606721724418 -0.14057446560707443 -0.020812364906299077 0 -0.020812364906299077 0.013089106567235165 0 0 0 -0.03187133975995983 -0.063924276073928504 -0.0252945335118888 0 -0.0252945335118888 0.054214169518731481 0 0 0 -0.0024275266387992628 -0.031458433874781311 -0.035338270801770766 0 -0.035338270801770766 0.0057218239366015888 0 0 0 -0.0064341524845451525 -0.035586890510320934 0.045045557131664804 0 0.045045557131664804 0.0038687569688826695 0 0 0 -0.0079295333853599548 -0.033623100617204305 -0.036072605959092452 0 -0.036072605959092452 0.0097803002117480276 0 0 0 -0.0059607001013641803 -0.044146334755583716 0.048112924114502853 0 0.048112924114502853 -0.00031169391172181093 0 0 0 -0.011114507166826382 -0.10870981291150666 -0.029652482338520754 0 -0.029652482338520754 0.0055155292090363628 0 0 0 -0.025798570925617596 -0.037592401748350622 -0.050001910147899814 0 -0.050001910147899814 0.074734053733418238 0 0 0 0.0092854129962668987 -0.14471513287665055 0.017424131306819524 0 0.017424131306819524 0.019561170811003947 0 0 0 -0.031288490516411582 0.2813769902468885 0.14061299558115525 0 0.14061299558115525 0.084146101857279554 0 0 0 0.091380773026042084 -0.0027377140558964008 0.0081579918548276287 0 0.0081579918548276287 0.023045426027956339 0 0 0 0.0050769279930149014 -0.0059023048243980747 -0.0087367789428225429 0 -0.0087367789428225429 0.063985550515178957 0 0 0 0.014520811422695235 -0.05636068616283714 -0.025813413839689204 0 -0.025813413839689204 0.091145290929006154 0 0 0 0.00869615119154225 -0.0045598694930797379 -0.022991615573656476 0 -0.022991615573656476 0.075078834653607984 0 0 0 0.01762974129013184 -0.0078990328224159967 0.0039191257005692925 0 0.0039191257005692925 -0.0027435147949521621 0 0 0 -0.0026606369043413736 -0.04637316368595485 -0.0064391716687325785 0 -0.0064391716687325785 -0.02169259319201277 0 0 0 -0.017016439219491905 -0.050327614817313682 0.0059961023861891819 0 0.0059961023861891819 -0.016351512000024923 0 0 0 -0.016669781704334651 -0.083220861265701371 0.07717496992123607 0 0.07717496992123607 0.075228558311880328 0 0 0 -0.0019980757384552156 -0.076846189274404814 0.069676132884076258 0 0.069676132884076258 0.052430712647516087 0 0 0 -0.006103869156722147 0.12640457198913641 0.16599735439272834 0 0.16599735439272834 0.28826603735825529 0 0 0 0.10366765233684792 -0.012746439214448846 0.0079653424093932834 0 0.0079653424093932834 0.00093109232021915123 0 0 0 -0.0029538367235572016 -0.021685734642054061 -0.024033722327260421 0 -0.024033722327260421 0.062445335668288388 0 0 0 0.01018990025655872 -0.027301684580372798 -0.011938382417955362 0 -0.011938382417955362 -0.012574775812416616 0 0 0 -0.009969115098197312 -0.059361976228527853 -0.023691083221169796 0 -0.023691083221169796 0.068646653278023134 0 0 0 0.0023211692623738159 -0.046323848098362513 -0.030906717931651444 0 -0.030906717931651444 0.0037706731839153851 0 0 0 -0.010638293728611803 -0.03247398785417413 -0.0069801877698268816 0 -0.0069801877698268816 0.022211937638829116 0 0 0 -0.0025655125538362189 -0.12335526500165361 0.021196515769891677 0 0.021196515769891677 -0.00065617552754826391 0 0 0 -0.031002860132300469 -0.010277442098395873 -0.0057522635163163027 0 -0.0057522635163163027 0.00040743855359925973 0 0 0 -0.002467500886199181 -0.014856741832915965 0.025143028034110726 0 0.025143028034110726 0.11904492758329877 0 0 0 0.026047046437595256 -0.022871768402305936 -0.019936733701958476 0 -0.019936733701958476 0.087457532697601065 0 0 0 0.016146441073824059 0.0016354383884213952 0.00074310561312018145 0 0.00074310561312018145 -0.001274955437645886 0 0 0 9.0120737694210362e-05 -0.028107218038859128 0.00065643339212462237 0 0.00065643339212462237 0.0012753986265250372 0 0 0 -0.0067079548530835087 0.0058983044134284859 -0.07191172820941294 0 -0.07191172820941294 0.11762606738062985 0 0 0 0.030881092948514523 -0.025774378286902044 -0.00091407296971952878 0 -0.00091407296971952878 0.00073807785767465717 0 0 0 -0.0062590751073068884 -0.036160797659155863 -0.010914738660801136 0 -0.010914738660801136 0.0043586508482446051 0 0 0 -0.0079505367027278007 -0.049787040649062697 -0.040306801483647819 0 -0.040306801483647819 0.010783087346535325 0 0 0 -0.0097509883256318153 -0.11462188386511479 -0.0096234282977017173 0 -0.0096234282977017173 -0.019273281147092789 0 0 0 -0.033473791253051902 -0.15224479670300067 0.0035463588111852608 0 0.0035463588111852608 -0.024282206609456257 0 0 0 -0.044131750828114241 0.0027093483708133461 0.0045081469214137693 0 0.0045081469214137693 0.010227412710915549 0 0 0 0.0032341902704322791 0.0048474810957422898 -0.0057629961815613973 0 -0.0057629961815613973 0.050552451458570458 0 0 0 0.013849983138578159 -0.11220560498756703 -0.008635957966686458 0 -0.008635957966686458 -0.027850894361514549 0 0 0 -0.035014124837270386 -0.090120040053925779 -0.00093071538929706977 0 -0.00093071538929706977 -0.021527308296456871 0 0 0 -0.027911837087595662 -0.038472871825091771 0.00027735416116725652 0 0.00027735416116725652 -0.020042663831127894 0 0 0 -0.014628883914054909 -0.12017061285517926 0.0027764022303445948 0 0.0027764022303445948 -0.00038145202654867386 0 0 0 -0.030138016220432006 -0.16657875233417246 -0.010442386484603224 0 -0.010442386484603224 0.0013920115207951 0 0 0 -0.041296685203344313 -0.038782730333385779 -0.021799209608035247 0 -0.021799209608035247 -0.0089403137898104168 0 0 0 -0.01193076103079907 -0.042330740762090424 -0.028423091662226257 0 -0.028423091662226257 0.0045040732865396227 0 0 0 -0.0094566668688877559 0.0036064174274879068 0.024054124497530083 0 0.024054124497530083 0.14263763983463063 0 0 0 0.036561014315529272 -0.0069002659870380234 -0.0033002976895299962 0 -0.0033002976895299962 -0.002309883477303043 0 0 0 -0.0023025373660851556 -0.040464023337202004 -0.023530534614266713 0 -0.023530534614266713 -0.011013138828508184 0 0 0 -0.012869290541427492 -0.030628180041160746 -0.012564427746386886 0 -0.012564427746386886 0.00071350174382864284 0 0 0 -0.0074786695743329634 -0.068935234392423661 0.064730819591111433 0 0.064730819591111433 -0.00087112824078960926 0 0 0 -0.01745159065830304 -0.13279342813361777 0.00046231476095996682 0 0.00046231476095996682 -0.044288839835388005 0 0 0 -0.044270566992251438 -0.1019506750130072 -0.007059002682757826 0 -0.007059002682757826 -0.034002711942662057 0 0 0 -0.033988346738917312 -0.046682709584461274 -0.0061130041660438861 0 -0.0061130041660438861 -0.021940957263985456 0 0 0 -0.017155916712111682 -0.011851278859082326 0.030676422301985529 0 0.030676422301985529 0.01383664715246713 0 0 0 0.0004963420733459234 -0.012305383395326386 -0.018439899786743208 0 -0.018439899786743208 0.0013916787455987567 0 0 0 -0.0027284261624318518 -0.03827236961887942 -0.037911199560632047 0 -0.037911199560632047 0.0086602646657027438 0 0 0 -0.0074030262382941969 -0.03404793289230814 0.0034928919448982045 0 0.0034928919448982045 -0.015604145261140101 0 0 0 -0.012413019538362057 -0.08530985149741166 -0.017007568962387573 0 -0.017007568962387573 -0.0087643592502507292 0 0 0 -0.023518552686915599 -0.03844356092879303 -0.011555715028896745 0 -0.011555715028896745 0.0028091622104433611 0 0 0 -0.0089085996795873479 -0.030984927934298096 0.0057617682025614143 0 0.0057617682025614143 -0.014001185881627879 0 0 0 -0.011246528453981492 -0.035269936922258313 0.0053329725864103943 0 0.0053329725864103943 -0.012295634789535523 0 0 0 -0.011891392927948462 -0.03776980976169271 0.0039047660046994531 0 0.0039047660046994531 -0.01487333895202636 0 0 0 -0.013160787178429768 -0.031543780768271745 -0.0035941737165448295 0 -0.0035941737165448295 0.017675762899036884 0 0 0 -0.003467004467308632 -0.038811846674929831 -0.038303363068051516 0 -0.038303363068051516 0.028144132908116792 0 0 0 -0.0026669284417032563 -0.026888768012282849 -0.011410074591260144 0 -0.011410074591260144 0.0025486318072818204 0 0 0 -0.0060850340512502155 -0.059038847696752147 -0.028056208804511616 0 -0.028056208804511616 0.089940968871844745 0 0 0 0.007725530293773146 -0.020301389345878551 0.020413908956552707 0 0.020413908956552707 0.16026214573043429 0 0 0 0.034990189096138824 0.0005608250065514131 -0.00076947297756846367 0 -0.00076947297756846367 -0.00089109208277893259 0 0 0 -8.2566769056935385e-05 -0.0071943080768410717 -0.0058953295907077027 0 -0.0058953295907077027 -0.0034786519468168464 0 0 0 -0.0026682400059143685 -0.015779010506877356 0.01680107820712573 0 0.01680107820712573 0.16176783205388912 0 0 0 0.036497205386752718 -0.041641125578832781 0.021788835700827527 0 0.021788835700827527 0.12492131081809812 0 0 0 0.020820046309816355 -0.046607508747640802 0.004360419427037643 0 0.004360419427037643 -0.0094615284346674239 0 0 0 -0.014017259295577051 -0.051169410603182912 0.003349777668611015 0 0.003349777668611015 -0.011239299358611801 0 0 0 -0.015602177490448677 0.0024214531420856389 0.037576072077907807 0 0.037576072077907807 0.04830969369025695 0 0 0 0.012682786708085425 -0.024512215755130295 0.041061478153863851 0 0.041061478153863851 0.039333935239893592 0 0 0 0.003705429871190713 -0.049616396161968654 -0.039470229753527819 0 -0.039470229753527819 0.02814273411692142 0 0 0 -0.0053684155112617843 0.0010130538997700778 -0.0095414741213643572 0 -0.0095414741213643572 0.0016476519057359029 0 0 0 0.00066517645137648129 -0.00039083129658562532 0.0072099425782015877 0 0.0072099425782015877 -0.013223750500634956 0 0 0 -0.0034036454493051593 -0.061312504739661516 0.009149528560057206 0 0.009149528560057206 0.08105316456518126 0 0 0 0.0049351649563799393 -0.0081569641989118757 0.0079600594562320732 0 0.0079600594562320732 -0.004958948710085842 0 0 0 -0.0032789782272488743 -0.021908521782162182 -0.018543967241665626 0 -0.018543967241665626 0.087696357000684788 0 0 0 0.016446958804630762 -0.12820578396127297 0.0028801032044848268 0 0.0028801032044848268 0.00093227541717882945 0 0 0 -0.031818377136023479 -0.20518366117856734 -0.0095233288796660043 0 -0.0095233288796660043 0.0014412565778819386 0 0 0 -0.050935601150171317 -0.022342239200580954 -0.035804233921852238 0 -0.035804233921852238 0.0098120626700927138 0 0 0 -0.0031325441326220393 0.11558978501846623 -0.070142416083319559 0 -0.070142416083319559 0.056256558106328569 0 0 0 0.042961585781198686 -0.031864205440097548 -0.022700578562860119 0 -0.022700578562860119 -0.0039046787999144073 0 0 0 -0.008942221060003086 -0.033373603594507487 -0.029201871694732776 0 -0.029201871694732776 -0.00072102900917778157 0 0 0 -0.0085236581509213621 -7.7376819252912674e-05 -0.0081093008276049705 0 -0.0081093008276049705 0.018823976942978195 0 0 0 0.0046866500309313761 -0.0019116833383110432 0.0066501459804015894 0 0.0066501459804015894 0.015074959316864422 0 0 0 0.0032908189946381228 -0.00018484913547389681 0.0095738204541104821 0 0.0095738204541104821 0.040328665157597143 0 0 0 0.010035954005530812 -0.0019150454715496342 -0.0056415332218691105 0 -0.0056415332218691105 0.0062386854093160549 0 0 0 0.0010809099844418827 -0.078908905550244879 0.040154460323797714 0 0.040154460323797714 0.10133351299124893 0 0 0 0.0056061518602510407 -0.044105644677093075 -0.019717415449955533 0 -0.019717415449955533 0.00092180572064193278 0 0 0 -0.010795959739112876 -0.036677184976169598 -0.017042569424863013 0 -0.017042569424863013 -0.0045763459645998261 0 0 0 -0.01031338273519234 -0.034360178268218022 -0.017017810302910608 0 -0.017017810302910608 -0.0062070951092638507 0 0 0 -0.010141818344370447 -0.018348153413268564 -0.03900393938687316 0 -0.03900393938687316 0.018252024499184394 0 0 0 -2.403222852120912e-05 -0.18158625879453283 0.025312746164831923 0 0.025312746164831923 0.0034827319592121153 0 0 0 -0.044525881708829984 -0.080104940914967948 -0.0035414099696287199 0 -0.0035414099696287199 0.024714089289123109 0 0 0 -0.013847712906461168 -0.067247265442641202 -0.012465401560709341 0 -0.012465401560709341 0.022634932701304011 0 0 0 -0.011153083185334201 -0.021638395316796372 0.0045104927201862766 0 0.0045104927201862766 -0.016026763250418852 0 0 0 -0.0094162896418038822 -0.13159808900963599 0.045237178293957236 0 0.045237178293957236 -0.002749192234552611 0 0 0 -0.033586820311046983 -0.11329841429233575 0.0053694548085723021 0 0.0053694548085723021 0.0054278479872382213 0 0 0 -0.026967641576274376 -0.11244433413961255 -0.0044525909259901103 0 -0.0044525909259901103 0.0068204470103194192 0 0 0 -0.026405971782323318 -0.18365457121054266 0.0019202473349687055 0 0.0019202473349687055 0.015138209068150776 0 0 0 -0.042129090535598018 -0.17871785661858308 -0.021340048072704926 0 -0.021340048072704926 0.015139715408404864 0 0 0 -0.04089453530254461 -0.038062632429789064 -0.014023811681940779 0 -0.014023811681940779 -0.0028428896440244183 0 0 0 -0.010226380518453357 -0.10910564582787419 -0.011224374959926564 0 -0.011224374959926564 0.0021058860295410931 0 0 0 -0.026749939949583301 0.019215779119541865 0.079283176288380774 0 0.079283176288380774 0.031994227627019534 0 0 0 0.012802501686640322 -0.064166831310782935 -0.019078387314141812 0 -0.019078387314141812 0.062240906479202648 0 0 0 -0.00048148120789504121 -0.031981469276119716 0.01775702949682333 0 0.01775702949682333 0.025044246843674744 0 0 0 -0.0017343056081112387 -0.037442442398755826 0.032994377573862588 0 0.032994377573862588 -0.0048387853750906373 0 0 0 -0.010570306943461505 -0.03052440581771626 -0.033550026683441536 0 -0.033550026683441536 0.022621900422249652 0 0 0 -0.0019756263488666659 -0.037474580151107335 -0.03682493436018254 0 -0.03682493436018254 0.03223006232382488 0 0 0 -0.0013111294568206237 -0.0076093965107276729 0.0066681635625729097 0 0.0066681635625729097 -0.011123096148675016 0 0 0 -0.0046831231648506999 -0.035838719399337193 -0.017006689499882072 0 -0.017006689499882072 -0.011060075927063817 0 0 0 -0.011724698831600239 -0.057167119551715523 -0.010737906569828811 0 -0.010737906569828811 -0.024415769988410801 0 0 0 -0.020395722385031581 -0.057757289539309246 0.0061329188172082804 0 0.0061329188172082804 -0.017357213117404752 0 0 0 -0.018778625664178501 -0.035612598309645353 -0.041988449830231311 0 -0.041988449830231311 0.020073792491722753 0 0 0 -0.0038847014544807143 -0.087797878827114872 -0.026626969787272962 0 -0.026626969787272962 -0.0055193892995982485 0 0 0 -0.023329317031678294 -0.10944064492034566 -0.0057392887639411069 0 -0.0057392887639411069 0.031370791748245086 0 0 0 -0.019517463293025172 -0.037431652937548847 -0.0020833145195980462 0 -0.0020833145195980462 -0.022230916084020728 0 0 0 -0.014915642255392398 -0.03538036213980917 0.00057357425176050186 0 0.00057357425176050186 -0.018146228058613621 0 0 0 -0.013381647549605698 -0.044789553927626458 0.0035858027048000047 0 0.0035858027048000047 -0.013934992976712145 0 0 0 -0.014681136726084646 -0.045126404478806892 0.0046649844114715708 0 0.0046649844114715708 -0.014542227472063409 0 0 0 -0.014917157987717573 -0.095421825159608925 -0.01940930878161376 0 -0.01940930878161376 0.032227123160044502 0 0 0 -0.015798675499891127 -0.043184900120704472 0.014212523454123441 0 0.014212523454123441 0.022819655909259537 0 0 0 -0.0050913110528612304 -0.032597624407031081 -0.0024978184823755785 0 -0.0024978184823755785 -0.016326387042022238 0 0 0 -0.01223100286226333 -0.061108906253819463 -0.023649393032750377 0 -0.023649393032750377 -0.0062028869374096129 0 0 0 -0.016827948297807281 -0.046622871104441729 0.017086996396034098 0 0.017086996396034098 0.066139986675433846 0 0 0 0.0048792788927480239 -0.059932172180009416 -0.0023790712646235834 0 -0.0023790712646235834 0.002353364352691012 0 0 0 -0.014394701956829617 -0.057665670101361179 -0.0010190330321181596 0 -0.0010190330321181596 0.0083375165063236945 0 0 0 -0.012332038398759355 -0.13277452904907122 0.0004463645040920424 0 0.0004463645040920424 -0.044227908376728499 0 0 0 -0.044250609356449935 -0.1019370632979396 -0.0070469080602803841 0 -0.0070469080602803841 -0.033958671983505315 0 0 0 -0.033973933820361228 0.098046917625621205 0.044164495018553906 0 0.044164495018553906 0.049374770247659516 0 0 0 0.036855421968320236 -0.047394564795360909 0.0026941200413519847 0 0.0026941200413519847 5.7615200354563245e-05 0 0 0 -0.011834237398751588 -0.073730590706816701 -0.01361898757512787 0 -0.01361898757512787 0.074778948537996381 0 0 0 0.00026208945779493398 -0.016426046024388075 0.00091690529026650092 0 0.00091690529026650092 -0.02631659160501143 0 0 0 -0.010685659407349835 -0.12289389368764073 0.0044704456032272771 0 0.0044704456032272771 0.0013350638128987319 0 0 0 -0.030389707468685544 -0.19073220840496469 -0.011409783385947891 0 -0.011409783385947891 0.0016682867470605989 0 0 0 -0.047265980414476043 -0.036770723848792222 -0.014429795030782566 0 -0.014429795030782566 -0.015683399353240868 0 0 0 -0.013113530800508269 -0.11187896818121625 0.0080184948285397795 0 0.0080184948285397795 0.00047622498870953734 0 0 0 -0.027850685798126683 -0.13935964101438755 -0.032177288964840289 0 -0.032177288964840289 0.00038833643384134087 0 0 0 -0.034742826145136546 -0.11297256046431459 0.0042786276477299323 0 0.0042786276477299323 6.7868260899911492e-05 0 0 0 -0.028226173050853717 -0.073876569039200188 0.0021736194390937769 0 0.0021736194390937769 -0.005274059723806371 0 0 0 -0.019787657190751633 -0.067438161222919929 -0.013228278281168933 0 -0.013228278281168933 -0.012903385784919143 0 0 0 -0.020085386751959786 -0.1023175601340309 -0.023934539040983832 0 -0.023934539040983832 0.013360962246407426 0 0 0 -0.022239149471905834 -0.044046659151035089 -0.014749981324873762 0 -0.014749981324873762 -0.0016127526426349403 0 0 0 -0.011414852948417542 -0.024146998650825591 0.04058354994853175 0 0.04058354994853175 0.047351665571570223 0 0 0 0.005801166730186047 -0.030178933659665619 -0.022317806030305531 0 -0.022317806030305531 -0.0060032516120656076 0 0 0 -0.0090455463179326401 -0.040687543456198495 -0.0018042303538453759 0 -0.0018042303538453759 -0.019086292017586732 0 0 0 -0.014943458868446302 -0.050292740331846296 0.0029130013216073047 0 0.0029130013216073047 -0.015751995616967239 0 0 0 -0.016511183987203387 -0.070879039567650862 -0.013363935457355185 0 -0.013363935457355185 -0.026438767750844007 0 0 0 -0.024329451829623719 -0.066264809560955512 0.0056036535207602389 0 0.0056036535207602389 -0.019006716696679866 0 0 0 -0.021317881564408846 -0.066573858365937821 -0.014207732243784701 0 -0.014207732243784701 0.013318801343303321 0 0 0 -0.013313764255658639 -0.06589574841986337 -0.024620513213546705 0 -0.024620513213546705 0.017556136457010763 0 0 0 -0.012084902990713159 -0.065493973167907837 0.076636358707897187 0 0.076636358707897187 0.016421884020749289 0 0 0 -0.012268022286789804 -0.012290109621583056 0.10020676238117476 0 0.10020676238117476 0.055773858188305603 0 0 0 0.010870937141680637 0.042873746472953181 0.0017045535252092764 0 0.0017045535252092764 0.067008619441634054 0 0 0 0.027470591478646847 -0.078749792278487163 -0.0095820978988955391 0 -0.0095820978988955391 0.057686772523453889 0 0 0 -0.0052657549387582978 -0.033543927394503202 0.0040401680092365961 0 0.0040401680092365961 -0.014640657801866812 0 0 0 -0.0120461462990925 -0.044409733983354127 -0.020959200539273665 0 -0.020959200539273665 -0.0069722760603402323 0 0 0 -0.01284550251092359 -0.062560212069124654 0.055491300681622668 0 0.055491300681622668 0.0018272647351875726 0 0 0 -0.015183236833484104 -0.02244806252272713 -0.0057186307904692202 0 -0.0057186307904692202 0.047617017493414959 0 0 0 0.0062922387426720405 -0.024286289179622861 -0.010705671900752056 0 -0.010705671900752056 -0.012532647855101497 0 0 0 -0.009204734258681152 -0.055779438998490256 0.0021733733403396698 0 0.0021733733403396698 -0.0079467436430078649 0 0 0 -0.015931545660374524 -0.10368021208979822 0.024229524027479021 0 0.024229524027479021 0.057075224303279271 0 0 0 -0.011651246946629668 -0.12497203104295157 0.001020979979124559 0 0.001020979979124559 -0.0022267552902897753 0 0 0 -0.031799696583310305 -0.18245085252917992 -0.0046857531673006854 0 -0.0046857531673006854 -0.0044974626245692512 0 0 0 -0.046737078788437303 -0.035297220704883087 -0.020944062207131582 0 -0.020944062207131582 -0.0017268442441674692 0 0 0 -0.0092560162372626043 -0.078989552211351205 0.00068978490185414901 0 0.00068978490185414901 -0.014606846900021479 0 0 0 -0.023399099777843178 -0.086155579079351549 -0.0087264032450958817 0 -0.0087264032450958817 -0.023778703835994217 0 0 0 -0.027483570728836434 -0.21652886475147426 0.0057602794750624131 0 0.0057602794750624131 0.0043679097924873567 0 0 0 -0.053040238739746726 -0.12551500212265848 -0.0027074175527606603 0 -0.0027074175527606603 0.001180569300507528 0 0 0 -0.031083608205537808 -0.0043428428771988686 0.033164570295332874 0 0.033164570295332874 0.14380345988324367 0 0 0 0.034865154251511224 0.073265682623326112 0.0014788786493835915 0 0.0014788786493835915 0.34850525699641921 0 0 0 0.10544273490493633 -0.041839721875743863 -0.045651245127202644 0 -0.045651245127202644 0.025780293115308273 0 0 0 -0.0040148571901088559 -0.05722222120917364 -0.039653299290683897 0 -0.039653299290683897 0.016598405211175171 0 0 0 -0.010155953999499645 -0.03772308161709334 -0.045586700789084916 0 -0.045586700789084916 0.062030144610920629 0 0 0 0.0060767657484568117 -0.0034765415772506636 0.0025241254041000749 0 0.0025241254041000749 -0.022112232789843866 0 0 0 -0.0063971935917736256 -0.038058925514296564 6.1368699828070019e-05 0 6.1368699828070019e-05 -0.018469292337061526 0 0 0 -0.014132054462839523 -0.087348954633449827 -0.0096549875251589756 0 -0.0096549875251589756 0.014251699086125669 0 0 0 -0.018274313886831095 0.0004968473395744466 -0.0026190484657102053 0 -0.0026190484657102053 -0.0085925984181596249 0 0 0 -0.0020239377696461558 -0.18435753688966217 0.027043328712459958 0 0.027043328712459958 -0.00079840815071824389 0 0 0 -0.046288986260094825 -0.034047214683291527 0.032295999677907528 0 0.032295999677907528 -0.0044479233325329659 0 0 0 -0.0096237845039566228 -0.024903956955764861 -0.033310896500908793 0 -0.033310896500908793 0.019538346368834336 0 0 0 -0.00134140264673277 -0.047990187225052695 0.0024347081092877774 0 0.0024347081092877774 0.018229479665263029 0 0 0 -0.0074401768899474349 -0.074828292036418775 -0.020480964254337847 0 -0.020480964254337847 0.017017873079252288 0 0 0 -0.014452604739291636 -0.032494889360546106 0.010270918743852671 0 0.010270918743852671 -0.00092066478330510293 0 0 0 -0.0083538885359627987 -0.027982839853746423 0.015274818992556441 0 0.015274818992556441 0.0092199551707802391 0 0 0 -0.0046907211707415478 -0.10609546087898489 -0.023037561693380885 0 -0.023037561693380885 -0.0021953536058000045 0 0 0 -0.027072703621196209 -0.050965870241558076 -0.037146448245178765 0 -0.037146448245178765 0.0053925183359651019 0 0 0 -0.011393337976398465 -0.15341115280056417 -0.018677699512553561 0 -0.018677699512553561 -0.0079777108343827008 0 0 0 -0.040347215908736682 -0.03822940322750501 0.055656458375752171 0 0.055656458375752171 0.0086562897725928067 0 0 0 -0.0073932783637280508 -0.04123889871366225 0.058117835869624601 0 0.058117835869624601 0.007255802337528261 0 0 0 -0.0084957740940338894 -0.044199027963884197 0.060469581202446498 0 0.060469581202446498 0.0019622087568880175 0 0 0 -0.010559204801748878 -0.039720790587469801 -0.03604715233829181 0 -0.03604715233829181 0.0053004170952517526 0 0 0 -0.0086050933730544843 -0.047527830875788241 -0.035189753847970295 0 -0.035189753847970295 0.0026574609277685152 0 0 0 -0.011217592487004904 0.046196577191143243 0.044845034994005162 0 0.044845034994005162 0.079193462694110983 0 0 0 0.031347509971313553 -0.038910658443427767 -0.002399298462041342 0 -0.002399298462041342 -0.01297740927080036 0 0 0 -0.012972016928557031 -0.046001929848876043 0.0039736758136482498 0 0.0039736758136482498 -0.015335487612791824 0 0 0 -0.015334354365416965 -0.045851817585482325 0.0043443537243441702 0 0.0043443537243441702 0.0026318722668033376 0 0 0 -0.010804986329669742 -0.014674014444292338 -0.021756790303626442 0 -0.021756790303626442 0.10266334977566316 0 0 0 0.021997333832842692 -0.12492185816838992 -0.02939924152282266 0 -0.02939924152282266 -0.0036296529290854029 0 0 0 -0.032137877774368814 -0.036914143083043791 0.0023886264132072792 0 0.0023886264132072792 -0.015836872988351743 0 0 0 -0.013187754017848883 -0.18293279477574162 -0.0072687158666017299 0 -0.0072687158666017299 -0.0045274268643394656 0 0 0 -0.046865055410020229 -0.12249812850216144 0.0019755588132505247 0 0.0019755588132505247 -0.001280962847003228 0 0 0 -0.030944772837291155 -0.11101696197879751 -0.012513743707410652 0 -0.012513743707410652 0.0002083955484823985 0 0 0 -0.02770214160757889 -0.040748382140573344 0.0045529658485027403 0 0.0045529658485027403 -0.011956801123041306 0 0 0 -0.013176295815903662 -0.031738734651724908 -0.0066394999984122349 0 -0.0066394999984122349 0.023826033855408685 0 0 0 -0.0019781751990791061 -0.05623401690966405 0.011033471584390536 0 0.011033471584390536 0.045121724515103281 0 0 0 -0.0027780730986402026 -0.010269025614352931 0.065724175974311683 0 0.065724175974311683 0.014141316881759958 0 0 0 0.00096807281685175328 -0.032039793927696035 0.0041103174002750618 0 0.0041103174002750618 -0.016865231437805994 0 0 0 -0.012226256341375507 -0.025094944600909663 0.030115229491393225 0 0.030115229491393225 -0.0053750905398448623 0 0 0 -0.0076175087851884093 -0.02163738379880864 -0.030582883788022985 0 -0.030582883788022985 0.0071611574491639018 0 0 0 -0.0036190565874112401 -0.040953377284656999 0.0045484412502903807 0 0.0045484412502903807 -0.012603537150182084 0 0 0 -0.013389228608709764 -0.069822148924004901 0.0013737771145916548 0 0.0013737771145916548 0.058568869784307587 0 0 0 -0.0028133197849243459 -0.01128061082238796 0.024290716249430522 0 0.024290716249430522 0.025944147461760991 0 0 0 0.0036658841598433689 -0.0064596947250776804 0.018483156205966189 0 0.018483156205966189 -0.0025620821778158387 0 0 0 -0.0022554442257236573 -0.0059007203024672439 -0.014775570214546258 0 -0.014775570214546258 -0.0059629549765300993 0 0 0 -0.0029659188197492803 -0.0090606989486780032 -0.020731381767957746 0 -0.020731381767957746 0.010989038908604698 0 0 0 0.00048208498998159044 -0.13744496279782345 0.0023966444947183252 0 0.0023966444947183252 0.033231492342201907 0 0 0 -0.026053367613905393 -0.08618421301689097 -0.024299901047314387 0 -0.024299901047314387 0.010017334941289757 0 0 0 -0.019041719518900352 -0.097147233246557219 -0.024264108708339449 0 -0.024264108708339449 0.0096769473810536244 0 0 0 -0.021867571466375912 -0.15309451645410155 0.054221397522065617 0 0.054221397522065617 0.022549190574542965 0 0 0 -0.032636331469889646 -0.12837546818847001 0.054402816503197976 0 0.054402816503197976 0.023570150099115894 0 0 0 -0.026201329522338557 -0.052980578932692257 0.0021303280160843122 0 0.0021303280160843122 -0.014370605706582166 0 0 0 -0.016837796159818605 0.079792490027119967 0.037247044553289949 0 0.037247044553289949 0.041320036287630479 0 0 0 0.030278131578687417 -0.110738168661769 -0.0091485066763087285 0 -0.0091485066763087285 -0.025523843535043514 0 0 0 -0.034065503049203125 -0.090873101526300307 -0.00067836625251402674 0 -0.00067836625251402674 -0.01734155360049279 0 0 0 -0.027053663781698285 -0.071275186122898945 -0.01681624035345311 0 -0.01681624035345311 0.038306157984988057 0 0 0 -0.0082422570344777429 -0.070444587414859913 0.003711963540971008 0 0.003711963540971008 -0.010978935964655202 0 0 0 -0.020355880844878774 -0.07057220270071575 -0.013951323347066873 0 -0.013951323347066873 -0.023949101477157564 0 0 0 -0.023630326044468321 -0.15498141636812601 -0.023622647655270466 0 -0.023622647655270466 0.00313465756987924 0 0 0 -0.037961689699561665 -0.15661315603316023 -0.024578003439121948 0 -0.024578003439121948 -0.00096648670170604301 0 0 0 -0.039394910683716582 -0.016333270878319706 0.037203288311972615 0 0.037203288311972615 0.048318024583505093 0 0 0 0.0079961884262966798 -0.014481245635006745 -0.01667641338246878 0 -0.01667641338246878 0.0013007313410624555 0 0 0 -0.00329512857348635 -0.0045971084701982145 -0.003211519488356962 0 -0.003211519488356962 0.022163353052553118 0 0 0 0.0043915611455887116 -0.0017112833554256413 0.0038477656832109353 0 0.0038477656832109353 -0.0030262408296122256 0 0 0 -0.0011843810462594528 -0.070051478894814473 0.00017888666984684082 0 0.00017888666984684082 0.0020085833722308932 0 0 0 -0.017010723880645874 -0.0047842306388273526 -0.0049484366749579789 0 -0.0049484366749579789 0.078523383330091567 0 0 0 0.018434788172815991 -0.0047321828629409424 -0.002532605516843367 0 -0.002532605516843367 0.14067164525579867 0 0 0 0.03398486559821437 -0.027927460100086923 -0.013899053127013117 0 -0.013899053127013117 0.016200436848558639 0 0 0 -0.0029317558128820996 -0.10216206974013799 -0.012006348231996623 0 -0.012006348231996623 0.012740301649796559 0 0 0 -0.022355442022585353 -0.00057699207522882157 0.00069395139481581714 0 0.00069395139481581714 -0.018754692162091358 0 0 0 -0.0048329210593301419 -0.15402771937009635 -0.032597449611919002 0 -0.032597449611919002 0.0099954635743153553 0 0 0 -0.036008063948945235 -0.049844918029927493 0.0032744272177523516 0 0.0032744272177523516 0.013217267397220973 0 0 0 -0.0091569126581766257 -0.065656553048903665 -0.034975973912511088 0 -0.034975973912511088 0.029037829572830187 0 0 0 -0.0091546808690183279 -0.06274218957728811 -0.031847356663102122 0 -0.031847356663102122 0.025865777589023087 0 0 0 -0.0092191029970662974 -0.072662682529868572 0.0046585012496308149 0 0.0046585012496308149 -0.0004813917364780082 0 0 0 -0.018286018566586647 -0.08554666329930799 -0.020087401192635634 0 -0.020087401192635634 0.018199956750410085 0 0 0 -0.016836676637224546 -0.079521687992002099 0.0016406163371631352 0 0.0016406163371631352 -0.0012564835208466046 0 0 0 -0.020194542878212166 -0.065220482512510392 -0.01546772430519288 0 -0.01546772430519288 -0.01769602414154807 0 0 0 -0.020729126663514608 -0.10600605690555664 -0.011920157385589214 0 -0.011920157385589214 0.011365087690941023 0 0 0 -0.023660242303653878 -0.17499471809856568 0.021618296828404659 0 0.021618296828404659 0.040111667004219753 0 0 0 -0.033720762773586349 -0.11096841262190368 -0.010618061303186193 0 -0.010618061303186193 -0.025340119111766521 0 0 0 -0.034077132933417548 -0.089323990740143688 0.00057233906670127823 0 0.00057233906670127823 -0.020056818285578475 0 0 0 -0.027345202256430546 -0.08303739213824117 0.0054515241146076351 0 0.0054515241146076351 -0.0038554368777088521 0 0 0 -0.021723207253987506 -0.09405252135161192 -0.022560846880427126 0 -0.022560846880427126 -0.013972441615146186 0 0 0 -0.027006240741689544 -0.048485060360422765 -0.0046286647054074922 0 -0.0046286647054074922 -0.023404254181459465 0 0 0 -0.017972328635470564 -0.016393057051162618 -0.049428901826013727 0 -0.049428901826013727 0.057923495047447149 0 0 0 0.010382609499071105 -0.028930776013266782 0.0066737657632879518 0 0.0066737657632879518 -0.014170679708875792 0 0 0 -0.010775363930535643 -0.016108335570224064 0.022923348364586094 0 0.022923348364586094 -0.00069991714007677786 0 0 0 -0.0042020631775749884 -0.018239084604831257 -0.031167692610561071 0 -0.031167692610561071 0.022201738103797108 0 0 0 0.00099066337474140731 -0.081098342319960937 0.0042097121684356344 0 0.0042097121684356344 -0.0074510207489432989 0 0 0 -0.022137340767226059 -0.086502265039780438 -0.018042680767471706 0 -0.018042680767471706 -0.020209361870846914 0 0 0 -0.026677906727656832 -0.033708927780867197 0.0072240938445937534 0 0.0072240938445937534 -0.0074884177329555546 0 0 0 -0.010299336378455691 -0.039848648656756025 -0.039359685000098101 0 -0.039359685000098101 0.039743432062743667 0 0 0 -2.6304148503131231e-05 -0.088290597025940665 0.017256131855169003 0 0.017256131855169003 -0.0019660698599368587 0 0 0 -0.022564166721469325 -0.016345790325215659 -0.017994626204218545 0 -0.017994626204218545 0.04943048714331888 0 0 0 0.0082711742045257219 -0.052580171336741754 -0.035904366151094491 0 -0.035904366151094491 0.0049046281585973794 0 0 0 -0.011918885794536149 -0.073635976215079585 -0.013450668050552846 0 -0.013450668050552846 0.0638637205665821 0 0 0 -0.002443063912124406 -0.15839704022942211 -0.014692337564537139 0 -0.014692337564537139 -0.0042096483651269528 0 0 0 -0.040651672148637255 -0.11171824375390212 0.0023046707251432041 0 0.0023046707251432041 -0.0025455606815926457 0 0 0 -0.028565951108873694 -0.01625046678988919 0.010343385843777709 0 0.010343385843777709 0.0035970288769885117 0 0 0 -0.0031633594782251792 -0.038304128278607477 0.0045725355638746509 0 0.0045725355638746509 -0.012842874247582632 0 0 0 -0.012786750631547529 -0.060993106042337375 -0.02510420592713454 0 -0.02510420592713454 0.011222565079061386 0 0 0 -0.012442635240819011 -0.16186291855530949 -0.0182855440106349 0 -0.0182855440106349 -0.0018508346350458449 0 0 0 -0.040928438297588833 -0.11575911011484155 0.0056163447439205871 0 0.0056163447439205871 -0.001005180951825474 0 0 0 -0.02919107276666677 -0.055035836701430065 0.006313746193273127 0 0.006313746193273127 0.065477379648181538 0 0 0 0.0026103857366878598 -0.033296905673942501 -0.03156385198922268 0 -0.03156385198922268 0.0035395865663048198 0 0 0 -0.0074393297769095312 -0.03470957461083346 0.048421984767765491 0 0.048421984767765491 0.0096980576920806527 0 0 0 -0.0062528792296876468 -0.10053871809995996 0.00036249792497256017 0 0.00036249792497256017 0.010054453159352716 0 0 0 -0.022621066235151761 -0.085948590287190818 -0.0068995460087024896 0 -0.0068995460087024896 0.013218610004122413 0 0 0 -0.01818249507076708 -0.043104457784524652 -0.015288112349795172 0 -0.015288112349795172 0.025290476689709199 0 0 0 -0.0044534952737038669 -0.047139112272791786 -0.015905984147320557 0 -0.015905984147320557 0.034957346243072646 0 0 0 -0.0030454415074297886 -0.060493471350790591 -0.0099862952133083199 0 -0.0099862952133083199 -0.025642942570850358 0 0 0 -0.021534103480410235 -0.05839101318278659 -0.0052877089090487307 0 -0.0052877089090487307 -0.022766524407890183 0 0 0 -0.020289384397669183 -0.064403626504431044 0.0014724864327532636 0 0.0014724864327532636 -0.015333227454846981 0 0 0 -0.019934213489819514 -0.063027027952911124 0.0044235162146089579 0 0.0044235162146089579 -0.014682604491643412 0 0 0 -0.019427408111138633 -0.033744637210823381 -0.0077690668450076938 0 -0.0077690668450076938 -0.0034702105714931042 0 0 0 -0.0093037119455791073 -0.064378596357460474 -0.0018140597416840057 0 -0.0018140597416840057 0.069431994858065768 0 0 0 0.0012633496251513374 -0.025507948321043854 0.010486318040888336 0 0.010486318040888336 4.0569378940202849e-05 0 0 0 -0.0063668447355259093 -0.029503465558911479 0.051385223924058525 0 0.051385223924058525 0.017018908575547442 0 0 0 -0.0031211392458410092 -0.046481589506249255 -0.03289216351699123 0 -0.03289216351699123 -2.5127133826963188e-06 0 0 0 -0.01162102555490796 -0.022339562366478827 0.061902815624851559 0 0.061902815624851559 0.010780737241160132 0 0 0 -0.0028897062813295626 -0.020096484819349565 -0.0073171340905407514 0 -0.0073171340905407514 0.0012990904114065019 0 0 0 -0.0046993486019857676 -0.012952612000783174 0.0036450334525277225 0 0.0036450334525277225 0.014124843059442255 0 0 0 0.00029305776466476141 -0.066858413124774807 0.068434435230885438 0 0.068434435230885438 0.0017766982425779787 0 0 0 -0.01627042872054929 -0.043232299298538335 0.069926359767337631 0 0.069926359767337631 0.0071095600083102006 0 0 0 -0.009030684822556978 -0.1222148043487412 -0.0082739478141502683 0 -0.0082739478141502683 -0.015614094997208582 0 0 0 -0.034457224836487443 -0.097081534852825085 -0.001341736156942679 0 -0.001341736156942679 -0.012200678644397032 0 0 0 -0.027320553374305521 -0.035303446361491131 -0.039322909063824935 0 -0.039322909063824935 0.019641168546889798 0 0 0 -0.0039155694536504582 0.00083659003965907974 -0.0044745055239989642 0 -0.0044745055239989642 0.077499827035585112 0 0 0 0.01958410426881102 -0.0064758265633589607 8.9105528699839898e-05 0 8.9105528699839898e-05 0.14590248629103963 0 0 0 0.034856664931920162 -0.065011958803138217 0.0010645951144166348 0 0.0010645951144166348 0.043261097194041156 0 0 0 -0.0054377154022742756 -0.020444653062451516 0.015883984470996013 0 0.015883984470996013 0.0070889316097208638 0 0 0 -0.0033389303631826753 -0.012356016072149534 -0.0021916395626219165 0 -0.0021916395626219165 -0.019054191363187201 0 0 0 -0.0078525518588341003 -0.024811451883468449 -0.0042410325004423322 0 -0.0042410325004423322 -0.023879582953432177 0 0 0 -0.01217275870922524 -0.038106401764131159 -0.014122318191698485 0 -0.014122318191698485 -0.0078250351174410371 0 0 0 -0.011482859220393049 -0.024882800515196923 0.018023791034138981 0 0.018023791034138981 -0.0055411455546335864 0 0 0 -0.0076059865174580854 -0.019176172325615845 -0.031477424356515904 0 -0.031477424356515904 0.033937570693512609 0 0 0 0.0036903495919740209 -0.0037250717743975148 0.0086835442715890443 0 0.0086835442715890443 0.022694497277984338 0 0 0 0.0047423563758967058 -0.005731079387996052 -0.012649921888331334 0 -0.012649921888331334 0.06388458113680695 0 0 0 0.014538375437202711 -0.02377404514479875 0.038024276745294294 0 0.038024276745294294 0.021018096188294866 0 0 0 -0.00068898723912580451 -0.020871341931481713 -0.023697212818423186 0 -0.023697212818423186 -0.0064122278471991923 0 0 0 -0.0068208924446702679 -0.035276520352158336 0.0050197773622202048 0 0.0050197773622202048 -0.012253873428693818 0 0 0 -0.011882598445213045 -0.03144389392095736 0.0081937459857985666 0 0.0081937459857985666 -0.0080898032930192161 0 0 0 -0.00988342430349415 -0.026501574028789943 0.043295156226589526 0 0.043295156226589526 0.030846545763002275 0 0 0 0.0010862429335527501 -0.026743099841844975 -0.02458109251234708 0 -0.02458109251234708 0.0018573709409412942 0 0 0 -0.0062214322252258647 -0.095779788019322881 -0.012065674382277985 0 -0.012065674382277985 -0.024547514537616826 0 0 0 -0.030081825639234921 -0.08209361078505166 0.0021556515829119129 0 0.0021556515829119129 -0.017763928454098528 0 0 0 -0.024964384809787545 -0.00026893279497630651 0.075977523023174176 0 0.075977523023174176 0.026996972650146667 0 0 0 0.0066820099637927566 -0.14210238657569496 -0.0038246989580478005 0 -0.0038246989580478005 -0.024306136493411838 0 0 0 -0.041602130767276702 -0.10839557716039241 -0.0048330211625971387 0 -0.0048330211625971387 -0.018013177000704372 0 0 0 -0.031602188540274197 -0.036477240386627141 0.015581171396750193 0 0.015581171396750193 -0.0064241509124451923 0 0 0 -0.010725347824767972 -0.017071187057124404 -0.02199855859807387 0 -0.02199855859807387 0.064124949811330989 0 0 0 0.01176344068855173 -0.059794075489862042 -0.0077931863144619085 0 -0.0077931863144619085 0.087354314430223484 0 0 0 0.0068900597350902704 -0.092413709306884223 -0.0018695248377305074 0 -0.0018695248377305074 0.083505856255144284 0 0 0 -0.0022269632629349223 -0.058802162316513251 -0.036902280535028739 0 -0.036902280535028739 0.011168072731261525 0 0 0 -0.011908522396312904 -0.029680495949176905 -0.02717321801597139 0 -0.02717321801597139 0.0041677894764338141 0 0 0 -0.0063781766181857658 -0.064820086052076897 0.078925742668735532 0 0.078925742668735532 0.020944617237344865 0 0 0 -0.010968867203683064 -0.12524232140352309 0.051516084526040729 0 0.051516084526040729 0.026446993104314753 0 0 0 -0.024698832074802168 -0.085381814245098442 -0.023727631691334516 0 -0.023727631691334516 0.011067755744018859 0 0 0 -0.018578514625269993 -0.0048906037651308409 -0.054637440027866802 0 -0.054637440027866802 0.041253630652331119 0 0 0 0.0090907567218000418 -0.018683149381374553 0.0011119394858716269 0 0.0011119394858716269 0.042932159081885524 0 0 0 0.0060622524251277565 -0.02467541561685882 -0.0075682184973356603 0 -0.0075682184973356603 0.08237529216506001 0 0 0 0.01442496913705027 -0.066468801880031153 -0.021692401960521399 0 -0.021692401960521399 0.041879241155278801 0 0 0 -0.0061473901811880879 -0.0602801581026517 -0.015455410383787661 0 -0.015455410383787661 0.040559169751985175 0 0 0 -0.0049302470876666366 -0.042295063746631854 0.021907523180880305 0 0.021907523180880305 0.09951917827103561 0 0 0 0.014306028631100941 -0.021144923303212437 -0.030212517995104604 0 -0.030212517995104604 0.056860155282535629 0 0 0 0.0089288079948307841 -0.0172037464624748 0.035174827437943312 0 0.035174827437943312 0.070315396365678851 0 0 0 0.013277912475800679 -0.019137897895648459 -0.014008968695944368 0 -0.014008968695944368 -0.0054995479050115037 0 0 0 -0.0061593614501649352 -0.060126752903739325 0.012433358442218316 0 0.012433358442218316 0.059500003375027158 0 0 0 -0.00015668738217806261 -0.042846500914034455 -0.0066053711595048248 0 -0.0066053711595048248 0.018890998070887857 0 0 0 -0.0059888757107866945 -0.027759176741050134 -0.006795676026280062 0 -0.006795676026280062 -0.018450442022069247 0 0 0 -0.011552404690779811 -0.041739388453803476 0.020062454495106734 0 0.020062454495106734 0.039473796618522225 0 0 0 -0.000566397958820305 -0.040050201732571025 -0.0025809295279466092 0 -0.0025809295279466092 -0.02390074460301729 0 0 0 -0.015987736583897075 -0.10672571164075562 -0.010190422374585848 0 -0.010190422374585848 0.0014225305877073602 0 0 0 -0.026325795263262064 -0.064199476125668967 -0.0090389003395363373 0 -0.0090389003395363373 -0.021749529440652095 0 0 0 -0.021487251391580264 -0.026831222919527727 0.011795625683090893 0 0.011795625683090893 -0.0017581125670978505 0 0 0 -0.0071473338716563969 -0.056568791107765727 0.0091603468413180428 0 0.0091603468413180428 0.083816131595721877 0 0 0 0.006811835121989053 -0.1765034721230494 0.021374509224512835 0 0.021374509224512835 0.0017057662812134389 0 0 0 -0.043699426460458879 -0.038420547883607457 0.0041777423094709687 0 0.0041777423094709687 -0.014943470205726778 0 0 0 -0.013341004522333562 -0.028360743751116697 0.0015480188602779825 0 0.0015480188602779825 -0.0062961527390130723 0 0 0 -0.0086642241225324546 -0.049230193880080493 -0.021551829393593347 0 -0.021551829393593347 0.004439578593476684 0 0 0 -0.011197653821651006 -0.056285831654007357 -0.026541979115940473 0 -0.026541979115940473 -6.4493155340406005e-05 0 0 0 -0.014087581202336996 -0.048055733137770257 -0.010571261750505091 0 -0.010571261750505091 -0.019861161914563011 0 0 0 -0.01697922376308332 -0.034266862462335151 0.0033612792255494272 0 0.0033612792255494272 -0.01597690688414866 0 0 0 -0.012560942336620952 -0.032732551065594556 -0.003142821997199105 0 -0.003142821997199105 -0.0035589716364732085 0 0 0 -0.0090728806755169377 -0.051638145535302618 -0.024004957484419248 0 -0.024004957484419248 0.014496081001796779 0 0 0 -0.0092855161333765118 -0.021411211176176781 0.00046415756903375738 0 0.00046415756903375738 0.024830055704859744 0 0 0 0.00085471113217078232 -0.11203646480038684 -0.033640852536893862 0 -0.033640852536893862 -0.0048592238566935175 0 0 0 -0.029223922164270083 -0.0066086609035783672 0.02107624032330202 0 0.02107624032330202 0.12263399553939969 0 0 0 0.02900633365895533 -0.026674154792263441 -0.010310268020503388 0 -0.010310268020503388 -0.0039642315445458931 0 0 0 -0.0076595965842023578 -0.032010620226883772 0.0071560702062003108 0 0.0071560702062003108 -0.010314819222628122 0 0 0 -0.010581359862377973 -0.029060911763586682 0.0077452309570527952 0 0.0077452309570527952 -0.010200859811152152 0 0 0 -0.0098154428936847102 -0.028881459026158129 0.019841796193571182 0 0.019841796193571182 0.0038317767995774688 0 0 0 -0.0062624205566454982 -0.027194008995866881 -0.028824316885241147 0 -0.028824316885241147 0.040270585135115056 0 0 0 0.0032691440348118217 -0.031915083197840248 0.013067514371799238 0 0.013067514371799238 0.010037899002823404 0 0 0 -0.005469296048754211 -0.040532393999408493 0.010670148692304005 0 0.010670148692304005 0.0089456742937972823 0 0 0 -0.0078966799264028019 -0.03249625505637313 0.0072349031404938414 0 0.0072349031404938414 -0.0086234564225916386 0 0 0 -0.010279927869741192 -0.098110401531288943 0.0047345582926021992 0 0.0047345582926021992 -0.0018952801314508078 0 0 0 -0.025001420415684941 -0.06015913883573399 -0.0060076015237617644 0 -0.0060076015237617644 0.019205303442051069 0 0 0 -0.010238458848420701 -0.041726586248917952 -0.010111285685128028 0 -0.010111285685128028 0.022700462688630407 0 0 0 -0.0047565308900718861 -0.10807127353886374 0.0050999074453084506 0 0.0050999074453084506 -0.0045210107892101614 0 0 0 -0.028148071082018451 0.044628607739663595 0.10015097498417502 0 0.10015097498417502 0.072639185192050426 0 0 0 0.029316948232928408 -0.025754126352249607 0.035927139055333512 0 0.035927139055333512 0.0064988037603797011 0 0 0 -0.0048138306479672544 -0.022462892752945329 -0.031907226453115445 0 -0.031907226453115445 0.0045616619417279125 0 0 0 -0.0044753077028043542 -0.050893203261743736 0.00055573456850452861 0 0.00055573456850452861 0.0096888724625946027 0 0 0 -0.010301082699787287 -0.036211161062021512 0.0032487725230894854 0 0.0032487725230894854 -0.014808911452486849 0 0 0 -0.01275501812862709 -0.0023039683533914168 -0.0019955928316042308 0 -0.0019955928316042308 0.026224024412118296 0 0 0 0.0059800140146817338 -0.03697880960320965 -0.012666462844376392 0 -0.012666462844376392 0.003380620973914894 0 0 0 -0.0083995471573236058 -0.041013367228542819 -0.018732582416918553 0 -0.018732582416918553 -0.013889851477988768 0 0 0 -0.013725804676632924 -0.039263589428895199 0.0064830456069406633 0 0.0064830456069406633 -0.0015159804327679709 0 0 0 -0.0101948924654158 -0.089820217213833653 -0.022372393424519466 0 -0.022372393424519466 0.00049207887193891686 0 0 0 -0.02233203458547367 -0.072824761739935906 -0.027693985549252675 0 -0.027693985549252675 0.0061963489899214963 0 0 0 -0.016657103187503575 -0.035289377880145946 0.0012194868107736595 0 0.0012194868107736595 -0.011768084267264386 0 0 0 -0.011764365536852582 -0.10253560192336997 0.056874219480253063 0 0.056874219480253063 0.0097098842643283945 0 0 0 -0.023206429414760255 -0.13738607801702174 0.046532275115697352 0 0.046532275115697352 -0.00086167776530521323 0 0 0 -0.034561938945581794 -0.011438751653632562 0.0078844133068603772 0 0.0078844133068603772 0.035093243843422384 0 0 0 0.0059136230474475249 -0.013544919053616156 -0.013998348269490507 0 -0.013998348269490507 0.067829770953759416 0 0 0 0.013571212975035829 -0.018145312401922284 -0.019155880733457115 0 -0.019155880733457115 0.01185426914566548 0 0 0 -0.0015727608140641836 -0.029980652390916074 -0.0012218047715032432 0 -0.0012218047715032432 -0.013747023460482288 0 0 0 -0.010931918962849618 0.014901043586954543 0.047778444433526711 0 0.047778444433526711 0.12482471488641733 0 0 0 0.034931439618342941 -0.042083579653983932 -0.0065175009877579126 0 -0.0065175009877579126 -0.01622690255023148 0 0 0 -0.014577620551053855 -0.056482445623337783 -0.011244102962556179 0 -0.011244102962556179 0.040158449359327025 0 0 0 -0.0040809990660026982 0.033868330005382696 0.033597572673491061 0 0.033597572673491061 0.026469877197965452 0 0 0 0.015084551800837009 -0.051040756190767957 1.1720135560095921e-05 0 1.1720135560095921e-05 0.0078247083109802169 0 0 0 -0.010804011969946925 -0.023141616767241135 0.040685511150732712 0 0.040685511150732712 0.012515323405166701 0 0 0 -0.0026565733405181646 -0.022222919941569663 -0.026590159027205074 0 -0.026590159027205074 0.0031953432642795043 0 0 0 -0.0047568941693224565 -0.049621327469932357 0.001599619070077293 0 0.001599619070077293 -0.005212584410059274 0 0 0 -0.013708477969997919 -0.079126229719139254 -0.019170649130451241 0 -0.019170649130451241 0.065565393614497092 0 0 0 -0.0033902090261605788 -0.023334907826825235 0.032109352123467438 0 0.032109352123467438 0.07422221450323363 0 0 0 0.012721826669101821 -0.021254170505083381 -0.013297256858450401 0 -0.013297256858450401 0.0022656599280346246 0 0 0 -0.0047471276442621058 -0.15007239467320027 0.0021885699698884144 0 0.0021885699698884144 0.0013079658798162419 0 0 0 -0.037191107198346021 -0.26192233659109199 -0.0084654357618128128 0 -0.0084654357618128128 0.0022305924552586953 0 0 0 -0.064922936033958295 -0.03755643990620039 0.026391937753329611 0 0.026391937753329611 0.11615161012778241 0 0 0 0.019648792555395644 -0.083526426136019405 0.0069690406460843762 0 0.0069690406460843762 -0.00032230804957467107 0 0 0 -0.020962183546398512 0.015257134728454601 -0.0011953749912905764 0 -0.0011953749912905764 0.067061678137023351 0 0 0 0.020579703216369503 0.007890136652641877 0.001895610782321977 0 0.001895610782321977 0.086836725907316614 0 0 0 0.02368171563998972 0.0057246290335941086 -0.0042590865492026508 0 -0.0042590865492026508 0.16440212859067072 0 0 0 0.042531689406066275 0.020611474517293393 -0.0020829325039163904 0 -0.0020829325039163904 0.14068120773034254 0 0 0 0.040323170561908928 -0.017821792888568402 0.0085788641316410508 0 0.0085788641316410508 0.0061864649652257908 0 0 0 -0.0029088319808357049 -0.01888089239487406 -0.015920375544360016 0 -0.015920375544360016 0.031088772369645801 0 0 0 0.0030519699936928935 -0.022380500316271035 0.0047873931656194357 0 0.0047873931656194357 0.11814759980851908 0 0 0 0.023941774873062038 -0.019593209186891447 -0.011986131584572013 0 -0.011986131584572013 0.057781534731089823 0 0 0 0.009547081386049594 -0.081956682303984674 0.0054036729582652432 0 0.0054036729582652432 0.057047032009806597 0 0 0 -0.006227412573544519 -0.0031869060289784201 0.028288902641045333 0 0.028288902641045333 0.058050837885126327 0 0 0 0.013715982964037199 -0.010217579378397179 0.0090496786691098841 0 0.0090496786691098841 -0.00096963032850005959 0 0 0 -0.0027968024267237546 -0.0078965985030816643 -0.0077653745058614554 0 -0.0077653745058614554 -0.0021905926770409145 0 0 0 -0.0025217977950304782 -0.0062990336775543554 -0.02453447474633158 0 -0.02453447474633158 0.025506620360367549 0 0 0 0.0048018966707030764 -0.042661204799491412 0.0053509750912456005 0 0.0053509750912456005 -0.0023937932410609108 0 0 0 -0.0112637495101381 -0.018498133025020985 0.027253996900180599 0 0.027253996900180599 0.071151058935271516 0 0 0 0.013163231477562404 -0.0044682091718297873 -0.0067613341261532067 0 -0.0067613341261532067 -0.0018118912997014402 0 0 0 -0.0015700251178827479 -0.064770446446860669 -0.0081157807113289588 0 -0.0081157807113289588 0.082251825273564769 0 0 0 0.0043703447066760406 -0.0052059965846398271 0.0080430639185786745 0 0.0080430639185786745 -0.0019547541201418994 0 0 0 -0.0017901876761956537 -0.01671614573278446 -0.024708680408886075 0 -0.024708680408886075 0.036620555065786764 0 0 0 0.0049761023332504095 -0.013410329143591526 -0.029976430948589983 0 -0.029976430948589983 0.023797555729252906 0 0 0 0.0025968066464152617 -0.05467285555127438 -0.025747768872616789 0 -0.025747768872616789 0.0075202793569135173 0 0 0 -0.011788144048590216 -0.054165882968861684 -0.024662280993120594 0 -0.024662280993120594 0.0083892651486721648 0 0 0 -0.011444154455047401 -0.042448668550198673 -0.010303855522028511 0 -0.010303855522028511 -0.010281854007943618 0 0 0 -0.013182630639535592 -0.029082728633073485 0.084851397253933092 0 0.084851397253933092 0.022176048733793197 0 0 0 -0.001726669974819961 -0.084555282431541201 -0.01002904749417588 0 -0.01002904749417588 -0.00046952206064354574 0 0 0 -0.021256201123046381 0.0071488776649533056 -0.019686607836810949 0 -0.019686607836810949 0.045896335428814966 0 0 0 0.013261303273442111 -0.033078912630474536 -0.0090784070508757309 0 -0.0090784070508757309 0.029921215475869234 0 0 0 -0.00078942428865134973 -0.02236373400156836 0.022663773032521647 0 0.022663773032521647 0.022725649746355242 0 0 0 9.0478936196715376e-05 -0.033205620335117869 -0.011375773713292084 0 -0.011375773713292084 -0.013323669173187613 0 0 0 -0.011632322377076454 -0.035267405569592736 -0.01218937732099748 0 -0.01218937732099748 -0.013302054017132248 0 0 0 -0.012142364896681246 -0.28622643654889396 0.0071123206463336334 0 0.0071123206463336334 0.0083379047450526933 0 0 0 -0.069472132950960441 -0.15466854246136336 -0.0034093702666982183 0 -0.0034093702666982183 0.0036916145478722573 0 0 0 -0.037744231978372789 -0.047229769335966322 -0.0051945744687002726 0 -0.0051945744687002726 -0.015745359138693529 0 0 0 -0.015743782118664968 -0.05370446875547235 0.0037817818244634755 0 0.0037817818244634755 -0.017901051036248363 0 0 0 -0.017901379947930177 -0.013878261991855739 0.0077583095903170224 0 0.0077583095903170224 0.0094363933010848666 0 0 0 -0.0011104671726927251 -0.03314970568606658 0.019442049637460025 0 0.019442049637460025 0.026485920481398556 0 0 0 -0.0016659463011670234 -0.026122393998542548 0.014179179344221679 0 0.014179179344221679 0.0064525273569744773 0 0 0 -0.0049174666603920177 -0.1435200067756906 -0.015464766625195976 0 -0.015464766625195976 -0.013021851311333613 0 0 0 -0.039135464521756064 -0.10798287998219322 0.0019514873330792742 0 0.0019514873330792742 -0.0074060619298268876 0 0 0 -0.028847235478005027 0.048455240073223216 0.040803235905917612 0 0.040803235905917612 0.034001313460938931 0 0 0 0.020614138383540537 -0.12104541510024799 -0.014393251252528595 0 -0.014393251252528595 -0.007973620427402215 0 0 0 -0.032254758881912565 -0.096936089594157338 0.0017671736738058916 0 0.0017671736738058916 -0.0051127904634669236 0 0 0 -0.025512220014406069 -0.039000333885138627 -0.0054655300436878829 0 -0.0054655300436878829 -0.0011226753913884391 0 0 0 -0.010030752319131808 0.035217566224966079 0.11875093873419179 0 0.11875093873419179 0.075534559215825414 0 0 0 0.027688031360197818 -0.018115295700942755 0.011385200809672688 0 0.011385200809672688 -0.0019412561748056306 0 0 0 -0.0050141379689370887 -0.034276687658061911 -0.0085970770221044102 0 -0.0085970770221044102 0.021768740232155137 0 0 0 -0.0031269868564766656 -0.07823457728359498 -0.0085136538493240637 0 -0.0085136538493240637 -0.026073273008747833 0 0 0 -0.026076962573085703 -0.072356997470573378 0.0018348737837176081 0 0.0018348737837176081 -0.024114151911709365 0 0 0 -0.024117787345570685 -0.13692515840344971 0.0039245159252187306 0 0.0039245159252187306 -0.00062542143932445282 0 0 0 -0.034387644960693506 -0.21834979075088939 -0.011361863446444354 0 -0.011361863446444354 -0.001260759401645356 0 0 0 -0.054902637538133743 -0.081976087360998678 -0.014834497717573503 0 -0.014834497717573503 0.029418437927997365 0 0 0 -0.013139412358250391 0.0071884346050855585 -0.01932262700261872 0 -0.01932262700261872 0.030415526724236308 0 0 0 0.0094009903323304389 -0.074388570100141188 -0.014325484986051407 0 -0.014325484986051407 0.061800777359617837 0 0 0 -0.0031469481851308552 -0.040914417826899932 0.014492378420070815 0 0.014492378420070815 0.036584618646877842 0 0 0 -0.001082449795005519 -0.053308518396893496 0.0081348665849228109 0 0.0081348665849228109 0.041779480270594617 0 0 0 -0.002882259531574742 -0.0054276952011434506 0.023150467653678647 0 0.023150467653678647 0.038520916012375353 0 0 0 0.0082733052028079682 0.0078757063001997571 0.018751126136051052 0 0.018751126136051052 0.022136692456640086 0 0 0 0.0075030996892099591 -0.021695236801175577 -0.012439835188405135 0 -0.012439835188405135 -0.0065022464374673294 0 0 0 -0.0070493708096607266 -0.06825410146076849 -0.019966821739414775 0 -0.019966821739414775 0.031037077594964602 0 0 0 -0.0093042559664509653 -0.080887115561341053 -0.036490304921912589 0 -0.036490304921912589 0.074863526773262856 0 0 0 -0.0015058971970195734 -0.023267226712922535 -0.061539704460438133 0 -0.061539704460438133 0.12006618450417643 0 0 0 0.024199739447813499 -0.13077672116830935 0.003440926366585606 0 0.003440926366585606 -0.00088077994200200238 0 0 0 -0.032914375277577845 -0.1985003811581097 -0.0097003785743957228 0 -0.0097003785743957228 -0.0016488445244287053 0 0 0 -0.050037306420634572 -0.0013274732300438206 -0.0020849503671352965 0 -0.0020849503671352965 -0.0061760814828292158 0 0 0 -0.0018758886782183424 -0.025404936262958089 -0.029205736215983588 0 -0.029205736215983588 0.093082788986772247 0 0 0 0.016919463180953553 -0.028674565591815259 0.012013415319600703 0 0.012013415319600703 -0.002913234106019201 0 0 0 -0.0078969499244586211 -0.11606693009871938 -0.013934752071927054 0 -0.013934752071927054 -0.017460269149412504 0 0 0 -0.033381799812032972 -0.093442005958696839 0.0017261141455331679 0 0.0017261141455331679 -0.011364187550845797 0 0 0 -0.026201548377385656 -0.051816922205655321 0.0010015388416463435 0 0.0010015388416463435 -0.0062683741609627268 0 0 0 -0.014521324091654518 -0.074468633117952585 -0.010105807441237031 0 -0.010105807441237031 0.067074833052617744 0 0 0 -0.0018484500163337314 -0.023939014960202398 -0.01239215027515822 0 -0.01239215027515822 0.040376416351664557 0 0 0 0.0041093503478655813 -0.053932871396940939 0.0031067498622888183 0 0.0031067498622888183 -0.0036743812489181565 0 0 0 -0.014401813161464766 -0.065617896677064635 0.01689562741894246 0 0.01689562741894246 0.00066100474117058994 0 0 0 -0.016239222983973844 -0.021614694982770799 -0.021855138262748319 0 -0.021855138262748319 0.054532317648257722 0 0 0 0.0082294056663717585 -0.014875925777244448 -0.020121066764304252 0 -0.020121066764304252 0.046487324400626973 0 0 0 0.0079028496558457006 -0.052341933748537114 -0.031340456593818622 0 -0.031340456593818622 0.043891804646830901 0 0 0 -0.0021125322754265846 -0.052688882332837306 -0.018144002766849576 0 -0.018144002766849576 0.035710146143060228 0 0 0 -0.0042446840474443248 -0.052325431368689612 -0.0046650627371272874 0 -0.0046650627371272874 0.028931081348859536 0 0 0 -0.0058485875049575295 -0.071668689181617354 -0.010838812692795352 0 -0.010838812692795352 0.063269191646120215 0 0 0 -0.0020998743838742812 -0.00049500496657861603 0.02308216196284274 0 0.02308216196284274 0.14103359738881061 0 0 0 0.035134648105557886 0.00024385308953656093 0.00052640650929869359 0 0.00052640650929869359 0.0010965536901141881 0 0 0 0.00033510169491246522 -0.0037305082628875663 -0.019446600633190148 0 -0.019446600633190148 0.074329281212789367 0 0 0 0.017649693237475672 0.00056193067309673328 -0.0011105236300732457 0 -0.0011105236300732457 0.0014336343731591317 0 0 0 0.00049889126156410502 -0.053132914433012032 0.0002275703850028038 0 0.0002275703850028038 0.031269873101461731 0 0 0 -0.0054657603328875821 -0.055029577754564241 -0.0031791309973484682 0 -0.0031791309973484682 0.020214198389760036 0 0 0 -0.0087038448412010555 -0.051273056325350258 -0.015439682613054659 0 -0.015439682613054659 0.028826086895338388 0 0 0 -0.0056117423575029746 -0.17461427419658687 -0.015447647305603066 0 -0.015447647305603066 0.0027057853537589549 0 0 0 -0.042977122210706958 -0.20055869485281091 -0.024270670719099691 0 -0.024270670719099691 0.0035234357997108723 0 0 0 -0.049258814763274983 -0.048087906957594351 -0.025026150452936779 0 -0.025026150452936779 0.0011327422984546143 0 0 0 -0.011738791164784934 -0.062567173749593891 -0.0042264841358924457 0 -0.0042264841358924457 0.0080722833931641258 0 0 0 -0.013623722589107441 -0.028129641384510351 -0.042331780222025939 0 -0.042331780222025939 0.066702490170263334 0 0 0 0.0096432121964382389 -0.090727786143700126 0.0028036803810072581 0 0.0028036803810072581 -0.0098506458430322064 0 0 0 -0.025144607996683079 -0.078637380751463162 0.0022605373095150125 0 0.0022605373095150125 -0.012825849221493522 0 0 0 -0.022865807493239177 -0.085848413930947609 -0.013231399882712823 0 -0.013231399882712823 -0.020589321775936517 0 0 0 -0.026609433926721032 -0.10930708006807574 -0.015890523438048192 0 -0.015890523438048192 -0.019119201301569154 0 0 0 -0.032106570342411232 -0.069390469591737558 -0.027000070776881879 0 -0.027000070776881879 0.0004863854595358319 0 0 0 -0.017226021033050487 -0.054962970585918591 -0.027869299125682902 0 -0.027869299125682902 0.0020556520048162774 0 0 0 -0.013226829645275662 -0.050306546134692383 -0.0043107748442453922 0 -0.0043107748442453922 -0.023137147448288264 0 0 0 -0.018360923395745167 -0.04841045964227654 -0.0059242160038234688 0 -0.0059242160038234688 -0.02268025163300904 0 0 0 -0.0177726778188214 -0.053865498048915939 0.0048644315327003845 0 0.0048644315327003845 -0.013631048161697258 0 0 0 -0.0168741365526533 -0.057748518225259185 0.0022895854219447814 0 0.0022895854219447814 -0.018016014214774487 0 0 0 -0.018941133110008418 -0.029954569547162579 0.044798088745510167 0 0.044798088745510167 0.017559706695104538 0 0 0 -0.0030987157130140108 -0.030275033717662825 -0.029770574438902409 0 -0.029770574438902409 -0.0021249191028807068 0 0 0 -0.0080999882051356886 -0.07197765239378548 0.00091140800934613958 0 0.00091140800934613958 -0.010281956881014451 0 0 0 -0.020564902318699983 -0.063492795783095621 -0.010275788819542046 0 -0.010275788819542046 -0.020461587811234295 0 0 0 -0.020988595898582488 -0.050201026238025873 -0.0090972651795075896 0 -0.0090972651795075896 0.014522997623340389 0 0 0 -0.0089195071536713882 -0.083019956493155966 0.0022314722848304457 0 0.0022314722848304457 -0.0075144037691276533 0 0 0 -0.022633590065570908 -0.091003469513124075 -0.015167523200637219 0 -0.015167523200637219 -0.013429614429219361 0 0 0 -0.02610827098558588 -0.10409670585087924 -0.017617451542304097 0 -0.017617451542304097 0.11624844535576806 0 0 0 0.0030379348762222119 -0.056188152967779625 -0.0058048843817516751 0 -0.0058048843817516751 0.015983878146334757 0 0 0 -0.01005106870536121 -0.096312658437788981 -0.0074277281180851083 0 -0.0074277281180851083 -0.032116556889914299 0 0 0 -0.032107303831925824 -0.081980395685396737 -0.00026853452449551626 0 -0.00026853452449551626 -0.027333672993832405 0 0 0 -0.027328517169807286 0.013295920718375362 0.014996025496025973 0 0.014996025496025973 0.042524612766692449 0 0 0 0.013955133371266956 -0.007946365257628929 -0.0020774017836935332 0 -0.0020774017836935332 -0.022277501802974609 0 0 0 -0.0075559667651508011 -0.072766896948948112 -0.00069201973637413039 0 -0.00069201973637413039 0.011197703800617825 0 0 0 -0.015392298287082558 0.00043535204257383331 -0.032741052272619031 0 -0.032741052272619031 0.023610207568679265 0 0 0 0.0060113899028132467 -0.054141317136356545 0.0020969343366042566 0 0.0020969343366042566 0.031551688575674988 0 0 0 -0.0056474071401703902 -0.061920576403886374 -0.012630279968163943 0 -0.012630279968163943 0.034259911662930465 0 0 0 -0.0069151661852389842 -0.16837731927651109 -0.0032929521451905818 0 -0.0032929521451905818 -0.013308571201568996 0 0 0 -0.045421472619520016 -0.12420995424783668 -0.0048134531938371153 0 -0.0048134531938371153 -0.010405453362844347 0 0 0 -0.033653851902670257 -0.020489355655242791 -0.022524166907431559 0 -0.022524166907431559 0.042212339802435994 0 0 0 0.0054307460367982868 -0.047637146091952881 0.0080033210663663246 0 0.0080033210663663246 0.02065012916149777 0 0 0 -0.0067467542326137848 -0.055070883857224029 -0.007236442301735313 0 -0.007236442301735313 0.01005854420820001 0 0 0 -0.01125308491225599 -0.10194931443780939 -0.00098766781129143444 0 -0.00098766781129143444 0.0065234177158964846 0 0 0 -0.023856474180478232 -0.098931419765516782 0.019860298816366972 0 0.019860298816366972 0.00081751489850256931 0 0 0 -0.024528476216753803 -0.059303671296629057 -0.0064365784011510552 0 -0.0064365784011510552 0.030920866970367666 0 0 0 -0.0070957010815653199 -0.057598858439573491 -0.02268158849146297 0 -0.02268158849146297 0.014859577073483121 0 0 0 -0.0106848203415226 -0.058264589699701566 -0.0028554008396536046 0 -0.0028554008396536046 0.011674861853367163 0 0 0 -0.01164743196158359 -0.045497226867210326 0.0070634732853566895 0 0.0070634732853566895 0.026074368410369392 0 0 0 -0.0048557146142102284 -0.060981379290007007 -0.025442392671935293 0 -0.025442392671935293 0.017097509744268269 0 0 0 -0.010970967386434646 0.046325538073690525 0.019583946808398339 0 0.019583946808398339 0.10712335667040768 0 0 0 0.038362223686024571 -0.066028408790451382 0.0023797866761529896 0 0.0023797866761529896 0.0048006577272371453 0 0 0 -0.015306937765803566 -0.053325217590105556 0.013672538182106181 0 0.013672538182106181 -0.0031220256671815605 0 0 0 -0.014111810814322112 -0.02183134064183101 -0.018050742962790189 0 -0.018050742962790189 0.06016321373412481 0 0 0 0.0095829682730733667 -0.0085556433801123877 -0.0170221718932142 0 -0.0170221718932142 0.042441927545674218 0 0 0 0.0084715710413903467 -0.13590350110949781 -0.024801015005479432 0 -0.024801015005479432 0.036783872352777094 0 0 0 -0.024779907189180037 -0.0046586894242243576 -0.01784541530694593 0 -0.01784541530694593 -0.015542090673623915 0 0 0 -0.0050501950244620647 -0.12989124727410767 0.0058569904343531154 0 0.0058569904343531154 0.0022510410343644094 0 0 0 -0.031910051559935801 -0.21609517638119263 -0.022128703206027889 0 -0.022128703206027889 0.0064951909113838968 0 0 0 -0.05239999636745224 -0.1251391010977819 -0.00071405504259447472 0 -0.00071405504259447472 0.00066146994388829872 0 0 0 -0.031119407788473469 -0.21228963986241201 -0.0039073107891128833 0 -0.0039073107891128833 0.0031473825919265952 0 0 0 -0.052285564317621325 -0.10745321409371353 -0.004650574426331172 0 -0.004650574426331172 -0.01485868916315071 0 0 0 -0.030577975814216073 -0.14156465843999552 -0.002630788951063437 0 -0.002630788951063437 -0.018249705380670445 0 0 0 -0.039953590955166492 -0.064245838235676631 -0.016798966544338316 0 -0.016798966544338316 0.046217901948515369 0 0 0 -0.0045069840717903015 -0.059328158801427978 -0.026404178729552003 0 -0.026404178729552003 0.058600539578255978 0 0 0 -0.00018190480579298451 -0.018298896201745074 -0.0046814744579224965 0 -0.0046814744579224965 0.065812581687692218 0 0 0 0.011878421371486814 -0.013093970632874125 -0.00065829655033811108 0 -0.00065829655033811108 0.12880376877821631 0 0 0 0.028927449536335553 -0.027718191475572695 0.0061893731469091773 0 0.0061893731469091773 0.041584922413645031 0 0 0 0.0034666827345181117 -0.020662485385055052 0.0021968169543621907 0 0.0021968169543621907 0.11151488187203623 0 0 0 0.02271309912174535 -0.03118533932158396 -0.010846284832880915 0 -0.010846284832880915 0.056610388398365963 0 0 0 0.0063562622691955006 -0.059824260090831777 -0.002607250739384448 0 -0.002607250739384448 0.012574262739646298 0 0 0 -0.01181249933779638 -0.041611719220966986 -0.026616555169223673 0 -0.026616555169223673 0.04893958813333199 0 0 0 0.001831967228091258 -0.061532521029096121 -0.028303763658356795 0 -0.028303763658356795 0.044256686142511326 0 0 0 -0.0043189587216461434 -0.058442484314182308 -0.0026448347181513296 0 -0.0026448347181513296 0.056931698316822994 0 0 0 -0.00037769649933982324 -0.13357668068110939 0.019443451958116465 0 0.019443451958116465 -0.0022115900338590677 0 0 0 -0.033947067678742116 -0.071795613577360431 -0.010082592479276883 0 -0.010082592479276883 0.058579406858367267 0 0 0 -0.0033040516797482877 -0.0016213766268617924 -0.013619008982518888 0 -0.013619008982518888 0.17179432065944078 0 0 0 0.042543236008144747 0.05248855390772833 -0.019203859342480048 0 -0.019203859342480048 0.092562712571688133 0 0 0 0.036262816619854088 0.0054515418122049186 -0.017398687617528386 0 -0.017398687617528386 0.035829356959169667 0 0 0 0.01032022469284366 -0.23604710297654347 -0.01681949620438436 0 -0.01681949620438436 0.0054627924969381514 0 0 0 -0.057646077619901259 -0.13678096654718178 0.0054475559850947763 0 0.0054475559850947763 0.0015869987289434118 0 0 0 -0.033798491954559619 -0.073847794092753424 -0.009421056337892357 0 -0.009421056337892357 0.063382090243373435 0 0 0 -0.0026164259623450009 -0.085413185926115132 0.045534531236722353 0 0.045534531236722353 -0.0069733939605916007 0 0 0 -0.023096644971676739 -0.05964268374387971 0.042940940733651622 0 0.042940940733651622 0.001616773433485541 0 0 0 -0.014506477577598265 -0.032802930788856988 -0.034214090922766394 0 -0.034214090922766394 0.022297144446035144 0 0 0 -0.0026264465857055441 -0.024545965897200789 -0.031484027316169172 0 -0.031484027316169172 0.025049466076588058 0 0 0 0.00012587504484687232 -0.029659284868887859 -0.02007893654002757 0 -0.02007893654002757 0.067573704071420604 0 0 0 0.0094786048006332835 -0.02111540991728722 0.01015105875331837 0 0.01015105875331837 0.00066905193666322305 0 0 0 -0.0051115894951565544 -0.070504283186877723 0.0024572217415433639 0 0.0024572217415433639 -0.010879677754477762 0 0 0 -0.020345990235338875 -0.06906243364527849 -0.0081296484460688743 0 -0.0081296484460688743 -0.020121947573457394 0 0 0 -0.022296095304683978 -0.03590608992683611 -0.038122501108416085 0 -0.038122501108416085 0.011113623083369967 0 0 0 -0.0061981167108665913 -0.036426158433522149 -0.037235504643109263 0 -0.037235504643109263 0.011027836047386774 0 0 0 -0.0063495805965338992 -0.039477217660567526 -0.03624960678332656 0 -0.03624960678332656 0.0078487437174135088 0 0 0 -0.0079071184857885946 -0.041496926590533834 -0.039757377563138407 0 -0.039757377563138407 0.0078917113960352836 0 0 0 -0.008401303798624582 -0.054863108437739616 0.056256285816142615 0 0.056256285816142615 -0.0025417681309245488 0 0 0 -0.014351219142166249 -0.043270296054883216 0.051968816363203496 0 0.051968816363203496 4.3193102187595589e-06 0 0 0 -0.010816494186166169 -0.076097542494596868 0.0037127111599596974 0 0.0037127111599596974 -0.019871454347321637 0 0 0 -0.023992249210479627 -0.088071656554348871 -0.013769119677191181 0 -0.013769119677191181 -0.026527038850620188 0 0 0 -0.028649673851242265 -0.11362065351025907 -0.015149220725258011 0 -0.015149220725258011 0.0096435310300437838 0 0 0 -0.025994280620053933 -0.19273306696849402 0.031990796779967717 0 0.031990796779967717 0.014637877813678424 0 0 0 -0.044523797288703926 -0.10034080337089805 0.0082944093303311817 0 0.0082944093303311817 0.0021039249971717133 0 0 0 -0.024559219593431589 -0.044012783550117257 0.0070994720347750395 0 0.0070994720347750395 0.0099659611927138958 0 0 0 -0.0085117055893508438 -0.0066981589183359169 -0.013194067469286364 0 -0.013194067469286364 -0.001437623132592547 0 0 0 -0.0020339455127321715 -0.15388366866030645 -0.024010765846937437 0 -0.024010765846937437 0.0018139929318437831 0 0 0 -0.038017418932115646 -0.19523087740539641 -0.019851705701796347 0 -0.019851705701796347 -0.0034447834688321466 0 0 0 -0.049668915218557146 -0.033130741352211411 0.00065553017402891203 0 0.00065553017402891203 -0.019602328187895868 0 0 0 -0.013183267385026827 -0.047338422600086333 0.0092564193233299619 0 0.0092564193233299619 0.079709934752648037 0 0 0 0.0080928780381404331 -0.13555026012521704 -0.0027248178496562248 0 -0.0027248178496562248 0.00042790471525649965 0 0 0 -0.033780588852490037 -0.2407590008965341 0.0040418212594361957 0 0.0040418212594361957 0.00036684047439601575 0 0 0 -0.060098040105534406 -0.082148277973275327 -0.0077755557301377176 0 -0.0077755557301377176 0.01050387959803975 0 0 0 -0.017911099593809029 -0.12040242506730475 -0.021039278795952941 0 -0.021039278795952941 -0.01381753439758053 0 0 0 -0.033554989866221324 -0.092707821366879828 -0.020503676156667958 0 -0.020503676156667958 -0.009325312178374465 0 0 0 -0.025508283386313578 -0.0092676584107614923 0.10096080522632339 0 0.10096080522632339 0.19709142421386527 0 0 0 0.046955941450775973 -0.18356891830085112 -0.0089352910456460405 0 -0.0089352910456460405 0.00015212381992137092 0 0 0 -0.045854198620232475 -0.1218359326284785 0.0032303502244993287 0 0.0032303502244993287 0.00050445998417716909 0 0 0 -0.030332868161075333 -0.0362355856560721 -0.014477029198475516 0 -0.014477029198475516 -0.013965545255420042 0 0 0 -0.012550282727873008 -0.040194821454111518 -0.015283184214474062 0 -0.015283184214474062 -0.011550476526490883 0 0 0 -0.012936324495150531 -0.050913489551369408 0.0061368813525420635 0 0.0061368813525420635 0.04505437013371489 0 0 0 -0.0014647798544136228 -0.046276816935136016 -0.011499787557588759 0 -0.011499787557588759 0.0058131110845414669 0 0 0 -0.010115926462648667 -0.031463355557347555 0.015798863979032553 0 0.015798863979032553 0.0079088411683784846 0 0 0 -0.0058886285972422608 -0.017256586764534787 0.03026589664774243 0 0.03026589664774243 0.1828483206228475 0 0 0 0.041397933464578318 -0.099072417615407415 0.0067969428853363323 0 0.0067969428853363323 0.003849267353249905 0 0 0 -0.023805787565539367 -0.055441619156906291 -0.004207152096343536 0 -0.004207152096343536 0.0081357284824845263 0 0 0 -0.011826472668605453 0.047206016728216893 0.018038400791794511 0 0.018038400791794511 0.071089603171307303 0 0 0 0.029573904974880882 -0.079501010273135289 -0.012122429850161431 0 -0.012122429850161431 -0.0032885506535442061 0 0 0 -0.020697390231669846 -0.2883641041091935 -0.00064743563127475645 0 -0.00064743563127475645 -0.00017837766240302866 0 0 0 -0.072135620442899062 -0.15794019026652806 -0.0010153051040880311 0 -0.0010153051040880311 -0.00036827614225776184 0 0 0 -0.039577116602196399 -0.071359671420317933 -0.0043632780952355989 0 -0.0043632780952355989 0.072885632714087961 0 0 0 0.00038149032344248629 -0.12130258435511634 -0.016848876741194282 0 -0.016848876741194282 -0.007616931959275236 0 0 0 -0.032229879078597874 -0.14306816631886626 -0.023879374098120902 0 -0.023879374098120902 -0.0040952096117592984 0 0 0 -0.036790843982656377 0.015185077765261096 0.028007930848330434 0 0.028007930848330434 0.043093966160697661 0 0 0 0.014569760981489696 -0.053797346918595279 -0.012746496953618014 0 -0.012746496953618014 -0.00056629544832542678 0 0 0 -0.013590910591730232 -0.04927341436248063 -0.019339494436026505 0 -0.019339494436026505 0.01493901713660592 0 0 0 -0.0085835993064685839 -0.019238988099728349 0.021203480834443587 0 0.021203480834443587 0.13030940020874127 0 0 0 0.027767603027252896 -0.017874512367699547 -0.0069563965707780447 0 -0.0069563965707780447 0.001442139304550949 0 0 0 -0.0041080932657868718 -0.071049509235517477 -0.030187096547374351 0 -0.030187096547374351 0.043918216950727174 0 0 0 -0.006782823071197569 -0.042451802346387818 -0.014811081415203667 0 -0.014811081415203667 0.05303171214980984 0 0 0 0.0026449774508554846 -0.060347185215271569 -0.0061323815175266944 0 -0.0061323815175266944 0.018897857714257171 0 0 0 -0.01036233187525358 -0.046059306762413099 0.012251561711007053 0 0.012251561711007053 -0.001425165150978458 0 0 0 -0.011871117978347501 -0.019369848314222615 -0.021565441867539725 0 -0.021565441867539725 0.067731138049918815 0 0 0 0.012090322433924161 -0.065410748404366115 0.0017600074558436606 0 0.0017600074558436606 -0.0030458497783397848 0 0 0 -0.017114149545676471 -0.0042713185535368098 -0.00090834975827044917 0 -0.00090834975827044917 0.062105832461695154 0 0 0 0.01445862847703959 -0.11400372094880493 0.0051134591029293932 0 0.0051134591029293932 0.00053886071985148609 0 0 0 -0.028366215057238381 -0.088519303801381843 -0.022863309672255621 0 -0.022863309672255621 0.030879358149293434 0 0 0 -0.014409986413022047 -0.097660289613323237 0.0059579896834758145 0 0.0059579896834758145 -0.0036251789171632409 0 0 0 -0.025321367132621626 -0.083418336882880584 -0.011855003273286813 0 -0.011855003273286813 0.0016860029829905976 0 0 0 -0.020433083474972413 -0.12318380236815929 0.0041808033911351419 0 0.0041808033911351419 -0.00076268748529337294 0 0 0 -0.030986622463363159 -0.11124758828196543 0.0057925298353106308 0 0.0057925298353106308 0.00017089798626490627 0 0 0 -0.027769172573925145 -0.092796598772125094 0.05828991495225555 0 0.05828991495225555 -0.0013943740226953771 0 0 0 -0.023547743198705229 -0.070030399708985058 -0.0064498201791191121 0 -0.0064498201791191121 -0.024001029977588649 0 0 0 -0.023507857421643429 -0.077471600280329622 -0.014127471579460498 0 -0.014127471579460498 -0.023766689041090517 0 0 0 -0.025309572330355037 -0.072050473824356129 0.0044048769679335608 0 0.0044048769679335608 -0.015478912222866891 0 0 0 -0.021882346511805754 -0.069376616035463606 0.001077773566843808 0 0.001077773566843808 -0.018588695650151477 0 0 0 -0.021991327921403771 -0.052863398101192449 -0.012911938701423847 0 -0.012911938701423847 0.024558021361029997 0 0 0 -0.0070763441850405784 -0.04055928300256724 -0.041065845366655002 0 -0.041065845366655002 0.061154120077529829 0 0 0 0.0051487092687406578 -0.057841515839367003 -0.028831750900437034 0 -0.028831750900437034 0.022916003101059033 0 0 0 -0.0087313781845770027 -0.059351217551219637 -0.017804063773914219 0 -0.017804063773914219 0.042891875978865346 0 0 0 -0.0041148353930886006 -0.055533640256638317 -0.02343921117269207 0 -0.02343921117269207 0.020699688811692374 0 0 0 -0.008708487861236458 -0.037613366523878367 -0.0011641626397319652 0 -0.0011641626397319652 0.061999905405456412 0 0 0 0.006096634720394456 -0.03757339717536895 -0.012390914436650385 0 -0.012390914436650385 0.030647181936746315 0 0 0 -0.0017315538096556726 -0.16024252981486378 0.0014701668991412924 0 0.0014701668991412924 0.00079540082231754905 0 0 0 -0.039861782248136524 -0.29937899688304853 -0.0047629332017531641 0 -0.0047629332017531641 0.0048868596406530518 0 0 0 -0.073623034310598856 -0.02752552701328502 -0.011743466795111374 0 -0.011743466795111374 0.034094515099792194 0 0 0 0.0016422470216267832 -0.031025474795126323 -0.0027167363035521808 0 -0.0027167363035521808 0.073878559704554148 0 0 0 0.010713271227356908 -0.091206963842065975 0.003744930242917846 0 0.003744930242917846 0.01158038970447639 0 0 0 -0.019906643534397445 -0.040182135163313641 0.0032973864914391192 0 0.0032973864914391192 -0.014840403737519435 0 0 0 -0.013755634725208271 -0.060914282963843061 -0.013346890998396622 0 -0.013346890998396622 -0.0082579597690416104 0 0 0 -0.017293060683221159 -0.044417800356758318 -0.0046616711606938012 0 -0.0046616711606938012 -0.015625354126054904 0 0 0 -0.015010788620703302 -0.033881080829156189 -0.058599905867120536 0 -0.058599905867120536 0.11779806968549598 0 0 0 0.020979247214084933 -0.11854313958498267 0.00057684606672265756 0 0.00057684606672265756 -0.0052261776403765142 0 0 0 -0.030942329306339784 -0.11094406900169193 -0.00033331655678128444 0 -0.00033331655678128444 -0.0028434364909140433 0 0 0 -0.028446876373151481 -0.14734973757672867 -0.0089300568249597295 0 -0.0089300568249597295 -0.0030937071676577638 0 0 0 -0.037610861186096613 -0.16844926115603437 -0.010500555562548723 0 -0.010500555562548723 -0.0084649752852991866 0 0 0 -0.044228559110333368 -0.1323951906303551 -0.0096771554436863427 0 -0.0096771554436863427 0.0013290287451788174 0 0 0 -0.032766540471294014 -0.03277188046202073 0.096226631255387107 0 0.096226631255387107 0.12298566935559441 0 0 0 0.022553447223393364 -0.005851683316578149 -0.018194665191357817 0 -0.018194665191357817 0.039125309933451202 0 0 0 0.0083184066542182356 -0.014370847469984998 -0.010531282761906124 0 -0.010531282761906124 -0.0083018788688042962 0 0 0 -0.005668181584697324 -0.072607169715083117 0.0032381424215729877 0 0.0032381424215729877 -0.0035865946704689983 0 0 0 -0.019048441096388029 -0.072607679330397412 -0.0069771331159773978 0 -0.0069771331159773978 0.053223972306305073 0 0 0 -0.0048459267560230779 -0.10100304671800769 0.0049287225044560949 0 0.0049287225044560949 -0.00074270817488009122 0 0 0 -0.025436438723221946 -0.0014640033784120154 0.03677082996115999 0 0.03677082996115999 0.034886268787128749 0 0 0 0.0083555663521789336 -0.044753600348000057 0.0054422885289882768 0 0.0054422885289882768 -0.014991279825217568 0 0 0 -0.014936220043304407 -0.039309417295070544 -0.01988152083607278 0 -0.01988152083607278 -0.0099286350233450255 0 0 0 -0.01230951307960388 0.029564477741072931 -0.077840153732779208 0 -0.077840153732779208 0.096084745562179025 0 0 0 0.031412305825812982 -0.23277988861491061 0.022122838153388558 0 0.022122838153388558 0.0018891644489458237 0 0 0 -0.057722681041491031 -0.034052335415863166 0.002671392721862606 0 0.002671392721862606 -0.015206124436782872 0 0 0 -0.012314614963161514 -0.080628225293160466 0.00014005187390346693 0 0.00014005187390346693 -0.020062799811019421 0 0 0 -0.02517275627604498 -0.091591720412013813 -0.0075694670331407487 0 -0.0075694670331407487 -0.025477790944519581 0 0 0 -0.02926737783913335 -0.039090608745101903 0.011274277642640634 0 0.011274277642640634 0.016760064104601884 0 0 0 -0.0055826361601250011 -0.12576438135035645 0.0033259774299405909 0 0.0033259774299405909 0.0023271586975155412 0 0 0 -0.030859305663210324 -0.20975669819632209 -0.013410274590550442 0 -0.013410274590550442 0.0085927611747218524 0 0 0 -0.05029098425540024 -0.0075818368514877221 0.03004279820081468 0 0.03004279820081468 0.078448805188768844 0 0 0 0.017716742084320281 -0.047779637316914814 -0.016617225343651176 0 -0.016617225343651176 -0.0033392640343321567 0 0 0 -0.012779725337811909 -0.033082492528568694 0.0042571710824252373 0 0.0042571710824252373 0.068942821953305533 0 0 0 0.0089650823561841786 -0.03170543194661396 -0.024340108029407437 0 -0.024340108029407437 0.020515728894283325 0 0 0 -0.0027974257630826449 -0.044783031182820829 0.0029663248433516448 0 0.0029663248433516448 0.032834606621965967 0 0 0 -0.0029871061402136911 -0.044227746107772081 0.004998315195036262 0 0.004998315195036262 0.0069017248109096326 0 0 0 -0.0093315053242156252 -0.035804025909246334 -0.00019460512436572414 0 -0.00019460512436572414 -0.019605508024485071 0 0 0 -0.013852383483432857 -0.064103481825875053 0.001192031368778608 0 0.001192031368778608 0.0028472160330279082 0 0 0 -0.015314066448211797 -0.053111104345053076 -0.025900246584776021 0 -0.025900246584776021 0.14689996901694213 0 0 0 0.023447216167972268 -0.055651335329826343 -0.026698472359013334 0 -0.026698472359013334 0.13600970873914386 0 0 0 0.020089593352329373 -0.044062126206579788 -0.026623514936401138 0 -0.026623514936401138 0.00023655371039477124 0 0 0 -0.010956393124046171 -0.037365593447485468 -0.024612827906264401 0 -0.024612827906264401 -0.00038254825040562324 0 0 0 -0.0094370354244728283 -0.020325812922102227 0.042946860284317045 0 0.042946860284317045 0.042817452828081137 0 0 0 0.0056229099764952828 -0.028960808750785105 0.04249593442816213 0 0.04249593442816213 0.04100169142743848 0 0 0 0.0030102206691631217 -0.020769935998437683 0.050288680366444349 0 0.050288680366444349 0.022797850422040966 0 0 0 0.00050697860590065424 0.013734519087185593 0.049256027610299458 0 0.049256027610299458 0.031550764581249169 0 0 0 0.011321320917108579 -0.038331299894399526 0.0034591478527798451 0 0.0034591478527798451 -0.012777479626512645 0 0 0 -0.01277719488022804 -0.03074259251529865 0.0037507203613012519 0 0.0037507203613012519 0.089182927107414656 0 0 0 0.01461008364802896 -0.039331015663211462 0.00075470442442951424 0 0.00075470442442951424 0.054402158209901214 0 0 0 0.0037677856366724535 -0.091174131521149726 -0.019584609208227577 0 -0.019584609208227577 -0.001204388074522722 0 0 0 -0.023094629898918195 -0.10478550463732769 -0.0081587500985744743 0 -0.0081587500985744743 -0.00059590191924252522 0 0 0 -0.026345351639142506 -0.17252151972529828 0.018304731452595258 0 0.018304731452595258 -0.0014497368520318688 0 0 0 -0.043492814144332481 -0.023038226387857963 0.027560527872570774 0 0.027560527872570774 0.038016261810192381 0 0 0 0.0037445088555836045 -0.01825670906922186 0.030081098900899203 0 0.030081098900899203 0.048720851008121124 0 0 0 0.0076160354847248229 -0.038989971698201634 0.0056510525447504159 0 0.0056510525447504159 -0.0083557742823013835 0 0 0 -0.011836436495125753 -0.040775679250738515 0.0043608394545567742 0 0.0043608394545567742 -0.01526673177216319 0 0 0 -0.014010602755725424 -0.18858983902624721 -0.016370959354402151 0 -0.016370959354402151 -0.0065724461316346294 0 0 0 -0.048790571289470439 -0.12286810673751913 0.004165370274849034 0 0.004165370274849034 -0.0014734080330295468 0 0 0 -0.03108537869263717 -0.11220063750561443 0.0061700504994750627 0 0.0061700504994750627 -0.0025069251573000273 0 0 0 -0.02867689066572858 -0.015600922296242326 0.028414826017039818 0 0.028414826017039818 0.089561495376663913 0 0 0 0.018490143270105674 -0.037234283184970463 -0.011216838462769552 0 -0.011216838462769552 0.0029910276276798875 0 0 0 -0.008560813889322616 -0.039963589892605171 -0.0026758591463311465 0 -0.0026758591463311465 -0.017586988320477059 0 0 0 -0.014387644553270559 -0.026656406379779632 0.0013311024481116977 0 0.0013311024481116977 -0.010086776916978471 0 0 0 -0.0091857958241895257 -0.070678906298026201 -0.031860236570159461 0 -0.031860236570159461 0.0054036406258684 0 0 0 -0.016318816418039339 -0.077693085275426982 -0.019058846613645403 0 -0.019058846613645403 -0.0014159454584329045 0 0 0 -0.019777257683464979 -0.043722775699088008 -0.015180315603750216 0 -0.015180315603750216 0.033554709084214318 0 0 0 -0.0025420166537184 -0.013751744701654064 0.021969201306314086 0 0.021969201306314086 0.022374155323557132 0 0 0 0.0021556026554757565 -0.098766414677844278 0.065295539772074029 0 0.065295539772074029 0.0029285326280503732 0 0 0 -0.023959470512448261 -0.11205827971431967 -0.0029028512819845032 0 -0.0029028512819845032 0.0045155942589967246 0 0 0 -0.026885671363830715 -0.18474072266828112 0.0043322939618914286 0 0.0043322939618914286 0.012391313447831731 0 0 0 -0.043087352305112403 -0.0052254530026054624 -0.0037303282922252767 0 -0.0037303282922252767 -0.019390456532026423 0 0 0 -0.0061539773836579714 -0.010763031994690198 -0.0091206624386322988 0 -0.0091206624386322988 -0.018703010989531865 0 0 0 -0.0073665107460555435 -0.09981039814983865 0.0064543739856079002 0 0.0064543739856079002 -0.00031707567046024288 0 0 0 -0.025031868455074695 -0.087757477099430603 0.0045373816105499232 0 0.0045373816105499232 -0.0016343294359869379 0 0 0 -0.022347951633854383 -0.054142331942061986 -0.0065493239424458879 0 -0.0065493239424458879 0.020047061885447887 0 0 0 -0.0085238175141535144 -0.12346410461247691 0.0084922366052928716 0 0.0084922366052928716 0.0026325093536598287 0 0 0 -0.030207898814704232 -0.1339406469645863 -0.022512053059607594 0 -0.022512053059607594 -0.0084569833373418501 0 0 0 -0.03559940757548203 -0.0011146143564787899 0.0017994984243390189 0 0.0017994984243390189 -0.011271779142516102 0 0 0 -0.0030965983747487233 -0.073127694863315718 0.073857297092449592 0 0.073857297092449592 0.0084534794888324605 0 0 0 -0.016168553843620703 -0.041385450207355401 0.0039444898966647952 0 0.0039444898966647952 -0.013795795808366708 0 0 0 -0.013795311503930527 0.024797486370841726 0.020561146645735162 0 0.020561146645735162 0.080935932467799399 0 0 0 0.026433354709660184 0.019168283099321753 0.043187625345168956 0 0.043187625345168956 0.12469118735282159 0 0 0 0.0359648676130358 -0.17217711084480825 0.020976852948539015 0 0.020976852948539015 0.031900638086317795 0 0 0 -0.035069118189622668 -0.0087635490355652546 0.044861253284033523 0 0.044861253284033523 0.13020298042238204 0 0 0 0.030359857846704197 0.0050609316517974956 0.037850338892069922 0 0.037850338892069922 0.086814473522551672 0 0 0 0.02296885129358725 -0.077943452911365729 0.0050823873437573081 0 0.0050823873437573081 0.0017540105490450597 0 0 0 -0.01904736059058016 -0.058013360664335059 0.00084631281468599759 0 0.00084631281468599759 -0.00316260302742764 0 0 0 -0.015293990922940669 -0.14802342220662768 0.049733523263447155 0 0.049733523263447155 0.016108676385977905 0 0 0 -0.032978686455162221 -0.072127705783433887 -0.020235844774229517 0 -0.020235844774229517 0.066952055615047384 0 0 0 -0.0012939125420966605 -0.035023679076440266 0.027205228799153686 0 0.027205228799153686 0.1384388320577942 0 0 0 0.025853788245338467 -0.049927262631645375 -0.026079151090234579 0 -0.026079151090234579 0.00065301256236355298 0 0 0 -0.012318562517320497 -0.12867582166586 -0.0064173245123149147 0 -0.0064173245123149147 0.0044107536174051859 0 0 0 -0.031066267012113666 -0.22292728273563356 0.013292737429765555 0 0.013292737429765555 0.014065608747244163 0 0 0 -0.052215418497097377 -0.051507534931843235 0.026302105833479583 0 0.026302105833479583 -0.0076335092591377496 0 0 0 -0.014785261047745468 -0.026876483510863913 -0.028350791608243942 0 -0.028350791608243942 0.039625080609824392 0 0 0 0.0031871492747401753 -0.047841077534851117 -0.01842165696083109 0 -0.01842165696083109 0.024923007504552785 0 0 0 -0.0057295175075746108 -0.0055524002281902157 0.023018487056759795 0 0.023018487056759795 0.024449910485250026 0 0 0 0.004724377564264963 -0.12214136399192196 -0.021252965685757127 0 -0.021252965685757127 -0.014581604776679011 0 0 0 -0.03418074219215024 -0.11317384467819977 0.004208381884099513 0 0.004208381884099513 0.0031169365997150145 0 0 0 -0.027514227019621224 -0.15857248014507908 -0.0093590496632425801 0 -0.0093590496632425801 0.010275171893286725 0 0 0 -0.037074327062948005 -0.040130857062983721 -0.030530637610164127 0 -0.030530637610164127 0.055556178310623372 0 0 0 0.0038563303119099057 -0.091506074608929788 0.0010456850040520826 0 0.0010456850040520826 0.0051627991932059886 0 0 0 -0.02158581885393103 -0.055531876783077319 0.0033855844714775762 0 0.0033855844714775762 0.11045261243427314 0 0 0 0.013730183912798982 -0.036766118353247869 -0.00075629382860143768 0 -0.00075629382860143768 -0.012253851570764753 0 0 0 -0.012254992481003155 -0.038512677565185477 -0.013691947661764181 0 -0.013691947661764181 0.018968812778234811 0 0 0 -0.0048859661967377288 -0.13252540083718722 0.0023956070503321492 0 0.0023956070503321492 0.0026074498239740118 0 0 0 -0.032479487753303296 -0.22507763742971371 -0.0098335766299460503 0 -0.0098335766299460503 0.0059679188368904068 0 0 0 -0.054777429648205922 -0.093238521422643217 -0.023048545366370687 0 -0.023048545366370687 0.0079056083353141737 0 0 0 -0.021333228271832261 -0.053849168349489135 -0.027121750529345789 0 -0.027121750529345789 0.038561661205552489 0 0 0 -0.0038218767859840852 -0.041840112333900059 -0.020825041961730878 0 -0.020825041961730878 0.070063335427353324 0 0 0 0.0070558057733632884 -0.072583326797162034 0.001905264226834763 0 0.001905264226834763 0.0055706137297482639 0 0 0 -0.016753178266853408 -0.051593586027712746 -0.023979739715281334 0 -0.023979739715281334 0.004694603307645151 0 0 0 -0.011724745680016857 -0.071819242809862419 -0.028272400942436327 0 -0.028272400942436327 0.0014329742167007997 0 0 0 -0.017596567148290405 -0.084913441126975631 0.0022053110585087826 0 0.0022053110585087826 0.0050456149670163597 0 0 0 -0.019966956539989818 -0.04941460863414919 -0.026954776894246663 0 -0.026954776894246663 0.0014140751130696794 0 0 0 -0.012000133380269895 -0.037951342252843571 0.00052251917023359734 0 0.00052251917023359734 -0.019220929434130504 0 0 0 -0.014293067921743521 -0.13250487565697258 7.5520227345360347e-05 0 7.5520227345360347e-05 0.0019239792311508408 0 0 0 -0.032645224106455456 -0.23426894795825787 -0.0010173215717343975 0 -0.0010173215717343975 0.0028161161565052328 0 0 0 -0.057863207950438145 -0.056971233626986792 -0.011206099273292969 0 -0.011206099273292969 -0.0035406675774504737 0 0 0 -0.015127975301109139 0.0089686125713130393 0.021303329861873443 0 0.021303329861873443 0.10018761820062716 0 0 0 0.027289057692985119 -0.0021738901538623789 0.02882199787199502 0 0.02882199787199502 0.075967916611844544 0 0 0 0.018448506614495597 -0.04044442018532024 -0.0089476823609423144 0 -0.0089476823609423144 -0.0032038563816243482 0 0 0 -0.010912069141736147 -0.0025518811323554935 0.017048465465993982 0 0.017048465465993982 0.12564645949744957 0 0 0 0.030773644591273186 -0.020247345719153736 -0.021081854763876657 0 -0.021081854763876657 0.018737978203064443 0 0 0 -0.00037734187902230265 -0.061650953486821147 -0.023345883905841525 0 -0.023345883905841525 0.01859532450682988 0 0 0 -0.010763907244997761 0.0042191652127143708 -0.0016485886162345015 0 -0.0016485886162345015 0.089601146190041669 0 0 0 0.02345507785068901 -0.0030429002760372914 -0.00093286232947464853 0 -0.00093286232947464853 0.16665317769128407 0 0 0 0.040902569353811674 -0.15402124996915573 -0.01383854543987334 0 -0.01383854543987334 0.030091919728914673 0 0 0 -0.030982332560060222 -0.08386482168192308 0.0035095055820714097 0 0.0035095055820714097 -0.0029824025868772364 0 0 0 -0.021711806067200058 -0.038812920975150461 0.0084589760285383557 0 0.0084589760285383557 -0.0018808062772358086 0 0 0 -0.010173431813096556 -0.10112228575575721 0.055511703143210966 0 0.055511703143210966 -0.0054389215400338919 0 0 0 -0.026640301823947832 -0.013857964494492558 -0.02948780761666342 0 -0.02948780761666342 0.025000422776588316 0 0 0 0.0027856145705238977 -0.034281099601167542 0.0011431005020763275 0 0.0011431005020763275 -0.016029654598500379 0 0 0 -0.012577688549916978 -0.074547754760115187 -0.00037774305838411681 0 -0.00037774305838411681 0.017468803469814012 0 0 0 -0.014269737822575311 0.01697717912235186 0.017604155449725326 0 0.017604155449725326 0.077948222982134219 0 0 0 0.023731350526121631 -0.057070900953865265 -0.0099977413736189336 0 -0.0099977413736189336 -0.020304215251100505 0 0 0 -0.019343779051241433 -0.035502347882203203 -0.0092856897608215583 0 -0.0092856897608215583 0.005893948999733889 0 0 0 -0.0074020997206173528 -0.027018282284362226 -0.015835453687128825 0 -0.015835453687128825 0.0080537130892399632 0 0 0 -0.0047411422987805232 -0.0075896409666095233 0.0052118303331892823 0 0.0052118303331892823 0.047586287515104297 0 0 0 0.0099991616371236658 0.0010899619400805971 0.00010213623282689932 0 0.00010213623282689932 0.086407233008641615 0 0 0 0.021874298737180498 0.0021155096272872653 -0.0060943242019114718 0 -0.0060943242019114718 0.15607997042701693 0 0 0 0.039548870013576071 -0.01123728488029738 -0.011116857842562 0 -0.011116857842562 0.096304028748668863 0 0 0 0.021266685967092771 -0.030451371293367436 0.022329923527712531 0 0.022329923527712531 0.04331870903175096 0 0 0 0.0032168344345958819 -0.018499901701924615 -0.028652389763268907 0 -0.028652389763268907 -0.0022043911430468799 0 0 0 -0.005176073211242832 -0.0008337904483844338 -0.055055661271634235 0 -0.055055661271634235 0.049773030267952725 0 0 0 0.012234809954892074 -0.06330211777071687 -0.021917429631944652 0 -0.021917429631944652 0.0048048021399254015 0 0 0 -0.014624328907697881 -0.099528751511665861 0.00433384316896378 0 0.00433384316896378 0.0021102153750965913 0 0 0 -0.024354634034142258 -0.086609554381849849 0.0065307430043983258 0 0.0065307430043983258 0.0034398502045967505 0 0 0 -0.020792426044313264 -0.15273310779342816 0.0086820111132997202 0 0.0086820111132997202 0.062243266218559024 0 0 0 -0.022622460393717292 -0.020084311992283721 -0.00033044618459676656 0 -0.00033044618459676656 0.029461324971521652 0 0 0 0.0023442532448094133 -0.019188852962655378 -0.0097483439421197082 0 -0.0097483439421197082 0.064604198227111498 0 0 0 0.011353836316114085 -0.037847191532981786 0.0091531990424051635 0 0.0091531990424051635 0.006984804275185828 0 0 0 -0.007715596814448983 -0.00029377590124401998 0.00056995154089953259 0 0.00056995154089953259 -0.01873910360819564 0 0 0 -0.0047582198773600259 -0.046450422898071678 0.0034307648361188653 0 0.0034307648361188653 -0.0089343757498846609 0 0 0 -0.013846199661989082 -0.052231417077216569 -0.027018744698351284 0 -0.027018744698351284 0.017214742114935233 0 0 0 -0.0087541687405702784 -0.033735160798307857 0.0013089978240161588 0 0.0013089978240161588 -0.019768910495741199 0 0 0 -0.013376017823512262 -0.031401548370069365 0.061645169474072725 0 0.061645169474072725 0.0080369052089883652 0 0 0 -0.0058411607902704166 -0.033178261154308303 0.050015042131140053 0 0.050015042131140053 0.015648163175525698 0 0 0 -0.0043825244946955333 -0.033751290762548306 -0.031588661932633766 0 -0.031588661932633766 0.0040019591895888995 0 0 0 -0.007437332893239626 0.019808612346333309 -0.10842115811017967 0 -0.10842115811017967 0.19073220825597567 0 0 0 0.052635205150577222 -0.035060119808873601 0.0018392660048176536 0 0.0018392660048176536 -0.017957660485646062 0 0 0 -0.013254445073629918 -0.058963417939487894 -0.012465447099760163 0 -0.012465447099760163 0.0035678978341904255 0 0 0 -0.013848880026324339 0.0019184928087530029 0.00085235495709090614 0 0.00085235495709090614 0.00026825957962994806 0 0 0 0.00054668809709568222 -0.01256312142422944 0.0054620186235916357 0 0.0054620186235916357 0.17776259068347144 0 0 0 0.041299867314810612 0.0083880970661887218 0.0019144752928630382 0 0.0019144752928630382 0.15649962390682753 0 0 0 0.041221930243253511 0.0043828633641853632 -0.0040240501907253812 0 -0.0040240501907253812 0.081261750771997487 0 0 0 0.021411153534045768 0.0029957715204051993 -0.0013928254006449808 0 -0.0013928254006449808 0.00061539006985178446 0 0 0 0.00090279039756513413 -0.00042526314169110671 0.0010462407476752311 0 0.0010462407476752311 0.002041951580086371 0 0 0 0.00040417210959876057 -0.0092430092943387443 -0.0075769210118003007 0 -0.0075769210118003007 0.098803081851506214 0 0 0 0.0223900181392922 -0.00043924690257313159 -0.0016702807246975482 0 -0.0016702807246975482 0.003194937946521037 0 0 0 0.00068892276098653227 -0.037698906140350798 9.3673311078216364e-05 0 9.3673311078216364e-05 -0.017708319165623692 0 0 0 -0.013851806326493623 -0.044426181088478928 -0.024965321028759729 0 -0.024965321028759729 -0.0057999450964357907 0 0 0 -0.012556531546228742 -0.084541973210734075 0.0044506820807477115 0 0.0044506820807477115 0.0093740237573761154 0 0 0 -0.018791987363339549 -0.057419892504107062 -0.03170679249495556 0 -0.03170679249495556 0.0059555374633526448 0 0 0 -0.012866088760188799 -0.046456762512915577 -0.0012201004326291541 0 -0.0012201004326291541 -0.018485084726957805 0 0 0 -0.016235461809968335 -0.031683097601323373 0.039689462375917195 0 0.039689462375917195 -0.0014856925755433181 0 0 0 -0.0082921975442171725 -0.02818823007776472 -0.032673346850784712 0 -0.032673346850784712 0.0091399147692388105 0 0 0 -0.0047620788271316439 -0.0079196724174882549 -0.0081122983466369036 0 -0.0081122983466369036 0.070875589711620224 0 0 0 0.015738979323532964 -0.016220281690619842 0.0012727842159893643 0 0.0012727842159893643 0.13484792738362894 0 0 0 0.029656911423252247 -0.06923871871912711 0.010333856982036149 0 0.010333856982036149 0.066891162864090081 0 0 0 -0.00058688896375924671 -0.077221781715348048 -0.0017738697672416703 0 -0.0017738697672416703 0.0098919213549486518 0 0 0 -0.01683246509009978 -0.035810205931189665 -0.014410982216931791 0 -0.014410982216931791 0.050885674136020631 0 0 0 0.0037688670512077693 -0.03554991159602458 0.0076251829214817324 0 0.0076251829214817324 0.10286003900025609 0 0 0 0.016827531851057898 -0.039206457035252773 -0.038947503448953036 0 -0.038947503448953036 0.01094322178473961 0 0 0 -0.0070658088126283602 -0.034690046435510519 0.008604749474201449 0 0.008604749474201449 -0.00056269876380582104 0 0 0 -0.0088131862998290823 -0.030116111343916452 -0.03561796447035126 0 -0.03561796447035126 0.020253268847457484 0 0 0 -0.0024657106241147142 -0.044207558957591431 0.03891170876789829 0 0.03891170876789829 0.00018557304804112107 0 0 0 -0.011005496477387577 -0.038673562348079032 -0.00093040368185190458 0 -0.00093040368185190458 0.030275893238380425 0 0 0 -0.0020994172774247144 -0.025776684342678102 -0.0045524041465860449 0 -0.0045524041465860449 0.034566700987164745 0 0 0 0.0021975041611216606 -0.06351962828196106 0.0019222261576955606 0 0.0019222261576955606 -0.0036632448742748708 0 0 0 -0.016795718289058962 -0.060162568106524782 -0.011323304605954404 0 -0.011323304605954404 0.046353967196709478 0 0 0 -0.003452150227453786 0.010410613601359586 -0.033029860370295816 0 -0.033029860370295816 0.024072488773113077 0 0 0 0.0086207755936181796 -0.042160485230038285 -0.026271067251758984 0 -0.026271067251758984 -0.0027175317737413024 0 0 0 -0.011219504250944918 0.040932472083592353 -0.023023924952932595 0 -0.023023924952932595 0.031668521781134773 0 0 0 0.018150248466181684 -0.026559606425311633 -0.0050978014072978195 0 -0.0050978014072978195 0.068779844692282155 0 0 0 0.010555059566742686 -0.040413402763887885 -0.0067333898770458589 0 -0.0067333898770458589 0.026905971213133428 0 0 0 -0.0033768578876886002 -0.094472541888826936 0.0036274079726036287 0 0.0036274079726036287 -0.0032434941157522615 0 0 0 -0.024429009001144798 -0.064989004252245075 -0.013317343288378148 0 -0.013317343288378148 0.051478359579582494 0 0 0 -0.0033776611681656521 -0.065677975002604055 -0.011887630784653838 0 -0.011887630784653838 0.062604082738929451 0 0 0 -0.00076847306591865117 0.022325342684533539 0.06835014861017942 0 0.06835014861017942 0.21608840541625451 0 0 0 0.05960343702519702 -0.038212585056887877 -0.023044614656851814 0 -0.023044614656851814 0.2471211062467828 0 0 0 0.052227130297473723 0.0038175733472605167 0.018456094211435434 0 0.018456094211435434 0.095111601648076416 0 0 0 0.024732293748834122 -0.040207528446603927 0.024518886443193867 0 0.024518886443193867 0.057442872835864134 0 0 0 0.0043088360973150691 -0.062511884327923317 -0.010770843729550256 0 -0.010770843729550256 0.00032094146579186855 0 0 0 -0.015547735715532696 -0.064014205588715595 0.002306261451175403 0 0.002306261451175403 -0.0067193140405110603 0 0 0 -0.017683379907306659 -0.11787436624236008 -0.010273048822624172 0 -0.010273048822624172 -0.017567049526530244 0 0 0 -0.033860353942222587 -0.095380121852160382 -0.00018989563473864948 0 -0.00018989563473864948 -0.011783517261120022 0 0 0 -0.026790909778320087 -0.026240932897426048 0.0052152282943096831 0 0.0052152282943096831 -0.012143909605221839 0 0 0 -0.0095962106256619641 -0.13584608273022009 -0.011412920976513016 0 -0.011412920976513016 -0.003080927709471948 0 0 0 -0.034731752609922999 -0.11762227434027314 -0.012990590655593688 0 -0.012990590655593688 -0.02735230026037247 0 0 0 -0.036243643650161396 -0.17724454016491073 0.0092049317192427031 0 0.0092049317192427031 -0.001555249800526709 0 0 0 -0.04469994749135936 -0.15600919899526139 0.01035173350615072 0 0.01035173350615072 -0.03368875638343987 0 0 0 -0.04742448884467533 -0.065931929271104778 -0.02520515939295348 0 -0.02520515939295348 0.026965027708365785 0 0 0 -0.0097417253906847134 -0.032280045213462165 0.0033645729579732352 0 0.0033645729579732352 -0.016242051087675513 0 0 0 -0.012130524075284414 0.020038725324509121 0.034311519887552544 0 0.034311519887552544 0.035839652039341807 0 0 0 0.013969594340962344 -0.039511033371006532 0.0068811336363645004 0 0.0068811336363645004 0.090184316851960933 0 0 0 0.012668320870238559 -0.024438904143176444 0.035411083088595544 0 0.035411083088595544 0.087686488694486975 0 0 0 0.015811896137827641 -0.040872261631300977 -0.040594056840019085 0 -0.040594056840019085 0.037701503021689398 0 0 0 -0.00079268965240292255 -0.0043867596651913721 -3.2736009942802013e-05 0 -3.2736009942802013e-05 0.012083156610111754 0 0 0 0.0019240992362302065 0.0013821493123480253 -0.0061961789971363146 0 -0.0061961789971363146 0.03745030643617861 0 0 0 0.0097081139371313248 0.0019349602669014739 0.0059201742991952244 0 0.0059201742991952244 0.077491256815129042 0 0 0 0.019856554270507629 -0.003378874667286912 -0.00048446443357175184 0 -0.00048446443357175184 0.0067713472067170519 0 0 0 0.00084811813485742387 -0.013496169452673727 0.0066818784418135602 0 0.0066818784418135602 0.0077943417383185831 0 0 0 -0.0014254569285888016 -0.014395471214360411 -0.014190593798133699 0 -0.014190593798133699 0.020720406352809473 0 0 0 0.0015812337846122793 -0.12907850374600041 -0.019729847399057771 0 -0.019729847399057771 -0.042947923632491218 0 0 0 -0.043006606844622909 -0.16790305063702718 0.018809783386224441 0 0.018809783386224441 -0.055864911002827346 0 0 0 -0.055941990409963629 -0.19164917380413488 0.019004250538142385 0 0.019004250538142385 -0.026096264962135352 0 0 0 -0.054436359691567564 -0.14938618340687479 -0.019198064328653196 0 -0.019198064328653196 -0.020581885210919811 0 0 0 -0.042492017154448655 -0.036412947168100618 -0.038716902153535848 0 -0.038716902153535848 0.014079213574629157 0 0 0 -0.0055834333983677542 -0.063845841853284985 0.0020468276539229863 0 0.0020468276539229863 0.0032174754239266135 0 0 0 -0.015157091607339607 -0.047592807788565394 -0.027682249791329834 0 -0.027682249791329834 0.0063366254423123936 0 0 0 -0.010314045586563236 -0.044930829609190898 -0.027469520602224407 0 -0.027469520602224407 -0.0034492048873651093 0 0 0 -0.012095008624139009 -0.056338526096340172 0.0010168492032525123 0 0.0010168492032525123 0.0029077036892508207 0 0 0 -0.013357705601772338 -0.042471574136611324 0.0043350282023761292 0 0.0043350282023761292 -0.0068153492408850108 0 0 0 -0.012321730844374079 -0.042315419963973491 0.0049692494678799572 0 0.0049692494678799572 -0.0063012601904962797 0 0 0 -0.012154170038617435 -0.064201073338432363 -0.050933899833875612 0 -0.050933899833875612 0.15757552482693396 0 0 0 0.023343612872125372 0.011273507087488414 -0.01185242618647217 0 -0.01185242618647217 0.44301699707170983 0 0 0 0.11357262603979962 -0.080828649724076967 -0.018466823334340299 0 -0.018466823334340299 0.018211900942141895 0 0 0 -0.015654187195483699 -0.028361588631899748 -0.0023833635801633821 0 -0.0023833635801633821 0.059721747602224484 0 0 0 0.0078400397425812396 -0.040492587690083653 -0.015261608321864517 0 -0.015261608321864517 0.034286320983339724 0 0 0 -0.0015515666766860725 -0.043843092524590871 0.0065493471007184393 0 0.0065493471007184393 0.0083794246260699354 0 0 0 -0.0088659169746302512 -0.023765464448631812 0.031643389374873543 0 0.031643389374873543 0.073579491628872784 0 0 0 0.012453506795060187 -0.031847754459799815 -0.015480302884505637 0 -0.015480302884505637 -0.002067373641140291 0 0 0 -0.0084787820252348878 0.0086598701810668421 -0.036991734053343411 0 -0.036991734053343411 0.072497658185672886 0 0 0 0.020289382091684932 -0.02203126689269256 -0.0068071592544059339 0 -0.0068071592544059339 0.023574553525788494 0 0 0 0.0003858216582740201 -0.048881495588240176 0.030837008286623391 0 0.030837008286623391 0.0036125837093079483 0 0 0 -0.011317227969733334 -0.028884498624617172 -0.030616945369479565 0 -0.030616945369479565 0.034273922781052679 0 0 0 0.001347356039108738 -0.021612525167004404 -0.029648956659247883 0 -0.029648956659247883 0.028102984328990388 0 0 0 0.0016226147904964128 -0.026116123010365144 -0.0033666492309749607 0 -0.0033666492309749607 -0.0098928539436542451 0 0 0 -0.0090022442385047641 -0.020586079258063744 -0.0077871293046455903 0 -0.0077871293046455903 0.083025052966232582 0 0 0 0.015609743427042216 -0.043718207970093265 -0.0095413122185819925 0 -0.0095413122185819925 -0.010234845605060772 0 0 0 -0.013488263393788502 -0.020745511594626717 -0.0077856296370027445 0 -0.0077856296370027445 -0.026240499434706632 0 0 0 -0.011746502757333452 -0.069613303166188009 0.0032537310166543959 0 0.0032537310166543959 -0.007668298008978146 0 0 0 -0.019320400293791565 -0.063209145097218075 0.0036542391769820428 0 0.0036542391769820428 -0.0094560307229955773 0 0 0 -0.018166293955053422 -0.065761061232972248 -0.0063473917455696555 0 -0.0063473917455696555 0.037257563467827728 0 0 0 -0.0071258744412861091 -0.06074110500579899 -0.023141367106195382 0 -0.023141367106195382 0.044118986721545239 0 0 0 -0.0041555295710634099 -0.054673837992792691 0.00082818662236319729 0 0.00082818662236319729 -0.0059319216422122067 0 0 0 -0.015151439908751237 -0.050549097788152877 0.002922821349149906 0 0.002922821349149906 0.0038437234952696658 0 0 0 -0.011676343573220799 -0.054126054842366683 0.0010904615608318957 0 0.0010904615608318957 0.0031394190588037822 0 0 0 -0.012746658945890719 -0.012417375429267907 0.0084550768625468176 0 0.0084550768625468176 -0.013069539695595767 0 0 0 -0.0063717287812159462 -0.0046209231960225305 0.010286714215663351 0 0.010286714215663351 0.010985089197879772 0 0 0 0.0015910415004642409 -0.0049604269768642531 -0.01526682743616159 0 -0.01526682743616159 0.035233676868979519 0 0 0 0.0075683124730287696 -0.014621093783562494 -0.012832656199572134 0 -0.012832656199572134 0.0056056478788613084 0 0 0 -0.0022538614761753728 -0.0190747796162688 -0.049334678429650558 0 -0.049334678429650558 0.15622324182210584 0 0 0 0.034287115551459246 -0.0029436165545209114 0.020623773845362958 0 0.020623773845362958 0.062372982536123445 0 0 0 0.014857341495400522 -0.0011651042683427093 -0.0035215734165366941 0 -0.0035215734165366941 -0.0025550095007833562 0 0 0 -0.00093002844228173842 -0.0026664230823176815 -0.017430668458216392 0 -0.017430668458216392 0.030537539894092136 0 0 0 0.0069677792029436691 -0.0011643604715563249 0.0039500771295459813 0 0.0039500771295459813 -0.0011405232352603711 0 0 0 -0.00057622092670417402 -0.053590456489471361 0.041638393222247494 0 0.041638393222247494 -0.0039917262836333123 0 0 0 -0.014395545693276279 -0.033148761732398224 -0.034896379512492554 0 -0.034896379512492554 0.019541576054965759 0 0 0 -0.0034017964193580053 -0.026039911246325986 -0.035763102515449785 0 -0.035763102515449785 0.017374068535124909 0 0 0 -0.0021664606778002415 -0.059053441125639088 -0.010103056020306499 0 -0.010103056020306499 0.051876273718678527 0 0 0 -0.0017942918517401749 0.0023598340205310819 0.013457151873390083 0 0.013457151873390083 0.045268231924257663 0 0 0 0.011907016486198074 -0.0012866610781152588 -0.00045804711703095746 0 -0.00045804711703095746 0.0043436850937244031 0 0 0 0.0007642560039022861 -0.0023364464885569092 -0.00031623845177985999 0 -0.00031623845177985999 0.0086188067378607514 0 0 0 0.0015705900623270708 4.2903908743952002e-05 -0.011472355487730512 0 -0.011472355487730512 0.016704962524928035 0 0 0 0.0041869666084182189 -0.030937430516708553 -0.0061294836148258203 0 -0.0061294836148258203 -0.020554917691703034 0 0 0 -0.012873087052102938 0.01319197629207472 -0.035500708616247212 0 -0.035500708616247212 0.0097889982163881228 0 0 0 0.0057452436271156759 0.011191255436668421 -0.00024834499396420018 0 -0.00024834499396420018 0.08890647862453499 0 0 0 0.025024433515300912 0.014032855281277234 -0.0044709995637195465 0 -0.0044709995637195465 0.16680949196462103 0 0 0 0.045210586811474551 -0.03705738646139467 0.0059249785909385854 0 0.0059249785909385854 -0.0095721314409871992 0 0 0 -0.011657379475595468 -0.084848607714918423 0.04392389644633149 0 0.04392389644633149 0.0021573083154420303 0 0 0 -0.020672824849869098 -0.094439636487998024 0.042140325498327483 0 0.042140325498327483 -0.0017124790919362809 0 0 0 -0.024038028894983299 -0.03350074303277193 -0.0095977109629632462 0 -0.0095977109629632462 -0.012676360822665426 0 0 0 -0.011544275963859407 -0.053402011410775899 -0.0051970122363529381 0 -0.0051970122363529381 0.017114617021443602 0 0 0 -0.0090718485973330966 -0.054696568310373499 -0.027613550462053355 0 -0.027613550462053355 0.0040009650177563749 0 0 0 -0.012673900823154218 -0.045708771994071272 -0.033007315947928911 0 -0.033007315947928911 0.021568841776626067 0 0 0 -0.006034982554361322 -0.059189328591548573 0.043839645205018318 0 0.043839645205018318 -0.0032839470612238131 0 0 0 -0.015618318913193097 -0.031057095872252249 -0.034491136508132403 0 -0.034491136508132403 0.020397343497822629 0 0 0 -0.0026649380936072387 -0.035482592462764528 -0.03681983717998083 0 -0.03681983717998083 0.015192559513794279 0 0 0 -0.00507250823724259 -0.11304304591131896 -0.0018990796368499835 0 -0.0018990796368499835 -0.011596048815083707 0 0 0 -0.031159773681600653 -0.15195452507335597 -0.009179684745707576 0 -0.009179684745707576 -0.017386166951899193 0 0 0 -0.042335173006313787 -0.14013214048595257 -0.015493979844754507 0 -0.015493979844754507 -0.0015269515302056558 0 0 0 -0.035414773004039515 -0.1069408252803874 0.0028158567428780631 0 0.0028158567428780631 -0.0020561823209898356 0 0 0 -0.027249251900344336 -0.060162933813047867 -0.0063043259341413228 0 -0.0063043259341413228 0.02561806950315574 0 0 0 -0.0086362160774729919 -0.077901286869264341 0.035119377119780637 0 0.035119377119780637 -0.0067265359581627493 0 0 0 -0.021156955706856495 -0.023705045458007334 -0.02923145166900698 0 -0.02923145166900698 0.033620972618688683 0 0 0 0.0024789817901701428 -0.026881510034327372 -0.030775903663421311 0 -0.030775903663421311 0.025885173994878663 0 0 0 -0.00024908400986212165 -0.062028263608891313 -0.037637461574867692 0 -0.037637461574867692 0.0096548693392456975 0 0 0 -0.013093348567411359 -0.035571463202520075 -0.0083544332854710301 0 -0.0083544332854710301 -0.014849547361935944 0 0 0 -0.012605252641114 -0.034882740278016258 -0.017368953956657787 0 -0.017368953956657787 -0.0036892653146847754 0 0 0 -0.0096430013981752688 -0.051989846791228506 -0.012009964261369327 0 -0.012009964261369327 0.018119998860493952 0 0 0 -0.0084674619826836245 -0.095319124883332537 0.0043408018319682582 0 0.0043408018319682582 -0.0064132838509255441 0 0 0 -0.025433102183564531 -0.1042828318278477 0.070003412216370853 0 0.070003412216370853 0.019762413277056856 0 0 0 -0.021130104637697711 -0.070515901210457255 -0.033143462484061692 0 -0.033143462484061692 0.012012655869444 0 0 0 -0.014625811335253314 -0.023184930643083204 0.044224319361202635 0 0.044224319361202635 0.032035687077910435 0 0 0 0.0022126891087074635 -0.041835971163443092 -0.026898547398190198 0 -0.026898547398190198 -0.0033291699155327537 0 0 0 -0.011291285269743795 -0.020789446355818697 0.065310192680895995 0 0.065310192680895995 0.010708121136463244 0 0 0 -0.0025203313048387521 -0.088097807976543319 0.0031431435489368414 0 0.0031431435489368414 0.0010356203049472906 0 0 0 -0.021765546917899024 -0.05560454886202288 -0.0034457541405848516 0 -0.0034457541405848516 0.012369404387402081 0 0 0 -0.010808786118655189 -0.060680862201298202 -0.033800062733572944 0 -0.033800062733572944 0.0021277686495202452 0 0 0 -0.014638273387944545 -0.0067078891817162756 0.009262769357676004 0 0.009262769357676004 0.048610324953798315 0 0 0 0.010475608943020576 -0.01085963730415429 -0.012789902134181463 0 -0.012789902134181463 0.096793185883461641 0 0 0 0.021483387144826893 -0.053090487357443372 -0.001013330483332929 0 -0.001013330483332929 0.0012992334723254187 0 0 0 -0.01294781347127948 0.0023828143900006538 -6.3276078801521862e-05 0 -6.3276078801521862e-05 0.0047169695399116307 0 0 0 0.0017749459824778491 -0.0064632304163958487 0.0012990256743594664 0 0.0012990256743594664 0.0020363476025249128 0 0 0 -0.0011067207034680671 -0.00084496297181035906 -0.015974451546761692 0 -0.015974451546761692 0.045095530648660009 0 0 0 0.011062641919212801 -0.0014425870862899703 -0.0075663143304742775 0 -0.0075663143304742775 0.046349939239354043 0 0 0 0.011226838038266074 -0.0026447930171018541 0.00859866360201611 0 0.00859866360201611 0.093845916251929395 0 0 0 0.022800280808706663 0.001652475015259558 -0.00013349332885415066 0 -0.00013349332885415066 0.0026795617264410154 0 0 0 0.0010830091854252544 0.0022373905886552414 0.016821037329825206 0 0.016821037329825206 0.094035824143883673 0 0 0 0.02406830368313484 -0.0052534305732092612 -0.0015020488673302967 0 -0.0015020488673302967 0.0006395161765366808 0 0 0 -0.0011534785991680341 -0.034899488002192058 -0.010675162810259486 0 -0.010675162810259486 -0.018002692527555597 0 0 0 -0.0132255451324369 -0.038194692845482658 -0.012797333693851325 0 -0.012797333693851325 0.016342808975831069 0 0 0 -0.0054629709674128835 -0.04717492178350613 -0.015421133184900529 0 -0.015421133184900529 0.012161472563515741 0 0 0 -0.0087533623049974585 -0.021248906847357186 -0.0021196971928565955 0 -0.0021196971928565955 -0.016698953372152797 0 0 0 -0.0094869650548773839 -0.021073813001978803 0.00092580576690015626 0 0.00092580576690015626 -0.009813511173108469 0 0 0 -0.0077218310437718318 -0.041450624096737276 0.030278118609200516 0 0.030278118609200516 0.12261225074538429 0 0 0 0.020290406662161725 -0.067731354457565382 -0.018551421879082236 0 -0.018551421879082236 0.016379615830597688 0 0 0 -0.012837934656741906 -0.070856321814122852 -0.029405227884777285 0 -0.029405227884777285 0.0089467923963617579 0 0 0 -0.015477382354440294 -0.075524413509479527 -1.6038817669903477e-06 0 -1.6038817669903477e-06 0.0048363091249542245 0 0 0 -0.017672026096131346 -0.12677761330492632 0.051553387272753493 0 0.051553387272753493 0.0046619856894709599 0 0 0 -0.030528906903863673 -0.10306865087572614 0.070740045200093804 0 0.070740045200093804 0.046131256573992863 0 0 0 -0.014234348575433042 -0.035527918100012018 0.028755992681602255 0 0.028755992681602255 0.079238074312500878 0 0 0 0.010927539053122229 -0.028222013032831339 -0.01079692147283948 0 -0.01079692147283948 0.03343797479573074 0 0 0 0.0013039904407248226 -0.035811653790410347 -0.00945330383069512 0 -0.00945330383069512 0.03512345885511059 0 0 0 -0.00017204873382492547 -0.0002464668565281547 0.041098156596235308 0 0.041098156596235308 0.084960970655732104 0 0 0 0.021178625949800994 -0.073071045273480101 -0.03314912570344386 0 -0.03314912570344386 0.021409417617241577 0 0 0 -0.012915406914059596 -0.085775296787215877 -0.023619421815344155 0 -0.023619421815344155 0.001852716174303326 0 0 0 -0.020980645153228089 -0.031847423096276181 0.02558825439819739 0 0.02558825439819739 0.060194197696607388 0 0 0 0.0070866936500827843 -0.017062552612594244 0.032016923116229487 0 0.032016923116229487 0.048987108091771786 0 0 0 0.0079811388697943776 -0.049623039357698462 -0.019024448952945638 0 -0.019024448952945638 0.027859655830049346 0 0 0 -0.0054408458819122374 -0.053729784900566811 -0.0081461034631038348 0 -0.0081461034631038348 0.014027013276649736 0 0 0 -0.0099256929059792776 -0.053454458433852575 -0.0068361704877312711 0 -0.0068361704877312711 0.024965004783506856 0 0 0 -0.0071223634125864299 -0.054784038105643827 -0.0047772409135374283 0 -0.0047772409135374283 0.041367345110065457 0 0 0 -0.0033541732488945805 -0.0025654266086931887 0.021467035164330461 0 0.021467035164330461 0.13106833825174036 0 0 0 0.032125727910762292 -0.033610881992281683 -0.0069450539906765751 0 -0.0069450539906765751 0.00032982758709021454 0 0 0 -0.0083202636012976727 -0.088164899870648239 0.0063739917549470032 0 0.0063739917549470032 0.00095165503875890844 0 0 0 -0.021803311207972298 -0.039908259641277651 0.0046252933510824261 0 0.0046252933510824261 -0.014560125558428937 0 0 0 -0.013617096299926646 0.03072781065381136 0.021484099060690376 0 0.021484099060690376 0.075092687106291578 0 0 0 0.026455124440025735 -0.029105139178678019 -0.0070368714302007085 0 -0.0070368714302007085 -0.016176924396569037 0 0 0 -0.011320515893811833 -0.07893949536423811 -0.029636415489186163 0 -0.029636415489186163 0.00021015185497197386 0 0 0 -0.01968233587731652 -0.10762858593737572 -0.023129244491890383 0 -0.023129244491890383 0.0048485852153854481 0 0 0 -0.025695000180497529 -0.042197021837136806 -0.013363147677855181 0 -0.013363147677855181 0.050877971215638862 0 0 0 0.0021702373446254586 
</DataArray>
<DataArray type="Float64" Name="cross_section_updated" format="ascii">
0.001010970229280326 0.0010269827732292797 0.0010364866646115412 0.0010452590759249941 0.0010542369272419163 0.0010639187479544285 0.0010744028193274389 0.00108501974887217 0.001095650700845083 0.0011051005468975157 0.0020386670956897908 0.0020995826809524073 0.0021402925032401304 0.0021763843802864403 0.0022113313066813344 0.002245649247638292 0.0022797582534624791 0.0023128239539793498 0.0023448355401806498 0.0023746877744185843 1 1 1 1 1 1 1 1 1 1 1 1 1 1 1 1 1 1 1 1 1 1 1 1 1 1 1 1 1 1 1 1 1 1 1 1 1 1 1 1 1 1 1 1 1 1 1 1 1 1 1 1 1 1 1 1 1 1 1 1 1 1 1 1 1 1 1 1 1 1 1 1 1 1 1 1 1 1 1 1 1 1 1 1 1 1 1 1 1 1 1 1 1 1 1 1 1 1 1 1 1 1 1 1 1 1 1 1 1 1 1 1 1 1 1 1 1 1 1 1 1 1 1 1 1 1 1 1 1 1 1 1 1 1 1 1 1 1 1 1 1 1 1 1 1 1 1 1 1 1 1 1 1 1 1 1 1 1 1 1 1 1 1 1 1 1 1 1 1 1 1 1 1 1 1 1 1 1 1 1 1 1 1 1 1 1 1 1 1 1 1 1 1 1 1 1 1 1 1 1 1 1 1 1 1 1 1 1 1 1 1 1 1 1 1 1 1 1 1 1 1 1 1 1 1 1 1 1 1 1 1 1 1 1 1 1 1 1 1 1 1 1 1 1 1 1 1 1 1 1 1 1 1 1 1 1 1 1 1 1 1 1 1 1 1 1 1 1 1 1 1 1 1 1 1 1 1 1 1 1 1 1 1 1 1 1 1 1 1 1 1 1 1 1 1 1 1 1 1 1 1 1 1 1 1 1 1 1 1 1 1 1 1 1 1 1 1 1 1 1 1 1 1 1 1 1 1 1 1 1 1 1 1 1 1 1 1 1 1 1 1 1 1 1 1 1 1 1 1 1 1 1 1 1 1 1 1 1 1 1 1 1 1 1 1 1 1 1 1 1 1 1 1 1 1 1 1 1 1 1 1 1 1 1 1 1 1 1 1 1 1 1 1 1 1 1 1 1 1 1 1 1 1 1 1 1 1 1 1 1 1 1 1 1 1 1 1 1 1 1 1 1 1 1 1 1 1 1 1 1 1 1 1 1 1 1 1 1 1 1 1 1 1 1 1 1 1 1 1 1 1 1 1 1 1 1 1 1 1 1 1 1 1 1 1 1 1 1 1 1 1 1 1 1 1 1 1 1 1 1 1 1 1 1 1 1 1 1 1 1 1 1 1 1 1 1 1 1 1 1 1 1 1 1 1 1 1 1 1 1 1 1 1 1 1 1 1 1 1 1 1 1 1 1 1 1 1 1 1 1 1 1 1 1 1 1 1 1 1 1 1 1 1 1 1 1 1 1 1 1 1 1 1 1 1 1 1 1 1 1 1 1 1 1 1 1 1 1 1 1 1 1 1 1 1 1 1 1 1 1 1 1 1 1 1 1 1 1 1 1 1 1 1 1 1 1 1 1 1 1 1 1 1 1 1 1 1 1 1 1 1 1 1 1 1 1 1 1 1 1 1 1 1 1 1 1 1 1 1 1 1 1 1 1 1 1 1 1 1 1 1 1 1 1 1 1 1 1 1 1 1 1 1 1 1 1 1 1 1 1 1 1 1 1 1 1 1 1 1 1 1 1 1 1 1 1 1 1 1 1 1 1 1 1 1 1 1 1 1 1 1 1 1 1 1 1 1 1 1 1 1 1 1 1 1 1 1 1 1 1 1 1 1 1 1 1 1 1 1 1 1 1 1 1 1 1 1 1 1 1 1 1 1 1 1 1 1 1 1 1 1 1 1 1 1 1 1 1 1 1 1 1 1 1 1 1 1 1 1 1 1 1 1 1 1 1 1 1 1 1 1 1 1 1 1 1 1 1 1 1 1 1 1 1 1 1 1 1 1 1 1 1 1 1 1 1 1 1 1 1 1 1 1 1 1 1 1 1 1 1 1 1 1 1 1 1 1 1 1 1 1 1 1 1 1 1 1 1 1 1 1 1 1 1 1 1 1 1 1 1 1 1 1 1 1 1 1 1 1 1 1 1 1 1 1 1 1 1 1 1 1 1 1 1 1 1 1 1 1 1 1 1 1 1 1 1 1 1 1 1 1 1 1 1 1 1 1 1 1 1 1 1 1 1 1 1 1 1 1 1 1 1 1 1 1 1 1 1 1 1 1 1 1 1 1 1 1 1 1 1 1 1 1 1 1 1 1 1 1 1 1 1 1 1 1 1 1 1 1 1 1 1 1 1 1 1 1 1 1 1 1 1 1 1 1 1 1 1 1 1 1 1 1 1 1 1 1 1 1 1 1 1 1 1 1 1 1 1 1 1 1 1 1 1 1 1 1 1 1 1 1 1 1 1 1 1 1 1 1 1 1 1 1 1 1 1 1 1 1 1 1 1 1 1 1 1 1 1 1 1 1 1 1 1 1 1 1 1 1 1 1 1 1 1 
</DataArray>
<DataArray type="Float64" Name="displacement_divergence" format="ascii">
0.010931997765462487 0.026938115561420603 0.036436820601750859 0.045213086628675417 0.054196137288787187 0.063879808437308394 0.074363161324774024 0.084979296486514436 0.095624486222428334 0.10502099718068085 0.019418237579351936 0.049761468185050783 0.070110585131720346 0.088148827923401757 0.10561594084000964 0.12276876485585392 0.13982169988850957 0.15632420762170871 0.17243671156105495 0.18694305724916724 -2.0136806348239724e-05 -5.0080186894492702e-06 -2.1517852050638409e-05 -2.2340682276444813e-05 -0.00010075892182229646 -7.5275044246545121e-05 -0.00010794264415374721 -7.827012147075466e-05 -8.7964390669582879e-05 -0.00014867873920034155 -2.8859447131283282e-05 -2.8714498410835623e-05 -4.4886549907702677e-05 -5.1338319109836322e-05 -5.2160934968301357e-05 -2.784961372569972e-05 0.0002496989988812503 1.5760479592438759e-06 6.2506350155290546e-06 1.194583405190585e-05 2.4803505643167419e-06 -5.1103290333938574e-06 -4.8911823686411619e-06 -4.230660399298321e-05 0.00019916563462176335 -0.00015297390989636272 -8.5781862808662784e-05 -5.9303782455413692e-05 -3.2891516804311105e-05 -7.9678349399899548e-05 -6.0688165969981342e-06 -1.6085381211362274e-05 -1.9823833463400269e-05 -1.4901750253410503e-05 -2.7786267917065399e-05 -6.449642731404404e-05 2.3213532490667265e-05 -7.8221226291029055e-05 0.00022845193256510496 1.2692319982537123e-05 3.6302028556737913e-05 2.1740377978855607e-05 4.4074353225329911e-05 -6.6515922608548217e-06 -4.2541098048729764e-05 -4.1674454260836637e-05 -4.9951893461383393e-06 -1.5259672891805072e-05 0.00025916913084211965 -7.384591808892591e-06 2.5474750641396745e-05 -2.492278774549354e-05 5.8029231559345613e-06 -2.6595734321529607e-05 -6.4137813845904215e-06 -7.7507150330751416e-05 -6.1687522154977616e-06 6.5117616093988279e-05 4.0366102684559775e-05 2.253018442349014e-07 -1.6769887132708902e-05 7.7202732371286348e-05 -1.5647687768267178e-05 -1.9876341756819619e-05 -2.4377470814079686e-05 -8.3684478132629755e-05 -0.00011032937707028559 8.0854756760805945e-06 3.4624957846445198e-05 -8.7535312093175977e-05 -6.9779592718989148e-05 -3.6572209785137302e-05 -7.5345040551079982e-05 -0.00010324171300836072 -2.9826902576997783e-05 -2.3641667172219353e-05 9.1402535788824091e-05 -5.7563434152133573e-06 -3.2173226353568733e-05 -1.8696673935832473e-05 -4.3628976645757739e-05 -0.00011067641748062861 -8.4970866847293268e-05 -4.2889791780279222e-05 1.2408551833651034e-06 -6.8210654060798116e-06 -1.8507565595735453e-05 -3.1032548845905149e-05 -5.8796381717288946e-05 -2.2271499198968543e-05 -2.8116321134953729e-05 -2.9728482319871153e-05 -3.2901967946074424e-05 -8.6675111682716277e-06 -6.6673211042580062e-06 -1.5212585128125547e-05 1.9313825734432866e-05 8.7475472740346921e-05 -2.0641692264223438e-07 -6.6706000147859733e-06 9.1243013466881656e-05 5.2050115774540743e-05 -3.5043148238942629e-05 -3.9005443726121693e-05 3.1706966770214066e-05 9.2635746779768866e-06 -1.3421038778154521e-05 1.662941128441277e-06 -8.5091136232627856e-06 1.2337912390949895e-05 -8.1974455681229144e-06 4.1117397011576629e-05 -7.9545942840058832e-05 -0.00012733900287542851 -7.8313603315551482e-06 0.0001074039644529969 -2.2355552650007624e-05 -2.1309145377303249e-05 1.1716625077327746e-05 8.2270474865957927e-06 2.5089885013826821e-05 2.7022749611043427e-06 1.4015379650627702e-05 -2.6989899347782276e-05 -2.5783456837980843e-05 -2.5354545860926272e-05 -6.0080571302745245e-08 -0.00011131470427207506 -3.4619282266152782e-05 -2.7882707963335595e-05 -2.3540724104509651e-05 -8.3967050777617467e-05 -6.7419103940685797e-05 -6.6014929455808524e-05 -0.00010532272633899473 -0.00010223633825636174 -2.5565951296133464e-05 -6.6874849873958179e-05 3.2006254216600683e-05 -1.2037030197376107e-06 -4.3357640202781008e-06 -2.642576735865476e-05 -4.939065872166257e-06 -3.277823642051438e-06 -1.1707807912126863e-05 -2.9311747079000677e-05 -5.0989305962578958e-05 -4.6946564160446252e-05 -9.7117536362015293e-06 -5.8323292579195616e-05 -4.8793658232563174e-05 -3.7289105638480997e-05 -3.3454118874014245e-05 -3.6702841815211616e-05 -3.7292894969293934e-05 -3.9496688749727745e-05 -1.2728277632153084e-05 -3.0577507155658332e-05 -4.2069870744518135e-05 1.2198197231870099e-05 -3.5986754892073972e-05 -3.0830095996898447e-05 -0.00011062652339112484 -8.4934834550903058e-05 9.2138554920800437e-05 -2.9585593496878991e-05 6.5522364448738265e-07 -2.671414851837463e-05 -7.597426867171373e-05 -0.00011816495103618993 -3.278382700127081e-05 -6.9626714495316672e-05 -8.6857065362841305e-05 -7.0565432627134393e-05 -4.9469142976879119e-05 -5.0213466879899503e-05 -5.5597873679764633e-05 -2.8537132371043951e-05 1.4502916825465811e-05 -2.2613865794831548e-05 -3.7358647171115753e-05 -4.1277959968008464e-05 -6.0823629574059291e-05 -5.329470391102211e-05 -3.3284410639146508e-05 -3.0212257476782843e-05 -3.0670055716974006e-05 2.7177342854201383e-05 6.8676478696617005e-05 -1.3164387346895767e-05 -3.0115365747731274e-05 -3.2113756277308962e-05 -3.7958092083710277e-05 1.5730596856680006e-05 -2.3011835646702741e-05 -3.9828864150936307e-05 -2.9128117366574585e-05 -7.9499241458275797e-05 -0.00011684269697109323 -2.3140040593156602e-05 -5.8497749444607927e-05 -6.8708926822091073e-05 -0.0001326005968493671 -7.7709020513844229e-05 8.7162885628777945e-05 0.00026360683726234094 -1.0037142975272151e-05 -2.5389884998748991e-05 1.5191914371142134e-05 -1.5992983979434112e-05 -3.5330136157098822e-05 -4.568578471707762e-05 -5.059844424115667e-06 -0.00011572246565023768 -2.4059461259890412e-05 -3.3535066168311617e-06 -1.8600442224868579e-05 -3.6131511848229122e-05 -2.0884721339906987e-05 -1.1726802926853846e-05 -6.7681759052990538e-05 -2.8483344940995626e-05 -0.00010086803977184173 -1.8483195909320144e-05 -2.1239435235084238e-05 -2.6398012004371849e-05 -2.1512733432635812e-05 -2.8043981217511989e-05 7.8368774928283888e-05 -3.2430042321392579e-05 -3.8335885913542414e-05 -2.7012465824174367e-05 5.4993334582106737e-05 -8.0344694435921949e-05 -3.2969385044622213e-05 -0.00011716263852505054 -7.7361932093227966e-05 -6.9255354018947241e-05 -3.2940739539759136e-05 -4.9454379976977228e-06 -6.9451827466004844e-06 2.4201820421298451e-06 -3.0565640853438766e-05 -1.9043771962970815e-05 -9.0476414685283432e-06 -3.3473071521774414e-05 -7.0332994623108958e-06 9.1647103996088039e-06 -5.6386105643096984e-06 -7.4147970493742762e-06 1.2052124749536465e-06 -6.5133419034763581e-05 -4.7604298797250804e-05 -5.4668928665939625e-05 -8.1590828674724201e-05 -6.5503323805846244e-05 -4.2094490399546526e-05 7.5695328946719011e-05 -8.5163757623007839e-05 -6.7634159454245729e-05 -2.0605642586194314e-05 -5.0889702112196914e-05 -5.90758151111708e-05 -9.4904224248904234e-05 -9.8487276709291501e-05 1.9990471065740346e-05 -8.2378214337152332e-06 1.0978902863971727e-05 -2.9609526156486755e-06 -4.2526809701614729e-05 4.608697043204026e-05 8.4962163995535959e-05 -7.3293895322052829e-06 -5.588860505646308e-05 -1.2082302648325194e-05 -9.0020159872363132e-05 -2.2892281645441575e-05 -2.2886702172545867e-05 -2.3047757492665488e-05 -4.5715046416466555e-05 -4.2091691593061317e-05 -5.0486357195530394e-05 -5.1822816658786527e-05 -5.9150605759134586e-05 -8.4301906933966246e-05 -8.5192832333543878e-05 -6.8363005641076333e-05 -5.4308018134968674e-05 -6.7515601854223854e-05 -4.493082158867641e-05 2.5956523747677708e-05 -2.6938409826339093e-05 -1.0505157943936638e-05 2.4766584368540387e-06 -5.5343351918065139e-05 -6.6694766819142061e-05 -2.5748340946139219e-05 -6.5760371257758687e-08 -5.6410416803672966e-05 2.0677935511314118e-05 -2.9797214486340391e-05 -6.107659780311007e-06 -0.00010162918037159322 -7.1414877772184234e-05 -7.9083986955629665e-06 -3.1966876578868823e-05 -3.1106588102047784e-05 -0.00010232109574397218 -7.2977681916666881e-05 6.525964341719701e-06 -1.859832444227414e-05 -1.5632198074220019e-05 -5.6552665587879398e-05 -4.545623767691782e-05 -1.1133738184259626e-05 -7.61360376857447e-06 -5.383525870102559e-05 -5.0723460994172918e-05 -4.9835533724548769e-05 -4.8568520277846582e-05 -2.3259279863947747e-05 3.1583740628783624e-06 -1.591711183881477e-05 -7.8028481146031822e-06 -2.9052563887269674e-05 -7.2242657033240454e-06 -1.1748371504964382e-05 7.3264441166195015e-07 -4.0676071801373347e-05 -2.2576712056392428e-05 -8.6143062091218619e-05 -6.8301383435763767e-05 -9.7889236341259372e-06 4.8960260672027385e-05 8.7141662329800161e-05 -1.3594288505685686e-05 -8.3473259079566616e-06 -1.9631379647085351e-05 -3.0431896773062852e-05 -2.8707148050982547e-05 -1.9014966293643982e-05 9.2258739799356984e-06 1.1855890939741756e-05 3.6345938593006937e-05 -1.7224680978157256e-06 -1.7052231111675843e-05 -2.9706496113032634e-05 -2.4708560758735373e-05 2.7156073338831938e-06 -1.5553580563064818e-05 -7.5204564098087326e-05 -6.2410962024468883e-05 1.6705024909481701e-05 -0.00010400532691819174 -7.9005471350685526e-05 -2.6813369561920659e-05 2.9408601721378751e-05 1.722514933772594e-05 -5.5674081573372971e-06 -2.9771305990782026e-05 -1.5945441545464482e-05 -2.7422168009206844e-05 -6.174708018700549e-05 -4.6446286563175216e-05 2.2726891804499862e-05 1.5155631062819608e-05 3.6062422842625722e-05 -1.5368475452970295e-05 -1.2325617719166659e-05 3.5765071577752291e-05 2.2322019987076956e-05 3.3194781189501386e-05 -1.5398403625412407e-05 -3.9171845544519175e-07 -1.4972189276966759e-05 -2.888101172694973e-05 -1.4159948970507717e-06 -3.9969341459742686e-05 -6.5814488158154934e-05 -5.3718128478950646e-05 -1.7868334679140984e-05 1.7029587804972627e-05 -0.00010924856615114739 -3.3352511305833897e-05 -2.1660560306331123e-05 -2.7994134554127446e-05 -3.5218953005842915e-05 -4.2448059407708364e-05 -3.1402355841552386e-05 -2.2682201688792401e-05 -2.321379033344128e-05 2.1367778304269341e-06 -7.3059805410675266e-05 7.2515834147388524e-05 -1.9148991460505736e-05 -2.6453399655944917e-05 -2.4538607234211764e-05 -1.5656051391614231e-05 8.1728600870301094e-06 -1.3673240121885506e-05 -1.9741699816006949e-05 -2.5699819674352998e-05 -6.2503551039212355e-05 -2.5596147121051741e-05 -1.1891327225179717e-05 -7.0370177705046145e-05 7.3292370582320665e-05 -1.2034576619918656e-05 -1.1188269257011735e-05 -2.5752706749468187e-05 -3.1887545321567723e-05 1.4950035036704343e-05 -2.0998867893309457e-05 -3.4314511691582467e-05 -2.5487231163539504e-05 -5.5830086463684071e-05 -4.1642757968758442e-05 -2.9410913842131461e-05 -5.8016073536900671e-05 -8.6404847363954172e-05 1.4784057618618968e-05 3.3928032437589525e-05 -3.9319020351604199e-06 -2.7329797407124037e-05 8.7328599045857476e-05 -3.6444051377634642e-05 -1.0202497665006842e-05 3.7711379502092246e-05 -2.7010029924867347e-05 -6.6414333512961922e-06 -1.1892235423306826e-05 -3.427119492499479e-05 -8.4755225654013539e-06 3.1804566672753286e-05 -1.186781911065608e-05 -9.2977767995865065e-05 -0.00016230734008489589 4.9121981388488764e-05 -5.2405458865996358e-05 5.1449258040923246e-05 5.9204289099973979e-05 0.00010632922351516585 0.00010080792640477251 -7.2720799520895529e-06 7.6299249842323204e-06 5.9854437182655068e-05 2.3867703465123833e-05 -1.5568531433861311e-05 3.4289957410092026e-05 -6.992006066809317e-06 -6.3044944875762648e-06 1.2004741676758558e-05 -2.8159373775345235e-05 3.2908078693906593e-05 -3.9250627947074769e-06 1.0925861766690002e-05 -4.475469190489724e-06 1.2440255833126232e-05 6.4920166160380589e-06 -2.9470360121475528e-05 -2.8610386137618501e-05 -3.2956576598838988e-05 -4.3166749370495859e-06 -5.314050280761577e-05 3.3153258183605137e-05 -1.9735607216282843e-06 2.2619734049184211e-07 -2.9080805942690744e-05 -3.0355912241703106e-05 -0.00017368033237740083 -9.4360579945932245e-05 -3.9359455296662412e-05 -4.475344986982545e-05 -2.7761679317317683e-06 -4.1648657529175129e-06 -1.229366665098004e-05 -9.7838661304390148e-05 -7.2118088695012601e-05 5.1535345958851533e-05 -8.0636897204781422e-05 -6.3780550036015191e-05 -2.5076880797829815e-05 6.9220078400494909e-05 -1.2535344922342737e-05 -7.8174671411918007e-06 -6.5192406432714248e-05 -6.0294468363926712e-05 -8.5969112401733757e-05 -0.0001372565938453343 -3.2848530895626107e-05 2.3502475830825919e-05 -7.867370462827093e-06 -2.7061244875138074e-06 -7.2056488289368902e-06 2.0683263007019949e-05 1.8757749223024872e-05 -1.7623427024151964e-05 -2.3260639916127633e-05 -3.7647429925489822e-06 6.0499348619533664e-05 -8.2285938193944627e-05 -0.00012509326605158653 -4.6897216955456389e-06 4.2298657952383623e-05 -1.9742374811146545e-05 -8.3454499530082423e-05 -6.5503870943464171e-05 -3.6303310229136252e-05 -4.6211250408342232e-06 1.0273375869664157e-05 -3.6004532903661916e-05 -4.0598057459934143e-05 2.0573514165929743e-05 1.9757124139614299e-05 -5.2813306885662848e-06 -1.0611710118610667e-05 -1.4621468762393839e-05 -5.2496859596857311e-06 8.7836620263894057e-05 8.3775423728163143e-07 4.4124233093688543e-05 1.2472281539100544e-06 -1.3664400832218921e-05 -2.1759612103002656e-05 -1.4029355893757482e-05 -0.00010744280552676751 -0.00012314703690818757 -2.9346977911962345e-05 -3.4059306472768598e-05 2.4108030491095658e-05 -6.2861519991707713e-05 -5.7164518733097916e-05 -6.6523584816802583e-05 -8.0266425856028047e-05 -4.3065052582625871e-05 -3.3067074113189449e-05 -4.5902308489362902e-05 -4.4431694547053492e-05 -4.2185341381633238e-05 -4.7352832775021038e-05 -7.7467892825346107e-06 -2.0249970512839759e-05 -5.1412255796749981e-05 -5.2471489746456144e-05 -2.2298767884178358e-05 -5.6583975163927293e-05 -6.5270677463964664e-05 7.5948371905556859e-06 -2.512767176340304e-05 -8.0268259579814564e-05 -6.8321292924518218e-05 3.488783342816751e-05 -1.8889916912877237e-05 -3.8480745717706414e-05 1.5028474757033321e-05 -1.4118517850426012e-05 -1.7287915463097431e-05 -0.00011355368154880004 -8.4134629756675672e-05 1.3576865091995631e-05 -1.6866885581534426e-05 -2.8132712280639968e-05 -5.9641185451195667e-05 -6.1321190541884386e-05 -1.7739252703913311e-05 -2.6712050853806542e-05 -2.9118579903959042e-05 -1.2139286535525616e-05 -2.7427418466086632e-05 9.5905559215061489e-05 -3.8267344414508935e-05 -3.5279527035804795e-05 2.3957420682684015e-05 2.1178927603476188e-05 -6.1949767972950166e-05 -1.2625487561155168e-05 -7.9775128899839561e-05 -0.00013099999091863081 -7.7798519471183682e-05 -0.00013071391079405321 -7.644493953554019e-05 -9.9883977387916226e-05 -1.1267460179475728e-05 -4.5476201448266132e-07 2.9696053428717242e-05 7.2318623840838885e-05 8.6667068362952251e-06 5.678274780436315e-05 1.5890655672988626e-05 -2.9531248344490906e-05 4.5799180702281819e-06 -1.0797396804115443e-05 -9.4424124834953399e-07 -8.4867669196853936e-05 -8.2601291993706629e-06 0.00010635809002036212 9.0657041549635432e-05 2.5800561732109047e-05 -0.00014411519404975299 -8.4496229886398883e-05 -6.5410649058624947e-06 -5.774161242919117e-05 -3.6266193943995488e-05 -6.5661164642635307e-06 3.1468761211729351e-07 2.3696512001582975e-05 -1.2778973737890414e-05 -5.0864975588347174e-05 -5.5740238261709927e-05 -1.5495291777166013e-05 -1.5873951491334956e-05 -1.9767796214471107e-05 -2.1003259496561733e-05 -3.5878047855415795e-05 -2.7041235465415877e-05 -5.9980623026199077e-05 -7.1624184628105655e-05 -6.4985701550134651e-05 -0.00011130949322175963 -6.1398048983578963e-05 -2.1279263973377131e-05 -5.0848637818304938e-06 -9.5043547330289169e-05 -0.00012417228804639297 -3.2958168462567042e-05 2.0232195095351026e-05 -8.4451472131225481e-05 -0.00015024510026383621 -4.4777748984522428e-05 -8.3887474665553233e-05 -6.3770708465783971e-05 0.00011738985362693983 -0.00011463549655058113 -7.5832170402688286e-05 -3.137570681968258e-05 -3.2340811237876414e-05 -3.6619496360340529e-06 -2.5289816156621596e-05 -1.472157149310567e-05 0.00010349483366144585 -5.9514468913848573e-05 -2.9566181671513568e-05 7.3934762437202674e-05 -5.1743475579174616e-05 -0.00018033905110724762 -9.8942791505491278e-05 9.5372580860626668e-07 -8.0574697696494645e-05 -9.1977109956640964e-05 3.6424402453724225e-05 -3.397727647932525e-05 -2.1458998266171247e-05 6.9419007568132136e-05 -1.0270233164467492e-05 -1.6957057677993899e-05 6.6124436271386292e-06 -2.5905829688134037e-05 -2.9677794945868335e-05 3.0225806084810056e-05 -4.278537386419121e-05 3.6146571192599e-05 -7.091553764309585e-05 -3.6024966032555334e-05 -6.3303417831554092e-05 -5.1082708687431259e-05 -7.746655615840784e-05 -6.9422931434812987e-05 -5.8869357996762465e-05 -5.8769643554108569e-05 -6.3273930825887576e-05 -5.4705866279514382e-05 -5.4978319803509427e-05 -1.7690860462601563e-05 1.2871773171851598e-05 -2.1828445461442488e-05 -1.0287088482721467e-05 -2.1771219653091145e-05 1.5241586800986422e-05 -4.3288845241391035e-06 -9.9654455620341387e-05 -0.00018405758577649703 4.1056175540669004e-06 2.6783178068392176e-05 -4.976660883599369e-05 -3.4389086813020672e-05 -4.3232651708052902e-05 -3.7526971551758294e-05 5.2448118035212379e-05 -7.7355823265849542e-05 -7.1117190932878723e-05 -9.4027152965241561e-05 -0.00011057139777583344 -8.1916351178235383e-05 5.6383618058483643e-05 2.0796016635545489e-05 -1.4170453961743366e-05 -4.762110274097008e-05 -1.2114816890057781e-05 -6.3591096808054948e-05 2.0888915880447377e-05 -3.7340550108261012e-05 -3.0773782699009607e-05 7.8530764564532503e-05 -0.0001443067026037281 -3.0786537407903775e-05 -6.2931890690112469e-05 -7.3168444597833377e-05 -1.3956590400312518e-05 -7.7148264158025722e-05 -0.00012572746063850077 4.4291855210800736e-05 -3.1949313344530311e-05 2.2412705890460479e-05 -6.9935644077066123e-06 -7.4677653505341845e-06 -2.3328763310539055e-05 -3.4630958708582132e-05 -3.8285166120529486e-05 5.8618040419930559e-05 5.0223983380823464e-05 -2.7390982810115592e-05 -2.3592588561181793e-05 1.4057274941237357e-05 7.5255516729074226e-06 1.2674465147523642e-06 2.8303302292771032e-05 -3.1942987200570097e-05 3.6525209120072475e-05 9.4194640916811674e-06 -5.7736574747295185e-05 -6.5863379097856503e-05 -0.00010873203536083129 9.3612721389590395e-06 1.9040088711812074e-05 -2.9591091237814401e-05 -3.5026506889313563e-05 -0.00012197642822367603 -7.7713446731592819e-05 -7.1692226664321431e-05 4.6225358175263319e-05 -2.1402034723306488e-05 -3.5969111383176392e-05 -2.2964489560473803e-05 -4.0797041045098929e-05 -4.9443144208662394e-05 -6.3550416342961788e-06 5.3890066386893664e-06 -5.98986762811208e-05 -6.7214178409576728e-05 -0.00010771838076278082 -1.5384943459145241e-05 -1.8416276865138828e-05 -6.2579671137686832e-05 -5.586987908463594e-05 -2.1309543785383783e-05 -7.5519747036760596e-05 -8.8998518938705054e-05 -7.7414959368715994e-06 -4.0421384609052192e-05 -3.4488278759826324e-05 6.6083386774150777e-05 8.9912169032589577e-05 -8.767279547405678e-05 7.5899644616760455e-05 5.7422128233968156e-05 -4.7618401476450423e-05 -3.8234977307351664e-05 -8.2446716137906696e-05 -3.2347813552414164e-06 6.4634470613346217e-05 -3.0796406293301067e-05 -7.766566753028453e-05 -0.00013053854624274323 -3.6963152619364295e-05 7.9678731868507331e-06 -1.4323793768936544e-05 1.1810943910662371e-05 -8.5451855480375564e-05 -6.8785567549053001e-05 -9.2685817657370113e-05 9.6408257797747968e-06 -5.3964547134827516e-05 3.4325459781997483e-05 -3.0637481202507892e-05 -1.2214915491844092e-05 -8.1198719383257951e-05 -0.00013694357412051463 -5.3333070679580785e-05 -9.5546919649605339e-06 1.7639514433408264e-05 -4.1882945667133607e-05 -2.9311864200042437e-05 -4.3991417870726329e-05 -4.9917391349974349e-05 -3.0000333450674757e-05 -3.573266980435879e-05 -8.1613060266138562e-05 -0.00014465801987609576 -3.7819938252773081e-05 6.8222644232462026e-05 4.6121266536239356e-05 -2.7280172854340836e-05 7.6934111478183312e-05 -9.4335469755593444e-07 -2.6909768112494382e-05 5.8637694626722733e-05 0.00010225642338452905 -7.7455831400150693e-05 -5.4279515168000232e-05 -2.5433579532741392e-05 -6.6600754559869007e-05 6.9640364263097053e-06 -3.1444221374792452e-05 -3.5674344556438337e-05 5.9328376315303556e-05 -4.8359447628103592e-05 -1.8505249301543317e-05 -1.1852855746951342e-05 2.4997904092808991e-05 5.4685746842951261e-05 9.8872175033940315e-05 5.3166714917731974e-05 8.0420860864897182e-06 -1.2940183028107096e-05 3.0587024887230145e-05 -3.6560822269244815e-05 -6.0886585085355747e-05 -5.1981065110783019e-05 -5.6556150984293189e-05 5.8606331120238542e-06 2.8384590790285296e-05 -1.9288992036122455e-05 -1.1895549693400438e-05 -3.4615499154972726e-05 -2.1885421851425833e-05 -3.3440044558780648e-05 -1.4602901975676284e-05 -1.0956311236738213e-05 -1.8593332233099284e-05 0.000131588012876443 -3.3136112684074788e-05 -3.4622200065811135e-05 1.3667202427391882e-06 0.00010324966828702698 0.00010305482560813453 5.3527883835114299e-05 2.2569759939132517e-06 1.0104302739977861e-06 5.5975045348230154e-05 1.7223069024669899e-06 -3.4629515816234056e-05 -3.1391328865571831e-05 -4.6979968408348736e-05 -3.2165221900471754e-05 -4.0588654524920806e-05 -2.0730493860541925e-05 -1.1905197067828624e-05 3.9347448308832238e-05 7.4142278558130686e-05 -1.4672224093981406e-06 -4.2081162725249473e-05 9.4221676280191371e-06 4.2068829627644718e-05 -1.7664522031570992e-05 -2.2032965749572674e-05 -6.1642765602871671e-06 -2.751374119346929e-05 -5.2485431935616516e-06 5.4937604028040604e-06 -4.1989295722647441e-05 -8.630375568634342e-06 2.1551938984045653e-05 -2.8048760627362127e-05 4.5375621165454419e-05 2.6387648916856884e-05 -8.4421447192216306e-06 -6.1072522502862009e-05 -8.4441529204141676e-06 -1.9211826647966431e-06 0.00014900859256299255 0.00013056782574368437 6.1830734372084542e-05 1.0772090243287707e-05 -3.8869339288831808e-05 -4.4208449768266692e-05 -8.46508848555565e-05 -6.6977274445800252e-05 -2.3990526564154905e-05 -8.6829381524807479e-05 -9.0609109125403496e-05 -0.00011174986872839841 -0.0001185612221116883 -2.4354313476711769e-05 -3.0326310188211035e-05 3.4923985852406076e-05 3.1670802175596266e-05 3.9529740344569057e-05 -1.9817241310074018e-06 4.8102480905745449e-06 2.4270284842828713e-05 4.9641385676270361e-05 2.1202953371429006e-06 -3.5636423214721266e-06 3.9530844615305507e-06 -0.00010751651711155727 -0.00013985497602490908 -0.00013609089922891887 -0.00010623004288612162 -1.395858349591988e-05 -3.7892729018348953e-05 -2.5785113966408208e-05 -3.0237521560347552e-05 -3.3394264004430871e-05 -3.0804327110935214e-05 -3.0385425096543572e-05 5.8359032180313523e-05 0.0002839315650994989 -3.9135467988709346e-05 1.9600099356452687e-05 -3.8789166917150685e-06 -2.2164792436575553e-05 3.113376698765007e-05 -2.1196955063087879e-05 5.0723455229212259e-05 9.6455414568517601e-07 -2.8293069924333232e-05 3.3683900977723481e-06 4.0565369762413615e-06 -2.2505610596261841e-05 3.9024358567605537e-05 -3.372065848447125e-05 -2.9366256893333689e-05 -4.8301000734478915e-05 -4.5415734887633587e-05 -1.7814686103215385e-05 -1.0388823927658477e-05 -3.7878599771878076e-05 -2.9190858933052027e-05 -3.1866647364726816e-05 -1.5929321953039887e-05 3.9776037511611052e-06 1.8920781182571743e-05 -5.6346536904383886e-06 8.5717788878648135e-05 3.714335373850193e-05 -2.3250711057038603e-06 1.7419448007358713e-05 -1.4405523167601575e-06 -3.5988864233190906e-05 -8.5044910483949784e-06 -5.4161516945001181e-06 -4.4857296293504632e-06 2.9767541215496018e-05 1.9106400097560622e-06 3.9264751558153177e-06 1.04674165210452e-05 -3.2182717630257259e-05 1.4363109067789371e-05 6.256108378825193e-05 0.00011302646702868614 -2.9143448688988665e-05 -5.1682062124673404e-05 -6.0095072237458663e-05 -2.8860689909648526e-05 -2.2679621493332747e-05 -3.1684752057885738e-05 -1.5087456385903312e-05 -3.9045797282984129e-05 -6.6623452340186171e-06 -1.2681270593106145e-05 -7.7899434204001673e-05 -0.00010583793251578444 -8.8536932510098755e-05 -6.8123129750860865e-05 -2.1590540193682525e-05 -5.2892389267140787e-05 6.197454475425062e-06 -6.2271002465585923e-07 -3.2733371418528217e-05 -3.1513131602785332e-05 -2.4107503495438123e-05 -2.1168654956709077e-05 -6.3582755458911264e-05 -5.2825261594244689e-05 -3.6564528338133874e-05 5.531722771768405e-06 -2.8228213174359595e-05 -6.3008282620968109e-06 -5.4413867294747673e-05 -2.7021965296637986e-05 -3.6595683469861596e-05 2.6189022357551577e-05 5.3708467862067198e-05 -3.2369533678198735e-05 4.4373649561967043e-06 -2.7668017586728738e-06 2.7656604798032003e-05 2.8067095095664525e-05 5.7000702021766866e-05 2.7075229635628757e-06 6.0170759207837238e-05 -2.8836964979209352e-06 -3.306386283109179e-05 -1.3657427418532243e-05 -2.1883405762493802e-05 -2.3717412637193596e-05 -1.9304577609429515e-05 5.0726016655404271e-05 -3.2094836641854871e-05 -3.8693455886100833e-05 -4.4180065240328277e-05 -7.6322267259659911e-05 -3.5585871438582623e-05 2.7318847632805496e-05 3.259976101812256e-06 -4.3012183456223561e-07 5.2946564874502538e-05 -3.2288517285149069e-05 -5.2451612883070266e-05 1.7716734125206946e-05 1.9952847174485936e-05 -1.3602114704780433e-05 -2.4814232264948129e-05 -1.7805908531466012e-05 -8.3854331222364491e-06 8.0314319776904342e-05 -2.080065900324419e-05 -5.4508278019930849e-05 -3.4042740749816612e-05 6.613781110006425e-05 -2.8301289734529228e-05 -4.9205839693291327e-05 -6.4237500451243897e-05 5.4255933615639674e-06 
</DataArray>
</CellData>
</Piece>
</UnstructuredGrid>
</VTKFile>
