<?xml version="1.0"?>
<VTKFile type="UnstructuredGrid" version="0.1" byte_order="LittleEndian">
<UnstructuredGrid>
<Piece NumberOfPoints="3142" NumberOfCells="1054">
<Points>
<DataArray type="Float64" NumberOfComponents="3" format="ascii">
0.5 0.29999999999999999 0 0.54999999999999993 0.29999999999999999 0 0.54999999999999993 0.29999999999999999 0 0.59999999999999976 0.29999999999999999 0 0.59999999999999976 0.29999999999999999 0 0.6499999999999998 0.29999999999999999 0 0.6499999999999998 0.29999999999999999 0 0.69999999999999984 0.29999999999999999 0 0.69999999999999984 0.29999999999999999 0 0.74999999999999989 0.29999999999999999 0 0.74999999999999989 0.29999999999999999 0 0.79999999999999982 0.29999999999999999 0 0.79999999999999982 0.29999999999999999 0 0.84999999999999987 0.29999999999999999 0 0.84999999999999987 0.29999999999999999 0 0.89999999999999991 0.29999999999999999 0 0.89999999999999991 0.29999999999999999 0 0.94999999999999996 0.29999999999999999 0 0.94999999999999996 0.29999999999999999 0 1 0.29999999999999999 0 0.5 0.69999999999999996 0 0.54999999999999993 0.69999999999999996 0 0.54999999999999993 0.69999999999999996 0 0.59999999999999976 0.69999999999999996 0 0.59999999999999976 0.69999999999999996 0 0.6499999999999998 0.69999999999999996 0 0.6499999999999998 0.69999999999999996 0 0.69999999999999984 0.69999999999999996 0 0.69999999999999984 0.69999999999999996 0 0.74999999999999989 0.69999999999999996 0 0.74999999999999989 0.69999999999999996 0 0.79999999999999982 0.69999999999999996 0 0.79999999999999982 0.69999999999999996 0 0.84999999999999987 0.69999999999999996 0 0.84999999999999987 0.69999999999999996 0 0.89999999999999991 0.69999999999999996 0 0.89999999999999991 0.69999999999999996 0 0.94999999999999996 0.69999999999999996 0 0.94999999999999996 0.69999999999999996 0 1 0.69999999999999996 0 0.40076539126862748 0.34589349467022118 0 0.33277555741076909 0.36432196682010132 0 0.36575549820117997 0.31677992835137742 0 0.38083244760691543 0.38531983672244652 0 0.33277555741076909 0.36432196682010132 0 0.40076539126862748 0.34589349467022118 0 0.56836770495988642 0.3523062350852913 0 0.52289427570932567 0.3932284363388488 0 0.52752007115234678 0.33170632466418198 0 0.52752007115234678 0.33170632466418198 0 0.52289427570932567 0.3932284363388488 0 0.49077833859261139 0.35229981449445641 0 0.10000000000041601 1 0 0.053064897599294662 0.95186845269532028 0 0.10266856499240549 0.95548163909968886 0 0.099999999999814668 0 0 0.10266856499169109 0.044518360900210059 0 0.053064897599215843 0.048131547304697528 0 0.050000000000207989 1 0 0.053064897599294662 0.95186845269532028 0 0.10000000000041601 1 0 0.049999999999899652 0 0 0.099999999999814668 0 0 0.053064897599215843 0.048131547304697528 0 0.24999999999941211 0 0 0.29999999999926641 0 0 0.27499999999933927 0.060310814194988557 0 0.30000000000124832 1 0 0.25000000000104028 1 0 0.27609987656793722 0.94991445621608572 0 0.15720202157091859 0.60665697304410315 0 0.19914261668318661 0.62286739485272158 0 0.16500388252850301 0.66612077714085194 0 0.2236846579037573 0.67380363126050236 0 0.16500388252850301 0.66612077714085194 0 0.19914261668318661 0.62286739485272158 0 0.1247745017231483 0.27198077544791172 0 0.168349569971391 0.28054490850913671 0 0.14223753364722069 0.3341983344262433 0 0 0.75000000000034661 0 0 0.7000000000006934 0 0.049706944316475897 0.72477277076253799 0 0 0.30000000000124832 0 0 0.25000000000104028 0 0.049706944316556423 0.27522722923869108 0 0.59999999999999976 0.29999999999999999 0 0.61959173890754571 0.33832250091341232 0 0.56836770495988642 0.3523062350852913 0 0.5 0.69999999999999996 0 0.43323420005758778 0.6913544522562407 0 0.47913475093885149 0.66010775372412711 0 1 0.14999999999961891 0 0.95391631417672862 0.19584263333809451 0 0.93677536231883773 0.14999999999999089 0 1 0.84999999999982645 0 0.95391631417670719 0.89584263333814784 0 0.93677536231884972 0.85000000000000286 0 1 0.84999999999982645 0 0.93677536231884972 0.85000000000000286 0 0.95386563387742829 0.80414874155775029 0 1 0.14999999999961891 0 0.93677536231883773 0.14999999999999089 0 0.95386563387744361 0.1041487415577465 0 0.90416666666660628 0.9041666666666166 0 0.88088768115933802 0.84674609810493673 0 0.93677536231884972 0.85000000000000286 0 0.90416666666668166 0.20416666666667119 0 0.88088768115941807 0.14674609810479519 0 0.93677536231883773 0.14999999999999089 0 0.1247745017231483 0.27198077544791172 0 0.14223753364722069 0.3341983344262433 0 0.093851963071650835 0.30582068233324772 0 0.5 0.69999999999999996 0 0.45582236402875981 0.73896743678908217 0 0.43323420005758778 0.6913544522562407 0 0.55000000000173355 1 0 0.50000000000205869 1 0 0.52122150208832174 0.94089974453840242 0 0.49999999999869432 0 0 0.5499999999988151 0 0 0.52375890611712683 0.059318771819432882 0 0.54999999999999993 0.29999999999999999 0 0.59999999999999976 0.29999999999999999 0 0.56836770495988642 0.3523062350852913 0 0.50202631463681879 0.87892870825713787 0 0.44003836461056539 0.88093474584252718 0 0.45677673713123867 0.84253684404072415 0 0.33403534827021109 0.84402799729020661 0 0.35864759629805099 0.87963482415279515 0 0.30864387279288652 0.89906554525974958 0 0.53245488764484505 0.55078124999999989 0 0.47793794143994173 0.52940715638744962 0 0.53330375813596242 0.50827942741749099 0 0.82709327591102189 0.14937141670914489 0 0.81283102246527783 0.1881007222486438 0 0.77144070960558853 0.14311854477243749 0 0.82709327591091286 0.84937141670920724 0 0.81159157511211755 0.88795995483179491 0 0.76901770135486491 0.84293557325473656 0 0.77144070960558853 0.14311854477243749 0 0.81283102246527783 0.1881007222486438 0 0.76587607630038135 0.18880039518954719 0 0.76901770135486491 0.84293557325473656 0 0.81159157511211755 0.88795995483179491 0 0.76891166905518427 0.88835469571185499 0 0.33403534827021109 0.84402799729020661 0 0.30864387279288652 0.89906554525974958 0 0.29209212897034281 0.84715728365233667 0 0.57412547362576272 0.58273804879550706 0 0.5166924242153631 0.59825134841919447 0 0.53245488764484505 0.55078124999999989 0 0.50202631463681879 0.87892870825713787 0 0.47401147028110507 0.91529957330468115 0 0.44003836461056539 0.88093474584252718 0 0.5 0.69999999999999996 0 0.54999999999999993 0.69999999999999996 0 0.55363780716230748 0.74348740161571747 0 1 0.34999999999993492 0 0.95871855522754235 0.40006508612975411 0 0.95780851984364423 0.34215720972155339 0 1 0.64999999999986979 0 0.9578014258160763 0.65787212321113708 0 0.95867599106212187 0.60011091146651041 0 0.46666084890304671 0.57634471035397938 0 0.47793794143994173 0.52940715638744962 0 0.53245488764484505 0.55078124999999989 0 0.94999999999999996 0.29999999999999999 0 0.89898474358614167 0.25391965591104898 0 0.94399509803921056 0.24399509803922639 0 0.94999999999979179 1 0 0.89898474358632463 0.95391965591118966 0 0.94399509803919068 0.9439950980391687 0 0 0.65000000000104008 0 0.050069554451969707 0.61308520079857043 0 0.046634677244967337 0.671418230738282 0 0 0.35000000000145642 0 0.046389130980076937 0.32668781832131749 0 0.050583896093752537 0.38543522283434112 0 0.50202631463681879 0.87892870825713787 0 0.50627822638148745 0.8263979829520941 0 0.55899371797446828 0.85003102233514438 0 0.54782696902220018 0.79245182748204157 0 0.55899371797446828 0.85003102233514438 0 0.50627822638148745 0.8263979829520941 0 0.50945740445113552 0.75476055527778108 0 0.5 0.69999999999999996 0 0.55363780716230748 0.74348740161571747 0 0.84999999999965292 1 0 0.85170973911348691 0.93569607295217616 0 0.89898474358632463 0.95391965591118966 0 0.84999999999999987 0.29999999999999999 0 0.8517097391133297 0.2356960729520409 0 0.89898474358614167 0.25391965591104898 0 0.86956835336234861 0.571283299838105 0 0.82862096804812391 0.55037090955459045 0 0.86907294890112186 0.52008116128001669 0 0.49102375406324739 0.49123754822244059 0 0.53330375813596242 0.50827942741749099 0 0.47793794143994173 0.52940715638744962 0 0.57611405284611883 0.50165903596042916 0 0.61547661924074692 0.48539576058873962 0 0.62042975506801734 0.54295974692364424 0 0.71406021706547751 0.63292083137662503 0 0.67529834988829951 0.61613270668143583 0 0.71809016091162536 0.58185040402320831 0 0.65000000000104008 1 0 0.62065498684670595 0.95224934003983619 0 0.68015064798562208 0.95924320340003011 0 0.84999999999960507 0 0 0.899991664607802 0.045289349238254978 0 0.85491058998398861 0.060047533455626502 0 0.84999999999999987 0.69999999999999996 0 0.89999166460796554 0.74528934923809909 0 0.85491058998424563 0.76004753345552634 0 0.89999999999999991 0.29999999999999999 0 0.89898474358614167 0.25391965591104898 0 0.94999999999999996 0.29999999999999999 0 0.94999999999979179 1 0 0.89999999999958358 1 0 0.89898474358632463 0.95391965591118966 0 0.86411095495256451 0.42388805655111889 0 0.81308179852519835 0.39754945808726527 0 0.86844634540301924 0.38530937474099819 0 0.5 0.29999999999999999 0 0.49695729691142171 0.25014895411178018 0 0.54248833945060504 0.2520322959927106 0 0.86411095495256451 0.42388805655111889 0 0.81973119833356312 0.43505687159469048 0 0.81308179852519835 0.39754945808726527 0 0.67323294229744413 0.57556450033612505 0 0.71809016091162536 0.58185040402320831 0 0.67529834988829951 0.61613270668143583 0 0.6236733212988993 0.14864538214901801 0 0.68391457121233579 0.14440470121196541 0 0.64011864159029941 0.18789607982138171 0 0 0.050000000000207989 0 0.053064897599215843 0.048131547304697528 0 0.044310582753132287 0.101412518374475 0 0 0.94999999999979179 0 0.0443105827531413 0.89858748162559932 0 0.053064897599294662 0.95186845269532028 0 1 0.34999999999993492 0 1 0.39999999999978308 0 0.95871855522754235 0.40006508612975411 0 1 0.59999999999973963 0 1 0.64999999999986979 0 0.95867599106212187 0.60011091146651041 0 0 0.84999999999965292 0 0.065374659239661639 0.8551091961254178 0 0.0443105827531413 0.89858748162559932 0 0 0.15000000000062411 0 0.044310582753132287 0.101412518374475 0 0.065374659239632718 0.1448908038746782 0 0.16500388252850301 0.66612077714085194 0 0.1020579365089687 0.69352219419301997 0 0.1241190223511371 0.64391885572885044 0 0.14999999999970359 0 0 0.14618258501891079 0.062070108745602003 0 0.10266856499169109 0.044518360900210059 0 0.15000000000062411 1 0 0.10266856499240549 0.95548163909968886 0 0.14617343800780541 0.93808063414349496 0 0.7152569930854884 0.5237994455134295 0 0.67569444444444449 0.53500863336860327 0 0.69385896817107129 0.48377516041410151 0 0.6541250972820879 0.49999999999999989 0 0.62042975506801734 0.54295974692364424 0 0.61547661924074692 0.48539576058873962 0 0.94999999999999996 0.69999999999999996 0 0.94399509803918602 0.75600490196082126 0 0.89999166460796554 0.74528934923809909 0 0.94999999999986839 0 0 0.94399509803922566 0.056004901960802607 0 0.899991664607802 0.045289349238254978 0 0.6541250972820879 0.49999999999999989 0 0.69385896817107129 0.48377516041410151 0 0.67569444444444449 0.53500863336860327 0 0.82862096804812391 0.55037090955459045 0 0.81723410853263523 0.59419663659258926 0 0.77151014687832564 0.54436834383023036 0 0.7250000000005199 0.89375000000045834 0 0.66412543161245952 0.88015090885499059 0 0.68697391633157634 0.84450604838764298 0 0 0.94999999999979179 0 0 0.89999999999958358 0 0.0443105827531413 0.89858748162559932 0 0 0.10000000000041601 0 0 0.050000000000207989 0 0.044310582753132287 0.101412518374475 0 0.16500388252850301 0.66612077714085194 0 0.15332765547575641 0.71200081858233666 0 0.1020579365089687 0.69352219419301997 0 0.90299850604011456 0.79563452813489832 0 0.93677536231884972 0.85000000000000286 0 0.88088768115933802 0.84674609810493673 0 0.90299850604006393 0.09563452813493091 0 0.93677536231883773 0.14999999999999089 0 0.88088768115941807 0.14674609810479519 0 0.68391457121233579 0.14440470121196541 0 0.6865991819015953 0.189116534044597 0 0.64011864159029941 0.18789607982138171 0 0.085622222639554768 0.53333248912060549 0 0.1216098864341134 0.50637075089503902 0 0.1154888278694548 0.56733818459978413 0 0.21858834311891909 0.81980263716112767 0 0.22556077506376701 0.77837424984191617 0 0.26104540868854792 0.81401944968719064 0 0.81723410853263523 0.59419663659258926 0 0.77293540622714185 0.59448302402785813 0 0.77151014687832564 0.54436834383023036 0 0.1154888278694548 0.56733818459978413 0 0.1216098864341134 0.50637075089503902 0 0.14934928745814749 0.55042914607228977 0 0.1216098864341134 0.50637075089503902 0 0.068743045408989428 0.48853989837882689 0 0.113541300460994 0.46208784312094731 0 0.078358742472063481 0.43365249433908948 0 0.113541300460994 0.46208784312094731 0 0.068743045408989428 0.48853989837882689 0 0.83573492347052902 0.36590755630746369 0 0.81308179852519835 0.39754945808726527 0 0.78145581580700685 0.34881365920033602 0 0.57611405284611883 0.50165903596042916 0 0.62042975506801734 0.54295974692364424 0 0.57435499076887508 0.54267261987897775 0 0.86956835336234861 0.571283299838105 0 0.81723410853263523 0.59419663659258926 0 0.82862096804812391 0.55037090955459045 0 0.46666084890304671 0.57634471035397938 0 0.53245488764484505 0.55078124999999989 0 0.5166924242153631 0.59825134841919447 0 0.89999999999999991 0.69999999999999996 0 0.94999999999999996 0.69999999999999996 0 0.89999166460796554 0.74528934923809909 0 0.89999999999973679 0 0 0.94999999999986839 0 0 0.899991664607802 0.045289349238254978 0 0.84999999999960507 0 0 0.89999999999973679 0 0 0.899991664607802 0.045289349238254978 0 0.84999999999999987 0.69999999999999996 0 0.89999999999999991 0.69999999999999996 0 0.89999166460796554 0.74528934923809909 0 0.43545892161006339 0.61093128915313821 0 0.4089290844030305 0.58728915500154233 0 0.46666084890304671 0.57634471035397938 0 0.1650278706801647 0.38791388161335733 0 0.1117088112799664 0.38831403004970022 0 0.14223753364722069 0.3341983344262433 0 0.087545339447545459 0.35122518864182262 0 0.14223753364722069 0.3341983344262433 0 0.1117088112799664 0.38831403004970022 0 0.6916490518212759 0.75387992374886192 0 0.72501250972655151 0.74067302935308721 0 0.72500000000000064 0.7952620967744265 0 0.72501250972655151 0.74067302935308721 0 0.75841349681148107 0.75422312624214749 0 0.72500000000000064 0.7952620967744265 0 0.57412547362576272 0.58273804879550706 0 0.53245488764484505 0.55078124999999989 0 0.57435499076887508 0.54267261987897775 0 1 0.54999999999963112 0 0.95867599106212187 0.60011091146651041 0 0.93732437411268477 0.55911392101136159 0 1 0.44999999999963131 0 0.93814194660195893 0.44426664081746747 0 0.95871855522754235 0.40006508612975411 0 0.4089290844030305 0.58728915500154233 0 0.42644501560315817 0.54603747078095544 0 0.46666084890304671 0.57634471035397938 0 0.89999999999958358 1 0 0.84999999999965292 1 0 0.89898474358632463 0.95391965591118966 0 0.84999999999999987 0.29999999999999999 0 0.89898474358614167 0.25391965591104898 0 0.89999999999999991 0.29999999999999999 0 0.29999999999926641 0 0 0.32541448401678508 0.046215317981507749 0 0.27499999999933927 0.060310814194988557 0 0.30000000000124832 1 0 0.27609987656793722 0.94991445621608572 0 0.32544832635163229 0.95485394099568932 0 0.57412547362576272 0.58273804879550706 0 0.62042975506801734 0.54295974692364424 0 0.63065402604362242 0.59661356661633302 0 0.5 0.29999999999999999 0 0.54248833945060504 0.2520322959927106 0 0.54999999999999993 0.29999999999999999 0 0.67323294229744413 0.57556450033612505 0 0.62042975506801734 0.54295974692364424 0 0.67569444444444449 0.53500863336860327 0 0.6541250972820879 0.49999999999999989 0 0.67569444444444449 0.53500863336860327 0 0.62042975506801734 0.54295974692364424 0 1 0.14999999999961891 0 1 0.19999999999974799 0 0.95391631417672862 0.19584263333809451 0 1 0.84999999999982645 0 1 0.8999999999998336 0 0.95391631417670719 0.89584263333814784 0 1 0.7999999999998193 0 1 0.84999999999982645 0 0.95386563387742829 0.80414874155775029 0 1 0.099999999999753911 0 1 0.14999999999961891 0 0.95386563387744361 0.1041487415577465 0 0.4656888918609538 0.78493261229743638 0 0.50627822638148745 0.8263979829520941 0 0.45677673713123867 0.84253684404072415 0 0.6879972333610942 0.43038561374960838 0 0.72622533758026719 0.40265885511101601 0 0.73483647259922602 0.44789725365921768 0 0.67323294229744413 0.57556450033612505 0 0.67569444444444449 0.53500863336860327 0 0.71809016091162536 0.58185040402320831 0 0.7152569930854884 0.5237994455134295 0 0.71809016091162536 0.58185040402320831 0 0.67569444444444449 0.53500863336860327 0 0.65394964615507722 0.22666784374016369 0 0.59814117807200873 0.23398510860739519 0 0.64011864159029941 0.18789607982138171 0 0.55000000000173355 1 0 0.52122150208832174 0.94089974453840242 0 0.57382506491224949 0.9629411906298494 0 0.39801143831225599 0.16651381068160659 0 0.44288491854585582 0.14116182884956319 0 0.42905200079338551 0.19982395548231649 0 0.47357141910802508 0.1873585799078378 0 0.42905200079338551 0.19982395548231649 0 0.44288491854585582 0.14116182884956319 0 0.90594285160987287 0.4141265964174129 0 0.88594198078881503 0.46167788676578442 0 0.86411095495256451 0.42388805655111889 0 0.65507451745379841 0.92229208810758578 0 0.68015064798562208 0.95924320340003011 0 0.62065498684670595 0.95224934003983619 0 0.35312867752657662 0.084946736076730367 0 0.39591832466117061 0.056982757562006353 0 0.39823268594401579 0.1116623613130045 0 0.43698630808430822 0.080423614171545449 0 0.39823268594401579 0.1116623613130045 0 0.39591832466117061 0.056982757562006353 0 0.4367309254023824 0.92065556789053882 0 0.39641108128798319 0.94356127926187128 0 0.39767323751400468 0.89584229130535065 0 0.35752321586431363 0.9185439911803448 0 0.39767323751400468 0.89584229130535065 0 0.39641108128798319 0.94356127926187128 0 0.77354604466818633 0.40378688774472771 0 0.77972660463949339 0.45529290596363098 0 0.73483647259922602 0.44789725365921768 0 0.5499999999988151 0 0 0.57396793757665954 0.037011367187645222 0 0.52375890611712683 0.059318771819432882 0 0.64753070846764316 0.77332939069435502 0 0.60294066490120068 0.80851322453934582 0 0.59636844454254345 0.75937156204589151 0 0.49102375406324739 0.49123754822244059 0 0.48858720058566618 0.43964267759203868 0 0.53823865529665704 0.45873898050322898 0 0.28307294598219601 0.50789252727458634 0 0.29110487519241501 0.56588143995431495 0 0.25115337790845271 0.54719303014923271 0 0.79680861578988083 0.92656778056766709 0 0.81159157511211755 0.88795995483179491 0 0.85170973911348691 0.93569607295217616 0 0.79680861578956375 0.22656778056752541 0 0.81283102246527783 0.1881007222486438 0 0.8517097391133297 0.2356960729520409 0 0.57412547362576272 0.58273804879550706 0 0.57435499076887508 0.54267261987897775 0 0.62042975506801734 0.54295974692364424 0 0.93814194660195893 0.44426664081746747 0 0.88594198078881503 0.46167788676578442 0 0.90594285160987287 0.4141265964174129 0 0.7152569930854884 0.5237994455134295 0 0.73947346780852752 0.49062440112282169 0 0.77151014687832564 0.54436834383023036 0 0 0.7000000000006934 0 0.046634677244967337 0.671418230738282 0 0.049706944316475897 0.72477277076253799 0 0 0.30000000000124832 0 0.049706944316556423 0.27522722923869108 0 0.046389130980076937 0.32668781832131749 0 0.59814117807200873 0.23398510860739519 0 0.59443395090188023 0.18455690917515069 0 0.64011864159029941 0.18789607982138171 0 0.21858834311891909 0.81980263716112767 0 0.26104540868854792 0.81401944968719064 0 0.2401283238295133 0.85648409884788523 0 0.39536230704883951 0.84069429572832477 0 0.45677673713123867 0.84253684404072415 0 0.44003836461056539 0.88093474584252718 0 0.086179601630648681 0.64647209519980475 0 0.050069554451969707 0.61308520079857043 0 0.1024350934457823 0.60772393977513839 0 0.077693244765132896 0.56932317963405099 0 0.1024350934457823 0.60772393977513839 0 0.050069554451969707 0.61308520079857043 0 0.078358742472063481 0.43365249433908948 0 0.050583896093752537 0.38543522283434112 0 0.1117088112799664 0.38831403004970022 0 0.087545339447545459 0.35122518864182262 0 0.1117088112799664 0.38831403004970022 0 0.050583896093752537 0.38543522283434112 0 0.33403534827021109 0.84402799729020661 0 0.35642984951668422 0.80994399665655703 0 0.39536230704883951 0.84069429572832477 0 0.28307294598219601 0.50789252727458634 0 0.33190227185843768 0.52715113583864037 0 0.29110487519241501 0.56588143995431495 0 0.2236846579037573 0.67380363126050236 0 0.19068556247388771 0.71028988922845504 0 0.16500388252850301 0.66612077714085194 0 0.26104540868854792 0.81401944968719064 0 0.22556077506376701 0.77837424984191617 0 0.2792923945214143 0.77665808831789485 0 0.38244435121258652 0.51653317813019495 0 0.37272913873093971 0.56192925302619479 0 0.33190227185843768 0.52715113583864037 0 0.25195515620380449 0.25883339815888678 0 0.29132859388405002 0.27203693976649962 0 0.24432083401701241 0.3006253385567515 0 0.29348325746214782 0.31350119524708198 0 0.24432083401701241 0.3006253385567515 0 0.29132859388405002 0.27203693976649962 0 0 0.89999999999958358 0 0 0.84999999999965292 0 0.0443105827531413 0.89858748162559932 0 0 0.15000000000062411 0 0 0.10000000000041601 0 0.044310582753132287 0.101412518374475 0 0.59999999999999976 0.69999999999999996 0 0.59636844454254345 0.75937156204589151 0 0.55363780716230748 0.74348740161571747 0 0.1650278706801647 0.38791388161335733 0 0.22033343844674469 0.36963382230740238 0 0.191953871957803 0.42546416763755879 0 0.52289427570932567 0.3932284363388488 0 0.46655310992796922 0.39650496622958609 0 0.49077833859261139 0.35229981449445641 0 0.91696753777131557 0.497780560203536 0 0.88594198078881503 0.46167788676578442 0 0.93814194660195893 0.44426664081746747 0 0.24999999999941211 0 0 0.27499999999933927 0.060310814194988557 0 0.22668068146512929 0.045875643423131329 0 0.25000000000104028 1 0 0.22850979588452081 0.95594428570238643 0 0.27609987656793722 0.94991445621608572 0 0.77846603114747959 0.49850927265137401 0 0.77151014687832564 0.54436834383023036 0 0.73947346780852752 0.49062440112282169 0 0.27499999999933927 0.060310814194988557 0 0.27474541102162192 0.11822029332053539 0 0.24218496799700481 0.089025544070598317 0 0.27270076654418179 0.87751467830216623 0 0.29209212897034281 0.84715728365233667 0 0.30864387279288652 0.89906554525974958 0 0.3096713403101819 0.085471541595262421 0 0.27474541102162192 0.11822029332053539 0 0.27499999999933927 0.060310814194988557 0 0.17933913398461551 0.2350063570234002 0 0.18124454140915969 0.18790916706335251 0 0.224700362040408 0.22206622194729711 0 0.18269480424590959 0.75905448272264375 0 0.22556077506376701 0.77837424984191617 0 0.17777405986036951 0.81832336108265358 0 0.35864759629805099 0.87963482415279515 0 0.33403534827021109 0.84402799729020661 0 0.39536230704883951 0.84069429572832477 0 0.77354604466818633 0.40378688774472771 0 0.73483647259922602 0.44789725365921768 0 0.72622533758026719 0.40265885511101601 0 0.80185942888539485 0.77452061303608133 0 0.85491058998424563 0.76004753345552634 0 0.84725310900444062 0.80779732082917555 0 0.80185942888501827 0.074520613036224564 0 0.85491058998398861 0.060047533455626502 0 0.84725310900442086 0.10779732082922661 0 0.086179601630648681 0.64647209519980475 0 0.046634677244967337 0.671418230738282 0 0.050069554451969707 0.61308520079857043 0 0.087545339447545459 0.35122518864182262 0 0.050583896093752537 0.38543522283434112 0 0.046389130980076937 0.32668781832131749 0 0 0.75000000000034661 0 0.049706944316475897 0.72477277076253799 0 0.04408157711937423 0.7728941757575627 0 0 0.25000000000104028 0 0.044081577119474857 0.2271058242433576 0 0.049706944316556423 0.27522722923869108 0 0.52289427570932567 0.3932284363388488 0 0.56836770495988642 0.3523062350852913 0 0.57744073070774993 0.41535148636609359 0 0.6084546825910605 0.37989672713932537 0 0.57744073070774993 0.41535148636609359 0 0.56836770495988642 0.3523062350852913 0 0.61343887413683884 0.856862479058357 0 0.55899371797446828 0.85003102233514438 0 0.60294066490120068 0.80851322453934582 0 0.54782696902220018 0.79245182748204157 0 0.60294066490120068 0.80851322453934582 0 0.55899371797446828 0.85003102233514438 0 0.40326160981139969 0.73346192995102844 0 0.36622285152418499 0.69092437780804039 0 0.43323420005758778 0.6913544522562407 0 0.52289427570932567 0.3932284363388488 0 0.48858720058566618 0.43964267759203868 0 0.46655310992796922 0.39650496622958609 0 0.15720202157091859 0.60665697304410315 0 0.1154888278694548 0.56733818459978413 0 0.14934928745814749 0.55042914607228977 0 0.6879972333610942 0.43038561374960838 0 0.73483647259922602 0.44789725365921768 0 0.69385896817107129 0.48377516041410151 0 0.7250000000005199 0.89375000000045834 0 0.68987011941058407 0.92105047536677087 0 0.66412543161245952 0.88015090885499059 0 0.83573492347052902 0.36590755630746369 0 0.78145581580700685 0.34881365920033602 0 0.82500000000000062 0.33010209762754811 0 0.82862096804812391 0.55037090955459045 0 0.81441713509985358 0.51161854125224959 0 0.86907294890112186 0.52008116128001669 0 0.19670163708476801 0.31472518408333222 0 0.14223753364722069 0.3341983344262433 0 0.168349569971391 0.28054490850913671 0 0.50202631463681879 0.87892870825713787 0 0.45677673713123867 0.84253684404072415 0 0.50627822638148745 0.8263979829520941 0 0.099999999999814668 0 0 0.14999999999970359 0 0 0.10266856499169109 0.044518360900210059 0 0.15000000000062411 1 0 0.10000000000041601 1 0 0.10266856499240549 0.95548163909968886 0 0.67323294229744413 0.57556450033612505 0 0.63065402604362242 0.59661356661633302 0 0.62042975506801734 0.54295974692364424 0 0.083105206071467416 0.20007701332709979 0 0.13737030665753211 0.20313708640667491 0 0.095326043202144745 0.24554465089224409 0 0.083105206071452636 0.79992298667296435 0 0.090953281884486245 0.7564451946902494 0 0.1382744753146134 0.79650574229207483 0 0.50000000000205869 1 0 0.47135117303824892 0.95556877749289892 0 0.52122150208832174 0.94089974453840242 0 0.49999999999869432 0 0 0.52375890611712683 0.059318771819432882 0 0.47040171442036788 0.044141676406503738 0 0.4656888918609538 0.78493261229743638 0 0.45582236402875981 0.73896743678908217 0 0.50945740445113552 0.75476055527778108 0 0.5 0.69999999999999996 0 0.50945740445113552 0.75476055527778108 0 0.45582236402875981 0.73896743678908217 0 0.55306006949600994 0.20198184231352201 0 0.56202748619534593 0.15054058349222879 0 0.59443395090188023 0.18455690917515069 0 0.6236733212988993 0.14864538214901801 0 0.59443395090188023 0.18455690917515069 0 0.56202748619534593 0.15054058349222879 0 0.57412547362576272 0.58273804879550706 0 0.5498280205245758 0.6290146943450976 0 0.5166924242153631 0.59825134841919447 0 0.91696753777131557 0.497780560203536 0 0.93814194660195893 0.44426664081746747 0 0.96228564064454991 0.48206450662049471 0 0.15720202157091859 0.60665697304410315 0 0.16500388252850301 0.66612077714085194 0 0.1241190223511371 0.64391885572885044 0 0.44288491854585582 0.14116182884956319 0 0.47881186583059909 0.093591717165689425 0 0.48466639505193998 0.1421439844745814 0 1 0.54999999999963112 0 0.93732437411268477 0.55911392101136159 0 0.95631871884947484 0.51827533208233789 0 0.57724883562309992 0.92155686857100794 0 0.57382506491224949 0.9629411906298494 0 0.52122150208832174 0.94089974453840242 0 0.85170973911348691 0.93569607295217616 0 0.81159157511211755 0.88795995483179491 0 0.85600844944837662 0.88483418979512773 0 0.8517097391133297 0.2356960729520409 0 0.81283102246527783 0.1881007222486438 0 0.85600844944842547 0.1848341897950983 0 0.27866744612395528 0.38416094670951489 0 0.29124338931648802 0.43334555462578611 0 0.24049127783545701 0.41270748208749802 0 0.6084546825910605 0.37989672713932537 0 0.56836770495988642 0.3523062350852913 0 0.61959173890754571 0.33832250091341232 0 0.20050006573841939 0.53248514016039872 0 0.25115337790845271 0.54719303014923271 0 0.22549374774072969 0.58452645269293457 0 0.26573297623774761 0.59828298563722948 0 0.22549374774072969 0.58452645269293457 0 0.25115337790845271 0.54719303014923271 0 0.26104540868854792 0.81401944968719064 0 0.29209212897034281 0.84715728365233667 0 0.2401283238295133 0.85648409884788523 0 0.6236733212988993 0.14864538214901801 0 0.65290632656860115 0.11434202593454081 0 0.68391457121233579 0.14440470121196541 0 0.19901705110390991 0.9175543425573498 0 0.19741632902693801 0.86755867406447229 0 0.24536017905392571 0.90704567837671446 0 0.72500000000000064 0.7952620967744265 0 0.76901770135486491 0.84293557325473656 0 0.72863726579783861 0.85390518901155588 0 0.72500000000000064 0.7952620967744265 0 0.72863726579783861 0.85390518901155588 0 0.68697391633157634 0.84450604838764298 0 0.7250000000005199 0.89375000000045834 0 0.68697391633157634 0.84450604838764298 0 0.72863726579783861 0.85390518901155588 0 0.72525833953073282 0.1032114801687094 0 0.77144070960558853 0.14311854477243749 0 0.72634814642510737 0.16106886917518889 0 0.72525833953073282 0.1032114801687094 0 0.72634814642510737 0.16106886917518889 0 0.68391457121233579 0.14440470121196541 0 0.36622285152418499 0.69092437780804039 0 0.3977710372045391 0.65868194622830212 0 0.43323420005758778 0.6913544522562407 0 0 0.65000000000104008 0 0 0.60000000000138687 0 0.050069554451969707 0.61308520079857043 0 0 0.40000000000166441 0 0 0.35000000000145642 0 0.050583896093752537 0.38543522283434112 0 0.22033343844674469 0.36963382230740238 0 0.24049127783545701 0.41270748208749802 0 0.191953871957803 0.42546416763755879 0 0.5 0.29999999999999999 0 0.4604742573284204 0.27846934318264788 0 0.49695729691142171 0.25014895411178018 0 0.19741632902693801 0.86755867406447229 0 0.2401283238295133 0.85648409884788523 0 0.24536017905392571 0.90704567837671446 0 0 0.50000000000205869 0 0.068743045408989428 0.48853989837882689 0 0.044576108720083309 0.53509043209532614 0 0.15000000000062411 1 0 0.14617343800780541 0.93808063414349496 0 0.18474005699953849 0.96231585248064622 0 0.14999999999970359 0 0 0.184418230509967 0.038773194583122873 0 0.14618258501891079 0.062070108745602003 0 0.57667858002728545 0.078486105337742612 0 0.52375890611712683 0.059318771819432882 0 0.57396793757665954 0.037011367187645222 0 0.113541300460994 0.46208784312094731 0 0.078358742472063481 0.43365249433908948 0 0.13773355295499351 0.42497777642586831 0 0.77354604466818633 0.40378688774472771 0 0.78145581580700685 0.34881365920033602 0 0.81308179852519835 0.39754945808726527 0 0.38244435121258652 0.51653317813019495 0 0.33190227185843768 0.52715113583864037 0 0.35024835142131061 0.48654922671676981 0 0.64753070846764316 0.77332939069435502 0 0.65005442820240822 0.82644988530054031 0 0.60294066490120068 0.80851322453934582 0 0.15720202157091859 0.60665697304410315 0 0.1024350934457823 0.60772393977513839 0 0.1154888278694548 0.56733818459978413 0 0.90416666666660628 0.9041666666666166 0 0.85600844944837662 0.88483418979512773 0 0.88088768115933802 0.84674609810493673 0 0.90416666666668166 0.20416666666667119 0 0.85600844944842547 0.1848341897950983 0 0.88088768115941807 0.14674609810479519 0 0.078358742472063481 0.43365249433908948 0 0.1117088112799664 0.38831403004970022 0 0.13773355295499351 0.42497777642586831 0 0.38244435121258652 0.51653317813019495 0 0.3908716102680424 0.47010282357248828 0 0.43507373378304309 0.49699695397193322 0 0.90299850604011456 0.79563452813489832 0 0.95386563387742829 0.80414874155775029 0 0.93677536231884972 0.85000000000000286 0 0.90416666666660628 0.9041666666666166 0 0.93677536231884972 0.85000000000000286 0 0.95391631417670719 0.89584263333814784 0 0.90299850604006393 0.09563452813493091 0 0.95386563387744361 0.1041487415577465 0 0.93677536231883773 0.14999999999999089 0 0.90416666666668166 0.20416666666667119 0 0.93677536231883773 0.14999999999999089 0 0.95391631417672862 0.19584263333809451 0 0.39536230704883951 0.84069429572832477 0 0.44003836461056539 0.88093474584252718 0 0.39767323751400468 0.89584229130535065 0 0.51076801031701946 0.1202837388510348 0 0.52375890611712683 0.059318771819432882 0 0.54979595918804436 0.1060565713905809 0 0.57667858002728545 0.078486105337742612 0 0.54979595918804436 0.1060565713905809 0 0.52375890611712683 0.059318771819432882 0 0.57724883562309992 0.92155686857100794 0 0.52122150208832174 0.94089974453840242 0 0.54783390826260769 0.89287767010860219 0 0.50202631463681879 0.87892870825713787 0 0.54783390826260769 0.89287767010860219 0 0.52122150208832174 0.94089974453840242 0 0.087545339447545459 0.35122518864182262 0 0.093851963071650835 0.30582068233324772 0 0.14223753364722069 0.3341983344262433 0 0.54999999999999993 0.69999999999999996 0 0.59999999999999976 0.69999999999999996 0 0.55363780716230748 0.74348740161571747 0 0.083105206071452636 0.79992298667296435 0 0.1074251789111534 0.83564394292147814 0 0.065374659239661639 0.8551091961254178 0 0.083105206071467416 0.20007701332709979 0 0.065374659239632718 0.1448908038746782 0 0.106902708054812 0.16453234188234539 0 0.52289427570932567 0.3932284363388488 0 0.53823865529665704 0.45873898050322898 0 0.48858720058566618 0.43964267759203868 0 0.13737030665753211 0.20313708640667491 0 0.14377654328998779 0.2442024734791064 0 0.095326043202144745 0.24554465089224409 0 0.1382744753146134 0.79650574229207483 0 0.090953281884486245 0.7564451946902494 0 0.14335651144331049 0.75565258250209677 0 0.27270076654418179 0.87751467830216623 0 0.30864387279288652 0.89906554525974958 0 0.24536017905392571 0.90704567837671446 0 0.27609987656793722 0.94991445621608572 0 0.24536017905392571 0.90704567837671446 0 0.30864387279288652 0.89906554525974958 0 0.90299850604011456 0.79563452813489832 0 0.84725310900444062 0.80779732082917555 0 0.85491058998424563 0.76004753345552634 0 0.90299850604006393 0.09563452813493091 0 0.84725310900442086 0.10779732082922661 0 0.85491058998398861 0.060047533455626502 0 1 0.54999999999963112 0 1 0.59999999999973963 0 0.95867599106212187 0.60011091146651041 0 1 0.39999999999978308 0 1 0.44999999999963131 0 0.95871855522754235 0.40006508612975411 0 0.28040350263641872 0.23054717217092141 0 0.25195515620380449 0.25883339815888678 0 0.224700362040408 0.22206622194729711 0 0.84999999999999987 0.29999999999999999 0 0.87430060258887643 0.34056085888204451 0 0.82500000000000062 0.33010209762754811 0 0.84999999999999987 0.69999999999999996 0 0.82457059160610424 0.66831947184359608 0 0.87712158428786946 0.65709029563313581 0 0.86956835336234861 0.571283299838105 0 0.87159648282691515 0.61285406320581504 0 0.81723410853263523 0.59419663659258926 0 0.43698630808430822 0.080423614171545449 0 0.47881186583059909 0.093591717165689425 0 0.44288491854585582 0.14116182884956319 0 1 0.44999999999963131 0 0.96228564064454991 0.48206450662049471 0 0.93814194660195893 0.44426664081746747 0 0.35752321586431363 0.9185439911803448 0 0.30864387279288652 0.89906554525974958 0 0.35864759629805099 0.87963482415279515 0 0.29124338931648802 0.43334555462578611 0 0.25982634974572738 0.46097799597715272 0 0.24049127783545701 0.41270748208749802 0 0.51076801031701946 0.1202837388510348 0 0.56202748619534593 0.15054058349222879 0 0.51729576145820033 0.1683240575987815 0 0.55306006949600994 0.20198184231352201 0 0.51729576145820033 0.1683240575987815 0 0.56202748619534593 0.15054058349222879 0 0.26429849586623999 0.19346700179430079 0 0.28040350263641872 0.23054717217092141 0 0.224700362040408 0.22206622194729711 0 0.51076801031701946 0.1202837388510348 0 0.48466639505193998 0.1421439844745814 0 0.47881186583059909 0.093591717165689425 0 0.2185883431182947 0.18019736283949719 0 0.26429849586623999 0.19346700179430079 0 0.224700362040408 0.22206622194729711 0 0.18269480424590959 0.75905448272264375 0 0.2248999640082178 0.72584299459689172 0 0.22556077506376701 0.77837424984191617 0 0.51076801031701946 0.1202837388510348 0 0.47881186583059909 0.093591717165689425 0 0.52375890611712683 0.059318771819432882 0 0.50202631463681879 0.87892870825713787 0 0.52122150208832174 0.94089974453840242 0 0.47401147028110507 0.91529957330468115 0 0 0.84999999999965292 0 0.038512288486097702 0.8155852717111195 0 0.065374659239661639 0.8551091961254178 0 0 0.15000000000062411 0 0.065374659239632718 0.1448908038746782 0 0.038512288486115001 0.1844147282893184 0 0.2185883431182947 0.18019736283949719 0 0.224700362040408 0.22206622194729711 0 0.18124454140915969 0.18790916706335251 0 0.21858834311891909 0.81980263716112767 0 0.17777405986036951 0.81832336108265358 0 0.22556077506376701 0.77837424984191617 0 0.1215415378367805 0.72939333680004137 0 0.1020579365089687 0.69352219419301997 0 0.15332765547575641 0.71200081858233666 0 0.49695729691142171 0.25014895411178018 0 0.50760557329222289 0.20700468884612061 0 0.54248833945060504 0.2520322959927106 0 0.15720202157091859 0.60665697304410315 0 0.14934928745814749 0.55042914607228977 0 0.18381867841758909 0.57774125163628387 0 0.90416666666660628 0.9041666666666166 0 0.85170973911348691 0.93569607295217616 0 0.85600844944837662 0.88483418979512773 0 0.90416666666668166 0.20416666666667119 0 0.8517097391133297 0.2356960729520409 0 0.85600844944842547 0.1848341897950983 0 0.17933913398461551 0.2350063570234002 0 0.13737030665753211 0.20313708640667491 0 0.18124454140915969 0.18790916706335251 0 0.18269480424590959 0.75905448272264375 0 0.17777405986036951 0.81832336108265358 0 0.1382744753146134 0.79650574229207483 0 0.1216098864341134 0.50637075089503902 0 0.15801167086041079 0.46008690540259539 0 0.16618607197337229 0.50652878253548905 0 0.50760557329222289 0.20700468884612061 0 0.55306006949600994 0.20198184231352201 0 0.54248833945060504 0.2520322959927106 0 0.75000000000034661 1 0 0.7000000000006934 1 0 0.7250000000005199 0.94981617647078953 0 0.69999999999999984 0.29999999999999999 0 0.72500000000000064 0.2498161764706 0 0.74999999999999989 0.29999999999999999 0 0.72525833953073282 0.1032114801687094 0 0.68391457121233579 0.14440470121196541 0 0.68330259535470161 0.10038702501083881 0 0.43249999999999988 0.43937499999999979 0 0.46655310992796922 0.39650496622958609 0 0.48858720058566618 0.43964267759203868 0 0.19901705110390991 0.9175543425573498 0 0.14617343800780541 0.93808063414349496 0 0.16206583317966519 0.89685560785156404 0 0.19922788606653311 0.085920220746880993 0 0.16141998738593399 0.10404039647458049 0 0.14618258501891079 0.062070108745602003 0 0.31378396441836959 0.70157213313026345 0 0.26439878998046262 0.7048065392091396 0 0.27820712747429932 0.65530134213254643 0 0.1216098864341134 0.50637075089503902 0 0.113541300460994 0.46208784312094731 0 0.15801167086041079 0.46008690540259539 0 0.6084546825910605 0.37989672713932537 0 0.65481233915350323 0.35652751921065562 0 0.63912439215427275 0.41063340167983359 0 0.19901705110390991 0.9175543425573498 0 0.18474005699953849 0.96231585248064622 0 0.14617343800780541 0.93808063414349496 0 0.19922788606653311 0.085920220746880993 0 0.14618258501891079 0.062070108745602003 0 0.184418230509967 0.038773194583122873 0 0.38244435121258652 0.51653317813019495 0 0.35024835142131061 0.48654922671676981 0 0.3908716102680424 0.47010282357248828 0 0.82709327591102189 0.14937141670914489 0 0.77144070960558853 0.14311854477243749 0 0.80076557130237269 0.1154587552654202 0 0.82709327591091286 0.84937141670920724 0 0.76901770135486491 0.84293557325473656 0 0.80041942726660109 0.81543261647703358 0 0.43698630808430822 0.080423614171545449 0 0.44288491854585582 0.14116182884956319 0 0.39823268594401579 0.1116623613130045 0 0.39801143831225599 0.16651381068160659 0 0.39823268594401579 0.1116623613130045 0 0.44288491854585582 0.14116182884956319 0 0.36575549820117997 0.31677992835137742 0 0.3786248352540974 0.27082301512024259 0 0.41914690343363781 0.30688979866601612 0 0.42377727103934271 0.25099357235810238 0 0.41914690343363781 0.30688979866601612 0 0.3786248352540974 0.27082301512024259 0 0.049706944316475897 0.72477277076253799 0 0.1020579365089687 0.69352219419301997 0 0.090953281884486245 0.7564451946902494 0 0.1215415378367805 0.72939333680004137 0 0.090953281884486245 0.7564451946902494 0 0.1020579365089687 0.69352219419301997 0 0.1247745017231483 0.27198077544791172 0 0.093851963071650835 0.30582068233324772 0 0.095326043202144745 0.24554465089224409 0 0.049706944316556423 0.27522722923869108 0 0.095326043202144745 0.24554465089224409 0 0.093851963071650835 0.30582068233324772 0 0.77354604466818633 0.40378688774472771 0 0.81973119833356312 0.43505687159469048 0 0.77972660463949339 0.45529290596363098 0 0.43249999999999988 0.43937499999999979 0 0.43507373378304309 0.49699695397193322 0 0.3908716102680424 0.47010282357248828 0 0.26573297623774761 0.59828298563722948 0 0.2459498854893499 0.63248470766216769 0 0.22549374774072969 0.58452645269293457 0 0.72500000000000064 0.7952620967744265 0 0.77094201086366854 0.79647480515688507 0 0.76901770135486491 0.84293557325473656 0 0.72525833953073282 0.1032114801687094 0 0.76878382444651716 0.097147941686331368 0 0.77144070960558853 0.14311854477243749 0 0.72500000000000064 0.7952620967744265 0 0.68697391633157634 0.84450604838764298 0 0.68024162096458085 0.79868546898116533 0 0.31378396441836959 0.70157213313026345 0 0.29904318922293632 0.74132814928635593 0 0.26439878998046262 0.7048065392091396 0 0.31378396441836959 0.70157213313026345 0 0.35415581127540569 0.73730480045900215 0 0.29904318922293632 0.74132814928635593 0 0.61343887413683884 0.856862479058357 0 0.65005442820240822 0.82644988530054031 0 0.66412543161245952 0.88015090885499059 0 0.68697391633157634 0.84450604838764298 0 0.66412543161245952 0.88015090885499059 0 0.65005442820240822 0.82644988530054031 0 0.083411279318375747 0.91030024466934134 0 0.065374659239661639 0.8551091961254178 0 0.10562472963403439 0.87143394428979881 0 0.083411279318303222 0.089699755330707398 0 0.1053400320299198 0.12877248826361379 0 0.065374659239632718 0.1448908038746782 0 0.55306006949600994 0.20198184231352201 0 0.59443395090188023 0.18455690917515069 0 0.59814117807200873 0.23398510860739519 0 0.84999999999999987 0.29999999999999999 0 0.89999999999999991 0.29999999999999999 0 0.87430060258887643 0.34056085888204451 0 0.84999999999999987 0.69999999999999996 0 0.87712158428786946 0.65709029563313581 0 0.89999999999999991 0.69999999999999996 0 0.34258405725730701 0.4444034294386992 0 0.3908716102680424 0.47010282357248828 0 0.35024835142131061 0.48654922671676981 0 0.26573297623774761 0.59828298563722948 0 0.31502927232353312 0.6134992213375432 0 0.27820712747429932 0.65530134213254643 0 0.91696753777131557 0.497780560203536 0 0.86907294890112186 0.52008116128001669 0 0.88594198078881503 0.46167788676578442 0 0.84723782639812573 0.48638347960178252 0 0.88594198078881503 0.46167788676578442 0 0.86907294890112186 0.52008116128001669 0 0.7152569930854884 0.5237994455134295 0 0.77151014687832564 0.54436834383023036 0 0.71809016091162536 0.58185040402320831 0 0.90416666666660628 0.9041666666666166 0 0.89898474358632463 0.95391965591118966 0 0.85170973911348691 0.93569607295217616 0 0.90416666666668166 0.20416666666667119 0 0.89898474358614167 0.25391965591104898 0 0.8517097391133297 0.2356960729520409 0 0.91750694127107502 0.36982372220068471 0 0.95780851984364423 0.34215720972155339 0 0.95871855522754235 0.40006508612975411 0 0.91750694127105259 0.63017627779935648 0 0.95867599106212187 0.60011091146651041 0 0.9578014258160763 0.65787212321113708 0 0.90299850604011456 0.79563452813489832 0 0.88088768115933802 0.84674609810493673 0 0.84725310900444062 0.80779732082917555 0 0.90299850604006393 0.09563452813493091 0 0.88088768115941807 0.14674609810479519 0 0.84725310900442086 0.10779732082922661 0 0.1216098864341134 0.50637075089503902 0 0.16618607197337229 0.50652878253548905 0 0.14934928745814749 0.55042914607228977 0 0.20050006573841939 0.53248514016039872 0 0.14934928745814749 0.55042914607228977 0 0.16618607197337229 0.50652878253548905 0 0.80185942888539485 0.77452061303608133 0 0.84725310900444062 0.80779732082917555 0 0.80041942726660109 0.81543261647703358 0 0.80185942888501827 0.074520613036224564 0 0.84725310900442086 0.10779732082922661 0 0.80076557130237269 0.1154587552654202 0 0.083105206071452636 0.79992298667296435 0 0.065374659239661639 0.8551091961254178 0 0.038512288486097702 0.8155852717111195 0 0.083105206071467416 0.20007701332709979 0 0.038512288486115001 0.1844147282893184 0 0.065374659239632718 0.1448908038746782 0 0.54782696902220018 0.79245182748204157 0 0.59636844454254345 0.75937156204589151 0 0.60294066490120068 0.80851322453934582 0 0.083411279318375747 0.91030024466934134 0 0.0443105827531413 0.89858748162559932 0 0.065374659239661639 0.8551091961254178 0 0.083411279318303222 0.089699755330707398 0 0.065374659239632718 0.1448908038746782 0 0.044310582753132287 0.101412518374475 0 0.84999999999965292 1 0 0.81486180804382891 0.96321394949790495 0 0.85170973911348691 0.93569607295217616 0 0.84999999999999987 0.29999999999999999 0 0.81486180804364938 0.26321394949780091 0 0.8517097391133297 0.2356960729520409 0 0.4656888918609538 0.78493261229743638 0 0.45677673713123867 0.84253684404072415 0 0.42609163930740518 0.80361684430568059 0 0.39536230704883951 0.84069429572832477 0 0.42609163930740518 0.80361684430568059 0 0.45677673713123867 0.84253684404072415 0 0.6236733212988993 0.14864538214901801 0 0.56202748619534593 0.15054058349222879 0 0.58516465772821369 0.11653801664834119 0 0.57412547362576272 0.58273804879550706 0 0.63065402604362242 0.59661356661633302 0 0.5991018319127801 0.62925360607495295 0 0.61343887413683884 0.856862479058357 0 0.5832743223239254 0.88483152652961872 0 0.55899371797446828 0.85003102233514438 0 0.50202631463681879 0.87892870825713787 0 0.55899371797446828 0.85003102233514438 0 0.54783390826260769 0.89287767010860219 0 0.51076801031701946 0.1202837388510348 0 0.54979595918804436 0.1060565713905809 0 0.56202748619534593 0.15054058349222879 0 0.55306006949600994 0.20198184231352201 0 0.59814117807200873 0.23398510860739519 0 0.54248833945060504 0.2520322959927106 0 0.83573492347052902 0.36590755630746369 0 0.82500000000000062 0.33010209762754811 0 0.87430060258887643 0.34056085888204451 0 0.83758014339878906 0.63222013025741819 0 0.87712158428786946 0.65709029563313581 0 0.82457059160610424 0.66831947184359608 0 0.49102375406324739 0.49123754822244059 0 0.53823865529665704 0.45873898050322898 0 0.53330375813596242 0.50827942741749099 0 0.52289427570932567 0.3932284363388488 0 0.57744073070774993 0.41535148636609359 0 0.53823865529665704 0.45873898050322898 0 0.4089290844030305 0.58728915500154233 0 0.37272913873093971 0.56192925302619479 0 0.42644501560315817 0.54603747078095544 0 0.49695729691142171 0.25014895411178018 0 0.4604742573284204 0.27846934318264788 0 0.46429753744194407 0.22870891180733599 0 0.90299850604011456 0.79563452813489832 0 0.85491058998424563 0.76004753345552634 0 0.89999166460796554 0.74528934923809909 0 0.90299850604006393 0.09563452813493091 0 0.85491058998398861 0.060047533455626502 0 0.899991664607802 0.045289349238254978 0 0.38244435121258652 0.51653317813019495 0 0.42644501560315817 0.54603747078095544 0 0.37272913873093971 0.56192925302619479 0 0.71406021706547751 0.63292083137662503 0 0.71809016091162536 0.58185040402320831 0 0.74994237037456724 0.62775548192980357 0 0.84723782639812573 0.48638347960178252 0 0.86907294890112186 0.52008116128001669 0 0.81441713509985358 0.51161854125224959 0 0.33122374654748771 0.57588941099433744 0 0.33190227185843768 0.52715113583864037 0 0.37272913873093971 0.56192925302619479 0 0.086179601630648681 0.64647209519980475 0 0.1241190223511371 0.64391885572885044 0 0.1020579365089687 0.69352219419301997 0 0.59999999999894682 0 0 0.64999999999907843 0 0 0.61940220174112337 0.047251958781050582 0 0.18269480424590959 0.75905448272264375 0 0.14335651144331049 0.75565258250209677 0 0.15332765547575641 0.71200081858233666 0 0.22549374774072969 0.58452645269293457 0 0.2459498854893499 0.63248470766216769 0 0.19914261668318661 0.62286739485272158 0 0.38244435121258652 0.51653317813019495 0 0.43507373378304309 0.49699695397193322 0 0.42644501560315817 0.54603747078095544 0 0.65000000000104008 1 0 0.60000000000138687 1 0 0.62065498684670595 0.95224934003983619 0 0.078358742472063481 0.43365249433908948 0 0.068743045408989428 0.48853989837882689 0 0.033550201249889847 0.46247875832467239 0 0.2236846579037573 0.67380363126050236 0 0.27820712747429932 0.65530134213254643 0 0.26439878998046262 0.7048065392091396 0 0.6879972333610942 0.43038561374960838 0 0.68128176404677243 0.38629093627004979 0 0.72622533758026719 0.40265885511101601 0 0.72525833953073282 0.1032114801687094 0 0.7010294155333181 0.056779085686491267 0 0.7527966693318906 0.053051678021508272 0 0.18269480424590959 0.75905448272264375 0 0.15332765547575641 0.71200081858233666 0 0.19068556247388771 0.71028988922845504 0 0.1216098864341134 0.50637075089503902 0 0.085622222639554768 0.53333248912060549 0 0.068743045408989428 0.48853989837882689 0 0.25676291524611189 0.7436741304886243 0 0.26439878998046262 0.7048065392091396 0 0.29904318922293632 0.74132814928635593 0 0.65481233915350323 0.35652751921065562 0 0.68128176404677243 0.38629093627004979 0 0.63912439215427275 0.41063340167983359 0 0.83573492347052902 0.36590755630746369 0 0.86844634540301924 0.38530937474099819 0 0.81308179852519835 0.39754945808726527 0 0.27270076654418179 0.87751467830216623 0 0.2401283238295133 0.85648409884788523 0 0.29209212897034281 0.84715728365233667 0 0.84999999999999987 0.69999999999999996 0 0.85491058998424563 0.76004753345552634 0 0.81864958914779962 0.73589050177899629 0 0.84999999999960507 0 0 0.85491058998398861 0.060047533455626502 0 0.81864958914740749 0.035890501779055867 0 0.18381867841758909 0.57774125163628387 0 0.19914261668318661 0.62286739485272158 0 0.15720202157091859 0.60665697304410315 0 0.22549374774072969 0.58452645269293457 0 0.19914261668318661 0.62286739485272158 0 0.18381867841758909 0.57774125163628387 0 0.79680861578988083 0.92656778056766709 0 0.85170973911348691 0.93569607295217616 0 0.81486180804382891 0.96321394949790495 0 0.79680861578956375 0.22656778056752541 0 0.8517097391133297 0.2356960729520409 0 0.81486180804364938 0.26321394949780091 0 0.20050006573841939 0.53248514016039872 0 0.23975172658309729 0.49475499200540818 0 0.25115337790845271 0.54719303014923271 0 0.28307294598219601 0.50789252727458634 0 0.25115337790845271 0.54719303014923271 0 0.23975172658309729 0.49475499200540818 0 0.20050006573841939 0.53248514016039872 0 0.18381867841758909 0.57774125163628387 0 0.14934928745814749 0.55042914607228977 0 0.19922788606653311 0.085920220746880993 0 0.22985637510995899 0.1298347970200906 0 0.18652628422869419 0.14162325200928061 0 0.33758650185219202 0.23837101504325639 0 0.38831533174504851 0.2189834941785925 0 0.3786248352540974 0.27082301512024259 0 0.42377727103934271 0.25099357235810238 0 0.3786248352540974 0.27082301512024259 0 0.38831533174504851 0.2189834941785925 0 0.19922788606653311 0.085920220746880993 0 0.18652628422869419 0.14162325200928061 0 0.16141998738593399 0.10404039647458049 0 0.54782696902220018 0.79245182748204157 0 0.55363780716230748 0.74348740161571747 0 0.59636844454254345 0.75937156204589151 0 0.82709327591091286 0.84937141670920724 0 0.88088768115933802 0.84674609810493673 0 0.85600844944837662 0.88483418979512773 0 0.82709327591102189 0.14937141670914489 0 0.88088768115941807 0.14674609810479519 0 0.85600844944842547 0.1848341897950983 0 0.27866744612395528 0.38416094670951489 0 0.22033343844674469 0.36963382230740238 0 0.25966125648670141 0.34351016742083729 0 0 0.50000000000205869 0 0.033550201249889847 0.46247875832467239 0 0.068743045408989428 0.48853989837882689 0 0.31378396441836959 0.70157213313026345 0 0.36622285152418499 0.69092437780804039 0 0.35415581127540569 0.73730480045900215 0 0.77293540622714185 0.59448302402785813 0 0.71809016091162536 0.58185040402320831 0 0.77151014687832564 0.54436834383023036 0 0.7152569930854884 0.5237994455134295 0 0.69385896817107129 0.48377516041410151 0 0.73947346780852752 0.49062440112282169 0 0.15801167086041079 0.46008690540259539 0 0.191953871957803 0.42546416763755879 0 0.19604738184454831 0.47787523520405789 0 0.57667858002728545 0.078486105337742612 0 0.61940220174112337 0.047251958781050582 0 0.61956000905586006 0.1043312481793135 0 0.65408113592120842 0.073941773121567966 0 0.61956000905586006 0.1043312481793135 0 0.61940220174112337 0.047251958781050582 0 0 0.55000000000173355 0 0 0.50000000000205869 0 0.044576108720083309 0.53509043209532614 0 0.65507451745379841 0.92229208810758578 0 0.62065498684670595 0.95224934003983619 0 0.61885627562261258 0.90282959257498208 0 0.57724883562309992 0.92155686857100794 0 0.61885627562261258 0.90282959257498208 0 0.62065498684670595 0.95224934003983619 0 0.91750694127107502 0.36982372220068471 0 0.86844634540301924 0.38530937474099819 0 0.87430060258887643 0.34056085888204451 0 0.91750694127105259 0.63017627779935648 0 0.87712158428786946 0.65709029563313581 0 0.87159648282691515 0.61285406320581504 0 0.33123028043633618 0.77629643437932982 0 0.29904318922293632 0.74132814928635593 0 0.35415581127540569 0.73730480045900215 0 0.86411095495256451 0.42388805655111889 0 0.84925632466077294 0.45359738909549091 0 0.81973119833356312 0.43505687159469048 0 0.43846182030517877 0.64845797726506715 0 0.47913475093885149 0.66010775372412711 0 0.43323420005758778 0.6913544522562407 0 0.18269480424590959 0.75905448272264375 0 0.19068556247388771 0.71028988922845504 0 0.2248999640082178 0.72584299459689172 0 0.39536230704883951 0.84069429572832477 0 0.38586766253264881 0.78219501014812498 0 0.42609163930740518 0.80361684430568059 0 0.59999999999999976 0.69999999999999996 0 0.63221990677827677 0.73442891067859706 0 0.59636844454254345 0.75937156204589151 0 0.27866744612395528 0.38416094670951489 0 0.24049127783545701 0.41270748208749802 0 0.22033343844674469 0.36963382230740238 0 0.82709327591091286 0.84937141670920724 0 0.84725310900444062 0.80779732082917555 0 0.88088768115933802 0.84674609810493673 0 0.82709327591102189 0.14937141670914489 0 0.84725310900442086 0.10779732082922661 0 0.88088768115941807 0.14674609810479519 0 0.1650278706801647 0.38791388161335733 0 0.18434624290945251 0.35208838264196463 0 0.22033343844674469 0.36963382230740238 0 0.4409427642593301 0.35743108089689513 0 0.49077833859261139 0.35229981449445641 0 0.46655310992796922 0.39650496622958609 0 0.80185942888539485 0.77452061303608133 0 0.81864958914779962 0.73589050177899629 0 0.85491058998424563 0.76004753345552634 0 0.80185942888501827 0.074520613036224564 0 0.81864958914740749 0.035890501779055867 0 0.85491058998398861 0.060047533455626502 0 0.29999999999926641 0 0 0.34999999999912063 0 0 0.32541448401678508 0.046215317981507749 0 0.35000000000145642 1 0 0.30000000000124832 1 0 0.32544832635163229 0.95485394099568932 0 0.4656888918609538 0.78493261229743638 0 0.50731287292894423 0.78963574450233831 0 0.50627822638148745 0.8263979829520941 0 0.2185883431182947 0.18019736283949719 0 0.25557216766470708 0.15874861286892261 0 0.26429849586623999 0.19346700179430079 0 1 0.29999999999999999 0 1 0.34999999999993492 0 0.95780851984364423 0.34215720972155339 0 1 0.29999999999999999 0 0.95780851984364423 0.34215720972155339 0 0.94999999999999996 0.29999999999999999 0 1 0.69999999999999996 0 0.94999999999999996 0.69999999999999996 0 0.9578014258160763 0.65787212321113708 0 1 0.69999999999999996 0 0.9578014258160763 0.65787212321113708 0 1 0.64999999999986979 0 0.91750694127107502 0.36982372220068471 0 0.90594285160987287 0.4141265964174129 0 0.86844634540301924 0.38530937474099819 0 0.91750694127105259 0.63017627779935648 0 0.87159648282691515 0.61285406320581504 0 0.91143117093204207 0.58709913730335972 0 0.74999999999999989 0.69999999999999996 0 0.7750489929959945 0.66593931409600093 0 0.79999999999999982 0.69999999999999996 0 0.74999999999999989 0.29999999999999999 0 0.79999999999999982 0.29999999999999999 0 0.78145581580700685 0.34881365920033602 0 0.54999999999999993 0.69999999999999996 0 0.57484956128872922 0.66573805030881994 0 0.59999999999999976 0.69999999999999996 0 0.90299850604011456 0.79563452813489832 0 0.94399509803918602 0.75600490196082126 0 0.95386563387742829 0.80414874155775029 0 0.90416666666660628 0.9041666666666166 0 0.95391631417670719 0.89584263333814784 0 0.94399509803919068 0.9439950980391687 0 0.90299850604006393 0.09563452813493091 0 0.94399509803922566 0.056004901960802607 0 0.95386563387744361 0.1041487415577465 0 0.90416666666668166 0.20416666666667119 0 0.95391631417672862 0.19584263333809451 0 0.94399509803921056 0.24399509803922639 0 0.22278230690790279 0.44824268025881547 0 0.19604738184454831 0.47787523520405789 0 0.191953871957803 0.42546416763755879 0 0.90299850604011456 0.79563452813489832 0 0.89999166460796554 0.74528934923809909 0 0.94399509803918602 0.75600490196082126 0 0.90299850604006393 0.09563452813493091 0 0.899991664607802 0.045289349238254978 0 0.94399509803922566 0.056004901960802607 0 0.49102375406324739 0.49123754822244059 0 0.47793794143994173 0.52940715638744962 0 0.43507373378304309 0.49699695397193322 0 0.90416666666660628 0.9041666666666166 0 0.94399509803919068 0.9439950980391687 0 0.89898474358632463 0.95391965591118966 0 0.90416666666668166 0.20416666666667119 0 0.94399509803921056 0.24399509803922639 0 0.89898474358614167 0.25391965591104898 0 0.65394964615507722 0.22666784374016369 0 0.62657463266645097 0.26524202571255862 0 0.59814117807200873 0.23398510860739519 0 0.6084546825910605 0.37989672713932537 0 0.63912439215427275 0.41063340167983359 0 0.57744073070774993 0.41535148636609359 0 0.61209567303293111 0.44669033081290321 0 0.57744073070774993 0.41535148636609359 0 0.63912439215427275 0.41063340167983359 0 0.25676291524611189 0.7436741304886243 0 0.22556077506376701 0.77837424984191617 0 0.2248999640082178 0.72584299459689172 0 0.61343887413683884 0.856862479058357 0 0.60294066490120068 0.80851322453934582 0 0.65005442820240822 0.82644988530054031 0 0.64999999999907843 0 0 0.66369801598854572 0.036327466368102787 0 0.61940220174112337 0.047251958781050582 0 0.40326160981139969 0.73346192995102844 0 0.38586766253264881 0.78219501014812498 0 0.35415581127540569 0.73730480045900215 0 0.33123028043633618 0.77629643437932982 0 0.35415581127540569 0.73730480045900215 0 0.38586766253264881 0.78219501014812498 0 0.26573297623774761 0.59828298563722948 0 0.29110487519241501 0.56588143995431495 0 0.31502927232353312 0.6134992213375432 0 0.77846603114747959 0.49850927265137401 0 0.81441713509985358 0.51161854125224959 0 0.77151014687832564 0.54436834383023036 0 0.82862096804812391 0.55037090955459045 0 0.77151014687832564 0.54436834383023036 0 0.81441713509985358 0.51161854125224959 0 0.50000000000205869 1 0 0.45000000000187229 1 0 0.47135117303824892 0.95556877749289892 0 0.44999999999882923 0 0 0.49999999999869432 0 0 0.47040171442036788 0.044141676406503738 0 0 0.7000000000006934 0 0 0.65000000000104008 0 0.046634677244967337 0.671418230738282 0 0 0.35000000000145642 0 0 0.30000000000124832 0 0.046389130980076937 0.32668781832131749 0 0.31378396441836959 0.70157213313026345 0 0.27820712747429932 0.65530134213254643 0 0.32263089806001177 0.66003674931826484 0 0.33122374654748771 0.57588941099433744 0 0.31502927232353312 0.6134992213375432 0 0.29110487519241501 0.56588143995431495 0 0.26573297623774761 0.59828298563722948 0 0.27820712747429932 0.65530134213254643 0 0.2459498854893499 0.63248470766216769 0 0.14474682429600511 0.85524784522713515 0 0.16206583317966519 0.89685560785156404 0 0.1241151115713819 0.9045666525468371 0 0.14332333627550789 0.14578431753966009 0 0.12372429750337779 0.095814237875728972 0 0.16141998738593399 0.10404039647458049 0 0.64753070846764316 0.77332939069435502 0 0.59636844454254345 0.75937156204589151 0 0.63221990677827677 0.73442891067859706 0 0.14474682429600511 0.85524784522713515 0 0.1241151115713819 0.9045666525468371 0 0.10562472963403439 0.87143394428979881 0 0.14332333627550789 0.14578431753966009 0 0.1053400320299198 0.12877248826361379 0 0.12372429750337779 0.095814237875728972 0 0.77354604466818633 0.40378688774472771 0 0.81308179852519835 0.39754945808726527 0 0.81973119833356312 0.43505687159469048 0 0.54782696902220018 0.79245182748204157 0 0.50945740445113552 0.75476055527778108 0 0.55363780716230748 0.74348740161571747 0 0.2236846579037573 0.67380363126050236 0 0.2459498854893499 0.63248470766216769 0 0.27820712747429932 0.65530134213254643 0 0.77293540622714185 0.59448302402785813 0 0.74994237037456724 0.62775548192980357 0 0.71809016091162536 0.58185040402320831 0 0 0.79999999999999982 0 0 0.75000000000034661 0 0.04408157711937423 0.7728941757575627 0 0 0.25000000000104028 0 0 0.20000000000083221 0 0.044081577119474857 0.2271058242433576 0 0.19999999999955789 0 0 0.24999999999941211 0 0 0.22668068146512929 0.045875643423131329 0 0.25000000000104028 1 0 0.20000000000083221 1 0 0.22850979588452081 0.95594428570238643 0 0.47357141910802508 0.1873585799078378 0 0.44288491854585582 0.14116182884956319 0 0.48466639505193998 0.1421439844745814 0 0.59999999999999976 0.29999999999999999 0 0.5794309697024993 0.27124795968204829 0 0.62657463266645097 0.26524202571255862 0 0.43249999999999988 0.43937499999999979 0 0.42161023666869668 0.39493916313643851 0 0.46655310992796922 0.39650496622958609 0 0.31068898841644388 0.47541502461811092 0 0.33190227185843768 0.52715113583864037 0 0.28307294598219601 0.50789252727458634 0 0.35024835142131061 0.48654922671676981 0 0.33190227185843768 0.52715113583864037 0 0.31068898841644388 0.47541502461811092 0 0.35864735590330371 0.63903383440414463 0 0.36622285152418499 0.69092437780804039 0 0.32263089806001177 0.66003674931826484 0 0.31378396441836959 0.70157213313026345 0 0.32263089806001177 0.66003674931826484 0 0.36622285152418499 0.69092437780804039 0 0.86956835336234861 0.571283299838105 0 0.90900154012161016 0.53607784105648792 0 0.91143117093204207 0.58709913730335972 0 0.6499999999999998 0.29999999999999999 0 0.65481233915350323 0.35652751921065562 0 0.61959173890754571 0.33832250091341232 0 0.4409427642593301 0.35743108089689513 0 0.46226845272279993 0.31901800744800313 0 0.49077833859261139 0.35229981449445641 0 0.5 0.29999999999999999 0 0.49077833859261139 0.35229981449445641 0 0.46226845272279993 0.31901800744800313 0 0.14999999999970359 0 0 0.19999999999955789 0 0 0.184418230509967 0.038773194583122873 0 0.20000000000083221 1 0 0.15000000000062411 1 0 0.18474005699953849 0.96231585248064622 0 1 0.49999999999950101 0 1 0.54999999999963112 0 0.95631871884947484 0.51827533208233789 0 0.38586766253264881 0.78219501014812498 0 0.42676259796334498 0.76772545931379299 0 0.42609163930740518 0.80361684430568059 0 0.20050006573841939 0.53248514016039872 0 0.22549374774072969 0.58452645269293457 0 0.18381867841758909 0.57774125163628387 0 0.065374659239661639 0.8551091961254178 0 0.1074251789111534 0.83564394292147814 0 0.10562472963403439 0.87143394428979881 0 0.065374659239632718 0.1448908038746782 0 0.1053400320299198 0.12877248826361379 0 0.106902708054812 0.16453234188234539 0 0.1650278706801647 0.38791388161335733 0 0.14223753364722069 0.3341983344262433 0 0.18434624290945251 0.35208838264196463 0 0.43249999999999988 0.43937499999999979 0 0.46111841286828259 0.46690301029591341 0 0.43507373378304309 0.49699695397193322 0 0.83758014339878906 0.63222013025741819 0 0.81723410853263523 0.59419663659258926 0 0.87159648282691515 0.61285406320581504 0 0.19670163708476801 0.31472518408333222 0 0.18434624290945251 0.35208838264196463 0 0.14223753364722069 0.3341983344262433 0 0.75000000000034661 1 0 0.7250000000005199 0.94981617647078953 0 0.770759834363826 0.95919399014344442 0 0.74999999999999989 0.29999999999999999 0 0.72500000000000064 0.2498161764706 0 0.77075983436335049 0.25919399014334171 0 0.69999999999999984 0.29999999999999999 0 0.67933712972090698 0.25920070958121938 0 0.72500000000000064 0.2498161764706 0 0.57611405284611883 0.50165903596042916 0 0.53330375813596242 0.50827942741749099 0 0.53823865529665704 0.45873898050322898 0 0.6499999999999998 0.29999999999999999 0 0.68887083591306764 0.33632058575757479 0 0.65481233915350323 0.35652751921065562 0 0.27866744612395528 0.38416094670951489 0 0.33277555741076909 0.36432196682010132 0 0.31778888742534622 0.40581751814196781 0 0.49102375406324739 0.49123754822244059 0 0.43507373378304309 0.49699695397193322 0 0.46111841286828259 0.46690301029591341 0 0.94999999999999996 0.69999999999999996 0 0.97166519676947294 0.73337114490064459 0 0.94399509803918602 0.75600490196082126 0 0.94999999999986839 0 0 0.97166519676946894 0.033371144900598393 0 0.94399509803922566 0.056004901960802607 0 0.94999999999999996 0.29999999999999999 0 0.94399509803921056 0.24399509803922639 0 0.97166519676951801 0.26662885509932011 0 0.94999999999979179 1 0 0.94399509803919068 0.9439950980391687 0 0.97166519676946206 0.96662885509935492 0 0.34258405725730701 0.4444034294386992 0 0.29124338931648802 0.43334555462578611 0 0.31778888742534622 0.40581751814196781 0 0.27866744612395528 0.38416094670951489 0 0.31778888742534622 0.40581751814196781 0 0.29124338931648802 0.43334555462578611 0 0.36575549820117997 0.31677992835137742 0 0.33277555741076909 0.36432196682010132 0 0.32752639306529541 0.32610012995269699 0 0.35752321586431363 0.9185439911803448 0 0.32544832635163229 0.95485394099568932 0 0.30864387279288652 0.89906554525974958 0 0.27609987656793722 0.94991445621608572 0 0.30864387279288652 0.89906554525974958 0 0.32544832635163229 0.95485394099568932 0 0.33123028043633618 0.77629643437932982 0 0.30857225866488791 0.81101973481716805 0 0.2792923945214143 0.77665808831789485 0 0.33758650185219202 0.23837101504325639 0 0.29132859388405002 0.27203693976649962 0 0.28040350263641872 0.23054717217092141 0 0.4409427642593301 0.35743108089689513 0 0.41914690343363781 0.30688979866601612 0 0.46226845272279993 0.31901800744800313 0 0.14332333627550789 0.14578431753966009 0 0.13737030665753211 0.20313708640667491 0 0.106902708054812 0.16453234188234539 0 0.083105206071467416 0.20007701332709979 0 0.106902708054812 0.16453234188234539 0 0.13737030665753211 0.20313708640667491 0 0.083105206071452636 0.79992298667296435 0 0.1382744753146134 0.79650574229207483 0 0.1074251789111534 0.83564394292147814 0 0.14474682429600511 0.85524784522713515 0 0.1074251789111534 0.83564394292147814 0 0.1382744753146134 0.79650574229207483 0 0.65408113592120842 0.073941773121567966 0 0.7010294155333181 0.056779085686491267 0 0.68330259535470161 0.10038702501083881 0 0.72525833953073282 0.1032114801687094 0 0.68330259535470161 0.10038702501083881 0 0.7010294155333181 0.056779085686491267 0 0.049706944316475897 0.72477277076253799 0 0.046634677244967337 0.671418230738282 0 0.1020579365089687 0.69352219419301997 0 0.086179601630648681 0.64647209519980475 0 0.1020579365089687 0.69352219419301997 0 0.046634677244967337 0.671418230738282 0 0.087545339447545459 0.35122518864182262 0 0.046389130980076937 0.32668781832131749 0 0.093851963071650835 0.30582068233324772 0 0.049706944316556423 0.27522722923869108 0 0.093851963071650835 0.30582068233324772 0 0.046389130980076937 0.32668781832131749 0 0.82709327591091286 0.84937141670920724 0 0.80041942726660109 0.81543261647703358 0 0.84725310900444062 0.80779732082917555 0 0.82709327591102189 0.14937141670914489 0 0.80076557130237269 0.1154587552654202 0 0.84725310900442086 0.10779732082922661 0 0.17933913398461551 0.2350063570234002 0 0.14377654328998779 0.2442024734791064 0 0.13737030665753211 0.20313708640667491 0 0.18269480424590959 0.75905448272264375 0 0.1382744753146134 0.79650574229207483 0 0.14335651144331049 0.75565258250209677 0 0.33758650185219202 0.23837101504325639 0 0.3786248352540974 0.27082301512024259 0 0.33402499257867951 0.28911035184473982 0 0.14332333627550789 0.14578431753966009 0 0.18124454140915969 0.18790916706335251 0 0.13737030665753211 0.20313708640667491 0 0.14474682429600511 0.85524784522713515 0 0.1382744753146134 0.79650574229207483 0 0.17777405986036951 0.81832336108265358 0 0.5 0.29999999999999999 0 0.52752007115234678 0.33170632466418198 0 0.49077833859261139 0.35229981449445641 0 0.27866744612395528 0.38416094670951489 0 0.29644548887253103 0.34914008784168082 0 0.33277555741076909 0.36432196682010132 0 0 0.84999999999965292 0 0 0.79999999999999982 0 0.038512288486097702 0.8155852717111195 0 0 0.20000000000083221 0 0 0.15000000000062411 0 0.038512288486115001 0.1844147282893184 0 0.40326160981139969 0.73346192995102844 0 0.35415581127540569 0.73730480045900215 0 0.36622285152418499 0.69092437780804039 0 0.91696753777131557 0.497780560203536 0 0.96228564064454991 0.48206450662049471 0 0.95631871884947484 0.51827533208233789 0 0.33758650185219202 0.23837101504325639 0 0.31255190597181792 0.19850845631528771 0 0.3572130504031617 0.1874703368446563 0 0.59814117807200873 0.23398510860739519 0 0.62657463266645097 0.26524202571255862 0 0.5794309697024993 0.27124795968204829 0 0.34258405725730701 0.4444034294386992 0 0.31068898841644388 0.47541502461811092 0 0.29124338931648802 0.43334555462578611 0 0.38083244760691543 0.38531983672244652 0 0.35221190152536241 0.40457127605439203 0 0.33277555741076909 0.36432196682010132 0 0.083411279318375747 0.91030024466934134 0 0.10266856499240549 0.95548163909968886 0 0.053064897599294662 0.95186845269532028 0 0.083411279318303222 0.089699755330707398 0 0.053064897599215843 0.048131547304697528 0 0.10266856499169109 0.044518360900210059 0 0.42377727103934271 0.25099357235810238 0 0.4604742573284204 0.27846934318264788 0 0.41914690343363781 0.30688979866601612 0 0.28307294598219601 0.50789252727458634 0 0.25982634974572738 0.46097799597715272 0 0.31068898841644388 0.47541502461811092 0 0.29348325746214782 0.31350119524708198 0 0.29132859388405002 0.27203693976649962 0 0.33402499257867951 0.28911035184473982 0 0.35312867752657662 0.084946736076730367 0 0.39823268594401579 0.1116623613130045 0 0.36246644853392812 0.1399454205365751 0 0.7000000000006934 1 0 0.68015064798562208 0.95924320340003011 0 0.7250000000005199 0.94981617647078953 0 0.42377727103934271 0.25099357235810238 0 0.38831533174504851 0.2189834941785925 0 0.42905200079338551 0.19982395548231649 0 0.53823865529665704 0.45873898050322898 0 0.57744073070774993 0.41535148636609359 0 0.57975577671020095 0.46172033326338591 0 0.33758650185219202 0.23837101504325639 0 0.3572130504031617 0.1874703368446563 0 0.38831533174504851 0.2189834941785925 0 0.29124338931648802 0.43334555462578611 0 0.31068898841644388 0.47541502461811092 0 0.25982634974572738 0.46097799597715272 0 0.6084546825910605 0.37989672713932537 0 0.61959173890754571 0.33832250091341232 0 0.65481233915350323 0.35652751921065562 0 0.40326160981139969 0.73346192995102844 0 0.43323420005758778 0.6913544522562407 0 0.45582236402875981 0.73896743678908217 0 0.33758650185219202 0.23837101504325639 0 0.28040350263641872 0.23054717217092141 0 0.31255190597181792 0.19850845631528771 0 0.79999999999999982 1 0 0.75000000000034661 1 0 0.770759834363826 0.95919399014344442 0 0.74999999999999989 0.29999999999999999 0 0.77075983436335049 0.25919399014334171 0 0.79999999999999982 0.29999999999999999 0 0.6499999999999998 0.29999999999999999 0 0.67933712972090698 0.25920070958121938 0 0.69999999999999984 0.29999999999999999 0 0.39536230704883951 0.84069429572832477 0 0.39767323751400468 0.89584229130535065 0 0.35864759629805099 0.87963482415279515 0 0.54999999999999993 0.69999999999999996 0 0.52584555706968406 0.66664215091846768 0 0.57484956128872922 0.66573805030881994 0 0.35312867752657662 0.084946736076730367 0 0.32541448401678508 0.046215317981507749 0 0.3615861437013822 0.03582617922508851 0 0.35752321586431363 0.9185439911803448 0 0.36184234618600131 0.96443954459096326 0 0.32544832635163229 0.95485394099568932 0 0.35312867752657662 0.084946736076730367 0 0.3615861437013822 0.03582617922508851 0 0.39591832466117061 0.056982757562006353 0 0.35752321586431363 0.9185439911803448 0 0.39641108128798319 0.94356127926187128 0 0.36184234618600131 0.96443954459096326 0 0.083411279318303222 0.089699755330707398 0 0.044310582753132287 0.101412518374475 0 0.053064897599215843 0.048131547304697528 0 0.083411279318375747 0.91030024466934134 0 0.053064897599294662 0.95186845269532028 0 0.0443105827531413 0.89858748162559932 0 0.38083244760691543 0.38531983672244652 0 0.40076539126862748 0.34589349467022118 0 0.42161023666869668 0.39493916313643851 0 0.4409427642593301 0.35743108089689513 0 0.42161023666869668 0.39493916313643851 0 0.40076539126862748 0.34589349467022118 0 0.79999999999999982 0.29999999999999999 0 0.82500000000000062 0.33010209762754811 0 0.78145581580700685 0.34881365920033602 0 0.79999999999999982 0.69999999999999996 0 0.7750489929959945 0.66593931409600093 0 0.82457059160610424 0.66831947184359608 0 0.59999999999999976 0.69999999999999996 0 0.57484956128872922 0.66573805030881994 0 0.62460753523532009 0.66851202781000296 0 0.74999999999999989 0.69999999999999996 0 0.72500000000000064 0.67022701834392062 0 0.7750489929959945 0.66593931409600093 0 0.74999999999999989 0.29999999999999999 0 0.78145581580700685 0.34881365920033602 0 0.73090396928863699 0.33699297293167962 0 0.33758650185219202 0.23837101504325639 0 0.33402499257867951 0.28911035184473982 0 0.29132859388405002 0.27203693976649962 0 0.36575549820117997 0.31677992835137742 0 0.41914690343363781 0.30688979866601612 0 0.40076539126862748 0.34589349467022118 0 0.4409427642593301 0.35743108089689513 0 0.40076539126862748 0.34589349467022118 0 0.41914690343363781 0.30688979866601612 0 0.34258405725730701 0.4444034294386992 0 0.38707855792647411 0.42299362914874578 0 0.3908716102680424 0.47010282357248828 0 0.7000000000006934 1 0 0.65000000000104008 1 0 0.68015064798562208 0.95924320340003011 0 0.49102375406324739 0.49123754822244059 0 0.46111841286828259 0.46690301029591341 0 0.48858720058566618 0.43964267759203868 0 0.4656888918609538 0.78493261229743638 0 0.42676259796334498 0.76772545931379299 0 0.45582236402875981 0.73896743678908217 0 0.40326160981139969 0.73346192995102844 0 0.45582236402875981 0.73896743678908217 0 0.42676259796334498 0.76772545931379299 0 0.59999999999999976 0.29999999999999999 0 0.62657463266645097 0.26524202571255862 0 0.6499999999999998 0.29999999999999999 0 0.40000000000166441 1 0 0.36184234618600131 0.96443954459096326 0 0.39641108128798319 0.94356127926187128 0 0.3999999999989749 0 0 0.39591832466117061 0.056982757562006353 0 0.3615861437013822 0.03582617922508851 0 0.43249999999999988 0.43937499999999979 0 0.48858720058566618 0.43964267759203868 0 0.46111841286828259 0.46690301029591341 0 0.7250000000005199 0.89375000000045834 0 0.7250000000005199 0.94981617647078953 0 0.68987011941058407 0.92105047536677087 0 0.7250000000005199 0.89375000000045834 0 0.75729602384198635 0.92353652857884294 0 0.7250000000005199 0.94981617647078953 0 0.72500000000001008 0.19776155966387679 0 0.75668890529066124 0.2244279804069782 0 0.72500000000000064 0.2498161764706 0 0.72500000000001008 0.19776155966387679 0 0.72500000000000064 0.2498161764706 0 0.69397719155551807 0.2245125647000914 0 0.79999999999999982 0.29999999999999999 0 0.81486180804364938 0.26321394949780091 0 0.84999999999999987 0.29999999999999999 0 0.84999999999965292 1 0 0.79999999999999982 1 0 0.81486180804382891 0.96321394949790495 0 0.1247745017231483 0.27198077544791172 0 0.095326043202144745 0.24554465089224409 0 0.14377654328998779 0.2442024734791064 0 0.1215415378367805 0.72939333680004137 0 0.14335651144331049 0.75565258250209677 0 0.090953281884486245 0.7564451946902494 0 0.72500000000001008 0.19776155966387679 0 0.72634814642510737 0.16106886917518889 0 0.76587607630038135 0.18880039518954719 0 0.72500000000001008 0.19776155966387679 0 0.6865991819015953 0.189116534044597 0 0.72634814642510737 0.16106886917518889 0 0.77144070960558853 0.14311854477243749 0 0.76587607630038135 0.18880039518954719 0 0.72634814642510737 0.16106886917518889 0 0.68391457121233579 0.14440470121196541 0 0.72634814642510737 0.16106886917518889 0 0.6865991819015953 0.189116534044597 0 0.7250000000005199 0.89375000000045834 0 0.72863726579783861 0.85390518901155588 0 0.76891166905518427 0.88835469571185499 0 0.76901770135486491 0.84293557325473656 0 0.76891166905518427 0.88835469571185499 0 0.72863726579783861 0.85390518901155588 0 0 0.20000000000083221 0 0.038512288486115001 0.1844147282893184 0 0.044081577119474857 0.2271058242433576 0 0 0.79999999999999982 0 0.04408157711937423 0.7728941757575627 0 0.038512288486097702 0.8155852717111195 0 0.52375890611712683 0.059318771819432882 0 0.47881186583059909 0.093591717165689425 0 0.47040171442036788 0.044141676406503738 0 0.52122150208832174 0.94089974453840242 0 0.47135117303824892 0.95556877749289892 0 0.47401147028110507 0.91529957330468115 0 0.27474541102162192 0.11822029332053539 0 0.3096713403101819 0.085471541595262421 0 0.32215584939770009 0.1218492143506909 0 0.22278230690790279 0.44824268025881547 0 0.24049127783545701 0.41270748208749802 0 0.25982634974572738 0.46097799597715272 0 0.93732437411268477 0.55911392101136159 0 0.91143117093204207 0.58709913730335972 0 0.90900154012161016 0.53607784105648792 0 0.19901705110390991 0.9175543425573498 0 0.24536017905392571 0.90704567837671446 0 0.22850979588452081 0.95594428570238643 0 0.27609987656793722 0.94991445621608572 0 0.22850979588452081 0.95594428570238643 0 0.24536017905392571 0.90704567837671446 0 0.15720202157091859 0.60665697304410315 0 0.1241190223511371 0.64391885572885044 0 0.1024350934457823 0.60772393977513839 0 0.6499999999999998 0.69999999999999996 0 0.675261390228442 0.65996937624687813 0 0.69999999999999984 0.69999999999999996 0 0.3999999999989749 0 0 0.4320097814748517 0.037406712692169303 0 0.39591832466117061 0.056982757562006353 0 0.40000000000166441 1 0 0.39641108128798319 0.94356127926187128 0 0.4308986359464303 0.96395712492906194 0 0.54999999999999993 0.29999999999999999 0 0.56836770495988642 0.3523062350852913 0 0.52752007115234678 0.33170632466418198 0 0.14474682429600511 0.85524784522713515 0 0.17777405986036951 0.81832336108265358 0 0.19741632902693801 0.86755867406447229 0 0.21858834311891909 0.81980263716112767 0 0.19741632902693801 0.86755867406447229 0 0.17777405986036951 0.81832336108265358 0 0.54782696902220018 0.79245182748204157 0 0.50731287292894423 0.78963574450233831 0 0.50945740445113552 0.75476055527778108 0 0.20000000000083221 1 0 0.18474005699953849 0.96231585248064622 0 0.22850979588452081 0.95594428570238643 0 0.19999999999955789 0 0 0.22668068146512929 0.045875643423131329 0 0.184418230509967 0.038773194583122873 0 0.77846603114747959 0.49850927265137401 0 0.73947346780852752 0.49062440112282169 0 0.77972660463949339 0.45529290596363098 0 0.73483647259922602 0.44789725365921768 0 0.77972660463949339 0.45529290596363098 0 0.73947346780852752 0.49062440112282169 0 0.34258405725730701 0.4444034294386992 0 0.35024835142131061 0.48654922671676981 0 0.31068898841644388 0.47541502461811092 0 0.33123028043633618 0.77629643437932982 0 0.2792923945214143 0.77665808831789485 0 0.29904318922293632 0.74132814928635593 0 0.26573297623774761 0.59828298563722948 0 0.25115337790845271 0.54719303014923271 0 0.29110487519241501 0.56588143995431495 0 0.4656888918609538 0.78493261229743638 0 0.50945740445113552 0.75476055527778108 0 0.50731287292894423 0.78963574450233831 0 0.35312867752657662 0.084946736076730367 0 0.36246644853392812 0.1399454205365751 0 0.32215584939770009 0.1218492143506909 0 0.29348325746214782 0.31350119524708198 0 0.25966125648670141 0.34351016742083729 0 0.24432083401701241 0.3006253385567515 0 0.59999999999999976 0.69999999999999996 0 0.6499999999999998 0.69999999999999996 0 0.63221990677827677 0.73442891067859706 0 0.69999999999921003 0 0 0.7010294155333181 0.056779085686491267 0 0.66369801598854572 0.036327466368102787 0 0.40000000000166441 1 0 0.35000000000145642 1 0 0.36184234618600131 0.96443954459096326 0 0.34999999999912063 0 0 0.3999999999989749 0 0 0.3615861437013822 0.03582617922508851 0 0.43507373378304309 0.49699695397193322 0 0.47793794143994173 0.52940715638744962 0 0.42644501560315817 0.54603747078095544 0 0.14474682429600511 0.85524784522713515 0 0.19741632902693801 0.86755867406447229 0 0.16206583317966519 0.89685560785156404 0 0.19901705110390991 0.9175543425573498 0 0.16206583317966519 0.89685560785156404 0 0.19741632902693801 0.86755867406447229 0 0.35864735590330371 0.63903383440414463 0 0.3977710372045391 0.65868194622830212 0 0.36622285152418499 0.69092437780804039 0 0.7527966693318906 0.053051678021508272 0 0.7010294155333181 0.056779085686491267 0 0.72683645290270404 0.027797073151180601 0 0.71508799138962864 0.36622814920737751 0 0.72622533758026719 0.40265885511101601 0 0.68128176404677243 0.38629093627004979 0 0.79999999999999982 0.69999999999999996 0 0.84999999999999987 0.69999999999999996 0 0.81864958914779962 0.73589050177899629 0 0.79999999999947335 0 0 0.84999999999960507 0 0 0.81864958914740749 0.035890501779055867 0 0.39536230704883951 0.84069429572832477 0 0.35642984951668422 0.80994399665655703 0 0.38586766253264881 0.78219501014812498 0 0.42377727103934271 0.25099357235810238 0 0.46429753744194407 0.22870891180733599 0 0.4604742573284204 0.27846934318264788 0 0.39801143831225599 0.16651381068160659 0 0.42905200079338551 0.19982395548231649 0 0.38831533174504851 0.2189834941785925 0 0.79999999999999982 1 0 0.770759834363826 0.95919399014344442 0 0.81486180804382891 0.96321394949790495 0 0.79999999999999982 0.29999999999999999 0 0.77075983436335049 0.25919399014334171 0 0.81486180804364938 0.26321394949780091 0 0.25195515620380449 0.25883339815888678 0 0.21049769590865089 0.26857363548218488 0 0.224700362040408 0.22206622194729711 0 0.40326160981139969 0.73346192995102844 0 0.42676259796334498 0.76772545931379299 0 0.38586766253264881 0.78219501014812498 0 0.35312867752657662 0.084946736076730367 0 0.3096713403101819 0.085471541595262421 0 0.32541448401678508 0.046215317981507749 0 0.59999999999999976 0.29999999999999999 0 0.6499999999999998 0.29999999999999999 0 0.61959173890754571 0.33832250091341232 0 0.2185883431182947 0.18019736283949719 0 0.18652628422869419 0.14162325200928061 0 0.22985637510995899 0.1298347970200906 0 0.64999999999907843 0 0 0.69999999999921003 0 0 0.66369801598854572 0.036327466368102787 0 0.27499999999933927 0.060310814194988557 0 0.24218496799700481 0.089025544070598317 0 0.22668068146512929 0.045875643423131329 0 0.19922788606653311 0.085920220746880993 0 0.22668068146512929 0.045875643423131329 0 0.24218496799700481 0.089025544070598317 0 0.65507451745379841 0.92229208810758578 0 0.66412543161245952 0.88015090885499059 0 0.68987011941058407 0.92105047536677087 0 0.049706944316475897 0.72477277076253799 0 0.090953281884486245 0.7564451946902494 0 0.04408157711937423 0.7728941757575627 0 0.083105206071452636 0.79992298667296435 0 0.04408157711937423 0.7728941757575627 0 0.090953281884486245 0.7564451946902494 0 0.083105206071467416 0.20007701332709979 0 0.095326043202144745 0.24554465089224409 0 0.044081577119474857 0.2271058242433576 0 0.049706944316556423 0.27522722923869108 0 0.044081577119474857 0.2271058242433576 0 0.095326043202144745 0.24554465089224409 0 0.36575549820117997 0.31677992835137742 0 0.33402499257867951 0.28911035184473982 0 0.3786248352540974 0.27082301512024259 0 0.53245488764484505 0.55078124999999989 0 0.53330375813596242 0.50827942741749099 0 0.57435499076887508 0.54267261987897775 0 0.57611405284611883 0.50165903596042916 0 0.57435499076887508 0.54267261987897775 0 0.53330375813596242 0.50827942741749099 0 0.6499999999999998 0.29999999999999999 0 0.69999999999999984 0.29999999999999999 0 0.68887083591306764 0.33632058575757479 0 0.57611405284611883 0.50165903596042916 0 0.53823865529665704 0.45873898050322898 0 0.57975577671020095 0.46172033326338591 0 0.7750489929959945 0.66593931409600093 0 0.72500000000000064 0.67022701834392062 0 0.74994237037456724 0.62775548192980357 0 0.78145581580700685 0.34881365920033602 0 0.74764719760526988 0.3719647154012321 0 0.73090396928863699 0.33699297293167962 0 0.3999999999989749 0 0 0.44999999999882923 0 0 0.4320097814748517 0.037406712692169303 0 0.45000000000187229 1 0 0.40000000000166441 1 0 0.4308986359464303 0.96395712492906194 0 0.57484956128872922 0.66573805030881994 0 0.5991018319127801 0.62925360607495295 0 0.62460753523532009 0.66851202781000296 0 0.7750489929959945 0.66593931409600093 0 0.79884539758237771 0.62875045078114233 0 0.82457059160610424 0.66831947184359608 0 0.39801143831225599 0.16651381068160659 0 0.36246644853392812 0.1399454205365751 0 0.39823268594401579 0.1116623613130045 0 0.078358742472063481 0.43365249433908948 0 0.033550201249889847 0.46247875832467239 0 0.035463093262830522 0.42673416072819947 0 0.25676291524611189 0.7436741304886243 0 0.2792923945214143 0.77665808831789485 0 0.22556077506376701 0.77837424984191617 0 0.2236846579037573 0.67380363126050236 0 0.2248999640082178 0.72584299459689172 0 0.19068556247388771 0.71028988922845504 0 0.50715858906372158 0.63295939104129484 0 0.5166924242153631 0.59825134841919447 0 0.5498280205245758 0.6290146943450976 0 0.14618258501891079 0.062070108745602003 0 0.12372429750337779 0.095814237875728972 0 0.10266856499169109 0.044518360900210059 0 0.083411279318303222 0.089699755330707398 0 0.10266856499169109 0.044518360900210059 0 0.12372429750337779 0.095814237875728972 0 0.083411279318375747 0.91030024466934134 0 0.1241151115713819 0.9045666525468371 0 0.10266856499240549 0.95548163909968886 0 0.14617343800780541 0.93808063414349496 0 0.10266856499240549 0.95548163909968886 0 0.1241151115713819 0.9045666525468371 0 0.5499999999988151 0 0 0.59999999999894682 0 0 0.57396793757665954 0.037011367187645222 0 0.54782696902220018 0.79245182748204157 0 0.50627822638148745 0.8263979829520941 0 0.50731287292894423 0.78963574450233831 0 0.6499999999999998 0.29999999999999999 0 0.62657463266645097 0.26524202571255862 0 0.67933712972090698 0.25920070958121938 0 0.86956835336234861 0.571283299838105 0 0.86907294890112186 0.52008116128001669 0 0.90900154012161016 0.53607784105648792 0 0.17933913398461551 0.2350063570234002 0 0.224700362040408 0.22206622194729711 0 0.21049769590865089 0.26857363548218488 0 0.43249999999999988 0.43937499999999979 0 0.3908716102680424 0.47010282357248828 0 0.38707855792647411 0.42299362914874578 0 0.27474541102162192 0.11822029332053539 0 0.22985637510995899 0.1298347970200906 0 0.24218496799700481 0.089025544070598317 0 0.64753070846764316 0.77332939069435502 0 0.66427993341343905 0.73232764502436276 0 0.6916490518212759 0.75387992374886192 0 0 0.40000000000166441 0 0.050583896093752537 0.38543522283434112 0 0.035463093262830522 0.42673416072819947 0 0.73483647259922602 0.44789725365921768 0 0.73947346780852752 0.49062440112282169 0 0.69385896817107129 0.48377516041410151 0 0.57484956128872922 0.66573805030881994 0 0.52584555706968406 0.66664215091846768 0 0.5498280205245758 0.6290146943450976 0 0.60000000000138687 1 0 0.55000000000173355 1 0 0.57382506491224949 0.9629411906298494 0 0.068743045408989428 0.48853989837882689 0 0.085622222639554768 0.53333248912060549 0 0.044576108720083309 0.53509043209532614 0 0.083105206071467416 0.20007701332709979 0 0.044081577119474857 0.2271058242433576 0 0.038512288486115001 0.1844147282893184 0 0.083105206071452636 0.79992298667296435 0 0.038512288486097702 0.8155852717111195 0 0.04408157711937423 0.7728941757575627 0 0.28307294598219601 0.50789252727458634 0 0.23975172658309729 0.49475499200540818 0 0.25982634974572738 0.46097799597715272 0 0.43698630808430822 0.080423614171545449 0 0.39591832466117061 0.056982757562006353 0 0.4320097814748517 0.037406712692169303 0 0.4367309254023824 0.92065556789053882 0 0.4308986359464303 0.96395712492906194 0 0.39641108128798319 0.94356127926187128 0 0.80185942888539485 0.77452061303608133 0 0.75841349681148107 0.75422312624214749 0 0.78578450296893509 0.73292684821144505 0 0.80185942888501827 0.074520613036224564 0 0.7527966693318906 0.053051678021508272 0 0.78393852574753176 0.032039079577822822 0 0.6499999999999998 0.69999999999999996 0 0.62460753523532009 0.66851202781000296 0 0.675261390228442 0.65996937624687813 0 0.33123028043633618 0.77629643437932982 0 0.38586766253264881 0.78219501014812498 0 0.35642984951668422 0.80994399665655703 0 0.6405463747586706 0.63290524857395714 0 0.675261390228442 0.65996937624687813 0 0.62460753523532009 0.66851202781000296 0 0.22278230690790279 0.44824268025881547 0 0.191953871957803 0.42546416763755879 0 0.24049127783545701 0.41270748208749802 0 0.077693244765132896 0.56932317963405099 0 0.050069554451969707 0.61308520079857043 0 0.034381862692950467 0.57372682250960894 0 0.25195515620380449 0.25883339815888678 0 0.24432083401701241 0.3006253385567515 0 0.21049769590865089 0.26857363548218488 0 0.46666084890304671 0.57634471035397938 0 0.5166924242153631 0.59825134841919447 0 0.47095389620662098 0.61892551373708504 0 0.50715858906372158 0.63295939104129484 0 0.47095389620662098 0.61892551373708504 0 0.5166924242153631 0.59825134841919447 0 0.72525833953073282 0.1032114801687094 0 0.7527966693318906 0.053051678021508272 0 0.76878382444651716 0.097147941686331368 0 0.80185942888501827 0.074520613036224564 0 0.76878382444651716 0.097147941686331368 0 0.7527966693318906 0.053051678021508272 0 0.72500000000000064 0.7952620967744265 0 0.75841349681148107 0.75422312624214749 0 0.77094201086366854 0.79647480515688507 0 0.80185942888539485 0.77452061303608133 0 0.77094201086366854 0.79647480515688507 0 0.75841349681148107 0.75422312624214749 0 0.72500000000000064 0.7952620967744265 0 0.68024162096458085 0.79868546898116533 0 0.6916490518212759 0.75387992374886192 0 0.64753070846764316 0.77332939069435502 0 0.6916490518212759 0.75387992374886192 0 0.68024162096458085 0.79868546898116533 0 0 0.50000000000205869 0 0 0.45000000000187229 0 0.033550201249889847 0.46247875832467239 0 0.69999999999999984 0.69999999999999996 0 0.675261390228442 0.65996937624687813 0 0.72500000000000064 0.67022701834392062 0 0.71406021706547751 0.63292083137662503 0 0.72500000000000064 0.67022701834392062 0 0.675261390228442 0.65996937624687813 0 0.65408113592120842 0.073941773121567966 0 0.61940220174112337 0.047251958781050582 0 0.66369801598854572 0.036327466368102787 0 0.59999999999894682 0 0 0.61940220174112337 0.047251958781050582 0 0.57396793757665954 0.037011367187645222 0 0.60000000000138687 1 0 0.57382506491224949 0.9629411906298494 0 0.62065498684670595 0.95224934003983619 0 0.33122374654748771 0.57588941099433744 0 0.35765792684946668 0.6000687869219653 0 0.31502927232353312 0.6134992213375432 0 0.35864735590330371 0.63903383440414463 0 0.31502927232353312 0.6134992213375432 0 0.35765792684946668 0.6000687869219653 0 0.15801167086041079 0.46008690540259539 0 0.19604738184454831 0.47787523520405789 0 0.16618607197337229 0.50652878253548905 0 0.078358742472063481 0.43365249433908948 0 0.035463093262830522 0.42673416072819947 0 0.050583896093752537 0.38543522283434112 0 0.19901705110390991 0.9175543425573498 0 0.22850979588452081 0.95594428570238643 0 0.18474005699953849 0.96231585248064622 0 0.19922788606653311 0.085920220746880993 0 0.184418230509967 0.038773194583122873 0 0.22668068146512929 0.045875643423131329 0 0.19922788606653311 0.085920220746880993 0 0.24218496799700481 0.089025544070598317 0 0.22985637510995899 0.1298347970200906 0 0.74999999999999989 0.69999999999999996 0 0.78578450296893509 0.73292684821144505 0 0.75841349681148107 0.75422312624214749 0 0.74999999999934175 0 0 0.78393852574753176 0.032039079577822822 0 0.7527966693318906 0.053051678021508272 0 0 0.60000000000138687 0 0.034381862692950467 0.57372682250960894 0 0.050069554451969707 0.61308520079857043 0 0.2236846579037573 0.67380363126050236 0 0.26439878998046262 0.7048065392091396 0 0.2248999640082178 0.72584299459689172 0 0.6236733212988993 0.14864538214901801 0 0.58516465772821369 0.11653801664834119 0 0.61956000905586006 0.1043312481793135 0 0.26104540868854792 0.81401944968719064 0 0.2792923945214143 0.77665808831789485 0 0.30857225866488791 0.81101973481716805 0 0.42377727103934271 0.25099357235810238 0 0.42905200079338551 0.19982395548231649 0 0.46429753744194407 0.22870891180733599 0 0.27820712747429932 0.65530134213254643 0 0.31502927232353312 0.6134992213375432 0 0.32263089806001177 0.66003674931826484 0 0.61343887413683884 0.856862479058357 0 0.61885627562261258 0.90282959257498208 0 0.5832743223239254 0.88483152652961872 0 0.43698630808430822 0.080423614171545449 0 0.47040171442036788 0.044141676406503738 0 0.47881186583059909 0.093591717165689425 0 0.4367309254023824 0.92065556789053882 0 0.47401147028110507 0.91529957330468115 0 0.47135117303824892 0.95556877749289892 0 0.91696753777131557 0.497780560203536 0 0.95631871884947484 0.51827533208233789 0 0.90900154012161016 0.53607784105648792 0 0.93732437411268477 0.55911392101136159 0 0.90900154012161016 0.53607784105648792 0 0.95631871884947484 0.51827533208233789 0 0.27474541102162192 0.11822029332053539 0 0.25557216766470708 0.15874861286892261 0 0.22985637510995899 0.1298347970200906 0 0.2185883431182947 0.18019736283949719 0 0.22985637510995899 0.1298347970200906 0 0.25557216766470708 0.15874861286892261 0 0.29348325746214782 0.31350119524708198 0 0.33402499257867951 0.28911035184473982 0 0.32752639306529541 0.32610012995269699 0 0.27499999999933927 0.060310814194988557 0 0.32541448401678508 0.046215317981507749 0 0.3096713403101819 0.085471541595262421 0 0.27270076654418179 0.87751467830216623 0 0.24536017905392571 0.90704567837671446 0 0.2401283238295133 0.85648409884788523 0 1 0.44999999999963131 0 1 0.49999999999950101 0 0.96228564064454991 0.48206450662049471 0 0.61343887413683884 0.856862479058357 0 0.66412543161245952 0.88015090885499059 0 0.61885627562261258 0.90282959257498208 0 0 0.45000000000187229 0 0 0.40000000000166441 0 0.035463093262830522 0.42673416072819947 0 0.69999999999999984 0.69999999999999996 0 0.6916490518212759 0.75387992374886192 0 0.66427993341343905 0.73232764502436276 0 0.43846182030517877 0.64845797726506715 0 0.43323420005758778 0.6913544522562407 0 0.3977710372045391 0.65868194622830212 0 0.4367309254023824 0.92065556789053882 0 0.44003836461056539 0.88093474584252718 0 0.47401147028110507 0.91529957330468115 0 0.43846182030517877 0.64845797726506715 0 0.39743091024207589 0.6239520004230239 0 0.43545892161006339 0.61093128915313821 0 0.43846182030517877 0.64845797726506715 0 0.3977710372045391 0.65868194622830212 0 0.39743091024207589 0.6239520004230239 0 0.26429849586623999 0.19346700179430079 0 0.29336099386129338 0.15892013001050981 0 0.31255190597181792 0.19850845631528771 0 0.19670163708476801 0.31472518408333222 0 0.21049769590865089 0.26857363548218488 0 0.24432083401701241 0.3006253385567515 0 0.57724883562309992 0.92155686857100794 0 0.62065498684670595 0.95224934003983619 0 0.57382506491224949 0.9629411906298494 0 0.4409427642593301 0.35743108089689513 0 0.46655310992796922 0.39650496622958609 0 0.42161023666869668 0.39493916313643851 0 0.46666084890304671 0.57634471035397938 0 0.47095389620662098 0.61892551373708504 0 0.43545892161006339 0.61093128915313821 0 0.6879972333610942 0.43038561374960838 0 0.65178832218679827 0.45929119821019959 0 0.63912439215427275 0.41063340167983359 0 0.43698630808430822 0.080423614171545449 0 0.4320097814748517 0.037406712692169303 0 0.47040171442036788 0.044141676406503738 0 0.4367309254023824 0.92065556789053882 0 0.47135117303824892 0.95556877749289892 0 0.4308986359464303 0.96395712492906194 0 0.79680861578988083 0.92656778056766709 0 0.81486180804382891 0.96321394949790495 0 0.770759834363826 0.95919399014344442 0 0.79680861578956375 0.22656778056752541 0 0.81486180804364938 0.26321394949780091 0 0.77075983436335049 0.25919399014334171 0 0.71508799138962864 0.36622814920737751 0 0.68128176404677243 0.38629093627004979 0 0.68887083591306764 0.33632058575757479 0 0.35864735590330371 0.63903383440414463 0 0.32263089806001177 0.66003674931826484 0 0.31502927232353312 0.6134992213375432 0 0.21858834311891909 0.81980263716112767 0 0.2401283238295133 0.85648409884788523 0 0.19741632902693801 0.86755867406447229 0 0.35312867752657662 0.084946736076730367 0 0.32215584939770009 0.1218492143506909 0 0.3096713403101819 0.085471541595262421 0 0.35752321586431363 0.9185439911803448 0 0.35864759629805099 0.87963482415279515 0 0.39767323751400468 0.89584229130535065 0 0.41914690343363781 0.30688979866601612 0 0.4604742573284204 0.27846934318264788 0 0.46226845272279993 0.31901800744800313 0 0.33084213324567391 0.16272720141332131 0 0.32215584939770009 0.1218492143506909 0 0.36246644853392812 0.1399454205365751 0 0.46666084890304671 0.57634471035397938 0 0.42644501560315817 0.54603747078095544 0 0.47793794143994173 0.52940715638744962 0 0 0.60000000000138687 0 0 0.55000000000173355 0 0.034381862692950467 0.57372682250960894 0 0.77354604466818633 0.40378688774472771 0 0.74764719760526988 0.3719647154012321 0 0.78145581580700685 0.34881365920033602 0 0.34999999999912063 0 0 0.3615861437013822 0.03582617922508851 0 0.32541448401678508 0.046215317981507749 0 0.35000000000145642 1 0 0.32544832635163229 0.95485394099568932 0 0.36184234618600131 0.96443954459096326 0 0.57667858002728545 0.078486105337742612 0 0.57396793757665954 0.037011367187645222 0 0.61940220174112337 0.047251958781050582 0 0.47357141910802508 0.1873585799078378 0 0.50760557329222289 0.20700468884612061 0 0.46429753744194407 0.22870891180733599 0 0.49695729691142171 0.25014895411178018 0 0.46429753744194407 0.22870891180733599 0 0.50760557329222289 0.20700468884612061 0 0.33084213324567391 0.16272720141332131 0 0.3572130504031617 0.1874703368446563 0 0.31255190597181792 0.19850845631528771 0 0.6879972333610942 0.43038561374960838 0 0.63912439215427275 0.41063340167983359 0 0.68128176404677243 0.38629093627004979 0 0.65408113592120842 0.073941773121567966 0 0.65290632656860115 0.11434202593454081 0 0.61956000905586006 0.1043312481793135 0 0.33084213324567391 0.16272720141332131 0 0.31255190597181792 0.19850845631528771 0 0.29336099386129338 0.15892013001050981 0 0.61209567303293111 0.44669033081290321 0 0.63912439215427275 0.41063340167983359 0 0.65178832218679827 0.45929119821019959 0 0.086179601630648681 0.64647209519980475 0 0.1024350934457823 0.60772393977513839 0 0.1241190223511371 0.64391885572885044 0 0.44999999999882923 0 0 0.47040171442036788 0.044141676406503738 0 0.4320097814748517 0.037406712692169303 0 0.45000000000187229 1 0 0.4308986359464303 0.96395712492906194 0 0.47135117303824892 0.95556877749289892 0 0.74999999999934175 0 0 0.7527966693318906 0.053051678021508272 0 0.72683645290270404 0.027797073151180601 0 0.74999999999999989 0.69999999999999996 0 0.75841349681148107 0.75422312624214749 0 0.72501250972655151 0.74067302935308721 0 0.69999999999999984 0.69999999999999996 0 0.72501250972655151 0.74067302935308721 0 0.6916490518212759 0.75387992374886192 0 0.74999999999934175 0 0 0.79999999999947335 0 0 0.78393852574753176 0.032039079577822822 0 0.74999999999999989 0.69999999999999996 0 0.79999999999999982 0.69999999999999996 0 0.78578450296893509 0.73292684821144505 0 0.6405463747586706 0.63290524857395714 0 0.5991018319127801 0.62925360607495295 0 0.63065402604362242 0.59661356661633302 0 0.65481233915350323 0.35652751921065562 0 0.68887083591306764 0.33632058575757479 0 0.68128176404677243 0.38629093627004979 0 0.89999999999999991 0.29999999999999999 0 0.94999999999999996 0.29999999999999999 0 0.92012390126144183 0.33123581297173937 0 0.89999999999999991 0.69999999999999996 0 0.92057473616084773 0.66770436535372446 0 0.94999999999999996 0.69999999999999996 0 0.4367309254023824 0.92065556789053882 0 0.39767323751400468 0.89584229130535065 0 0.44003836461056539 0.88093474584252718 0 0.2185883431182947 0.18019736283949719 0 0.18124454140915969 0.18790916706335251 0 0.18652628422869419 0.14162325200928061 0 0.20050006573841939 0.53248514016039872 0 0.19604738184454831 0.47787523520405789 0 0.23975172658309729 0.49475499200540818 0 0.65507451745379841 0.92229208810758578 0 0.61885627562261258 0.90282959257498208 0 0.66412543161245952 0.88015090885499059 0 0.65394964615507722 0.22666784374016369 0 0.67933712972090698 0.25920070958121938 0 0.62657463266645097 0.26524202571255862 0 0.077693244765132896 0.56932317963405099 0 0.034381862692950467 0.57372682250960894 0 0.044576108720083309 0.53509043209532614 0 0.39801143831225599 0.16651381068160659 0 0.38831533174504851 0.2189834941785925 0 0.3572130504031617 0.1874703368446563 0 0.6499999999999998 0.69999999999999996 0 0.69999999999999984 0.69999999999999996 0 0.66427993341343905 0.73232764502436276 0 0.1215415378367805 0.72939333680004137 0 0.15332765547575641 0.71200081858233666 0 0.14335651144331049 0.75565258250209677 0 0.6405463747586706 0.63290524857395714 0 0.63065402604362242 0.59661356661633302 0 0.67529834988829951 0.61613270668143583 0 0.67323294229744413 0.57556450033612505 0 0.67529834988829951 0.61613270668143583 0 0.63065402604362242 0.59661356661633302 0 0.91750694127107502 0.36982372220068471 0 0.87430060258887643 0.34056085888204451 0 0.92012390126144183 0.33123581297173937 0 0.89999999999999991 0.29999999999999999 0 0.92012390126144183 0.33123581297173937 0 0.87430060258887643 0.34056085888204451 0 0.89999999999999991 0.69999999999999996 0 0.87712158428786946 0.65709029563313581 0 0.92057473616084773 0.66770436535372446 0 0.91750694127105259 0.63017627779935648 0 0.92057473616084773 0.66770436535372446 0 0.87712158428786946 0.65709029563313581 0 0.33122374654748771 0.57588941099433744 0 0.29110487519241501 0.56588143995431495 0 0.33190227185843768 0.52715113583864037 0 0.57484956128872922 0.66573805030881994 0 0.5498280205245758 0.6290146943450976 0 0.5991018319127801 0.62925360607495295 0 0.57412547362576272 0.58273804879550706 0 0.5991018319127801 0.62925360607495295 0 0.5498280205245758 0.6290146943450976 0 0.65408113592120842 0.073941773121567966 0 0.66369801598854572 0.036327466368102787 0 0.7010294155333181 0.056779085686491267 0 0.27474541102162192 0.11822029332053539 0 0.32215584939770009 0.1218492143506909 0 0.29336099386129338 0.15892013001050981 0 0.33084213324567391 0.16272720141332131 0 0.29336099386129338 0.15892013001050981 0 0.32215584939770009 0.1218492143506909 0 0.5 0.29999999999999999 0 0.54999999999999993 0.29999999999999999 0 0.52752007115234678 0.33170632466418198 0 0.83573492347052902 0.36590755630746369 0 0.87430060258887643 0.34056085888204451 0 0.86844634540301924 0.38530937474099819 0 0.83758014339878906 0.63222013025741819 0 0.87159648282691515 0.61285406320581504 0 0.87712158428786946 0.65709029563313581 0 0.22278230690790279 0.44824268025881547 0 0.23975172658309729 0.49475499200540818 0 0.19604738184454831 0.47787523520405789 0 1 0.49999999999950101 0 0.95631871884947484 0.51827533208233789 0 0.96228564064454991 0.48206450662049471 0 0.1650278706801647 0.38791388161335733 0 0.13773355295499351 0.42497777642586831 0 0.1117088112799664 0.38831403004970022 0 0.61209567303293111 0.44669033081290321 0 0.57975577671020095 0.46172033326338591 0 0.57744073070774993 0.41535148636609359 0 0.077693244765132896 0.56932317963405099 0 0.1154888278694548 0.56733818459978413 0 0.1024350934457823 0.60772393977513839 0 0.68697391633157634 0.84450604838764298 0 0.65005442820240822 0.82644988530054031 0 0.68024162096458085 0.79868546898116533 0 0.76901770135486491 0.84293557325473656 0 0.77094201086366854 0.79647480515688507 0 0.80041942726660109 0.81543261647703358 0 0.77144070960558853 0.14311854477243749 0 0.76878382444651716 0.097147941686331368 0 0.80076557130237269 0.1154587552654202 0 0.5 0.69999999999999996 0 0.52584555706968406 0.66664215091846768 0 0.54999999999999993 0.69999999999999996 0 0.077693244765132896 0.56932317963405099 0 0.044576108720083309 0.53509043209532614 0 0.085622222639554768 0.53333248912060549 0 0.69999999999921003 0 0 0.72683645290270404 0.027797073151180601 0 0.7010294155333181 0.056779085686491267 0 1 0 0 0.97166519676946894 0.033371144900598393 0 0.94999999999986839 0 0 1 0.69999999999999996 0 0.97166519676947294 0.73337114490064459 0 0.94999999999999996 0.69999999999999996 0 1 0.69999999999999996 0 1 0.74999999999993494 0 0.97166519676947294 0.73337114490064459 0 1 0.29999999999999999 0 0.97166519676951801 0.26662885509932011 0 1 0.24999999999987299 0 1 1 0 0.94999999999979179 1 0 0.97166519676946206 0.96662885509935492 0 1 0 0 1 0.049999999999896842 0 0.97166519676946894 0.033371144900598393 0 1 0.29999999999999999 0 0.94999999999999996 0.29999999999999999 0 0.97166519676951801 0.26662885509932011 0 1 1 0 0.97166519676946206 0.96662885509935492 0 1 0.94999999999997109 0 0 0.55000000000173355 0 0.044576108720083309 0.53509043209532614 0 0.034381862692950467 0.57372682250960894 0 0.6879972333610942 0.43038561374960838 0 0.69385896817107129 0.48377516041410151 0 0.65178832218679827 0.45929119821019959 0 0.33084213324567391 0.16272720141332131 0 0.36246644853392812 0.1399454205365751 0 0.3572130504031617 0.1874703368446563 0 0.65408113592120842 0.073941773121567966 0 0.68330259535470161 0.10038702501083881 0 0.65290632656860115 0.11434202593454081 0 0.16500388252850301 0.66612077714085194 0 0.19068556247388771 0.71028988922845504 0 0.15332765547575641 0.71200081858233666 0 0.82709327591091286 0.84937141670920724 0 0.85600844944837662 0.88483418979512773 0 0.81159157511211755 0.88795995483179491 0 0.82709327591102189 0.14937141670914489 0 0.85600844944842547 0.1848341897950983 0 0.81283102246527783 0.1881007222486438 0 0.79999999999999982 0.29999999999999999 0 0.84999999999999987 0.29999999999999999 0 0.82500000000000062 0.33010209762754811 0 0.79999999999999982 0.69999999999999996 0 0.82457059160610424 0.66831947184359608 0 0.84999999999999987 0.69999999999999996 0 0.59999999999999976 0.69999999999999996 0 0.62460753523532009 0.66851202781000296 0 0.6499999999999998 0.69999999999999996 0 0.39801143831225599 0.16651381068160659 0 0.3572130504031617 0.1874703368446563 0 0.36246644853392812 0.1399454205365751 0 0.69999999999999984 0.29999999999999999 0 0.74999999999999989 0.29999999999999999 0 0.73090396928863699 0.33699297293167962 0 0.69999999999999984 0.69999999999999996 0 0.72500000000000064 0.67022701834392062 0 0.74999999999999989 0.69999999999999996 0 0.6236733212988993 0.14864538214901801 0 0.64011864159029941 0.18789607982138171 0 0.59443395090188023 0.18455690917515069 0 0.20050006573841939 0.53248514016039872 0 0.16618607197337229 0.50652878253548905 0 0.19604738184454831 0.47787523520405789 0 0.79680861578956375 0.22656778056752541 0 0.76587607630038135 0.18880039518954719 0 0.81283102246527783 0.1881007222486438 0 0.79680861578988083 0.92656778056766709 0 0.76891166905518427 0.88835469571185499 0 0.81159157511211755 0.88795995483179491 0 0.71406021706547751 0.63292083137662503 0 0.675261390228442 0.65996937624687813 0 0.67529834988829951 0.61613270668143583 0 0.6405463747586706 0.63290524857395714 0 0.67529834988829951 0.61613270668143583 0 0.675261390228442 0.65996937624687813 0 0.19670163708476801 0.31472518408333222 0 0.168349569971391 0.28054490850913671 0 0.21049769590865089 0.26857363548218488 0 0.47357141910802508 0.1873585799078378 0 0.46429753744194407 0.22870891180733599 0 0.42905200079338551 0.19982395548231649 0 0.59814117807200873 0.23398510860739519 0 0.5794309697024993 0.27124795968204829 0 0.54248833945060504 0.2520322959927106 0 0.6541250972820879 0.49999999999999989 0 0.65178832218679827 0.45929119821019959 0 0.69385896817107129 0.48377516041410151 0 0.54999999999999993 0.29999999999999999 0 0.5794309697024993 0.27124795968204829 0 0.59999999999999976 0.29999999999999999 0 0.7750489929959945 0.66593931409600093 0 0.74994237037456724 0.62775548192980357 0 0.79884539758237771 0.62875045078114233 0 0.77293540622714185 0.59448302402785813 0 0.79884539758237771 0.62875045078114233 0 0.74994237037456724 0.62775548192980357 0 0.14332333627550789 0.14578431753966009 0 0.16141998738593399 0.10404039647458049 0 0.18652628422869419 0.14162325200928061 0 0.38083244760691543 0.38531983672244652 0 0.42161023666869668 0.39493916313643851 0 0.38707855792647411 0.42299362914874578 0 0.43249999999999988 0.43937499999999979 0 0.38707855792647411 0.42299362914874578 0 0.42161023666869668 0.39493916313643851 0 0.43846182030517877 0.64845797726506715 0 0.47095389620662098 0.61892551373708504 0 0.47913475093885149 0.66010775372412711 0 0.50715858906372158 0.63295939104129484 0 0.47913475093885149 0.66010775372412711 0 0.47095389620662098 0.61892551373708504 0 0.69999999999999984 0.69999999999999996 0 0.74999999999999989 0.69999999999999996 0 0.72501250972655151 0.74067302935308721 0 0.4089290844030305 0.58728915500154233 0 0.35765792684946668 0.6000687869219653 0 0.37272913873093971 0.56192925302619479 0 0.69999999999921003 0 0 0.74999999999934175 0 0 0.72683645290270404 0.027797073151180601 0 0.17933913398461551 0.2350063570234002 0 0.21049769590865089 0.26857363548218488 0 0.168349569971391 0.28054490850913671 0 0.14474682429600511 0.85524784522713515 0 0.10562472963403439 0.87143394428979881 0 0.1074251789111534 0.83564394292147814 0 0.14332333627550789 0.14578431753966009 0 0.106902708054812 0.16453234188234539 0 0.1053400320299198 0.12877248826361379 0 0.2236846579037573 0.67380363126050236 0 0.19914261668318661 0.62286739485272158 0 0.2459498854893499 0.63248470766216769 0 0.049999999999899652 0 0 0.053064897599215843 0.048131547304697528 0 0.02576622439977887 0.024532886826226379 0 0 0.050000000000207989 0 0.02576622439977887 0.024532886826226379 0 0.053064897599215843 0.048131547304697528 0 0.050000000000207989 1 0 0.025766224399875661 0.97546711317377799 0 0.053064897599294662 0.95186845269532028 0 0 0.94999999999979179 0 0.053064897599294662 0.95186845269532028 0 0.025766224399875661 0.97546711317377799 0 0.47357141910802508 0.1873585799078378 0 0.48466639505193998 0.1421439844745814 0 0.51729576145820033 0.1683240575987815 0 0.077693244765132896 0.56932317963405099 0 0.085622222639554768 0.53333248912060549 0 0.1154888278694548 0.56733818459978413 0 0.64753070846764316 0.77332939069435502 0 0.63221990677827677 0.73442891067859706 0 0.66427993341343905 0.73232764502436276 0 0.4656888918609538 0.78493261229743638 0 0.42609163930740518 0.80361684430568059 0 0.42676259796334498 0.76772545931379299 0 0.4089290844030305 0.58728915500154233 0 0.39743091024207589 0.6239520004230239 0 0.35765792684946668 0.6000687869219653 0 0.55306006949600994 0.20198184231352201 0 0.50760557329222289 0.20700468884612061 0 0.51729576145820033 0.1683240575987815 0 1 0.8999999999998336 0 1 0.94999999999997109 0 0.97435614836744289 0.92499999999990257 0 1 0.19999999999974799 0 1 0.24999999999987299 0 0.97435614836740092 0.22499999999981049 0 1 0.74999999999993494 0 1 0.7999999999998193 0 0.97435614836745565 0.77499999999987745 0 1 0.049999999999896842 0 1 0.099999999999753911 0 0.97435614836748241 0.074999999999825387 0 0.86411095495256451 0.42388805655111889 0 0.86844634540301924 0.38530937474099819 0 0.90594285160987287 0.4141265964174129 0 0.86956835336234861 0.571283299838105 0 0.91143117093204207 0.58709913730335972 0 0.87159648282691515 0.61285406320581504 0 0 0 0 0.02576622439977887 0.024532886826226379 0 0 0.050000000000207989 0 0 1 0 0 0.94999999999979179 0 0.025766224399875661 0.97546711317377799 0 0 1 0 0.025766224399875661 0.97546711317377799 0 0.050000000000207989 1 0 0 0 0 0.049999999999899652 0 0 0.02576622439977887 0.024532886826226379 0 0.65394964615507722 0.22666784374016369 0 0.64011864159029941 0.18789607982138171 0 0.6865991819015953 0.189116534044597 0 0.25195515620380449 0.25883339815888678 0 0.28040350263641872 0.23054717217092141 0 0.29132859388405002 0.27203693976649962 0 0.61209567303293111 0.44669033081290321 0 0.65178832218679827 0.45929119821019959 0 0.61547661924074692 0.48539576058873962 0 0.6541250972820879 0.49999999999999989 0 0.61547661924074692 0.48539576058873962 0 0.65178832218679827 0.45929119821019959 0 0.19670163708476801 0.31472518408333222 0 0.24432083401701241 0.3006253385567515 0 0.22615676742807109 0.33458786033114157 0 0.15801167086041079 0.46008690540259539 0 0.13773355295499351 0.42497777642586831 0 0.191953871957803 0.42546416763755879 0 0.1650278706801647 0.38791388161335733 0 0.191953871957803 0.42546416763755879 0 0.13773355295499351 0.42497777642586831 0 0.50715858906372158 0.63295939104129484 0 0.52584555706968406 0.66664215091846768 0 0.47913475093885149 0.66010775372412711 0 0.5 0.69999999999999996 0 0.47913475093885149 0.66010775372412711 0 0.52584555706968406 0.66664215091846768 0 0.51076801031701946 0.1202837388510348 0 0.51729576145820033 0.1683240575987815 0 0.48466639505193998 0.1421439844745814 0 0.71406021706547751 0.63292083137662503 0 0.74994237037456724 0.62775548192980357 0 0.72500000000000064 0.67022701834392062 0 0.71508799138962864 0.36622814920737751 0 0.73090396928863699 0.33699297293167962 0 0.74764719760526988 0.3719647154012321 0 0.22278230690790279 0.44824268025881547 0 0.25982634974572738 0.46097799597715272 0 0.23975172658309729 0.49475499200540818 0 0.80185942888539485 0.77452061303608133 0 0.78578450296893509 0.73292684821144505 0 0.81864958914779962 0.73589050177899629 0 0.80185942888501827 0.074520613036224564 0 0.78393852574753176 0.032039079577822822 0 0.81864958914740749 0.035890501779055867 0 0.5 0.29999999999999999 0 0.46226845272279993 0.31901800744800313 0 0.4604742573284204 0.27846934318264788 0 0.6405463747586706 0.63290524857395714 0 0.62460753523532009 0.66851202781000296 0 0.5991018319127801 0.62925360607495295 0 0.79680861578988083 0.92656778056766709 0 0.770759834363826 0.95919399014344442 0 0.75729602384198635 0.92353652857884294 0 0.79680861578956375 0.22656778056752541 0 0.77075983436335049 0.25919399014334171 0 0.75668890529066124 0.2244279804069782 0 0.65394964615507722 0.22666784374016369 0 0.69397719155551807 0.2245125647000914 0 0.67933712972090698 0.25920070958121938 0 0.81973119833356312 0.43505687159469048 0 0.84925632466077294 0.45359738909549091 0 0.81400510706333218 0.47357325943904899 0 0.83758014339878906 0.63222013025741819 0 0.82457059160610424 0.66831947184359608 0 0.79884539758237771 0.62875045078114233 0 0.25676291524611189 0.7436741304886243 0 0.2248999640082178 0.72584299459689172 0 0.26439878998046262 0.7048065392091396 0 0.91696753777131557 0.497780560203536 0 0.90900154012161016 0.53607784105648792 0 0.86907294890112186 0.52008116128001669 0 0.17933913398461551 0.2350063570234002 0 0.168349569971391 0.28054490850913671 0 0.14377654328998779 0.2442024734791064 0 0.1247745017231483 0.27198077544791172 0 0.14377654328998779 0.2442024734791064 0 0.168349569971391 0.28054490850913671 0 0.34258405725730701 0.4444034294386992 0 0.35221190152536241 0.40457127605439203 0 0.38707855792647411 0.42299362914874578 0 0.47357141910802508 0.1873585799078378 0 0.51729576145820033 0.1683240575987815 0 0.50760557329222289 0.20700468884612061 0 0.19670163708476801 0.31472518408333222 0 0.22615676742807109 0.33458786033114157 0 0.18434624290945251 0.35208838264196463 0 0.22033343844674469 0.36963382230740238 0 0.18434624290945251 0.35208838264196463 0 0.22615676742807109 0.33458786033114157 0 0.24432083401701241 0.3006253385567515 0 0.25966125648670141 0.34351016742083729 0 0.22615676742807109 0.33458786033114157 0 0.93814194660195893 0.44426664081746747 0 0.90594285160987287 0.4141265964174129 0 0.95871855522754235 0.40006508612975411 0 0.91750694127107502 0.36982372220068471 0 0.95871855522754235 0.40006508612975411 0 0.90594285160987287 0.4141265964174129 0 0.91750694127105259 0.63017627779935648 0 0.91143117093204207 0.58709913730335972 0 0.95867599106212187 0.60011091146651041 0 0.93732437411268477 0.55911392101136159 0 0.95867599106212187 0.60011091146651041 0 0.91143117093204207 0.58709913730335972 0 0.50715858906372158 0.63295939104129484 0 0.5498280205245758 0.6290146943450976 0 0.52584555706968406 0.66664215091846768 0 0.94399509803918602 0.75600490196082126 0 0.97435614836745565 0.77499999999987745 0 0.95386563387742829 0.80414874155775029 0 0.94399509803922566 0.056004901960802607 0 0.97435614836748241 0.074999999999825387 0 0.95386563387744361 0.1041487415577465 0 0.94399509803921056 0.24399509803922639 0 0.95391631417672862 0.19584263333809451 0 0.97435614836740092 0.22499999999981049 0 0.94399509803919068 0.9439950980391687 0 0.95391631417670719 0.89584263333814784 0 0.97435614836744289 0.92499999999990257 0 0.79680861578988083 0.92656778056766709 0 0.75729602384198635 0.92353652857884294 0 0.76891166905518427 0.88835469571185499 0 0.79680861578956375 0.22656778056752541 0 0.75668890529066124 0.2244279804069782 0 0.76587607630038135 0.18880039518954719 0 0.65394964615507722 0.22666784374016369 0 0.6865991819015953 0.189116534044597 0 0.69397719155551807 0.2245125647000914 0 0.38083244760691543 0.38531983672244652 0 0.38707855792647411 0.42299362914874578 0 0.35221190152536241 0.40457127605439203 0 1 0.7999999999998193 0 0.95386563387742829 0.80414874155775029 0 0.97435614836745565 0.77499999999987745 0 1 0.099999999999753911 0 0.95386563387744361 0.1041487415577465 0 0.97435614836748241 0.074999999999825387 0 1 0.8999999999998336 0 0.97435614836744289 0.92499999999990257 0 0.95391631417670719 0.89584263333814784 0 1 0.19999999999974799 0 0.97435614836740092 0.22499999999981049 0 0.95391631417672862 0.19584263333809451 0 0.84723782639812573 0.48638347960178252 0 0.81400510706333218 0.47357325943904899 0 0.84925632466077294 0.45359738909549091 0 0.54999999999999993 0.29999999999999999 0 0.54248833945060504 0.2520322959927106 0 0.5794309697024993 0.27124795968204829 0 0.94999999999999996 0.29999999999999999 0 0.95780851984364423 0.34215720972155339 0 0.92012390126144183 0.33123581297173937 0 0.94999999999999996 0.69999999999999996 0 0.92057473616084773 0.66770436535372446 0 0.9578014258160763 0.65787212321113708 0 0.15801167086041079 0.46008690540259539 0 0.113541300460994 0.46208784312094731 0 0.13773355295499351 0.42497777642586831 0 0.7250000000005199 0.94981617647078953 0 0.68015064798562208 0.95924320340003011 0 0.68987011941058407 0.92105047536677087 0 0.65507451745379841 0.92229208810758578 0 0.68987011941058407 0.92105047536677087 0 0.68015064798562208 0.95924320340003011 0 0.77846603114747959 0.49850927265137401 0 0.77972660463949339 0.45529290596363098 0 0.81400510706333218 0.47357325943904899 0 0.27866744612395528 0.38416094670951489 0 0.25966125648670141 0.34351016742083729 0 0.29644548887253103 0.34914008784168082 0 0.61209567303293111 0.44669033081290321 0 0.61547661924074692 0.48539576058873962 0 0.57975577671020095 0.46172033326338591 0 0.57611405284611883 0.50165903596042916 0 0.57975577671020095 0.46172033326338591 0 0.61547661924074692 0.48539576058873962 0 0.7250000000005199 0.89375000000045834 0 0.76891166905518427 0.88835469571185499 0 0.75729602384198635 0.92353652857884294 0 0.72500000000001008 0.19776155966387679 0 0.76587607630038135 0.18880039518954719 0 0.75668890529066124 0.2244279804069782 0 0.72500000000001008 0.19776155966387679 0 0.69397719155551807 0.2245125647000914 0 0.6865991819015953 0.189116534044597 0 0.083411279318303222 0.089699755330707398 0 0.12372429750337779 0.095814237875728972 0 0.1053400320299198 0.12877248826361379 0 0.083411279318375747 0.91030024466934134 0 0.10562472963403439 0.87143394428979881 0 0.1241151115713819 0.9045666525468371 0 0.14617343800780541 0.93808063414349496 0 0.1241151115713819 0.9045666525468371 0 0.16206583317966519 0.89685560785156404 0 0.14618258501891079 0.062070108745602003 0 0.16141998738593399 0.10404039647458049 0 0.12372429750337779 0.095814237875728972 0 0.33277555741076909 0.36432196682010132 0 0.35221190152536241 0.40457127605439203 0 0.31778888742534622 0.40581751814196781 0 0.7250000000005199 0.94981617647078953 0 0.75729602384198635 0.92353652857884294 0 0.770759834363826 0.95919399014344442 0 0.72500000000000064 0.2498161764706 0 0.75668890529066124 0.2244279804069782 0 0.77075983436335049 0.25919399014334171 0 0.72500000000000064 0.2498161764706 0 0.67933712972090698 0.25920070958121938 0 0.69397719155551807 0.2245125647000914 0 0.6236733212988993 0.14864538214901801 0 0.61956000905586006 0.1043312481793135 0 0.65290632656860115 0.11434202593454081 0 0.81973119833356312 0.43505687159469048 0 0.81400510706333218 0.47357325943904899 0 0.77972660463949339 0.45529290596363098 0 0.25676291524611189 0.7436741304886243 0 0.29904318922293632 0.74132814928635593 0 0.2792923945214143 0.77665808831789485 0 0.36575549820117997 0.31677992835137742 0 0.32752639306529541 0.32610012995269699 0 0.33402499257867951 0.28911035184473982 0 0.14332333627550789 0.14578431753966009 0 0.18652628422869419 0.14162325200928061 0 0.18124454140915969 0.18790916706335251 0 0.57724883562309992 0.92155686857100794 0 0.5832743223239254 0.88483152652961872 0 0.61885627562261258 0.90282959257498208 0 0.57667858002728545 0.078486105337742612 0 0.61956000905586006 0.1043312481793135 0 0.58516465772821369 0.11653801664834119 0 0.80185942888539485 0.77452061303608133 0 0.80041942726660109 0.81543261647703358 0 0.77094201086366854 0.79647480515688507 0 0.80185942888501827 0.074520613036224564 0 0.80076557130237269 0.1154587552654202 0 0.76878382444651716 0.097147941686331368 0 0.64753070846764316 0.77332939069435502 0 0.68024162096458085 0.79868546898116533 0 0.65005442820240822 0.82644988530054031 0 0.26429849586623999 0.19346700179430079 0 0.25557216766470708 0.15874861286892261 0 0.29336099386129338 0.15892013001050981 0 0.29348325746214782 0.31350119524708198 0 0.29644548887253103 0.34914008784168082 0 0.25966125648670141 0.34351016742083729 0 0.68391457121233579 0.14440470121196541 0 0.65290632656860115 0.11434202593454081 0 0.68330259535470161 0.10038702501083881 0 0.91750694127107502 0.36982372220068471 0 0.92012390126144183 0.33123581297173937 0 0.95780851984364423 0.34215720972155339 0 0.91750694127105259 0.63017627779935648 0 0.9578014258160763 0.65787212321113708 0 0.92057473616084773 0.66770436535372446 0 0.22033343844674469 0.36963382230740238 0 0.22615676742807109 0.33458786033114157 0 0.25966125648670141 0.34351016742083729 0 1 0.94999999999997109 0 0.97166519676946206 0.96662885509935492 0 0.97435614836744289 0.92499999999990257 0 0.94399509803919068 0.9439950980391687 0 0.97435614836744289 0.92499999999990257 0 0.97166519676946206 0.96662885509935492 0 0.94399509803921056 0.24399509803922639 0 0.97435614836740092 0.22499999999981049 0 0.97166519676951801 0.26662885509932011 0 1 0.24999999999987299 0 0.97166519676951801 0.26662885509932011 0 0.97435614836740092 0.22499999999981049 0 1 0.74999999999993494 0 0.97435614836745565 0.77499999999987745 0 0.97166519676947294 0.73337114490064459 0 1 0.049999999999896842 0 0.97435614836748241 0.074999999999825387 0 0.97166519676946894 0.033371144900598393 0 0.94399509803918602 0.75600490196082126 0 0.97166519676947294 0.73337114490064459 0 0.97435614836745565 0.77499999999987745 0 0.94399509803922566 0.056004901960802607 0 0.97166519676946894 0.033371144900598393 0 0.97435614836748241 0.074999999999825387 0 0.77846603114747959 0.49850927265137401 0 0.81400510706333218 0.47357325943904899 0 0.81441713509985358 0.51161854125224959 0 0.77354604466818633 0.40378688774472771 0 0.72622533758026719 0.40265885511101601 0 0.74764719760526988 0.3719647154012321 0 0.71508799138962864 0.36622814920737751 0 0.74764719760526988 0.3719647154012321 0 0.72622533758026719 0.40265885511101601 0 0.84723782639812573 0.48638347960178252 0 0.84925632466077294 0.45359738909549091 0 0.88594198078881503 0.46167788676578442 0 0.86411095495256451 0.42388805655111889 0 0.88594198078881503 0.46167788676578442 0 0.84925632466077294 0.45359738909549091 0 0.43846182030517877 0.64845797726506715 0 0.43545892161006339 0.61093128915313821 0 0.47095389620662098 0.61892551373708504 0 0.33123028043633618 0.77629643437932982 0 0.35642984951668422 0.80994399665655703 0 0.30857225866488791 0.81101973481716805 0 0.33403534827021109 0.84402799729020661 0 0.30857225866488791 0.81101973481716805 0 0.35642984951668422 0.80994399665655703 0 0.26429849586623999 0.19346700179430079 0 0.31255190597181792 0.19850845631528771 0 0.28040350263641872 0.23054717217092141 0 0.57724883562309992 0.92155686857100794 0 0.54783390826260769 0.89287767010860219 0 0.5832743223239254 0.88483152652961872 0 0.55899371797446828 0.85003102233514438 0 0.5832743223239254 0.88483152652961872 0 0.54783390826260769 0.89287767010860219 0 0.4089290844030305 0.58728915500154233 0 0.43545892161006339 0.61093128915313821 0 0.39743091024207589 0.6239520004230239 0 0.77293540622714185 0.59448302402785813 0 0.81723410853263523 0.59419663659258926 0 0.79884539758237771 0.62875045078114233 0 0.83758014339878906 0.63222013025741819 0 0.79884539758237771 0.62875045078114233 0 0.81723410853263523 0.59419663659258926 0 0.35864735590330371 0.63903383440414463 0 0.39743091024207589 0.6239520004230239 0 0.3977710372045391 0.65868194622830212 0 0.56202748619534593 0.15054058349222879 0 0.54979595918804436 0.1060565713905809 0 0.58516465772821369 0.11653801664834119 0 0.57667858002728545 0.078486105337742612 0 0.58516465772821369 0.11653801664834119 0 0.54979595918804436 0.1060565713905809 0 0.33122374654748771 0.57588941099433744 0 0.37272913873093971 0.56192925302619479 0 0.35765792684946668 0.6000687869219653 0 0.35864735590330371 0.63903383440414463 0 0.35765792684946668 0.6000687869219653 0 0.39743091024207589 0.6239520004230239 0 0.71508799138962864 0.36622814920737751 0 0.68887083591306764 0.33632058575757479 0 0.73090396928863699 0.33699297293167962 0 0.29348325746214782 0.31350119524708198 0 0.32752639306529541 0.32610012995269699 0 0.29644548887253103 0.34914008784168082 0 0.33277555741076909 0.36432196682010132 0 0.29644548887253103 0.34914008784168082 0 0.32752639306529541 0.32610012995269699 0 0.34258405725730701 0.4444034294386992 0 0.31778888742534622 0.40581751814196781 0 0.35221190152536241 0.40457127605439203 0 0.79999999999999982 0.69999999999999996 0 0.81864958914779962 0.73589050177899629 0 0.78578450296893509 0.73292684821144505 0 0.79999999999947335 0 0 0.81864958914740749 0.035890501779055867 0 0.78393852574753176 0.032039079577822822 0 0.27474541102162192 0.11822029332053539 0 0.29336099386129338 0.15892013001050981 0 0.25557216766470708 0.15874861286892261 0 0 0.45000000000187229 0 0.035463093262830522 0.42673416072819947 0 0.033550201249889847 0.46247875832467239 0 0.6499999999999998 0.69999999999999996 0 0.66427993341343905 0.73232764502436276 0 0.63221990677827677 0.73442891067859706 0 0.84723782639812573 0.48638347960178252 0 0.81441713509985358 0.51161854125224959 0 0.81400510706333218 0.47357325943904899 0 0.26104540868854792 0.81401944968719064 0 0.30857225866488791 0.81101973481716805 0 0.29209212897034281 0.84715728365233667 0 0.33403534827021109 0.84402799729020661 0 0.29209212897034281 0.84715728365233667 0 0.30857225866488791 0.81101973481716805 0 0.69999999999999984 0.29999999999999999 0 0.73090396928863699 0.33699297293167962 0 0.68887083591306764 0.33632058575757479 0 
</DataArray>
</Points>
<Cells>
<DataArray type="UInt32" Name="connectivity" format="ascii">
0 1 2 3 4 5 6 7 8 9 10 11 12 13 14 15 16 17 18 19 20 21 22 23 24 25 26 27 28 29 30 31 32 33 34 35 36 37 38 39 40 41 42 43 44 45 46 47 48 49 50 51 52 53 54 55 56 57 58 59 60 61 62 63 64 65 66 67 68 69 70 71 72 73 74 75 76 77 78 79 80 81 82 83 84 85 86 87 88 89 90 91 92 93 94 95 96 97 98 99 100 101 102 103 104 105 106 107 108 109 110 111 112 113 114 115 116 117 118 119 120 121 122 123 124 125 126 127 128 129 130 131 132 133 134 135 136 137 138 139 140 141 142 143 144 145 146 147 148 149 150 151 152 153 154 155 156 157 158 159 160 161 162 163 164 165 166 167 168 169 170 171 172 173 174 175 176 177 178 179 180 181 182 183 184 185 186 187 188 189 190 191 192 193 194 195 196 197 198 199 200 201 202 203 204 205 206 207 208 209 210 211 212 213 214 215 216 217 218 219 220 221 222 223 224 225 226 227 228 229 230 231 232 233 234 235 236 237 238 239 240 241 242 243 244 245 246 247 248 249 250 251 252 253 254 255 256 257 258 259 260 261 262 263 264 265 266 267 268 269 270 271 272 273 274 275 276 277 278 279 280 281 282 283 284 285 286 287 288 289 290 291 292 293 294 295 296 297 298 299 300 301 302 303 304 305 306 307 308 309 310 311 312 313 314 315 316 317 318 319 320 321 322 323 324 325 326 327 328 329 330 331 332 333 334 335 336 337 338 339 340 341 342 343 344 345 346 347 348 349 350 351 352 353 354 355 356 357 358 359 360 361 362 363 364 365 366 367 368 369 370 371 372 373 374 375 376 377 378 379 380 381 382 383 384 385 386 387 388 389 390 391 392 393 394 395 396 397 398 399 400 401 402 403 404 405 406 407 408 409 410 411 412 413 414 415 416 417 418 419 420 421 422 423 424 425 426 427 428 429 430 431 432 433 434 435 436 437 438 439 440 441 442 443 444 445 446 447 448 449 450 451 452 453 454 455 456 457 458 459 460 461 462 463 464 465 466 467 468 469 470 471 472 473 474 475 476 477 478 479 480 481 482 483 484 485 486 487 488 489 490 491 492 493 494 495 496 497 498 499 500 501 502 503 504 505 506 507 508 509 510 511 512 513 514 515 516 517 518 519 520 521 522 523 524 525 526 527 528 529 530 531 532 533 534 535 536 537 538 539 540 541 542 543 544 545 546 547 548 549 550 551 552 553 554 555 556 557 558 559 560 561 562 563 564 565 566 567 568 569 570 571 572 573 574 575 576 577 578 579 580 581 582 583 584 585 586 587 588 589 590 591 592 593 594 595 596 597 598 599 600 601 602 603 604 605 606 607 608 609 610 611 612 613 614 615 616 617 618 619 620 621 622 623 624 625 626 627 628 629 630 631 632 633 634 635 636 637 638 639 640 641 642 643 644 645 646 647 648 649 650 651 652 653 654 655 656 657 658 659 660 661 662 663 664 665 666 667 668 669 670 671 672 673 674 675 676 677 678 679 680 681 682 683 684 685 686 687 688 689 690 691 692 693 694 695 696 697 698 699 700 701 702 703 704 705 706 707 708 709 710 711 712 713 714 715 716 717 718 719 720 721 722 723 724 725 726 727 728 729 730 731 732 733 734 735 736 737 738 739 740 741 742 743 744 745 746 747 748 749 750 751 752 753 754 755 756 757 758 759 760 761 762 763 764 765 766 767 768 769 770 771 772 773 774 775 776 777 778 779 780 781 782 783 784 785 786 787 788 789 790 791 792 793 794 795 796 797 798 799 800 801 802 803 804 805 806 807 808 809 810 811 812 813 814 815 816 817 818 819 820 821 822 823 824 825 826 827 828 829 830 831 832 833 834 835 836 837 838 839 840 841 842 843 844 845 846 847 848 849 850 851 852 853 854 855 856 857 858 859 860 861 862 863 864 865 866 867 868 869 870 871 872 873 874 875 876 877 878 879 880 881 882 883 884 885 886 887 888 889 890 891 892 893 894 895 896 897 898 899 900 901 902 903 904 905 906 907 908 909 910 911 912 913 914 915 916 917 918 919 920 921 922 923 924 925 926 927 928 929 930 931 932 933 934 935 936 937 938 939 940 941 942 943 944 945 946 947 948 949 950 951 952 953 954 955 956 957 958 959 960 961 962 963 964 965 966 967 968 969 970 971 972 973 974 975 976 977 978 979 980 981 982 983 984 985 986 987 988 989 990 991 992 993 994 995 996 997 998 999 1000 1001 1002 1003 1004 1005 1006 1007 1008 1009 1010 1011 1012 1013 1014 1015 1016 1017 1018 1019 1020 1021 1022 1023 1024 1025 1026 1027 1028 1029 1030 1031 1032 1033 1034 1035 1036 1037 1038 1039 1040 1041 1042 1043 1044 1045 1046 1047 1048 1049 1050 1051 1052 1053 1054 1055 1056 1057 1058 1059 1060 1061 1062 1063 1064 1065 1066 1067 1068 1069 1070 1071 1072 1073 1074 1075 1076 1077 1078 1079 1080 1081 1082 1083 1084 1085 1086 1087 1088 1089 1090 1091 1092 1093 1094 1095 1096 1097 1098 1099 1100 1101 1102 1103 1104 1105 1106 1107 1108 1109 1110 1111 1112 1113 1114 1115 1116 1117 1118 1119 1120 1121 1122 1123 1124 1125 1126 1127 1128 1129 1130 1131 1132 1133 1134 1135 1136 1137 1138 1139 1140 1141 1142 1143 1144 1145 1146 1147 1148 1149 1150 1151 1152 1153 1154 1155 1156 1157 1158 1159 1160 1161 1162 1163 1164 1165 1166 1167 1168 1169 1170 1171 1172 1173 1174 1175 1176 1177 1178 1179 1180 1181 1182 1183 1184 1185 1186 1187 1188 1189 1190 1191 1192 1193 1194 1195 1196 1197 1198 1199 1200 1201 1202 1203 1204 1205 1206 1207 1208 1209 1210 1211 1212 1213 1214 1215 1216 1217 1218 1219 1220 1221 1222 1223 1224 1225 1226 1227 1228 1229 1230 1231 1232 1233 1234 1235 1236 1237 1238 1239 1240 1241 1242 1243 1244 1245 1246 1247 1248 1249 1250 1251 1252 1253 1254 1255 1256 1257 1258 1259 1260 1261 1262 1263 1264 1265 1266 1267 1268 1269 1270 1271 1272 1273 1274 1275 1276 1277 1278 1279 1280 1281 1282 1283 1284 1285 1286 1287 1288 1289 1290 1291 1292 1293 1294 1295 1296 1297 1298 1299 1300 1301 1302 1303 1304 1305 1306 1307 1308 1309 1310 1311 1312 1313 1314 1315 1316 1317 1318 1319 1320 1321 1322 1323 1324 1325 1326 1327 1328 1329 1330 1331 1332 1333 1334 1335 1336 1337 1338 1339 1340 1341 1342 1343 1344 1345 1346 1347 1348 1349 1350 1351 1352 1353 1354 1355 1356 1357 1358 1359 1360 1361 1362 1363 1364 1365 1366 1367 1368 1369 1370 1371 1372 1373 1374 1375 1376 1377 1378 1379 1380 1381 1382 1383 1384 1385 1386 1387 1388 1389 1390 1391 1392 1393 1394 1395 1396 1397 1398 1399 1400 1401 1402 1403 1404 1405 1406 1407 1408 1409 1410 1411 1412 1413 1414 1415 1416 1417 1418 1419 1420 1421 1422 1423 1424 1425 1426 1427 1428 1429 1430 1431 1432 1433 1434 1435 1436 1437 1438 1439 1440 1441 1442 1443 1444 1445 1446 1447 1448 1449 1450 1451 1452 1453 1454 1455 1456 1457 1458 1459 1460 1461 1462 1463 1464 1465 1466 1467 1468 1469 1470 1471 1472 1473 1474 1475 1476 1477 1478 1479 1480 1481 1482 1483 1484 1485 1486 1487 1488 1489 1490 1491 1492 1493 1494 1495 1496 1497 1498 1499 1500 1501 1502 1503 1504 1505 1506 1507 1508 1509 1510 1511 1512 1513 1514 1515 1516 1517 1518 1519 1520 1521 1522 1523 1524 1525 1526 1527 1528 1529 1530 1531 1532 1533 1534 1535 1536 1537 1538 1539 1540 1541 1542 1543 1544 1545 1546 1547 1548 1549 1550 1551 1552 1553 1554 1555 1556 1557 1558 1559 1560 1561 1562 1563 1564 1565 1566 1567 1568 1569 1570 1571 1572 1573 1574 1575 1576 1577 1578 1579 1580 1581 1582 1583 1584 1585 1586 1587 1588 1589 1590 1591 1592 1593 1594 1595 1596 1597 1598 1599 1600 1601 1602 1603 1604 1605 1606 1607 1608 1609 1610 1611 1612 1613 1614 1615 1616 1617 1618 1619 1620 1621 1622 1623 1624 1625 1626 1627 1628 1629 1630 1631 1632 1633 1634 1635 1636 1637 1638 1639 1640 1641 1642 1643 1644 1645 1646 1647 1648 1649 1650 1651 1652 1653 1654 1655 1656 1657 1658 1659 1660 1661 1662 1663 1664 1665 1666 1667 1668 1669 1670 1671 1672 1673 1674 1675 1676 1677 1678 1679 1680 1681 1682 1683 1684 1685 1686 1687 1688 1689 1690 1691 1692 1693 1694 1695 1696 1697 1698 1699 1700 1701 1702 1703 1704 1705 1706 1707 1708 1709 1710 1711 1712 1713 1714 1715 1716 1717 1718 1719 1720 1721 1722 1723 1724 1725 1726 1727 1728 1729 1730 1731 1732 1733 1734 1735 1736 1737 1738 1739 1740 1741 1742 1743 1744 1745 1746 1747 1748 1749 1750 1751 1752 1753 1754 1755 1756 1757 1758 1759 1760 1761 1762 1763 1764 1765 1766 1767 1768 1769 1770 1771 1772 1773 1774 1775 1776 1777 1778 1779 1780 1781 1782 1783 1784 1785 1786 1787 1788 1789 1790 1791 1792 1793 1794 1795 1796 1797 1798 1799 1800 1801 1802 1803 1804 1805 1806 1807 1808 1809 1810 1811 1812 1813 1814 1815 1816 1817 1818 1819 1820 1821 1822 1823 1824 1825 1826 1827 1828 1829 1830 1831 1832 1833 1834 1835 1836 1837 1838 1839 1840 1841 1842 1843 1844 1845 1846 1847 1848 1849 1850 1851 1852 1853 1854 1855 1856 1857 1858 1859 1860 1861 1862 1863 1864 1865 1866 1867 1868 1869 1870 1871 1872 1873 1874 1875 1876 1877 1878 1879 1880 1881 1882 1883 1884 1885 1886 1887 1888 1889 1890 1891 1892 1893 1894 1895 1896 1897 1898 1899 1900 1901 1902 1903 1904 1905 1906 1907 1908 1909 1910 1911 1912 1913 1914 1915 1916 1917 1918 1919 1920 1921 1922 1923 1924 1925 1926 1927 1928 1929 1930 1931 1932 1933 1934 1935 1936 1937 1938 1939 1940 1941 1942 1943 1944 1945 1946 1947 1948 1949 1950 1951 1952 1953 1954 1955 1956 1957 1958 1959 1960 1961 1962 1963 1964 1965 1966 1967 1968 1969 1970 1971 1972 1973 1974 1975 1976 1977 1978 1979 1980 1981 1982 1983 1984 1985 1986 1987 1988 1989 1990 1991 1992 1993 1994 1995 1996 1997 1998 1999 2000 2001 2002 2003 2004 2005 2006 2007 2008 2009 2010 2011 2012 2013 2014 2015 2016 2017 2018 2019 2020 2021 2022 2023 2024 2025 2026 2027 2028 2029 2030 2031 2032 2033 2034 2035 2036 2037 2038 2039 2040 2041 2042 2043 2044 2045 2046 2047 2048 2049 2050 2051 2052 2053 2054 2055 2056 2057 2058 2059 2060 2061 2062 2063 2064 2065 2066 2067 2068 2069 2070 2071 2072 2073 2074 2075 2076 2077 2078 2079 2080 2081 2082 2083 2084 2085 2086 2087 2088 2089 2090 2091 2092 2093 2094 2095 2096 2097 2098 2099 2100 2101 2102 2103 2104 2105 2106 2107 2108 2109 2110 2111 2112 2113 2114 2115 2116 2117 2118 2119 2120 2121 2122 2123 2124 2125 2126 2127 2128 2129 2130 2131 2132 2133 2134 2135 2136 2137 2138 2139 2140 2141 2142 2143 2144 2145 2146 2147 2148 2149 2150 2151 2152 2153 2154 2155 2156 2157 2158 2159 2160 2161 2162 2163 2164 2165 2166 2167 2168 2169 2170 2171 2172 2173 2174 2175 2176 2177 2178 2179 2180 2181 2182 2183 2184 2185 2186 2187 2188 2189 2190 2191 2192 2193 2194 2195 2196 2197 2198 2199 2200 2201 2202 2203 2204 2205 2206 2207 2208 2209 2210 2211 2212 2213 2214 2215 2216 2217 2218 2219 2220 2221 2222 2223 2224 2225 2226 2227 2228 2229 2230 2231 2232 2233 2234 2235 2236 2237 2238 2239 2240 2241 2242 2243 2244 2245 2246 2247 2248 2249 2250 2251 2252 2253 2254 2255 2256 2257 2258 2259 2260 2261 2262 2263 2264 2265 2266 2267 2268 2269 2270 2271 2272 2273 2274 2275 2276 2277 2278 2279 2280 2281 2282 2283 2284 2285 2286 2287 2288 2289 2290 2291 2292 2293 2294 2295 2296 2297 2298 2299 2300 2301 2302 2303 2304 2305 2306 2307 2308 2309 2310 2311 2312 2313 2314 2315 2316 2317 2318 2319 2320 2321 2322 2323 2324 2325 2326 2327 2328 2329 2330 2331 2332 2333 2334 2335 2336 2337 2338 2339 2340 2341 2342 2343 2344 2345 2346 2347 2348 2349 2350 2351 2352 2353 2354 2355 2356 2357 2358 2359 2360 2361 2362 2363 2364 2365 2366 2367 2368 2369 2370 2371 2372 2373 2374 2375 2376 2377 2378 2379 2380 2381 2382 2383 2384 2385 2386 2387 2388 2389 2390 2391 2392 2393 2394 2395 2396 2397 2398 2399 2400 2401 2402 2403 2404 2405 2406 2407 2408 2409 2410 2411 2412 2413 2414 2415 2416 2417 2418 2419 2420 2421 2422 2423 2424 2425 2426 2427 2428 2429 2430 2431 2432 2433 2434 2435 2436 2437 2438 2439 2440 2441 2442 2443 2444 2445 2446 2447 2448 2449 2450 2451 2452 2453 2454 2455 2456 2457 2458 2459 2460 2461 2462 2463 2464 2465 2466 2467 2468 2469 2470 2471 2472 2473 2474 2475 2476 2477 2478 2479 2480 2481 2482 2483 2484 2485 2486 2487 2488 2489 2490 2491 2492 2493 2494 2495 2496 2497 2498 2499 2500 2501 2502 2503 2504 2505 2506 2507 2508 2509 2510 2511 2512 2513 2514 2515 2516 2517 2518 2519 2520 2521 2522 2523 2524 2525 2526 2527 2528 2529 2530 2531 2532 2533 2534 2535 2536 2537 2538 2539 2540 2541 2542 2543 2544 2545 2546 2547 2548 2549 2550 2551 2552 2553 2554 2555 2556 2557 2558 2559 2560 2561 2562 2563 2564 2565 2566 2567 2568 2569 2570 2571 2572 2573 2574 2575 2576 2577 2578 2579 2580 2581 2582 2583 2584 2585 2586 2587 2588 2589 2590 2591 2592 2593 2594 2595 2596 2597 2598 2599 2600 2601 2602 2603 2604 2605 2606 2607 2608 2609 2610 2611 2612 2613 2614 2615 2616 2617 2618 2619 2620 2621 2622 2623 2624 2625 2626 2627 2628 2629 2630 2631 2632 2633 2634 2635 2636 2637 2638 2639 2640 2641 2642 2643 2644 2645 2646 2647 2648 2649 2650 2651 2652 2653 2654 2655 2656 2657 2658 2659 2660 2661 2662 2663 2664 2665 2666 2667 2668 2669 2670 2671 2672 2673 2674 2675 2676 2677 2678 2679 2680 2681 2682 2683 2684 2685 2686 2687 2688 2689 2690 2691 2692 2693 2694 2695 2696 2697 2698 2699 2700 2701 2702 2703 2704 2705 2706 2707 2708 2709 2710 2711 2712 2713 2714 2715 2716 2717 2718 2719 2720 2721 2722 2723 2724 2725 2726 2727 2728 2729 2730 2731 2732 2733 2734 2735 2736 2737 2738 2739 2740 2741 2742 2743 2744 2745 2746 2747 2748 2749 2750 2751 2752 2753 2754 2755 2756 2757 2758 2759 2760 2761 2762 2763 2764 2765 2766 2767 2768 2769 2770 2771 2772 2773 2774 2775 2776 2777 2778 2779 2780 2781 2782 2783 2784 2785 2786 2787 2788 2789 2790 2791 2792 2793 2794 2795 2796 2797 2798 2799 2800 2801 2802 2803 2804 2805 2806 2807 2808 2809 2810 2811 2812 2813 2814 2815 2816 2817 2818 2819 2820 2821 2822 2823 2824 2825 2826 2827 2828 2829 2830 2831 2832 2833 2834 2835 2836 2837 2838 2839 2840 2841 2842 2843 2844 2845 2846 2847 2848 2849 2850 2851 2852 2853 2854 2855 2856 2857 2858 2859 2860 2861 2862 2863 2864 2865 2866 2867 2868 2869 2870 2871 2872 2873 2874 2875 2876 2877 2878 2879 2880 2881 2882 2883 2884 2885 2886 2887 2888 2889 2890 2891 2892 2893 2894 2895 2896 2897 2898 2899 2900 2901 2902 2903 2904 2905 2906 2907 2908 2909 2910 2911 2912 2913 2914 2915 2916 2917 2918 2919 2920 2921 2922 2923 2924 2925 2926 2927 2928 2929 2930 2931 2932 2933 2934 2935 2936 2937 2938 2939 2940 2941 2942 2943 2944 2945 2946 2947 2948 2949 2950 2951 2952 2953 2954 2955 2956 2957 2958 2959 2960 2961 2962 2963 2964 2965 2966 2967 2968 2969 2970 2971 2972 2973 2974 2975 2976 2977 2978 2979 2980 2981 2982 2983 2984 2985 2986 2987 2988 2989 2990 2991 2992 2993 2994 2995 2996 2997 2998 2999 3000 3001 3002 3003 3004 3005 3006 3007 3008 3009 3010 3011 3012 3013 3014 3015 3016 3017 3018 3019 3020 3021 3022 3023 3024 3025 3026 3027 3028 3029 3030 3031 3032 3033 3034 3035 3036 3037 3038 3039 3040 3041 3042 3043 3044 3045 3046 3047 3048 3049 3050 3051 3052 3053 3054 3055 3056 3057 3058 3059 3060 3061 3062 3063 3064 3065 3066 3067 3068 3069 3070 3071 3072 3073 3074 3075 3076 3077 3078 3079 3080 3081 3082 3083 3084 3085 3086 3087 3088 3089 3090 3091 3092 3093 3094 3095 3096 3097 3098 3099 3100 3101 3102 3103 3104 3105 3106 3107 3108 3109 3110 3111 3112 3113 3114 3115 3116 3117 3118 3119 3120 3121 3122 3123 3124 3125 3126 3127 3128 3129 3130 3131 3132 3133 3134 3135 3136 3137 3138 3139 3140 3141 
</DataArray>
<DataArray type="UInt32" Name="offsets" format="ascii">
2 4 6 8 10 12 14 16 18 20 22 24 26 28 30 32 34 36 38 40 43 46 49 52 55 58 61 64 67 70 73 76 79 82 85 88 91 94 97 100 103 106 109 112 115 118 121 124 127 130 133 136 139 142 145 148 151 154 157 160 163 166 169 172 175 178 181 184 187 190 193 196 199 202 205 208 211 214 217 220 223 226 229 232 235 238 241 244 247 250 253 256 259 262 265 268 271 274 277 280 283 286 289 292 295 298 301 304 307 310 313 316 319 322 325 328 331 334 337 340 343 346 349 352 355 358 361 364 367 370 373 376 379 382 385 388 391 394 397 400 403 406 409 412 415 418 421 424 427 430 433 436 439 442 445 448 451 454 457 460 463 466 469 472 475 478 481 484 487 490 493 496 499 502 505 508 511 514 517 520 523 526 529 532 535 538 541 544 547 550 553 556 559 562 565 568 571 574 577 580 583 586 589 592 595 598 601 604 607 610 613 616 619 622 625 628 631 634 637 640 643 646 649 652 655 658 661 664 667 670 673 676 679 682 685 688 691 694 697 700 703 706 709 712 715 718 721 724 727 730 733 736 739 742 745 748 751 754 757 760 763 766 769 772 775 778 781 784 787 790 793 796 799 802 805 808 811 814 817 820 823 826 829 832 835 838 841 844 847 850 853 856 859 862 865 868 871 874 877 880 883 886 889 892 895 898 901 904 907 910 913 916 919 922 925 928 931 934 937 940 943 946 949 952 955 958 961 964 967 970 973 976 979 982 985 988 991 994 997 1000 1003 1006 1009 1012 1015 1018 1021 1024 1027 1030 1033 1036 1039 1042 1045 1048 1051 1054 1057 1060 1063 1066 1069 1072 1075 1078 1081 1084 1087 1090 1093 1096 1099 1102 1105 1108 1111 1114 1117 1120 1123 1126 1129 1132 1135 1138 1141 1144 1147 1150 1153 1156 1159 1162 1165 1168 1171 1174 1177 1180 1183 1186 1189 1192 1195 1198 1201 1204 1207 1210 1213 1216 1219 1222 1225 1228 1231 1234 1237 1240 1243 1246 1249 1252 1255 1258 1261 1264 1267 1270 1273 1276 1279 1282 1285 1288 1291 1294 1297 1300 1303 1306 1309 1312 1315 1318 1321 1324 1327 1330 1333 1336 1339 1342 1345 1348 1351 1354 1357 1360 1363 1366 1369 1372 1375 1378 1381 1384 1387 1390 1393 1396 1399 1402 1405 1408 1411 1414 1417 1420 1423 1426 1429 1432 1435 1438 1441 1444 1447 1450 1453 1456 1459 1462 1465 1468 1471 1474 1477 1480 1483 1486 1489 1492 1495 1498 1501 1504 1507 1510 1513 1516 1519 1522 1525 1528 1531 1534 1537 1540 1543 1546 1549 1552 1555 1558 1561 1564 1567 1570 1573 1576 1579 1582 1585 1588 1591 1594 1597 1600 1603 1606 1609 1612 1615 1618 1621 1624 1627 1630 1633 1636 1639 1642 1645 1648 1651 1654 1657 1660 1663 1666 1669 1672 1675 1678 1681 1684 1687 1690 1693 1696 1699 1702 1705 1708 1711 1714 1717 1720 1723 1726 1729 1732 1735 1738 1741 1744 1747 1750 1753 1756 1759 1762 1765 1768 1771 1774 1777 1780 1783 1786 1789 1792 1795 1798 1801 1804 1807 1810 1813 1816 1819 1822 1825 1828 1831 1834 1837 1840 1843 1846 1849 1852 1855 1858 1861 1864 1867 1870 1873 1876 1879 1882 1885 1888 1891 1894 1897 1900 1903 1906 1909 1912 1915 1918 1921 1924 1927 1930 1933 1936 1939 1942 1945 1948 1951 1954 1957 1960 1963 1966 1969 1972 1975 1978 1981 1984 1987 1990 1993 1996 1999 2002 2005 2008 2011 2014 2017 2020 2023 2026 2029 2032 2035 2038 2041 2044 2047 2050 2053 2056 2059 2062 2065 2068 2071 2074 2077 2080 2083 2086 2089 2092 2095 2098 2101 2104 2107 2110 2113 2116 2119 2122 2125 2128 2131 2134 2137 2140 2143 2146 2149 2152 2155 2158 2161 2164 2167 2170 2173 2176 2179 2182 2185 2188 2191 2194 2197 2200 2203 2206 2209 2212 2215 2218 2221 2224 2227 2230 2233 2236 2239 2242 2245 2248 2251 2254 2257 2260 2263 2266 2269 2272 2275 2278 2281 2284 2287 2290 2293 2296 2299 2302 2305 2308 2311 2314 2317 2320 2323 2326 2329 2332 2335 2338 2341 2344 2347 2350 2353 2356 2359 2362 2365 2368 2371 2374 2377 2380 2383 2386 2389 2392 2395 2398 2401 2404 2407 2410 2413 2416 2419 2422 2425 2428 2431 2434 2437 2440 2443 2446 2449 2452 2455 2458 2461 2464 2467 2470 2473 2476 2479 2482 2485 2488 2491 2494 2497 2500 2503 2506 2509 2512 2515 2518 2521 2524 2527 2530 2533 2536 2539 2542 2545 2548 2551 2554 2557 2560 2563 2566 2569 2572 2575 2578 2581 2584 2587 2590 2593 2596 2599 2602 2605 2608 2611 2614 2617 2620 2623 2626 2629 2632 2635 2638 2641 2644 2647 2650 2653 2656 2659 2662 2665 2668 2671 2674 2677 2680 2683 2686 2689 2692 2695 2698 2701 2704 2707 2710 2713 2716 2719 2722 2725 2728 2731 2734 2737 2740 2743 2746 2749 2752 2755 2758 2761 2764 2767 2770 2773 2776 2779 2782 2785 2788 2791 2794 2797 2800 2803 2806 2809 2812 2815 2818 2821 2824 2827 2830 2833 2836 2839 2842 2845 2848 2851 2854 2857 2860 2863 2866 2869 2872 2875 2878 2881 2884 2887 2890 2893 2896 2899 2902 2905 2908 2911 2914 2917 2920 2923 2926 2929 2932 2935 2938 2941 2944 2947 2950 2953 2956 2959 2962 2965 2968 2971 2974 2977 2980 2983 2986 2989 2992 2995 2998 3001 3004 3007 3010 3013 3016 3019 3022 3025 3028 3031 3034 3037 3040 3043 3046 3049 3052 3055 3058 3061 3064 3067 3070 3073 3076 3079 3082 3085 3088 3091 3094 3097 3100 3103 3106 3109 3112 3115 3118 3121 3124 3127 3130 3133 3136 3139 3142 
</DataArray>
<DataArray type="UInt32" Name="types" format="ascii">
3 3 3 3 3 3 3 3 3 3 3 3 3 3 3 3 3 3 3 3 5 5 5 5 5 5 5 5 5 5 5 5 5 5 5 5 5 5 5 5 5 5 5 5 5 5 5 5 5 5 5 5 5 5 5 5 5 5 5 5 5 5 5 5 5 5 5 5 5 5 5 5 5 5 5 5 5 5 5 5 5 5 5 5 5 5 5 5 5 5 5 5 5 5 5 5 5 5 5 5 5 5 5 5 5 5 5 5 5 5 5 5 5 5 5 5 5 5 5 5 5 5 5 5 5 5 5 5 5 5 5 5 5 5 5 5 5 5 5 5 5 5 5 5 5 5 5 5 5 5 5 5 5 5 5 5 5 5 5 5 5 5 5 5 5 5 5 5 5 5 5 5 5 5 5 5 5 5 5 5 5 5 5 5 5 5 5 5 5 5 5 5 5 5 5 5 5 5 5 5 5 5 5 5 5 5 5 5 5 5 5 5 5 5 5 5 5 5 5 5 5 5 5 5 5 5 5 5 5 5 5 5 5 5 5 5 5 5 5 5 5 5 5 5 5 5 5 5 5 5 5 5 5 5 5 5 5 5 5 5 5 5 5 5 5 5 5 5 5 5 5 5 5 5 5 5 5 5 5 5 5 5 5 5 5 5 5 5 5 5 5 5 5 5 5 5 5 5 5 5 5 5 5 5 5 5 5 5 5 5 5 5 5 5 5 5 5 5 5 5 5 5 5 5 5 5 5 5 5 5 5 5 5 5 5 5 5 5 5 5 5 5 5 5 5 5 5 5 5 5 5 5 5 5 5 5 5 5 5 5 5 5 5 5 5 5 5 5 5 5 5 5 5 5 5 5 5 5 5 5 5 5 5 5 5 5 5 5 5 5 5 5 5 5 5 5 5 5 5 5 5 5 5 5 5 5 5 5 5 5 5 5 5 5 5 5 5 5 5 5 5 5 5 5 5 5 5 5 5 5 5 5 5 5 5 5 5 5 5 5 5 5 5 5 5 5 5 5 5 5 5 5 5 5 5 5 5 5 5 5 5 5 5 5 5 5 5 5 5 5 5 5 5 5 5 5 5 5 5 5 5 5 5 5 5 5 5 5 5 5 5 5 5 5 5 5 5 5 5 5 5 5 5 5 5 5 5 5 5 5 5 5 5 5 5 5 5 5 5 5 5 5 5 5 5 5 5 5 5 5 5 5 5 5 5 5 5 5 5 5 5 5 5 5 5 5 5 5 5 5 5 5 5 5 5 5 5 5 5 5 5 5 5 5 5 5 5 5 5 5 5 5 5 5 5 5 5 5 5 5 5 5 5 5 5 5 5 5 5 5 5 5 5 5 5 5 5 5 5 5 5 5 5 5 5 5 5 5 5 5 5 5 5 5 5 5 5 5 5 5 5 5 5 5 5 5 5 5 5 5 5 5 5 5 5 5 5 5 5 5 5 5 5 5 5 5 5 5 5 5 5 5 5 5 5 5 5 5 5 5 5 5 5 5 5 5 5 5 5 5 5 5 5 5 5 5 5 5 5 5 5 5 5 5 5 5 5 5 5 5 5 5 5 5 5 5 5 5 5 5 5 5 5 5 5 5 5 5 5 5 5 5 5 5 5 5 5 5 5 5 5 5 5 5 5 5 5 5 5 5 5 5 5 5 5 5 5 5 5 5 5 5 5 5 5 5 5 5 5 5 5 5 5 5 5 5 5 5 5 5 5 5 5 5 5 5 5 5 5 5 5 5 5 5 5 5 5 5 5 5 5 5 5 5 5 5 5 5 5 5 5 5 5 5 5 5 5 5 5 5 5 5 5 5 5 5 5 5 5 5 5 5 5 5 5 5 5 5 5 5 5 5 5 5 5 5 5 5 5 5 5 5 5 5 5 5 5 5 5 5 5 5 5 5 5 5 5 5 5 5 5 5 5 5 5 5 5 5 5 5 5 5 5 5 5 5 5 5 5 5 5 5 5 5 5 5 5 5 5 5 5 5 5 5 5 5 5 5 5 5 5 5 5 5 5 5 5 5 5 5 5 5 5 5 5 5 5 5 5 5 5 5 5 5 5 5 5 5 5 5 5 5 5 5 5 5 5 5 5 5 5 5 5 5 5 5 5 5 5 5 5 5 5 5 5 5 5 5 5 5 5 5 5 5 5 5 5 5 5 5 5 5 5 5 5 5 5 5 5 5 5 5 5 5 5 5 5 5 5 5 5 5 5 5 5 5 5 5 5 5 5 5 5 5 5 5 5 5 5 5 5 5 5 5 5 5 5 5 5 5 5 5 5 5 5 5 5 5 5 5 5 5 5 5 5 5 5 5 5 5 5 5 5 5 5 5 5 5 5 5 5 5 5 5 5 5 5 5 5 5 5 5 5 5 
</DataArray>
</Cells>
<PointData Scalars="" Vectors="displacement," Tensors="">
<DataArray type="Float64" Name="displacement" NumberOfComponents="3" format="ascii">
-1.2749729416393781e-05 -1.3452124555118816e-05 0 -1.3740215904996537e-05 -1.8595034807605129e-05 0 -1.3740215904996537e-05 -1.8595034807605129e-05 0 -1.4908050255621974e-05 -2.4585465984496143e-05 0 -1.4908050255621974e-05 -2.4585465984496143e-05 0 -1.6276716808285432e-05 -3.1524926942992928e-05 0 -1.6276716808285432e-05 -3.1524926942992928e-05 0 -1.7550541423212185e-05 -3.8769213658963576e-05 0 -1.7550541423212185e-05 -3.8769213658963576e-05 0 -1.8696585358829227e-05 -4.6066231885695069e-05 0 -1.8696585358829227e-05 -4.6066231885695069e-05 0 -1.9818748421576455e-05 -5.33709060303924e-05 0 -1.9818748421576455e-05 -5.33709060303924e-05 0 -2.1051843719294329e-05 -6.0131399633719201e-05 0 -2.1051843719294329e-05 -6.0131399633719201e-05 0 -2.2366680372707459e-05 -6.7246245708897781e-05 0 -2.2366680372707459e-05 -6.7246245708897781e-05 0 -2.3202806590365051e-05 -7.2464181534257112e-05 0 -2.3202806590365051e-05 -7.2464181534257112e-05 0 -2.6061694428784034e-05 -7.8836864955753616e-05 0 4.4781108156446331e-06 1.9407667440831332e-05 0 7.9741433559070353e-06 3.0280273956489809e-05 0 7.9741433559070353e-06 3.0280273956489809e-05 0 7.6499316788642296e-06 3.5505197697645065e-05 0 7.6499316788642296e-06 3.5505197697645065e-05 0 7.1059784845041444e-06 4.5979018035261464e-05 0 7.1059784845041444e-06 4.5979018035261464e-05 0 6.2228604872064877e-06 5.4999408542957703e-05 0 6.2228604872064877e-06 5.4999408542957703e-05 0 5.0391695490799789e-06 6.5174285303791317e-05 0 5.0391695490799789e-06 6.5174285303791317e-05 0 3.5456888776030239e-06 7.5785578462764567e-05 0 3.5456888776030239e-06 7.5785578462764567e-05 0 1.844681967368904e-06 8.4605138390473838e-05 0 1.844681967368904e-06 8.4605138390473838e-05 0 -1.0907485357065358e-06 9.6709452136685336e-05 0 -1.0907485357065358e-06 9.6709452136685336e-05 0 -1.0889615422205714e-07 0.00010305518809032425 0 -1.0889615422205714e-07 0.00010305518809032425 0 -1.5070095043814646e-05 0.0001149576888454786 0 -1.0384146327967334e-05 -5.1420251031169822e-06 0 -7.692278350281013e-06 -1.7514892315685822e-06 0 -9.7574281146568148e-06 -4.3868931312151676e-06 0 -9.0542274466736897e-06 -2.8728483013846419e-06 0 -7.692278350281013e-06 -1.7514892315685822e-06 0 -1.0384146327967334e-05 -5.1420251031169822e-06 0 -1.883255060136317e-05 -1.0361141023057181e-05 0 -1.619526464202504e-05 -7.5592067929051814e-06 0 -1.686376202542618e-05 -1.0100888565029135e-05 0 -1.686376202542618e-05 -1.0100888565029135e-05 0 -1.619526464202504e-05 -7.5592067929051805e-06 0 -1.4807609417733458e-05 -9.0067789507896346e-06 0 -1.0479514578144917e-05 3.1537577028144504e-06 0 -4.5690416649217711e-06 7.5610657985844237e-07 0 -9.5295534583125676e-06 1.677487380750962e-06 0 -7.4166277009728787e-06 -2.8270235550449239e-06 0 -6.7332123107320094e-06 -1.8455164001506909e-06 0 -3.2634794503438852e-06 -9.1505492037895204e-07 0 -5.3519704462561736e-06 2.310973780302731e-06 0 -4.5690416649217711e-06 7.5610657985844237e-07 0 -1.0479514578144917e-05 3.1537577028144504e-06 0 -3.8878265069723765e-06 -1.9709867122878552e-06 0 -7.4166277009728787e-06 -2.8270235550449239e-06 0 -3.2634794503438852e-06 -9.1505492037895204e-07 0 -1.9147054905557753e-05 -6.1037822154242528e-06 0 -2.3477313435339101e-05 -8.0661989345166042e-06 0 -1.8491441195575468e-05 -5.3631498281767202e-06 0 -3.6520864351055678e-05 1.1530907281751757e-05 0 -2.8993951526030608e-05 7.9177906799347072e-06 0 -2.827717122289659e-05 7.3125079798138031e-06 0 -1.5456859907304466e-06 6.6494316623660412e-07 0 -1.9414393406830047e-06 1.361406327359863e-06 0 -2.3815365756037318e-06 3.1719452792153326e-07 0 -2.9837102484054347e-06 1.6940625990184115e-06 0 -2.3815365756037323e-06 3.1719452792153331e-07 0 -1.9414393406830047e-06 1.361406327359863e-06 0 -3.7377006928024411e-06 6.8261291093852687e-07 0 -4.9006651411663471e-06 4.3500307562391801e-07 0 -3.2536768791560751e-06 8.9324907352119219e-07 0 -1.6547326142089106e-09 -4.9579827744824146e-10 0 -1.2301285518514659e-09 -3.3462410826931713e-10 0 -1.3645283969665742e-06 -7.657340011420628e-07 0 -1.2841917391464007e-09 2.8854308866331499e-10 0 -1.55852471538499e-09 2.9999870713291604e-10 0 -1.431661510507073e-06 5.9506138815666641e-07 0 -2.1792455578843846e-05 -1.3840733426472237e-05 0 -2.1676179947698893e-05 -1.3835257577732569e-05 0 -1.883255060136317e-05 -1.0361141023057181e-05 0 3.344270515630432e-06 2.1848248125258527e-05 0 -1.2660755535384554e-06 1.4416755744677372e-05 0 -2.3451894703501581e-06 1.5052679764808545e-05 0 -3.7531039571703103e-05 -0.00012358248866166412 0 -3.0476336716059712e-05 -0.00011567671759350381 0 -3.761706030289741e-05 -0.00011217062763497288 0 -4.65333082635073e-05 0.00026757836977202461 0 -6.499133892131014e-05 0.00024827916230163991 0 -4.6611724571317955e-05 0.00024124463135851958 0 -4.65333082635073e-05 0.00026757836977202461 0 -4.6611724571317955e-05 0.00024124463135851958 0 -2.8947970513987452e-05 0.00024869134150894021 0 -3.7531039571703103e-05 -0.00012358248866166412 0 -3.761706030289741e-05 -0.00011217062763497288 0 -4.5282982878698458e-05 -0.0001151242236033654 0 -6.825050700758852e-05 0.00022628450392018937 0 -4.4949116484165479e-05 0.00021586536331799465 0 -4.6611724571317955e-05 0.00024124463135851958 0 -2.8928817766495631e-05 -0.00010560498620767729 0 -3.7806959482481954e-05 -0.00010046027122187063 0 -3.761706030289741e-05 -0.00011217062763497288 0 -3.7377006928024411e-06 6.8261291093852687e-07 0 -3.2536768791560751e-06 8.9324907352119219e-07 0 -2.4101389297669613e-06 8.3671526662639396e-07 0 3.344270515630432e-06 2.1848248125258527e-05 0 -4.9110146292627789e-06 1.9424017331589464e-05 0 -1.2660755535384554e-06 1.4416755744677372e-05 0 -8.2813478419365954e-05 6.574700543856875e-05 0 -7.4073778624618374e-05 4.8855502104632224e-05 0 -5.939069982648835e-05 5.2305608378975705e-05 0 -4.3612747255883434e-05 -2.5161601191061315e-05 0 -4.8347276898276148e-05 -3.2540285075411096e-05 0 -3.7698045041237657e-05 -2.6687304131117399e-05 0 -1.8157154308443609e-05 -1.1222977845397821e-05 0 -2.1792455578843846e-05 -1.3840733426472237e-05 0 -1.883255060136317e-05 -1.0361141023057181e-05 0 -4.02276669245049e-05 4.2600695755220417e-05 0 -3.4852640194741164e-05 2.5999094095910923e-05 0 -2.7637097712146835e-05 2.7757540249179149e-05 0 -1.9758908389600356e-05 8.5405471347888772e-06 0 -2.720781891229093e-05 1.2358353673740225e-05 0 -2.5705906595549374e-05 7.8310102439977312e-06 0 -1.1977152111804549e-05 -1.3547047167743468e-06 0 -1.0236742914155709e-05 1.5272552049601551e-06 0 -1.3519837534670449e-05 -3.4340242431996842e-06 0 -3.6595954545028758e-05 -8.8393458570063601e-05 0 -3.0016708158971474e-05 -8.482662043336826e-05 0 -3.6437289390120086e-05 -7.5577747362429184e-05 0 -4.5146709064207222e-05 0.00019015093126953478 0 -6.0154445950031873e-05 0.00018272044000762898 0 -4.1270620568148582e-05 0.00016164577197864234 0 -3.6437289390120086e-05 -7.5577747362429184e-05 0 -3.0016708158971474e-05 -8.482662043336826e-05 0 -2.8832890843140115e-05 -7.3783891951468463e-05 0 -4.1270620568148582e-05 0.00016164577197864234 0 -6.0154445950031873e-05 0.00018272044000762898 0 -5.9042759940024911e-05 0.00016186232306936526 0 -1.9758908389600356e-05 8.5405471347888772e-06 0 -2.5705906595549374e-05 7.8310102439977312e-06 0 -1.7529386726155285e-05 5.3184483673883083e-06 0 -1.1984828798284308e-05 -4.8011489702493496e-06 0 -9.3150370909716292e-06 3.1042596976083305e-06 0 -1.1977152111804549e-05 -1.3547047167743468e-06 0 -4.02276669245049e-05 4.2600695755220417e-05 0 -4.6648838999844173e-05 3.6575335002446866e-05 0 -3.4852640194741164e-05 2.5999094095910926e-05 0 3.344270515630432e-06 2.1848248125258527e-05 0 1.2449081955356934e-05 5.4711643185220245e-05 0 -5.2542616781639897e-06 5.6441131173250461e-05 0 -3.0075179822156476e-05 -3.3934584828152788e-05 0 -2.6902215254226042e-05 -3.2172456761623387e-05 0 -3.054489947319971e-05 -3.2034509974389851e-05 0 -1.6405326230987523e-05 -3.8605667182610788e-05 0 -1.5858884849648064e-05 -3.6506401073440273e-05 0 -1.7367792027479285e-05 -3.7504073136118654e-05 0 -7.7031989598935795e-06 5.5922751246198229e-06 0 -1.0236742914155709e-05 1.5272552049601551e-06 0 -1.1977152111804549e-05 -1.3547047167743468e-06 0 -1.4362416438696594e-05 -0.00011232656888264108 0 -2.0924729075741922e-05 -0.00010364926028057634 0 -2.3236803035115163e-05 -0.00011348011958273581 0 -0.00010943790167342409 0.00024639867055298813 0 -8.9221986742868056e-05 0.00022387227824686358 0 -8.5174870754432569e-05 0.00024377033309181198 0 -9.5635330775068868e-10 -2.5615314389404385e-10 0 -6.9397080657405956e-07 -1.990291203289069e-07 0 -8.7696647105924207e-07 -4.7483938093477519e-07 0 -1.0905813058923278e-09 3.0046606924128654e-10 0 -1.0842928313630579e-06 5.860942554571277e-07 0 -9.4135629309577947e-07 6.1389231307429667e-07 0 -4.02276669245049e-05 4.2600695755220417e-05 0 -2.7178662908026245e-05 4.0840551875807045e-05 0 -3.6719403745217189e-05 6.2321922687260122e-05 0 -2.0132625956276856e-05 5.5237517929718651e-05 0 -3.6719403745217189e-05 6.2321922687260122e-05 0 -2.7178662908026245e-05 4.0840551875807052e-05 0 -9.4106365313436233e-06 3.492789347045972e-05 0 3.344270515630432e-06 2.1848248125258527e-05 0 -5.2542616781639897e-06 5.6441131173250461e-05 0 -0.00010904967246324478 0.00020149909383498698 0 -8.0706839393150889e-05 0.00020204205367264406 0 -8.9221986742868056e-05 0.00022387227824686358 0 -1.1173019046980775e-05 -9.0240745376106245e-05 0 -2.3021606370148719e-05 -9.3261348423015348e-05 0 -2.0924729075741919e-05 -0.00010364926028057634 0 -1.7947352210743836e-05 -3.1206591899404068e-05 0 -1.8408537815741856e-05 -2.8000755771196185e-05 0 -2.0199314116527569e-05 -3.0379206397769927e-05 0 -1.2140041691559851e-05 -1.4648030770572374e-06 0 -1.3519837534670449e-05 -3.4340242431996842e-06 0 -1.0236742914155709e-05 1.5272552049601551e-06 0 -1.5367591832805068e-05 -7.1854191183188206e-06 0 -1.7072004960087058e-05 -1.0888857365234467e-05 0 -1.4945179056395028e-05 -1.0583060057216145e-05 0 -1.0970218347634925e-05 -1.8291781427267733e-05 0 -1.126063606922196e-05 -1.5378066859093708e-05 0 -1.4538169208206253e-05 -1.9363335276287721e-05 0 -9.7454966625710036e-05 0.00010727965620435549 0 -7.4767578162328327e-05 9.2448949768647742e-05 0 -8.2953528769526594e-05 0.00011994677501686722 0 -6.4374204276827269e-05 -9.3957072083597265e-05 0 -5.5811874477059475e-05 -0.00010435368287502338 0 -5.2552867904967344e-05 -9.4823815994583057e-05 0 1.5339711626725409e-05 0.00019579698089289331 0 -5.5249424751514625e-06 0.00022320798427795369 0 -1.0390327349857594e-05 0.00020243404545286714 0 -1.2702098411394669e-05 -0.00010109104550148959 0 -2.0924729075741919e-05 -0.00010364926028057634 0 -1.4362416438696594e-05 -0.00011232656888264108 0 -0.00010943790167342409 0.00024639867055298813 0 -0.00010943138964383551 0.00022429125115976686 0 -8.9221986742868056e-05 0.00022387227824686358 0 -2.5151124342320071e-05 -2.8516461919605863e-05 0 -2.5731502347006882e-05 -2.5928063694927184e-05 0 -2.7303935822780307e-05 -2.8627406677221703e-05 0 -1.290493333813255e-05 -1.3567327193195095e-05 0 -1.571033493607525e-05 -1.6455692895512048e-05 0 -1.6263522297532071e-05 -2.4256389213784669e-05 0 -2.5151124342320071e-05 -2.8516461919605863e-05 0 -2.3928787489101569e-05 -2.6270707521635955e-05 0 -2.5731502347006882e-05 -2.5928063694927184e-05 0 -1.3987819951482869e-05 -1.5459850300759543e-05 0 -1.4538169208206253e-05 -1.9363335276287721e-05 0 -1.126063606922196e-05 -1.5378066859093708e-05 0 -3.1069421963141901e-05 -4.2576420921811709e-05 0 -3.3709563911073224e-05 -5.5561422147124446e-05 0 -2.5928572175756729e-05 -4.5406687987053746e-05 0 -2.4535345261622191e-09 2.3638938531551021e-10 0 -3.2634794503438852e-06 -9.1505492037895204e-07 0 -2.2739357688070599e-06 -1.7008526114945833e-07 0 -3.5010400594688607e-09 -5.1727248513008461e-10 0 -3.0802784728884336e-06 -2.2251512662508542e-07 0 -4.5690416649217711e-06 7.5610657985844237e-07 0 -3.0075179822156476e-05 -3.3934584828152788e-05 0 -2.6646075348632785e-05 -3.4630977704981813e-05 0 -2.6902215254226042e-05 -3.2172456761623387e-05 0 -1.7302674276085559e-05 -3.8762230188011311e-05 0 -1.6405326230987523e-05 -3.8605667182610788e-05 0 -1.7367792027479285e-05 -3.7504073136118654e-05 0 -2.5581101735790679e-09 -7.5458801412048494e-10 0 -3.9334699491937815e-06 -6.896193606165365e-07 0 -3.0802784728884332e-06 -2.2251512662508566e-07 0 -2.0136438225622707e-09 3.5363808655035069e-10 0 -2.2739357688070599e-06 -1.7008526114945833e-07 0 -3.0732585142220412e-06 9.1595820711603725e-08 0 -2.3815365756037318e-06 3.1719452792153326e-07 0 -2.0834524949308311e-06 -6.6292906657211043e-07 0 -1.67994200874999e-06 -1.9703082761558238e-08 0 -1.1062363148470442e-05 -3.630816384112365e-06 0 -9.3370163593956638e-06 -2.1266287400255704e-06 0 -6.7332123107320094e-06 -1.8455164001506909e-06 0 -1.6018345257843933e-05 4.0899871570271962e-06 0 -9.5295534583125693e-06 1.677487380750962e-06 0 -1.3237010005171662e-05 1.8746846197913037e-06 0 -1.7687583584384917e-05 -1.9148409167158844e-05 0 -1.6337636263839226e-05 -1.5792908296054879e-05 0 -1.909486988338665e-05 -1.7426390564095312e-05 0 -1.7490998164572363e-05 -1.4009514165918764e-05 0 -1.4945179056395028e-05 -1.0583060057216145e-05 0 -1.7072004960087058e-05 -1.0888857365234467e-05 0 1.1061582480380572e-05 0.00024180460107315444 0 -1.069577778594619e-05 0.00024360532615418391 0 -5.5249424751514625e-06 0.00022320798427795369 0 -6.4673272539025157e-05 -0.0001142365680444836 0 -5.3970233492333737e-05 -0.00011306086301927027 0 -5.5811874477059475e-05 -0.00010435368287502338 0 -1.7490998164572363e-05 -1.4009514165918764e-05 0 -1.909486988338665e-05 -1.7426390564095312e-05 0 -1.6337636263839226e-05 -1.5792908296054879e-05 0 -1.8408537815741856e-05 -2.8000755771196185e-05 0 -1.6060192369340847e-05 -2.7284967081902052e-05 0 -1.773948801724953e-05 -2.3729447232346581e-05 0 -5.9481982518111488e-05 0.00014039702840838649 0 -5.1671193463144031e-05 0.00011071072076015252 0 -3.9710789743847572e-05 0.0001212588521414489 0 -3.5010400594688607e-09 -5.1727248513008461e-10 0 -3.6931633823146092e-09 1.9097970489134603e-10 0 -3.0802784728884332e-06 -2.2251512662508566e-07 0 -2.7278371842358387e-09 -2.4251176313284504e-10 0 -2.4535345261622191e-09 2.3638938531551021e-10 0 -2.2739357688070599e-06 -1.7008526114945833e-07 0 -2.3815365756037318e-06 3.1719452792153326e-07 0 -3.3335918788689196e-06 -1.7588826326616038e-07 0 -2.0834524949308311e-06 -6.6292906657211043e-07 0 -2.5302806837664706e-05 0.00022615174588782081 0 -4.6611724571317955e-05 0.00024124463135851958 0 -4.4949116484165479e-05 0.00021586536331799465 0 -4.6639431543499759e-05 -0.00010502448911796866 0 -3.761706030289741e-05 -0.00011217062763497288 0 -3.7806959482481954e-05 -0.00010046027122187063 0 -3.3709563911073224e-05 -5.5561422147124446e-05 0 -2.6879375471929211e-05 -5.5590707114501442e-05 0 -2.5928572175756729e-05 -4.5406687987053746e-05 0 -9.2280992874486192e-07 4.274548624757155e-07 0 -1.2840937972982252e-06 8.3046458420440037e-07 0 -1.1401321857726847e-06 4.6027949371911202e-07 0 -1.095728843758513e-05 1.4272911519419674e-06 0 -8.1562246523350252e-06 1.3455128271126436e-06 0 -1.23906236331752e-05 3.0914870577818029e-06 0 -1.6060192369340847e-05 -2.7284967081902052e-05 0 -1.5032739609093992e-05 -2.3713142037302874e-05 0 -1.773948801724953e-05 -2.3729447232346581e-05 0 -1.1401321857726847e-06 4.6027949371911202e-07 0 -1.2840937972982252e-06 8.3046458420440037e-07 0 -1.3962489515981631e-06 8.9940189194226475e-07 0 -1.2840937972982252e-06 8.3046458420440037e-07 0 -8.2035501187017259e-07 5.1326836821048022e-07 0 -1.4630165402919749e-06 8.9157527188643167e-07 0 -1.1562090630929307e-06 7.4116935265596496e-07 0 -1.4630165402919749e-06 8.9157527188643167e-07 0 -8.2035501187017259e-07 5.1326836821048022e-07 0 -2.768894850054175e-05 -2.73953686324241e-05 0 -2.5731502347006882e-05 -2.5928063694927184e-05 0 -2.7212604883634913e-05 -2.500239706927842e-05 0 -1.5367591832805068e-05 -7.1854191183188206e-06 0 -1.4945179056395028e-05 -1.0583060057216145e-05 0 -1.3699695096510075e-05 -5.9299519484628126e-06 0 -1.7947352210743836e-05 -3.1206591899404068e-05 0 -1.6060192369340847e-05 -2.7284967081902052e-05 0 -1.8408537815741856e-05 -2.8000755771196185e-05 0 -7.7031989598935795e-06 5.5922751246198229e-06 0 -1.1977152111804549e-05 -1.3547047167743462e-06 0 -9.3150370909716292e-06 3.1042596976083305e-06 0 1.3341259234125438e-05 0.00021845984082405391 0 1.1061582480380572e-05 0.00024180460107315444 0 -5.5249424751514625e-06 0.00022320798427795369 0 -6.466166637578025e-05 -0.00010433654948422028 0 -6.4673272539025157e-05 -0.0001142365680444836 0 -5.5811874477059475e-05 -0.00010435368287502338 0 -6.4374204276827269e-05 -9.3957072083597265e-05 0 -6.466166637578025e-05 -0.00010433654948422028 0 -5.5811874477059475e-05 -0.00010435368287502338 0 1.5339711626725409e-05 0.00019579698089289331 0 1.3341259234125438e-05 0.00021845984082405391 0 -5.5249424751514625e-06 0.00022320798427795369 0 -4.4738060947820974e-06 8.7710410101469533e-06 0 -4.621205475694376e-06 7.0373283261850504e-06 0 -7.7031989598935795e-06 5.5922751246198229e-06 0 -3.0085971320542644e-06 1.0024587737925643e-06 0 -1.9884386035747045e-06 9.6926548675082158e-07 0 -3.2536768791560751e-06 8.9324907352119219e-07 0 -1.8549067076829367e-06 8.6811048680552688e-07 0 -3.2536768791560751e-06 8.9324907352119219e-07 0 -1.9884386035747045e-06 9.6926548675082158e-07 0 -5.107069289710568e-06 0.00012268731731588081 0 2.7426969527357686e-07 0.00013838265774450328 0 -2.1872719926524774e-05 0.00013952502499413232 0 2.7426969527357686e-07 0.00013838265774450328 0 -5.8048834946611708e-06 0.00015503291552837267 0 -2.1872719926524774e-05 0.00013952502499413232 0 -1.1984828798284308e-05 -4.8011489702493496e-06 0 -1.1977152111804549e-05 -1.3547047167743474e-06 0 -1.3699695096510075e-05 -5.9299519484628126e-06 0 -1.8448659180124924e-05 -3.822652863168609e-05 0 -1.7367792027479285e-05 -3.7504073136118654e-05 0 -1.8681226396481623e-05 -3.552270271999972e-05 0 -2.3277887463626381e-05 -3.5678208917520476e-05 0 -2.4167519874483592e-05 -3.2248602969923008e-05 0 -2.6902215254226042e-05 -3.2172456761623387e-05 0 -4.621205475694376e-06 7.0373283261850504e-06 0 -6.9558882858121965e-06 4.3011817980774093e-06 0 -7.7031989598935795e-06 5.5922751246198229e-06 0 -0.00010943138964383551 0.00022429125115976686 0 -0.00010904967246324478 0.00020149909383498698 0 -8.9221986742868056e-05 0.00022387227824686358 0 -1.1173019046980775e-05 -9.0240745376106245e-05 0 -2.0924729075741919e-05 -0.00010364926028057634 0 -1.2702098411394669e-05 -0.00010109104550148959 0 -2.3477313435339101e-05 -8.0661989345166042e-06 0 -2.3179096869846698e-05 -7.923646167085071e-06 0 -1.8491441195575468e-05 -5.3631498281767202e-06 0 -3.6520864351055678e-05 1.1530907281751757e-05 0 -2.827717122289659e-05 7.3125079798138031e-06 0 -3.5178328384836611e-05 1.1687439879691462e-05 0 -1.1984828798284308e-05 -4.8011489702493496e-06 0 -1.4945179056395028e-05 -1.0583060057216145e-05 0 -1.1880232790923321e-05 -1.1297861237595546e-05 0 -1.290493333813255e-05 -1.3567327193195095e-05 0 -1.6263522297532071e-05 -2.4256389213784669e-05 0 -9.4846632382884823e-06 -2.572271563513571e-05 0 -1.3987819951482869e-05 -1.5459850300759543e-05 0 -1.4945179056395028e-05 -1.0583060057216145e-05 0 -1.6337636263839226e-05 -1.5792908296054879e-05 0 -1.7490998164572363e-05 -1.4009514165918764e-05 0 -1.6337636263839226e-05 -1.5792908296054879e-05 0 -1.4945179056395028e-05 -1.0583060057216145e-05 0 -3.7531039571703103e-05 -0.00012358248866166412 0 -2.9820767322279232e-05 -0.00012357482183239244 0 -3.0476336716059712e-05 -0.00011567671759350381 0 -4.65333082635073e-05 0.00026757836977202461 0 -6.6771205443271419e-05 0.00026761546058081786 0 -6.499133892131014e-05 0.00024827916230163991 0 -2.7437360426382531e-05 0.00026724698654058301 0 -4.65333082635073e-05 0.00026757836977202461 0 -2.8947970513987452e-05 0.00024869134150894021 0 -4.6041945638324158e-05 -0.00012351753139554025 0 -3.7531039571703103e-05 -0.00012358248866166412 0 -4.5282982878698458e-05 -0.0001151242236033654 0 -1.494980437525227e-05 2.5903073761863807e-05 0 -2.7178662908026245e-05 4.0840551875807052e-05 0 -2.7637097712146835e-05 2.7757540249179149e-05 0 -2.1050267950870144e-05 -1.7258330486844142e-05 0 -2.3260311002345138e-05 -2.0410985958996975e-05 0 -2.155779943372092e-05 -2.0686259482517292e-05 0 -1.3987819951482869e-05 -1.5459850300759543e-05 0 -1.6337636263839226e-05 -1.5792908296054879e-05 0 -1.4538169208206253e-05 -1.9363335276287721e-05 0 -1.7687583584384917e-05 -1.9148409167158844e-05 0 -1.4538169208206253e-05 -1.9363335276287721e-05 0 -1.6337636263839226e-05 -1.5792908296054879e-05 0 -2.0387460382102198e-05 -4.7834315839985909e-05 0 -1.8675611766198521e-05 -3.5883050945959991e-05 0 -2.5928572175756729e-05 -4.5406687987053746e-05 0 -8.2813478419365954e-05 6.574700543856875e-05 0 -5.939069982648835e-05 5.2305608378975705e-05 0 -7.3372460095340626e-05 7.3118128965937471e-05 0 -1.8889761067474238e-05 -9.6007994982329435e-06 0 -2.3402609239578495e-05 -1.4186915357466636e-05 0 -1.7575796101703406e-05 -1.1235281610461409e-05 0 -2.0571133892213665e-05 -1.6142169871000318e-05 0 -1.7575796101703406e-05 -1.1235281610461409e-05 0 -2.3402609239578495e-05 -1.4186915357466636e-05 0 -2.6003122545623393e-05 -3.0192917514688268e-05 0 -2.3224906089635867e-05 -3.0129741850598549e-05 0 -2.5151124342320071e-05 -2.8516461919605863e-05 0 -6.6594804132531836e-05 0.00010732422517096461 0 -8.2953528769526594e-05 0.00011994677501686722 0 -7.4767578162328327e-05 9.2448949768647742e-05 0 -2.2589682631047076e-05 -8.4685491452068236e-06 0 -2.8009266371295425e-05 -1.2262550124246936e-05 0 -2.3456826319990257e-05 -1.0976453514523232e-05 0 -2.8926879707891443e-05 -1.5274975819088626e-05 0 -2.3456826319990257e-05 -1.0976453514523232e-05 0 -2.8009266371295425e-05 -1.2262550124246936e-05 0 -4.3477109158417864e-05 2.7396887821032115e-05 0 -4.3125963450586744e-05 2.073901213205707e-05 0 -3.388662180348293e-05 1.8696341978131006e-05 0 -3.3717697916444278e-05 1.368185607755857e-05 0 -3.388662180348293e-05 1.8696341978131006e-05 0 -4.3125963450586744e-05 2.073901213205707e-05 0 -2.4480801408979373e-05 -2.3570820599358697e-05 0 -2.2210185005921867e-05 -2.3861308997077614e-05 0 -2.155779943372092e-05 -2.0686259482517292e-05 0 -4.8347276898276148e-05 -3.2540285075411096e-05 0 -4.4662977789274875e-05 -3.5548306421632973e-05 0 -3.7698045041237657e-05 -2.6687304131117399e-05 0 -1.3077771621653846e-05 0.00010175985396741 0 -2.5533704721524308e-05 8.0844055811766179e-05 0 -9.0432608841572435e-06 7.7191811399065504e-05 0 -1.2140041691559851e-05 -1.4648030770572374e-06 0 -1.3405329341660165e-05 -4.0358463164380882e-06 0 -1.5300876994977357e-05 -5.7770701086222216e-06 0 -3.3477282535596309e-06 2.33930759752036e-06 0 -2.5694080576076947e-06 3.5545069945354084e-06 0 -2.2822012066789561e-06 2.4328544822363873e-06 0 -7.5559711345131331e-05 0.00017579667416890365 0 -6.0154445950031873e-05 0.00018272044000762898 0 -8.0706839393150889e-05 0.00020204205367264406 0 -2.3276796754894705e-05 -8.0474733867486896e-05 0 -3.0016708158971474e-05 -8.482662043336826e-05 0 -2.3021606370148715e-05 -9.3261348423015334e-05 0 -1.1984828798284308e-05 -4.8011489702493496e-06 0 -1.3699695096510075e-05 -5.9299519484628126e-06 0 -1.4945179056395028e-05 -1.0583060057216145e-05 0 -2.4167519874483592e-05 -3.2248602969923008e-05 0 -2.3224906089635867e-05 -3.0129741850598549e-05 0 -2.6003122545623393e-05 -3.0192917514688268e-05 0 -1.7687583584384917e-05 -1.9148409167158844e-05 0 -1.9765633554721541e-05 -2.1024786899216957e-05 0 -1.773948801724953e-05 -2.3729447232346581e-05 0 -1.2301285518514659e-09 -3.3462410826931713e-10 0 -8.7696647105924207e-07 -4.7483938093477519e-07 0 -1.3645283969665742e-06 -7.657340011420628e-07 0 -1.2841917391464007e-09 2.8854308866331499e-10 0 -1.431661510507073e-06 5.9506138815666641e-07 0 -1.0842928313630579e-06 5.860942554571277e-07 0 -1.8675611766198521e-05 -3.5883050945959991e-05 0 -2.5263991692411981e-05 -3.6083162819787824e-05 0 -2.5928572175756729e-05 -4.5406687987053746e-05 0 -1.095728843758513e-05 1.4272911519419674e-06 0 -1.23906236331752e-05 3.0914870577818029e-06 0 -1.5351377429768716e-05 2.7257051668287378e-06 0 -2.2920232742814957e-05 1.5619959252544429e-05 0 -2.7637097712146832e-05 2.7757540249179149e-05 0 -3.4852640194741164e-05 2.5999094095910926e-05 0 -1.2964456032558286e-06 -3.4967068081213647e-07 0 -6.9397080657405956e-07 -1.990291203289069e-07 0 -1.1755668233061955e-06 4.1455609074405308e-08 0 -8.5239029822536449e-07 1.7251681991707533e-07 0 -1.1755668233061955e-06 4.1455609074405308e-08 0 -6.9397080657405956e-07 -1.990291203289069e-07 0 -1.1562090630929307e-06 7.4116935265596496e-07 0 -9.4135629309577958e-07 6.1389231307429667e-07 0 -1.9884386035747045e-06 9.6926548675082158e-07 0 -1.8549067076829367e-06 8.6811048680552688e-07 0 -1.9884386035747045e-06 9.6926548675082158e-07 0 -9.4135629309577947e-07 6.1389231307429667e-07 0 -1.9758908389600356e-05 8.5405471347888772e-06 0 -1.5660908967423217e-05 9.9290549128363759e-06 0 -2.2920232742814957e-05 1.5619959252544429e-05 0 -3.3477282535596309e-06 2.33930759752036e-06 0 -4.0626368676042757e-06 3.3492478178054951e-06 0 -2.5694080576076947e-06 3.5545069945354084e-06 0 -2.9837102484054347e-06 1.6940625990184115e-06 0 -3.8745141474123726e-06 5.995081806722682e-07 0 -2.3815365756037318e-06 3.1719452792153326e-07 0 -1.23906236331752e-05 3.0914870577818029e-06 0 -8.1562246523350252e-06 1.3455128271126436e-06 0 -9.4864983068861838e-06 3.7496249634162156e-06 0 -6.0681865717261955e-06 3.0267121200644932e-06 0 -4.2970343555150527e-06 5.1632003801648234e-06 0 -4.0626368676042757e-06 3.3492478178054946e-06 0 -8.2151521585673232e-06 -1.2073427880151033e-06 0 -9.0101718803809778e-06 -2.1639201516591704e-06 0 -6.6846154048393731e-06 -5.1378005765470123e-07 0 -7.749297210625939e-06 -1.6251078966853326e-06 0 -6.6846154048393731e-06 -5.1378005765470123e-07 0 -9.0101718803809778e-06 -2.1639201516591704e-06 0 -3.6931633823145517e-09 1.9097970489135027e-10 0 -2.5581101735790679e-09 -7.5458801412048494e-10 0 -3.0802784728884332e-06 -2.2251512662508566e-07 0 -2.0136438225622707e-09 3.5363808655035069e-10 0 -2.7278371842358387e-09 -2.4251176313284504e-10 0 -2.2739357688070599e-06 -1.7008526114945833e-07 0 1.5593983291755186e-05 7.8749642288491965e-05 0 -9.0432608841572435e-06 7.7191811399065504e-05 0 -5.2542616781639897e-06 5.6441131173250461e-05 0 -3.0085971320542644e-06 1.0024587737925643e-06 0 -4.4746080947374119e-06 5.5884314434756818e-07 0 -2.9647501644108305e-06 1.1221926508936533e-06 0 -1.619526464202504e-05 -7.5592067929051814e-06 0 -1.2977830978431359e-05 -5.5704694617603564e-06 0 -1.4807609417733458e-05 -9.0067789507896346e-06 0 -2.1347595298230931e-05 -3.2673546182291232e-05 0 -2.3224906089635867e-05 -3.0129741850598549e-05 0 -2.4167519874483592e-05 -3.2248602969923008e-05 0 -1.9147054905557753e-05 -6.1037822154242528e-06 0 -1.8491441195575468e-05 -5.3631498281767202e-06 0 -1.5503415332788222e-05 -4.1784812593215038e-06 0 -2.8993951526030608e-05 7.9177906799347072e-06 0 -2.3079656075439683e-05 4.9514184998264755e-06 0 -2.827717122289659e-05 7.3125079798138031e-06 0 -2.0096344071469858e-05 -2.3966794759722444e-05 0 -1.773948801724953e-05 -2.3729447232346581e-05 0 -1.9765633554721541e-05 -2.1024786899216957e-05 0 -1.8491441195575468e-05 -5.3631498281767202e-06 0 -1.5465565882513217e-05 -4.0525275427884444e-06 0 -1.4823784161820764e-05 -3.6234039275682247e-06 0 -1.9890506738274318e-05 4.8108722675356461e-06 0 -1.7529386726155285e-05 5.3184483673883083e-06 0 -2.5705906595549374e-05 7.8310102439977312e-06 0 -1.9543781687255759e-05 -6.1923940941136093e-06 0 -1.5465565882513217e-05 -4.0525275427884444e-06 0 -1.8491441195575468e-05 -5.3631498281767202e-06 0 -6.3550906848302041e-06 -4.3380807624073253e-08 0 -7.7501161315682023e-06 -5.6953451747214386e-07 0 -8.4790568909954797e-06 -9.6333693593997279e-07 0 -5.7754021897763591e-06 1.1459857163449856e-07 0 -8.1562246523350252e-06 1.3455128271126436e-06 0 -8.8549107347866597e-06 1.37442429453427e-07 0 -2.720781891229093e-05 1.2358353673740225e-05 0 -1.9758908389600356e-05 8.5405471347888772e-06 0 -2.2920232742814957e-05 1.5619959252544429e-05 0 -2.4480801408979373e-05 -2.3570820599358697e-05 0 -2.155779943372092e-05 -2.0686259482517292e-05 0 -2.3260311002345138e-05 -2.0410985958996975e-05 0 -1.5020592752297601e-05 0.00017697052357164351 0 -1.0390327349857594e-05 0.00020243404545286714 0 -2.9177776794565065e-05 0.00019970128361848543 0 -4.8950436791443473e-05 -8.303778487335702e-05 0 -5.2552867904967344e-05 -9.4823815994583057e-05 0 -4.3931414200378474e-05 -9.3055540177578418e-05 0 -1.2964456032558286e-06 -3.4967068081213647e-07 0 -8.7696647105924218e-07 -4.7483938093477519e-07 0 -6.9397080657405956e-07 -1.990291203289069e-07 0 -1.8549067076829367e-06 8.6811048680552688e-07 0 -9.4135629309577947e-07 6.1389231307429667e-07 0 -1.0842928313630579e-06 5.860942554571277e-07 0 -1.6547326142089106e-09 -4.9579827744824146e-10 0 -1.3645283969665742e-06 -7.657340011420628e-07 0 -1.6491767913779819e-06 -8.0813715341815299e-07 0 -1.55852471538499e-09 2.9999870713291604e-10 0 -1.5278776462663248e-06 4.5979323391530665e-07 0 -1.431661510507073e-06 5.9506138815666641e-07 0 -1.619526464202504e-05 -7.5592067929051814e-06 0 -1.883255060136317e-05 -1.0361141023057181e-05 0 -1.8013895750778522e-05 -9.3474614994861775e-06 0 -2.0013791226805818e-05 -1.2094708767261181e-05 0 -1.8013895750778522e-05 -9.3474614994861775e-06 0 -1.883255060136317e-05 -1.0361141023057181e-05 0 -4.1305131591993878e-05 8.6647535542499791e-05 0 -3.6719403745217189e-05 6.2321922687260122e-05 0 -2.5533704721524308e-05 8.0844055811766179e-05 0 -2.0132625956276856e-05 5.5237517929718651e-05 0 -2.5533704721524311e-05 8.0844055811766179e-05 0 -3.6719403745217189e-05 6.2321922687260122e-05 0 -5.4904087495986832e-06 1.2966194618337401e-05 0 -3.0397130187449853e-06 8.8464181341469302e-06 0 -1.2660755535384554e-06 1.4416755744677372e-05 0 -1.619526464202504e-05 -7.5592067929051814e-06 0 -1.3405329341660165e-05 -4.0358463164380882e-06 0 -1.2977830978431359e-05 -5.5704694617603564e-06 0 -1.5456859907304466e-06 6.6494316623660412e-07 0 -1.1401321857726847e-06 4.6027949371911202e-07 0 -1.3962489515981631e-06 8.9940189194226475e-07 0 -2.1050267950870144e-05 -1.7258330486844142e-05 0 -2.155779943372092e-05 -2.0686259482517292e-05 0 -1.909486988338665e-05 -1.7426390564095312e-05 0 -5.9481982518111488e-05 0.00014039702840838649 0 -6.8392259029342658e-05 0.00012376255842382947 0 -5.1671193463144031e-05 0.00011071072076015252 0 -2.768894850054175e-05 -2.73953686324241e-05 0 -2.7212604883634913e-05 -2.500239706927842e-05 0 -2.9073551684740687e-05 -2.7910692527185543e-05 0 -1.8408537815741856e-05 -2.8000755771196185e-05 0 -2.0046412589676841e-05 -2.6603765261965656e-05 0 -2.0199314116527569e-05 -3.0379206397769927e-05 0 -5.0035844084270156e-06 3.7240616504026773e-07 0 -3.2536768791560751e-06 8.9324907352119219e-07 0 -4.9006651411663471e-06 4.3500307562391801e-07 0 -4.02276669245049e-05 4.2600695755220417e-05 0 -2.7637097712146835e-05 2.7757540249179149e-05 0 -2.7178662908026245e-05 4.0840551875807052e-05 0 -7.4166277009728787e-06 -2.8270235550449239e-06 0 -1.1062363148470442e-05 -3.630816384112365e-06 0 -6.7332123107320094e-06 -1.8455164001506909e-06 0 -1.6018345257843933e-05 4.0899871570271962e-06 0 -1.0479514578144917e-05 3.1537577028144504e-06 0 -9.5295534583125676e-06 1.677487380750962e-06 0 -1.3987819951482869e-05 -1.5459850300759543e-05 0 -1.1880232790923321e-05 -1.1297861237595546e-05 0 -1.4945179056395028e-05 -1.0583060057216145e-05 0 -3.2753299404479652e-06 4.2381569670863967e-07 0 -5.4335576285886015e-06 1.6233462383950376e-07 0 -3.136071697922402e-06 6.6027437494227657e-07 0 -3.7321907909807124e-06 -9.9038623332218805e-07 0 -2.9761048178042343e-06 -1.003533556068692e-06 0 -5.970072213474782e-06 -6.7687276047013707e-07 0 -7.4073778624618374e-05 4.8855502104632224e-05 0 -5.6579177291887709e-05 3.7839251742017092e-05 0 -5.939069982648835e-05 5.2305608378975705e-05 0 -4.3612747255883434e-05 -2.5161601191061315e-05 0 -3.7698045041237657e-05 -2.6687304131117399e-05 0 -3.5358907888054147e-05 -1.9955675721942306e-05 0 -1.494980437525227e-05 2.5903073761863807e-05 0 -4.9110146292627798e-06 1.9424017331589464e-05 0 -9.4106365313436233e-06 3.492789347045972e-05 0 3.344270515630432e-06 2.1848248125258527e-05 0 -9.4106365313436233e-06 3.492789347045972e-05 0 -4.9110146292627798e-06 1.9424017331589464e-05 0 -2.194329059389647e-05 -2.7616274722652946e-05 0 -2.8428274958961428e-05 -3.0587174206657153e-05 0 -2.5263991692411981e-05 -3.6083162819787824e-05 0 -3.1069421963141901e-05 -4.2576420921811709e-05 0 -2.5263991692411981e-05 -3.6083162819787824e-05 0 -2.8428274958961428e-05 -3.0587174206657153e-05 0 -1.1984828798284308e-05 -4.8011489702493496e-06 0 -8.6763119205989009e-06 2.954062834079823e-07 0 -9.3150370909716292e-06 3.1042596976083305e-06 0 -2.1347595298230931e-05 -3.2673546182291232e-05 0 -2.4167519874483595e-05 -3.2248602969923008e-05 0 -2.1876578852417336e-05 -3.4608322811575049e-05 0 -1.5456859907304466e-06 6.6494316623660412e-07 0 -2.3815365756037318e-06 3.1719452792153326e-07 0 -1.67994200874999e-06 -1.9703082761558238e-08 0 -2.3402609239578495e-05 -1.4186915357466636e-05 0 -3.0424747274889458e-05 -1.9580841982732107e-05 0 -2.5612499656616474e-05 -1.8976912690981178e-05 0 -1.8448659180124924e-05 -3.822652863168609e-05 0 -1.8681226396481623e-05 -3.552270271999972e-05 0 -2.0147485346489587e-05 -3.5370020806193149e-05 0 -5.9779718014724904e-05 7.2708443241819383e-05 0 -7.3372460095340626e-05 7.3118128965937471e-05 0 -5.939069982648835e-05 5.2305608378975705e-05 0 -8.0706839393150889e-05 0.00020204205367264406 0 -6.0154445950031873e-05 0.00018272044000762898 0 -5.982899631064058e-05 0.00020405481441882622 0 -2.3021606370148715e-05 -9.3261348423015334e-05 0 -3.0016708158971474e-05 -8.482662043336826e-05 0 -3.135752085551622e-05 -9.4795517407287984e-05 0 -5.6461943279617582e-06 -9.5423089886274011e-09 0 -5.0117850973836099e-06 7.794645714152825e-07 0 -4.1573181689286088e-06 8.4501280965615761e-07 0 -2.0013791226805818e-05 -1.2094708767261181e-05 0 -1.883255060136317e-05 -1.0361141023057181e-05 0 -2.1676179947698893e-05 -1.3835257577732569e-05 0 -1.8769760724768531e-06 1.5787986392551865e-06 0 -2.2822012066789561e-06 2.4328544822363873e-06 0 -1.8671751472294913e-06 2.0867868510243585e-06 0 -2.1240501437742294e-06 3.1404297421211864e-06 0 -1.8671751472294913e-06 2.0867868510243585e-06 0 -2.2822012066789561e-06 2.4328544822363873e-06 0 -1.23906236331752e-05 3.0914870577818029e-06 0 -1.7529386726155285e-05 5.3184483673883083e-06 0 -1.5351377429768716e-05 2.7257051668287378e-06 0 -3.1069421963141901e-05 -4.2576420921811709e-05 0 -3.721431799721256e-05 -4.9322122846975844e-05 0 -3.3709563911073224e-05 -5.5561422147124446e-05 0 -1.7132969793037238e-05 2.6003668394395908e-06 0 -1.3332197158683372e-05 1.2744549683842537e-06 0 -2.0579418224172305e-05 4.019584444143647e-06 0 -2.1872719926524774e-05 0.00013952502499413232 0 -4.1270620568148582e-05 0.00016164577197864234 0 -4.4451471429671618e-05 0.00014185197064537142 0 -2.1872719926524774e-05 0.00013952502499413232 0 -4.4451471429671618e-05 0.00014185197064537142 0 -3.9710789743847572e-05 0.0001212588521414489 0 -5.9481982518111488e-05 0.00014039702840838649 0 -3.9710789743847572e-05 0.0001212588521414489 0 -4.4451471429671618e-05 0.00014185197064537142 0 -4.1701821011136422e-05 -6.5372970665186992e-05 0 -3.6437289390120086e-05 -7.5577747362429184e-05 0 -3.2308771516419046e-05 -6.4968546072514361e-05 0 -4.1701821011136422e-05 -6.5372970665186992e-05 0 -3.2308771516419046e-05 -6.4968546072514361e-05 0 -3.3709563911073224e-05 -5.5561422147124446e-05 0 -3.0397130187449853e-06 8.8464181341469302e-06 0 -2.093165913682111e-06 1.0409821145431151e-05 0 -1.2660755535384554e-06 1.4416755744677372e-05 0 -9.5635330775068868e-10 -2.5615314389404385e-10 0 -6.7479702556364839e-10 2.6858217841794244e-11 0 -6.9397080657405956e-07 -1.990291203289069e-07 0 -8.6693475039835218e-10 2.229802274474671e-10 0 -1.0905813058923278e-09 3.0046606924128654e-10 0 -9.4135629309577947e-07 6.1389231307429667e-07 0 -4.4746080947374119e-06 5.5884314434756818e-07 0 -4.1573181689286088e-06 8.4501280965615751e-07 0 -2.9647501644108305e-06 1.1221926508936533e-06 0 -1.290493333813255e-05 -1.3567327193195095e-05 0 -1.3186373179438603e-05 -1.1376952453587963e-05 0 -1.571033493607525e-05 -1.6455692895512048e-05 0 -1.3332197158683372e-05 1.2744549683842537e-06 0 -1.5351377429768712e-05 2.7257051668287378e-06 0 -2.0579418224172305e-05 4.019584444143647e-06 0 -6.8317788505638704e-10 1.6792172280163221e-10 0 -8.2035501187017259e-07 5.1326836821048022e-07 0 -5.2870025840157631e-07 1.9242869972586404e-07 0 -1.6018345257843933e-05 4.0899871570271962e-06 0 -1.3237010005171662e-05 1.8746846197913037e-06 0 -1.8458194603959387e-05 3.6348521496309482e-06 0 -1.1062363148470442e-05 -3.630816384112365e-06 0 -1.2649977792163687e-05 -3.3519270984185108e-06 0 -9.3370163593956638e-06 -2.1266287400255704e-06 0 -3.8705888593794598e-05 -3.497168717717853e-05 0 -3.7698045041237657e-05 -2.6687304131117399e-05 0 -4.4662977789274875e-05 -3.5548306421632973e-05 0 -1.4630165402919749e-06 8.9157527188643167e-07 0 -1.1562090630929307e-06 7.4116935265596496e-07 0 -2.088018334412306e-06 1.0574336713948373e-06 0 -2.4480801408979373e-05 -2.3570820599358697e-05 0 -2.7212604883634913e-05 -2.500239706927842e-05 0 -2.5731502347006882e-05 -2.5928063694927184e-05 0 -6.0681865717261955e-06 3.0267121200644932e-06 0 -4.0626368676042757e-06 3.3492478178054946e-06 0 -5.6627979097082468e-06 1.881747978096827e-06 0 -1.3077771621653846e-05 0.00010175985396741 0 -3.2279446384950657e-05 0.00010333030896160416 0 -2.5533704721524308e-05 8.0844055811766179e-05 0 -1.5456859907304466e-06 6.6494316623660412e-07 0 -1.1755668233061955e-06 4.1455609074405308e-08 0 -1.1401321857726847e-06 4.6027949371911202e-07 0 -6.825050700758852e-05 0.00022628450392018937 0 -5.982899631064058e-05 0.00020405481441882622 0 -4.4949116484165479e-05 0.00021586536331799465 0 -2.8928817766495631e-05 -0.00010560498620767729 0 -3.135752085551622e-05 -9.4795517407287984e-05 0 -3.7806959482481954e-05 -0.00010046027122187063 0 -1.1562090630929307e-06 7.4116935265596496e-07 0 -1.9884386035747045e-06 9.6926548675082158e-07 0 -2.088018334412306e-06 1.0574336713948373e-06 0 -6.0681865717261955e-06 3.0267121200644932e-06 0 -7.7131353274681058e-06 6.0424813344315597e-07 0 -9.0976934045436693e-06 1.1161612984889284e-06 0 -2.5302806837664706e-05 0.00022615174588782081 0 -2.8947970513987452e-05 0.00024869134150894021 0 -4.6611724571317955e-05 0.00024124463135851958 0 -6.825050700758852e-05 0.00022628450392018937 0 -4.6611724571317955e-05 0.00024124463135851958 0 -6.499133892131014e-05 0.00024827916230163991 0 -4.6639431543499759e-05 -0.00010502448911796866 0 -4.5282982878698458e-05 -0.0001151242236033654 0 -3.761706030289741e-05 -0.00011217062763497288 0 -2.8928817766495631e-05 -0.00010560498620767729 0 -3.761706030289741e-05 -0.00011217062763497288 0 -3.0476336716059712e-05 -0.00011567671759350381 0 -2.2920232742814957e-05 1.5619959252544429e-05 0 -3.4852640194741164e-05 2.5999094095910926e-05 0 -3.388662180348293e-05 1.8696341978131006e-05 0 -2.9415257588715822e-05 -2.3110795612635961e-05 0 -3.7698045041237657e-05 -2.6687304131117399e-05 0 -3.3390671921929091e-05 -2.9730143756741637e-05 0 -3.8705888593794598e-05 -3.497168717717853e-05 0 -3.3390671921929091e-05 -2.9730143756741637e-05 0 -3.7698045041237657e-05 -2.6687304131117399e-05 0 -5.9779718014724904e-05 7.2708443241819383e-05 0 -5.939069982648835e-05 5.2305608378975705e-05 0 -4.8202331886306066e-05 6.0073093685551239e-05 0 -4.02276669245049e-05 4.2600695755220417e-05 0 -4.8202331886306066e-05 6.0073093685551239e-05 0 -5.939069982648835e-05 5.2305608378975705e-05 0 -1.8549067076829367e-06 8.6811048680552688e-07 0 -2.4101389297669613e-06 8.3671526662639396e-07 0 -3.2536768791560751e-06 8.9324907352119219e-07 0 1.2449081955356934e-05 5.4711643185220245e-05 0 1.5593983291755186e-05 7.8749642288491965e-05 0 -5.2542616781639897e-06 5.6441131173250461e-05 0 -3.7321907909807124e-06 -9.9038623332218805e-07 0 -5.9524796562484221e-06 -7.3870419320312621e-07 0 -3.9334699491937815e-06 -6.8961936061653639e-07 0 -3.2753299404479652e-06 4.2381569670863967e-07 0 -3.0732585142220412e-06 9.1595820711603725e-08 0 -4.829755096102793e-06 3.5083740326962091e-08 0 -1.619526464202504e-05 -7.5592067929051814e-06 0 -1.5300876994977357e-05 -5.7770701086222216e-06 0 -1.3405329341660165e-05 -4.0358463164380882e-06 0 -5.4335576285886015e-06 1.6233462383950376e-07 0 -4.8797916369294205e-06 3.9481437964780315e-07 0 -3.136071697922402e-06 6.6027437494227657e-07 0 -5.970072213474782e-06 -6.7687276047013707e-07 0 -2.9761048178042347e-06 -1.003533556068692e-06 0 -4.587804259233598e-06 -4.9511236401309406e-07 0 -1.9890506738274318e-05 4.8108722675356461e-06 0 -2.5705906595549374e-05 7.8310102439977312e-06 0 -2.0579418224172305e-05 4.019584444143647e-06 0 -2.827717122289659e-05 7.3125079798138031e-06 0 -2.0579418224172305e-05 4.019584444143647e-06 0 -2.5705906595549374e-05 7.8310102439977312e-06 0 -2.5302806837664706e-05 0.00022615174588782081 0 -2.9177776794565065e-05 0.00019970128361848543 0 -1.0390327349857594e-05 0.00020243404545286714 0 -4.6639431543499759e-05 -0.00010502448911796866 0 -4.3931414200378474e-05 -9.3055540177578418e-05 0 -5.2552867904967344e-05 -9.4823815994583057e-05 0 -1.8448659180124924e-05 -3.822652863168609e-05 0 -1.7302674276085559e-05 -3.8762230188011311e-05 0 -1.7367792027479285e-05 -3.7504073136118654e-05 0 -2.6646075348632785e-05 -3.4630977704981813e-05 0 -2.3277887463626381e-05 -3.5678208917520476e-05 0 -2.6902215254226042e-05 -3.2172456761623387e-05 0 -1.0283758995750936e-05 -2.3754343587498669e-06 0 -8.2151521585673232e-06 -1.2073427880151033e-06 0 -8.4790568909954797e-06 -9.6333693593997279e-07 0 -3.0615622146179989e-05 -3.0515132957772371e-05 0 -2.9602116985590186e-05 -2.9510335948216041e-05 0 -2.9073551684740687e-05 -2.7910692527185543e-05 0 -1.0371394140642776e-05 -2.4692330097555993e-05 0 -1.184302555878257e-05 -2.5518874454971191e-05 0 -1.4107685763705698e-05 -3.0534203243102459e-05 0 -1.7947352210743836e-05 -3.1206591899404068e-05 0 -1.6195685422532103e-05 -3.1365881947224143e-05 0 -1.6060192369340847e-05 -2.7284967081902052e-05 0 -2.8926879707891443e-05 -1.5274975819088626e-05 0 -3.0424747274889458e-05 -1.9580841982732107e-05 0 -2.3402609239578495e-05 -1.4186915357466636e-05 0 -2.3277887463626381e-05 -3.5678208917520476e-05 0 -2.1876578852417336e-05 -3.4608322811575049e-05 0 -2.4167519874483592e-05 -3.2248602969923008e-05 0 -3.3717697916444278e-05 1.368185607755857e-05 0 -2.5705906595549374e-05 7.8310102439977312e-06 0 -2.720781891229093e-05 1.2358353673740225e-05 0 -5.0117850973836099e-06 7.794645714152825e-07 0 -3.7135667106501745e-06 1.4460246146799209e-06 0 -4.1573181689286088e-06 8.4501280965615761e-07 0 -2.9415257588715822e-05 -2.3110795612635961e-05 0 -2.8428274958961428e-05 -3.0587174206657153e-05 0 -2.4406393318062544e-05 -2.2664181751278126e-05 0 -2.194329059389647e-05 -2.7616274722652946e-05 0 -2.4406393318062544e-05 -2.2664181751278126e-05 0 -2.8428274958961428e-05 -3.0587174206657153e-05 0 -1.1237859300409631e-05 -2.4001895789192514e-06 0 -1.0283758995750936e-05 -2.3754343587498669e-06 0 -8.4790568909954797e-06 -9.6333693593997279e-07 0 -2.9415257588715822e-05 -2.3110795612635961e-05 0 -2.5612499656616474e-05 -1.8976912690981178e-05 0 -3.0424747274889458e-05 -1.9580841982732107e-05 0 -9.7194614726574821e-06 -1.3914883901986885e-06 0 -1.1237859300409631e-05 -2.4001895789192514e-06 0 -8.4790568909954797e-06 -9.6333693593997279e-07 0 -5.7754021897763591e-06 1.1459857163449856e-07 0 -4.9482537601811394e-06 1.434178935042926e-06 0 -8.1562246523350252e-06 1.3455128271126436e-06 0 -2.9415257588715822e-05 -2.3110795612635961e-05 0 -3.0424747274889458e-05 -1.9580841982732107e-05 0 -3.7698045041237657e-05 -2.6687304131117399e-05 0 -4.02276669245049e-05 4.2600695755220417e-05 0 -5.939069982648835e-05 5.2305608378975705e-05 0 -4.6648838999844173e-05 3.6575335002446866e-05 0 -2.5581101735790679e-09 -7.5458801412048494e-10 0 -1.8550430522999665e-06 -6.6663448067554004e-07 0 -3.9334699491937815e-06 -6.8961936061653639e-07 0 -2.0136438225622707e-09 3.5363808655035069e-10 0 -3.0732585142220412e-06 9.1595820711603725e-08 0 -1.5511827244757984e-06 2.7632527556430214e-07 0 -9.7194614726574821e-06 -1.3914883901986885e-06 0 -8.4790568909954797e-06 -9.6333693593997279e-07 0 -7.7501161315682023e-06 -5.6953451747214386e-07 0 -1.095728843758513e-05 1.4272911519419674e-06 0 -8.8549107347866597e-06 1.37442429453427e-07 0 -8.1562246523350252e-06 1.3455128271126436e-06 0 -3.2014295381612189e-06 -6.9227358880098287e-07 0 -2.0834524949308311e-06 -6.6292906657211043e-07 0 -3.3335918788689196e-06 -1.7588826326616038e-07 0 -1.571033493607525e-05 -1.6455692895512048e-05 0 -2.0062050278510303e-05 -1.9872572726137317e-05 0 -1.6263522297532071e-05 -2.4256389213784669e-05 0 -1.5456859907304466e-06 6.6494316623660412e-07 0 -1.3962489515981631e-06 8.9940189194226486e-07 0 -1.6138341868124929e-06 1.2588735212595259e-06 0 -6.825050700758852e-05 0.00022628450392018937 0 -8.0706839393150889e-05 0.00020204205367264406 0 -5.982899631064058e-05 0.00020405481441882622 0 -2.8928817766495631e-05 -0.00010560498620767729 0 -2.3021606370148715e-05 -9.3261348423015334e-05 0 -3.135752085551622e-05 -9.4795517407287984e-05 0 -6.3550906848302041e-06 -4.3380807624073253e-08 0 -5.4335576285886015e-06 1.6233462383950376e-07 0 -7.7501161315682023e-06 -5.6953451747214386e-07 0 -5.7754021897763591e-06 1.1459857163449856e-07 0 -8.8549107347866597e-06 1.37442429453427e-07 0 -5.970072213474782e-06 -6.7687276047013707e-07 0 -1.2840937972982252e-06 8.3046458420440037e-07 0 -2.0224445832977396e-06 1.1514896097152442e-06 0 -1.7288687533762697e-06 1.1912340643808701e-06 0 -2.0062050278510303e-05 -1.9872572726137317e-05 0 -2.194329059389647e-05 -2.7616274722652946e-05 0 -1.6263522297532071e-05 -2.4256389213784669e-05 0 -0.00010587495699161006 0.00015418958632946051 0 -0.00010245548822308817 0.00013048007068342557 0 -8.2014370436897931e-05 0.00014124030807278871 0 -8.01603295785422e-06 -5.6143475515364776e-05 0 -1.771157777893765e-05 -6.3239478880811913e-05 0 -8.6763620992131231e-06 -6.7171995519402968e-05 0 -4.1701821011136422e-05 -6.5372970665186992e-05 0 -3.3709563911073218e-05 -5.5561422147124446e-05 0 -4.0633472371950693e-05 -5.6083324166892865e-05 0 -1.0439143332166385e-05 -2.025152050123544e-06 0 -1.2977830978431359e-05 -5.5704694617603556e-06 0 -1.3405329341660165e-05 -4.0358463164380882e-06 0 -1.7132969793037238e-05 2.6003668394395908e-06 0 -1.3237010005171661e-05 1.8746846197913035e-06 0 -1.2503373793099643e-05 1.0653567315821853e-06 0 -1.2135045454361297e-05 -2.5914837596311587e-06 0 -9.1905350818338591e-06 -1.5376876837226601e-06 0 -9.3370163593956638e-06 -2.1266287400255704e-06 0 -4.1062502097147883e-06 5.5579052504946299e-06 0 -4.2797553214448559e-06 3.0707008513309721e-06 0 -2.6031978816556765e-06 3.7787165129192867e-06 0 -1.2840937972982252e-06 8.3046458420440037e-07 0 -1.4630165402919749e-06 8.9157527188643167e-07 0 -2.0224445832977396e-06 1.1514896097152442e-06 0 -2.0013791226805818e-05 -1.2094708767261181e-05 0 -2.2555931880852208e-05 -1.5950752750222189e-05 0 -2.0223277188356475e-05 -1.3740728603399756e-05 0 -1.7132969793037238e-05 2.6003668394395908e-06 0 -1.8458194603959387e-05 3.6348521496309482e-06 0 -1.3237010005171662e-05 1.8746846197913037e-06 0 -1.2135045454361297e-05 -2.5914837596311587e-06 0 -9.3370163593956638e-06 -2.1266287400255704e-06 0 -1.2649977792163689e-05 -3.3519270984185112e-06 0 -6.0681865717261955e-06 3.0267121200644932e-06 0 -5.6627979097082468e-06 1.881747978096827e-06 0 -7.7131353274681058e-06 6.0424813344315597e-07 0 -3.6595954545028758e-05 -8.8393458570063601e-05 0 -3.643728939012008e-05 -7.5577747362429171e-05 0 -4.1747951016653847e-05 -8.2547320685153502e-05 0 -4.5146709064207222e-05 0.00019015093126953478 0 -4.1270620568148582e-05 0.00016164577197864234 0 -3.1245672979627954e-05 0.00017685736245787233 0 -2.8926879707891443e-05 -1.5274975819088626e-05 0 -2.3402609239578495e-05 -1.4186915357466636e-05 0 -2.3456826319990257e-05 -1.0976453514523232e-05 0 -1.8889761067474238e-05 -9.6007994982329435e-06 0 -2.3456826319990257e-05 -1.0976453514523232e-05 0 -2.3402609239578495e-05 -1.4186915357466636e-05 0 -9.7574281146568148e-06 -4.3868931312151676e-06 0 -1.1668431449892778e-05 -6.0714297910212793e-06 0 -1.1404478027748991e-05 -7.5189460178673148e-06 0 -1.3815597735557423e-05 -9.3823191702126669e-06 0 -1.1404478027748991e-05 -7.5189460178673148e-06 0 -1.1668431449892778e-05 -6.0714297910212793e-06 0 -1.3645283969665742e-06 -7.657340011420628e-07 0 -2.0834524949308311e-06 -6.6292906657211043e-07 0 -2.9761048178042347e-06 -1.003533556068692e-06 0 -3.2014295381612189e-06 -6.9227358880098287e-07 0 -2.9761048178042347e-06 -1.003533556068692e-06 0 -2.0834524949308311e-06 -6.6292906657211043e-07 0 -3.7377006928024411e-06 6.8261291093852687e-07 0 -2.4101389297669613e-06 8.3671526662639396e-07 0 -3.136071697922402e-06 6.6027437494227657e-07 0 -1.431661510507073e-06 5.9506138815666641e-07 0 -3.136071697922402e-06 6.6027437494227657e-07 0 -2.4101389297669613e-06 8.3671526662639396e-07 0 -2.4480801408979373e-05 -2.3570820599358697e-05 0 -2.3928787489101569e-05 -2.6270707521635955e-05 0 -2.2210185005921867e-05 -2.3861308997077614e-05 0 -1.0439143332166385e-05 -2.025152050123544e-06 0 -9.0976934045436693e-06 1.1161612984889284e-06 0 -7.7131353274681058e-06 6.0424813344315597e-07 0 -2.1240501437742294e-06 3.1404297421211864e-06 0 -2.2434321904895453e-06 2.6371430892408776e-06 0 -1.8671751472294913e-06 2.0867868510243585e-06 0 -2.1872719926524774e-05 0.00013952502499413232 0 -2.3196948795633951e-05 0.00016216669005195348 0 -4.1270620568148582e-05 0.00016164577197864234 0 -4.1701821011136422e-05 -6.5372970665186992e-05 0 -4.4073832181365345e-05 -7.5401352979119544e-05 0 -3.6437289390120086e-05 -7.5577747362429184e-05 0 -2.1872719926524774e-05 0.00013952502499413232 0 -3.9710789743847572e-05 0.0001212588521414489 0 -2.2588598019998519e-05 0.00011765909334315202 0 -4.1062502097147883e-06 5.5579052504946299e-06 0 -6.7076088350526583e-06 4.7553731946232098e-06 0 -4.2797553214448559e-06 3.0707008513309721e-06 0 -4.1062502097147883e-06 5.5579052504946299e-06 0 -6.3766293643637044e-06 8.5008238562049533e-06 0 -6.7076088350526583e-06 4.7553731946232098e-06 0 -4.1305131591993878e-05 8.6647535542499791e-05 0 -3.2279446384950657e-05 0.00010333030896160416 0 -5.1671193463144031e-05 0.00011071072076015252 0 -3.9710789743847572e-05 0.0001212588521414489 0 -5.1671193463144031e-05 0.00011071072076015252 0 -3.2279446384950657e-05 0.00010333030896160416 0 -6.393448297983433e-06 1.8484087656652847e-07 0 -3.9334699491937815e-06 -6.8961936061653639e-07 0 -7.0391482100110075e-06 -3.2148367979213605e-07 0 -4.6713714414417657e-06 -6.9042829695029879e-07 0 -5.3739244129805571e-06 -3.6810924416459072e-07 0 -3.0732585142220412e-06 9.1595820711603725e-08 0 -2.194329059389647e-05 -2.7616274722652946e-05 0 -2.5263991692411981e-05 -3.6083162819787824e-05 0 -1.8675611766198521e-05 -3.5883050945959991e-05 0 -3.0615622146179989e-05 -3.0515132957772371e-05 0 -3.1303914466143991e-05 -3.244555307744464e-05 0 -2.9602116985590186e-05 -2.9510335948216041e-05 0 -1.0371394140642776e-05 -2.4692330097555993e-05 0 -1.4107685763705698e-05 -3.0534203243102459e-05 0 -1.1850165618737942e-05 -2.8309898211967626e-05 0 -6.3589177413990661e-06 4.1082529428494375e-07 0 -7.7131353274681058e-06 6.0424813344315597e-07 0 -5.6627979097082468e-06 1.881747978096827e-06 0 -2.1240501437742294e-06 3.1404297421211864e-06 0 -2.3437628200412481e-06 5.0363848718375407e-06 0 -2.6031978816556765e-06 3.7787165129192867e-06 0 -2.1347595298230931e-05 -3.2673546182291232e-05 0 -2.0199314116527569e-05 -3.0379206397769927e-05 0 -2.3224906089635867e-05 -3.0129741850598549e-05 0 -2.1715532181071429e-05 -2.8415737750930684e-05 0 -2.3224906089635867e-05 -3.0129741850598549e-05 0 -2.0199314116527569e-05 -3.0379206397769927e-05 0 -1.7687583584384917e-05 -1.9148409167158844e-05 0 -1.773948801724953e-05 -2.3729447232346581e-05 0 -1.4538169208206253e-05 -1.9363335276287721e-05 0 -6.825050700758852e-05 0.00022628450392018937 0 -8.9221986742868056e-05 0.00022387227824686358 0 -8.0706839393150889e-05 0.00020204205367264406 0 -2.8928817766495631e-05 -0.00010560498620767729 0 -2.0924729075741919e-05 -0.00010364926028057634 0 -2.3021606370148715e-05 -9.3261348423015334e-05 0 -2.8703450907999343e-05 -3.036865827279137e-05 0 -3.054489947319971e-05 -3.2034509974389851e-05 0 -2.6902215254226042e-05 -3.2172456761623387e-05 0 -1.6192545631240883e-05 -3.4690322465492298e-05 0 -1.7367792027479285e-05 -3.7504073136118654e-05 0 -1.5858884849648064e-05 -3.6506401073440273e-05 0 -2.5302806837664706e-05 0.00022615174588782081 0 -4.4949116484165479e-05 0.00021586536331799465 0 -2.9177776794565065e-05 0.00019970128361848543 0 -4.6639431543499759e-05 -0.00010502448911796866 0 -3.7806959482481954e-05 -0.00010046027122187063 0 -4.3931414200378474e-05 -9.3055540177578418e-05 0 -1.2840937972982252e-06 8.3046458420440037e-07 0 -1.7288687533762697e-06 1.1912340643808701e-06 0 -1.3962489515981631e-06 8.9940189194226475e-07 0 -1.8769760724768531e-06 1.5787986392551865e-06 0 -1.3962489515981631e-06 8.9940189194226475e-07 0 -1.7288687533762697e-06 1.1912340643808701e-06 0 -1.5020592752297601e-05 0.00017697052357164351 0 -2.9177776794565065e-05 0.00019970128361848543 0 -3.1245672979627954e-05 0.00017685736245787233 0 -4.8950436791443473e-05 -8.303778487335702e-05 0 -4.3931414200378474e-05 -9.3055540177578418e-05 0 -4.1747951016653847e-05 -8.2547320685153502e-05 0 -3.7321907909807124e-06 -9.9038623332218805e-07 0 -3.9334699491937823e-06 -6.8961936061653629e-07 0 -1.8550430522999665e-06 -6.6663448067554004e-07 0 -3.2753299404479652e-06 4.2381569670863967e-07 0 -1.5511827244757984e-06 2.7632527556430214e-07 0 -3.0732585142220412e-06 9.1595820711603725e-08 0 -2.0132625956276856e-05 5.5237517929718651e-05 0 -9.0432608841572435e-06 7.7191811399065504e-05 0 -2.5533704721524308e-05 8.0844055811766179e-05 0 -6.393448297983433e-06 1.8484087656652847e-07 0 -3.0802784728884332e-06 -2.2251512662508566e-07 0 -3.9334699491937815e-06 -6.8961936061653639e-07 0 -4.6713714414417657e-06 -6.9042829695029879e-07 0 -3.0732585142220412e-06 9.1595820711603725e-08 0 -2.2739357688070599e-06 -1.7008526114945833e-07 0 -0.00010904967246324478 0.00020149909383498698 0 -9.186447483775859e-05 0.00018471300984076753 0 -8.0706839393150889e-05 0.00020204205367264406 0 -1.1173019046980775e-05 -9.0240745376106245e-05 0 -1.7182740140627947e-05 -8.376715327420481e-05 0 -2.3021606370148715e-05 -9.3261348423015334e-05 0 -1.494980437525227e-05 2.5903073761863807e-05 0 -2.7637097712146835e-05 2.7757540249179149e-05 0 -1.7301563814090382e-05 1.9077831937867368e-05 0 -2.2920232742814957e-05 1.5619959252544429e-05 0 -1.7301563814090382e-05 1.9077831937867372e-05 0 -2.7637097712146835e-05 2.7757540249179149e-05 0 -3.1069421963141901e-05 -4.2576420921811709e-05 0 -2.8428274958961428e-05 -3.0587174206657147e-05 0 -3.3882516609678645e-05 -3.571952757351746e-05 0 -1.1984828798284308e-05 -4.8011489702493496e-06 0 -1.1880232790923321e-05 -1.1297861237595546e-05 0 -8.9778392729244111e-06 -7.430271030757715e-06 0 -4.1305131591993878e-05 8.6647535542499791e-05 0 -4.8632696286156036e-05 7.3995978221491331e-05 0 -3.6719403745217189e-05 6.2321922687260122e-05 0 -4.02276669245049e-05 4.2600695755220417e-05 0 -3.6719403745217189e-05 6.2321922687260122e-05 0 -4.8202331886306066e-05 6.0073093685551239e-05 0 -2.9415257588715822e-05 -2.3110795612635961e-05 0 -3.3390671921929091e-05 -2.9730143756741637e-05 0 -2.8428274958961428e-05 -3.0587174206657153e-05 0 -2.194329059389647e-05 -2.7616274722652946e-05 0 -1.8675611766198521e-05 -3.5883050945959991e-05 0 -1.6263522297532071e-05 -2.4256389213784669e-05 0 -2.768894850054175e-05 -2.73953686324241e-05 0 -2.9073551684740687e-05 -2.7910692527185543e-05 0 -2.9602116985590186e-05 -2.9510335948216041e-05 0 -1.4510107046093308e-05 -2.8282654166876092e-05 0 -1.4107685763705698e-05 -3.0534203243102459e-05 0 -1.184302555878257e-05 -2.5518874454971191e-05 0 -1.2140041691559851e-05 -1.4648030770572374e-06 0 -1.5300876994977357e-05 -5.7770701086222216e-06 0 -1.3519837534670449e-05 -3.4340242431996842e-06 0 -1.619526464202504e-05 -7.5592067929051814e-06 0 -1.8013895750778522e-05 -9.3474614994861775e-06 0 -1.5300876994977357e-05 -5.7770701086222216e-06 0 -4.621205475694376e-06 7.0373283261850504e-06 0 -4.2970343555150527e-06 5.1632003801648234e-06 0 -6.9558882858121974e-06 4.3011817980774093e-06 0 -1.571033493607525e-05 -1.6455692895512048e-05 0 -1.3186373179438603e-05 -1.1376952453587963e-05 0 -1.6524844910405213e-05 -1.3604823405965462e-05 0 -2.5302806837664706e-05 0.00022615174588782081 0 -1.0390327349857591e-05 0.00020243404545286714 0 -5.5249424751514625e-06 0.00022320798427795369 0 -4.6639431543499759e-05 -0.00010502448911796866 0 -5.2552867904967344e-05 -9.4823815994583057e-05 0 -5.5811874477059475e-05 -0.00010435368287502338 0 -6.0681865717261955e-06 3.0267121200644932e-06 0 -6.9558882858121974e-06 4.3011817980774093e-06 0 -4.2970343555150527e-06 5.1632003801648234e-06 0 -1.0970218347634925e-05 -1.8291781427267733e-05 0 -1.4538169208206253e-05 -1.9363335276287721e-05 0 -1.2335050085636262e-05 -2.1351036307790517e-05 0 -2.1715532181071429e-05 -2.8415737750930684e-05 0 -2.0199314116527569e-05 -3.0379206397769927e-05 0 -2.0046412589676841e-05 -2.6603765261965656e-05 0 -3.0390037047521194e-06 4.7586775260309725e-06 0 -4.0626368676042757e-06 3.3492478178054946e-06 0 -4.2970343555150527e-06 5.1632003801648234e-06 0 -1.2964456032558286e-06 -3.4967068081213647e-07 0 -1.67994200874999e-06 -1.9703082761558228e-08 0 -2.0834524949308311e-06 -6.6292906657211043e-07 0 -5.2917811803212924e-05 -4.1246273321779791e-05 0 -5.668411656804317e-05 -5.088071989236359e-05 0 -4.6094588608446342e-05 -4.3751505369163653e-05 0 -5.7754021897763591e-06 1.1459857163449856e-07 0 -4.587804259233598e-06 -4.9511236401309406e-07 0 -3.3335918788689196e-06 -1.7588826326616038e-07 0 -1.8671751472294913e-06 2.0867868510243585e-06 0 -2.2434321904895453e-06 2.6371430892408776e-06 0 -1.9414393406830047e-06 1.361406327359863e-06 0 -6.0681865717261955e-06 3.0267121200644932e-06 0 -9.0976934045436693e-06 1.1161612984889284e-06 0 -6.9558882858121974e-06 4.3011817980774093e-06 0 -9.7454966625710036e-05 0.00010727965620435549 0 -9.104098115332266e-05 8.5602394204114052e-05 0 -7.4767578162328327e-05 9.2448949768647742e-05 0 -1.1562090630929307e-06 7.4116935265596496e-07 0 -8.2035501187017259e-07 5.1326836821048022e-07 0 -4.6708940356393891e-07 3.3038455113403144e-07 0 -2.9837102484054347e-06 1.6940625990184115e-06 0 -2.6031978816556765e-06 3.7787165129192867e-06 0 -4.2797553214448559e-06 3.0707008513309721e-06 0 -2.1050267950870144e-05 -1.7258330486844142e-05 0 -2.247117101285463e-05 -1.7328933140328887e-05 0 -2.3260311002345138e-05 -2.0410985958996975e-05 0 -4.1701821011136422e-05 -6.5372970665186992e-05 0 -4.8809741731076719e-05 -6.0608098584210206e-05 0 -5.1488608379872697e-05 -7.2159787551933564e-05 0 -5.7754021897763591e-06 1.1459857163449856e-07 0 -3.3335918788689196e-06 -1.7588826326616038e-07 0 -3.8745141474123726e-06 5.995081806722681e-07 0 -1.2840937972982252e-06 8.3046458420440037e-07 0 -9.2280992874486192e-07 4.274548624757155e-07 0 -8.2035501187017259e-07 5.1326836821048022e-07 0 -6.4818834293051263e-06 2.6530783215703463e-06 0 -4.2797553214448559e-06 3.0707008513309721e-06 0 -6.7076088350526583e-06 4.7553731946232098e-06 0 -2.2555931880852208e-05 -1.5950752750222189e-05 0 -2.247117101285463e-05 -1.7328933140328887e-05 0 -2.0223277188356475e-05 -1.3740728603399756e-05 0 -2.768894850054175e-05 -2.73953686324241e-05 0 -2.7303935822780307e-05 -2.8627406677221703e-05 0 -2.5731502347006882e-05 -2.5928063694927184e-05 0 -1.9890506738274318e-05 4.8108722675356461e-06 0 -1.5351377429768716e-05 2.7257051668287378e-06 0 -1.7529386726155285e-05 5.3184483673883083e-06 0 1.5339711626725409e-05 0.00019579698089289331 0 -1.0390327349857594e-05 0.00020243404545286714 0 7.6077805074034542e-07 0.00018362596200022875 0 -6.4374204276827269e-05 -9.3957072083597265e-05 0 -5.2552867904967344e-05 -9.4823815994583057e-05 0 -5.6660365376385278e-05 -8.697378851366137e-05 0 -1.6138341868124929e-06 1.2588735212595259e-06 0 -1.9414393406830047e-06 1.361406327359863e-06 0 -1.5456859907304466e-06 6.6494316623660412e-07 0 -1.8671751472294913e-06 2.0867868510243585e-06 0 -1.9414393406830047e-06 1.361406327359863e-06 0 -1.6138341868124929e-06 1.2588735212595259e-06 0 -7.5559711345131331e-05 0.00017579667416890365 0 -8.0706839393150889e-05 0.00020204205367264409 0 -9.1864474837758604e-05 0.00018471300984076753 0 -2.3276796754894705e-05 -8.0474733867486896e-05 0 -2.3021606370148719e-05 -9.3261348423015348e-05 0 -1.7182740140627947e-05 -8.376715327420481e-05 0 -1.8769760724768531e-06 1.5787986392551865e-06 0 -2.7975485301538173e-06 1.7956423871544384e-06 0 -2.2822012066789561e-06 2.4328544822363873e-06 0 -3.3477282535596309e-06 2.33930759752036e-06 0 -2.2822012066789561e-06 2.4328544822363873e-06 0 -2.7975485301538173e-06 1.7956423871544384e-06 0 -1.8769760724768531e-06 1.5787986392551865e-06 0 -1.6138341868124929e-06 1.2588735212595259e-06 0 -1.3962489515981631e-06 8.9940189194226475e-07 0 -1.2135045454361297e-05 -2.5914837596311587e-06 0 -1.2312825424777071e-05 -2.4702301102009813e-06 0 -9.4618006584672346e-06 -1.3252344888239119e-06 0 -1.1921271686796653e-05 -4.524904932208582e-06 0 -1.4708478846739941e-05 -7.7183091775695289e-06 0 -1.1668431449892778e-05 -6.0714297910212793e-06 0 -1.3815597735557423e-05 -9.3823191702126669e-06 0 -1.1668431449892778e-05 -6.0714297910212793e-06 0 -1.4708478846739941e-05 -7.7183091775695289e-06 0 -1.2135045454361297e-05 -2.5914837596311587e-06 0 -9.4618006584672346e-06 -1.3252344888239119e-06 0 -9.1905350818338591e-06 -1.5376876837226601e-06 0 -2.0132625956276856e-05 5.5237517929718651e-05 0 -5.2542616781639897e-06 5.6441131173250461e-05 0 -9.0432608841572435e-06 7.7191811399065504e-05 0 -4.5146709064207222e-05 0.00019015093126953478 0 -4.4949116484165479e-05 0.00021586536331799467 0 -5.982899631064058e-05 0.00020405481441882622 0 -3.6595954545028758e-05 -8.8393458570063601e-05 0 -3.7806959482481954e-05 -0.00010046027122187063 0 -3.135752085551622e-05 -9.4795517407287984e-05 0 -5.6461943279617582e-06 -9.5423089886274011e-09 0 -4.4746080947374119e-06 5.5884314434756797e-07 0 -6.009934175324399e-06 -3.1782932320128612e-07 0 -6.8317788505638704e-10 1.6792172280163221e-10 0 -4.6708940356393891e-07 3.3038455113403144e-07 0 -8.2035501187017259e-07 5.1326836821048022e-07 0 -4.1062502097147883e-06 5.5579052504946299e-06 0 -3.0397130187449853e-06 8.8464181341469302e-06 0 -6.3766293643637044e-06 8.5008238562049533e-06 0 -1.5032739609093992e-05 -2.3713142037302874e-05 0 -1.4538169208206253e-05 -1.9363335276287721e-05 0 -1.773948801724953e-05 -2.3729447232346581e-05 0 -1.7687583584384917e-05 -1.9148409167158844e-05 0 -1.909486988338665e-05 -1.7426390564095312e-05 0 -1.9765633554721541e-05 -2.1024786899216957e-05 0 -2.0224445832977396e-06 1.1514896097152442e-06 0 -2.9647501644108305e-06 1.1221926508936533e-06 0 -2.3644808521092397e-06 1.3556943718234677e-06 0 -3.8705888593794598e-05 -3.497168717717853e-05 0 -4.6094588608446342e-05 -4.3751505369163653e-05 0 -3.7231101476118466e-05 -4.2620593070986651e-05 0 -4.3694412062992139e-05 -5.0240487664022201e-05 0 -3.7231101476118466e-05 -4.2620593070986651e-05 0 -4.6094588608446342e-05 -4.3751505369163653e-05 0 -6.5977685218058613e-10 -3.2938646422885637e-11 0 -6.8317788505641589e-10 1.679217228016427e-10 0 -5.2870025840157631e-07 1.9242869972586404e-07 0 -6.6594804132531836e-05 0.00010732422517096461 0 -7.4767578162328327e-05 9.2448949768647742e-05 0 -5.6982783955520039e-05 9.0147778300627196e-05 0 -5.9779718014724904e-05 7.2708443241819383e-05 0 -5.6982783955520039e-05 9.0147778300627196e-05 0 -7.4767578162328327e-05 9.2448949768647742e-05 0 -2.8703450907999343e-05 -3.036865827279137e-05 0 -2.7303935822780307e-05 -2.8627406677221703e-05 0 -2.9602116985590186e-05 -2.9510335948216041e-05 0 -1.6192545631240883e-05 -3.4690322465492298e-05 0 -1.4107685763705698e-05 -3.0534203243102459e-05 0 -1.6195685422532103e-05 -3.1365881947224143e-05 0 -1.0492945901436985e-05 7.1105818207676599e-06 0 -6.7076088350526583e-06 4.7553731946232098e-06 0 -6.3766293643637044e-06 8.5008238562049533e-06 0 -2.5151124342320071e-05 -2.8516461919605863e-05 0 -2.3363502751655485e-05 -2.8046789936993261e-05 0 -2.3928787489101569e-05 -2.6270707521635955e-05 0 -2.4391804170273878e-06 1.1801144135143236e-05 0 -2.3451894703501581e-06 1.5052679764808545e-05 0 -1.2660755535384554e-06 1.4416755744677372e-05 0 -5.7754021897763591e-06 1.1459857163449856e-07 0 -3.8745141474123726e-06 5.995081806722681e-07 0 -4.9482537601811394e-06 1.434178935042926e-06 0 -2.2920232742814957e-05 1.5619959252544429e-05 0 -1.2055828654989279e-05 1.2325816832566451e-05 0 -1.7301563814090382e-05 1.9077831937867368e-05 0 1.5593983291755186e-05 7.8749642288491965e-05 0 2.30791951915361e-06 9.4230188339584106e-05 0 -9.0432608841572435e-06 7.7191811399065504e-05 0 -5.6461943279617582e-06 -9.5423089886274011e-09 0 -4.1573181689286088e-06 8.4501280965615751e-07 0 -4.4746080947374119e-06 5.5884314434756818e-07 0 -4.5146709064207222e-05 0.00019015093126953478 0 -2.9177776794565065e-05 0.00019970128361848543 0 -4.4949116484165479e-05 0.00021586536331799465 0 -3.6595954545028758e-05 -8.8393458570063601e-05 0 -4.3931414200378474e-05 -9.3055540177578418e-05 0 -3.7806959482481954e-05 -0.00010046027122187063 0 -3.0085971320542644e-06 1.0024587737925643e-06 0 -3.9706004231356346e-06 7.1268658625422912e-07 0 -4.4746080947374119e-06 5.5884314434756818e-07 0 -1.1920485693814363e-05 -6.7321328732251884e-06 0 -1.4807609417733458e-05 -9.0067789507896346e-06 0 -1.2977830978431359e-05 -5.5704694617603564e-06 0 -1.5020592752297601e-05 0.00017697052357164351 0 7.6077805074034542e-07 0.00018362596200022875 0 -1.0390327349857594e-05 0.00020243404545286714 0 -4.8950436791443473e-05 -8.303778487335702e-05 0 -5.6660365376385278e-05 -8.6973788513661357e-05 0 -5.2552867904967344e-05 -9.4823815994583057e-05 0 -2.3477313435339101e-05 -8.0661989345166042e-06 0 -2.8213248231811197e-05 -1.0732320912743531e-05 0 -2.3179096869846698e-05 -7.923646167085071e-06 0 -4.4967287780571866e-05 1.6940869842820542e-05 0 -3.6520864351055678e-05 1.1530907281751757e-05 0 -3.5178328384836611e-05 1.1687439879691462e-05 0 -1.494980437525227e-05 2.5903073761863807e-05 0 -1.7818513727744838e-05 3.8317577174342248e-05 0 -2.7178662908026245e-05 4.0840551875807052e-05 0 -9.7194614726574821e-06 -1.3914883901986885e-06 0 -1.2413568485985467e-05 -2.6986199892237254e-06 0 -1.1237859300409631e-05 -2.4001895789192514e-06 0 -3.249428325450088e-05 -3.5405743795496749e-05 0 -3.0075179822156476e-05 -3.3934584828152788e-05 0 -3.054489947319971e-05 -3.2034509974389851e-05 0 -3.249428325450088e-05 -3.5405743795496749e-05 0 -3.054489947319971e-05 -3.2034509974389851e-05 0 -3.2038310416611077e-05 -3.3935501906497733e-05 0 -1.4767014640182824e-05 -3.5075613773596704e-05 0 -1.352759488427986e-05 -3.186877427650668e-05 0 -1.5858884849648064e-05 -3.6506401073440273e-05 0 -1.4767014640182824e-05 -3.5075613773596704e-05 0 -1.5858884849648064e-05 -3.6506401073440273e-05 0 -1.6405326230987523e-05 -3.8605667182610788e-05 0 -2.8703450907999343e-05 -3.036865827279137e-05 0 -2.6003122545623393e-05 -3.0192917514688268e-05 0 -2.7303935822780307e-05 -2.8627406677221703e-05 0 -1.6192545631240883e-05 -3.4690322465492298e-05 0 -1.6195685422532103e-05 -3.1365881947224143e-05 0 -1.7633427242829957e-05 -3.4327865292804353e-05 0 -7.0554496260634458e-06 -1.7436835438471973e-05 0 -1.0470416678563331e-05 -2.179482308401546e-05 0 -8.6896691415941502e-06 -2.0926253601793071e-05 0 -2.8564328662789319e-05 -2.4959087506612843e-05 0 -2.9694576565491226e-05 -2.8093478495092731e-05 0 -2.7212604883634913e-05 -2.500239706927842e-05 0 2.1657802285556751e-06 1.6944658793064498e-06 0 -4.7294162238974798e-06 -3.686939336474641e-06 0 -6.8784358204419862e-07 -5.7607502741194924e-06 0 -2.5302806837664706e-05 0.00022615174588782081 0 -1.069577778594619e-05 0.00024360532615418391 0 -2.8947970513987452e-05 0.00024869134150894021 0 -6.825050700758852e-05 0.00022628450392018937 0 -6.499133892131014e-05 0.00024827916230163991 0 -8.5174870754432569e-05 0.00024377033309181198 0 -4.6639431543499759e-05 -0.00010502448911796866 0 -5.3970233492333737e-05 -0.00011306086301927027 0 -4.5282982878698458e-05 -0.0001151242236033654 0 -2.8928817766495631e-05 -0.00010560498620767729 0 -3.0476336716059712e-05 -0.00011567671759350381 0 -2.3236803035115163e-05 -0.00011348011958273581 0 -3.1899464971033145e-06 1.2702687966125586e-06 0 -2.3644808521092397e-06 1.3556943718234677e-06 0 -2.9647501644108305e-06 1.1221926508936533e-06 0 -2.5302806837664706e-05 0.00022615174588782081 0 -5.5249424751514608e-06 0.00022320798427795369 0 -1.0695777785946189e-05 0.00024360532615418391 0 -4.6639431543499759e-05 -0.00010502448911796866 0 -5.5811874477059475e-05 -0.00010435368287502338 0 -5.3970233492333737e-05 -0.00011306086301927027 0 -1.2140041691559851e-05 -1.4648030770572374e-06 0 -1.0236742914155709e-05 1.5272552049601551e-06 0 -9.0976934045436693e-06 1.1161612984889284e-06 0 -6.825050700758852e-05 0.00022628450392018937 0 -8.5174870754432569e-05 0.00024377033309181198 0 -8.9221986742868056e-05 0.00022387227824686358 0 -2.8928817766495631e-05 -0.00010560498620767729 0 -2.3236803035115163e-05 -0.00011348011958273581 0 -2.0924729075741919e-05 -0.00010364926028057634 0 -2.0387460382102198e-05 -4.7834315839985909e-05 0 -1.3908416635931098e-05 -4.1394958587237898e-05 0 -1.8675611766198521e-05 -3.5883050945959991e-05 0 -2.0013791226805818e-05 -1.2094708767261181e-05 0 -2.0223277188356475e-05 -1.3740728603399756e-05 0 -1.8013895750778522e-05 -9.3474614994861775e-06 0 -1.8249928342082681e-05 -1.1216193500868348e-05 0 -1.8013895750778522e-05 -9.3474614994861775e-06 0 -2.0223277188356475e-05 -1.3740728603399756e-05 0 -6.4818834293051263e-06 2.6530783215703463e-06 0 -8.1562246523350252e-06 1.3455128271126436e-06 0 -4.9482537601811394e-06 1.434178935042926e-06 0 -4.1305131591993878e-05 8.6647535542499791e-05 0 -2.5533704721524308e-05 8.0844055811766179e-05 0 -3.2279446384950657e-05 0.00010333030896160416 0 -5.668411656804317e-05 -5.088071989236359e-05 0 -5.0713762955848869e-05 -5.2964595275358096e-05 0 -4.6094588608446342e-05 -4.3751505369163653e-05 0 -5.4904087495986832e-06 1.2966194618337401e-05 0 -1.2055828654989279e-05 1.232581683256645e-05 0 -6.3766293643637044e-06 8.5008238562049533e-06 0 -1.0492945901436985e-05 7.1105818207676599e-06 0 -6.3766293643637044e-06 8.5008238562049533e-06 0 -1.2055828654989279e-05 1.232581683256645e-05 0 -2.1240501437742294e-06 3.1404297421211864e-06 0 -2.5694080576076947e-06 3.5545069945354084e-06 0 -2.3437628200412481e-06 5.0363848718375407e-06 0 -2.0096344071469858e-05 -2.3966794759722444e-05 0 -2.0046412589676841e-05 -2.6603765261965656e-05 0 -1.773948801724953e-05 -2.3729447232346581e-05 0 -1.8408537815741856e-05 -2.8000755771196185e-05 0 -1.773948801724953e-05 -2.3729447232346581e-05 0 -2.0046412589676841e-05 -2.6603765261965656e-05 0 -7.4073778624618374e-05 4.8855502104632224e-05 0 -6.4343385614433414e-05 3.5017270877993505e-05 0 -5.6579177291887709e-05 3.7839251742017092e-05 0 -3.8468025572474454e-05 -1.907351484836258e-05 0 -4.3612747255883434e-05 -2.5161601191061315e-05 0 -3.5358907888054147e-05 -1.9955675721942306e-05 0 -1.2301285518514659e-09 -3.3462410826931713e-10 0 -9.5635330775068868e-10 -2.5615314389404385e-10 0 -8.7696647105924207e-07 -4.7483938093477519e-07 0 -1.0905813058923278e-09 3.0046606924128654e-10 0 -1.2841917391464007e-09 2.8854308866331499e-10 0 -1.0842928313630579e-06 5.860942554571277e-07 0 -4.1062502097147883e-06 5.5579052504946299e-06 0 -2.6031978816556761e-06 3.7787165129192871e-06 0 -2.6741863997465927e-06 5.8957722390402944e-06 0 -3.0390037047521194e-06 4.7586775260309725e-06 0 -2.3437628200412481e-06 5.0363848718375407e-06 0 -2.5694080576076947e-06 3.5545069945354084e-06 0 -2.1240501437742294e-06 3.1404297421211864e-06 0 -2.6031978816556765e-06 3.7787165129192867e-06 0 -2.2434321904895453e-06 2.6371430892408776e-06 0 -9.0216929932505513e-06 -8.437664146593674e-08 0 -1.2503373793099643e-05 1.0653567315821853e-06 0 -9.7479251015373126e-06 5.5204340183525036e-07 0 -7.0486260862230065e-06 -5.6765514319902362e-07 0 -7.0992548011098244e-06 -1.1146182114392999e-06 0 -9.1905350818338591e-06 -1.5376876837226601e-06 0 -1.3077771621653846e-05 0.00010175985396741 0 -9.0432608841572435e-06 7.7191811399065504e-05 0 2.30791951915361e-06 9.4230188339584106e-05 0 -9.0216929932505513e-06 -8.437664146593674e-08 0 -9.7479251015373109e-06 5.5204340183525015e-07 0 -7.0391482100110075e-06 -3.2148367979213605e-07 0 -7.0486260862230065e-06 -5.6765514319902362e-07 0 -5.3739244129805571e-06 -3.6810924416459072e-07 0 -7.0992548011098244e-06 -1.1146182114392999e-06 0 -2.4480801408979373e-05 -2.3570820599358697e-05 0 -2.5731502347006882e-05 -2.5928063694927184e-05 0 -2.3928787489101569e-05 -2.6270707521635955e-05 0 -2.0132625956276856e-05 5.5237517929718651e-05 0 -9.4106365313436233e-06 3.492789347045972e-05 0 -5.2542616781639897e-06 5.6441131173250461e-05 0 -2.9837102484054347e-06 1.6940625990184115e-06 0 -2.2434321904895453e-06 2.6371430892408776e-06 0 -2.6031978816556765e-06 3.7787165129192867e-06 0 -1.5032739609093992e-05 -2.3713142037302874e-05 0 -1.2335050085636262e-05 -2.1351036307790517e-05 0 -1.4538169208206253e-05 -1.9363335276287721e-05 0 -2.2278768577002076e-09 -3.512983245228009e-10 0 -1.6547326142089106e-09 -4.9579827744824146e-10 0 -1.6491767913779819e-06 -8.0813715341815299e-07 0 -1.55852471538499e-09 2.9999870713291604e-10 0 -1.8965415281952219e-09 1.5264758151328698e-10 0 -1.5278776462663248e-06 4.5979323391530665e-07 0 -1.4972972494428582e-05 -4.6712684663511809e-06 0 -1.9147054905557753e-05 -6.1037822154242528e-06 0 -1.5503415332788222e-05 -4.1784812593215038e-06 0 -2.8993951526030608e-05 7.9177906799347072e-06 0 -2.2154832408064656e-05 5.6023411216102755e-06 0 -2.3079656075439683e-05 4.9514184998264755e-06 0 -2.0571133892213665e-05 -1.6142169871000318e-05 0 -2.3402609239578495e-05 -1.4186915357466636e-05 0 -2.5612499656616474e-05 -1.8976912690981178e-05 0 -8.0336348663078919e-06 -3.5396011652770191e-05 0 -1.3100615447021703e-05 -3.1616970182343747e-05 0 -1.3908416635931098e-05 -4.1394958587237891e-05 0 -1.0439143332166385e-05 -2.025152050123544e-06 0 -1.0642496313986895e-05 -3.9551405968497434e-06 0 -1.2977830978431359e-05 -5.5704694617603564e-06 0 -4.6597447484251069e-06 1.6987427538100489e-06 0 -4.0626368676042757e-06 3.3492478178054946e-06 0 -3.3477282535596309e-06 2.33930759752036e-06 0 -5.6627979097082468e-06 1.881747978096827e-06 0 -4.0626368676042757e-06 3.3492478178054946e-06 0 -4.6597447484251069e-06 1.6987427538100489e-06 0 -2.3444421588469692e-06 7.4835684648245059e-06 0 -3.0397130187449853e-06 8.8464181341469302e-06 0 -2.6741863997465927e-06 5.8957722390402944e-06 0 -4.1062502097147883e-06 5.5579052504946299e-06 0 -2.6741863997465927e-06 5.8957722390402944e-06 0 -3.0397130187449853e-06 8.8464181341469302e-06 0 -1.7947352210743836e-05 -3.1206591899404068e-05 0 -1.9625496991637341e-05 -3.325601893012401e-05 0 -1.7633427242829957e-05 -3.4327865292804353e-05 0 -2.4776123199738722e-05 -1.7429016638961644e-05 0 -2.2555931880852208e-05 -1.5950752750222186e-05 0 -2.1676179947698893e-05 -1.3835257577732569e-05 0 -1.1920485693814363e-05 -6.7321328732251884e-06 0 -1.2449830924254118e-05 -9.8991604618042591e-06 0 -1.4807609417733458e-05 -9.0067789507896346e-06 0 -1.290493333813255e-05 -1.3567327193195095e-05 0 -1.4807609417733459e-05 -9.0067789507896346e-06 0 -1.2449830924254118e-05 -9.8991604618042591e-06 0 -1.1062363148470442e-05 -3.630816384112365e-06 0 -1.4972972494428582e-05 -4.6712684663511809e-06 0 -1.2649977792163689e-05 -3.3519270984185112e-06 0 -2.2154832408064656e-05 5.6023411216102755e-06 0 -1.6018345257843933e-05 4.0899871570271962e-06 0 -1.8458194603959387e-05 3.6348521496309482e-06 0 -2.0622813774716555e-05 -3.6989040432318573e-05 0 -1.8448659180124924e-05 -3.822652863168609e-05 0 -2.0147485346489587e-05 -3.5370020806193149e-05 0 -1.2055828654989279e-05 1.232581683256645e-05 0 -1.024780963412293e-05 1.7092667352451422e-05 0 -1.7301563814090382e-05 1.9077831937867368e-05 0 -1.8769760724768531e-06 1.5787986392551865e-06 0 -1.8671751472294911e-06 2.0867868510243585e-06 0 -1.6138341868124929e-06 1.2588735212595259e-06 0 -3.9334699491937815e-06 -6.8961936061653639e-07 0 -5.9524796562484221e-06 -7.3870419320312632e-07 0 -7.0391482100110075e-06 -3.2148367979213605e-07 0 -3.0732585142220412e-06 9.1595820711603725e-08 0 -5.3739244129805571e-06 -3.6810924416459083e-07 0 -4.829755096102793e-06 3.5083740326962091e-08 0 -3.0085971320542644e-06 1.0024587737925643e-06 0 -3.2536768791560751e-06 8.9324907352119219e-07 0 -3.9706004231356346e-06 7.1268658625422901e-07 0 -1.0439143332166385e-05 -2.025152050123544e-06 0 -1.1265927723855001e-05 -1.5595708457180221e-06 0 -9.0976934045436693e-06 1.1161612984889284e-06 0 -1.4510107046093308e-05 -2.8282654166876092e-05 0 -1.6060192369340847e-05 -2.7284967081902052e-05 0 -1.6195685422532103e-05 -3.1365881947224143e-05 0 -5.0035844084270156e-06 3.7240616504026773e-07 0 -3.9706004231356338e-06 7.1268658625422901e-07 0 -3.2536768791560751e-06 8.9324907352119219e-07 0 -0.00010587495699161006 0.00015418958632946051 0 -8.2014370436897931e-05 0.00014124030807278871 0 -8.8496833457044457e-05 0.00016355104198211798 0 -8.6763620992131231e-06 -6.7171995519402968e-05 0 -1.771157777893765e-05 -6.3239478880811913e-05 0 -1.6912672822435088e-05 -7.3534324965251043e-05 0 -8.01603295785422e-06 -5.6143475515364776e-05 0 -1.5313395435825209e-05 -5.2779790304584921e-05 0 -1.771157777893765e-05 -6.3239478880811913e-05 0 -1.5367591832805068e-05 -7.1854191183188206e-06 0 -1.3519837534670449e-05 -3.4340242431996842e-06 0 -1.5300876994977357e-05 -5.7770701086222216e-06 0 -2.4776123199738722e-05 -1.7429016638961644e-05 0 -2.4746011497235533e-05 -1.9091778380507612e-05 0 -2.2555931880852208e-05 -1.5950752750222189e-05 0 -5.6461943279617582e-06 -9.5423089886274011e-09 0 -7.692278350281013e-06 -1.7514892315685822e-06 0 -6.3644395605612109e-06 -3.2851054948219151e-07 0 -1.2140041691559851e-05 -1.4648030770572374e-06 0 -9.0976934045436693e-06 1.1161612984889284e-06 0 -1.1265927723855001e-05 -1.5595708457180217e-06 0 1.1061582480380572e-05 0.00024180460107315444 0 -2.5608652130299691e-06 0.00025419414352854057 0 -1.0695777785946189e-05 0.00024360532615418391 0 -6.4673272539025157e-05 -0.0001142365680444836 0 -5.8297176730150853e-05 -0.0001183549182636038 0 -5.3970233492333737e-05 -0.00011306086301927027 0 -1.4362416438696594e-05 -0.00011232656888264108 0 -2.3236803035115163e-05 -0.00011348011958273581 0 -2.0054976721674414e-05 -0.00011821703579398782 0 -0.00010943790167342409 0.00024639867055298813 0 -8.5174870754432569e-05 0.00024377033309181198 0 -9.4978261372396611e-05 0.00025575071268296793 0 -6.3589177413990661e-06 4.1082529428494375e-07 0 -5.0117850973836099e-06 7.794645714152825e-07 0 -6.3644395605612109e-06 -3.2851054948219151e-07 0 -5.6461943279617582e-06 -9.5423089886274011e-09 0 -6.3644395605612109e-06 -3.2851054948219151e-07 0 -5.0117850973836099e-06 7.794645714152825e-07 0 -9.7574281146568148e-06 -4.3868931312151676e-06 0 -7.692278350281013e-06 -1.751489231568582e-06 0 -8.398108369621653e-06 -2.5172050214588463e-06 0 -3.3717697916444278e-05 1.368185607755857e-05 0 -3.5178328384836611e-05 1.1687439879691462e-05 0 -2.5705906595549374e-05 7.8310102439977312e-06 0 -2.827717122289659e-05 7.3125079798138031e-06 0 -2.5705906595549374e-05 7.8310102439977295e-06 0 -3.5178328384836611e-05 1.1687439879691462e-05 0 -1.0492945901436985e-05 7.1105818207676599e-06 0 -1.4009628640747763e-05 5.8260492194645803e-06 0 -9.4864983068861838e-06 3.7496249634162156e-06 0 -1.1921271686796653e-05 -4.524904932208582e-06 0 -9.0101718803809778e-06 -2.1639201516591704e-06 0 -1.0283758995750936e-05 -2.3754343587498669e-06 0 -1.1920485693814363e-05 -6.7321328732251884e-06 0 -1.1404478027748991e-05 -7.5189460178673148e-06 0 -1.2449830924254118e-05 -9.8991604618042591e-06 0 -7.0486260862230065e-06 -5.6765514319902362e-07 0 -5.4335576285886006e-06 1.6233462383950379e-07 0 -4.829755096102793e-06 3.5083740326962091e-08 0 -3.2753299404479652e-06 4.2381569670863967e-07 0 -4.829755096102793e-06 3.5083740326962091e-08 0 -5.4335576285886015e-06 1.6233462383950376e-07 0 -3.7321907909807124e-06 -9.9038623332218805e-07 0 -5.970072213474782e-06 -6.7687276047013707e-07 0 -5.9524796562484221e-06 -7.3870419320312621e-07 0 -9.0216929932505513e-06 -8.437664146593674e-08 0 -5.9524796562484221e-06 -7.3870419320312632e-07 0 -5.970072213474782e-06 -6.7687276047013707e-07 0 -4.3694412062992139e-05 -5.0240487664022201e-05 0 -4.8809741731076719e-05 -6.0608098584210206e-05 0 -4.0633472371950693e-05 -5.6083324166892865e-05 0 -4.1701821011136422e-05 -6.5372970665186992e-05 0 -4.0633472371950693e-05 -5.6083324166892865e-05 0 -4.8809741731076719e-05 -6.0608098584210206e-05 0 -1.3645283969665742e-06 -7.657340011420628e-07 0 -8.7696647105924207e-07 -4.7483938093477519e-07 0 -2.0834524949308311e-06 -6.6292906657211043e-07 0 -1.2964456032558286e-06 -3.4967068081213647e-07 0 -2.0834524949308311e-06 -6.6292906657211043e-07 0 -8.7696647105924207e-07 -4.7483938093477519e-07 0 -1.8549067076829367e-06 8.6811048680552688e-07 0 -1.0842928313630579e-06 5.860942554571277e-07 0 -2.4101389297669613e-06 8.3671526662639396e-07 0 -1.431661510507073e-06 5.9506138815666641e-07 0 -2.4101389297669613e-06 8.3671526662639396e-07 0 -1.0842928313630579e-06 5.860942554571277e-07 0 -4.5146709064207222e-05 0.00019015093126953478 0 -3.1245672979627954e-05 0.00017685736245787233 0 -2.9177776794565065e-05 0.00019970128361848543 0 -3.6595954545028758e-05 -8.8393458570063601e-05 0 -4.1747951016653847e-05 -8.2547320685153502e-05 0 -4.3931414200378474e-05 -9.3055540177578418e-05 0 -6.3550906848302041e-06 -4.3380807624073253e-08 0 -4.8797916369294196e-06 3.9481437964780326e-07 0 -5.4335576285886015e-06 1.6233462383950376e-07 0 -5.7754021897763591e-06 1.1459857163449856e-07 0 -5.970072213474782e-06 -6.7687276047013707e-07 0 -4.587804259233598e-06 -4.9511236401309406e-07 0 -1.1921271686796653e-05 -4.524904932208582e-06 0 -1.1668431449892778e-05 -6.0714297910212793e-06 0 -9.6980412720086388e-06 -3.5082551714951514e-06 0 -7.0486260862230065e-06 -5.6765514319902362e-07 0 -7.7501161315682023e-06 -5.6953451747214386e-07 0 -5.4335576285886015e-06 1.6233462383950376e-07 0 -9.0216929932505513e-06 -8.437664146593674e-08 0 -5.970072213474782e-06 -6.7687276047013707e-07 0 -8.8549107347866597e-06 1.37442429453427e-07 0 -1.290493333813255e-05 -1.3567327193195095e-05 0 -1.686376202542618e-05 -1.0100888565029135e-05 0 -1.4807609417733458e-05 -9.0067789507896346e-06 0 -5.6461943279617582e-06 -9.5423089886274011e-09 0 -6.9363940918554999e-06 -1.1140344712563753e-06 0 -7.692278350281013e-06 -1.7514892315685822e-06 0 -2.5581101735790679e-09 -7.5458801412048494e-10 0 -2.2278768577002076e-09 -3.512983245228009e-10 0 -1.8550430522999665e-06 -6.6663448067554004e-07 0 -1.8965415281952219e-09 1.5264758151328698e-10 0 -2.0136438225622707e-09 3.5363808655035069e-10 0 -1.5511827244757984e-06 2.7632527556430214e-07 0 -5.4904087495986832e-06 1.2966194618337401e-05 0 -6.3766293643637044e-06 8.5008238562049533e-06 0 -3.0397130187449853e-06 8.8464181341469302e-06 0 -2.1347595298230931e-05 -3.2673546182291232e-05 0 -2.1876578852417336e-05 -3.4608322811575049e-05 0 -2.0147485346489587e-05 -3.5370020806193149e-05 0 -1.1921271686796653e-05 -4.524904932208582e-06 0 -1.3064672471293825e-05 -4.0948889636317869e-06 0 -1.5553930143148005e-05 -6.483725563207551e-06 0 -1.8675611766198521e-05 -3.5883050945959991e-05 0 -1.3908416635931098e-05 -4.1394958587237891e-05 0 -1.3100615447021703e-05 -3.1616970182343747e-05 0 -6.3589177413990661e-06 4.1082529428494375e-07 0 -4.6597447484251069e-06 1.6987427538100489e-06 0 -5.0117850973836099e-06 7.794645714152825e-07 0 -9.0542274466736897e-06 -2.8728483013846419e-06 0 -7.567341416991263e-06 -1.2014716431390849e-06 0 -7.692278350281013e-06 -1.7514892315685822e-06 0 -6.393448297983433e-06 1.8484087656652847e-07 0 -9.5295534583125676e-06 1.677487380750962e-06 0 -4.5690416649217711e-06 7.5610657985844237e-07 0 -4.6713714414417657e-06 -6.9042829695029879e-07 0 -3.2634794503438852e-06 -9.1505492037895204e-07 0 -6.7332123107320094e-06 -1.8455164001506909e-06 0 -1.3815597735557423e-05 -9.3823191702126669e-06 0 -1.3186373179438603e-05 -1.1376952453587964e-05 0 -1.1404478027748991e-05 -7.5189460178673148e-06 0 -3.3477282535596309e-06 2.33930759752036e-06 0 -3.7135667106501745e-06 1.4460246146799209e-06 0 -4.6597447484251069e-06 1.6987427538100489e-06 0 -7.749297210625939e-06 -1.6251078966853326e-06 0 -9.0101718803809778e-06 -2.1639201516591709e-06 0 -9.6980412720086388e-06 -3.5082551714951514e-06 0 -2.2589682631047076e-05 -8.4685491452068236e-06 0 -2.3456826319990257e-05 -1.0976453514523232e-05 0 -1.9114001718059784e-05 -7.7920722120751927e-06 0 -0.00010245548822308817 0.00013048007068342557 0 -8.2953528769526594e-05 0.00011994677501686722 0 -8.2014370436897931e-05 0.00014124030807278871 0 -1.3815597735557423e-05 -9.3823191702126669e-06 0 -1.4708478846739941e-05 -7.7183091775695289e-06 0 -1.7575796101703406e-05 -1.1235281610461409e-05 0 -1.5300876994977357e-05 -5.7770701086222216e-06 0 -1.8013895750778522e-05 -9.3474614994861775e-06 0 -1.670061921751291e-05 -8.4646103503861656e-06 0 -1.1921271686796653e-05 -4.524904932208582e-06 0 -1.5553930143148005e-05 -6.483725563207551e-06 0 -1.4708478846739941e-05 -7.7183091775695289e-06 0 -5.0117850973836099e-06 7.794645714152825e-07 0 -4.6597447484251069e-06 1.6987427538100489e-06 0 -3.7135667106501745e-06 1.4460246146799209e-06 0 -2.0013791226805818e-05 -1.2094708767261181e-05 0 -2.1676179947698893e-05 -1.3835257577732569e-05 0 -2.2555931880852208e-05 -1.5950752750222189e-05 0 -5.4904087495986832e-06 1.2966194618337401e-05 0 -1.2660755535384554e-06 1.4416755744677372e-05 0 -4.9110146292627798e-06 1.9424017331589464e-05 0 -1.1921271686796653e-05 -4.524904932208582e-06 0 -1.0283758995750936e-05 -2.3754343587498669e-06 0 -1.3064672471293825e-05 -4.0948889636317869e-06 0 -0.00010804792970499889 0.00017798638537391351 0 -0.00010587495699161006 0.00015418958632946051 0 -8.8496833457044457e-05 0.00016355104198211798 0 -8.6763620992131231e-06 -6.7171995519402968e-05 0 -1.6912672822435088e-05 -7.3534324965251043e-05 0 -9.6901575655744867e-06 -7.8546309694375562e-05 0 -7.7497901113954468e-06 -4.5557978234415934e-05 0 -1.5313395435825209e-05 -5.2779790304584921e-05 0 -8.01603295785422e-06 -5.6143475515364776e-05 0 -2.2920232742814957e-05 1.5619959252544429e-05 0 -3.388662180348293e-05 1.8696341978131006e-05 0 -2.720781891229093e-05 1.2358353673740225e-05 0 2.1657802285556751e-06 1.6944658793064498e-06 0 -4.8201892692478842e-06 7.6913476261526185e-06 0 -4.7294162238974798e-06 -3.686939336474641e-06 0 -2.2589682631047076e-05 -8.4685491452068236e-06 0 -2.3179096869846698e-05 -7.923646167085071e-06 0 -2.6866381625417285e-05 -1.0359428627074298e-05 0 -3.3717697916444278e-05 1.368185607755857e-05 0 -4.1790860203935817e-05 1.6484101540669383e-05 0 -3.5178328384836611e-05 1.1687439879691462e-05 0 -2.2589682631047076e-05 -8.4685491452068236e-06 0 -2.6866381625417285e-05 -1.0359428627074298e-05 0 -2.8009266371295425e-05 -1.2262550124246936e-05 0 -3.3717697916444278e-05 1.368185607755857e-05 0 -4.3125963450586744e-05 2.073901213205707e-05 0 -4.1790860203935817e-05 1.6484101540669383e-05 0 -4.6713714414417657e-06 -6.9042829695029879e-07 0 -2.2739357688070599e-06 -1.7008526114945833e-07 0 -3.2634794503438852e-06 -9.1505492037895204e-07 0 -6.393448297983433e-06 1.8484087656652847e-07 0 -4.5690416649217711e-06 7.5610657985844237e-07 0 -3.0802784728884332e-06 -2.2251512662508566e-07 0 -9.0542274466736897e-06 -2.8728483013846419e-06 0 -1.0384146327967334e-05 -5.1420251031169822e-06 0 -1.0642496313986895e-05 -3.9551405968497434e-06 0 -1.1920485693814363e-05 -6.7321328732251884e-06 0 -1.0642496313986895e-05 -3.9551405968497434e-06 0 -1.0384146327967334e-05 -5.1420251031169822e-06 0 -2.9694576565491226e-05 -2.8093478495092731e-05 0 -2.9073551684740687e-05 -2.7910692527185543e-05 0 -2.7212604883634913e-05 -2.500239706927842e-05 0 -8.6896691415941502e-06 -2.0926253601793071e-05 0 -1.0470416678563331e-05 -2.179482308401546e-05 0 -1.184302555878257e-05 -2.5518874454971191e-05 0 -6.8784358204419862e-07 -5.7607502741194924e-06 0 -4.7294162238974798e-06 -3.6869393364746406e-06 0 -5.3991260121751592e-06 -9.6801173674552835e-06 0 -7.0554496260634458e-06 -1.7436835438471973e-05 0 -8.5436034862139918e-06 -1.7776990580229202e-05 0 -1.0470416678563331e-05 -2.179482308401546e-05 0 -2.8564328662789319e-05 -2.4959087506612843e-05 0 -2.7212604883634913e-05 -2.500239706927842e-05 0 -2.6222945080095638e-05 -2.2156341313283893e-05 0 -1.1921271686796653e-05 -4.524904932208582e-06 0 -9.6980412720086388e-06 -3.5082551714951514e-06 0 -9.0101718803809778e-06 -2.1639201516591704e-06 0 -9.7574281146568148e-06 -4.3868931312151676e-06 0 -1.1404478027748991e-05 -7.5189460178673148e-06 0 -1.0384146327967334e-05 -5.1420251031169822e-06 0 -1.1920485693814363e-05 -6.7321328732251884e-06 0 -1.0384146327967334e-05 -5.1420251031169822e-06 0 -1.1404478027748991e-05 -7.5189460178673148e-06 0 -6.3589177413990661e-06 4.1082529428494375e-07 0 -8.5963112264999062e-06 -1.4657054114603254e-06 0 -7.7131353274681058e-06 6.0424813344315597e-07 0 -0.00010245548822308817 0.00013048007068342557 0 -9.7454966625710036e-05 0.00010727965620435549 0 -8.2953528769526594e-05 0.00011994677501686722 0 -1.2140041691559851e-05 -1.4648030770572374e-06 0 -1.1265927723854999e-05 -1.5595708457180212e-06 0 -1.3405329341660165e-05 -4.0358463164380882e-06 0 -1.494980437525227e-05 2.5903073761863807e-05 0 -1.0247809634122929e-05 1.7092667352451422e-05 0 -4.9110146292627798e-06 1.9424017331589464e-05 0 -5.4904087495986832e-06 1.2966194618337401e-05 0 -4.9110146292627798e-06 1.9424017331589464e-05 0 -1.024780963412293e-05 1.7092667352451422e-05 0 -8.0336348663078919e-06 -3.5396011652770191e-05 0 -1.3908416635931098e-05 -4.1394958587237891e-05 0 -7.7497901113954468e-06 -4.5557978234415934e-05 0 -5.4380899716963825e-05 2.4373805861244778e-05 0 -4.1790860203935817e-05 1.6484101540669383e-05 0 -4.3125963450586744e-05 2.073901213205707e-05 0 -3.3262067503118866e-05 -1.4267648940864714e-05 0 -2.8009266371295425e-05 -1.2262550124246936e-05 0 -2.6866381625417285e-05 -1.0359428627074298e-05 0 -1.0439143332166385e-05 -2.025152050123544e-06 0 -1.3405329341660165e-05 -4.0358463164380882e-06 0 -1.1265927723855001e-05 -1.5595708457180217e-06 0 -5.9481982518111488e-05 0.00014039702840838649 0 -8.2014370436897931e-05 0.00014124030807278871 0 -6.8392259029342658e-05 0.00012376255842382947 0 -5.9481982518111488e-05 0.00014039702840838649 0 -7.284730209732303e-05 0.00015651170929424779 0 -8.2014370436897931e-05 0.00014124030807278871 0 -2.641982805560975e-05 -6.4189230676875786e-05 0 -2.2694201991489903e-05 -7.1070449775822742e-05 0 -1.771157777893765e-05 -6.3239478880811913e-05 0 -2.641982805560975e-05 -6.4189230676875786e-05 0 -1.7711577778937646e-05 -6.3239478880811899e-05 0 -2.1398409400188122e-05 -5.672528617334624e-05 0 -9.6901575655744867e-06 -7.8546309694375562e-05 0 -1.7182740140627947e-05 -8.376715327420481e-05 0 -1.1173019046980775e-05 -9.0240745376106245e-05 0 -0.00010904967246324478 0.00020149909383498698 0 -0.00010804792970499889 0.00017798638537391351 0 -9.1864474837758604e-05 0.00018471300984076753 0 -3.7377006928024411e-06 6.8261291093852687e-07 0 -3.136071697922402e-06 6.6027437494227657e-07 0 -4.8797916369294205e-06 3.9481437964780315e-07 0 -3.2014295381612189e-06 -6.9227358880098287e-07 0 -4.587804259233598e-06 -4.9511236401309406e-07 0 -2.9761048178042347e-06 -1.003533556068692e-06 0 -2.641982805560975e-05 -6.4189230676875786e-05 0 -3.2308771516419046e-05 -6.4968546072514361e-05 0 -2.8832890843140115e-05 -7.3783891951468463e-05 0 -2.641982805560975e-05 -6.4189230676875786e-05 0 -2.6879375471929211e-05 -5.5590707114501442e-05 0 -3.2308771516419046e-05 -6.4968546072514361e-05 0 -3.6437289390120086e-05 -7.5577747362429184e-05 0 -2.8832890843140115e-05 -7.3783891951468463e-05 0 -3.2308771516419046e-05 -6.4968546072514361e-05 0 -3.3709563911073224e-05 -5.5561422147124446e-05 0 -3.2308771516419046e-05 -6.4968546072514361e-05 0 -2.6879375471929211e-05 -5.5590707114501442e-05 0 -5.9481982518111488e-05 0.00014039702840838649 0 -4.4451471429671618e-05 0.00014185197064537142 0 -5.9042759940024911e-05 0.00016186232306936526 0 -4.1270620568148582e-05 0.00016164577197864234 0 -5.9042759940024911e-05 0.00016186232306936526 0 -4.4451471429671618e-05 0.00014185197064537142 0 -1.8965415281952219e-09 1.5264758151328698e-10 0 -1.5511827244757984e-06 2.7632527556430214e-07 0 -1.5278776462663248e-06 4.5979323391530665e-07 0 -2.2278768577002076e-09 -3.512983245228009e-10 0 -1.6491767913779819e-06 -8.0813715341815299e-07 0 -1.8550430522999665e-06 -6.6663448067554004e-07 0 -3.7698045041237657e-05 -2.6687304131117399e-05 0 -3.0424747274889458e-05 -1.9580841982732107e-05 0 -3.5358907888054147e-05 -1.9955675721942306e-05 0 -5.939069982648835e-05 5.2305608378975705e-05 0 -5.6579177291887709e-05 3.7839251742017092e-05 0 -4.6648838999844173e-05 3.6575335002446866e-05 0 -1.5465565882513217e-05 -4.0525275427884444e-06 0 -1.9543781687255759e-05 -6.1923940941136102e-06 0 -1.8052461530964006e-05 -5.9504427164610411e-06 0 -3.1899464971033145e-06 1.2702687966125586e-06 0 -4.1573181689286088e-06 8.4501280965615761e-07 0 -3.7135667106501745e-06 1.4460246146799209e-06 0 -1.8681226396481623e-05 -3.552270271999972e-05 0 -1.7633427242829957e-05 -3.4327865292804353e-05 0 -1.9625496991637341e-05 -3.325601893012401e-05 0 -1.7132969793037238e-05 2.6003668394395908e-06 0 -2.0579418224172305e-05 4.019584444143647e-06 0 -2.3079656075439683e-05 4.9514184998264755e-06 0 -2.827717122289659e-05 7.3125079798138031e-06 0 -2.3079656075439683e-05 4.9514184998264755e-06 0 -2.0579418224172305e-05 4.019584444143647e-06 0 -1.5456859907304466e-06 6.6494316623660412e-07 0 -1.67994200874999e-06 -1.9703082761558238e-08 0 -1.1755668233061955e-06 4.1455609074405308e-08 0 -3.2161134394471404e-06 -1.0357779755761117e-05 0 -7.7382306799548144e-06 -1.4439303654778302e-05 0 -5.189435547893564e-06 -1.3981792346143414e-05 0 -3.3262067503118866e-05 -1.4267648940864714e-05 0 -3.2822269390744099e-05 -1.6029798988532069e-05 0 -2.8009266371295425e-05 -1.2262550124246936e-05 0 -5.4380899716963825e-05 2.4373805861244778e-05 0 -4.3125963450586744e-05 2.073901213205707e-05 0 -5.2424023029459658e-05 2.84572190417427e-05 0 -1.8157154308443609e-05 -1.1222977845397821e-05 0 -1.8832550601363167e-05 -1.0361141023057179e-05 0 -1.686376202542618e-05 -1.0100888565029135e-05 0 -9.0216929932505513e-06 -8.437664146593674e-08 0 -8.8549107347866597e-06 1.37442429453427e-07 0 -1.3332197158683372e-05 1.2744549683842537e-06 0 -1.095728843758513e-05 1.4272911519419674e-06 0 -1.3332197158683372e-05 1.2744549683842539e-06 0 -8.8549107347866597e-06 1.37442429453427e-07 0 -2.0132625956276856e-05 5.5237517929718651e-05 0 -1.7818513727744841e-05 3.8317577174342248e-05 0 -9.4106365313436233e-06 3.492789347045972e-05 0 -2.2154832408064656e-05 5.6023411216102755e-06 0 -1.8458194603959387e-05 3.6348521496309482e-06 0 -2.3079656075439683e-05 4.9514184998264755e-06 0 -1.4972972494428582e-05 -4.6712684663511809e-06 0 -1.5503415332788222e-05 -4.1784812593215038e-06 0 -1.2649977792163689e-05 -3.3519270984185112e-06 0 -2.0096344071469858e-05 -2.3966794759722444e-05 0 -1.9765633554721541e-05 -2.1024786899216957e-05 0 -2.2210185005921867e-05 -2.3861308997077614e-05 0 -2.155779943372092e-05 -2.0686259482517292e-05 0 -2.2210185005921867e-05 -2.3861308997077614e-05 0 -1.9765633554721541e-05 -2.1024786899216957e-05 0 -6.3589177413990661e-06 4.1082529428494375e-07 0 -5.6627979097082468e-06 1.881747978096827e-06 0 -4.6597447484251069e-06 1.6987427538100489e-06 0 -1.0492945901436985e-05 7.1105818207676599e-06 0 -9.4864983068861838e-06 3.7496249634162151e-06 0 -6.7076088350526583e-06 4.7553731946232098e-06 0 -2.1240501437742294e-06 3.1404297421211864e-06 0 -2.2822012066789561e-06 2.4328544822363873e-06 0 -2.5694080576076947e-06 3.5545069945354084e-06 0 -1.494980437525227e-05 2.5903073761863807e-05 0 -9.4106365313436233e-06 3.492789347045972e-05 0 -1.7818513727744838e-05 3.8317577174342248e-05 0 -2.2589682631047076e-05 -8.4685491452068236e-06 0 -1.9114001718059784e-05 -7.7920722120751927e-06 0 -1.8052461530964006e-05 -5.9504427164610411e-06 0 -7.749297210625939e-06 -1.6251078966853326e-06 0 -6.009934175324399e-06 -3.1782932320128612e-07 0 -6.6846154048393731e-06 -5.1378005765470123e-07 0 1.5593983291755186e-05 7.8749642288491965e-05 0 1.7337434295855578e-05 0.00010133564996793293 0 2.30791951915361e-06 9.4230188339584106e-05 0 -5.9732854713013517e-05 -6.1327846469230406e-05 0 -4.8809741731076719e-05 -6.0608098584210206e-05 0 -5.0713762955848869e-05 -5.2964595275358096e-05 0 -5.4380899716963825e-05 2.4373805861244778e-05 0 -4.4967287780571866e-05 1.6940869842820542e-05 0 -4.1790860203935817e-05 1.6484101540669383e-05 0 -2.8213248231811197e-05 -1.0732320912743531e-05 0 -3.3262067503118866e-05 -1.4267648940864714e-05 0 -2.6866381625417285e-05 -1.0359428627074298e-05 0 -9.0976934045436693e-06 1.1161612984889284e-06 0 -1.0236742914155709e-05 1.5272552049601551e-06 0 -6.9558882858121974e-06 4.3011817980774093e-06 0 -9.0216929932505513e-06 -8.437664146593674e-08 0 -1.3332197158683372e-05 1.2744549683842537e-06 0 -1.2503373793099643e-05 1.0653567315821853e-06 0 -1.7132969793037238e-05 2.6003668394395908e-06 0 -1.2503373793099643e-05 1.0653567315821853e-06 0 -1.3332197158683372e-05 1.2744549683842537e-06 0 -2.3444421588469692e-06 7.4835684648245059e-06 0 -2.0931659136821106e-06 1.0409821145431151e-05 0 -3.0397130187449853e-06 8.8464181341469302e-06 0 -5.1488608379872697e-05 -7.2159787551933564e-05 0 -4.8809741731076719e-05 -6.0608098584210206e-05 0 -5.5529369849003457e-05 -6.6684887093195654e-05 0 -2.4440882050113921e-05 -2.0234331351695471e-05 0 -2.3260311002345138e-05 -2.0410985958996975e-05 0 -2.247117101285463e-05 -1.7328933140328887e-05 0 1.6970941661501391e-05 0.00017163512238855806 0 1.5339711626725409e-05 0.00019579698089289331 0 7.6077805074034542e-07 0.00018362596200022875 0 -6.3609930282529904e-05 -8.3169360998121359e-05 0 -6.4374204276827269e-05 -9.3957072083597265e-05 0 -5.6660365376385278e-05 -8.697378851366137e-05 0 -2.2920232742814957e-05 1.5619959252544429e-05 0 -1.5660908967423217e-05 9.9290549128363759e-06 0 -1.2055828654989279e-05 1.232581683256645e-05 0 -1.3815597735557423e-05 -9.3823191702126669e-06 0 -1.6524844910405213e-05 -1.3604823405965462e-05 0 -1.3186373179438603e-05 -1.1376952453587963e-05 0 -1.8889761067474238e-05 -9.6007994982329435e-06 0 -1.7575796101703406e-05 -1.1235281610461409e-05 0 -1.4708478846739941e-05 -7.7183091775695289e-06 0 -0.00010804792970499889 0.00017798638537391351 0 -8.8496833457044457e-05 0.00016355104198211798 0 -9.1864474837758604e-05 0.00018471300984076753 0 -9.6901575655744867e-06 -7.8546309694375562e-05 0 -1.6912672822435088e-05 -7.3534324965251043e-05 0 -1.7182740140627947e-05 -8.376715327420481e-05 0 -8.2151521585673232e-06 -1.2073427880151033e-06 0 -6.5256852505271744e-06 -2.1257277468017829e-07 0 -8.4790568909954797e-06 -9.6333693593997279e-07 0 -5.4904087495986832e-06 1.2966194618337401e-05 0 -1.024780963412293e-05 1.7092667352451422e-05 0 -1.2055828654989279e-05 1.232581683256645e-05 0 -2.2589682631047076e-05 -8.4685491452068236e-06 0 -1.9543781687255759e-05 -6.1923940941136093e-06 0 -2.3179096869846698e-05 -7.923646167085071e-06 0 -2.1792455578843846e-05 -1.3840733426472237e-05 0 -2.4776123199738722e-05 -1.7429016638961644e-05 0 -2.1676179947698893e-05 -1.3835257577732569e-05 0 -9.7194614726574821e-06 -1.3914883901986885e-06 0 -9.4618006584672346e-06 -1.3252344888239121e-06 0 -1.2312825424777071e-05 -2.4702301102009813e-06 0 -5.668411656804317e-05 -5.088071989236359e-05 0 -5.9732854713013517e-05 -6.1327846469230406e-05 0 -5.0713762955848869e-05 -5.2964595275358096e-05 0 -1.8491441195575468e-05 -5.3631498281767202e-06 0 -1.4823784161820764e-05 -3.6234039275682247e-06 0 -1.5503415332788222e-05 -4.1784812593215038e-06 0 -1.2135045454361297e-05 -2.5914837596311587e-06 0 -1.5503415332788222e-05 -4.1784812593215038e-06 0 -1.4823784161820764e-05 -3.6234039275682247e-06 0 -6.6594804132531836e-05 0.00010732422517096461 0 -5.1671193463144031e-05 0.00011071072076015252 0 -6.8392259029342658e-05 0.00012376255842382947 0 -1.3645283969665742e-06 -7.657340011420628e-07 0 -2.9761048178042347e-06 -1.003533556068692e-06 0 -1.6491767913779819e-06 -8.0813715341815299e-07 0 -3.7321907909807124e-06 -9.9038623332218805e-07 0 -1.6491767913779819e-06 -8.0813715341815299e-07 0 -2.9761048178042347e-06 -1.003533556068692e-06 0 -3.2753299404479652e-06 4.2381569670863967e-07 0 -3.136071697922402e-06 6.6027437494227657e-07 0 -1.5278776462663248e-06 4.5979323391530665e-07 0 -1.431661510507073e-06 5.9506138815666641e-07 0 -1.5278776462663248e-06 4.5979323391530665e-07 0 -3.136071697922402e-06 6.6027437494227657e-07 0 -9.7574281146568148e-06 -4.3868931312151676e-06 0 -9.6980412720086388e-06 -3.5082551714951514e-06 0 -1.1668431449892778e-05 -6.0714297910212793e-06 0 -1.1977152111804549e-05 -1.3547047167743468e-06 0 -1.3519837534670449e-05 -3.4340242431996842e-06 0 -1.3699695096510075e-05 -5.9299519484628126e-06 0 -1.5367591832805068e-05 -7.1854191183188206e-06 0 -1.3699695096510075e-05 -5.9299519484628126e-06 0 -1.3519837534670449e-05 -3.4340242431996842e-06 0 -2.4776123199738722e-05 -1.7429016638961644e-05 0 -2.6993108461190937e-05 -2.1372162500686441e-05 0 -2.4746011497235533e-05 -1.9091778380507612e-05 0 -1.5367591832805068e-05 -7.1854191183188206e-06 0 -1.5300876994977357e-05 -5.7770701086222216e-06 0 -1.670061921751291e-05 -8.4646103503861656e-06 0 -1.0470416678563331e-05 -2.179482308401546e-05 0 -8.5436034862139918e-06 -1.7776990580229202e-05 0 -1.2335050085636262e-05 -2.1351036307790517e-05 0 -2.7212604883634913e-05 -2.500239706927842e-05 0 -2.5230792294525374e-05 -2.2333838673254591e-05 0 -2.6222945080095638e-05 -2.2156341313283893e-05 0 -3.3262067503118866e-05 -1.4267648940864714e-05 0 -3.8468025572474454e-05 -1.907351484836258e-05 0 -3.2822269390744099e-05 -1.6029798988532069e-05 0 -6.4343385614433414e-05 3.5017270877993505e-05 0 -5.4380899716963825e-05 2.4373805861244778e-05 0 -5.2424023029459658e-05 2.84572190417427e-05 0 -4.7294162238974798e-06 -3.686939336474641e-06 0 -8.9778392729244094e-06 -7.430271030757715e-06 0 -5.3991260121751592e-06 -9.6801173674552835e-06 0 -1.0470416678563331e-05 -2.179482308401546e-05 0 -1.3660925311934909e-05 -2.5231383172955245e-05 0 -1.184302555878257e-05 -2.5518874454971191e-05 0 -1.8889761067474238e-05 -9.6007994982329435e-06 0 -1.9114001718059784e-05 -7.7920722120751927e-06 0 -2.3456826319990257e-05 -1.0976453514523232e-05 0 -1.1562090630929307e-06 7.4116935265596496e-07 0 -4.6708940356393891e-07 3.3038455113403144e-07 0 -5.5863531116043716e-07 4.057763022851654e-07 0 -6.4818834293051263e-06 2.6530783215703463e-06 0 -9.4864983068861838e-06 3.7496249634162156e-06 0 -8.1562246523350252e-06 1.3455128271126436e-06 0 -2.9837102484054347e-06 1.6940625990184115e-06 0 -4.9482537601811394e-06 1.434178935042926e-06 0 -3.8745141474123726e-06 5.995081806722681e-07 0 -6.7168649592578195e-06 7.2885192571550592e-06 0 -9.3150370909716292e-06 3.1042596976083305e-06 0 -8.6763119205989026e-06 2.9540628340798108e-07 0 -9.3370163593956638e-06 -2.1266287400255704e-06 0 -7.0992548011098244e-06 -1.1146182114392999e-06 0 -6.7332123107320094e-06 -1.8455164001506909e-06 0 -4.6713714414417657e-06 -6.9042829695029879e-07 0 -6.7332123107320094e-06 -1.8455164001506909e-06 0 -7.0992548011098244e-06 -1.1146182114392999e-06 0 -6.393448297983433e-06 1.8484087656652847e-07 0 -9.7479251015373126e-06 5.5204340183525036e-07 0 -9.5295534583125676e-06 1.677487380750962e-06 0 -1.3237010005171662e-05 1.8746846197913037e-06 0 -9.5295534583125676e-06 1.677487380750962e-06 0 -9.7479251015373126e-06 5.5204340183525036e-07 0 -4.8347276898276148e-05 -3.2540285075411096e-05 0 -5.2917811803212924e-05 -4.1246273321779791e-05 0 -4.4662977789274875e-05 -3.5548306421632973e-05 0 -2.0132625956276856e-05 5.5237517929718651e-05 0 -2.7178662908026249e-05 4.0840551875807045e-05 0 -1.7818513727744838e-05 3.8317577174342248e-05 0 -7.7497901113954468e-06 -4.5557978234415934e-05 0 -1.3908416635931098e-05 -4.1394958587237891e-05 0 -1.5313395435825209e-05 -5.2779790304584921e-05 0 -1.7947352210743836e-05 -3.1206591899404068e-05 0 -2.0199314116527569e-05 -3.0379206397769927e-05 0 -1.9625496991637341e-05 -3.325601893012401e-05 0 -6.3550906848302041e-06 -4.3380807624073253e-08 0 -8.4790568909954797e-06 -9.6333693593997279e-07 0 -6.5256852505271744e-06 -2.1257277468017832e-07 0 -1.0439143332166385e-05 -2.025152050123544e-06 0 -7.7131353274681058e-06 6.0424813344315597e-07 0 -8.5963112264999062e-06 -1.4657054114603254e-06 0 -1.5465565882513217e-05 -4.0525275427884444e-06 0 -1.2312825424777071e-05 -2.4702301102009813e-06 0 -1.4823784161820764e-05 -3.6234039275682247e-06 0 -1.3077771621653846e-05 0.00010175985396741 0 3.7244122935866693e-06 0.00010918639975832638 0 -5.107069289710568e-06 0.00012268731731588081 0 -8.6693475039835218e-10 2.229802274474671e-10 0 -9.4135629309577947e-07 6.1389231307429667e-07 0 -5.5863531116043716e-07 4.057763022851654e-07 0 -2.155779943372092e-05 -2.0686259482517292e-05 0 -1.9765633554721541e-05 -2.1024786899216957e-05 0 -1.909486988338665e-05 -1.7426390564095312e-05 0 -4.7294162238974798e-06 -3.686939336474641e-06 0 -4.8201892692478842e-06 7.6913476261526185e-06 0 -8.6763119205989026e-06 2.9540628340798108e-07 0 -9.104098115332266e-05 8.5602394204114052e-05 0 -8.2813478419365954e-05 6.574700543856875e-05 0 -7.3372460095340626e-05 7.3118128965937471e-05 0 -8.2035501187017259e-07 5.1326836821048022e-07 0 -9.2280992874486192e-07 4.274548624757155e-07 0 -5.2870025840157631e-07 1.9242869972586404e-07 0 -3.2753299404479652e-06 4.2381569670863967e-07 0 -1.5278776462663248e-06 4.5979323391530665e-07 0 -1.5511827244757984e-06 2.7632527556430214e-07 0 -3.7321907909807124e-06 -9.9038623332218805e-07 0 -1.8550430522999665e-06 -6.6663448067554004e-07 0 -1.6491767913779819e-06 -8.0813715341815299e-07 0 -3.3477282535596309e-06 2.33930759752036e-06 0 -2.7975485301538173e-06 1.7956423871544384e-06 0 -3.7135667106501745e-06 1.4460246146799209e-06 0 -2.8926879707891443e-05 -1.5274975819088626e-05 0 -2.8009266371295425e-05 -1.2262550124246936e-05 0 -3.2822269390744099e-05 -1.6029798988532069e-05 0 -4.3477109158417864e-05 2.7396887821032115e-05 0 -5.2424023029459658e-05 2.84572190417427e-05 0 -4.3125963450586744e-05 2.073901213205707e-05 0 -1.5020592752297601e-05 0.00017697052357164351 0 -5.8048834946611708e-06 0.00015503291552837267 0 2.8137411737130611e-06 0.00016742238609672905 0 -4.8950436791443473e-05 -8.303778487335702e-05 0 -5.1488608379872697e-05 -7.2159787551933564e-05 0 -5.6593069958274943e-05 -7.9360009490321112e-05 0 -3.2161134394471404e-06 -1.0357779755761117e-05 0 -5.3991260121751592e-06 -9.6801173674552835e-06 0 -7.7382306799548144e-06 -1.4439303654778302e-05 0 -1.0492945901436985e-05 7.1105818207676599e-06 0 -1.2055828654989279e-05 1.232581683256645e-05 0 -1.5660908967423217e-05 9.9290549128363759e-06 0 -9.2291495699606133e-06 -1.1978290990797391e-05 0 -7.7382306799548144e-06 -1.4439303654778302e-05 0 -5.3991260121751592e-06 -9.6801173674552835e-06 0 -3.1899464971033145e-06 1.2702687966125586e-06 0 -2.9647501644108305e-06 1.1221926508936533e-06 0 -4.1573181689286088e-06 8.4501280965615761e-07 0 -8.5239029822536449e-07 1.7251681991707533e-07 0 -6.9397080657405956e-07 -1.990291203289069e-07 0 -4.3687308102091364e-07 -4.5703020757037873e-09 0 -8.2151521585673232e-06 -1.2073427880151033e-06 0 -6.6846154048393731e-06 -5.1378005765470134e-07 0 -6.5256852505271744e-06 -2.1257277468017832e-07 0 -7.7031989598935795e-06 5.5922751246198229e-06 0 -9.3150370909716292e-06 3.1042596976083305e-06 0 -5.5115161390045298e-06 9.4753024350734447e-06 0 -6.7168649592578195e-06 7.2885192571550592e-06 0 -5.5115161390045298e-06 9.4753024350734447e-06 0 -9.3150370909716292e-06 3.1042596976083305e-06 0 -4.1701821011136422e-05 -6.5372970665186992e-05 0 -5.1488608379872697e-05 -7.2159787551933564e-05 0 -4.4073832181365345e-05 -7.5401352979119544e-05 0 -4.8950436791443473e-05 -8.303778487335702e-05 0 -4.4073832181365345e-05 -7.5401352979119544e-05 0 -5.1488608379872697e-05 -7.2159787551933564e-05 0 -2.1872719926524774e-05 0.00013952502499413232 0 -5.8048834946611708e-06 0.00015503291552837267 0 -2.3196948795633951e-05 0.00016216669005195348 0 -1.5020592752297601e-05 0.00017697052357164351 0 -2.3196948795633951e-05 0.00016216669005195348 0 -5.8048834946611708e-06 0.00015503291552837267 0 -2.1872719926524774e-05 0.00013952502499413232 0 -2.2588598019998519e-05 0.00011765909334315202 0 -5.107069289710568e-06 0.00012268731731588081 0 -1.3077771621653846e-05 0.00010175985396741 0 -5.107069289710568e-06 0.00012268731731588081 0 -2.2588598019998519e-05 0.00011765909334315202 0 -6.8317788505638704e-10 1.6792172280163221e-10 0 -7.3660240803440763e-10 1.9376877259060226e-10 0 -4.6708940356393891e-07 3.3038455113403144e-07 0 -5.189435547893564e-06 -1.3981792346143414e-05 0 -7.7382306799548144e-06 -1.4439303654778302e-05 0 -8.5436034862139918e-06 -1.7776990580229202e-05 0 -1.0970218347634925e-05 -1.8291781427267733e-05 0 -8.5436034862139918e-06 -1.7776990580229202e-05 0 -7.7382306799548144e-06 -1.4439303654778302e-05 0 -4.3694412062992139e-05 -5.0240487664022201e-05 0 -4.6094588608446342e-05 -4.3751505369163653e-05 0 -5.0713762955848869e-05 -5.2964595275358096e-05 0 -5.2917811803212924e-05 -4.1246273321779791e-05 0 -4.6094588608446342e-05 -4.3751505369163653e-05 0 -4.4662977789274875e-05 -3.5548306421632973e-05 0 -9.104098115332266e-05 8.5602394204114052e-05 0 -7.3372460095340626e-05 7.3118128965937471e-05 0 -7.4767578162328327e-05 9.2448949768647742e-05 0 -3.0390037047521194e-06 4.7586775260309725e-06 0 -2.9683694667121e-06 6.3291232736353223e-06 0 -2.3437628200412481e-06 5.0363848718375407e-06 0 -2.3444421588469692e-06 7.4835684648245059e-06 0 -2.3437628200412481e-06 5.0363848718375407e-06 0 -2.9683694667121e-06 6.3291232736353223e-06 0 -2.0224445832977396e-06 1.1514896097152442e-06 0 -2.3644808521092397e-06 1.3556943718234677e-06 0 -1.7288687533762697e-06 1.1912340643808701e-06 0 -1.1562090630929307e-06 7.4116935265596496e-07 0 -5.5863531116043706e-07 4.057763022851654e-07 0 -9.4135629309577947e-07 6.1389231307429667e-07 0 -1.7132969793037238e-05 2.6003668394395908e-06 0 -2.3079656075439683e-05 4.9514184998264755e-06 0 -1.8458194603959387e-05 3.6348521496309482e-06 0 -1.2135045454361297e-05 -2.5914837596311587e-06 0 -1.2649977792163689e-05 -3.3519270984185112e-06 0 -1.5503415332788222e-05 -4.1784812593215038e-06 0 -1.2135045454361297e-05 -2.5914837596311587e-06 0 -1.4823784161820764e-05 -3.6234039275682247e-06 0 -1.2312825424777071e-05 -2.4702301102009813e-06 0 1.7775483447077657e-05 0.00014799463877719076 0 2.8137411737130611e-06 0.00016742238609672905 0 -5.8048834946611708e-06 0.00015503291552837267 0 -6.2077893089744691e-05 -7.2141536433191378e-05 0 -5.6593069958274943e-05 -7.9360009490321112e-05 0 -5.1488608379872697e-05 -7.2159787551933564e-05 0 -6.7479702556364839e-10 2.6858217841794244e-11 0 -4.3687308102091369e-07 -4.5703020757038121e-09 0 -6.9397080657405956e-07 -1.990291203289069e-07 0 -2.9837102484054347e-06 1.6940625990184115e-06 0 -4.2797553214448559e-06 3.0707008513309729e-06 0 -4.9482537601811394e-06 1.434178935042926e-06 0 -3.1069421963141901e-05 -4.2576420921811709e-05 0 -3.3882516609678645e-05 -3.571952757351746e-05 0 -3.7231101476118466e-05 -4.2620593070986651e-05 0 -1.23906236331752e-05 3.0914870577818029e-06 0 -9.4864983068861821e-06 3.7496249634162151e-06 0 -1.4009628640747763e-05 5.8260492194645803e-06 0 -1.3815597735557423e-05 -9.3823191702126669e-06 0 -1.7575796101703406e-05 -1.1235281610461409e-05 0 -1.6524844910405213e-05 -1.3604823405965462e-05 0 -2.6031978816556765e-06 3.7787165129192867e-06 0 -2.3437628200412481e-06 5.0363848718375407e-06 0 -2.6741863997465927e-06 5.8957722390402944e-06 0 -4.1305131591993878e-05 8.6647535542499791e-05 0 -5.6982783955520039e-05 9.0147778300627196e-05 0 -4.8632696286156036e-05 7.3995978221491331e-05 0 -2.8926879707891443e-05 -1.5274975819088626e-05 0 -3.5358907888054147e-05 -1.9955675721942306e-05 0 -3.0424747274889458e-05 -1.9580841982732107e-05 0 -4.3477109158417864e-05 2.7396887821032115e-05 0 -4.6648838999844173e-05 3.6575335002446866e-05 0 -5.6579177291887709e-05 3.7839251742017092e-05 0 -2.1347595298230931e-05 -3.2673546182291232e-05 0 -2.0147485346489587e-05 -3.5370020806193149e-05 0 -1.9625496991637341e-05 -3.325601893012401e-05 0 -1.8681226396481623e-05 -3.552270271999972e-05 0 -1.9625496991637341e-05 -3.325601893012401e-05 0 -2.0147485346489587e-05 -3.5370020806193149e-05 0 -1.5465565882513217e-05 -4.0525275427884444e-06 0 -1.2413568485985467e-05 -2.6986199892237254e-06 0 -1.2312825424777071e-05 -2.4702301102009813e-06 0 -9.7194614726574821e-06 -1.3914883901986885e-06 0 -1.2312825424777071e-05 -2.4702301102009813e-06 0 -1.2413568485985467e-05 -2.6986199892237254e-06 0 -7.749297210625939e-06 -1.6251078966853326e-06 0 -9.6980412720086388e-06 -3.5082551714951514e-06 0 -8.398108369621653e-06 -2.5172050214588463e-06 0 -1.8491441195575468e-05 -5.3631498281767202e-06 0 -2.3179096869846698e-05 -7.923646167085071e-06 0 -1.9543781687255759e-05 -6.1923940941136093e-06 0 -1.9890506738274318e-05 4.8108722675356461e-06 0 -2.0579418224172305e-05 4.019584444143647e-06 0 -1.5351377429768716e-05 2.7257051668287378e-06 0 -2.3277887463626381e-05 -3.5678208917520476e-05 0 -2.0622813774716555e-05 -3.6989040432318573e-05 0 -2.1876578852417336e-05 -3.4608322811575049e-05 0 -4.1305131591993878e-05 8.6647535542499791e-05 0 -5.1671193463144031e-05 0.00011071072076015252 0 -5.6982783955520039e-05 9.0147778300627196e-05 0 -7.3660240803440763e-10 1.9376877259060226e-10 0 -8.6693475039835218e-10 2.229802274474671e-10 0 -5.5863531116043716e-07 4.057763022851654e-07 0 1.7918999856318227e-05 0.00012446291237977093 0 -5.107069289710568e-06 0.00012268731731588081 0 3.7244122935866693e-06 0.00010918639975832638 0 -2.4391804170273878e-06 1.1801144135143236e-05 0 -1.2660755535384554e-06 1.4416755744677372e-05 0 -2.093165913682111e-06 1.0409821145431151e-05 0 -4.3477109158417864e-05 2.7396887821032115e-05 0 -3.4852640194741164e-05 2.5999094095910926e-05 0 -4.6648838999844173e-05 3.6575335002446866e-05 0 -2.4391804170273878e-06 1.1801144135143236e-05 0 -2.9213432848069511e-06 8.7499440869186749e-06 0 -4.4738060947820974e-06 8.7710410101469533e-06 0 -2.4391804170273878e-06 1.1801144135143236e-05 0 -2.093165913682111e-06 1.040982114543115e-05 0 -2.9213432848069511e-06 8.7499440869186749e-06 0 -1.1237859300409631e-05 -2.4001895789192514e-06 0 -1.4308137799085196e-05 -3.9900217542292019e-06 0 -1.3064672471293825e-05 -4.0948889636317869e-06 0 -5.0035844084270156e-06 3.7240616504026773e-07 0 -6.5256852505271744e-06 -2.1257277468017832e-07 0 -6.6846154048393731e-06 -5.1378005765470123e-07 0 -5.9779718014724904e-05 7.2708443241819383e-05 0 -7.4767578162328327e-05 9.2448949768647742e-05 0 -7.3372460095340626e-05 7.3118128965937471e-05 0 -1.1920485693814363e-05 -6.7321328732251884e-06 0 -1.2977830978431359e-05 -5.5704694617603556e-06 0 -1.0642496313986895e-05 -3.9551405968497434e-06 0 -7.7031989598935795e-06 5.5922751246198229e-06 0 -5.5115161390045298e-06 9.4753024350734447e-06 0 -4.4738060947820974e-06 8.7710410101469533e-06 0 -2.1050267950870144e-05 -1.7258330486844142e-05 0 -1.9000933106561359e-05 -1.4143742529598527e-05 0 -2.0223277188356475e-05 -1.3740728603399756e-05 0 -2.8926879707891443e-05 -1.5274975819088626e-05 0 -3.2822269390744099e-05 -1.6029798988532069e-05 0 -3.5358907888054147e-05 -1.9955675721942306e-05 0 -4.3477109158417864e-05 2.7396887821032115e-05 0 -5.6579177291887709e-05 3.7839251742017092e-05 0 -5.2424023029459658e-05 2.84572190417427e-05 0 -7.5559711345131331e-05 0.00017579667416890365 0 -9.1864474837758604e-05 0.00018471300984076753 0 -8.8496833457044457e-05 0.00016355104198211798 0 -2.3276796754894705e-05 -8.0474733867486896e-05 0 -1.7182740140627947e-05 -8.376715327420481e-05 0 -1.6912672822435088e-05 -7.3534324965251043e-05 0 -2.4440882050113921e-05 -2.0234331351695471e-05 0 -2.247117101285463e-05 -1.7328933140328887e-05 0 -2.4746011497235533e-05 -1.9091778380507612e-05 0 -2.3444421588469692e-06 7.4835684648245059e-06 0 -2.6741863997465927e-06 5.8957722390402944e-06 0 -2.3437628200412481e-06 5.0363848718375407e-06 0 -1.095728843758513e-05 1.4272911519419674e-06 0 -1.5351377429768716e-05 2.7257051668287378e-06 0 -1.3332197158683372e-05 1.2744549683842537e-06 0 -2.2589682631047076e-05 -8.4685491452068236e-06 0 -1.8052461530964006e-05 -5.9504427164610411e-06 0 -1.9543781687255759e-05 -6.1923940941136093e-06 0 -3.3717697916444278e-05 1.368185607755857e-05 0 -2.720781891229093e-05 1.2358353673740225e-05 0 -3.388662180348293e-05 1.8696341978131006e-05 0 -1.1404478027748991e-05 -7.5189460178673148e-06 0 -1.3186373179438603e-05 -1.1376952453587963e-05 0 -1.2449830924254118e-05 -9.8991604618042591e-06 0 -1.5948106893220651e-05 -5.5828627630875613e-06 0 -1.8052461530964006e-05 -5.9504427164610411e-06 0 -1.9114001718059784e-05 -7.7920722120751927e-06 0 -7.7031989598935795e-06 5.5922751246198229e-06 0 -6.9558882858121974e-06 4.3011817980774093e-06 0 -1.0236742914155709e-05 1.5272552049601551e-06 0 -6.7479702556364839e-10 2.6858217841794244e-11 0 -6.597768521805061e-10 -3.2938646422884803e-11 0 -4.3687308102091364e-07 -4.5703020757037873e-09 0 -2.4480801408979373e-05 -2.3570820599358697e-05 0 -2.5230792294525374e-05 -2.2333838673254591e-05 0 -2.7212604883634913e-05 -2.500239706927842e-05 0 -2.8213248231811197e-05 -1.0732320912743531e-05 0 -2.6866381625417285e-05 -1.0359428627074298e-05 0 -2.3179096869846698e-05 -7.923646167085071e-06 0 -4.4967287780571866e-05 1.6940869842820542e-05 0 -3.5178328384836611e-05 1.1687439879691462e-05 0 -4.1790860203935817e-05 1.6484101540669383e-05 0 -3.8705888593794598e-05 -3.497168717717853e-05 0 -4.4662977789274875e-05 -3.5548306421632973e-05 0 -4.6094588608446342e-05 -4.3751505369163653e-05 0 -2.0571133892213665e-05 -1.6142169871000318e-05 0 -2.0062050278510303e-05 -1.9872572726137317e-05 0 -1.6524844910405213e-05 -1.3604823405965462e-05 0 -1.571033493607525e-05 -1.6455692895512048e-05 0 -1.6524844910405213e-05 -1.3604823405965462e-05 0 -2.0062050278510303e-05 -1.9872572726137317e-05 0 -1.5948106893220651e-05 -5.5828627630875613e-06 0 -1.5553930143148005e-05 -6.483725563207551e-06 0 -1.3064672471293825e-05 -4.0948889636317869e-06 0 -2.1050267950870144e-05 -1.7258330486844142e-05 0 -2.0223277188356475e-05 -1.3740728603399756e-05 0 -2.247117101285463e-05 -1.7328933140328887e-05 0 -4.3694412062992139e-05 -5.0240487664022201e-05 0 -3.721431799721256e-05 -4.9322122846975844e-05 0 -3.7231101476118466e-05 -4.2620593070986651e-05 0 -1.5948106893220651e-05 -5.5828627630875613e-06 0 -1.3064672471293825e-05 -4.0948889636317869e-06 0 -1.4308137799085196e-05 -3.9900217542292019e-06 0 -1.8249928342082681e-05 -1.1216193500868348e-05 0 -2.0223277188356475e-05 -1.3740728603399756e-05 0 -1.9000933106561359e-05 -1.4143742529598527e-05 0 -1.2964456032558286e-06 -3.4967068081213647e-07 0 -1.1755668233061955e-06 4.1455609074405341e-08 0 -1.67994200874999e-06 -1.9703082761558238e-08 0 -3.8468025572474454e-05 -1.907351484836258e-05 0 -3.5358907888054147e-05 -1.9955675721942306e-05 0 -3.2822269390744099e-05 -1.6029798988532069e-05 0 -6.4343385614433414e-05 3.5017270877993505e-05 0 -5.2424023029459658e-05 2.84572190417427e-05 0 -5.6579177291887709e-05 3.7839251742017092e-05 0 -6.2077893089744691e-05 -7.2141536433191378e-05 0 -5.1488608379872697e-05 -7.2159787551933564e-05 0 -5.5529369849003457e-05 -6.6684887093195654e-05 0 1.7775483447077657e-05 0.00014799463877719076 0 -5.8048834946611708e-06 0.00015503291552837267 0 2.7426969527357686e-07 0.00013838265774450328 0 1.7918999856318227e-05 0.00012446291237977093 0 2.7426969527357686e-07 0.00013838265774450328 0 -5.107069289710568e-06 0.00012268731731588081 0 -6.2077893089744691e-05 -7.2141536433191378e-05 0 -6.3609930282529904e-05 -8.3169360998121359e-05 0 -5.6593069958274943e-05 -7.9360009490321112e-05 0 1.7775483447077657e-05 0.00014799463877719076 0 1.6970941661501391e-05 0.00017163512238855806 0 2.8137411737130611e-06 0.00016742238609672905 0 -9.2291495699606133e-06 -1.1978290990797391e-05 0 -8.9778392729244111e-06 -7.430271030757715e-06 0 -1.1880232790923321e-05 -1.1297861237595546e-05 0 -2.2555931880852208e-05 -1.5950752750222189e-05 0 -2.4746011497235533e-05 -1.9091778380507612e-05 0 -2.247117101285463e-05 -1.7328933140328887e-05 0 -3.1303914466143991e-05 -3.244555307744464e-05 0 -3.2038310416611077e-05 -3.3935501906497733e-05 0 -3.0636541381084103e-05 -3.1291830882499599e-05 0 -1.1850165618737942e-05 -2.8309898211967626e-05 0 -1.4601500465096649e-05 -3.3186674615295278e-05 0 -1.352759488427986e-05 -3.186877427650668e-05 0 -4.3477109158417864e-05 2.7396887821032115e-05 0 -3.388662180348293e-05 1.8696341978131006e-05 0 -3.4852640194741164e-05 2.5999094095910926e-05 0 -9.7194614726574821e-06 -1.3914883901986885e-06 0 -7.7501161315682023e-06 -5.6953451747214386e-07 0 -9.4618006584672346e-06 -1.3252344888239119e-06 0 -1.8769760724768531e-06 1.5787986392551865e-06 0 -2.3644808521092397e-06 1.3556943718234677e-06 0 -2.7975485301538173e-06 1.7956423871544384e-06 0 -6.6594804132531836e-05 0.00010732422517096461 0 -5.6982783955520039e-05 9.0147778300627196e-05 0 -5.1671193463144031e-05 0.00011071072076015252 0 -2.0387460382102198e-05 -4.7834315839985909e-05 0 -1.5313395435825209e-05 -5.2779790304584921e-05 0 -1.3908416635931098e-05 -4.1394958587237891e-05 0 -8.5239029822536449e-07 1.7251681991707533e-07 0 -4.3687308102091364e-07 -4.5703020757037873e-09 0 -5.2870025840157631e-07 1.9242869972586404e-07 0 -1.8889761067474238e-05 -9.6007994982329435e-06 0 -1.4708478846739941e-05 -7.7183091775695289e-06 0 -1.5553930143148005e-05 -6.483725563207551e-06 0 1.7337434295855578e-05 0.00010133564996793293 0 1.791899985631823e-05 0.00012446291237977093 0 3.7244122935866693e-06 0.00010918639975832638 0 -3.2014295381612189e-06 -6.9227358880098287e-07 0 -3.3335918788689196e-06 -1.7588826326616038e-07 0 -4.587804259233598e-06 -4.9511236401309406e-07 0 -9.2291495699606133e-06 -1.1978290990797391e-05 0 -1.1880232790923321e-05 -1.1297861237595546e-05 0 -1.126063606922196e-05 -1.5378066859093708e-05 0 -1.3987819951482869e-05 -1.5459850300759543e-05 0 -1.126063606922196e-05 -1.5378066859093708e-05 0 -1.1880232790923321e-05 -1.1297861237595546e-05 0 -2.8703450907999343e-05 -3.036865827279137e-05 0 -2.9602116985590186e-05 -2.9510335948216041e-05 0 -3.0636541381084103e-05 -3.1291830882499599e-05 0 -3.1303914466143991e-05 -3.244555307744464e-05 0 -3.0636541381084103e-05 -3.1291830882499599e-05 0 -2.9602116985590186e-05 -2.9510335948216041e-05 0 -1.1850165618737942e-05 -2.8309898211967626e-05 0 -1.4107685763705698e-05 -3.0534203243102459e-05 0 -1.4601500465096649e-05 -3.3186674615295278e-05 0 -1.6192545631240883e-05 -3.4690322465492298e-05 0 -1.4601500465096649e-05 -3.3186674615295278e-05 0 -1.4107685763705698e-05 -3.0534203243102459e-05 0 -3.0390037047521194e-06 4.7586775260309725e-06 0 -2.5694080576076947e-06 3.5545069945354084e-06 0 -4.0626368676042757e-06 3.3492478178054946e-06 0 -4.7294162238974798e-06 -3.686939336474641e-06 0 -8.6763119205989026e-06 2.9540628340798108e-07 0 -8.9778392729244111e-06 -7.430271030757715e-06 0 -1.1984828798284308e-05 -4.8011489702493496e-06 0 -8.9778392729244111e-06 -7.4302710307577158e-06 0 -8.6763119205989026e-06 2.9540628340798108e-07 0 -4.3694412062992139e-05 -5.0240487664022201e-05 0 -5.0713762955848869e-05 -5.2964595275358096e-05 0 -4.8809741731076719e-05 -6.0608098584210206e-05 0 -1.5465565882513217e-05 -4.0525275427884444e-06 0 -1.8052461530964006e-05 -5.9504427164610411e-06 0 -1.4308137799085196e-05 -3.9900217542292019e-06 0 -1.5948106893220651e-05 -5.5828627630875613e-06 0 -1.4308137799085196e-05 -3.9900217542292019e-06 0 -1.8052461530964006e-05 -5.9504427164610411e-06 0 -1.290493333813255e-05 -1.3567327193195095e-05 0 -1.8157154308443609e-05 -1.1222977845397821e-05 0 -1.686376202542618e-05 -1.0100888565029135e-05 0 -2.768894850054175e-05 -2.73953686324241e-05 0 -2.9602116985590186e-05 -2.9510335948216041e-05 0 -2.7303935822780307e-05 -2.8627406677221703e-05 0 -1.4510107046093308e-05 -2.8282654166876092e-05 0 -1.6195685422532103e-05 -3.1365881947224143e-05 0 -1.4107685763705698e-05 -3.0534203243102459e-05 0 -3.1899464971033145e-06 1.2702687966125586e-06 0 -2.7975485301538169e-06 1.7956423871544384e-06 0 -2.3644808521092397e-06 1.3556943718234677e-06 0 -2.0622813774716555e-05 -3.6989040432318573e-05 0 -2.0147485346489587e-05 -3.5370020806193149e-05 0 -2.1876578852417336e-05 -3.4608322811575049e-05 0 -3.0085971320542644e-06 1.0024587737925643e-06 0 -2.088018334412306e-06 1.0574336713948373e-06 0 -1.9884386035747045e-06 9.6926548675082158e-07 0 -1.8249928342082681e-05 -1.1216193500868348e-05 0 -1.670061921751291e-05 -8.4646103503861656e-06 0 -1.8013895750778522e-05 -9.3474614994861775e-06 0 -8.5239029822536449e-07 1.7251681991707533e-07 0 -1.1401321857726847e-06 4.6027949371911202e-07 0 -1.1755668233061955e-06 4.1455609074405308e-08 0 -3.9710789743847572e-05 0.0001212588521414489 0 -3.2279446384950657e-05 0.00010333030896160416 0 -2.2588598019998519e-05 0.00011765909334315202 0 -4.1270620568148582e-05 0.00016164577197864234 0 -2.3196948795633951e-05 0.00016216669005195345 0 -3.1245672979627954e-05 0.00017685736245787233 0 -3.6437289390120086e-05 -7.5577747362429184e-05 0 -4.4073832181365345e-05 -7.5401352979119544e-05 0 -4.1747951016653847e-05 -8.2547320685153502e-05 0 3.344270515630432e-06 2.1848248125258527e-05 0 -4.8201892692478842e-06 7.6913476261526185e-06 0 2.1657802285556751e-06 1.6944658793064498e-06 0 -8.5239029822536449e-07 1.7251681991707533e-07 0 -5.2870025840157631e-07 1.9242869972586404e-07 0 -9.2280992874486192e-07 4.274548624757155e-07 0 -5.9732854713013517e-05 -6.1327846469230406e-05 0 -5.5529369849003457e-05 -6.6684887093195654e-05 0 -4.8809741731076719e-05 -6.0608098584210206e-05 0 -6.4625691189579976e-05 -0.00012371005894289486 0 -5.8297176730150853e-05 -0.0001183549182636038 0 -6.4673272539025157e-05 -0.0001142365680444836 0 8.8573006225430555e-06 0.00026154695173356189 0 -2.5608652130299674e-06 0.00025419414352854057 0 1.1061582480380572e-05 0.00024180460107315444 0 8.8573006225430555e-06 0.00026154695173356189 0 -9.1541346790564398e-06 0.00026595940072814367 0 -2.5608652130299691e-06 0.00025419414352854057 0 -1.5650520262892799e-05 -0.00012091872367053934 0 -2.0054976721674414e-05 -0.00011821703579398782 0 -2.267373141897876e-05 -0.00012314190559395519 0 -0.00010936774134724405 0.00026794072473782096 0 -0.00010943790167342409 0.00024639867055298813 0 -9.4978261372396611e-05 0.00025575071268296793 0 -6.4625691189579976e-05 -0.00012371005894289486 0 -5.5170994818599712e-05 -0.00012365502371860574 0 -5.8297176730150853e-05 -0.0001183549182636038 0 -1.5650520262892799e-05 -0.00012091872367053934 0 -1.4362416438696594e-05 -0.00011232656888264108 0 -2.0054976721674414e-05 -0.00011821703579398782 0 -0.00010936774134724405 0.00026794072473782096 0 -9.4978261372396611e-05 0.00025575071268296793 0 -8.7843819268035119e-05 0.00026785899377004872 0 -6.5977685218058613e-10 -3.2938646422885637e-11 0 -5.2870025840157631e-07 1.9242869972586404e-07 0 -4.3687308102091364e-07 -4.5703020757037873e-09 0 -2.1050267950870144e-05 -1.7258330486844142e-05 0 -1.909486988338665e-05 -1.7426390564095312e-05 0 -1.9000933106561359e-05 -1.4143742529598527e-05 0 -1.5948106893220651e-05 -5.5828627630875613e-06 0 -1.9114001718059784e-05 -7.7920722120751927e-06 0 -1.5553930143148005e-05 -6.483725563207551e-06 0 -4.3694412062992139e-05 -5.0240487664022201e-05 0 -4.0633472371950693e-05 -5.6083324166892865e-05 0 -3.721431799721256e-05 -4.9322122846975844e-05 0 -2.3815365756037318e-06 3.1719452792153326e-07 0 -3.8745141474123726e-06 5.995081806722681e-07 0 -3.3335918788689196e-06 -1.7588826326616038e-07 0 -4.5146709064207222e-05 0.00019015093126953478 0 -5.982899631064058e-05 0.00020405481441882622 0 -6.0154445950031873e-05 0.00018272044000762898 0 -3.6595954545028758e-05 -8.8393458570063601e-05 0 -3.135752085551622e-05 -9.4795517407287984e-05 0 -3.0016708158971474e-05 -8.482662043336826e-05 0 -2.9694576565491226e-05 -2.8093478495092731e-05 0 -3.0615622146179989e-05 -3.0515132957772371e-05 0 -2.9073551684740687e-05 -2.7910692527185543e-05 0 -8.6896691415941502e-06 -2.0926253601793071e-05 0 -1.1843025558782572e-05 -2.5518874454971191e-05 0 -1.0371394140642776e-05 -2.4692330097555993e-05 0 -6.8784358204419862e-07 -5.7607502741194924e-06 0 -5.3991260121751592e-06 -9.6801173674552835e-06 0 -3.2161134394471404e-06 -1.0357779755761117e-05 0 -1.8889761067474238e-05 -9.6007994982329435e-06 0 -1.5553930143148005e-05 -6.483725563207551e-06 0 -1.9114001718059784e-05 -7.7920722120751927e-06 0 -2.6993108461190937e-05 -2.1372162500686441e-05 0 -2.8564328662789319e-05 -2.4959087506612846e-05 0 -2.6222945080095638e-05 -2.2156341313283893e-05 0 -5.189435547893564e-06 -1.3981792346143414e-05 0 -8.5436034862139918e-06 -1.7776990580229202e-05 0 -7.0554496260634458e-06 -1.7436835438471973e-05 0 -3.1069421963141901e-05 -4.2576420921811709e-05 0 -2.5928572175756732e-05 -4.5406687987053746e-05 0 -2.5263991692411981e-05 -3.6083162819787824e-05 0 -1.8769760724768531e-06 1.5787986392551865e-06 0 -1.7288687533762697e-06 1.1912340643808699e-06 0 -2.3644808521092397e-06 1.3556943718234677e-06 0 -2.3276796754894705e-05 -8.0474733867486896e-05 0 -2.8832890843140115e-05 -7.3783891951468463e-05 0 -3.0016708158971474e-05 -8.482662043336826e-05 0 -7.5559711345131331e-05 0.00017579667416890365 0 -5.9042759940024911e-05 0.00016186232306936526 0 -6.0154445950031873e-05 0.00018272044000762898 0 -1.0970218347634925e-05 -1.8291781427267733e-05 0 -7.7382306799548144e-06 -1.4439303654778302e-05 0 -1.126063606922196e-05 -1.5378066859093708e-05 0 -9.2291495699606133e-06 -1.1978290990797391e-05 0 -1.126063606922196e-05 -1.5378066859093708e-05 0 -7.7382306799548144e-06 -1.4439303654778302e-05 0 -5.0035844084270156e-06 3.7240616504026773e-07 0 -4.9006651411663471e-06 4.3500307562391801e-07 0 -6.5256852505271744e-06 -2.1257277468017832e-07 0 -2.0571133892213665e-05 -1.6142169871000318e-05 0 -1.6524844910405213e-05 -1.360482340596546e-05 0 -1.7575796101703406e-05 -1.1235281610461409e-05 0 -1.8675611766198521e-05 -3.5883050945959991e-05 0 -1.3100615447021703e-05 -3.1616970182343747e-05 0 -1.6263522297532071e-05 -2.4256389213784669e-05 0 -1.7490998164572363e-05 -1.4009514165918764e-05 0 -1.9000933106561359e-05 -1.4143742529598527e-05 0 -1.909486988338665e-05 -1.7426390564095312e-05 0 -9.4846632382884823e-06 -2.572271563513571e-05 0 -1.3100615447021703e-05 -3.1616970182343747e-05 0 -8.0336348663078919e-06 -3.5396011652770191e-05 0 -1.0470416678563331e-05 -2.179482308401546e-05 0 -1.2335050085636262e-05 -2.1351036307790517e-05 0 -1.3660925311934909e-05 -2.5231383172955245e-05 0 -1.5032739609093992e-05 -2.3713142037302874e-05 0 -1.3660925311934909e-05 -2.5231383172955245e-05 0 -1.2335050085636262e-05 -2.1351036307790517e-05 0 -7.0486260862230065e-06 -5.6765514319902362e-07 0 -9.1905350818338591e-06 -1.5376876837226601e-06 0 -9.4618006584672346e-06 -1.3252344888239119e-06 0 -9.0542274466736897e-06 -2.8728483013846419e-06 0 -1.0642496313986895e-05 -3.9551405968497434e-06 0 -8.5963112264999062e-06 -1.4657054114603254e-06 0 -1.0439143332166385e-05 -2.025152050123544e-06 0 -8.5963112264999062e-06 -1.4657054114603254e-06 0 -1.0642496313986895e-05 -3.9551405968497434e-06 0 -2.4391804170273878e-06 1.1801144135143236e-05 0 -5.5115161390045298e-06 9.4753024350734447e-06 0 -2.3451894703501581e-06 1.5052679764808545e-05 0 -6.7168649592578195e-06 7.2885192571550592e-06 0 -2.3451894703501581e-06 1.5052679764808545e-05 0 -5.5115161390045298e-06 9.4753024350734447e-06 0 1.7918999856318227e-05 0.00012446291237977093 0 1.7775483447077657e-05 0.00014799463877719076 0 2.7426969527357686e-07 0.00013838265774450328 0 -4.621205475694376e-06 7.0373283261850504e-06 0 -2.9683694667121e-06 6.3291232736353223e-06 0 -4.2970343555150527e-06 5.1632003801648234e-06 0 -5.9732854713013517e-05 -6.1327846469230406e-05 0 -6.2077893089744691e-05 -7.2141536433191378e-05 0 -5.5529369849003457e-05 -6.6684887093195654e-05 0 -6.3550906848302041e-06 -4.3380807624073253e-08 0 -6.5256852505271744e-06 -2.1257277468017832e-07 0 -4.9006651411663471e-06 4.3500307562391801e-07 0 -9.0216929932505513e-06 -8.437664146593674e-08 0 -7.0391482100110075e-06 -3.2148367979213605e-07 0 -5.9524796562484221e-06 -7.3870419320312621e-07 0 -7.0486260862230065e-06 -5.6765514319902362e-07 0 -4.829755096102793e-06 3.5083740326962091e-08 0 -5.3739244129805571e-06 -3.6810924416459072e-07 0 -2.9837102484054347e-06 1.6940625990184115e-06 0 -1.9414393406830047e-06 1.361406327359863e-06 0 -2.2434321904895453e-06 2.6371430892408776e-06 0 -3.8878265069723765e-06 -1.9709867122878552e-06 0 -3.2634794503438852e-06 -9.1505492037895204e-07 0 -1.6384745204809228e-06 -6.2857626629157742e-07 0 -2.4535345261622191e-09 2.3638938531551021e-10 0 -1.6384745204809228e-06 -6.2857626629157742e-07 0 -3.2634794503438852e-06 -9.1505492037895204e-07 0 -5.3519704462561736e-06 2.310973780302731e-06 0 -2.2652299294481549e-06 6.4857032028116945e-07 0 -4.5690416649217711e-06 7.5610657985844237e-07 0 -3.5010400594688607e-09 -5.1727248513008461e-10 0 -4.5690416649217711e-06 7.5610657985844237e-07 0 -2.2652299294481549e-06 6.4857032028116945e-07 0 -2.0571133892213665e-05 -1.6142169871000318e-05 0 -2.5612499656616474e-05 -1.8976912690981178e-05 0 -2.4406393318062544e-05 -2.2664181751278126e-05 0 -8.5239029822536449e-07 1.7251681991707533e-07 0 -9.2280992874486192e-07 4.274548624757155e-07 0 -1.1401321857726847e-06 4.6027949371911202e-07 0 -1.3077771621653846e-05 0.00010175985396741 0 2.3079195191536096e-06 9.4230188339584106e-05 0 3.7244122935866693e-06 0.00010918639975832638 0 -1.494980437525227e-05 2.5903073761863807e-05 0 -1.7301563814090382e-05 1.9077831937867365e-05 0 -1.024780963412293e-05 1.7092667352451422e-05 0 -4.621205475694376e-06 7.0373283261850504e-06 0 -2.9213432848069511e-06 8.7499440869186749e-06 0 -2.9683694667121e-06 6.3291232736353223e-06 0 -2.194329059389647e-05 -2.7616274722652946e-05 0 -2.0062050278510303e-05 -1.9872572726137317e-05 0 -2.4406393318062544e-05 -2.2664181751278126e-05 0 -6.6771205443271419e-05 0.00026761546058081786 0 -8.7843819268035119e-05 0.00026785899377004872 0 -7.7191462708034241e-05 0.00025688032121556317 0 -2.9820767322279232e-05 -0.00012357482183239244 0 -2.267373141897876e-05 -0.00012314190559395519 0 -2.6199584345429772e-05 -0.00011932161845881632 0 -9.1541346790564398e-06 0.00026595940072814367 0 -2.7437360426382531e-05 0.00026724698654058301 0 -1.8111961246785894e-05 0.00025684112838701153 0 -5.5170994818599712e-05 -0.00012365502371860574 0 -4.6041945638324158e-05 -0.00012351753139554025 0 -5.0527114573983675e-05 -0.00011885137631048202 0 -2.5151124342320071e-05 -2.8516461919605863e-05 0 -2.7303935822780307e-05 -2.8627406677221703e-05 0 -2.6003122545623393e-05 -3.0192917514688268e-05 0 -1.7947352210743836e-05 -3.1206591899404068e-05 0 -1.7633427242829957e-05 -3.4327865292804353e-05 0 -1.6195685422532103e-05 -3.1365881947224143e-05 0 -4.4706794191251498e-09 -1.9092579662720963e-09 0 -1.6384745204809232e-06 -6.2857626629157753e-07 0 -2.4535345261622191e-09 2.3638938531551021e-10 0 -5.9017771647324695e-09 2.5145420730806834e-09 0 -3.5010400594688607e-09 -5.1727248513008461e-10 0 -2.2652299294481549e-06 6.4857032028116945e-07 0 -5.9017771647324695e-09 2.5145420730806834e-09 0 -2.2652299294481549e-06 6.4857032028116945e-07 0 -5.3519704462561736e-06 2.310973780302731e-06 0 -4.4706794191251498e-09 -1.9092579662720963e-09 0 -3.8878265069723765e-06 -1.9709867122878552e-06 0 -1.6384745204809228e-06 -6.2857626629157742e-07 0 -2.0387460382102198e-05 -4.7834315839985909e-05 0 -2.5928572175756729e-05 -4.5406687987053739e-05 0 -2.6879375471929211e-05 -5.5590707114501442e-05 0 -8.2151521585673232e-06 -1.2073427880151033e-06 0 -1.0283758995750936e-05 -2.3754343587498669e-06 0 -9.0101718803809778e-06 -2.1639201516591704e-06 0 -1.8249928342082681e-05 -1.1216193500868348e-05 0 -1.9000933106561359e-05 -1.4143742529598527e-05 0 -1.7072004960087058e-05 -1.0888857365234467e-05 0 -1.7490998164572363e-05 -1.4009514165918764e-05 0 -1.7072004960087058e-05 -1.0888857365234467e-05 0 -1.9000933106561359e-05 -1.4143742529598527e-05 0 -5.0035844084270156e-06 3.7240616504026773e-07 0 -6.6846154048393731e-06 -5.1378005765470123e-07 0 -5.3520613243516439e-06 1.4127293409972693e-07 0 -2.0224445832977396e-06 1.1514896097152442e-06 0 -2.088018334412306e-06 1.0574336713948373e-06 0 -2.9647501644108305e-06 1.1221926508936533e-06 0 -3.0085971320542644e-06 1.0024587737925643e-06 0 -2.9647501644108305e-06 1.1221926508936533e-06 0 -2.088018334412306e-06 1.0574336713948373e-06 0 -6.7168649592578195e-06 7.2885192571550592e-06 0 -4.8201892692478842e-06 7.6913476261526185e-06 0 -2.3451894703501581e-06 1.5052679764808545e-05 0 3.344270515630432e-06 2.1848248125258527e-05 0 -2.3451894703501572e-06 1.5052679764808547e-05 0 -4.8201892692478842e-06 7.6913476261526185e-06 0 -2.9415257588715822e-05 -2.3110795612635961e-05 0 -2.4406393318062544e-05 -2.2664181751278126e-05 0 -2.5612499656616474e-05 -1.8976912690981178e-05 0 -1.0970218347634925e-05 -1.8291781427267733e-05 0 -1.2335050085636262e-05 -2.1351036307790517e-05 0 -8.5436034862139918e-06 -1.7776990580229202e-05 0 -2.4440882050113921e-05 -2.0234331351695471e-05 0 -2.6222945080095638e-05 -2.2156341313283893e-05 0 -2.5230792294525374e-05 -2.2333838673254591e-05 0 -3.1899464971033145e-06 1.2702687966125586e-06 0 -3.7135667106501745e-06 1.4460246146799209e-06 0 -2.7975485301538173e-06 1.7956423871544384e-06 0 -1.5020592752297601e-05 0.00017697052357164351 0 2.8137411737130611e-06 0.00016742238609672905 0 7.6077805074034542e-07 0.00018362596200022875 0 -4.8950436791443473e-05 -8.303778487335702e-05 0 -5.6593069958274943e-05 -7.9360009490321112e-05 0 -5.6660365376385278e-05 -8.697378851366137e-05 0 -1.290493333813255e-05 -1.3567327193195095e-05 0 -1.2449830924254118e-05 -9.8991604618042591e-06 0 -1.3186373179438603e-05 -1.1376952453587963e-05 0 -9.2291495699606133e-06 -1.1978290990797391e-05 0 -5.3991260121751592e-06 -9.6801173674552835e-06 0 -8.9778392729244111e-06 -7.430271030757715e-06 0 -7.5559711345131331e-05 0.00017579667416890365 0 -8.8496833457044457e-05 0.00016355104198211798 0 -7.284730209732303e-05 0.00015651170929424779 0 -2.3276796754894705e-05 -8.0474733867486896e-05 0 -1.6912672822435088e-05 -7.3534324965251043e-05 0 -2.2694201991489903e-05 -7.1070449775822742e-05 0 -2.0387460382102198e-05 -4.7834315839985909e-05 0 -2.1398409400188119e-05 -5.672528617334624e-05 0 -1.5313395435825209e-05 -5.2779790304584921e-05 0 -2.3928787489101569e-05 -2.6270707521635955e-05 0 -2.3363502751655485e-05 -2.8046789936993261e-05 0 -2.1915463052041595e-05 -2.6195802043537717e-05 0 -1.4510107046093308e-05 -2.8282654166876092e-05 0 -1.184302555878257e-05 -2.5518874454971191e-05 0 -1.3660925311934909e-05 -2.5231383172955245e-05 0 -6.4818834293051263e-06 2.6530783215703463e-06 0 -4.9482537601811394e-06 1.434178935042926e-06 0 -4.2797553214448559e-06 3.0707008513309721e-06 0 -2.1347595298230931e-05 -3.2673546182291232e-05 0 -1.9625496991637341e-05 -3.325601893012401e-05 0 -2.0199314116527569e-05 -3.0379206397769927e-05 0 -6.3550906848302041e-06 -4.3380807624073253e-08 0 -4.9006651411663471e-06 4.3500307562391801e-07 0 -4.8797916369294205e-06 3.9481437964780315e-07 0 -3.7377006928024411e-06 6.8261291093852687e-07 0 -4.8797916369294205e-06 3.9481437964780315e-07 0 -4.9006651411663471e-06 4.3500307562391801e-07 0 -6.3589177413990661e-06 4.1082529428494375e-07 0 -7.567341416991263e-06 -1.2014716431390847e-06 0 -8.5963112264999062e-06 -1.4657054114603254e-06 0 -2.0571133892213665e-05 -1.6142169871000318e-05 0 -2.4406393318062544e-05 -2.2664181751278126e-05 0 -2.0062050278510303e-05 -1.9872572726137317e-05 0 -5.0035844084270156e-06 3.7240616504026773e-07 0 -5.3520613243516439e-06 1.4127293409972693e-07 0 -3.9706004231356346e-06 7.1268658625422901e-07 0 -4.4746080947374119e-06 5.5884314434756818e-07 0 -3.9706004231356346e-06 7.1268658625422901e-07 0 -5.3520613243516439e-06 1.4127293409972693e-07 0 -6.6846154048393731e-06 -5.1378005765470123e-07 0 -6.009934175324399e-06 -3.1782932320128612e-07 0 -5.3520613243516439e-06 1.4127293409972693e-07 0 -2.4167519874483592e-05 -3.2248602969923008e-05 0 -2.6003122545623393e-05 -3.0192917514688268e-05 0 -2.6902215254226042e-05 -3.2172456761623387e-05 0 -2.8703450907999343e-05 -3.036865827279137e-05 0 -2.6902215254226039e-05 -3.2172456761623387e-05 0 -2.6003122545623393e-05 -3.0192917514688268e-05 0 -1.6192545631240883e-05 -3.4690322465492298e-05 0 -1.7633427242829957e-05 -3.4327865292804353e-05 0 -1.7367792027479285e-05 -3.7504073136118654e-05 0 -1.8681226396481623e-05 -3.552270271999972e-05 0 -1.7367792027479285e-05 -3.7504073136118654e-05 0 -1.7633427242829957e-05 -3.4327865292804353e-05 0 -6.7168649592578195e-06 7.2885192571550592e-06 0 -8.6763119205989026e-06 2.9540628340798103e-07 0 -4.8201892692478842e-06 7.6913476261526185e-06 0 -1.0695777785946189e-05 0.00024360532615418391 0 -1.8111961246785894e-05 0.00025684112838701153 0 -2.8947970513987452e-05 0.00024869134150894021 0 -5.3970233492333737e-05 -0.00011306086301927027 0 -5.0527114573983675e-05 -0.00011885137631048202 0 -4.5282982878698458e-05 -0.0001151242236033654 0 -2.3236803035115163e-05 -0.00011348011958273581 0 -3.0476336716059712e-05 -0.00011567671759350381 0 -2.6199584345429772e-05 -0.00011932161845881632 0 -8.5174870754432569e-05 0.00024377033309181198 0 -6.499133892131014e-05 0.00024827916230163991 0 -7.7191462708034241e-05 0.00025688032121556317 0 -7.5559711345131331e-05 0.00017579667416890365 0 -7.284730209732303e-05 0.00015651170929424779 0 -5.9042759940024911e-05 0.00016186232306936526 0 -2.3276796754894705e-05 -8.0474733867486896e-05 0 -2.2694201991489903e-05 -7.1070449775822742e-05 0 -2.8832890843140115e-05 -7.3783891951468463e-05 0 -2.0387460382102198e-05 -4.7834315839985909e-05 0 -2.6879375471929211e-05 -5.5590707114501442e-05 0 -2.1398409400188122e-05 -5.672528617334624e-05 0 -9.0542274466736897e-06 -2.8728483013846419e-06 0 -8.5963112264999062e-06 -1.4657054114603254e-06 0 -7.567341416991263e-06 -1.2014716431390847e-06 0 -2.7437360426382531e-05 0.00026724698654058301 0 -2.8947970513987452e-05 0.00024869134150894021 0 -1.8111961246785894e-05 0.00025684112838701153 0 -4.6041945638324158e-05 -0.00012351753139554025 0 -4.5282982878698458e-05 -0.0001151242236033654 0 -5.0527114573983675e-05 -0.00011885137631048202 0 -6.6771205443271419e-05 0.00026761546058081786 0 -7.7191462708034241e-05 0.00025688032121556317 0 -6.499133892131014e-05 0.00024827916230163991 0 -2.9820767322279232e-05 -0.00012357482183239244 0 -2.6199584345429772e-05 -0.00011932161845881634 0 -3.0476336716059712e-05 -0.00011567671759350381 0 -2.1715532181071429e-05 -2.8415737750930684e-05 0 -2.1915463052041595e-05 -2.6195802043537717e-05 0 -2.3363502751655485e-05 -2.8046789936993261e-05 0 -9.4846632382884823e-06 -2.572271563513571e-05 0 -1.6263522297532071e-05 -2.4256389213784669e-05 0 -1.3100615447021703e-05 -3.1616970182343747e-05 0 -3.2038310416611077e-05 -3.3935501906497733e-05 0 -3.054489947319971e-05 -3.2034509974389851e-05 0 -3.0636541381084103e-05 -3.1291830882499599e-05 0 -1.352759488427986e-05 -3.186877427650668e-05 0 -1.4601500465096649e-05 -3.3186674615295278e-05 0 -1.5858884849648064e-05 -3.6506401073440273e-05 0 -2.0224445832977396e-06 1.1514896097152442e-06 0 -1.4630165402919749e-06 8.9157527188643167e-07 0 -2.088018334412306e-06 1.0574336713948373e-06 0 -8.2014370436897931e-05 0.00014124030807278871 0 -8.2953528769526594e-05 0.00011994677501686722 0 -6.8392259029342658e-05 0.00012376255842382947 0 -6.6594804132531836e-05 0.00010732422517096461 0 -6.8392259029342658e-05 0.00012376255842382947 0 -8.2953528769526594e-05 0.00011994677501686722 0 -2.0096344071469858e-05 -2.3966794759722444e-05 0 -2.2210185005921867e-05 -2.3861308997077614e-05 0 -2.1915463052041595e-05 -2.6195802043537717e-05 0 -5.6461943279617582e-06 -9.5423089886274011e-09 0 -6.009934175324399e-06 -3.1782932320128612e-07 0 -6.9363940918555008e-06 -1.1140344712563753e-06 0 -1.8249928342082681e-05 -1.1216193500868348e-05 0 -1.7072004960087058e-05 -1.0888857365234467e-05 0 -1.670061921751291e-05 -8.4646103503861656e-06 0 -1.5367591832805068e-05 -7.1854191183188206e-06 0 -1.670061921751291e-05 -8.4646103503861656e-06 0 -1.7072004960087058e-05 -1.0888857365234467e-05 0 -5.9481982518111488e-05 0.00014039702840838649 0 -5.9042759940024911e-05 0.00016186232306936526 0 -7.284730209732303e-05 0.00015651170929424779 0 -2.641982805560975e-05 -6.4189230676875786e-05 0 -2.8832890843140115e-05 -7.3783891951468463e-05 0 -2.2694201991489903e-05 -7.1070449775822742e-05 0 -2.641982805560975e-05 -6.4189230676875786e-05 0 -2.1398409400188122e-05 -5.672528617334624e-05 0 -2.6879375471929211e-05 -5.5590707114501442e-05 0 -4.6713714414417657e-06 -6.9042829695029879e-07 0 -7.0992548011098252e-06 -1.1146182114393001e-06 0 -5.3739244129805571e-06 -3.6810924416459072e-07 0 -6.393448297983433e-06 1.8484087656652847e-07 0 -7.0391482100110075e-06 -3.2148367979213605e-07 0 -9.7479251015373126e-06 5.5204340183525036e-07 0 -1.3237010005171662e-05 1.8746846197913037e-06 0 -9.7479251015373126e-06 5.5204340183525036e-07 0 -1.2503373793099643e-05 1.0653567315821853e-06 0 -9.3370163593956638e-06 -2.1266287400255704e-06 0 -9.1905350818338591e-06 -1.5376876837226601e-06 0 -7.0992548011098244e-06 -1.1146182114392999e-06 0 -7.692278350281013e-06 -1.7514892315685822e-06 0 -7.567341416991263e-06 -1.2014716431390847e-06 0 -6.3644395605612109e-06 -3.2851054948219151e-07 0 -8.2014370436897931e-05 0.00014124030807278871 0 -7.284730209732303e-05 0.00015651170929424779 0 -8.8496833457044457e-05 0.00016355104198211798 0 -1.771157777893765e-05 -6.3239478880811913e-05 0 -2.2694201991489903e-05 -7.1070449775822742e-05 0 -1.6912672822435088e-05 -7.3534324965251043e-05 0 -1.771157777893765e-05 -6.3239478880811913e-05 0 -1.5313395435825209e-05 -5.2779790304584921e-05 0 -2.1398409400188122e-05 -5.672528617334624e-05 0 -3.1069421963141901e-05 -4.2576420921811709e-05 0 -3.7231101476118466e-05 -4.2620593070986651e-05 0 -3.721431799721256e-05 -4.9322122846975844e-05 0 -2.3928787489101569e-05 -2.6270707521635955e-05 0 -2.1915463052041595e-05 -2.6195802043537717e-05 0 -2.2210185005921867e-05 -2.3861308997077614e-05 0 -6.4818834293051263e-06 2.6530783215703463e-06 0 -6.7076088350526583e-06 4.7553731946232098e-06 0 -9.4864983068861838e-06 3.7496249634162156e-06 0 -9.7574281146568148e-06 -4.3868931312151676e-06 0 -8.398108369621653e-06 -2.5172050214588463e-06 0 -9.6980412720086388e-06 -3.5082551714951514e-06 0 -7.0486260862230065e-06 -5.6765514319902362e-07 0 -9.4618006584672363e-06 -1.3252344888239121e-06 0 -7.7501161315682023e-06 -5.6953451747214386e-07 0 -5.9779718014724904e-05 7.2708443241819383e-05 0 -4.8632696286156036e-05 7.3995978221491331e-05 0 -5.6982783955520039e-05 9.0147778300627196e-05 0 -3.8705888593794598e-05 -3.497168717717853e-05 0 -3.7231101476118466e-05 -4.2620593070986651e-05 0 -3.3882516609678645e-05 -3.571952757351746e-05 0 -1.5020592752297601e-05 0.00017697052357164351 0 -3.1245672979627954e-05 0.00017685736245787233 0 -2.3196948795633951e-05 0.00016216669005195348 0 -4.8950436791443473e-05 -8.303778487335702e-05 0 -4.1747951016653847e-05 -8.2547320685153502e-05 0 -4.4073832181365345e-05 -7.5401352979119544e-05 0 -1.3077771621653846e-05 0.00010175985396741 0 -2.2588598019998519e-05 0.00011765909334315202 0 -3.2279446384950657e-05 0.00010333030896160416 0 -1.1237859300409631e-05 -2.4001895789192514e-06 0 -1.2413568485985467e-05 -2.698619989223725e-06 0 -1.4308137799085196e-05 -3.9900217542292019e-06 0 -7.749297210625939e-06 -1.6251078966853326e-06 0 -6.9363940918555008e-06 -1.1140344712563753e-06 0 -6.009934175324399e-06 -3.1782932320128612e-07 0 -3.3709563911073224e-05 -5.5561422147124446e-05 0 -3.721431799721256e-05 -4.9322122846975844e-05 0 -4.0633472371950693e-05 -5.6083324166892865e-05 0 -2.8703450907999343e-05 -3.036865827279137e-05 0 -3.0636541381084103e-05 -3.1291830882499599e-05 0 -3.054489947319971e-05 -3.2034509974389851e-05 0 -1.6192545631240883e-05 -3.4690322465492298e-05 0 -1.5858884849648064e-05 -3.6506401073440273e-05 0 -1.4601500465096649e-05 -3.3186674615295278e-05 0 -4.4746080947374119e-06 5.5884314434756818e-07 0 -5.3520613243516439e-06 1.4127293409972693e-07 0 -6.009934175324399e-06 -3.1782932320128612e-07 0 -8.7843819268035119e-05 0.00026785899377004872 0 -9.4978261372396611e-05 0.00025575071268296793 0 -7.7191462708034241e-05 0.00025688032121556317 0 -8.5174870754432569e-05 0.00024377033309181198 0 -7.7191462708034241e-05 0.00025688032121556317 0 -9.4978261372396611e-05 0.00025575071268296793 0 -2.3236803035115163e-05 -0.00011348011958273581 0 -2.6199584345429772e-05 -0.00011932161845881632 0 -2.0054976721674414e-05 -0.00011821703579398782 0 -2.267373141897876e-05 -0.00012314190559395519 0 -2.0054976721674414e-05 -0.00011821703579398782 0 -2.6199584345429772e-05 -0.00011932161845881632 0 -9.1541346790564398e-06 0.00026595940072814367 0 -1.8111961246785894e-05 0.00025684112838701153 0 -2.5608652130299691e-06 0.00025419414352854057 0 -5.5170994818599712e-05 -0.00012365502371860574 0 -5.0527114573983675e-05 -0.00011885137631048202 0 -5.8297176730150853e-05 -0.0001183549182636038 0 -1.0695777785946189e-05 0.00024360532615418391 0 -2.5608652130299691e-06 0.00025419414352854057 0 -1.8111961246785894e-05 0.00025684112838701153 0 -5.3970233492333737e-05 -0.00011306086301927027 0 -5.8297176730150853e-05 -0.0001183549182636038 0 -5.0527114573983675e-05 -0.00011885137631048202 0 -2.0096344071469858e-05 -2.3966794759722444e-05 0 -2.1915463052041595e-05 -2.6195802043537717e-05 0 -2.0046412589676841e-05 -2.6603765261965656e-05 0 -2.4480801408979373e-05 -2.3570820599358697e-05 0 -2.3260311002345138e-05 -2.0410985958996975e-05 0 -2.5230792294525374e-05 -2.2333838673254591e-05 0 -2.4440882050113921e-05 -2.0234331351695471e-05 0 -2.5230792294525374e-05 -2.2333838673254591e-05 0 -2.3260311002345138e-05 -2.0410985958996975e-05 0 -2.1715532181071429e-05 -2.8415737750930684e-05 0 -2.3363502751655485e-05 -2.8046789936993261e-05 0 -2.3224906089635867e-05 -3.0129741850598549e-05 0 -2.5151124342320071e-05 -2.8516461919605863e-05 0 -2.3224906089635867e-05 -3.0129741850598549e-05 0 -2.3363502751655485e-05 -2.8046789936993261e-05 0 -2.4391804170273878e-06 1.1801144135143236e-05 0 -4.4738060947820974e-06 8.7710410101469533e-06 0 -5.5115161390045298e-06 9.4753024350734447e-06 0 -1.0492945901436985e-05 7.1105818207676599e-06 0 -1.5660908967423217e-05 9.9290549128363759e-06 0 -1.4009628640747763e-05 5.8260492194645803e-06 0 -1.9758908389600356e-05 8.5405471347888772e-06 0 -1.4009628640747763e-05 5.8260492194645803e-06 0 -1.5660908967423217e-05 9.9290549128363759e-06 0 -1.1237859300409631e-05 -2.4001895789192514e-06 0 -1.3064672471293825e-05 -4.0948889636317869e-06 0 -1.0283758995750936e-05 -2.3754343587498669e-06 0 -5.9779718014724904e-05 7.2708443241819383e-05 0 -4.8202331886306066e-05 6.0073093685551239e-05 0 -4.8632696286156036e-05 7.3995978221491331e-05 0 -3.6719403745217189e-05 6.2321922687260122e-05 0 -4.8632696286156036e-05 7.3995978221491331e-05 0 -4.8202331886306066e-05 6.0073093685551239e-05 0 -4.621205475694376e-06 7.0373283261850504e-06 0 -4.4738060947820974e-06 8.7710410101469533e-06 0 -2.9213432848069511e-06 8.7499440869186749e-06 0 -1.5032739609093992e-05 -2.3713142037302874e-05 0 -1.6060192369340847e-05 -2.7284967081902052e-05 0 -1.3660925311934909e-05 -2.5231383172955245e-05 0 -1.4510107046093308e-05 -2.8282654166876092e-05 0 -1.3660925311934909e-05 -2.5231383172955245e-05 0 -1.6060192369340847e-05 -2.7284967081902052e-05 0 -2.3444421588469692e-06 7.4835684648245059e-06 0 -2.9213432848069511e-06 8.7499440869186749e-06 0 -2.093165913682111e-06 1.0409821145431151e-05 0 -2.8428274958961428e-05 -3.0587174206657153e-05 0 -3.3390671921929091e-05 -2.9730143756741637e-05 0 -3.3882516609678645e-05 -3.571952757351746e-05 0 -3.8705888593794598e-05 -3.497168717717853e-05 0 -3.3882516609678645e-05 -3.571952757351746e-05 0 -3.3390671921929091e-05 -2.9730143756741637e-05 0 -3.0390037047521194e-06 4.7586775260309725e-06 0 -4.2970343555150527e-06 5.1632003801648234e-06 0 -2.9683694667121e-06 6.3291232736353223e-06 0 -2.3444421588469692e-06 7.4835684648245059e-06 0 -2.9683694667121e-06 6.3291232736353223e-06 0 -2.9213432848069511e-06 8.7499440869186749e-06 0 -2.4440882050113921e-05 -2.0234331351695471e-05 0 -2.4746011497235533e-05 -1.9091778380507612e-05 0 -2.6222945080095638e-05 -2.2156341313283893e-05 0 -7.749297210625939e-06 -1.6251078966853326e-06 0 -8.398108369621653e-06 -2.5172050214588463e-06 0 -6.9363940918555008e-06 -1.1140344712563753e-06 0 -7.692278350281013e-06 -1.7514892315685822e-06 0 -6.9363940918555008e-06 -1.1140344712563753e-06 0 -8.398108369621653e-06 -2.5172050214588463e-06 0 -6.3589177413990661e-06 4.1082529428494375e-07 0 -6.3644395605612109e-06 -3.2851054948219151e-07 0 -7.567341416991263e-06 -1.2014716431390847e-06 0 1.6970941661501391e-05 0.00017163512238855806 0 7.6077805074034521e-07 0.00018362596200022875 0 2.8137411737130611e-06 0.00016742238609672905 0 -6.3609930282529904e-05 -8.3169360998121359e-05 0 -5.6660365376385278e-05 -8.6973788513661357e-05 0 -5.6593069958274943e-05 -7.9360009490321112e-05 0 -1.5465565882513217e-05 -4.0525275427884444e-06 0 -1.4308137799085196e-05 -3.9900217542292019e-06 0 -1.2413568485985467e-05 -2.6986199892237254e-06 0 -7.3660240803440763e-10 1.9376877259060226e-10 0 -5.5863531116043716e-07 4.0577630228516545e-07 0 -4.6708940356393891e-07 3.3038455113403144e-07 0 1.7337434295855578e-05 0.00010133564996793293 0 3.7244122935866693e-06 0.00010918639975832638 0 2.30791951915361e-06 9.4230188339584106e-05 0 -2.1715532181071429e-05 -2.8415737750930684e-05 0 -2.0046412589676841e-05 -2.6603765261965656e-05 0 -2.1915463052041595e-05 -2.6195802043537717e-05 0 -1.23906236331752e-05 3.0914870577818029e-06 0 -1.4009628640747763e-05 5.8260492194645795e-06 0 -1.7529386726155285e-05 5.3184483673883083e-06 0 -1.9758908389600356e-05 8.5405471347888772e-06 0 -1.7529386726155281e-05 5.3184483673883083e-06 0 -1.4009628640747763e-05 5.8260492194645803e-06 0 -2.6993108461190937e-05 -2.1372162500686441e-05 0 -2.6222945080095638e-05 -2.2156341313283893e-05 0 -2.4746011497235533e-05 -1.9091778380507612e-05 0 
</DataArray>
</PointData>
<CellData Scalars="region_id,cross_section_updated,displacement_divergence," Vectors="" Tensors="stress,">
<DataArray type="Float64" Name="region_id" format="ascii">
2 2 2 2 2 2 2 2 2 2 3 3 3 3 3 3 3 3 3 3 1 1 1 1 1 1 1 1 1 1 1 1 1 1 1 1 1 1 1 1 1 1 1 1 1 1 1 1 1 1 1 1 1 1 1 1 1 1 1 1 1 1 1 1 1 1 1 1 1 1 1 1 1 1 1 1 1 1 1 1 1 1 1 1 1 1 1 1 1 1 1 1 1 1 1 1 1 1 1 1 1 1 1 1 1 1 1 1 1 1 1 1 1 1 1 1 1 1 1 1 1 1 1 1 1 1 1 1 1 1 1 1 1 1 1 1 1 1 1 1 1 1 1 1 1 1 1 1 1 1 1 1 1 1 1 1 1 1 1 1 1 1 1 1 1 1 1 1 1 1 1 1 1 1 1 1 1 1 1 1 1 1 1 1 1 1 1 1 1 1 1 1 1 1 1 1 1 1 1 1 1 1 1 1 1 1 1 1 1 1 1 1 1 1 1 1 1 1 1 1 1 1 1 1 1 1 1 1 1 1 1 1 1 1 1 1 1 1 1 1 1 1 1 1 1 1 1 1 1 1 1 1 1 1 1 1 1 1 1 1 1 1 1 1 1 1 1 1 1 1 1 1 1 1 1 1 1 1 1 1 1 1 1 1 1 1 1 1 1 1 1 1 1 1 1 1 1 1 1 1 1 1 1 1 1 1 1 1 1 1 1 1 1 1 1 1 1 1 1 1 1 1 1 1 1 1 1 1 1 1 1 1 1 1 1 1 1 1 1 1 1 1 1 1 1 1 1 1 1 1 1 1 1 1 1 1 1 1 1 1 1 1 1 1 1 1 1 1 1 1 1 1 1 1 1 1 1 1 1 1 1 1 1 1 1 1 1 1 1 1 1 1 1 1 1 1 1 1 1 1 1 1 1 1 1 1 1 1 1 1 1 1 1 1 1 1 1 1 1 1 1 1 1 1 1 1 1 1 1 1 1 1 1 1 1 1 1 1 1 1 1 1 1 1 1 1 1 1 1 1 1 1 1 1 1 1 1 1 1 1 1 1 1 1 1 1 1 1 1 1 1 1 1 1 1 1 1 1 1 1 1 1 1 1 1 1 1 1 1 1 1 1 1 1 1 1 1 1 1 1 1 1 1 1 1 1 1 1 1 1 1 1 1 1 1 1 1 1 1 1 1 1 1 1 1 1 1 1 1 1 1 1 1 1 1 1 1 1 1 1 1 1 1 1 1 1 1 1 1 1 1 1 1 1 1 1 1 1 1 1 1 1 1 1 1 1 1 1 1 1 1 1 1 1 1 1 1 1 1 1 1 1 1 1 1 1 1 1 1 1 1 1 1 1 1 1 1 1 1 1 1 1 1 1 1 1 1 1 1 1 1 1 1 1 1 1 1 1 1 1 1 1 1 1 1 1 1 1 1 1 1 1 1 1 1 1 1 1 1 1 1 1 1 1 1 1 1 1 1 1 1 1 1 1 1 1 1 1 1 1 1 1 1 1 1 1 1 1 1 1 1 1 1 1 1 1 1 1 1 1 1 1 1 1 1 1 1 1 1 1 1 1 1 1 1 1 1 1 1 1 1 1 1 1 1 1 1 1 1 1 1 1 1 1 1 1 1 1 1 1 1 1 1 1 1 1 1 1 1 1 1 1 1 1 1 1 1 1 1 1 1 1 1 1 1 1 1 1 1 1 1 1 1 1 1 1 1 1 1 1 1 1 1 1 1 1 1 1 1 1 1 1 1 1 1 1 1 1 1 1 1 1 1 1 1 1 1 1 1 1 1 1 1 1 1 1 1 1 1 1 1 1 1 1 1 1 1 1 1 1 1 1 1 1 1 1 1 1 1 1 1 1 1 1 1 1 1 1 1 1 1 1 1 1 1 1 1 1 1 1 1 1 1 1 1 1 1 1 1 1 1 1 1 1 1 1 1 1 1 1 1 1 1 1 1 1 1 1 1 1 1 1 1 1 1 1 1 1 1 1 1 1 1 1 1 1 1 1 1 1 1 1 1 1 1 1 1 1 1 1 1 1 1 1 1 1 1 1 1 1 1 1 1 1 1 1 1 1 1 1 1 1 1 1 1 1 1 1 1 1 1 1 1 1 1 1 1 1 1 1 1 1 1 1 1 1 1 1 1 1 1 1 1 1 1 1 1 1 1 1 1 1 1 1 1 1 1 1 1 1 1 1 1 1 1 1 1 1 1 1 1 1 1 1 1 1 1 1 1 1 1 1 1 1 1 1 1 1 1 1 1 1 1 1 1 1 1 1 1 1 1 1 1 1 1 1 1 1 1 1 1 1 1 1 1 1 1 1 1 1 1 1 1 1 1 1 1 1 1 1 1 1 1 1 1 1 1 1 1 1 1 1 1 1 
</DataArray>
<DataArray type="Float64" Name="stress" NumberOfComponents="9" format="ascii">
-2.3771675726466169e-05 -4.114328201989059e-05 0 -4.114328201989059e-05 -7.9238919088220653e-06 0 0 0 -7.9238919088220653e-06 -2.8028024415010578e-05 -4.7923449415128303e-05 0 -4.7923449415128303e-05 -9.3426748050035214e-06 0 0 0 -9.3426748050035214e-06 -3.2847997263922937e-05 -5.5515687667974226e-05 0 -5.5515687667974226e-05 -1.0949332421307664e-05 0 0 0 -1.0949332421307664e-05 -3.0571790758242051e-05 -5.7954293727765127e-05 0 -5.7954293727765127e-05 -1.0190596919413999e-05 0 0 0 -1.0190596919413999e-05 -2.7505054454808977e-05 -5.837614581385189e-05 0 -5.837614581385189e-05 -9.1683514849363347e-06 0 0 0 -9.1683514849363347e-06 -2.6931913505933499e-05 -5.8437393157578701e-05 0 -5.8437393157578701e-05 -8.9773045019778239e-06 0 0 0 -8.9773045019778239e-06 -2.959428714522901e-05 -5.4083948826614354e-05 0 -5.4083948826614354e-05 -9.8647623817429671e-06 0 0 0 -9.8647623817429671e-06 -3.1556079681915004e-05 -5.6918768601428636e-05 0 -5.6918768601428636e-05 -1.0518693227305038e-05 0 0 0 -1.0518693227305038e-05 -2.0067029223782271e-05 -4.1743486602874541e-05 0 -4.1743486602874541e-05 -6.6890097412607391e-06 0 0 0 -6.6890097412607391e-06 -6.861330812205546e-05 -5.0981467371972035e-05 0 -5.0981467371972035e-05 -2.2871102707351838e-05 0 0 0 -2.2871102707351838e-05 8.3904780966297763e-05 8.6980852125267955e-05 0 8.6980852125267955e-05 2.7968260322099259e-05 0 0 0 2.7968260322099259e-05 -7.7810802490273657e-06 4.1799389929242213e-05 0 4.1799389929242213e-05 -2.5936934163424597e-06 0 0 0 -2.5936934163424597e-06 -1.3054876664642031e-05 8.3790562700931134e-05 0 8.3790562700931134e-05 -4.3516255548806747e-06 0 0 0 -4.3516255548806747e-06 -2.1194831935143754e-05 7.2163124061569862e-05 0 7.2163124061569862e-05 -7.0649439783812537e-06 0 0 0 -7.0649439783812537e-06 -2.840858251503617e-05 8.1399014086668854e-05 0 8.1399014086668854e-05 -9.4695275050120565e-06 0 0 0 -9.4695275050120565e-06 -3.5843536115446974e-05 8.4890345271786214e-05 0 8.4890345271786214e-05 -1.1947845371815657e-05 0 0 0 -1.1947845371815657e-05 -4.0824165845618841e-05 7.0556479421674066e-05 0 7.0556479421674066e-05 -1.3608055281872949e-05 0 0 0 -1.3608055281872949e-05 -7.0450332073810498e-05 9.6834509969691979e-05 0 9.6834509969691979e-05 -2.3483444024603495e-05 0 0 0 -2.3483444024603495e-05 2.3564457155627468e-05 5.0765887629111196e-05 0 5.0765887629111196e-05 7.8548190518758214e-06 0 0 0 7.8548190518758214e-06 -0.00035906877335022179 9.5220006041234705e-05 0 9.5220006041234705e-05 -0.0001196895911167406 0 0 0 -0.0001196895911167406 -0.030846085878805656 -0.0092958701011986809 0 -0.0092958701011986809 0.017094176208100997 0 0 0 -0.0034379774176761732 -0.027349979306473732 -0.0095268031983784755 0 -0.0095268031983784755 0.030860499203001268 0 0 0 0.00087762997413188409 -0.046323582225222565 -0.0076938878828816532 0 -0.0076938878828816532 0.02652407302319934 0 0 0 -0.0049498773005058061 -0.046162115560273408 1.4885603431505356e-05 0 1.4885603431505356e-05 0.028125643574822515 0 0 0 -0.0045091179963627171 -0.10397458137779036 -0.0044500658255876638 0 -0.0044500658255876638 0.0017421926063355062 0 0 0 -0.025558097192863713 -0.073009651947565785 0.00095276209253801914 0 0.00095276209253801914 0.00027242540390595184 0 0 0 -0.018184306635914964 -0.10970991448885202 -0.0023763777950224114 0 -0.0023763777950224114 -0.00096691902704195819 0 0 0 -0.027669208378973503 -0.075479764165492014 0.00013801997136665754 0 0.00013801997136665754 -0.00059601608006000506 0 0 0 -0.019018945061388005 -0.09250642357115027 0.0030087073341974746 0 0.0030087073341974746 -0.00038272480663695263 0 0 0 -0.023222287094446799 -0.16074938310644893 -0.0081980702909924853 0 -0.0081980702909924853 -0.00052572851974674872 0 0 0 -0.040318777906548905 -0.0084425816528588896 0.0025483753228030571 0 0.0025483753228030571 -0.011833529648223774 0 0 0 -0.0050690278252706646 -0.011750382584641925 0.0030272597364700755 0 0.0030272597364700755 -0.0093523978663564954 0 0 0 -0.0052756951127496052 -0.033729771586113427 0.0037774612696290484 0 0.0037774612696290484 -0.0056206812386716092 0 0 0 -0.0098376132061962565 -0.03290827045469101 -0.0061620495756344405 0 -0.0061620495756344405 -0.010972861867172843 0 0 0 -0.010970283080465963 -0.034528258733252534 0.0047883844205734577 0 0.0047883844205734577 -0.011509663964278194 0 0 0 -0.011509480674382682 -0.045364814233161882 -0.012765766853630331 0 -0.012765766853630331 0.017467049118765288 0 0 0 -0.0069744412785991694 0.11322178365149688 0.083989228399590415 0 0.083989228399590415 0.16603531682709932 0 0 0 0.069814275119649077 -0.0019639712177665913 -0.010095912667942297 0 -0.010095912667942297 -0.010245696452258368 0 0 0 -0.0030524169175063509 0.00057338959229258357 0.0060474151287186473 0 0.0060474151287186473 -0.0022487299621376522 0 0 0 -0.00041883509246143369 -0.001376832708109621 0.012693066296003433 0 0.012693066296003433 -0.0080993968634945901 0 0 0 -0.0023690573929004977 0.0004885538233785347 -0.0051195309232823089 0 -0.0051195309232823089 -0.002888121329056581 0 0 0 -0.00059989187641940056 -0.0086098633459955609 0.020403981049972542 0 0.020403981049972542 -0.0057642340979997542 0 0 0 -0.003593524360998912 -0.0087924190905111499 -0.020925409066060552 0 -0.020925409066060552 -0.0080102517735434198 0 0 0 -0.0042006677160136285 -0.030132822140534476 0.0056767152778351444 0 0.0056767152778351444 -0.0061402457083665311 0 0 0 -0.0090682669622252476 0.12327586847370041 -0.0049538970046041075 0 -0.0049538970046041075 0.10059886933276141 0 0 0 0.055968684451615444 -0.18458095673734892 0.010648842611305387 0 0.010648842611305387 0.0055979166554349646 0 0 0 -0.044745760020478531 -0.10027384142974632 -0.0039747430687291745 0 -0.0039747430687291745 0.0021883728231630872 0 0 0 -0.024521367151645768 -0.073302582684061118 -0.015894489384834558 0 -0.015894489384834558 0.01275153325343284 0 0 0 -0.015137762357657056 -0.084156768905728374 0.016482069831054227 0 0.016482069831054227 0.04871319904101401 0 0 0 -0.0088608924661786048 -0.091232995198552824 -0.017730626780741152 0 -0.017730626780741152 0.0071214696105971198 0 0 0 -0.021027881396988912 -0.035957391401840108 -0.014440993330146944 0 -0.014440993330146944 0.038675892024868347 0 0 0 0.00067962515575707011 -0.022477359891551196 -0.027579069290096014 0 -0.027579069290096014 -2.0645893126336468e-05 0 0 0 -0.0056245014461693277 -0.0253940334550945 0.0369315331753306 0 0.0369315331753306 -0.0037491063816008641 0 0 0 -0.0072857849591739798 -0.023071082432221224 -0.028531291641698098 0 -0.028531291641698098 0.0036591690391618581 0 0 0 -0.0048529783482649247 -0.033236498700675465 0.038961544001058002 0 0.038961544001058002 -0.0047760314157194728 0 0 0 -0.0095031325290988455 -0.066738285110919116 -0.023495976997160925 0 -0.023495976997160925 0.0026637075606833344 0 0 0 -0.016018644387558952 -0.020118754310859986 -0.031474646528033591 0 -0.031474646528033591 0.049804088034292655 0 0 0 0.0074213334308581794 -0.097078871311489345 0.0078443476766880682 0 0.0078443476766880682 0.012081587412961114 0 0 0 -0.021249320974632058 0.21243071560321991 0.093977549452108872 0 0.093977549452108872 0.054584214667163344 0 0 0 0.066753732567595758 -0.0013457785240963971 0.0072764987334033027 0 0.0072764987334033027 -0.0022399038049928377 0 0 0 -0.00089642058227235033 -0.0030923040254398626 -0.0082625575497976278 0 -0.0082625575497976278 0.016639544713320964 0 0 0 0.0033868101719702337 -0.031203058060887023 -0.014809506171382878 0 -0.014809506171382878 0.06164358609607308 0 0 0 0.0076101320087965125 -0.0020592593560890826 -0.019501618100677853 0 -0.019501618100677853 0.045179429774393043 0 0 0 0.010780042604575879 -0.0067598958683374732 0.0037333086882256339 0 0.0037333086882256339 -0.0027425124555628955 0 0 0 -0.0023756020809746481 -0.022339308568399042 -0.0047702937672886789 0 -0.0047702937672886789 -0.012979404614171653 0 0 0 -0.0088296782956426741 -0.025798833639244269 0.0065513120457060259 0 0.0065513120457060259 -0.0090408353052197597 0 0 0 -0.0087099172361160063 -0.054955403191617229 0.049954672726552463 0 0.049954672726552463 0.050121023331156728 0 0 0 -0.0012085949651151548 -0.048852481634619901 0.043532033927641212 0 0.043532033927641212 0.035128702321406247 0 0 0 -0.0034309448283034033 0.099108009372303033 0.11444373991815254 0 0.11444373991815254 0.19114033061056268 0 0 0 0.072562084995716383 -0.010614057818197707 0.0077102145907728126 0 0.0077102145907728126 0.00051020191912093393 0 0 0 -0.0025259639747690285 -0.015397662564882023 -0.020748429607260199 0 -0.020748429607260199 0.038295913548468744 0 0 0 0.0057245627458967635 -0.019697072899226814 -0.010518396120415635 0 -0.010518396120415635 -0.023075743578687691 0 0 0 -0.010693204119478661 -0.033660555189784495 -0.013880300599809381 0 -0.013880300599809381 0.047278298407505567 0 0 0 0.0034044358044302645 -0.027308043050224676 -0.019783647460135671 0 -0.019783647460135671 0.0047081314747672021 0 0 0 -0.005649977893864358 -0.020595338498932858 -0.0053385473249361465 0 -0.0053385473249361465 0.0086580004034949587 0 0 0 -0.002984334523859461 -0.094273597760267502 0.015135286363495037 0 0.015135286363495037 -0.0008948024179620262 0 0 0 -0.023792100044557229 -0.0080559014754241209 -0.005197287405859452 0 -0.005197287405859452 0.00027871693437120371 0 0 0 -0.0019442961352632571 -0.0094304266264864101 0.023248257162451713 0 0.023248257162451713 0.072532568228694139 0 0 0 0.015775535400551766 -0.015660716713616182 -0.018215072609138128 0 -0.018215072609138128 0.059278203606474129 0 0 0 0.010904371723214627 -0.00041601831135062994 0.0014329682723818664 0 0.0014329682723818664 -0.00083128504038487705 0 0 0 -0.00031182583793376573 -0.020836262207463596 0.0018423429550061265 0 0.0018423429550061265 -0.0097929879610776371 0 0 0 -0.0076573125421353083 0.010011133521057774 -0.046800701022079727 0 -0.046800701022079727 0.076478522135508764 0 0 0 0.021622413914141644 -0.017807557383035189 1.6675230118376461e-05 0 1.6675230118376461e-05 -0.0061036464285540992 0 0 0 -0.0059778009528973497 -0.023616998984945792 -0.0078372827619799315 0 -0.0078372827619799315 -0.00094684881405726617 0 0 0 -0.0061409619497507506 -0.033264687470761889 -0.027698615911371668 0 -0.027698615911371668 0.0077731239208942426 0 0 0 -0.0063728908874668977 -0.068898965519260683 -0.003331732085769909 0 -0.003331732085769909 -0.011006041124737041 0 0 0 -0.019976251660999433 -0.096210514373826786 -7.7942732112399465e-05 0 -7.7942732112399465e-05 -0.01487795530845396 0 0 0 -0.027772117420570196 0.0020042793035959009 0.0036020084782251161 0 0.0036020084782251161 -0.014188288271198959 0 0 0 -0.0030460022419007368 0.0032012484233209793 -0.0049963147312135359 0 -0.0049963147312135359 0.0044070935896427521 0 0 0 0.0019020855032409467 -0.069122583321468992 -0.0080489681681818488 0 -0.0080489681681818488 -0.017245972975039551 0 0 0 -0.021592139074127131 -0.053920526626625866 0.0024056307564547063 0 0.0024056307564547063 -0.01248274766778713 0 0 0 -0.016600818573603248 -0.015313866149566438 -0.00015621565288463215 0 -0.00015621565288463215 -0.01309707983979317 0 0 0 -0.0071027364973399038 -0.073892772966875506 0.003076268247898176 0 0.003076268247898176 0.00017907066440678993 0 0 0 -0.018428425575617188 -0.10697979932305599 -0.0081229399917032586 0 -0.0081229399917032586 0.0012902885751633897 0 0 0 -0.026422377686973135 -0.024372012259691961 -0.015146440609736425 0 -0.015146440609736425 -0.0059748682988049473 0 0 0 -0.0075867201396241923 -0.025694410455573261 -0.018552010730797833 0 -0.018552010730797833 0.0049520582971303018 0 0 0 -0.005185588039610764 0.0051206524623446659 0.021292140544198812 0 0.021292140544198812 0.086796331963926887 0 0 0 0.02297924610656793 -0.0055671492013524421 -0.0028810649129848986 0 -0.0028810649129848986 -0.0020880122414748126 0 0 0 -0.0019137903607066714 -0.025151261738623587 -0.01565397788538226 0 -0.01565397788538226 -0.0066445780148849942 0 0 0 -0.0079489599383771592 -0.021469606954581409 -0.010110508533756252 0 -0.010110508533756252 -0.010374659817473902 0 0 0 -0.0079610666930138227 -0.050168408758623162 0.047579146022335539 0 0.047579146022335539 -0.0011676703130203414 0 0 0 -0.012834019767910876 -0.083324269135648832 -0.002009053719979986 0 -0.002009053719979986 -0.027789865758603333 0 0 0 -0.02777853372356304 -0.061511490319666309 -0.0015352748702315048 0 -0.0015352748702315048 -0.020514046664388958 0 0 0 -0.020506384246013819 -0.021632990164061189 -0.0049768470641517893 0 -0.0049768470641517893 -0.015349432454491973 0 0 0 -0.0092456056546382885 -0.010501044615115362 0.026757711237493265 0 0.026757711237493265 -0.0084997624814917572 0 0 0 -0.0047502017741517522 -0.0083243856673065331 -0.015784577811472689 0 -0.015784577811472689 -0.0041742452514297312 0 0 0 -0.0031246577296839551 -0.024398679419581553 -0.026080010132598641 0 -0.026080010132598641 0.0052220434788990411 0 0 0 -0.0047941589851706982 -0.012871209879774827 0.0034615438992875113 0 0.0034615438992875113 -0.0099970071046463736 0 0 0 -0.0057170542461053011 -0.049264137557525144 -0.013848648934589723 0 -0.013848648934589723 -0.007064604989365883 0 0 0 -0.014082185636722751 -0.026361239444856133 -0.010381149769313092 0 -0.010381149769313092 -0.0059945429462648914 0 0 0 -0.008088945597780256 -0.01007470694309727 0.0048589495378057023 0 0.0048589495378057023 -0.0087145914286362713 0 0 0 -0.0046973245929333848 -0.014011874220148029 0.0051586502717278519 0 0.0051586502717278519 -0.0074814656945901906 0 0 0 -0.005373334978684554 -0.015557571782638014 0.0042824800269661654 0 0.0042824800269661654 -0.0083657127750159151 0 0 0 -0.0059808211394134832 -0.022836754398274206 -0.0010153104694498316 0 -0.0010153104694498316 0.0052784784135202489 0 0 0 -0.0043895689961884754 -0.022224512944026525 -0.024662846693396967 0 -0.024662846693396967 0.020615866255795617 0 0 0 -0.00040216167205771314 -0.018475728561621219 -0.010637584427688834 0 -0.010637584427688834 -0.0099340826532062776 0 0 0 -0.0071024528037068602 -0.032441133005419912 -0.015881150560998043 0 -0.015881150560998043 0.061284740932327414 0 0 0 0.007210901981726886 -0.012741798368201884 0.02012657090547143 0 0.02012657090547143 0.1076739171350658 0 0 0 0.023733029691715979 -0.00044444830563927784 -0.0010379305411982729 0 -0.0010379305411982729 -0.00059055046924605392 0 0 0 -0.00025874969372152723 -0.0070656967082597388 -0.0048740074288492101 0 -0.0048740074288492101 -0.0027995157918363489 0 0 0 -0.0024663031250240497 -0.0059934177171783176 0.014671782431103342 0 0.014671782431103342 0.10992069997486276 0 0 0 0.02598182056442111 -0.018203288869813379 0.018144570248946765 0 0.018144570248946765 0.083136424073975937 0 0 0 0.016233283801040631 -0.022140532039496168 0.005310331801396396 0 0.005310331801396396 -0.0054992532786166306 0 0 0 -0.0069099463295281983 -0.025826034414452633 0.00477900361429991 0 0.00477900361429991 -0.0064556030788191394 0 0 0 -0.0080704093733179431 0.0092509567923861891 0.029223480208276253 0 0.029223480208276253 0.025522458943927351 0 0 0 0.0086933539340785515 -0.01248586024965781 0.033701265240249467 0 0.033701265240249467 0.018279590643520471 0 0 0 0.0014484325984656099 -0.028405237225934188 -0.024497447080871149 0 -0.024497447080871149 0.019949228915950301 0 0 0 -0.0021140020774959647 -0.00028035025578845851 -0.0074602186513317847 0 -0.0074602186513317847 -0.025737427165156812 0 0 0 -0.0065044443552363107 -0.00060970316916286738 0.005092387680585439 0 0.005092387680585439 -0.028356488440473004 0 0 0 -0.0072415479024089957 -0.031437271613819359 0.0093406500713853341 0 0.0093406500713853341 0.054135284858534929 0 0 0 0.0056745033111788891 -0.0095416328009532148 0.0069770048146226716 0 0.0069770048146226716 -0.0041949988450182829 0 0 0 -0.0034341579114929299 -0.012578887669021932 -0.015156418489956969 0 -0.015156418489956969 0.060124416315422646 0 0 0 0.011886382161600317 -0.084080620092602892 0.0026552054315919296 0 0.0026552054315919296 0.00064628290720510767 0 0 0 -0.020858584296349434 -0.1378618885287913 -0.0074084017754577763 0 -0.0074084017754577763 0.0010029868458812097 0 0 0 -0.034214725420727503 -0.011722816333126329 -0.023031691174981793 0 -0.023031691174981793 0.0056914793202235414 0 0 0 -0.00150783425322569 0.08508697301829965 -0.04499944877090245 0 -0.04499944877090245 0.036363632664878187 0 0 0 0.030362651420794473 -0.019405308094709528 -0.014800571948714217 0 -0.014800571948714217 -0.0037883481414248688 0 0 0 -0.0057984140590336408 -0.019925204342898295 -0.019521987820479467 0 -0.019521987820479467 0.00035426053175646732 0 0 0 -0.004892735952785443 0.00043840910162282518 -0.0068778043428843194 0 -0.0068778043428843194 0.00030969539166895565 0 0 0 0.00018702612332297298 -0.0022327415477763068 0.0059064404945750049 0 0.0059064404945750049 4.7023404997403873e-05 0 0 0 -0.0005464295356945037 0.00072955788592210524 0.0083543145884270587 0 0.0083543145884270587 0.0073126948993937901 0 0 0 0.0020105631963289738 -0.0018923033866741505 -0.0047321988007754667 0 -0.0047321988007754667 -0.0020165228062049888 0 0 0 -0.00097720654821956284 -0.04825642414849643 0.023579230387112432 0 0.023579230387112432 0.066011067445852445 0 0 0 0.0044386608243389691 -0.028798052284373432 -0.013441900825000019 0 -0.013441900825000019 -0.00058926994137581401 0 0 0 -0.0073468305564373115 -0.023097058721309682 -0.012285685457374351 0 -0.012285685457374351 -0.0045992911074664578 0 0 0 -0.0069240874571940558 -0.0220213583776693 -0.011815093875882893 0 -0.011815093875882893 -0.0068806592326650304 0 0 0 -0.0072255044025835687 -0.008416964281486583 -0.026175330594059944 0 -0.026175330594059944 0.011235651261413793 0 0 0 0.00070467174498184404 -0.13287976146314884 0.01681264191802212 0 0.01681264191802212 0.0023088009749652194 0 0 0 -0.032642740122045821 -0.049441653587890842 0.00084884442735042726 0 0.00084884442735042726 0.015781364651412833 0 0 0 -0.0084150722341194972 -0.040294010040790723 -0.0054253193100696762 0 -0.0054253193100696762 0.014350093222513627 0 0 0 -0.0064859792045692533 -0.015846903082071012 0.0044765395356972659 0 0.0044765395356972659 -0.023648196476914463 0 0 0 -0.0098737748897463617 -0.099406256576592245 0.031594590778707743 0 0.031594590778707743 -0.00073663762952524969 0 0 0 -0.025035723551528999 -0.073746371423768289 0.0059639817100494846 0 0.0059639817100494846 0.0037265349814590842 0 0 0 -0.017504959110577291 -0.074999961558760223 -0.0010554735272507582 0 -0.0010554735272507582 0.0041034210665108484 0 0 0 -0.017724135123062312 -0.12546102733638567 -0.0017890477833360785 0 -0.0017890477833360785 0.0092659987270968247 0 0 0 -0.029048757152322219 -0.11976834339614273 -0.018124573809646993 0 -0.018124573809646993 0.010007561368232776 0 0 0 -0.027440195506977516 -0.025520600956292789 -0.0097820972406784668 0 -0.0097820972406784668 -0.0054083784083701902 0 0 0 -0.0077322448411657647 -0.077800222330949784 -0.0072109291360250571 0 -0.0072109291360250571 0.0014134420417020732 0 0 0 -0.019096695072311889 0.019998668675602294 0.056003176730783255 0 0.056003176730783255 0.017846242283618752 0 0 0 0.0094612277398052891 -0.037211677864025981 -0.011369715923819364 0 -0.011369715923819364 0.043532063576650716 0 0 0 0.0015800964281561815 -0.0099806409806739958 0.013982046108883834 0 0.013982046108883834 0.016139207184627982 0 0 0 0.0015396415509884996 -0.029526895637626449 0.027432989066159319 0 0.027432989066159319 -0.0061227287230283256 0 0 0 -0.0089124060901639712 -0.021446172464418878 -0.027893954355455053 0 -0.027893954355455053 0.0089358261836635089 0 0 0 -0.0031275865701889116 -0.021719280017018908 -0.023406830167038165 0 -0.023406830167038165 0.022194346902260926 0 0 0 0.0001187667213104908 -0.0053295281526654081 0.0049701769062822226 0 0.0049701769062822226 -0.021311643933014768 0 0 0 -0.0066602930214200717 -0.023479152895695979 -0.012677074375101335 0 -0.012677074375101335 -0.010255590406670678 0 0 0 -0.0084336858255916886 -0.030138037321415734 -0.0083351593212966108 0 -0.0083351593212966108 -0.015059699088805552 0 0 0 -0.011299434102555322 -0.031260045578483268 0.0069322033330071406 0 0.0069322033330071406 -0.0097618498412052768 0 0 0 -0.010255473854922138 -0.021523440768960039 -0.028153199606950563 0 -0.028153199606950563 0.013584996117444972 0 0 0 -0.0019846111628787633 -0.051056219375364503 -0.020721576946113152 0 -0.020721576946113152 -0.0047916485530515029 0 0 0 -0.013961966982104005 -0.068362374430648409 -0.0088393170580731706 0 -0.0088393170580731706 0.019704330381779989 0 0 0 -0.012164511012217161 -0.01534552895562853 -0.0014289074295222126 0 -0.0014289074295222126 -0.014218116402946056 0 0 0 -0.0073909113396436465 -0.013714236524403981 0.0006576844255064111 0 0.0006576844255064111 -0.010947518145036781 0 0 0 -0.0061654386673601911 -0.021162274063113117 0.0045643223944986377 0 0.0045643223944986377 -0.007831826053509839 0 0 0 -0.007248525029155739 -0.021434621111031837 0.005465906543606667 0 0.005465906543606667 -0.0083117606725926791 0 0 0 -0.007436595445906127 -0.057719321041789701 -0.016957296876187175 0 -0.016957296876187175 0.019596781118416812 0 0 0 -0.0095306349808431945 -0.017649353096176802 0.011791243142125938 0 0.011791243142125938 0.014528976239701341 0 0 0 -0.00078009421411886701 -0.010720148787284663 -0.0022547996953616719 0 -0.0022547996953616719 -0.011945172013881209 0 0 0 -0.0056663302002914707 -0.031484990069483187 -0.01854604256541879 0 -0.01854604256541879 -0.0059043107304675158 0 0 0 -0.0093473251999876758 -0.020420274738744134 0.014252401506956325 0 0.014252401506956325 0.044231996647284721 0 0 0 0.0059529304771351486 -0.032135886140139694 0.0011586485985770863 0 0.0011586485985770863 0.0015075286862108878 0 0 0 -0.0076570893634822102 -0.030289221863370113 0.0022406942512641134 0 0.0022406942512641134 0.0052260321471604351 0 0 0 -0.0062657974290524256 -0.083312053951640805 -0.0020192493727587417 0 -0.0020192493727587417 -0.027750512539207992 0 0 0 -0.027765641622712202 -0.061503646174607476 -0.0015276410630876596 0 -0.0015276410630876596 -0.02048849752807597 0 0 0 -0.020498035925670861 0.07830510511321416 0.029324747641797044 0 0.029324747641797044 0.02971532210523041 0 0 0 0.027005106804610948 -0.022449037982284349 0.0042709521062106043 0 0.0042709521062106043 0.00022618269224343804 0 0 0 -0.0055557138225102286 -0.043674175188920278 -0.008544224501346365 0 -0.008544224501346365 0.049776540916485812 0 0 0 0.0015255914318914182 -0.011725954365726127 0.0010645745409116891 0 0.0010645745409116891 -0.03340341980940198 0 0 0 -0.01128234354378202 -0.078897003781344455 0.0037974371481230007 0 0.0037974371481230007 0.0010240137180276762 0 0 0 -0.019468247515829193 -0.12640348116308317 -0.0085994058165098364 0 -0.0085994058165098364 0.0011942075739503621 0 0 0 -0.031302318397283202 -0.024407527299652253 -0.010241887689105528 0 -0.010241887689105528 -0.014623481002045025 0 0 0 -0.0097577520754243349 -0.070565483729583073 0.0074478614969641435 0 0.0074478614969641435 0.00046289922957075435 0 0 0 -0.017525646125003066 -0.08923499627153908 -0.025184834094281822 0 -0.025184834094281822 -0.0012442402892317156 0 0 0 -0.022619809140192702 -0.072682024702233561 0.0046958330505478853 0 0.0046958330505478853 -0.00027484178131961801 0 0 0 -0.018239216620888336 -0.042397269333921385 0.0043024811769558861 0 0.0043024811769558861 -0.0029622649727761687 0 0 0 -0.011339883576674394 -0.036089831702596782 -0.010806747464332182 0 -0.010806747464332182 -0.0091823656486198224 0 0 0 -0.011318049337804158 -0.062196409737149759 -0.020163036991403233 0 -0.020163036991403233 0.0074652996598668642 0 0 0 -0.013682777519320698 -0.029510461192816251 -0.0096783665336222791 0 -0.0096783665336222791 -0.0027372406456321885 0 0 0 -0.0080619254596120959 -0.016916425474290175 0.035516924258055083 0 0.035516924258055083 0.016382851138069476 0 0 0 -0.00013339358405528579 -0.022812719764297662 -0.017734069764197058 0 -0.017734069764197058 -0.0060375982765541458 0 0 0 -0.0072125795102129242 -0.017573461632082159 -0.0014868998169889356 0 -0.0014868998169889356 -0.010889327099022631 0 0 0 -0.0071156971827761968 -0.025292841270309251 0.0043200117156451511 0 0.0043200117156451511 -0.0084488850653939001 0 0 0 -0.0084354315839257898 -0.039946628432204388 -0.010614798851087381 0 -0.010614798851087381 -0.01635545683332755 0 0 0 -0.014075521316382986 -0.037396317099066601 0.0067617489957250906 0 0.0067617489957250906 -0.010864049061159295 0 0 0 -0.012065091540056479 -0.040366489605980042 -0.0091423734414655886 0 -0.0091423734414655886 0.010102652991825722 0 0 0 -0.0075659591535385887 -0.041250018727055152 -0.016465133728064171 0 -0.016465133728064171 0.012654296994763808 0 0 0 -0.0071489304330728393 -0.043946109276379985 0.050915399350002583 0 0.050915399350002583 0.010593071193757631 0 0 0 -0.0083382595206555887 -0.0039068007576129049 0.067703944791867643 0 0.067703944791867643 0.035929263263472011 0 0 0 0.0080056156264646794 0.042229191138023953 0.00074211779756078178 0 0.00074211779756078178 0.040325046272047083 0 0 0 0.020638559352517766 -0.046398947132383003 -0.005426922360102282 0 -0.005426922360102282 0.04006258403299888 0 0 0 -0.0015840907748460482 -0.012210126402120759 0.0034718497044808738 0 0.0034718497044808738 -0.01003382846988882 0 0 0 -0.0055609887180023947 -0.028655542231935713 -0.014262792891871379 0 -0.014262792891871379 -0.0041155788266993842 0 0 0 -0.0081927802646587777 -0.045977756314606988 0.041102756105753202 0 0.041102756105753202 -0.00024037797474596445 0 0 0 -0.011554533572338044 -0.015571074850043665 -0.0032322518637818709 0 -0.0032322518637818709 0.027330910926519181 0 0 0 0.0029399590191188096 -0.016434933399496629 -0.0085680347944632196 0 -0.0085680347944632196 -0.017612969256886934 0 0 0 -0.0085119756640958805 -0.028850579563717602 0.0041407888060375035 0 0.0041407888060375035 -0.0045976540601106626 0 0 0 -0.0083620584059570617 -0.065849866521231176 0.011323632924475358 0 0.011323632924475358 0.038196599381145502 0 0 0 -0.0069133167850213839 -0.078293299076982834 0.0014584745851875323 0 0.0014584745851875323 -0.0015528285905860861 0 0 0 -0.019961531916892223 -0.11921860029429934 -0.0037017328572567947 0 -0.0037017328572567947 -0.0031706373836364668 0 0 0 -0.030597309419483944 -0.021375034328736248 -0.013809775790903471 0 -0.013809775790903471 -0.001954178623997993 0 0 0 -0.0058323032381835394 -0.046032993227238569 0.0035095473516927852 0 0.0035095473516927852 -0.0083089094092710612 0 0 0 -0.013585475659127407 -0.049997033916980474 -0.0076902948003080823 0 -0.0076902948003080823 -0.015232941147088458 0 0 0 -0.016307493766017228 -0.15321481964008787 0.0018878164607370462 0 0.0018878164607370462 0.0035312498579853635 0 0 0 -0.037420892445525628 -0.086581006249915507 -0.00071156569613034515 0 -0.00071156569613034515 0.0010075217658739866 0 0 0 -0.021393371121010377 0.0086058864693253356 0.02013900591543738 0 0.02013900591543738 0.092715851538750088 0 0 0 0.025330434502018856 0.060266363624687347 0.00012587575611902602 0 0.00012587575611902602 0.23241057812103 0 0 0 0.073169235436429308 -0.025652331257388514 -0.029461215446232147 0 -0.029461215446232147 0.016866348603439579 0 0 0 -0.0021964956634872163 -0.037400466627038387 -0.025498921160089255 0 -0.025498921160089255 0.012106796337020664 0 0 0 -0.0063234175725044861 -0.020350005878481556 -0.028343914934241168 0 -0.028343914934241168 0.040276688374289431 0 0 0 0.0049816706239519636 -0.0023313386065663411 0.001219058503009296 0 0.001219058503009296 -0.031479312150157368 0 0 0 -0.0084526626891809065 -0.015293863237124615 -0.00016758357079408269 0 -0.00016758357079408269 -0.01305611601137475 0 0 0 -0.0070874948121248428 -0.055919224684851443 -0.0037882874852504245 0 -0.0037882874852504245 0.0094534919286613506 0 0 0 -0.011616433189047537 0.0012833039397023294 -0.0025972753064530604 0 -0.0025972753064530604 -0.026804333557115312 0 0 0 -0.0063802574043532179 -0.13216987627497412 0.015873537340832578 0 0.015873537340832578 -0.00010607163675617481 0 0 0 -0.033068986977932494 -0.025615121113556016 0.027231823232412022 0 0.027231823232412022 -0.0074412769315941318 0 0 0 -0.0082640995112879256 -0.018242002533869872 -0.027105948259984469 0 -0.027105948259984469 0.0053523194707318922 0 0 0 -0.0032224207657842729 -0.022263488169123408 0.0041911753860481892 0 0.0041911753860481892 0.012068726764819526 0 0 0 -0.0025486903510759766 -0.047512819189347716 -0.013498358366802216 0 -0.013498358366802216 0.01143427713231987 0 0 0 -0.0090196355142569407 -0.01045863666695953 0.0083932286717984216 0 0.0083932286717984216 -0.0014241804512190939 0 0 0 -0.0029707042795446559 -0.007069092519675961 0.011686970802863272 0 0.011686970802863272 0.0051814820452539267 0 0 0 -0.00047190261860550684 -0.064643808180176537 -0.018437917264951694 0 -0.018437917264951694 -0.0028688881763354046 0 0 0 -0.016878174089127972 -0.034335518587168379 -0.025498117240112916 0 -0.025498117240112916 0.0032596051599877995 0 0 0 -0.0077689783567950754 -0.098993254458317595 -0.014694563671321735 0 -0.014694563671321735 -0.0059514072148708951 0 0 0 -0.026236165418297108 -0.026822694825497928 0.043686596804627165 0 0.043686596804627165 0.00079038563352895608 0 0 0 -0.0065080772979921875 -0.029109266602351663 0.043553474678647008 0 0.043553474678647008 5.8070268724730312e-05 0 0 0 -0.0072627990834068512 -0.030353901072370126 0.045032067586021185 0 0.045032067586021185 -0.0011245157097929948 0 0 0 -0.0078696041955408358 -0.02754002518241494 -0.027164564457526741 0 -0.027164564457526741 0.0029124725045626132 0 0 0 -0.0061568881694631372 -0.032668963327300786 -0.025270586157627006 0 -0.025270586157627006 0.0011092992263325892 0 0 0 -0.0078899160252419668 0.044844320339854207 0.031791204476542455 0 0.031791204476542455 0.049765660780311416 0 0 0 0.02365249528004143 -0.016616488029404589 -0.0015918964206483577 0 -0.0015918964206483577 -0.0055448669188519371 0 0 0 -0.0055403387370641316 -0.022310270595113771 0.0048542960685448305 0 0.0048542960685448305 -0.0074384098963295167 0 0 0 -0.0074371701228608212 -0.020867741501204018 0.0053072732141392718 0 0.0053072732141392718 0.0018930049770608127 0 0 0 -0.0047436841310358 -0.0038399620853636074 -0.012882989789006247 0 -0.012882989789006247 0.066380023190757864 0 0 0 0.015635015276348571 -0.077979206347865926 -0.022552934884274567 0 -0.022552934884274567 -0.0030623260278008074 0 0 0 -0.020260383093916676 -0.015613274862952598 0.0027982256672642392 0 0.0027982256672642392 -0.0087278183603628906 0 0 0 -0.0060852733058288731 -0.12006487571132342 -0.0055744574414408402 0 -0.0055744574414408402 -0.0034474451880421907 0 0 0 -0.030878080224841377 -0.07765612977766502 0.0021557627550923379 0 0.0021557627550923379 -0.0012138701100924063 0 0 0 -0.019717499971939369 -0.077461244779305272 -0.0068442199861227793 0 -0.0068442199861227793 0.00054691888208768802 0 0 0 -0.019228581474304396 -0.017992101522735372 0.0049890316653640188 0 0.0049890316653640188 -0.007172716805718328 0 0 0 -0.0062912045821134251 -0.022069636345641346 -0.0042455737432841034 0 -0.0042455737432841034 0.011702802150610828 0 0 0 -0.0025917085487576139 -0.026934240772808499 0.010029096467040723 0 0.010029096467040723 0.030220308776586734 0 0 0 0.00082151700094455424 -0.0039925426487537052 0.04535996014146948 0 0.04535996014146948 0.0061527338100784146 0 0 0 0.00054004779033112182 -0.01087502837157641 0.0032688035802685054 0 0.0032688035802685054 -0.010807147172242548 0 0 0 -0.00542054388595474 -0.019868490427322305 0.02572604899893538 0 0.02572604899893538 -0.013864096092726541 0 0 0 -0.008433146630012045 -0.016009404694999563 -0.025951272774539957 0 -0.025951272774539957 -0.0035520348782251965 0 0 0 -0.0048903598933062176 -0.017993065970126444 0.0051106412365370061 0 0.0051106412365370061 -0.00732764910006398 0 0 0 -0.0063301787675476059 -0.037593026026518477 0.0034507689079581842 0 0.0034507689079581842 0.039605932488978465 0 0 0 0.00050322661561500413 -0.0070726435215293648 0.021966045845739246 0 0.021966045845739246 0.0004040287558941813 0 0 0 -0.0016671536914087959 -0.0062385008414862497 0.0159456423682931 0 0.0159456423682931 -0.013983283724025242 0 0 0 -0.0050554461413780949 -0.0050995432388966089 -0.012124718947315344 0 -0.012124718947315344 -0.01132816192726338 0 0 0 -0.0041069262915399696 -0.0059910526984735535 -0.018012366050522255 0 -0.018012366050522255 -0.0027838893257459141 0 0 0 -0.0021937355060549502 -0.090570623650161525 -0.0023226920430136772 0 -0.0023226920430136772 0.020855330738157152 0 0 0 -0.017428823228001128 -0.058321555339933454 -0.014772973909631837 0 -0.014772973909631837 0.0066086959932296352 0 0 0 -0.012928214836676014 -0.067734973157602463 -0.015131459378855933 0 -0.015131459378855933 0.0069613490377170573 0 0 0 -0.015193406029971351 -0.10984763180762569 0.03535892096650009 0 0.03535892096650009 0.016221144552613254 0 0 0 -0.023406621813753081 -0.088916491100657025 0.034643747200837738 0 0.034643747200837738 0.015655345256345488 0 0 0 -0.01831528646107794 -0.026986806972179023 0.0039094936777475092 0 0.0039094936777475092 -0.0081535373047156162 0 0 0 -0.0087850860692236573 0.075298967749118539 0.027362847948336856 0 0.027362847948336856 0.024623217717866908 0 0 0 0.024980546366746292 -0.067678004254417473 -0.0083253403692633322 0 -0.0083253403692633322 -0.016200248553161628 0 0 0 -0.020969563201894772 -0.054354510913428272 0.0026977882177372241 0 0.0026977882177372241 -0.0099963128682352131 0 0 0 -0.016087705945415868 -0.041703242244767583 -0.010083153407795628 0 -0.010083153407795628 0.027618346288277307 0 0 0 -0.0035212239891225551 -0.039960325328233272 0.0054871840542173572 0 0.0054871840542173572 -0.0063996822341392933 0 0 0 -0.011590001890593138 -0.038891043070839904 -0.011231600208869714 0 -0.011231600208869714 -0.016428543767720551 0 0 0 -0.013829896709640117 -0.10093793107658 -0.018784713838979273 0 -0.018784713838979273 0.0013340396838703306 0 0 0 -0.024900972848177404 -0.10173206516145343 -0.018915061472010254 0 -0.018915061472010254 -0.0010163634489701451 0 0 0 -0.025687107152605883 -0.012493749748402116 0.033032283696208808 0 0.033032283696208808 0.016683368678529042 0 0 0 0.0010474047325315095 -0.010342632172049115 -0.014036363802416491 0 -0.014036363802416491 -0.00057345586407864246 0 0 0 -0.0027290220090320227 -0.0023208521923847613 -0.003022083873105319 0 -0.003022083873105319 -0.012201917265708025 0 0 0 -0.0036306923645231825 -0.00080473243222689561 0.0031102505936618785 0 0.0031102505936618785 -0.022609176678301535 0 0 0 -0.0058534772776321353 -0.039821959212842109 0.0030904658763963614 0 0.0030904658763963614 0.0013411044353573293 0 0 0 -0.0096202136943711863 -0.0017663077046459474 -0.0028830304839124188 0 -0.0028830304839124188 0.053437151629557478 0 0 0 0.012917710981227876 0.0010892774366842162 -0.0030111224079196752 0 -0.0030111224079196752 0.093867632605691809 0 0 0 0.023739227510594013 -0.020760183830542806 -0.012812560983607585 0 -0.012812560983607585 -0.0071038014001839588 0 0 0 -0.0069659963076817051 -0.068258797826645706 -0.0058418412712579401 0 -0.0058418412712579401 0.0079586476795381889 0 0 0 -0.015075037536776886 -0.0003073291876130313 0.00075128732890566985 0 0.00075128732890566985 -0.030732051581940478 0 0 0 -0.0077598451923884537 -0.1005364444645117 -0.026060511183319937 0 -0.026060511183319937 0.0060052767018825004 0 0 0 -0.023632791940657302 -0.023296600767866351 0.0045786665686494196 0 0.0045786665686494196 0.0087588139748311349 0 0 0 -0.0036344466982588036 -0.042510190515558405 -0.021610787871135517 0 -0.021610787871135517 0.019594404999367487 0 0 0 -0.0057289463790477779 -0.039755729433543191 -0.018811706735314654 0 -0.018811706735314654 0.017551294462442413 0 0 0 -0.0055511087427752015 -0.041663255046824957 0.0061465956483689943 0 0.0061465956483689943 -0.00054912079697260613 0 0 0 -0.010553093960949392 -0.056860900103330364 -0.011363087473363911 0 -0.011363087473363911 0.011599384509129174 0 0 0 -0.011315378898550277 -0.046785750547899962 0.0039427518598312283 0 0.0039427518598312283 -0.00061658878397774855 0 0 0 -0.011850584832969427 -0.034637252752607678 -0.012427672732660029 0 -0.012427672732660029 -0.013743915691292786 0 0 0 -0.012095292110975115 -0.071493813127381484 -0.0057286649374111986 0 -0.0057286649374111986 0.0079760311757410274 0 0 0 -0.015879445487910065 -0.1217497180717149 0.010889400619456702 0 0.010889400619456702 0.027872462155743905 0 0 0 -0.023469313978992698 -0.068214328217447204 -0.0093830822093453232 0 -0.0093830822093453232 -0.015325684063660621 0 0 0 -0.020885003070276957 -0.053348025182083404 0.0035239397598476278 0 0.0035239397598476278 -0.01144898758203579 0 0 0 -0.0161992531910298 -0.049085657098709018 0.006766259633236558 0 0.006766259633236558 -0.0024463459848111657 0 0 0 -0.01288300077088003 -0.055615993359212752 -0.017791541094462723 0 -0.017791541094462723 -0.010806885161036204 0 0 0 -0.016605719630062243 -0.022595106780042354 -0.0040425840827082657 0 -0.0040425840827082657 -0.01546012221365008 0 0 0 -0.0095138072484231163 -0.004772640756310724 -0.030384687558457107 0 -0.030384687558457107 0.037384069128949315 0 0 0 0.0081528570931596531 -0.0082065167767309839 0.0053777306912283496 0 0.0053777306912283496 -0.0094836006825019213 0 0 0 -0.004422529364808225 -0.011926828179631643 0.020203444059015085 0 0.020203444059015085 -0.0045534673189324693 0 0 0 -0.0041200738746409726 -0.013498055219973493 -0.026466286454886301 0 -0.026466286454886301 0.0070479524634068369 0 0 0 -0.0016125256891417195 -0.047491408207773242 0.0059557983511007544 0 0.0059557983511007544 -0.0044744300477061495 0 0 0 -0.012991459563869847 -0.050067726844828027 -0.014387801588410448 0 -0.014387801588410448 -0.014550485207608472 0 0 0 -0.016154553013109113 -0.012235458316447076 0.0064711934071008123 0 0.0064711934071008123 -0.0046855269410642462 0 0 0 -0.0042302463143778276 -0.022688038973061569 -0.023838245758015748 0 -0.023838245758015748 0.026453613995391589 0 0 0 0.00094139375558255356 -0.07334316083468706 0.013118417026389807 0 0.013118417026389807 -0.0011834813171422986 0 0 0 -0.018631660537957284 -0.0032403039390610511 -0.01357956140635741 0 -0.01357956140635741 0.032540153229786539 0 0 0 0.007324962322681372 -0.037324554466163784 -0.025848660936039214 0 -0.025848660936039214 0.0035040456631001415 0 0 0 -0.0084551272007659106 -0.041953293475416376 -0.0075850139042926285 0 -0.0075850139042926285 0.043634776766625805 0 0 0 0.0004203708228023538 -0.10208223447420439 -0.011694931693501262 0 -0.011694931693501262 -0.0027572607048042264 0 0 0 -0.026209873794752162 -0.06966709457032462 0.0036176528691412614 0 0.0036176528691412614 -0.0012789573966489262 0 0 0 -0.017736512991743388 0.0014797161106768764 0.0067392593967376402 0 0.0067392593967376402 0.00021711536608515214 0 0 0 0.00042420786919050019 -0.015726634574570287 0.0048066430806164261 0 0.0048066430806164261 -0.0078289360145790063 0 0 0 -0.0058888926472873233 -0.038688570562011054 -0.016573108051867062 0 -0.016573108051867062 0.0080018245979737723 0 0 0 -0.0076716864910092997 -0.10418276736244707 -0.013885107174105181 0 -0.013885107174105181 -0.0012568580687929293 0 0 0 -0.026359906357809985 -0.071774387440400336 0.005345100388191042 0 0.005345100388191042 -0.00047177166809871107 0 0 0 -0.018061539777124762 -0.026732366508239316 0.0068828773181972436 0 0.0068828773181972436 0.044584202112149543 0 0 0 0.0044629589009775551 -0.02338903922672686 -0.024881971430678093 0 -0.024881971430678093 -0.00033168426129170925 0 0 0 -0.0059301808720046978 -0.025468213952567709 0.039559942122082081 0 0.039559942122082081 -0.0015598717063829426 0 0 0 -0.0067570214147378849 -0.064850057757053034 0.0030347657992959159 0 0.0030347657992959159 0.0067601656282333493 0 0 0 -0.014522473032204952 -0.054490624536887279 -0.0020747724296309999 0 -0.0020747724296309999 0.0082084421630709697 0 0 0 -0.011570545593454069 -0.020761031094356664 -0.0079855552468908395 0 -0.0079855552468908395 0.015836101429410998 0 0 0 -0.0012312324162364087 -0.024311641458583545 -0.0080904837982933575 0 -0.0080904837982933575 0.022073428089227468 0 0 0 -0.00055955334233899739 -0.032043878554635245 -0.0079930557597961728 0 -0.0079930557597961728 -0.016721898286105312 0 0 0 -0.012191444210185139 -0.030028898240050561 -0.0047861514607436236 0 -0.0047861514607436236 -0.014581562365306132 0 0 0 -0.011152615151339168 -0.035531349696674153 0.0037867183148712668 0 0.0037867183148712668 -0.008769133531219532 0 0 0 -0.011075120806973426 -0.034799525248619088 0.0058791132542978216 0 0.0058791132542978216 -0.0083890991636012616 0 0 0 -0.010797156103055087 -0.022775024415300216 -0.0052197167131277644 0 -0.0052197167131277644 -0.0059954617588067194 0 0 0 -0.0071926215435267338 -0.033907417213261105 0.0012709634528605884 0 0.0012709634528605884 0.047905105743312575 0 0 0 0.003499422132512879 -0.0050564028005403664 0.0080257959427389933 0 0.0080257959427389933 -0.0013020997109325985 0 0 0 -0.0015896256278682425 -0.018566198315007831 0.041124718947242254 0 0.041124718947242254 0.0036139520311069262 0 0 0 -0.0037380615709754483 -0.033564320278137827 -0.024470756431910379 0 -0.024470756431910379 -0.0011578537004763856 0 0 0 -0.0086805434946535254 -0.012253153701435537 0.046878188126314724 0 0.046878188126314724 0.0030706733107903617 0 0 0 -0.0022956200976613772 -0.0015697399329773869 -0.0061858606364411893 0 -0.0061858606364411893 -0.0021768920359751323 0 0 0 -0.00093665799223812893 0.0035760191968239111 0.0013484745258636466 0 0.0013484745258636466 0.0066866820355198642 0 0 0 0.0025656753080859421 -0.046729019885320078 0.047330398100136173 0 0.047330398100136173 0.00023702407506842604 0 0 0 -0.011622998952562913 -0.029292170320047828 0.050482263377071179 0 0.050482263377071179 0.002706344854084719 0 0 0 -0.0066464563664908605 -0.075803656814828063 -0.0076711792079675947 0 -0.0076711792079675947 -0.0094604291126924832 0 0 0 -0.021316021481880134 -0.058629319604231303 0.0020065158213306879 0 0.0020065158213306879 -0.0067530050042853432 0 0 0 -0.016345581152129154 -0.020540903983090053 -0.024671315393841473 0 -0.024671315393841473 0.01320987996839329 0 0 0 -0.0018327560036742185 0.0026423581799467355 -0.0021495248760620834 0 -0.0021495248760620834 0.051977783017535972 0 0 0 0.013655035299370732 0.00067463301273185117 -0.0015886052024141062 0 -0.0015886052024141062 0.096665273636286075 0 0 0 0.024334976662254426 -0.033805408877256075 0.0031212219904402233 0 0.0031212219904402233 0.029087943065792557 0 0 0 -0.0011793664528658744 -0.0012050053365995142 0.011829517347493636 0 0.011829517347493636 0.00277871150003485 0 0 0 0.00039342654085883222 -0.0081658235782450239 -0.0023165648192554206 0 -0.0023165648192554206 -0.025038254388728309 0 0 0 -0.0083010194917433333 -0.017091574747909788 -0.0031730540071650271 0 -0.0031730540071650271 -0.028011228224405049 0 0 0 -0.011275700743078654 -0.025253926887612924 -0.010501292099799414 0 -0.010501292099799414 -0.008122454689553027 0 0 0 -0.0083440953942914842 -0.020494703312460394 0.015454969082295822 0 0.015454969082295822 -0.0072306936771291408 0 0 0 -0.0069313492473973559 -0.014058284073852845 -0.026684719429192483 0 -0.026684719429192483 0.012155378257500932 0 0 0 -0.00047572645408794356 -0.0036635713057739383 0.0081729815706117481 0 0.0081729815706117481 -0.0030495647794892555 0 0 0 -0.0016782840213157568 -0.0049226125001631815 -0.012150943120522811 0 -0.012150943120522811 0.015872804949507713 0 0 0 0.0027375481123361189 -0.01724935691893803 0.033686084815938822 0 0.033686084815938822 -0.0010276329134817352 0 0 0 -0.0045692474581049414 -0.015991854258652127 -0.019182996156214549 0 -0.019182996156214549 -0.0095509744614369341 0 0 0 -0.0063857071800225151 -0.013404891301542118 0.0047402959299107199 0 0.0047402959299107199 -0.0082430364033868053 0 0 0 -0.0054119819262322313 -0.010063767458257447 0.0068969170485766017 0 0.0068969170485766017 -0.0052693381942094386 0 0 0 -0.0038332764131167214 -0.01894927432004101 0.037127153395550172 0 0.037127153395550172 0.0091346151509226203 0 0 0 -0.0024536647922797084 -0.019276740066826448 -0.019842774269033914 0 -0.019842774269033914 -6.0720583539453088e-05 0 0 0 -0.004834365162591503 -0.057266729803422754 -0.010152818066893565 0 -0.010152818066893565 -0.015340660109414945 0 0 0 -0.018151847478209422 -0.048323851871664339 0.0044879232595234197 0 0.0044879232595234197 -0.010147528537096665 0 0 0 -0.01461784510219025 0.0048134887666356763 0.050151069663703474 0 0.050151069663703474 0.015127012424303921 0 0 0 0.0049851252977349825 -0.089438888114582907 -0.0049700115276626426 0 -0.0049700115276626426 -0.015104177628111903 0 0 0 -0.026135766435673703 -0.065669159133410857 -6.4296359475321183e-05 0 -6.4296359475321183e-05 -0.01027790971094384 0 0 0 -0.018986767211088669 -0.030613472381020301 0.012760208724404754 0 0.012760208724404754 -0.0057855579024495007 0 0 0 -0.0090997575708673395 -0.0091580089517871999 -0.017357848119638586 0 -0.017357848119638586 0.040612333309272053 0 0 0 0.007863581089371241 -0.032251132032166688 -0.010141749598069905 0 -0.010141749598069905 0.056978744916414567 0 0 0 0.0061819032210619768 -0.057075367787997128 -0.0057610554444350592 0 -0.0057610554444350592 0.054387676562581255 0 0 0 -0.0006719228063539473 -0.038867402705985488 -0.023937569118011613 0 -0.023937569118011613 0.0073097628410887516 0 0 0 -0.0078894099662242256 -0.016983828424332936 -0.017232387576546652 0 -0.017232387576546652 0.00071366367281325283 0 0 0 -0.0040675411878799139 -0.043878099629731437 0.053102665392132709 0 0.053102665392132709 0.013110492161561238 0 0 0 -0.0076919018670424943 -0.085454967563971751 0.031156312147012366 0 0.031156312147012366 0.017827453628827206 0 0 0 -0.016906878483786136 -0.05679332887390981 -0.013475603870855626 0 -0.013475603870855626 0.0076032674907544617 0 0 0 -0.012297515345788879 0.0014500935083596178 -0.035563496821419432 0 -0.035563496821419432 0.026823921836878872 0 0 0 0.0070685038363096642 -0.013948930114188018 0.0027272979310379308 0 0.0027272979310379308 0.022826182510205101 0 0 0 0.0022193130990043053 -0.017229003058387038 -0.0089823444733297675 0 -0.0089823444733297675 0.042987140335115304 0 0 0 0.0064395343191820387 -0.037964038719607192 -0.012666955392568117 0 -0.012666955392568117 0.031088742277552955 0 0 0 -0.0017188241105135678 -0.036133347052862225 -0.0098808634264756535 0 -0.0098808634264756535 0.029069587043895853 0 0 0 -0.0017659400022415964 -0.017726731398010617 0.017911590110135784 0 0.017911590110135784 0.066693075658849826 0 0 0 0.012241586065209809 -0.0073287151739228618 -0.018154008726871909 0 -0.018154008726871909 0.036210273308492913 0 0 0 0.0072203895336425128 -0.012198164336369333 0.031646705465488756 0 0.031646705465488756 0.02831391258692495 0 0 0 0.0040289370626387377 -0.015160974064161281 -0.011474522618510785 0 -0.011474522618510785 -0.0057846862545356537 0 0 0 -0.005236415079674317 -0.02999445018262388 0.011230343281828273 0 0.011230343281828273 0.039685018801041569 0 0 0 0.0024226421546044152 -0.028193936822662333 -0.0062211020674102779 0 -0.0062211020674102779 0.0059811807061179376 0 0 0 -0.0055531890291361276 -0.019029319694922942 -0.0058898946081446801 0 -0.0058898946081446801 -0.022357834624729844 0 0 0 -0.010346788579913224 -0.016350034135071197 0.016096778508303558 0 0.016096778508303558 0.025686742004678992 0 0 0 0.0023341769674019431 -0.016933235127577766 -0.0019816264330958545 0 -0.0019816264330958545 -0.015649803179743061 0 0 0 -0.0081457595768302075 -0.079950625714143908 -0.0069433240323258059 0 -0.0069433240323258059 0.0011916278060695173 0 0 0 -0.019689749477018625 -0.034081380035698654 -0.0076475882067110765 0 -0.0076475882067110765 -0.015306591105370559 0 0 0 -0.012346992785267305 -0.0064313252405047826 0.0086823947110868504 0 0.0086823947110868504 -0.0023187565403019438 0 0 0 -0.0021875204452016812 -0.028028081822983796 0.0091377889859449724 0 0.0091377889859449724 0.057485399167334673 0 0 0 0.007364329336087716 -0.1362746123794254 0.014902852712559003 0 0.014902852712559003 0.0016712330973640555 0 0 0 -0.03365084482051528 -0.016623221675691979 0.0044724948562639439 0 0.0044724948562639439 -0.0086018695405720297 0 0 0 -0.0063062728040660012 -0.0075895328628341474 0.0006458319011438448 0 0.0006458319011438448 -0.0068150704696635506 0 0 0 -0.003601150833124428 -0.032116120469181816 -0.014509215445122375 0 -0.014509215445122375 0.0028971489911122361 0 0 0 -0.0073047428695173673 -0.041773337696014601 -0.019449905454110628 0 -0.019449905454110628 0.00028386341040764762 0 0 0 -0.010372368571401835 -0.022302131346007475 -0.0084849146554252207 0 -0.0084849146554252207 -0.014465743516069779 0 0 0 -0.0091919687155193122 -0.012912233021792327 0.0035120641864565426 0 0.0035120641864565426 -0.0094079525178499147 0 0 0 -0.0055800463849105609 -0.010685983655593439 -0.0034695765732704678 0 -0.0034695765732704678 -0.004614824953292785 0 0 0 -0.0038252021522215563 -0.033205134244098058 -0.016275637756939701 0 -0.016275637756939701 0.0096446837363791116 0 0 0 -0.0058901126269297471 -0.01554312952106443 0.0014377615735578497 0 0.0014377615735578497 0.0093502593419889646 0 0 0 -0.0015482175447688318 -0.068886015551613472 -0.026049202046970317 0 -0.026049202046970317 -0.0047075463731590939 0 0 0 -0.018398390481193141 0.00081656853595779566 0.017643407586099169 0 0.017643407586099169 0.077112194856757688 0 0 0 0.019482190848178815 -0.02130422925584298 -0.0081512383181374659 0 -0.0081512383181374659 -0.0034128359256250795 0 0 0 -0.0061792662953670391 -0.010708337943162704 0.0053742876669156062 0 0.0053742876669156062 -0.0077034012038819386 0 0 0 -0.0046029347867611609 -0.008114585611554103 0.0060549697683576712 0 0.0060549697683576712 -0.0077563389884708726 0 0 0 -0.0039677311500062439 -0.022447833787297977 0.016928820994035143 0 0.016928820994035143 0.001586038261546463 0 0 0 -0.0052154488814379896 -0.019218676818042568 -0.023509605724613997 0 -0.023509605724613997 0.022514708892046542 0 0 0 0.00082400801850091021 -0.010279005620325807 0.010631007187607235 0 0.010631007187607235 0.0062349872802429096 0 0 0 -0.0010110045850207239 -0.016109428231047617 0.0091872375770816229 0 0.0091872375770816229 0.0053909732030058694 0 0 0 -0.0026796137570104326 -0.011140001984089619 0.0060423739503822037 0 0.0060423739503822037 -0.0063759005288725589 0 0 0 -0.0043789756282405405 -0.060350847817170122 0.0054360980716779052 0 0.0054360980716779052 -0.0011179088776920032 0 0 0 -0.015367189173715518 -0.033424511876585405 -0.0010495196237078029 0 -0.0010495196237078029 0.011834679611149618 0 0 0 -0.0053974580663589469 -0.020628198624216221 -0.0041926060042189323 0 -0.0041926060042189323 0.014112712456850945 0 0 0 -0.0016288715418413258 -0.066581995107742278 0.0059524279889923877 0 0.0059524279889923877 -0.0025823919641568861 0 0 0 -0.017291096767974773 0.040567981596486571 0.069099604636050027 0 0.069099604636050027 0.047285434573011986 0 0 0 0.021963354042374608 -0.018189387741323504 0.030826388779328043 0 0.030826388779328043 -0.0036896202998599748 0 0 0 -0.0054697520102964248 -0.016749272181563191 -0.025794429181864219 0 -0.025794429181864219 -0.0031530250829123752 0 0 0 -0.0049755743161188359 -0.024807638892379177 0.0030358580090664097 0 0.0030358580090664097 0.0063858549233635582 0 0 0 -0.0046054459922539072 -0.014892340240764053 0.0036503650904338748 0 0.0036503650904338748 -0.0076299948419665947 0 0 0 -0.0056305837706826616 0.011002946664212157 -0.0023044148663641691 0 -0.0023044148663641691 0.013650660772968781 0 0 0 0.006163401859295245 -0.024880261569603546 -0.01011342800617146 0 -0.01011342800617146 -0.0055222581704789109 0 0 0 -0.0076006299350206419 -0.026444085658891406 -0.012788318290205825 0 -0.012788318290205825 -0.0097996146697250097 0 0 0 -0.0090609250821541421 -0.016195829671924997 0.0064104077248720104 0 0.0064104077248720104 -0.00093046538706341095 0 0 0 -0.0042815737647471028 -0.063021528957639933 -0.014073947380756541 0 -0.014073947380756541 0.00068887538912221213 0 0 0 -0.015583163392129395 -0.052338126820201336 -0.018949181837202234 0 -0.018949181837202234 0.004285879814955984 0 0 0 -0.012013061751311283 -0.014216400916576236 0.001726688233771399 0 0.001726688233771399 -0.0047430853267355633 0 0 0 -0.0047398715608279497 -0.076178604437871167 0.040395581214828558 0 0.040395581214828558 0.0064869332670123292 0 0 0 -0.017422917792714654 -0.099551151602650156 0.030610171054665625 0 0.030610171054665625 -0.00032621369655894128 0 0 0 -0.024969341324802219 -0.0091201855237143525 0.0076610855870653943 0 0.0076610855870653943 0.013746647314218374 0 0 0 0.0011566154476260193 -0.010652970087158598 -0.013564202156466143 0 -0.013564202156466143 0.027619278251751367 0 0 0 0.0042415770411481923 -0.00033476642970075438 -0.015330489355206409 0 -0.015330489355206409 0.0046839710782566879 0 0 0 0.0010873011621390025 -0.021365383123468307 -0.00010318920213558957 0 -0.00010318920213558957 -0.018704736773917208 0 0 0 -0.010017529974346406 0.020929870927483496 0.034827387631064417 0 0.034827387631064417 0.079864297081748692 0 0 0 0.025198542002308033 -0.017472440889084256 -0.00566141581044231 0 -0.00566141581044231 -0.011727233977221547 0 0 0 -0.0072999187165764465 -0.028657898551861488 -0.011682040990645431 0 -0.011682040990645431 0.024385062897811866 0 0 0 -0.0010682089135124195 0.036169727464153811 0.025648935702819897 0 0.025648935702819897 0.015210184912828328 0 0 0 0.012844978094245563 -0.024699367122535506 0.0024300624873897221 0 0.0024300624873897221 0.0052938835761724857 0 0 0 -0.0048513708865907564 -0.017674750683948415 0.03460927171784034 0 0.03460927171784034 -0.0036233843818171962 0 0 0 -0.005324533766441486 -0.015706064777628204 -0.021842514828434467 0 -0.021842514828434467 -0.0015574030188625354 0 0 0 -0.0043158669491227264 -0.023915660265322995 0.0035099911615717691 0 0.0035099911615717691 -0.0030872817524838277 0 0 0 -0.0067507355044517069 -0.045906633519386467 -0.01186744257827751 0 -0.01186744257827751 0.044297902584661819 0 0 0 -0.00040218273368119312 -0.016420634241859355 0.028312486120648295 0 0.028312486120648295 0.038494119918210501 0 0 0 0.0055183714190876199 -0.015900978081181905 -0.011026404671561574 0 -0.011026404671561574 0.0011481013404450735 0 0 0 -0.0036882191851840829 -0.10069950316203678 0.0020870123574426554 0 0.0020870123574426554 0.0010013174889874354 0 0 0 -0.024924546418262319 -0.17970478062264883 -0.0067045762275191158 0 -0.0067045762275191158 0.0014567576188405651 0 0 0 -0.044562005750952031 -0.017316258384347027 0.0135354675406072 0 0.0135354675406072 0.07612603398669604 0 0 0 0.014702443900587225 -0.049622257945533002 0.0076159803349784717 0 0.0076159803349784717 -0.00026832496476368595 0 0 0 -0.012472645727574182 0.014336687712126961 -0.00084873618210096202 0 -0.00084873618210096202 0.036163620540754213 0 0 0 0.012625077063220335 0.0092724129002990097 0.0030836432628777999 0 0.0030836432628777999 0.056999500325844665 0 0 0 0.016567978306535891 0.009536877703793023 -0.005355519314425905 0 -0.005355519314425905 0.10793349748916836 0 0 0 0.029367593798240443 0.020036314041366021 -0.0015241987740474139 0 -0.0015241987740474139 0.081986577405893102 0 0 0 0.025505722861814795 -0.01445465165988373 0.008398235876637794 0 0.008398235876637794 -0.010976134878361465 0 0 0 -0.0063576966345613578 -0.015148971912041398 -0.015123830892858486 0 -0.015123830892858486 -0.0030228107739782573 0 0 0 -0.0045429456715049277 -0.0085717455740838278 0.0025744222318604404 0 0.0025744222318604404 0.078874812271713668 0 0 0 0.017575766674407467 -0.011322283388284726 -0.008171816746006394 0 -0.008171816746006394 0.038369015608068047 0 0 0 0.006761683054945844 -0.048917411445301318 0.0043005800257460633 0 0.0043005800257460633 0.035879689542488519 0 0 0 -0.0032594304757031997 -0.0040651590155815764 0.02526659348994964 0 0.02526659348994964 0.014987567724597639 0 0 0 0.0027306021772539601 -0.0067986907136940999 0.008608220699869884 0 0.008608220699869884 -0.0050788302835567123 0 0 0 -0.0029693802493127031 -0.0052854370540040829 -0.0067936080798443044 0 -0.0067936080798443044 -0.0041376422640175825 0 0 0 -0.0023557698295053608 -0.0057774802863226338 -0.021078083834590366 0 -0.021078083834590366 0.0023889017418294856 0 0 0 -0.00084714463612334256 -0.018347559641743151 0.0057455793926775092 0 0.0057455793926775092 -0.0014972666844824054 0 0 0 -0.0049612065815563891 -0.014105109000450922 0.025764300601577972 0 0.025764300601577972 0.028622296560668892 0 0 0 0.0036292968900544231 -0.0036730239725528413 -0.0060637451093890071 0 -0.0060637451093890071 -0.0028546129165726575 0 0 0 -0.0016319092222812637 -0.03530847606599373 -0.0028354036730419765 0 -0.0028354036730419765 0.057417400438423825 0 0 0 0.0055272310931075326 -0.0047157072063368499 0.0078768018891131053 0 0.0078768018891131053 -0.0042361385478901781 0 0 0 -0.0022379614385563684 -0.012742668980180061 -0.022197555809556069 0 -0.022197555809556069 0.013831978335526962 0 0 0 0.00027232733883664206 -0.0048489121741127073 -0.02031659986976736 0 -0.02031659986976736 0.01597774415238451 0 0 0 0.0027822079945679645 -0.034005692027062238 -0.017241786817063239 0 -0.017241786817063239 0.0060227148910741435 0 0 0 -0.0069957442839970671 -0.033212075570028088 -0.016119456938973931 0 -0.016119456938973931 0.007742341376872186 0 0 0 -0.0063674335482889755 -0.017741279440113993 -0.0085656478980336327 0 -0.0085656478980336327 -0.0082438598711785591 0 0 0 -0.0064962848278231466 -0.017694411911242741 0.059506815197311713 0 0.059506815197311713 0.01317187602452552 0 0 0 -0.0011306339716792013 -0.062280095541038666 -0.0067587718791058404 0 -0.0067587718791058404 -0.00020412345682269128 0 0 0 -0.015621054749465318 0.017212156770318426 -0.015791175745015103 0 -0.015791175745015103 0.026932918386853424 0 0 0 0.011036268789292966 -0.011718423838689943 -0.0086834514558302156 0 -0.0086834514558302156 0.01662224472989321 0 0 0 0.0012259552228008064 -0.0028226304785290493 0.016963808492629847 0 0.016963808492629847 0.0139519771239041 0 0 0 0.0027823366613437574 -0.021985563435598432 -0.0089573492579585884 0 -0.0089573492579585884 -0.013342488655674778 0 0 0 -0.0088320130228183302 -0.02375849838508548 -0.010168492417129957 0 -0.010168492417129957 -0.017500972939483161 0 0 0 -0.01031486783114216 -0.20573574707807002 0.003400097259312675 0 0.003400097259312675 0.0055379114153062403 0 0 0 -0.050049458915691014 -0.10895654409830045 -0.0015081095541273485 0 -0.0015081095541273485 0.0023925554441615038 0 0 0 -0.026640997163534713 -0.022539036364996708 -0.0040725484987515354 0 -0.0040725484987515354 -0.0075146861689055862 0 0 0 -0.007513430633475573 -0.02801798447776177 0.0050527264849887805 0 0.0050527264849887805 -0.009339073802334931 0 0 0 -0.0093392645700241753 0.003225927870347943 0.0053600965789909819 0 0.0053600965789909819 0.0031781310052574896 0 0 0 0.0016010147189013529 -0.010345296899661542 0.015032706631925769 0 0.015032706631925769 0.016112466001571742 0 0 0 0.0014417922754775426 -0.0057615818721559083 0.010178293033286122 0 0.010178293033286122 0.0024357906304342189 0 0 0 -0.00083144781043043015 -0.091030008331141388 -0.01265618088218172 0 -0.01265618088218172 -0.0087040103844698603 0 0 0 -0.024933504678902839 -0.066381462962899998 0.0040072059071374691 0 0.0040072059071374691 -0.0042238435765469401 0 0 0 -0.017651326634861738 0.041090780435205643 0.02819329666163789 0 0.02819329666163789 0.01914773676613768 0 0 0 0.015059629300335775 -0.074911513662902454 -0.011863310863325597 0 -0.011863310863325597 -0.0050545855696322115 0 0 0 -0.019991524808133668 -0.058532654922953148 0.0039548232694323398 0 0.0039548232694323398 -0.0026810832213131561 0 0 0 -0.015303434536066583 -0.027518761244855527 -0.0028768043713363542 0 -0.0028768043713363542 -0.007684158428108101 0 0 0 -0.0088007299182408794 0.03416958166435341 0.077536878377755969 0 0.077536878377755969 0.047915815950518637 0 0 0 0.020521349403718026 0.00023310612628373376 0.0079956265750451491 0 0.0079956265750451491 -0.0028216993470638885 0 0 0 -0.00064714830519504302 -0.023082960404918404 -0.0071828310708744597 0 -0.0071828310708744597 0.0071990895794077359 0 0 0 -0.0039709677063776566 -0.044840968074169554 -0.0073337922474218916 0 -0.0073337922474218916 -0.014943906692394088 0 0 0 -0.01494621869164091 -0.041544458591983517 0.0041727972653719126 0 0.0041727972653719126 -0.013845009373314633 0 0 0 -0.013847366991324536 -0.089216204046651357 0.0033355793926463056 0 0.0033355793926463056 -0.00050733782690819129 0 0 0 -0.022430885468389887 -0.14624167987025577 -0.0084859679596674537 0 -0.0084859679596674537 -0.0010214160627676772 0 0 0 -0.036815773983255848 -0.052487033241316788 -0.0069988229270585289 0 -0.0069988229270585289 0.019160501824075193 0 0 0 -0.0083316328543104334 0.012057756251437707 -0.013074148000389529 0 -0.013074148000389529 0.020582288064328602 0 0 0 0.0081600110789416258 -0.042008220569398222 -0.0081271709879887008 0 -0.0081271709879887008 0.042201203212021435 0 0 0 4.8245660655792805e-05 -0.016298669075329002 0.012237021096152118 0 0.012237021096152118 0.024369944403380465 0 0 0 0.0020178188320128607 -0.025234851116416671 0.0079516337468934113 0 0.0079516337468934113 0.027769814444504475 0 0 0 0.00063374083202194422 0.008792877866029572 0.016464573596102795 0 0.016464573596102795 0.022421446868353165 0 0 0 0.0078035811835956981 0.018912546024934938 0.01292439415210863 0 0.01292439415210863 0.01212713775436626 0 0 0 0.0077599209448253048 -0.015972614920136796 -0.011379114182183014 0 -0.011379114182183014 -0.02428647457428712 0 0 0 -0.010064772373605979 -0.043755153484771998 -0.013463890526118794 0 -0.013463890526118794 0.020298934968243164 0 0 0 -0.0058640546291323162 -0.047700779059171319 -0.023561279965536683 0 -0.023561279965536683 0.048707066182813258 0 0 0 0.00025157178091046728 -0.0092794798768560012 -0.04028967743402169 0 -0.04028967743402169 0.078924993208641603 0 0 0 0.017411378332946408 -0.083588772459772129 0.0030688976425591527 0 0.0030688976425591527 -0.00048731923726609561 0 0 0 -0.02101902292425956 -0.1312910363566232 -0.0072598540051801415 0 -0.0072598540051801415 -0.0011379314573777694 0 0 0 -0.03310724195350024 -0.0011270992759162242 -0.0015744283612572074 0 -0.0015744283612572074 -0.026775448011743773 0 0 0 -0.0069756368219150129 -0.0074442393004773566 -0.023986931892888294 0 -0.023986931892888294 0.059248910808740396 0 0 0 0.012951167877065767 -0.0078578433670421326 0.0092793891185932332 0 0.0092793891185932332 -0.0023643352331008637 0 0 0 -0.0025555446500357499 -0.071508116503626568 -0.011691766492568855 0 -0.011691766492568855 -0.011169079052718741 0 0 0 -0.020669298889086331 -0.056016755004001266 0.0042363939708031911 0 0.0042363939708031911 -0.0063269777908413483 0 0 0 -0.015585933198710652 -0.025880990309946957 0.0032372704025919082 0 0.0032372704025919082 -0.0036141521696978814 0 0 0 -0.0073737856199112151 -0.041820837071363817 -0.0048481377778865197 0 -0.0048481377778865197 0.046010666560705113 0 0 0 0.0010474573723353257 -0.017404743404272699 -0.011741625550644619 0 -0.011741625550644619 0.012399560224638007 0 0 0 -0.0012512957949087078 -0.027575868702456385 0.0048609618992826861 0 0.0048609618992826861 -0.0020003055920105491 0 0 0 -0.0073940435736167317 -0.052353237326092761 0.013270318387646585 0 0.013270318387646585 0.00054526730472748142 0 0 0 -0.012951992505341514 -0.01095959204258895 -0.016737290906073565 0 -0.016737290906073565 0.036396677807387201 0 0 0 0.0063592714411996876 -0.0049693087993403218 -0.014690408929349308 0 -0.014690408929349308 0.030770839333936317 0 0 0 0.0064503826336489434 -0.030160080086557815 -0.019769567059927662 0 -0.019769567059927662 0.031728029541108038 0 0 0 0.00039198736363755399 -0.033888292091092204 -0.012168678337752051 0 -0.012168678337752051 0.023229417907513483 0 0 0 -0.0026647185458946732 -0.025625730917298764 -0.00058929137209299924 0 -0.00058929137209299924 0.019324289400607507 0 0 0 -0.0015753603791728165 -0.040350299277365276 -0.0052642049440811073 0 -0.0052642049440811073 0.043916305385207841 0 0 0 0.00089150152696064119 0.00080454942426255727 0.022805738303456558 0 0.022805738303456558 0.08583634350572833 0 0 0 0.021660223232497611 0.00014187898229989226 8.1727224630956385e-05 0 8.1727224630956385e-05 0.00060682058900152214 0 0 0 0.00018717489282527033 -0.0021573692537145139 -0.01837700383367169 0 -0.01837700383367169 0.04482494321729602 0 0 0 0.010666893490895391 0.00032882895209751517 -0.00028894225254294525 0 -0.00028894225254294525 0.00070215454166899782 0 0 0 0.00025774587344162825 -0.025550242343271794 0.0026449065346001582 0 0.0026449065346001582 0.020916727770946275 0 0 0 -0.0011583786430813788 -0.027198784421360315 0.00026058587352160122 0 0.00026058587352160122 0.013456543186415501 0 0 0 -0.003435560308736204 -0.025705342226691737 -0.0080014695182716589 0 -0.0080014695182716589 0.019040619441595442 0 0 0 -0.0016661806962740729 -0.11621910776207442 -0.01284892810484476 0 -0.01284892810484476 0.0013471567995205214 0 0 0 -0.02871798774063844 -0.13450701120734432 -0.018944478953429614 0 -0.018944478953429614 0.0018210563473244623 0 0 0 -0.033171488715004957 -0.022107162652396962 -0.01987772187280918 0 -0.01987772187280918 -0.0017621569077086938 0 0 0 -0.005967329890026421 -0.034653615833216606 -2.0704882148586679e-05 0 -2.0704882148586679e-05 0.0050423703203991005 0 0 0 -0.0074028113782043763 -0.011261865957949285 -0.02700855047733533 0 -0.02700855047733533 0.044039465000267092 0 0 0 0.0081943997605794516 -0.054205215595563017 0.0050029781405610749 0 0.0050029781405610749 -0.005661163410578234 0 0 0 -0.014966594751535309 -0.045869683574467884 0.0044976336547745592 0 0.0044976336547745592 -0.0073647376456496723 0 0 0 -0.013308605305029395 -0.049920797610371645 -0.010908027212365504 0 -0.010908027212365504 -0.013388820027749855 0 0 0 -0.015827404409530364 -0.066527704236626295 -0.013014992759141452 0 -0.013014992759141452 -0.012943249306510184 0 0 0 -0.019867738385784119 -0.050389279060724101 -0.018649679429875082 0 -0.018649679429875082 0.00073308711547936944 0 0 0 -0.012414047986311183 -0.039130564549735625 -0.019956527355468844 0 -0.019956527355468844 0.0012366339338951704 0 0 0 -0.0094734826539600858 -0.024412220384088096 -0.0037271753886004596 0 -0.0037271753886004596 -0.013876337159529479 0 0 0 -0.0095721393859043956 -0.023482686745815867 -0.0046770832758593669 0 -0.0046770832758593669 -0.014622275283648197 0 0 0 -0.0095262405073660156 -0.028223264042134384 0.0059356247481555675 0 0.0059356247481555675 -0.0077890191768098509 0 0 0 -0.0090030708047360592 -0.030765603079092985 0.0041796465803655564 0 0.0041796465803655564 -0.010072762579199472 0 0 0 -0.010209591414573112 -0.021106717789241003 0.038056146093652821 0 0.038056146093652821 0.00084718824966145689 0 0 0 -0.0050648823848948865 -0.022233721753534441 -0.023430632302812615 0 -0.023430632302812615 -0.0044811301698146622 0 0 0 -0.0066787129808372203 -0.040913186590252316 0.0034983712531693515 0 0.0034983712531693515 -0.0058624043061059686 0 0 0 -0.011693897724089578 -0.033365533471292515 -0.0085902269422990229 0 -0.0085902269422990229 -0.013782348626131122 0 0 0 -0.01178697052435591 -0.025797072930061886 -0.0035168776313375116 0 -0.0035168776313375116 0.0089763971056632669 0 0 0 -0.004205168956099653 -0.048997839847890072 0.0043222696846707742 0 0.0043222696846707742 -0.0041645138216451737 0 0 0 -0.013290588417383812 -0.053327950000304949 -0.012291135415295047 0 -0.012291135415295047 -0.0088998998795395013 0 0 0 -0.015556962469961121 -0.065297179644306369 -0.01205139440911529 0 -0.01205139440911529 0.075233239364869059 0 0 0 0.0024840149301406794 -0.02837077573524906 -0.001467390454831255 0 -0.001467390454831255 0.010458043713780372 0 0 0 -0.0044781830053671687 -0.057731675477590276 -0.0069215501002319888 0 -0.0069215501002319888 -0.019252495339241574 0 0 0 -0.019246042704207961 -0.048274501873242365 0.0028686965802780622 0 0.0028686965802780622 -0.016095788421854895 0 0 0 -0.016092572573774316 0.02182759125743193 0.0094317680410739048 0 0.0094317680410739048 0.024923063041449534 0 0 0 0.011687663574720356 -0.0056887706723595111 -0.0017651968670842066 0 -0.0017651968670842066 -0.033652542394316809 0 0 0 -0.0098353282666691078 -0.042637068731355858 0.0026084147376159092 0 0.0026084147376159092 0.0068438686231442891 0 0 0 -0.0089483000270528801 0.0068883107268917776 -0.022142034693274498 0 -0.022142034693274498 0.014083140826059659 0 0 0 0.0052428628882377759 -0.026188818092482292 0.0038246832444956483 0 0.0038246832444956483 0.021087168655567229 0 0 0 -0.0012754123592287623 -0.03252543696083382 -0.0063448481206940556 0 -0.0063448481206940556 0.022865829804363101 0 0 0 -0.002414901789117678 -0.10721711404693968 -0.0043839482180294456 0 -0.0043839482180294456 -0.0080861143557267798 0 0 0 -0.028825807100666609 -0.075258329745375052 -0.00044368868790101157 0 -0.00044368868790101157 -0.0057436860008739168 0 0 0 -0.020250503936562241 -0.0062584043484404522 -0.013091115453505303 0 -0.013091115453505303 0.02687361334726554 0 0 0 0.0051538022497062685 -0.021350680148896982 0.0077173543353887316 0 0.0077173543353887316 0.013461242924684185 0 0 0 -0.0019723593060531983 -0.028668038667937455 -0.0022206627223471803 0 -0.0022206627223471803 0.0063813062488579566 0 0 0 -0.0055716831047698751 -0.065921608541081603 0.0015884542891882389 0 0.0015884542891882389 0.0038084356794802487 0 0 0 -0.015528293215400321 -0.076813819119455062 0.014662153517214005 0 0.014662153517214005 0.00073002041159231368 0 0 0 -0.019020949676965881 -0.033698415377544408 -0.0012920307183273277 0 -0.0012920307183273277 0.019385008899284961 0 0 0 -0.003578351619564879 -0.034112017788906199 -0.014489904536503409 0 -0.014489904536503409 0.012471256020969962 0 0 0 -0.005410190441984028 -0.032273355968536366 0.00090978212790211732 0 0.00090978212790211732 0.0070197403638506406 0 0 0 -0.0063134039011714382 -0.019971778382652253 0.0072435230005981326 0 0.0072435230005981326 0.017351082022403441 0 0 0 -0.00065517409006220825 -0.039057415302445067 -0.017008634957206864 0 -0.017008634957206864 0.01113113110823491 0 0 0 -0.0069815710485525151 0.043776839126998549 0.012654953573468325 0 0.012654953573468325 0.067209931392272132 0 0 0 0.02774669262981766 -0.037136252982355275 0.0046186610172921491 0 0.0046186610172921491 0.0025807983190829498 0 0 0 -0.0086388636658180779 -0.047064873985583233 0.011181820763117684 0 0.011181820763117684 -0.0021243682988991708 0 0 0 -0.012297310571120823 -0.0082574600170173262 -0.014384364733190047 0 -0.014384364733190047 0.040110529796075434 0 0 0 0.0079632674447644991 0.0035206374991061939 -0.012061251431307374 0 -0.012061251431307374 0.02760145467067987 0 0 0 0.0077805230424465854 -0.088208727036060627 -0.021349118535560083 0 -0.021349118535560083 0.023766283206049291 0 0 0 -0.016110610957502804 0.0021725250456526429 -0.010824965631018372 0 -0.010824965631018372 -0.011532970418604738 0 0 0 -0.0023401113432380202 -0.085801109817450733 0.005567587339738736 0 0.005567587339738736 0.0015860780378499362 0 0 0 -0.021053757944900192 -0.14660772569693106 -0.017673088137514698 0 -0.017673088137514698 0.0043471779030220536 0 0 0 -0.035565136948477315 -0.083852698508531526 0.00078817878629447446 0 0.00078817878629447446 -3.2628754681726657e-05 0 0 0 -0.020971331815803324 -0.14575876637576371 -0.0046578890837000314 0 -0.0046578890837000314 0.0013475720295806348 0 0 0 -0.036102798586545776 -0.065402050712060844 -0.00026146967963489726 0 -0.00026146967963489726 -0.0085676404016290925 0 0 0 -0.018492422778422488 -0.089373710701688439 -0.0038298307945257484 0 -0.0038298307945257484 -0.011105768259791456 0 0 0 -0.02511986974036997 -0.034516772186397565 -0.0093197932686198484 0 -0.0093197932686198484 0.03055663972105039 0 0 0 -0.00099003311633678176 -0.031509039442555453 -0.016193215829514385 0 -0.016193215829514385 0.039334486432987203 0 0 0 0.0019563617476079376 -0.011813491618994504 -0.0023749300938395723 0 -0.0023749300938395723 0.04444086542533271 0 0 0 0.0081568434515845445 -0.0041882999834482459 -0.0015921906892266691 0 -0.0015921906892266691 0.087701940638950815 0 0 0 0.020878410163875621 -0.013437716486993233 0.0044913199215926708 0 0.0044913199215926708 0.026536497380228896 0 0 0 0.003274695223308928 -0.0088870939170082319 0.001123536504012479 0 0.001123536504012479 0.075483485184957122 0 0 0 0.016649097816987243 -0.020140560962931667 -0.0074342818171329039 0 -0.0074342818171329039 0.037736517908263212 0 0 0 0.0043989892363328897 -0.032320681504653163 0.0012402567713736615 0 0.0012402567713736615 0.007722380455899092 0 0 0 -0.0061495752621885079 -0.019596111032955728 -0.015668588552780818 0 -0.015668588552780818 0.032379380437926236 0 0 0 0.0031958173512426219 -0.033457742760311507 -0.01724199718280181 0 -0.01724199718280181 0.028578789986107578 0 0 0 -0.0012197381935509927 -0.029441895083441173 0.00067945598815024027 0 0.00067945598815024027 0.038793729651393022 0 0 0 0.0023379586419879587 -0.10702786891447302 0.013687771473776337 0 0.013687771473776337 -0.0010502245089991646 0 0 0 -0.02701952335586788 -0.040713356268519518 -0.0047738207131725573 0 -0.0047738207131725573 0.041540528105741652 0 0 0 0.00020679295930555591 0.0086720396634532293 -0.012570648684757796 0 -0.012570648684757796 0.11175039875951309 0 0 0 0.030105609605741601 0.048639754254005879 -0.015583173993920868 0 -0.015583173993920868 0.057772125016383402 0 0 0 0.0266029698175973 0.01369341567123683 -0.011951724032706001 0 -0.011951724032706001 0.022914182699314001 0 0 0 0.0091518995926377356 -0.16202320693997807 -0.013474682710596098 0 -0.013474682710596098 0.0041075170477811729 0 0 0 -0.039478922473049238 -0.091584148382776787 0.0048581063106350325 0 0.0048581063106350325 0.0013626009614981886 0 0 0 -0.02255538685531961 -0.041824837690191137 -0.0044156558328675051 0 -0.0044156558328675051 0.044141182536044432 0 0 0 0.00057908621146330816 -0.06440196844298951 0.033325168143635508 0 0.033325168143635508 -0.0054238119968639253 0 0 0 -0.017456445109963248 -0.04579576954768827 0.033282690355988187 0 0.033282690355988187 0.00077825430156952535 0 0 0 -0.011254378811529797 -0.020550742922480159 -0.026084819945680737 0 -0.026084819945680737 0.012611399463930306 0 0 0 -0.0019848358646374908 -0.013830562941385566 -0.023028720978172879 0 -0.023028720978172879 0.014851459457629683 0 0 0 0.00025522412906104291 -0.01661589222533999 -0.016876174411283085 0 -0.016876174411283085 0.045055458133981929 0 0 0 0.0071098914771605681 -0.021190715797299919 0.0088901588278514198 0 0.0088901588278514198 0.00053938913628215346 0 0 0 -0.0051628316652547745 -0.039932600343036917 0.0046086792523594728 0 0.0046086792523594728 -0.0061211964616573657 0 0 0 -0.011513449201173569 -0.037613225144647558 -0.006885313477394777 0 -0.006885313477394777 -0.013119020474347456 0 0 0 -0.012683061404748749 -0.023764276461718161 -0.028930939526978672 0 -0.028930939526978672 0.0056436236690047131 0 0 0 -0.0045301631981784184 -0.023597034238614589 -0.026882931090076417 0 -0.026882931090076417 0.0058999193311941589 0 0 0 -0.0044242787268553574 -0.027435882450740967 -0.027044459664744669 0 -0.027044459664744669 0.0027474664657231584 0 0 0 -0.0061721039962543967 -0.027972407299650781 -0.028944598757183304 0 -0.028944598757183304 0.0045014775176663857 0 0 0 -0.0058677324454960988 -0.040830386815352004 0.04370183450097942 0 0.04370183450097942 -0.0048635791022383357 0 0 0 -0.011423491479397474 -0.030684602111663586 0.040173504317092545 0 0.040173504317092545 -0.0039178666146804479 0 0 0 -0.0086506171815861187 -0.044324095410997674 0.0055866972025458645 0 0.0055866972025458645 -0.011368323898634942 0 0 0 -0.013923104827408156 -0.05221048323278224 -0.011299576758615988 0 -0.011299576758615988 -0.016331936212825148 0 0 0 -0.017135604861401844 -0.07886591589838729 -0.0088610967206942948 0 -0.0088610967206942948 0.006258477528158557 0 0 0 -0.018151859592557246 -0.13713934364459493 0.019983680386397404 0 0.019983680386397404 0.0092755813032712187 0 0 0 -0.031965940585331032 -0.062734206315189361 0.0078792367617215309 0 0.0078792367617215309 0.0014242322151012121 0 0 0 -0.015327493525022037 -0.019174964857793284 0.0071061389228600979 0 0.0071061389228600979 0.0066593915525598422 0 0 0 -0.0031288933263083638 -0.0051789635048118954 -0.01060577744975344 0 -0.01060577744975344 -0.020808641555678742 0 0 0 -0.0064969012651227009 -0.099050999341747048 -0.018142831362222715 0 -0.018142831362222715 0.0012435777871830089 0 0 0 -0.024451855388640996 -0.13004821383455803 -0.015366341051656025 0 -0.015366341051656025 -0.0030255533151113817 0 0 0 -0.033268441787417349 -0.011702859889138488 0.000579306690296406 0 0.000579306690296406 -0.01287350714297125 0 0 0 -0.0061440917580274368 -0.024871227919085817 0.0062323321080710037 0 0.0062323321080710037 0.051678931183313598 0 0 0 0.006701925816056914 -0.092538056685881928 -0.0011089652459913696 0 -0.0011089652459913696 -9.2753521023031249e-05 0 0 0 -0.023157702551726188 -0.1682640015884892 0.0014276446514174257 0 0.0014276446514174257 -0.00048072025038164989 0 0 0 -0.04218618045971767 -0.05169253729625993 -0.0051854473066486606 0 -0.0051854473066486606 0.0070266556701477634 0 0 0 -0.011166470406528059 -0.07453207922286556 -0.016712424664437807 0 -0.016712424664437807 -0.009785520330717886 0 0 0 -0.021079399888395856 -0.054451011727084941 -0.016080731372546422 0 -0.016080731372546422 -0.006801632552426628 0 0 0 -0.015313161069877911 0.0007137123498081599 0.06622812014688674 0 0.06622812014688674 0.13074728491842014 0 0 0 0.032865249317057088 -0.12071115758198542 -0.0066705706977226373 0 -0.0066705706977226373 8.4285179255155773e-05 0 0 0 -0.03015671810068259 -0.077407975402736251 0.0028114126916591042 0 0.0028114126916591042 0.00034354634352348062 0 0 0 -0.019266107264803184 -0.023763266483262629 -0.010454863411134219 0 -0.010454863411134219 -0.012843184252768203 0 0 0 -0.009151612684007715 -0.026301017532819132 -0.010549581687898359 0 -0.010549581687898359 -0.0090353246198182635 0 0 0 -0.0088340855381593697 -0.023588849841764358 0.0067161466410413963 0 0.0067161466410413963 0.030427044111125782 0 0 0 0.0017095485673403587 -0.020908642056685828 -0.010029243890348285 0 -0.010029243890348285 0.001285174575018172 0 0 0 -0.0049058668704169209 -0.0092661559714806944 0.012345558677278594 0 0.012345558677278594 0.004097443714605839 0 0 0 -0.0012921780642187169 -0.0037749362860353686 0.016663722173603679 0 0.016663722173603679 0.12112846534738608 0 0 0 0.029338382265337748 -0.062376150528127859 0.0071268383968852711 0 0.0071268383968852711 0.0023666907966504447 0 0 0 -0.015002364932869348 -0.028544203936557558 -0.00014245434434989167 0 -0.00014245434434989167 0.0053797665541267421 0 0 0 -0.0057911093456077065 0.052603139128267751 0.013275964275549957 0 0.013275964275549957 0.046228553122379168 0 0 0 0.024707923062661674 -0.05930130745630504 -0.0081761721776995033 0 -0.0081761721776995033 -0.0021107802899455567 0 0 0 -0.015353021936562759 -0.20098621474233933 -0.0013457736285878985 0 -0.0013457736285878985 -0.00048748030043888058 0 0 0 -0.050368423760694531 -0.10786174576565333 -0.00018257478726850149 0 -0.00018257478726850149 -0.0004608039323274471 0 0 0 -0.027080637424495152 -0.039594079982649702 -0.00018283417348498657 0 -0.00018283417348498657 0.049532811031766232 0 0 0 0.0024846827622791272 -0.075307389926898602 -0.013414079743154313 0 -0.013414079743154313 -0.0051401511577424397 0 0 0 -0.020111885271160278 -0.090797781033486999 -0.018461071160444646 0 -0.018461071160444646 -0.0029053615519490893 0 0 0 -0.023425785646359016 0.023653952833874239 0.020403353335933364 0 0.020403353335933364 0.0255472179830879 0 0 0 0.012300292704240531 -0.040256413259210588 -0.0095197859677248614 0 -0.0095197859677248614 -0.0009118273773296437 0 0 0 -0.010292060159135086 -0.032392673311447857 -0.013069656066301977 0 -0.013069656066301977 0.0085460126032500527 0 0 0 -0.0059616651770494425 -0.0059522705208783222 0.019413451633767214 0 0.019413451633767214 0.086541910663029853 0 0 0 0.020147410035537661 -0.015898474327654788 -0.0056716337405463063 0 -0.0056716337405463063 0.0012181126519381635 0 0 0 -0.0036700904189290728 -0.039793108748939827 -0.024665165413019677 0 -0.024665165413019677 0.026605371913423825 0 0 0 -0.0032969342088789849 -0.022188263051631199 -0.0073633952026764468 0 -0.0073633952026764468 0.033550467460201738 0 0 0 0.0028405511021426244 -0.034518574708910676 -0.0012168238337912154 0 -0.0012168238337912154 0.011768511886459804 0 0 0 -0.0056875157056127043 -0.037721957163153519 0.0099244751298976919 0 0.0099244751298976919 -0.00125614101534266 0 0 0 -0.0097445245446237116 -0.0099858636546515944 -0.01688121192651415 0 -0.01688121192651415 0.046242459588441642 0 0 0 0.0090641489834474287 -0.036126529375128197 0.0040308233045536282 0 0.0040308233045536282 -0.0019125138983212206 0 0 0 -0.0095097608183623526 0.0082839434295252368 -0.00321756833632314 0 -0.00321756833632314 0.037510923754329628 0 0 0 0.011448716795963709 -0.073884620338762835 0.0050855316844569069 0 0.0050855316844569069 0.00012783632088980701 0 0 0 -0.01843919600446825 -0.056875268288856001 -0.015289809666853841 0 -0.015289809666853841 0.020328922870704036 0 0 0 -0.0091365863545379566 -0.059569059386192794 0.0068893043135950897 0 0.0068893043135950897 -0.0022431700010815889 0 0 0 -0.015453057346818594 -0.064600741832648745 -0.0086410198825841444 0 -0.0086410198825841444 0.0013170157796427162 0 0 0 -0.015820931513251479 -0.07974404872346294 0.0043060207983150016 0 0.0043060207983150016 -0.00068310119307435357 0 0 0 -0.020106787479134337 -0.069687780625018361 0.0054570389148522261 0 0.0054570389148522261 0.00031056724362893418 0 0 0 -0.017344303345347364 -0.069241588409934773 0.042054143409491873 0 0.042054143409491873 -0.00039470885832193492 0 0 0 -0.017409074317064288 -0.038593447103555341 -0.0057155137406119366 0 -0.0057155137406119366 -0.014386656389254696 0 0 0 -0.013245025873202514 -0.044280197104656915 -0.011343761312811451 0 -0.011343761312811451 -0.01527264205095652 0 0 0 -0.014888209788903357 -0.041318197699532419 0.0059953761764521751 0 0.0059953761764521751 -0.0088732285102050244 0 0 0 -0.012547856552434362 -0.039231403025623418 0.0035780546202173924 0 0.0035780546202173924 -0.010456350651037342 0 0 0 -0.012421938419165187 -0.027486572968605419 -0.0059784368726538313 0 -0.0059784368726538313 0.015614675198247024 0 0 0 -0.0029679744425895951 -0.022293002079704402 -0.025799962198887666 0 -0.025799962198887666 0.04262078153149812 0 0 0 0.0050819448629484511 -0.033729676412630381 -0.017749224774849665 0 -0.017749224774849665 0.017590850238681986 0 0 0 -0.0040347065434871094 -0.037759593941507325 -0.01223233839923657 0 -0.01223233839923657 0.028608274908419551 0 0 0 -0.0022878297582719642 -0.032669504572662114 -0.014596694279597491 0 -0.014596694279597491 0.016796926935971207 0 0 0 -0.0039681444091727164 -0.023395355981166183 -0.0026988043092680825 0 -0.0026988043092680825 0.033766331071565792 0 0 0 0.0025927437725998814 -0.025563505126804636 -0.0078238790953659154 0 -0.0078238790953659154 0.017758297143845803 0 0 0 -0.0019513019957397015 -0.11088621927590728 0.0018948129712217539 0 0.0018948129712217539 0.00052265861200673225 0 0 0 -0.027590890165975185 -0.21142198233611845 -0.0048941665751866615 0 -0.0048941665751866615 0.0033331504270465162 0 0 0 -0.052022207977267976 -0.014393330884202242 -0.0072005813400903701 0 -0.0072005813400903701 0.018382059929131556 0 0 0 0.00099718226123231973 -0.019881906312242875 -0.0044960143832283583 0 -0.0044960143832283583 0.039204748941814527 0 0 0 0.0048307106573928782 -0.056990272284303575 0.0054461138141653487 0 0.0054461138141653487 0.0074561590647036491 0 0 0 -0.012383528304899999 -0.017735940134449308 0.0039556901263952324 0 0.0039556901263952324 -0.0077000147713765146 0 0 0 -0.0063589887264564569 -0.031441351712871921 -0.011108773969054674 0 -0.011108773969054674 -0.0076792137215289484 0 0 0 -0.009780141358600225 -0.019498720069450647 -0.0041855334970379377 0 -0.0041855334970379377 -0.012497865127424632 0 0 0 -0.0079991462992188185 -0.017018547629936539 -0.037143814502876189 0 -0.037143814502876189 0.076999768348888512 0 0 0 0.014995305179737977 -0.073812883450323247 0.0025016742656499124 0 0.0025016742656499124 -0.0030001623308071601 0 0 0 -0.019203261445282616 -0.06776390743011465 0.0020908840099154308 0 0.0020908840099154308 -0.001467289014276325 0 0 0 -0.017307799111097748 -0.093346050286736676 -0.0077773846449071989 0 -0.0077773846449071989 -0.0017411426481343875 0 0 0 -0.023771798233717757 -0.10895606338992647 -0.0087710877987676912 0 -0.0087710877987676912 -0.0055141525486861638 0 0 0 -0.028617553984653144 -0.097099189883381121 -0.0061514673205949307 0 -0.0061514673205949307 0.0012166642650404125 0 0 0 -0.023970631404585052 -0.015122072911765483 0.062533626284935806 0 0.062533626284935806 0.080534235449196023 0 0 0 0.016353040634357607 0.0024619419323035352 -0.012758114678837196 0 -0.012758114678837196 0.026221968123313011 0 0 0 0.0071709775139041088 -0.010123405475410784 -0.0087267451849075695 0 -0.0087267451849075695 -0.019931546037144192 0 0 0 -0.0075137378781387366 -0.041440443891429896 0.0052696890509821197 0 0.0052696890509821197 -0.0021879219361227633 0 0 0 -0.010907091456888169 -0.039988526049604775 -0.0025333985270257833 0 -0.0025333985270257833 0.036030418280735339 0 0 0 -0.00098952694221735894 -0.06306279592241304 0.0053690677670226953 0 0.0053690677670226953 -0.00064555390084884701 0 0 0 -0.015927087455815482 0.0061839248557290505 0.028544011636680633 0 0.028544011636680633 0.01851037305888914 0 0 0 0.0061735744786546309 -0.021628300019156541 0.0058756102376878241 0 0.0058756102376878241 -0.0079218337985775527 0 0 0 -0.0073875334544335246 -0.025361836094389405 -0.013889185835654488 0 -0.013889185835654488 -0.0077618380140756227 0 0 0 -0.0082809185271162308 0.02420287977190003 -0.05055541822978972 0 -0.05055541822978972 0.060488203620141408 0 0 0 0.021172770848010364 -0.17490138085045392 0.014624401700643941 0 0.014624401700643941 0.0018560324255179061 0 0 0 -0.043261337106234032 -0.013058161859765636 0.0027455754298772121 0 0.0027455754298772121 -0.0086287631456394565 0 0 0 -0.0054217312513512722 -0.047245392353008932 0.0030970705021394979 0 0.0030970705021394979 -0.011426608977254452 0 0 0 -0.014668000332565842 -0.054077516686321818 -0.0068791063283767662 0 -0.0068791063283767662 -0.015379302905270689 0 0 0 -0.017364204897898129 -0.015238793571012677 0.0098225452184187712 0 0.0098225452184187712 0.01101605460420902 0 0 0 -0.0010556847417009171 -0.083968405331988488 0.0041851608636651605 0 0.0041851608636651605 0.0017424126728762812 0 0 0 -0.020556498164778086 -0.14360398803623386 -0.012454637609361274 0 -0.012454637609361274 0.0061051332885233983 0 0 0 -0.034374713686927627 -0.00048334722157972188 0.024845257466150406 0 0.024845257466150406 0.044630771975643135 0 0 0 0.011036856188515909 -0.036306657083859939 -0.012632692953834068 0 -0.012632692953834068 -0.003000518573167188 0 0 0 -0.0098267939142566707 -0.017328399235464753 0.0031629620536340469 0 0.0031629620536340469 0.045158812583556168 0 0 0 0.006957603337022833 -0.010353674494788745 -0.019913923489594393 0 -0.019913923489594393 0.010797514656491314 0 0 0 0.0001109600404256561 -0.026663977081584495 0.0016542626981314798 0 0.0016542626981314798 0.017055134190209736 0 0 0 -0.0024022107228436895 -0.01984972007221502 0.0057135450977954362 0 0.0057135450977954362 0.0045791765521569529 0 0 0 -0.0038176358800145185 -0.014355836914422857 0.00033754114252772195 0 0.00033754114252772195 -0.011520764800775907 0 0 0 -0.006469150428799691 -0.035202881143687921 0.0037959393476201296 0 0.0037959393476201296 0.0018763539111203117 0 0 0 -0.0083316318081419136 -0.028478989666947049 -0.014620895379553266 0 -0.014620895379553266 0.097865786867991522 0 0 0 0.017346699300261129 -0.029992082051277392 -0.014973035165507411 0 -0.014973035165507411 0.090226863408425603 0 0 0 0.015058695339287061 -0.031677927208595524 -0.020080070983932607 0 -0.020080070983932607 -0.00038353570825910843 0 0 0 -0.008015365729213686 -0.027891071614482899 -0.019090674057672619 0 -0.019090674057672619 -0.00058435887637342532 0 0 0 -0.0071188576227139144 -0.012566298068283688 0.034385678922851159 0 0.034385678922851159 0.020221089851310214 0 0 0 0.0019136979457563541 -0.018719020156795718 0.035905087674823255 0 0.035905087674823255 0.017427863181433967 0 0 0 -0.00032278924384065988 -0.011988062083435391 0.038288376256286394 0 0.038288376256286394 0.0092284435893743577 0 0 0 -0.00068990462351536941 0.015560609063929975 0.036364757082017918 0 0.036364757082017918 0.015454131368019652 0 0 0 0.0077536851079873514 -0.016680862649065566 0.0039371815239317544 0 0.0039371815239317544 -0.0055608389534173505 0 0 0 -0.0055604254006207292 -0.0160770365542421 0.0019327958831774628 0 0.0019327958831774628 0.059308530844126212 0 0 0 0.010807873572471025 -0.023562028288349683 -6.6506626128629009e-05 0 -6.6506626128629009e-05 0.030153339319721112 0 0 0 0.0016478277578428693 -0.066396190123186205 -0.012882911294850141 0 -0.012882911294850141 -0.000222418770917443 0 0 0 -0.016654652223525968 -0.075398843427932766 -0.0049641784200792904 0 -0.0049641784200792904 -0.00031003870529755506 0 0 0 -0.018927220533307559 -0.12765768848635023 0.011702116812817631 0 0.011702116812817631 -0.00092254178276895971 0 0 0 -0.032145057567279645 -0.0027965490337444679 0.020745742479986659 0 0.020745742479986659 0.024294761680148338 0 0 0 0.0053745531616009659 1.403169287207684e-05 0.022239887503666182 0 0.022239887503666182 0.03054188176489081 0 0 0 0.0076389783644407183 -0.015663672460678013 0.0056109558876051508 0 0.0056109558876051508 -0.0053248895923042258 0 0 0 -0.0052471405132455632 -0.018300554896466172 0.0048338131295154714 0 0.0048338131295154714 -0.0082923894306397607 0 0 0 -0.0066482360817764832 -0.12457683002918014 -0.012517183673955604 0 -0.012517183673955604 -0.0049415825177578782 0 0 0 -0.032379603136734492 -0.078455651672853594 0.0041645699751466786 0 0.0041645699751466786 -0.0010704516171160666 0 0 0 -0.019881525822492412 -0.070507006576655318 0.0064805960728102335 0 0.0064805960728102335 -0.0015805414978707355 0 0 0 -0.018021887018631513 -0.003878966963566155 0.024951044765249675 0 0.024951044765249675 0.055400735513343236 0 0 0 0.012880442137444437 -0.029296355960329312 -0.0089595044456595163 0 -0.0089595044456595163 0.0024345025892389405 0 0 0 -0.0067154633427726207 -0.017759856155212882 -0.0016509857001503619 0 -0.0016509857001503619 -0.0099160627580845533 0 0 0 -0.0069189797283243596 -0.006125797222398666 0.00024736149897510926 0 0.00024736149897510926 -0.0083228226981620357 0 0 0 -0.0036121549801401837 -0.048175690129219795 -0.020215474230098118 0 -0.020215474230098118 0.0042025173586515141 0 0 0 -0.010993293192642029 -0.043925276511284111 -0.01565968874026822 0 -0.01565968874026822 -0.0031017825309198194 0 0 0 -0.01175676476055099 -0.022844001169357701 -0.0075051536260055951 0 -0.0075051536260055951 0.021186269591771348 0 0 0 -0.00041443289439660816 0.0033213634113527929 0.015814693238634839 0 0.015814693238634839 0.012703420001137236 0 0 0 0.0040061958531225073 -0.069681258779177566 0.043390843979806193 0 0.043390843979806193 0.0024633195734290458 0 0 0 -0.016804484801436967 -0.074632595922310835 0.00022685858669074799 0 0.00022685858669074799 0.0033978951298218041 0 0 0 -0.017808675198122265 -0.12674909571810089 -0.00061004905913096541 0 -0.00061004905913096541 0.0090653990726321521 0 0 0 -0.029420924161367212 -0.0029695886028505702 -0.0033534781757634524 0 -0.0033534781757634524 -0.029344676861455476 0 0 0 -0.0080785663660765672 -0.0082852054969012601 -0.0074234592663321997 0 -0.0074234592663321997 -0.034461961031587496 0 0 0 -0.010686791632122161 -0.061768083570616576 0.0070525502692411028 0 0.0070525502692411028 -0.00025412781814198454 0 0 0 -0.015505552847189647 -0.05305792682861362 0.0056418485237761523 0 0.0056418485237761523 -0.0011243390390127637 0 0 0 -0.013545566466906595 -0.027794720339031891 -0.0016246744726630263 0 -0.0016246744726630263 0.012958111241245962 0 0 0 -0.0037091522744464867 -0.079983923902899809 0.0075943592561375124 0 0.0075943592561375124 0.0018510773706599259 0 0 0 -0.01953321163305996 -0.085220403746283258 -0.017782377081759632 0 -0.017782377081759632 -0.0067279641597907253 0 0 0 -0.022987091976518492 -0.00089781800373384753 0.00097765036242186687 0 0.00097765036242186687 -0.028263678317010339 0 0 0 -0.0072903740801860189 -0.052113811867267268 0.051931597453606315 0 0.051931597453606315 0.0054045873221899576 0 0 0 -0.011677306136269383 -0.018876355708118131 0.0045755893619999627 0 0.0045755893619999627 -0.0062927417470763202 0 0 0 -0.0062922743637986132 0.030320558043980816 0.014925909920531 0 0.014925909920531 0.051460916416538049 0 0 0 0.0204453686151298 0.024859292158859705 0.031287719826811208 0 0.031287719826811208 0.079965943550634327 0 0 0 0.026206308927373505 -0.11866899818023841 0.010948494864259972 0 0.010948494864259972 0.020566390695026568 0 0 0 -0.024525651871302963 0.0054198262582906137 0.033360620644707482 0 0.033360620644707482 0.085591942438903112 0 0 0 0.022752942174298407 0.015930092122564812 0.027983439554193416 0 0.027983439554193416 0.055808662886732696 0 0 0 0.017934688752324388 -0.045944954619074399 0.006285676205149849 0 0.006285676205149849 0.00083782394984564801 0 0 0 -0.011276782667307181 -0.030497956325815756 0.0033224942610368706 0 0.0033224942610368706 -0.00184302135894492 0 0 0 -0.0080852444211901731 -0.11019836040180453 0.034300629653072734 0 0.034300629653072734 0.011158400587689909 0 0 0 -0.024759989953528683 -0.040841076053484526 -0.012272206545641498 0 -0.012272206545641498 0.044554489996026236 0 0 0 0.00092835348563540324 -0.013626154138787072 0.02198787259546417 0 0.02198787259546417 0.09280610497681234 0 0 0 0.019794987709506322 -0.031636841589416584 -0.017479351148353098 0 -0.017479351148353098 0.0019112022224851422 0 0 0 -0.0074314098417328361 -0.088392537400812599 -0.0029141355112335399 0 -0.0029141355112335399 0.0025205211189095744 0 0 0 -0.02146800407047577 -0.15676232962264325 0.006810603048685443 0 0.006810603048685443 0.008894159918965916 0 0 0 -0.03696704242591925 -0.042086959084884135 0.021090027952601176 0 0.021090027952601176 -0.0062985131016422002 0 0 0 -0.012096368046631834 -0.016494311822092322 -0.0228357943949824 0 -0.0228357943949824 0.021820298868765242 0 0 0 0.0013314967616681606 -0.031441156694410222 -0.012455196174123426 0 -0.012455196174123426 0.015575305939531214 0 0 0 -0.0039664626887198073 0.0096088397917846666 0.016894128586741632 0 0.016894128586741632 0.014174385315685406 0 0 0 0.0059458062768675199 -0.076218346726406663 -0.016966597407700575 0 -0.016966597407700575 -0.011108564359892627 0 0 0 -0.02183172777157482 -0.07335867303269536 0.0050801990345366518 0 0.0050801990345366518 0.0017068075489007628 0 0 0 -0.017912966370948635 -0.10523923327260667 -0.0094766713094110999 0 -0.0094766713094110999 0.0057194818956838867 0 0 0 -0.024879937844230621 -0.019913945983871403 -0.018717374960617573 0 -0.018717374960617573 0.035364514610783104 0 0 0 0.0038626421567279218 -0.057320589827776117 0.0032509067186672624 0 0.0032509067186672624 0.0029432956558461676 0 0 0 -0.013594323542982539 -0.028267031376991034 0.0055373061752166785 0 0.0055373061752166785 0.075760330195926595 0 0 0 0.011873324704733894 -0.01522404324375012 -5.3238158649220078e-05 0 -5.3238158649220078e-05 -0.0050734054148123854 0 0 0 -0.0050743621646406264 -0.026217579533741847 -0.0088033569890459962 0 -0.0088033569890459962 0.0086360851100983349 0 0 0 -0.0043953736059109405 -0.088293287756765218 0.0022733251154586909 0 0.0022733251154586909 0.001982636794651757 0 0 0 -0.021577662740528372 -0.15362964269645682 -0.0078760270141911837 0 -0.0078760270141911837 0.0044286074057805491 0 0 0 -0.037300258822669102 -0.067371014068297139 -0.015424603837512041 0 -0.015424603837512041 0.0053695184641243537 0 0 0 -0.015500373901043127 -0.031095702983039694 -0.015518950537706258 0 -0.015518950537706258 0.024369713065431509 0 0 0 -0.0016814974794020082 -0.02277807374299079 -0.011104958190016709 0 -0.011104958190016709 0.045329309421178965 0 0 0 0.005637808919547016 -0.042677880046877073 0.0040675670775609726 0 0.0040675670775609726 0.0031646279698636648 0 0 0 -0.0098783130192533382 -0.032935877389350748 -0.016120532129780291 0 -0.016120532129780291 0.0033004230069054175 0 0 0 -0.0074088635956113258 -0.04998736022810496 -0.018787906115875441 0 -0.018787906115875441 0.0011951694834705789 0 0 0 -0.012198047686158623 -0.051698651156661009 0.0043722216496899641 0 0.0043722216496899641 0.0029076627369912719 0 0 0 -0.012197747104917389 -0.030422938816798667 -0.017912155681795758 0 -0.017912155681795758 0.0025483800858340233 0 0 0 -0.0069686396827411401 -0.01539447926158855 0.00027075955187567485 0 0.00027075955187567485 -0.012206363585315865 0 0 0 -0.0069002107117261064 -0.090544327445398129 0.00096664806298149553 0 0.00096664806298149553 0.0014818134288608897 0 0 0 -0.022265628504134313 -0.16390035434380634 -0.0023768611354075819 0 -0.0023768611354075819 0.0021593372175116032 0 0 0 -0.040435254281573685 -0.04418763815994195 -0.0080796559587086314 0 -0.0080796559587086314 -0.0026162397783648095 0 0 0 -0.011700969484576634 0.015238963477639422 0.016734195594821477 0 0.016734195594821477 0.064788333735555148 0 0 0 0.020006824303298365 0.0069602951267796476 0.023450923138327084 0 0.023450923138327084 0.047728935978027742 0 0 0 0.013672307776201875 -0.03343684807072056 -0.0067630178829488083 0 -0.0067630178829488083 -0.0022601638741672758 0 0 0 -0.0089242529862221254 0.011164465895669551 0.0143614425245736 0 0.0143614425245736 0.084984071963890351 0 0 0 0.024037134464889753 -0.010794056108088729 -0.013681932446061995 0 -0.013681932446061995 0.0086024213877081146 0 0 0 -0.00054790868009516047 -0.039833596104644139 -0.015622089305444078 0 -0.015622089305444078 0.011658723289014794 0 0 0 -0.0070437182039073398 0.0048281321742566496 0.00041178448255839721 0 0.00041178448255839721 0.061485737352663161 0 0 0 0.016578467381729911 0.0020052136663697429 -0.0029433286599735986 0 -0.0029433286599735986 0.11337111399379185 0 0 0 0.028844081915040398 -0.10222422864353867 -0.014120299459947028 0 -0.014120299459947028 0.020367083398553421 0 0 0 -0.02046428631124636 -0.049765116240785688 0.0050486210538964928 0 0.0050486210538964928 -0.0014965851676614142 0 0 0 -0.012815425352111774 -0.01520111239495477 0.0075264376412139036 0 0.0075264376412139036 -0.0014715306545084808 0 0 0 -0.00416816076236581 -0.073077503746583616 0.038119771249275625 0 0.038119771249275625 -0.003802151698256484 0 0 0 -0.019219913861209914 -0.0036505316533856358 -0.020721906352557218 0 -0.020721906352557218 0.014810714525441915 0 0 0 0.0027900457180139449 -0.013184167784992734 0.0014039320480565057 0 0.0014039320480565057 -0.0088009135027176267 0 0 0 -0.0054962703219275915 -0.044518702468726593 0.0029199916695881317 0 0.0029199916695881317 0.010804215159488151 0 0 0 -0.0084286218273096243 0.029370195606921667 0.014524809833454161 0 0.014524809833454161 0.050890390951155773 0 0 0 0.020065146639519416 -0.02890940338673454 -0.0079714674117836015 0 -0.0079714674117836015 -0.01402750031033189 0 0 0 -0.010734225924266604 -0.021805055016440422 -0.0063258736610769806 0 -0.0063258736610769806 0.00019502510172436649 0 0 0 -0.0054025074786790139 -0.016311178994286479 -0.010537326076346151 0 -0.010537326076346151 0.001838466270857729 0 0 0 -0.0036181781808572013 -0.0064294723343096827 0.0059038128306131976 0 0.0059038128306131976 0.020881035237306667 0 0 0 0.0036128907257492182 0.0025829967743918048 0.001608406084613101 0 0.001608406084613101 0.059312781178086749 0 0 0 0.015473944488119534 0.0053978568653064163 -0.0069140111078861421 0 -0.0069140111078861421 0.10528549576467094 0 0 0 0.027670838157494382 -0.0082051475864877883 -0.011225754341223249 0 -0.011225754341223249 0.046305246449620488 0 0 0 0.0095250247157830752 -0.0085690235260366711 0.017395927689937973 0 0.017395927689937973 0.028327305420967536 0 0 0 0.004939570473732724 -0.0086420170904580804 -0.017906763757330225 0 -0.017906763757330225 -0.0046058877867352355 0 0 0 -0.0033119762192983307 0.003356045640219111 -0.035526921516378089 0 -0.035526921516378089 0.030707036321182733 0 0 0 0.0085157704903504414 -0.046881314269710622 -0.015707543556100712 0 -0.015707543556100712 0.0031546816211951989 0 0 0 -0.01093165816212896 -0.062332646877503339 0.0054905460510245021 0 0.0054905460510245021 0.0011592057732377758 0 0 0 -0.015293360276066377 -0.052708714571594872 0.0070996168903955537 0 0.0070996168903955537 0.0020784662698271061 0 0 0 -0.012657562075441942 -0.0986000373026195 0.0052811575520882309 0 0.0052811575520882309 0.040342030192049683 0 0 0 -0.014564501777642472 -0.015319476728827219 0.0013106441372340016 0 0.0013106441372340016 0.0095468902722565252 0 0 0 -0.0014431466141426319 -0.014159994252448266 -0.0099134071257981626 0 -0.0099134071257981626 0.025276841812297501 0 0 0 0.0027792118899622742 -0.014843352440001711 0.0082671205921244651 0 0.0082671205921244651 0.0045167972227925374 0 0 0 -0.0025816388043022939 6.2650636675543048e-05 3.9777911737759464e-05 0 3.9777911737759464e-05 -0.031075100174118298 0 0 0 -0.0077531123843607164 -0.022081388496317432 0.0045778755436159642 0 0.0045778755436159642 -0.0052778131110035181 0 0 0 -0.0068398004018302358 -0.031643713116760452 -0.017795194167125369 0 -0.017795194167125369 0.013728976265395709 0 0 0 -0.0044786842128411719 -0.012568240818002041 0.0015181079888424776 0 0.0015181079888424776 -0.012772069708078532 0 0 0 -0.0063350776315201441 -0.020849739432612369 0.04442632049037587 0 0.04442632049037587 0.0013389202160034586 0 0 0 -0.004877704804152394 -0.023050490678286045 0.041012669617540798 0 0.041012669617540798 0.0021136469666864222 0 0 0 -0.0052342109278998017 -0.024024933559486504 -0.024543037013180058 0 -0.024543037013180058 0.0020047387575925502 0 0 0 -0.0055050487004732682 0.016553487524444407 -0.070633469103937738 0 -0.070633469103937738 0.12508384094611785 0 0 0 0.035409332117640566 -0.013881170391758591 0.0021255911621948201 0 0.0021255911621948201 -0.010896333277786495 0 0 0 -0.0061943759173862713 -0.045494643226982656 -0.0094611630640385469 0 -0.0094611630640385469 0.0025495391115735178 0 0 0 -0.010736276028852354 0.00098074328235997488 0.00039140249236002678 0 0.00039140249236002678 -0.00010297651740298619 0 0 0 0.00021944169123910839 -0.0069336588614485883 0.006103155323797127 0 0.006103155323797127 0.12027306231725632 0 0 0 0.028334850863951599 0.0097587682890149657 0.0012813668924032129 0 0.0012813668924032129 0.097385167980871587 0 0 0 0.026785984067471527 0.0058003860549479258 -0.002900521651027832 0 -0.002900521651027832 0.049361343051067319 0 0 0 0.013790432276503783 0.0014706663468206926 -0.0006182505587588997 0 -0.0006182505587588997 -7.8261835042781058e-05 0 0 0 0.00034810112794447789 -0.0003319250577988034 0.00055804608641984998 0 0.00055804608641984998 0.001063443098903857 0 0 0 0.00018287951027648548 -0.004934532930413349 -0.007194011757696823 0 -0.007194011757696823 0.067635045957317175 0 0 0 0.015675128256726012 -0.00035924660479702553 -0.00087608163401364791 0 -0.00087608163401364791 0.0016238451108749885 0 0 0 0.00031614962651937972 -0.016281772556493036 0.00081748501218044856 0 0.00081748501218044856 -0.010059636730827328 0 0 0 -0.0065853523218300904 -0.027870407238915124 -0.016803619137822801 0 -0.016803619137822801 -0.0031154142132774759 0 0 0 -0.007746455363048188 -0.051557187211301023 0.0060052556638652971 0 0.0060052556638652971 0.0057704256448757596 0 0 0 -0.011446690391606312 -0.040653985340546539 -0.022246082606149853 0 -0.022246082606149853 0.0040310382421826496 0 0 0 -0.0091557367745909168 -0.020945897122550731 -0.001688574243464314 0 -0.001688574243464314 -0.012879995019236234 0 0 0 -0.0084564730354467366 -0.024587094114732144 0.033259037494995702 0 0.033259037494995702 -0.0077602694245100245 0 0 0 -0.0080868408848104867 -0.019557622080153991 -0.026939568076318143 0 -0.026939568076318143 0.0012417115456850869 0 0 0 -0.0045789776336172539 -0.0035866077301514032 -0.0050015107209806509 0 -0.0050015107209806509 0.048187093973626638 0 0 0 0.011150121560868698 -0.005741695546146286 -0.00074858594137872103 0 -0.00074858594137872103 0.090405313300673251 0 0 0 0.021165904438631755 -0.039629984989938416 0.0072658843215478719 0 0.0072658843215478719 0.04291931590397291 0 0 0 0.00082233272850863737 -0.046976451063291097 0.0015311190189910909 0 0.0015311190189910909 0.0059231327324680283 0 0 0 -0.010263329582705746 -0.022216336006974619 -0.0098669355016838146 0 -0.0098669355016838146 0.033909084881372009 0 0 0 0.0029231872185992991 -0.017005102167593655 0.0048879512473543052 0 0.0048879512473543052 0.06840959450009132 0 0 0 0.012851123083124416 -0.024329355642025485 -0.025477864537771788 0 -0.025477864537771788 0.0066352142051348539 0 0 0 -0.0044235353592226856 -0.012806860621960424 0.0074529815016460589 0 0.0074529815016460589 -0.00067161987759693786 0 0 0 -0.0033696201248893387 -0.021182119386865983 -0.027683841892325978 0 -0.027683841892325978 0.0092283260501213604 0 0 0 -0.0029884483341862111 -0.032684104079365284 0.031334624046765125 0 0.031334624046765125 -0.0025540014797558186 0 0 0 -0.0088095263897804976 -0.02422159680704089 -0.001633562847328407 0 -0.001633562847328407 0.014692907683684753 0 0 0 -0.0023821722808390622 -0.015083754106873987 -0.0028773338268616028 0 -0.0028773338268616028 0.017736053074054681 0 0 0 0.00066307474179516657 -0.034741900784337483 0.0042361042201446864 0 0.0042361042201446864 -0.0021595849245736277 0 0 0 -0.0092253714272277805 -0.035426805973656141 -0.0043847595679370188 0 -0.0043847595679370188 0.029895528302699273 0 0 0 -0.0013828194177392186 0.011998561015820225 -0.020993548758311692 0 -0.020993548758311692 0.016215128948361968 0 0 0 0.0070534224910455967 -0.026352478851007236 -0.017681344689828571 0 -0.017681344689828571 -0.00020286939269199833 0 0 0 -0.0066388370609248154 0.037612168766673892 -0.015198702843363776 0 -0.015198702843363776 0.019970690493263721 0 0 0 0.014395714814984362 -0.017744290417437358 -0.0050480770394927821 0 -0.0050480770394927821 0.037925435357037851 0 0 0 0.0050452862349000815 -0.027661692169589663 -0.0072774760513815984 0 -0.0072774760513815984 0.0077770252462447953 0 0 0 -0.0049711667308361684 -0.05723306830738898 0.0049251116158467549 0 0.0049251116158467549 -0.0016727386761772635 0 0 0 -0.014726451745891558 -0.034842200429705379 -0.0069684381162331286 0 -0.0069684381162331286 0.034733091960290022 0 0 0 -2.7277117353854963e-05 -0.035197002183488688 -0.0059068428090149182 0 -0.0059068428090149182 0.04261991219546464 0 0 0 0.0018557275029939951 0.02562496564012523 0.04986909453856575 0 0.04986909453856575 0.14375604630323113 0 0 0 0.042345252985839105 -0.018139303937799889 -0.012740237815245747 0 -0.012740237815245747 0.1643318905774821 0 0 0 0.036548146659920538 0.017680117343844559 0.015432299441435217 0 0.015432299441435217 0.062225402222930271 0 0 0 0.019976379891693652 -0.015366884452535916 0.019314735037779654 0 0.019314735037779654 0.037506605402178733 0 0 0 0.0055349302374107165 -0.049848862497610891 -0.0079093725178278774 0 -0.0079093725178278774 0.00053586861756738102 0 0 0 -0.012328248470011016 -0.035064843289139121 0.004403218581536231 0 0.004403218581536231 -0.0039043425324115054 0 0 0 -0.0097422964553876487 -0.072611628366179723 -0.0089984368658256562 0 -0.0089984368658256562 -0.011172818986690595 0 0 0 -0.020946111838217579 -0.057612893794857518 0.0027909073865936217 0 0.0027909073865936217 -0.0066877615109083629 0 0 0 -0.016075163826441471 -0.0059239701705267704 0.0038000258614719062 0 0.0038000258614719062 -0.0097895780655158915 0 0 0 -0.0039283870590106698 -0.080264085851195821 -0.0053746514416776192 0 -0.0053746514416776192 -0.0012361669526437756 0 0 0 -0.020375063200959907 -0.070650764715616057 -0.0059370684129235029 0 -0.0059370684129235029 -0.015542252823477484 0 0 0 -0.021548254384773386 -0.11124707150067678 0.0043282238318701318 0 0.0043282238318701318 -0.00033372954450713865 0 0 0 -0.027895200261295983 -0.098579108128710596 0.0048108548071936858 0 0.0048108548071936858 -0.020625071485413156 0 0 0 -0.029801044903530943 -0.040947870729727137 -0.014283426699465279 0 -0.014283426699465279 0.017512240751725056 0 0 0 -0.0058589074945005482 -0.01130567211472194 0.0030436286823748411 0 0.0030436286823748411 -0.009602572531698321 0 0 0 -0.005227061161605066 0.025240912388029391 0.025848783014299048 0 0.025848783014299048 0.018760525413108242 0 0 0 0.011000359450284436 -0.016745431053647564 0.0012287687156420368 0 0.0012287687156420368 0.057408578722911274 0 0 0 0.0101657869173159 -0.004771760766061818 0.02677757236831526 0 0.02677757236831526 0.057474129010843859 0 0 0 0.013175592061195514 -0.023628988180034921 -0.024865013396653781 0 -0.024865013396653781 0.024477553111111661 0 0 0 0.00021214123276921959 -0.0034822594766455673 0.00076815779403549556 0 0.00076815779403549556 0.0040346215446949016 0 0 0 0.00013809051701222242 0.0012328525572631835 -0.0057899989961391896 0 -0.0057899989961391896 0.0096464972723925759 0 0 0 0.0027198374574140508 0.0017004352470872161 0.0060056294861192683 0 0.0060056294861192683 0.028035309081131596 0 0 0 0.0074339360820547028 -0.0026134967737229653 -0.00082392602851832919 0 -0.00082392602851832919 0.0020620039674984006 0 0 0 -0.00013787320155616886 -0.0097207050394422165 0.0057957321929996697 0 0.0057957321929996697 -0.0050233707593950461 0 0 0 -0.0036860189497093174 -0.01037351657342811 -0.012771717118170725 0 -0.012771717118170725 -0.003668889939996034 0 0 0 -0.0035106016283560915 -0.076128732339176011 -0.0097287098476781745 0 -0.0097287098476781745 -0.025330470302891657 0 0 0 -0.025364800660516915 -0.1052533860459624 0.010033386231943452 0 0.010033386231943452 -0.035019783304745908 0 0 0 -0.035068292337677082 -0.11944326181439471 0.010386571165344947 0 0.010386571165344947 -0.01618139062275524 0 0 0 -0.033906163109287499 -0.086873574341307824 -0.0097658066666626644 0 -0.0097658066666626644 -0.01208595006001659 0 0 0 -0.024739881100331103 -0.023047322676067655 -0.027152494509994241 0 -0.027152494509994241 0.0090578312464616451 0 0 0 -0.003497372857401454 -0.035082376696377954 0.0043912614147205015 0 0.0043912614147205015 0.0017551785143677251 0 0 0 -0.0083317995455025572 -0.02914652365472746 -0.018247821260675853 0 -0.018247821260675853 0.0066307966739078683 0 0 0 -0.0056289317452049015 -0.027246376424230168 -0.018103542595606162 0 -0.018103542595606162 -0.0004335162624199973 0 0 0 -0.0069199731716625135 -0.029331913469564354 0.0035439906156363174 0 0.0035439906156363174 0.0020529029284483552 0 0 0 -0.0068197526352789962 -0.018725237804360105 0.0049767069464958617 0 0.0049767069464958617 -0.0041089631188756769 0 0 0 -0.0057085502308089463 -0.018603122366338223 0.0056073702037536133 0 0.0056073702037536133 -0.0036972675937515971 0 0 0 -0.0055750974900224551 -0.036078906577487885 -0.031900076469285277 0 -0.031900076469285277 0.10291160309225117 0 0 0 0.016708174128690828 0.014658698661425738 -0.004786006696772066 0 -0.004786006696772066 0.29579959554573393 0 0 0 0.077614573551789939 -0.051819031796805887 -0.0095278213390884714 0 -0.0095278213390884714 0.012239823799586852 0 0 0 -0.0098948019993047864 -0.018122321968474964 -0.002714271080472376 0 -0.002714271080472376 0.033670113628270659 0 0 0 0.0038869479149488961 -0.02707641150203241 -0.0103110524117625 0 -0.0103110524117625 0.021025819362937292 0 0 0 -0.001512648034773828 -0.01899983636640043 0.0066110988900943291 0 0.0066110988900943291 0.0053318615302929973 0 0 0 -0.0034169937090268582 -0.013424252392947644 0.028057820231707886 0 0.028057820231707886 0.038640941728623979 0 0 0 0.0063041723339193334 -0.025070510667503043 -0.012177488594077079 0 -0.012177488594077079 -0.0016889841388694204 0 0 0 -0.0066898737015931853 0.012531818286304605 -0.023535071235316028 0 -0.023535071235316028 0.046692098962794693 0 0 0 0.014805979312274814 -0.012007509525903463 -0.0040692019621283715 0 -0.0040692019621283715 0.011822223873461962 0 0 0 -4.6321413110370774e-05 -0.037817727422698955 0.024700041506319659 0 0.024700041506319659 0.001812591550094389 0 0 0 -0.0090012839681514745 -0.018876148389613823 -0.023895862166506965 0 -0.023895862166506965 0.019874166491877565 0 0 0 0.00024950452556593561 -0.011229769826872626 -0.020970843682985199 0 -0.020970843682985199 0.018081855886680653 0 0 0 0.0017130215149520067 -0.017573095123697036 -0.0022894419315132308 0 -0.0022894419315132308 -0.012685115239174705 0 0 0 -0.0075645525907179212 -0.014511971829958212 -0.0076143368236760156 0 -0.0076143368236760156 0.044939128225442437 0 0 0 0.007606789098871039 -0.018922105506084544 -0.0078727441326450869 0 -0.0078727441326450869 -0.0094107936030192602 0 0 0 -0.007083224777275951 -0.01518560638755824 -0.0066460739216353537 0 -0.0066460739216353537 -0.034793053948812769 0 0 0 -0.012494665084092818 -0.039311382000098843 0.0052567564469884033 0 0.0052567564469884033 -0.004535521803535416 0 0 0 -0.010961725950908574 -0.034496006017196171 0.0053380039998718364 0 0.0053380039998718364 -0.0054119595724183246 0 0 0 -0.0099769913974036249 -0.034752770721149503 -0.0020432807293842246 0 -0.0020432807293842246 0.024969292791356807 0 0 0 -0.002445869482448185 -0.036662633412288786 -0.012303768375232227 0 -0.012303768375232227 0.029446442749786583 0 0 0 -0.0018040476656255577 -0.027771289585201944 0.003187743669107789 0 0.003187743669107789 -0.0035770306362856927 0 0 0 -0.0078370800553719082 -0.024951220375731741 0.0046719326025115469 0 0.0046719326025115469 0.0027388319141788998 0 0 0 -0.0055530971153882136 -0.027412911925895941 0.0034647290333698144 0 0.0034647290333698144 0.0020282673192592734 0 0 0 -0.0063461611516591595 -0.009515945259612496 0.0072927874990781905 0 0.0072927874990781905 -0.026531855446739971 0 0 0 -0.0090119501765881516 -0.0035305457335178814 0.0086207853700597525 0 0.0086207853700597525 -0.0078532280920208253 0 0 0 -0.0028459434563846975 -0.0040372216103465516 -0.013423644278584779 0 -0.013423644278584779 -0.00016043312847524582 0 0 0 -0.0010494136847054233 -0.010702824071804284 -0.011585406659299746 0 -0.011585406659299746 -0.020150243654821987 0 0 0 -0.0077132669316566371 -0.007329160023858125 -0.030818488752763724 0 -0.030818488752763724 0.10194665159320193 0 0 0 0.023654372892335962 -0.002276480755589283 0.018728197507175359 0 0.018728197507175359 0.019141513800971843 0 0 0 0.0042162582613456401 -0.0010174062175345444 -0.003081192231098262 0 -0.003081192231098262 -0.0049352120776742225 0 0 0 -0.0014881545738021362 -0.0021083425108657794 -0.015438502034950119 0 -0.015438502034950119 0.0066145575321832073 0 0 0 0.0011265537553293292 -0.0011709229031099389 0.0037830959703089029 0 0.0037830959703089029 -0.0061074553548725596 0 0 0 -0.0018195945644955414 -0.041578076993938007 0.033042005061505286 0 0.033042005061505286 -0.0044369654944924619 0 0 0 -0.011503760622107562 -0.021866336865705716 -0.027584890309853248 0 -0.027584890309853248 0.009247372335367654 0 0 0 -0.0031547411325845154 -0.014442051290319946 -0.025211378584308997 0 -0.025211378584308997 0.010212528094526219 0 0 0 -0.0010573807989484596 -0.030334965371307761 -0.0045004938505490005 0 -0.0045004938505490005 0.035023142401767154 0 0 0 0.0011720442576148484 0.00046333201360715393 0.012098633952581594 0 0.012098633952581594 0.0037356544952640292 0 0 0 0.0010497466272174627 -0.0003594856335082941 -0.00089167363280828749 0 -0.00089167363280828749 -0.00014808166787183552 0 0 0 -0.00012689182534519894 -0.00075796249953707928 0.00069623172921629006 0 0.00069623172921629006 0.00071543177012056702 0 0 0 -1.0632682354128065e-05 -0.00080418551752270417 -0.0099931272159596851 0 -0.0099931272159596851 -0.0058056350952506719 0 0 0 -0.001652455153193233 -0.021663361188078378 -0.0046212225909057492 0 -0.0046212225909057492 -0.02323130506618809 0 0 0 -0.011223666563566548 0.016094138946738709 -0.024137821978556462 0 -0.024137821978556462 0.0060988190241293705 0 0 0 0.0055482394927170026 0.010668384575176187 0.00092916654211278038 0 0.00092916654211278038 0.058498231981414933 0 0 0 0.017291654139147822 0.01517791038026356 -0.004633472738357014 0 -0.004633472738357014 0.1100005860722989 0 0 0 0.03129462411314049 -0.014886738215787142 0.0058864928134853833 0 0.0058864928134853833 -0.0056866372803119278 0 0 0 -0.0051433438740247674 -0.06621254837195778 0.032899963789183528 0 0.032899963789183528 0.0014997792245621255 0 0 0 -0.016178192286849136 -0.070830943093200815 0.030055669190234384 0 0.030055669190234384 -0.0017407549279679913 0 0 0 -0.018142924505292202 -0.022406678125306456 -0.0069472331666647347 0 -0.0069472331666647347 -0.012119100503702712 0 0 0 -0.0086314446572522512 -0.026695732227537225 -0.00089710216650339472 0 -0.00089710216650339472 0.011441190649524374 0 0 0 -0.0038136353945032167 -0.032827568671979432 -0.017887838030907557 0 -0.017887838030907557 0.0053447448903480646 0 0 0 -0.0068707059454078522 -0.027051382830100064 -0.021374645896961572 0 -0.021374645896961572 0.016975330361923315 0 0 0 -0.0025190131170441735 -0.043907638175854524 0.03379831012264678 0 0.03379831012264678 -0.0042882756440798531 0 0 0 -0.012048978454983539 -0.020413079653166077 -0.025840897603393559 0 -0.025840897603393559 0.010870378202524567 0 0 0 -0.0023856753626603222 -0.022688453097929884 -0.027005865036893895 0 -0.027005865036893895 0.0087990007413594196 0 0 0 -0.0034723630891425605 -0.069229542667183508 0.0017690765686987008 0 0.0017690765686987008 -0.0065733595545970514 0 0 0 -0.018950725555445139 -0.096588708184017921 -0.0085401431393314648 0 -0.0085401431393314648 -0.011102470289847384 0 0 0 -0.02692279461846633 -0.088456410253930876 -0.012269466519760769 0 -0.012269466519760769 -0.00073052138033974021 0 0 0 -0.022296732908567631 -0.065428446001081622 0.0040600747490015278 0 0.0040600747490015278 -0.00083351243698213603 0 0 0 -0.01656548960951594 -0.030894074075429396 -0.0019209153688446168 0 -0.0019209153688446168 0.016865996444886237 0 0 0 -0.0035070194076357751 -0.061494705318104081 0.026753831504461978 0 0.026753831504461978 -0.005100555397450357 0 0 0 -0.01664881517888861 -0.012946061721048507 -0.022340851546835072 0 -0.022340851546835072 0.019162292842010764 0 0 0 0.0015540577802404254 -0.014162677794461342 -0.022964912592235431 0 -0.022964912592235431 0.015211997935487442 0 0 0 0.00026233003525644172 -0.042819655854100684 -0.025621193646600426 0 -0.025621193646600426 0.0072886262686186754 0 0 0 -0.0088827573963705039 -0.024466062654849519 -0.0057781833302453789 0 -0.0057781833302453789 -0.016239701636518236 0 0 0 -0.010176441072841935 -0.012293167048078084 -0.013827589852057391 0 -0.013827589852057391 -0.0048356335445809417 0 0 0 -0.0042822001481647581 -0.02623069666256609 -0.0056330144541372057 0 -0.0056330144541372057 0.011538678752866433 0 0 0 -0.0036730044774249196 -0.057657293470938842 0.005922670050664533 0 0.005922670050664533 -0.0037684346353729012 0 0 0 -0.015356432026577937 -0.075351696832304388 0.047882021957130205 0 0.047882021957130205 0.01370636674267961 0 0 0 -0.015411332522406257 -0.048934154087680204 -0.021922887676188496 0 -0.021922887676188496 0.0084905241471648907 0 0 0 -0.010110907485128773 -0.015332574078974343 0.036749661585550708 0 0.036749661585550708 0.010300751436780553 0 0 0 -0.0012579556605483988 -0.030731639624329704 -0.020651783787954847 0 -0.020651783787954847 -0.0039294070553020644 0 0 0 -0.0086652616699080254 -0.01046256497048248 0.047956466111298446 0 0.047956466111298446 0.0036798474460493225 0 0 0 -0.0016956793811082616 -0.053534244913504295 0.0049065521561664979 0 0.0049065521561664979 0.00050715927476036038 0 0 0 -0.013256771409685963 -0.028317310638785363 0.0004305843687321541 0 0.0004305843687321541 0.007998125188584039 0 0 0 -0.0050797963625503276 -0.042075687992764843 -0.023104356451212116 0 -0.023104356451212116 0.0018194004427201094 0 0 0 -0.010064071887511128 -0.0053634041722654333 0.0092657016789439717 0 0.0092657016789439717 0.021840951846504836 0 0 0 0.0041193869185597934 -0.0079794851926300869 -0.013091842377105922 0 -0.013091842377105922 0.046786822416966523 0 0 0 0.0097018343060841783 -0.026534047372480919 0.0018765145244757295 0 0.0018765145244757295 0.0010002735840734143 0 0 0 -0.0063834434471018693 0.0014977959632083149 0.00017017316092116097 0 0.00017017316092116097 0.0010402723652784829 0 0 0 0.00063451708212181046 -0.0051396922057862504 0.0018977365049333006 0 0.0018977365049333006 -0.00084932794635417252 0 0 0 -0.0014972550380352168 -0.00067356265011997429 -0.014383212974611204 0 -0.014383212974611204 0.015445998119356208 0 0 0 0.0036931088673091139 -0.00087006283251489513 -0.0069049966075426239 0 -0.0069049966075426239 0.016672101883673296 0 0 0 0.0039505097627894337 -0.0015079168608931326 0.0080588026785064493 0 0.0080588026785064493 0.040237236357828721 0 0 0 0.009682329874233897 0.0010545293698096536 -0.00022242373132663751 0 -0.00022242373132663751 0.0005350713192187051 0 0 0 0.00039740017225708968 0.0015667920626971643 0.01600306824034603 0 0.01600306824034603 0.039879381861669394 0 0 0 0.010361543481091751 -0.0040472202868953033 -0.0016425680044627189 0 -0.0016425680044627189 -0.00090139420841328644 0 0 0 -0.0012371536238271474 -0.02389570936666896 -0.0081629404337282829 0 -0.0081629404337282829 -0.018597874027957206 0 0 0 -0.010623395848656514 -0.025938144198920654 -0.0086840952828119468 0 -0.0086840952828119468 0.0081859134451941484 0 0 0 -0.0044380576884315848 -0.031727639958869819 -0.01006435711997105 0 -0.01006435711997105 0.0061818591721410909 0 0 0 -0.0063864451966821612 -0.014455594514154776 -0.001500768705818778 0 -0.001500768705818778 -0.020340082066398715 0 0 0 -0.0086989191451383591 -0.014775297946939159 0.00064815777837656796 0 0.00064815777837656796 -0.01701276447178024 0 0 0 -0.007947015604679919 -0.018404428702492058 0.023712605903428011 0 0.023712605903428011 0.079849587033984648 0 0 0 0.015361289582873148 -0.03710064651359276 -0.015787627714955753 0 -0.015787627714955753 0.0081478317705647035 0 0 0 -0.0072382036857570053 -0.038986728368316417 -0.023582237791165403 0 -0.023582237791165403 0.0038857305555401456 0 0 0 -0.0087752494531940645 -0.044297977092955611 0.0029261140678062763 0 0.0029261140678062763 0.0030243598163314372 0 0 0 -0.010318404319156052 -0.088813548145268428 0.032979485614224369 0 0.032979485614224369 0.0029649617918252602 0 0 0 -0.021462146588360875 -0.071903089834127187 0.04666925364188812 0 0.04666925364188812 0.032532567974289828 0 0 0 -0.0098426304649593677 -0.012529657912391148 0.022455540511935893 0 0.022455540511935893 0.051852298468155394 0 0 0 0.0098306601389410581 -0.020756482690623801 -0.0092934685956552101 0 -0.0092934685956552101 0.01076534036198995 0 0 0 -0.0024977855821585182 -0.025549293291976971 -0.010052140484575253 0 -0.010052140484575253 0.0093111779537004002 0 0 0 -0.004059528834569115 0.012220950035865263 0.029977809826843067 0 0.029977809826843067 0.054520511902667324 0 0 0 0.016685365484633147 -0.049470639045117476 -0.021013742678376579 0 -0.021013742678376579 0.01520947493260405 0 0 0 -0.0085652910281282801 -0.058378026047475912 -0.01441604702517274 0 -0.01441604702517274 0.0012275166590481057 0 0 0 -0.014287627347106951 -0.0098523271858378253 0.019784788257912505 0 0.019784788257912505 0.039059856358193618 0 0 0 0.0073018822930889377 0.0011305660145236765 0.023988711774158997 0 0.023988711774158997 0.030794974530059065 0 0 0 0.0079813851361456752 -0.032533277118052789 -0.012695263056992062 0 -0.012695263056992062 0.016968552018164162 0 0 0 -0.0038911812749721497 -0.027230240483555435 -0.0029377839103973454 0 -0.0029377839103973454 0.0091021056715689733 0 0 0 -0.0045320337029966084 -0.026787704387198942 -0.0019494338742457266 0 -0.0019494338742457266 0.016467666772050429 0 0 0 -0.0025800094037871195 -0.027113875001732568 -0.00080826581757421044 0 -0.00080826581757421044 0.027922859319905981 0 0 0 0.00020224607954335942 0.0053254804980855663 0.018342963472706586 0 0.018342963472706586 0.088956739232098236 0 0 0 0.023570554932545784 -0.026441832758163863 -0.0054952247381649943 0 -0.0054952247381649943 0.00021581572100282109 0 0 0 -0.0065565042592902745 -0.053562287977261654 0.0068896775510660993 0 0.0068896775510660993 0.00049503849948225737 0 0 0 -0.013266812369444856 -0.018096084105036096 0.0048802301837790243 0 0.0048802301837790243 -0.0076870795910570291 0 0 0 -0.0064457909240232805 0.033638720672509059 0.016253964952438249 0 0.016253964952438249 0.049342872073161237 0 0 0 0.02074539818641763 -0.019586715916745656 -0.0054645821434105568 0 -0.0054645821434105568 -0.01723992331906965 0 0 0 -0.0092066598089538543 -0.044663440782514913 -0.023180518103775447 0 -0.023180518103775447 -0.0014966617515656255 0 0 0 -0.011540025633520135 -0.066370376377794221 -0.018993210820642183 0 -0.018993210820642183 0.0010509265979476157 0 0 0 -0.016329862444961651 -0.027042021546279382 -0.0090798177308089867 0 -0.0090798177308089867 0.033916602768656934 0 0 0 0.0017186453055944018 
</DataArray>
<DataArray type="Float64" Name="cross_section_updated" format="ascii">
0.001007249868894869 0.0010180275080080179 0.0010248421199108761 0.0010314501373050664 0.0010384921105137342 0.0010463328696060366 0.0010550892218088085 0.0010641855524211893 0.0010735182797000941 0.001081952023425593 0.0020265085886529569 0.0020687637849342625 0.0020981019111431529 0.0021250690672248041 0.0021519380894707884 0.0021789964251030069 0.0022065253434904002 0.0022336295250132356 0.0022602215571928411 0.0022851479704284099 1 1 1 1 1 1 1 1 1 1 1 1 1 1 1 1 1 1 1 1 1 1 1 1 1 1 1 1 1 1 1 1 1 1 1 1 1 1 1 1 1 1 1 1 1 1 1 1 1 1 1 1 1 1 1 1 1 1 1 1 1 1 1 1 1 1 1 1 1 1 1 1 1 1 1 1 1 1 1 1 1 1 1 1 1 1 1 1 1 1 1 1 1 1 1 1 1 1 1 1 1 1 1 1 1 1 1 1 1 1 1 1 1 1 1 1 1 1 1 1 1 1 1 1 1 1 1 1 1 1 1 1 1 1 1 1 1 1 1 1 1 1 1 1 1 1 1 1 1 1 1 1 1 1 1 1 1 1 1 1 1 1 1 1 1 1 1 1 1 1 1 1 1 1 1 1 1 1 1 1 1 1 1 1 1 1 1 1 1 1 1 1 1 1 1 1 1 1 1 1 1 1 1 1 1 1 1 1 1 1 1 1 1 1 1 1 1 1 1 1 1 1 1 1 1 1 1 1 1 1 1 1 1 1 1 1 1 1 1 1 1 1 1 1 1 1 1 1 1 1 1 1 1 1 1 1 1 1 1 1 1 1 1 1 1 1 1 1 1 1 1 1 1 1 1 1 1 1 1 1 1 1 1 1 1 1 1 1 1 1 1 1 1 1 1 1 1 1 1 1 1 1 1 1 1 1 1 1 1 1 1 1 1 1 1 1 1 1 1 1 1 1 1 1 1 1 1 1 1 1 1 1 1 1 1 1 1 1 1 1 1 1 1 1 1 1 1 1 1 1 1 1 1 1 1 1 1 1 1 1 1 1 1 1 1 1 1 1 1 1 1 1 1 1 1 1 1 1 1 1 1 1 1 1 1 1 1 1 1 1 1 1 1 1 1 1 1 1 1 1 1 1 1 1 1 1 1 1 1 1 1 1 1 1 1 1 1 1 1 1 1 1 1 1 1 1 1 1 1 1 1 1 1 1 1 1 1 1 1 1 1 1 1 1 1 1 1 1 1 1 1 1 1 1 1 1 1 1 1 1 1 1 1 1 1 1 1 1 1 1 1 1 1 1 1 1 1 1 1 1 1 1 1 1 1 1 1 1 1 1 1 1 1 1 1 1 1 1 1 1 1 1 1 1 1 1 1 1 1 1 1 1 1 1 1 1 1 1 1 1 1 1 1 1 1 1 1 1 1 1 1 1 1 1 1 1 1 1 1 1 1 1 1 1 1 1 1 1 1 1 1 1 1 1 1 1 1 1 1 1 1 1 1 1 1 1 1 1 1 1 1 1 1 1 1 1 1 1 1 1 1 1 1 1 1 1 1 1 1 1 1 1 1 1 1 1 1 1 1 1 1 1 1 1 1 1 1 1 1 1 1 1 1 1 1 1 1 1 1 1 1 1 1 1 1 1 1 1 1 1 1 1 1 1 1 1 1 1 1 1 1 1 1 1 1 1 1 1 1 1 1 1 1 1 1 1 1 1 1 1 1 1 1 1 1 1 1 1 1 1 1 1 1 1 1 1 1 1 1 1 1 1 1 1 1 1 1 1 1 1 1 1 1 1 1 1 1 1 1 1 1 1 1 1 1 1 1 1 1 1 1 1 1 1 1 1 1 1 1 1 1 1 1 1 1 1 1 1 1 1 1 1 1 1 1 1 1 1 1 1 1 1 1 1 1 1 1 1 1 1 1 1 1 1 1 1 1 1 1 1 1 1 1 1 1 1 1 1 1 1 1 1 1 1 1 1 1 1 1 1 1 1 1 1 1 1 1 1 1 1 1 1 1 1 1 1 1 1 1 1 1 1 1 1 1 1 1 1 1 1 1 1 1 1 1 1 1 1 1 1 1 1 1 1 1 1 1 1 1 1 1 1 1 1 1 1 1 1 1 1 1 1 1 1 1 1 1 1 1 1 1 1 1 1 1 1 1 1 1 1 1 1 1 1 1 1 1 1 1 1 1 1 1 1 1 1 1 1 1 1 1 1 1 1 1 1 1 1 1 1 1 1 1 1 1 1 1 1 1 1 1 1 1 1 1 1 1 1 1 1 1 1 1 1 1 1 1 1 1 1 1 1 1 1 1 1 1 1 1 1 1 1 1 1 1 1 1 1 1 1 1 1 1 1 1 1 1 1 1 1 1 1 1 1 1 1 1 1 1 1 1 1 1 1 1 1 1 1 1 1 1 1 1 1 1 1 1 1 1 1 1 1 1 1 1 1 1 1 1 1 1 1 1 1 1 1 1 1 1 1 1 1 1 1 1 1 1 1 1 1 1 1 1 1 1 1 1 1 1 1 1 1 1 1 1 1 1 1 1 1 1 1 1 1 
</DataArray>
<DataArray type="Float64" Name="displacement_divergence" format="ascii">
0.0072300591650968889 0.018004151321005409 0.024814746579822848 0.031424660812767784 0.038469189635021897 0.046310426344781531 0.055064559902853999 0.064159255688121142 0.073501557175741 0.081894845668824601 0.013324214977283698 0.034375408233590456 0.049040076507689177 0.062516871252456141 0.075945370916631727 0.08946834293807393 0.10322865160699542 0.11675605389655619 0.13013041564405034 0.14227476123641306 -8.5949435441904037e-06 2.1940749353296696e-06 -1.2374693251264554e-05 -1.1272794990906903e-05 -6.3895242982159252e-05 -4.5460766589787398e-05 -6.9173020947433766e-05 -4.7547362653470023e-05 -5.8055717736116985e-05 -0.0001007969447663723 -1.2672569563176663e-05 -1.3189237781874013e-05 -2.4594033015490653e-05 -2.7425707701164905e-05 -2.8773701685956708e-05 -1.7436103196497938e-05 0.00017453568779912264 -7.6310422937660594e-06 -1.0470877311536189e-06 -5.9226434822529442e-06 -1.4997296910487616e-06 -8.9838109024978786e-06 -1.0501669290033876e-05 -2.2670667405563125e-05 0.00013992171112903862 -0.00011186440005119609 -6.1303417879114361e-05 -3.7844405894142609e-05 -2.2152231165446486e-05 -5.2569703492472356e-05 1.699062889392653e-06 -1.4061253615423258e-05 -1.821446239793495e-05 -1.2132445870661991e-05 -2.3757831322746871e-05 -4.0046610968897411e-05 1.8553333577145456e-05 -5.3123302436580092e-05 0.00016688433141898965 -2.2410514556809105e-06 8.4670254299257014e-06 1.902533002199126e-05 2.6950106511439836e-05 -5.9390052024382509e-06 -2.2074195739106685e-05 -2.177479309029002e-05 -3.0214874127877807e-06 -8.5773620707582589e-06 0.00018140521248929088 -6.314909936922246e-06 1.4311406864741651e-05 -2.6733010298696713e-05 8.5110895110756996e-06 -1.412494473466096e-05 -7.4608363096486351e-06 -5.9480250111393178e-05 -4.8607403381579432e-06 3.9438838501379154e-05 2.7260929308036706e-05 -7.7956459483465718e-07 -1.9143281355338336e-05 5.4056034785354141e-05 -1.4944502382243253e-05 -1.5352404874377024e-05 -1.5932227218667244e-05 -4.9940629152498586e-05 -6.9430293551425482e-05 -7.6150056047519496e-06 4.7552137581024232e-06 -5.3980347685317828e-05 -4.1502046434008118e-05 -1.7756841243349758e-05 -4.6071063939042991e-05 -6.6055944217432801e-05 -1.8966800349060661e-05 -1.2963970099026884e-05 5.7448115266419764e-05 -4.7844759017670775e-06 -1.9872399845942748e-05 -1.990266673253462e-05 -3.2085049419777571e-05 -6.9446334308907582e-05 -5.1265960615034544e-05 -2.3114014136595722e-05 -1.1875504435380352e-05 -7.8116443242100177e-06 -1.1985397462926695e-05 -1.4292635615263249e-05 -3.5205464091806847e-05 -2.0222363994450707e-05 -1.1743311482333459e-05 -1.3433337446711383e-05 -1.4952052848533696e-05 -1.0973922490471115e-05 -1.0054041801442633e-06 -1.7756132009267189e-05 1.8027254954317222e-05 5.9332574229288733e-05 -6.4687423430341909e-07 -6.1657578125603497e-06 6.4954551411052115e-05 4.0583209502601588e-05 -1.7274865823820494e-05 -2.017602343329486e-05 2.1733384835195737e-05 3.6210814961640768e-06 -5.2850051937399704e-06 -1.6261110888090863e-05 -1.810386975602252e-05 1.4186258277947236e-05 -8.5853947787315962e-06 2.9715955404000741e-05 -5.2146460740873695e-05 -8.5536813551818675e-05 -3.7695856330642434e-06 7.5906628551986272e-05 -1.4496035147584026e-05 -1.2231839881963631e-05 4.675653083074498e-07 -1.3660738392368491e-06 5.0264079908216713e-06 -2.4430163705492192e-06 1.1096652060847364e-05 -1.8367076391093357e-05 -1.7310218642985063e-05 -1.8063761006458926e-05 1.7616793624546101e-06 -8.1606850305114423e-05 -2.1037680585298657e-05 -1.621494801142307e-05 -2.4684437224365894e-05 -6.258930887882274e-05 -4.3762397776443083e-05 -4.431033780765594e-05 -7.2621892880805352e-05 -6.8600488767443985e-05 -1.9330612102914409e-05 -4.7741737680779867e-05 2.365306934951311e-05 3.9502410703904322e-06 3.8491038774712321e-06 -2.2281015225409772e-05 -7.81896642547224e-06 2.9691680327620636e-07 -1.6650732553550045e-05 -2.1084214563979231e-05 -2.8248585256388306e-05 -2.5638684637305335e-05 -4.9615279071969423e-06 -3.4904917455260001e-05 -3.0411277530542863e-05 -1.8477278349109112e-05 -1.5413596668400475e-05 -1.8121312572889343e-05 -1.8591488614765312e-05 -2.3826587452107994e-05 -1.9502355352971513e-06 -1.4165825500728669e-05 -2.3368312999969148e-05 1.4882326192837871e-05 -1.9142723408705491e-05 -1.5664493572631074e-05 -6.9414104056780495e-05 -5.1245089814177161e-05 6.7512767011527642e-05 -1.3889284556275568e-05 3.8139785797285336e-06 -2.8205858859454969e-05 -4.867061878957296e-05 -7.8255795993207954e-05 -2.4394380188560698e-05 -4.3814115312507648e-05 -5.6549522850481704e-05 -4.559804155222079e-05 -2.8349708941685998e-05 -2.8295123344510406e-05 -3.4206943798301777e-05 -2.0154813649030296e-05 -3.3348396013665321e-07 -1.8031448775532311e-05 -1.7789242956940491e-05 -2.1088578959814476e-05 -3.5188803290957477e-05 -3.0162728850141191e-05 -1.8914897883846459e-05 -1.7872326082682063e-05 -2.0845648801638954e-05 2.001403906616182e-05 5.1596398381294396e-05 -3.960226937115119e-06 -1.390247179500599e-05 -2.0481950661646879e-05 -2.8886333930845751e-05 7.3498975477969634e-06 -2.1279939160239673e-05 -2.0905146014892652e-05 -1.7283291962553516e-05 -4.9903829792230587e-05 -7.6493273548709862e-05 -1.4580758095458871e-05 -3.3963689147818523e-05 -4.0768734415043076e-05 -9.3552231113814394e-05 -5.348342780252591e-05 6.3326086255047182e-05 0.00018292308859107334 -5.4912391587178867e-06 -1.5808543931260949e-05 1.2454176559879923e-05 -2.1131656722952195e-05 -1.7718737030312095e-05 -2.9041082972618842e-05 -1.5950643510883071e-05 -8.2672467444831524e-05 -2.0660248778220716e-05 -8.0560519144605696e-06 -6.3717258776899355e-06 -2.2549088785642321e-05 -7.4267606988616419e-06 -1.1797565465137668e-06 -4.2195435222819899e-05 -1.9422445891987671e-05 -6.5590413545742844e-05 -1.6270193244980434e-05 -1.815699770851641e-05 -1.9674010488852315e-05 -1.5392220423657331e-05 -1.9724790063104785e-05 5.9131238200103495e-05 -1.385084684266033e-05 -1.8592925307152054e-05 -1.1859210327589505e-05 3.9087538190871467e-05 -5.0650957734791672e-05 -1.521318326457218e-05 -7.7195200562103528e-05 -4.9293749929848388e-05 -4.8071453685760951e-05 -1.5728011455283556e-05 -6.4792713718939268e-06 2.0537925023613788e-06 1.3501194758280133e-06 -1.3551359714886851e-05 -2.1082866575030876e-05 -1.2225899733265579e-05 -1.5825446918869014e-05 1.2580665390374852e-06 -4.1678842285213652e-06 -1.2638615353444994e-05 -1.0267315728850184e-05 -5.4843387651375142e-06 -4.3572058070002768e-05 -3.2320537091689932e-05 -3.7983515074928352e-05 -5.8516554534382816e-05 -4.578821615269465e-05 -2.1962715173059148e-05 6.2451365916865861e-05 -5.2423908004736954e-05 -4.0219264863539679e-05 -8.8030599728063437e-06 -2.8975004726482843e-05 -3.4574741774100271e-05 -6.225243212044354e-05 -6.4217767881514774e-05 2.6185118313284267e-06 -6.8225550225800569e-06 -9.0767309113081293e-06 -1.4633693194080377e-05 -2.4050534235927948e-05 3.2294277453069782e-05 5.9348068776485024e-05 -1.7414990769204366e-05 -3.7687593841942072e-05 -1.9399612980971126e-05 -5.9081979851643128e-05 -9.0861167456470063e-06 -1.432236594761931e-05 -1.387777185693777e-05 -2.6382734902373473e-05 -2.8288447246375579e-05 -2.9626462082423541e-05 -3.0238230277437788e-05 -3.9698613719775207e-05 -5.8673284947481598e-05 -5.22125076756924e-05 -4.0498132977574499e-05 -3.2207501927200058e-05 -4.1514299075155621e-05 -2.3784518121057791e-05 2.0382142732899117e-05 -1.105632341202056e-05 -1.0300184686602362e-05 -4.0313142228541599e-06 -3.2478648909674621e-05 -4.0386382532772822e-05 -1.057561578594457e-05 2.3534843889563232e-06 -4.6579151344893367e-05 1.8312405806703274e-05 -2.1137818001914751e-05 1.0509270570058875e-06 -6.5524684486880361e-05 -4.4341282479358441e-05 1.0605196729762483e-06 -1.472223161821831e-05 -1.9179216227523273e-05 -6.5899765894525007e-05 -4.5153849442811927e-05 1.1157397252443887e-05 -1.4825452180012178e-05 -1.6892553536844088e-05 -3.6306182580512288e-05 -2.8926363983635106e-05 -3.0780810405910131e-06 -1.3988833558475447e-06 -3.0478610525462849e-05 -2.7881537878347893e-05 -2.7687802017433546e-05 -2.6992890257637718e-05 -1.7981553858816587e-05 8.7485553312821867e-06 -3.9740640696705991e-06 -9.3451539274389504e-06 -2.1701358736633553e-05 -5.7390502441532869e-06 -2.3416449805953302e-06 6.4141882702148714e-06 -2.9057497381407196e-05 -1.6616140916226934e-05 -5.3290053704700341e-05 -4.0863952880322883e-05 -4.5818900091854119e-06 3.4137588248426588e-05 6.0837441655636163e-05 -2.9484161321647099e-06 9.8356635214707892e-07 -2.0752548729358468e-05 -2.8189251857696669e-05 -2.086023848572871e-05 -1.7328373118493886e-05 -1.1893161352201798e-06 -4.1957100532894094e-06 6.8438702808405315e-06 -1.142311864526244e-05 -1.5964267950056171e-05 -1.3529954815580579e-05 -9.5831910327918052e-06 -6.1341619806984729e-06 -1.2085912906478497e-05 -4.5379618695523558e-05 -3.654461275547562e-05 1.2462813244337083e-05 -6.5339416089184245e-05 -4.7466918027721688e-05 -2.2749393927168089e-05 1.9658952723428016e-05 1.5454758052654981e-05 -1.6798070158848184e-06 -1.972352491556059e-05 -1.0168852969699797e-05 -1.9229754667605698e-05 -4.2267196209465688e-05 -3.0743788364472296e-05 1.7671259590774143e-05 5.5482827475106483e-06 1.6098835797955023e-05 -4.2970602762838452e-06 -4.4148500056039638e-06 3.0603965163024486e-05 1.8050973834106269e-05 1.0072342656597399e-05 -1.3091037699185584e-05 6.0566053865110468e-06 -1.3882972572840399e-05 -2.5866971449783178e-05 5.8354424185048786e-06 -2.0364398942075511e-05 -4.9224373692546581e-05 -3.0867481963168242e-05 -5.4688011130042176e-06 1.8410823340219294e-05 -8.4127112051287983e-05 -1.5765682010165003e-05 -9.0028770828110759e-06 -1.8261857173793513e-05 -2.5930921428504532e-05 -2.2979921788798291e-05 -1.3950115962276406e-05 -9.5630053805539191e-06 -1.472528156732438e-05 -3.8705438619220794e-06 -4.5995976202982825e-05 4.8705477120447279e-05 -1.5448165738417042e-05 -1.1507336966902893e-05 -9.9193278750156011e-06 -1.3038622203594141e-05 2.0600200462518939e-06 -2.5275114625517998e-06 -6.6990343925260871e-06 -1.0947439070601349e-05 -3.8417972934288854e-05 -1.3493645165897378e-05 -4.0721788546032851e-06 -4.3227741919936929e-05 5.4908385105936422e-05 -1.3674380025740021e-05 -1.2438935790297281e-05 -1.1513614980634738e-05 -1.4076459426706655e-05 1.5408504648238114e-05 -1.9001574837551681e-05 -2.2652312705385307e-05 -1.0703934411867762e-05 -3.8957908480323359e-05 -3.0032654378278059e-05 -1.1849678902069874e-05 -4.3557294481786669e-05 -6.2423353312005556e-05 2.8915386190650223e-06 1.0603942602870303e-05 2.7182529053475127e-06 -2.504382493586602e-05 6.2996355005770065e-05 -1.8249796791441096e-05 -2.6705222837810835e-06 3.2112445235613508e-05 -1.2128427216476899e-05 -1.3311334416104409e-05 -1.0789667372807063e-05 -1.6876838761129242e-05 -1.0054568342030023e-06 1.3795928547718789e-05 -9.2205479629610268e-06 -6.2311366045655938e-05 -0.00011140501437738014 3.6756109751468098e-05 -3.1181614318935435e-05 3.1562692658050715e-05 4.1419945766339706e-05 7.3418984495601043e-05 6.3764307154536948e-05 -1.5894241586403383e-05 -1.1357364178762376e-05 4.3939416686018752e-05 1.6904207637364645e-05 -8.1485761892580123e-06 6.8265054431358371e-06 -7.4234506232820699e-06 -5.8894245737631072e-06 -2.1178615903080442e-06 -1.2403016453890974e-05 9.0732422251355786e-06 -4.0797730557036384e-06 1.3818077732768783e-05 -5.5949035963906782e-06 6.8081834709112811e-07 6.9555199864198116e-06 -1.7489360709992672e-05 -1.5918583870722433e-05 -1.6240712069557866e-05 -2.8265849291981117e-06 -3.9052636873663105e-05 2.7590671973232414e-05 3.0648880570020365e-06 6.9558416533594238e-06 -2.2080032557045878e-05 -2.5787169577855436e-05 -0.0001251236472892272 -6.6602492908836926e-05 -1.8783576583688935e-05 -2.3348161425060443e-05 4.0025367972533964e-06 3.6044806886938473e-06 -2.0786195260760523e-06 -6.2333761697257122e-05 -4.4128316587154389e-05 3.7649073250839698e-05 -4.9978812020334201e-05 -3.8258586340166427e-05 -2.2001824795602268e-05 5.130337350929483e-05 -1.6178707629875886e-06 -9.9274192659441079e-06 -3.736554672910227e-05 -3.461841747831134e-05 -5.6077213670974711e-05 -9.203943495813966e-05 -2.0829082135776086e-05 2.040002769735413e-05 1.2061415163953649e-07 5.0445470800321358e-06 1.5843520800548863e-06 1.95089529589892e-05 1.939980236206324e-05 -2.5161930934015095e-05 -1.4660136572830673e-05 6.2892945227613838e-07 4.3528445832366014e-05 -5.2547557310648866e-05 -8.2768104883750533e-05 -1.7439092054787421e-05 3.2377919692664356e-05 -6.3888616250893687e-06 -5.1673247222715828e-05 -3.8964832996776633e-05 -1.8434464049778042e-05 2.6186434308382806e-06 -3.1282394872716762e-06 -1.8485108934041817e-05 -3.2379981263353039e-05 1.5898178602999011e-05 1.6125956584122541e-05 9.7996840909392834e-07 -6.6617963647368325e-06 -3.9384009479320535e-06 2.2287538174015997e-06 5.4150558081244183e-05 4.6793723206309777e-07 2.6667233727238702e-05 6.4436468360444359e-07 -2.8959466077034268e-06 -8.5889007718405197e-06 -4.1654517406852217e-06 -7.1794969351596127e-05 -8.2928721787512317e-05 -1.4918324725066066e-05 -1.8507028445510986e-05 2.0485999401448593e-05 -3.7416486878838274e-05 -3.3271513262573475e-05 -3.9568511023825935e-05 -4.9669345964460301e-05 -3.1035119965777767e-05 -2.3683706634900371e-05 -2.3930348464760979e-05 -2.3815601268415033e-05 -2.250767701184015e-05 -2.5523978536432787e-05 -1.2662205962236071e-05 -1.6696782452093424e-05 -2.9234744310223937e-05 -2.9467426310889779e-05 -1.0512922390249111e-05 -3.3226471043459578e-05 -3.8892406174902773e-05 6.2100373253517224e-06 -1.1195457513417915e-05 -4.8115106760519915e-05 -4.0231431434435786e-05 2.9219158936800901e-05 -2.4588320666672553e-05 -2.2370750067632195e-05 1.3107157220594665e-05 -3.1885308980719005e-06 -6.0372544727941787e-06 -7.2064517751666498e-05 -5.0626259841405567e-05 1.2884505624265581e-05 -4.9308982651329931e-06 -1.392920776192467e-05 -3.8820733038500923e-05 -4.7552374192415085e-05 -8.9458790489121694e-06 -1.3525476104960188e-05 -1.5783509752928664e-05 -1.6379352251555273e-06 -1.7453927621381479e-05 6.936673157454423e-05 -2.1597159164545195e-05 -3.0743276427801398e-05 1.9908168611911664e-05 1.9451307606116333e-05 -4.0276527393757022e-05 -5.8502783580950644e-06 -5.2634394862250561e-05 -8.8912842371193299e-05 -5.2428329539508319e-05 -9.0256996466364268e-05 -4.623105694605624e-05 -6.279967435092492e-05 -2.4750827908419235e-06 4.8909043690197851e-06 2.039210862896134e-05 5.2196025409689123e-05 8.1867380582722733e-06 4.1622744542468045e-05 1.0997473090832029e-05 -1.5373938155471277e-05 7.9895433781065829e-06 -3.0493454838774318e-06 5.8448966049699125e-06 -6.7548808389669181e-05 5.1698239826385942e-07 7.5264024014353999e-05 6.6507424543993322e-05 2.2879748981594256e-05 -9.8697306182623167e-05 -5.6388467138299237e-05 1.4477155286582913e-06 -4.3641112774907981e-05 -2.8135947028824597e-05 -4.9620896615937531e-06 6.3806032265262463e-07 1.7774728692901507e-05 -1.2907079163135618e-05 -2.8783623002933935e-05 -3.1707653511871869e-05 -1.1325407995445877e-05 -1.1060696817138732e-05 -1.5430259990636556e-05 -1.4669331113740299e-05 -2.8558728698493778e-05 -2.1626542953965018e-05 -3.480776206852039e-05 -4.2839012153504617e-05 -4.5379648981393053e-05 -7.9914851463327302e-05 -3.8318733812555162e-05 -7.8222333157709195e-06 -1.6242253162806661e-05 -6.1129638471602482e-05 -8.3171104468543456e-05 -1.5360229395068589e-05 1.6754814540142349e-05 -5.7894256379315657e-05 -0.00010546545114929412 -2.7916176016320221e-05 -5.2698499720989662e-05 -3.8282902674694707e-05 8.216312329264292e-05 -7.539179525170643e-05 -4.816526816200795e-05 -2.2879031710019222e-05 -2.2085213845398288e-05 4.2738714183509081e-06 -1.2264667176042281e-05 -3.230445160546769e-06 7.3345955663344517e-05 -3.750591233217331e-05 -1.4477773364019226e-05 6.1769807656654376e-05 -3.838255484140657e-05 -0.00012592105940173622 -6.7701593561237902e-05 6.2117069056978494e-06 -5.0279713177900644e-05 -5.8564464115897532e-05 3.0750731760601321e-05 -2.5730150397837697e-05 -1.4904162942623497e-05 5.0368525088845088e-05 -9.1752260473229423e-06 -8.2423355221974753e-06 7.101377755356535e-06 -1.4218789264031821e-05 -2.4361311361559453e-05 2.2660372458618286e-05 -2.3774402045905902e-05 2.8621791989909224e-05 -4.6097990011170607e-05 -2.2841465886344972e-05 -3.8632643367046526e-05 -3.9552328783128534e-05 -5.0266968697835728e-05 -4.3360758363368398e-05 -4.3522685792660122e-05 -3.3112564683006278e-05 -3.7220524472258388e-05 -3.1369641381085901e-05 -3.1054846047912973e-05 -7.419936106473971e-06 1.2704862157371087e-05 -1.0086766358717793e-05 -5.7195743956797327e-06 -9.9203610229317779e-06 6.481859431499838e-06 -4.8782549893491237e-06 -6.8977225414937815e-05 -0.00013005551994316991 2.4929556530808015e-06 1.2076776643482243e-05 -3.0958820762249978e-05 -1.5897471816141136e-05 -2.4450353396500548e-05 -1.9997865748047042e-05 3.7488262949344926e-05 -4.8008153613206538e-05 -4.3269497777744359e-05 -5.9429495584294396e-05 -7.154388496163284e-05 -5.9926578511462769e-05 4.0882601585894062e-05 1.7927443784760398e-05 -1.8784344695346791e-05 -2.7267728642220418e-05 -2.4738173555434177e-06 -3.9817718639538667e-05 1.54339361966363e-05 -1.8468833636083809e-05 -2.0702296317790535e-05 5.2931927120025905e-05 -0.00010815334276558473 -1.355432812837818e-05 -3.6670000831414615e-05 -4.3410512244745312e-05 -2.6392118542522872e-06 -5.1391245411945346e-05 -8.5936784217319038e-05 2.7592140471289876e-05 -2.4566984785641659e-05 1.7394008342557117e-05 2.7740010106412074e-07 -6.0055268071092011e-06 -9.5440897000362718e-06 -1.617287607199923e-05 -2.0829079520354772e-05 4.3366748250652794e-05 3.7646738348217634e-05 -2.0038414323034215e-05 -1.7797144056784899e-05 4.7842448643916485e-06 -8.0697310960147622e-07 -1.7247615587880766e-06 1.9384212769968639e-05 -1.390106350155182e-05 2.7019683931177541e-05 4.1195693946071939e-06 -4.1636630558814641e-05 -4.7318051333269148e-05 -8.0362643918199415e-05 1.3436382904002408e-05 1.9097445911101809e-05 -1.311785128311391e-05 -1.6620590204441208e-05 -8.0949007841836217e-05 -4.9703814556231115e-05 -4.5054717546578815e-05 3.2201105343610502e-05 -1.6788658356931257e-05 -1.7297449320810902e-05 -9.0303874503504658e-06 -2.74832329816056e-05 -2.9391911901377465e-05 -1.0360822359915031e-06 1.0015489632806269e-05 -4.2011212003592797e-05 -4.4521687995305857e-05 -7.3552310403417762e-05 -2.0196415915191171e-05 -2.6716979080305308e-05 -3.8763882117974072e-05 -3.3863916167266534e-05 -9.2728806861161852e-06 -4.8833029082649861e-05 -5.746772994129626e-05 -1.8225935200464984e-05 -2.9193265340673319e-05 -1.5730685909496532e-05 5.1113421537824053e-05 6.5515772318433787e-05 -6.1314129678257501e-05 5.6882355435746009e-05 4.4836721880810908e-05 -2.8191956668267975e-05 -2.0213111052975417e-05 -6.1899974883821915e-05 2.3208837140886395e-06 4.948746927376577e-05 -1.8578524604332005e-05 -5.3670010176189555e-05 -9.2417606064798628e-05 -3.0240920116578586e-05 3.3287419041699677e-06 -9.9161567217994425e-06 1.4864515692168817e-05 -5.4579319428937139e-05 -4.4782415927371638e-05 -6.2199844610576769e-05 9.6566053918198489e-06 -3.3985808857456268e-05 2.9683311761834729e-05 -1.2685905411601566e-05 -1.0988434014777321e-05 -5.3944156851320964e-05 -9.3250647056672772e-05 -3.8750934752607966e-05 -4.2037436985052179e-06 1.4094522298867544e-05 -2.4695782548133369e-05 -1.852215898902836e-05 -3.0495119215396817e-05 -3.0494367762293454e-05 -1.7421599206852832e-05 -1.725052677931526e-05 -5.5664071260335822e-05 -0.00010108813570393457 -2.9252423711441215e-05 5.0017060758245947e-05 3.4180769440504775e-05 -2.2310632465554966e-05 6.0092836162224834e-05 -1.3697717002379792e-06 -1.7609295509768267e-05 4.1446168454325029e-05 7.2110204787600735e-05 -5.1160715778115779e-05 -3.2038563380279474e-05 -1.0420401905914536e-05 -4.8049784653024508e-05 6.9751142950348014e-06 -1.3740675804818979e-05 -2.1071554568274063e-05 5.016286659879866e-05 -2.6835564810666502e-05 -1.3506268696697598e-05 -9.0454454521429952e-06 9.0322268143730195e-06 3.8684861220299107e-05 6.9177095393735898e-05 2.3812561789458013e-05 1.2348926184331809e-05 -8.2799405482458338e-06 2.1289426225876173e-05 -2.7329145405322313e-05 -3.8233400690166009e-05 -3.1643905188604744e-05 -3.6411254444106221e-05 -3.6078665353564713e-06 6.9480297249058069e-06 -6.4540970107557327e-06 -1.938278096090193e-05 -1.7099501004575608e-05 -1.1196710532103036e-05 -1.5837694078800349e-05 -1.2194262010380933e-05 -1.308552731974893e-05 -1.3762621751183912e-05 8.8523330294101388e-05 -1.5485939793465676e-05 -2.6840690072130928e-05 5.4860422809806589e-07 7.083712715987879e-05 6.6964960168679473e-05 3.4476080691259094e-05 8.7025281986057024e-07 4.5719877569114426e-07 3.9187820641814908e-05 7.9037406629841461e-07 -1.6463380804575229e-05 -1.9366138407620425e-05 -2.8616725979015685e-05 -2.2889341936477292e-05 -2.1141182588616826e-05 -2.0217102212027795e-05 -1.1447444084043126e-05 2.7875303902171887e-05 5.2914761096579303e-05 2.0558318212716324e-06 -2.5658323956764427e-05 7.3079680464982304e-06 3.2127807707811021e-05 -1.1058838398056751e-05 -8.424050312223347e-06 -7.4711208354655452e-06 -2.2023815974451556e-05 -5.9554307020976099e-06 1.6576868544879056e-06 -2.3063428568069436e-05 -3.457048544347962e-06 1.7633556227614016e-05 -1.6597092652311967e-05 3.5989287037460909e-05 1.2613215587250386e-05 -1.2427916827090506e-05 -3.6816129364728885e-05 -6.8192793384630088e-08 4.6393187574849602e-06 0.00010586313246459773 9.1370366649801409e-05 4.9940949729234546e-05 1.3837325593526773e-05 -3.0820621175027194e-05 -2.4355741138469169e-05 -5.2365279595543933e-05 -4.0187909566103676e-05 -9.8209676475266687e-06 -5.0937658002399763e-05 -5.3870635961933463e-05 -6.9738000653239956e-05 -7.4502612258827349e-05 -1.4647268736251416e-05 -1.3067652904012659e-05 2.7500898625711133e-05 2.54144672932897e-05 3.2938980152988756e-05 5.3035308192296224e-07 3.452262925321867e-07 6.7995936435349886e-06 1.8584840205136721e-05 -3.4468300389064765e-07 -9.2150473742734349e-06 -8.7765040708898991e-06 -6.3412001651292298e-05 -8.7670730844192706e-05 -8.4765407773218748e-05 -6.1849702750827769e-05 -8.7434321435037824e-06 -2.0829498863756429e-05 -1.4072329363012297e-05 -1.729993292915637e-05 -1.7049381588197488e-05 -1.4271375577022359e-05 -1.3937743725056132e-05 4.1770435321727045e-05 0.00019403643387947469 -2.4737004998261981e-05 9.7173697873722338e-06 -3.7816200869344465e-06 -8.5424842725671297e-06 1.5760430834798039e-05 -1.6724684253982547e-05 3.7014948280687029e-05 -1.158035327759291e-07 -2.2503209920378062e-05 6.237613139148477e-07 4.2825537873800862e-06 -1.8911381476794742e-05 1.9016972747177603e-05 -1.7708061943189897e-05 -3.1236662710232012e-05 -2.7404314877271416e-05 -2.4942478493509083e-05 -6.11467370612045e-06 -4.5101191640639204e-06 -1.9592700138429757e-05 -1.3882742788470539e-05 -1.5865402879147877e-05 -2.2529875441470483e-05 -7.1148586409617307e-06 -2.6235342117635893e-06 -1.9283167329141575e-05 5.9135932230839841e-05 1.0540645653363961e-05 -3.720386434505514e-06 2.8163843883233577e-06 -4.5489864112387667e-06 -2.8759401555269667e-05 -7.8868528314607507e-06 -2.6434519973710449e-06 2.9301106440371206e-06 2.6243665680446976e-06 -3.1722956336365654e-07 -2.6581705885042606e-08 -4.1311378829833427e-06 -2.8059166408916361e-05 1.3870598731792553e-05 4.3229135347869348e-05 7.8236560282851663e-05 -1.2858359685061921e-05 -4.0445480717122423e-05 -4.535731126322981e-05 -2.1578611643130684e-05 -9.5340884862580654e-06 -1.7176764863519684e-05 -6.2975327926104734e-06 -3.0122446137459923e-05 -5.9641884066507535e-06 -8.6809077228567916e-06 -4.7376813888612838e-05 -6.730698654616576e-05 -5.574183227141908e-05 -4.1413724023789901e-05 -8.7675485190894355e-06 -4.1622037947221593e-05 3.8851444506009161e-06 6.5582508814126909e-07 -2.220689349092633e-05 -2.5441102682104927e-05 -1.070550037041188e-05 -9.1825111935623554e-06 -3.839108006644484e-05 -3.8528331306015846e-05 -2.5277268712821941e-05 -3.1448891513704332e-06 -2.1663154174770389e-05 -4.239198452771209e-06 -3.3141928524214995e-05 -1.2699490906375854e-05 -2.516017971877847e-05 1.0298467296399833e-05 2.4254585765210454e-05 -1.5958608617754703e-05 1.5862927053040404e-06 -3.743137595088597e-06 9.2327721682729756e-06 9.8762744069735148e-06 2.4205824685584812e-05 9.935004306430191e-07 2.5903858702728579e-05 -3.0928840595678513e-06 -2.6558489621641176e-05 -1.109514422107901e-05 -1.5966112991705255e-05 -2.1747297862845669e-05 -1.9867539011699713e-05 3.8403223957182814e-05 -1.8095509214392544e-05 -2.1938123632985108e-05 -2.5796010797890158e-05 -5.3655366470902561e-05 -2.4606576162398107e-05 2.4576650347352661e-05 -6.2444639553963215e-06 -1.014882208642267e-05 4.1713413711582921e-05 -2.1413227570321006e-05 -3.5719068367767178e-05 1.8254705732722389e-05 1.995346284036423e-05 -9.7279531874302008e-06 -1.1330084257491522e-05 -6.4500235094678177e-06 5.0561519885837064e-07 5.8926387331365276e-05 -1.6391260648226024e-05 -3.3167030923612123e-05 -1.6114477310058203e-05 5.1863495466043926e-05 -2.3016649522384605e-05 -2.8850064083800329e-05 -4.0824656112404086e-05 4.2966132639859133e-06 
</DataArray>
</CellData>
</Piece>
</UnstructuredGrid>
</VTKFile>
