<?xml version="1.0"?>
<VTKFile type="UnstructuredGrid" version="0.1" byte_order="LittleEndian">
<UnstructuredGrid>
<Piece NumberOfPoints="3142" NumberOfCells="1054">
<Points>
<DataArray type="Float64" NumberOfComponents="3" format="ascii">
0.5 0.29999999999999999 0 0.54999999999999993 0.29999999999999999 0 0.54999999999999993 0.29999999999999999 0 0.59999999999999976 0.29999999999999999 0 0.59999999999999976 0.29999999999999999 0 0.6499999999999998 0.29999999999999999 0 0.6499999999999998 0.29999999999999999 0 0.69999999999999984 0.29999999999999999 0 0.69999999999999984 0.29999999999999999 0 0.74999999999999989 0.29999999999999999 0 0.74999999999999989 0.29999999999999999 0 0.79999999999999982 0.29999999999999999 0 0.79999999999999982 0.29999999999999999 0 0.84999999999999987 0.29999999999999999 0 0.84999999999999987 0.29999999999999999 0 0.89999999999999991 0.29999999999999999 0 0.89999999999999991 0.29999999999999999 0 0.94999999999999996 0.29999999999999999 0 0.94999999999999996 0.29999999999999999 0 1 0.29999999999999999 0 0.5 0.69999999999999996 0 0.54999999999999993 0.69999999999999996 0 0.54999999999999993 0.69999999999999996 0 0.59999999999999976 0.69999999999999996 0 0.59999999999999976 0.69999999999999996 0 0.6499999999999998 0.69999999999999996 0 0.6499999999999998 0.69999999999999996 0 0.69999999999999984 0.69999999999999996 0 0.69999999999999984 0.69999999999999996 0 0.74999999999999989 0.69999999999999996 0 0.74999999999999989 0.69999999999999996 0 0.79999999999999982 0.69999999999999996 0 0.79999999999999982 0.69999999999999996 0 0.84999999999999987 0.69999999999999996 0 0.84999999999999987 0.69999999999999996 0 0.89999999999999991 0.69999999999999996 0 0.89999999999999991 0.69999999999999996 0 0.94999999999999996 0.69999999999999996 0 0.94999999999999996 0.69999999999999996 0 1 0.69999999999999996 0 0.40076539126862748 0.34589349467022118 0 0.33277555741076909 0.36432196682010132 0 0.36575549820117997 0.31677992835137742 0 0.38083244760691543 0.38531983672244652 0 0.33277555741076909 0.36432196682010132 0 0.40076539126862748 0.34589349467022118 0 0.56836770495988642 0.3523062350852913 0 0.52289427570932567 0.3932284363388488 0 0.52752007115234678 0.33170632466418198 0 0.52752007115234678 0.33170632466418198 0 0.52289427570932567 0.3932284363388488 0 0.49077833859261139 0.35229981449445641 0 0.10000000000041601 1 0 0.053064897599294662 0.95186845269532028 0 0.10266856499240549 0.95548163909968886 0 0.099999999999814668 0 0 0.10266856499169109 0.044518360900210059 0 0.053064897599215843 0.048131547304697528 0 0.050000000000207989 1 0 0.053064897599294662 0.95186845269532028 0 0.10000000000041601 1 0 0.049999999999899652 0 0 0.099999999999814668 0 0 0.053064897599215843 0.048131547304697528 0 0.24999999999941211 0 0 0.29999999999926641 0 0 0.27499999999933927 0.060310814194988557 0 0.30000000000124832 1 0 0.25000000000104028 1 0 0.27609987656793722 0.94991445621608572 0 0.15720202157091859 0.60665697304410315 0 0.19914261668318661 0.62286739485272158 0 0.16500388252850301 0.66612077714085194 0 0.2236846579037573 0.67380363126050236 0 0.16500388252850301 0.66612077714085194 0 0.19914261668318661 0.62286739485272158 0 0.1247745017231483 0.27198077544791172 0 0.168349569971391 0.28054490850913671 0 0.14223753364722069 0.3341983344262433 0 0 0.75000000000034661 0 0 0.7000000000006934 0 0.049706944316475897 0.72477277076253799 0 0 0.30000000000124832 0 0 0.25000000000104028 0 0.049706944316556423 0.27522722923869108 0 0.59999999999999976 0.29999999999999999 0 0.61959173890754571 0.33832250091341232 0 0.56836770495988642 0.3523062350852913 0 0.5 0.69999999999999996 0 0.43323420005758778 0.6913544522562407 0 0.47913475093885149 0.66010775372412711 0 1 0.14999999999961891 0 0.95391631417672862 0.19584263333809451 0 0.93677536231883773 0.14999999999999089 0 1 0.84999999999982645 0 0.95391631417670719 0.89584263333814784 0 0.93677536231884972 0.85000000000000286 0 1 0.84999999999982645 0 0.93677536231884972 0.85000000000000286 0 0.95386563387742829 0.80414874155775029 0 1 0.14999999999961891 0 0.93677536231883773 0.14999999999999089 0 0.95386563387744361 0.1041487415577465 0 0.90416666666660628 0.9041666666666166 0 0.88088768115933802 0.84674609810493673 0 0.93677536231884972 0.85000000000000286 0 0.90416666666668166 0.20416666666667119 0 0.88088768115941807 0.14674609810479519 0 0.93677536231883773 0.14999999999999089 0 0.1247745017231483 0.27198077544791172 0 0.14223753364722069 0.3341983344262433 0 0.093851963071650835 0.30582068233324772 0 0.5 0.69999999999999996 0 0.45582236402875981 0.73896743678908217 0 0.43323420005758778 0.6913544522562407 0 0.55000000000173355 1 0 0.50000000000205869 1 0 0.52122150208832174 0.94089974453840242 0 0.49999999999869432 0 0 0.5499999999988151 0 0 0.52375890611712683 0.059318771819432882 0 0.54999999999999993 0.29999999999999999 0 0.59999999999999976 0.29999999999999999 0 0.56836770495988642 0.3523062350852913 0 0.50202631463681879 0.87892870825713787 0 0.44003836461056539 0.88093474584252718 0 0.45677673713123867 0.84253684404072415 0 0.33403534827021109 0.84402799729020661 0 0.35864759629805099 0.87963482415279515 0 0.30864387279288652 0.89906554525974958 0 0.53245488764484505 0.55078124999999989 0 0.47793794143994173 0.52940715638744962 0 0.53330375813596242 0.50827942741749099 0 0.82709327591102189 0.14937141670914489 0 0.81283102246527783 0.1881007222486438 0 0.77144070960558853 0.14311854477243749 0 0.82709327591091286 0.84937141670920724 0 0.81159157511211755 0.88795995483179491 0 0.76901770135486491 0.84293557325473656 0 0.77144070960558853 0.14311854477243749 0 0.81283102246527783 0.1881007222486438 0 0.76587607630038135 0.18880039518954719 0 0.76901770135486491 0.84293557325473656 0 0.81159157511211755 0.88795995483179491 0 0.76891166905518427 0.88835469571185499 0 0.33403534827021109 0.84402799729020661 0 0.30864387279288652 0.89906554525974958 0 0.29209212897034281 0.84715728365233667 0 0.57412547362576272 0.58273804879550706 0 0.5166924242153631 0.59825134841919447 0 0.53245488764484505 0.55078124999999989 0 0.50202631463681879 0.87892870825713787 0 0.47401147028110507 0.91529957330468115 0 0.44003836461056539 0.88093474584252718 0 0.5 0.69999999999999996 0 0.54999999999999993 0.69999999999999996 0 0.55363780716230748 0.74348740161571747 0 1 0.34999999999993492 0 0.95871855522754235 0.40006508612975411 0 0.95780851984364423 0.34215720972155339 0 1 0.64999999999986979 0 0.9578014258160763 0.65787212321113708 0 0.95867599106212187 0.60011091146651041 0 0.46666084890304671 0.57634471035397938 0 0.47793794143994173 0.52940715638744962 0 0.53245488764484505 0.55078124999999989 0 0.94999999999999996 0.29999999999999999 0 0.89898474358614167 0.25391965591104898 0 0.94399509803921056 0.24399509803922639 0 0.94999999999979179 1 0 0.89898474358632463 0.95391965591118966 0 0.94399509803919068 0.9439950980391687 0 0 0.65000000000104008 0 0.050069554451969707 0.61308520079857043 0 0.046634677244967337 0.671418230738282 0 0 0.35000000000145642 0 0.046389130980076937 0.32668781832131749 0 0.050583896093752537 0.38543522283434112 0 0.50202631463681879 0.87892870825713787 0 0.50627822638148745 0.8263979829520941 0 0.55899371797446828 0.85003102233514438 0 0.54782696902220018 0.79245182748204157 0 0.55899371797446828 0.85003102233514438 0 0.50627822638148745 0.8263979829520941 0 0.50945740445113552 0.75476055527778108 0 0.5 0.69999999999999996 0 0.55363780716230748 0.74348740161571747 0 0.84999999999965292 1 0 0.85170973911348691 0.93569607295217616 0 0.89898474358632463 0.95391965591118966 0 0.84999999999999987 0.29999999999999999 0 0.8517097391133297 0.2356960729520409 0 0.89898474358614167 0.25391965591104898 0 0.86956835336234861 0.571283299838105 0 0.82862096804812391 0.55037090955459045 0 0.86907294890112186 0.52008116128001669 0 0.49102375406324739 0.49123754822244059 0 0.53330375813596242 0.50827942741749099 0 0.47793794143994173 0.52940715638744962 0 0.57611405284611883 0.50165903596042916 0 0.61547661924074692 0.48539576058873962 0 0.62042975506801734 0.54295974692364424 0 0.71406021706547751 0.63292083137662503 0 0.67529834988829951 0.61613270668143583 0 0.71809016091162536 0.58185040402320831 0 0.65000000000104008 1 0 0.62065498684670595 0.95224934003983619 0 0.68015064798562208 0.95924320340003011 0 0.84999999999960507 0 0 0.899991664607802 0.045289349238254978 0 0.85491058998398861 0.060047533455626502 0 0.84999999999999987 0.69999999999999996 0 0.89999166460796554 0.74528934923809909 0 0.85491058998424563 0.76004753345552634 0 0.89999999999999991 0.29999999999999999 0 0.89898474358614167 0.25391965591104898 0 0.94999999999999996 0.29999999999999999 0 0.94999999999979179 1 0 0.89999999999958358 1 0 0.89898474358632463 0.95391965591118966 0 0.86411095495256451 0.42388805655111889 0 0.81308179852519835 0.39754945808726527 0 0.86844634540301924 0.38530937474099819 0 0.5 0.29999999999999999 0 0.49695729691142171 0.25014895411178018 0 0.54248833945060504 0.2520322959927106 0 0.86411095495256451 0.42388805655111889 0 0.81973119833356312 0.43505687159469048 0 0.81308179852519835 0.39754945808726527 0 0.67323294229744413 0.57556450033612505 0 0.71809016091162536 0.58185040402320831 0 0.67529834988829951 0.61613270668143583 0 0.6236733212988993 0.14864538214901801 0 0.68391457121233579 0.14440470121196541 0 0.64011864159029941 0.18789607982138171 0 0 0.050000000000207989 0 0.053064897599215843 0.048131547304697528 0 0.044310582753132287 0.101412518374475 0 0 0.94999999999979179 0 0.0443105827531413 0.89858748162559932 0 0.053064897599294662 0.95186845269532028 0 1 0.34999999999993492 0 1 0.39999999999978308 0 0.95871855522754235 0.40006508612975411 0 1 0.59999999999973963 0 1 0.64999999999986979 0 0.95867599106212187 0.60011091146651041 0 0 0.84999999999965292 0 0.065374659239661639 0.8551091961254178 0 0.0443105827531413 0.89858748162559932 0 0 0.15000000000062411 0 0.044310582753132287 0.101412518374475 0 0.065374659239632718 0.1448908038746782 0 0.16500388252850301 0.66612077714085194 0 0.1020579365089687 0.69352219419301997 0 0.1241190223511371 0.64391885572885044 0 0.14999999999970359 0 0 0.14618258501891079 0.062070108745602003 0 0.10266856499169109 0.044518360900210059 0 0.15000000000062411 1 0 0.10266856499240549 0.95548163909968886 0 0.14617343800780541 0.93808063414349496 0 0.7152569930854884 0.5237994455134295 0 0.67569444444444449 0.53500863336860327 0 0.69385896817107129 0.48377516041410151 0 0.6541250972820879 0.49999999999999989 0 0.62042975506801734 0.54295974692364424 0 0.61547661924074692 0.48539576058873962 0 0.94999999999999996 0.69999999999999996 0 0.94399509803918602 0.75600490196082126 0 0.89999166460796554 0.74528934923809909 0 0.94999999999986839 0 0 0.94399509803922566 0.056004901960802607 0 0.899991664607802 0.045289349238254978 0 0.6541250972820879 0.49999999999999989 0 0.69385896817107129 0.48377516041410151 0 0.67569444444444449 0.53500863336860327 0 0.82862096804812391 0.55037090955459045 0 0.81723410853263523 0.59419663659258926 0 0.77151014687832564 0.54436834383023036 0 0.7250000000005199 0.89375000000045834 0 0.66412543161245952 0.88015090885499059 0 0.68697391633157634 0.84450604838764298 0 0 0.94999999999979179 0 0 0.89999999999958358 0 0.0443105827531413 0.89858748162559932 0 0 0.10000000000041601 0 0 0.050000000000207989 0 0.044310582753132287 0.101412518374475 0 0.16500388252850301 0.66612077714085194 0 0.15332765547575641 0.71200081858233666 0 0.1020579365089687 0.69352219419301997 0 0.90299850604011456 0.79563452813489832 0 0.93677536231884972 0.85000000000000286 0 0.88088768115933802 0.84674609810493673 0 0.90299850604006393 0.09563452813493091 0 0.93677536231883773 0.14999999999999089 0 0.88088768115941807 0.14674609810479519 0 0.68391457121233579 0.14440470121196541 0 0.6865991819015953 0.189116534044597 0 0.64011864159029941 0.18789607982138171 0 0.085622222639554768 0.53333248912060549 0 0.1216098864341134 0.50637075089503902 0 0.1154888278694548 0.56733818459978413 0 0.21858834311891909 0.81980263716112767 0 0.22556077506376701 0.77837424984191617 0 0.26104540868854792 0.81401944968719064 0 0.81723410853263523 0.59419663659258926 0 0.77293540622714185 0.59448302402785813 0 0.77151014687832564 0.54436834383023036 0 0.1154888278694548 0.56733818459978413 0 0.1216098864341134 0.50637075089503902 0 0.14934928745814749 0.55042914607228977 0 0.1216098864341134 0.50637075089503902 0 0.068743045408989428 0.48853989837882689 0 0.113541300460994 0.46208784312094731 0 0.078358742472063481 0.43365249433908948 0 0.113541300460994 0.46208784312094731 0 0.068743045408989428 0.48853989837882689 0 0.83573492347052902 0.36590755630746369 0 0.81308179852519835 0.39754945808726527 0 0.78145581580700685 0.34881365920033602 0 0.57611405284611883 0.50165903596042916 0 0.62042975506801734 0.54295974692364424 0 0.57435499076887508 0.54267261987897775 0 0.86956835336234861 0.571283299838105 0 0.81723410853263523 0.59419663659258926 0 0.82862096804812391 0.55037090955459045 0 0.46666084890304671 0.57634471035397938 0 0.53245488764484505 0.55078124999999989 0 0.5166924242153631 0.59825134841919447 0 0.89999999999999991 0.69999999999999996 0 0.94999999999999996 0.69999999999999996 0 0.89999166460796554 0.74528934923809909 0 0.89999999999973679 0 0 0.94999999999986839 0 0 0.899991664607802 0.045289349238254978 0 0.84999999999960507 0 0 0.89999999999973679 0 0 0.899991664607802 0.045289349238254978 0 0.84999999999999987 0.69999999999999996 0 0.89999999999999991 0.69999999999999996 0 0.89999166460796554 0.74528934923809909 0 0.43545892161006339 0.61093128915313821 0 0.4089290844030305 0.58728915500154233 0 0.46666084890304671 0.57634471035397938 0 0.1650278706801647 0.38791388161335733 0 0.1117088112799664 0.38831403004970022 0 0.14223753364722069 0.3341983344262433 0 0.087545339447545459 0.35122518864182262 0 0.14223753364722069 0.3341983344262433 0 0.1117088112799664 0.38831403004970022 0 0.6916490518212759 0.75387992374886192 0 0.72501250972655151 0.74067302935308721 0 0.72500000000000064 0.7952620967744265 0 0.72501250972655151 0.74067302935308721 0 0.75841349681148107 0.75422312624214749 0 0.72500000000000064 0.7952620967744265 0 0.57412547362576272 0.58273804879550706 0 0.53245488764484505 0.55078124999999989 0 0.57435499076887508 0.54267261987897775 0 1 0.54999999999963112 0 0.95867599106212187 0.60011091146651041 0 0.93732437411268477 0.55911392101136159 0 1 0.44999999999963131 0 0.93814194660195893 0.44426664081746747 0 0.95871855522754235 0.40006508612975411 0 0.4089290844030305 0.58728915500154233 0 0.42644501560315817 0.54603747078095544 0 0.46666084890304671 0.57634471035397938 0 0.89999999999958358 1 0 0.84999999999965292 1 0 0.89898474358632463 0.95391965591118966 0 0.84999999999999987 0.29999999999999999 0 0.89898474358614167 0.25391965591104898 0 0.89999999999999991 0.29999999999999999 0 0.29999999999926641 0 0 0.32541448401678508 0.046215317981507749 0 0.27499999999933927 0.060310814194988557 0 0.30000000000124832 1 0 0.27609987656793722 0.94991445621608572 0 0.32544832635163229 0.95485394099568932 0 0.57412547362576272 0.58273804879550706 0 0.62042975506801734 0.54295974692364424 0 0.63065402604362242 0.59661356661633302 0 0.5 0.29999999999999999 0 0.54248833945060504 0.2520322959927106 0 0.54999999999999993 0.29999999999999999 0 0.67323294229744413 0.57556450033612505 0 0.62042975506801734 0.54295974692364424 0 0.67569444444444449 0.53500863336860327 0 0.6541250972820879 0.49999999999999989 0 0.67569444444444449 0.53500863336860327 0 0.62042975506801734 0.54295974692364424 0 1 0.14999999999961891 0 1 0.19999999999974799 0 0.95391631417672862 0.19584263333809451 0 1 0.84999999999982645 0 1 0.8999999999998336 0 0.95391631417670719 0.89584263333814784 0 1 0.7999999999998193 0 1 0.84999999999982645 0 0.95386563387742829 0.80414874155775029 0 1 0.099999999999753911 0 1 0.14999999999961891 0 0.95386563387744361 0.1041487415577465 0 0.4656888918609538 0.78493261229743638 0 0.50627822638148745 0.8263979829520941 0 0.45677673713123867 0.84253684404072415 0 0.6879972333610942 0.43038561374960838 0 0.72622533758026719 0.40265885511101601 0 0.73483647259922602 0.44789725365921768 0 0.67323294229744413 0.57556450033612505 0 0.67569444444444449 0.53500863336860327 0 0.71809016091162536 0.58185040402320831 0 0.7152569930854884 0.5237994455134295 0 0.71809016091162536 0.58185040402320831 0 0.67569444444444449 0.53500863336860327 0 0.65394964615507722 0.22666784374016369 0 0.59814117807200873 0.23398510860739519 0 0.64011864159029941 0.18789607982138171 0 0.55000000000173355 1 0 0.52122150208832174 0.94089974453840242 0 0.57382506491224949 0.9629411906298494 0 0.39801143831225599 0.16651381068160659 0 0.44288491854585582 0.14116182884956319 0 0.42905200079338551 0.19982395548231649 0 0.47357141910802508 0.1873585799078378 0 0.42905200079338551 0.19982395548231649 0 0.44288491854585582 0.14116182884956319 0 0.90594285160987287 0.4141265964174129 0 0.88594198078881503 0.46167788676578442 0 0.86411095495256451 0.42388805655111889 0 0.65507451745379841 0.92229208810758578 0 0.68015064798562208 0.95924320340003011 0 0.62065498684670595 0.95224934003983619 0 0.35312867752657662 0.084946736076730367 0 0.39591832466117061 0.056982757562006353 0 0.39823268594401579 0.1116623613130045 0 0.43698630808430822 0.080423614171545449 0 0.39823268594401579 0.1116623613130045 0 0.39591832466117061 0.056982757562006353 0 0.4367309254023824 0.92065556789053882 0 0.39641108128798319 0.94356127926187128 0 0.39767323751400468 0.89584229130535065 0 0.35752321586431363 0.9185439911803448 0 0.39767323751400468 0.89584229130535065 0 0.39641108128798319 0.94356127926187128 0 0.77354604466818633 0.40378688774472771 0 0.77972660463949339 0.45529290596363098 0 0.73483647259922602 0.44789725365921768 0 0.5499999999988151 0 0 0.57396793757665954 0.037011367187645222 0 0.52375890611712683 0.059318771819432882 0 0.64753070846764316 0.77332939069435502 0 0.60294066490120068 0.80851322453934582 0 0.59636844454254345 0.75937156204589151 0 0.49102375406324739 0.49123754822244059 0 0.48858720058566618 0.43964267759203868 0 0.53823865529665704 0.45873898050322898 0 0.28307294598219601 0.50789252727458634 0 0.29110487519241501 0.56588143995431495 0 0.25115337790845271 0.54719303014923271 0 0.79680861578988083 0.92656778056766709 0 0.81159157511211755 0.88795995483179491 0 0.85170973911348691 0.93569607295217616 0 0.79680861578956375 0.22656778056752541 0 0.81283102246527783 0.1881007222486438 0 0.8517097391133297 0.2356960729520409 0 0.57412547362576272 0.58273804879550706 0 0.57435499076887508 0.54267261987897775 0 0.62042975506801734 0.54295974692364424 0 0.93814194660195893 0.44426664081746747 0 0.88594198078881503 0.46167788676578442 0 0.90594285160987287 0.4141265964174129 0 0.7152569930854884 0.5237994455134295 0 0.73947346780852752 0.49062440112282169 0 0.77151014687832564 0.54436834383023036 0 0 0.7000000000006934 0 0.046634677244967337 0.671418230738282 0 0.049706944316475897 0.72477277076253799 0 0 0.30000000000124832 0 0.049706944316556423 0.27522722923869108 0 0.046389130980076937 0.32668781832131749 0 0.59814117807200873 0.23398510860739519 0 0.59443395090188023 0.18455690917515069 0 0.64011864159029941 0.18789607982138171 0 0.21858834311891909 0.81980263716112767 0 0.26104540868854792 0.81401944968719064 0 0.2401283238295133 0.85648409884788523 0 0.39536230704883951 0.84069429572832477 0 0.45677673713123867 0.84253684404072415 0 0.44003836461056539 0.88093474584252718 0 0.086179601630648681 0.64647209519980475 0 0.050069554451969707 0.61308520079857043 0 0.1024350934457823 0.60772393977513839 0 0.077693244765132896 0.56932317963405099 0 0.1024350934457823 0.60772393977513839 0 0.050069554451969707 0.61308520079857043 0 0.078358742472063481 0.43365249433908948 0 0.050583896093752537 0.38543522283434112 0 0.1117088112799664 0.38831403004970022 0 0.087545339447545459 0.35122518864182262 0 0.1117088112799664 0.38831403004970022 0 0.050583896093752537 0.38543522283434112 0 0.33403534827021109 0.84402799729020661 0 0.35642984951668422 0.80994399665655703 0 0.39536230704883951 0.84069429572832477 0 0.28307294598219601 0.50789252727458634 0 0.33190227185843768 0.52715113583864037 0 0.29110487519241501 0.56588143995431495 0 0.2236846579037573 0.67380363126050236 0 0.19068556247388771 0.71028988922845504 0 0.16500388252850301 0.66612077714085194 0 0.26104540868854792 0.81401944968719064 0 0.22556077506376701 0.77837424984191617 0 0.2792923945214143 0.77665808831789485 0 0.38244435121258652 0.51653317813019495 0 0.37272913873093971 0.56192925302619479 0 0.33190227185843768 0.52715113583864037 0 0.25195515620380449 0.25883339815888678 0 0.29132859388405002 0.27203693976649962 0 0.24432083401701241 0.3006253385567515 0 0.29348325746214782 0.31350119524708198 0 0.24432083401701241 0.3006253385567515 0 0.29132859388405002 0.27203693976649962 0 0 0.89999999999958358 0 0 0.84999999999965292 0 0.0443105827531413 0.89858748162559932 0 0 0.15000000000062411 0 0 0.10000000000041601 0 0.044310582753132287 0.101412518374475 0 0.59999999999999976 0.69999999999999996 0 0.59636844454254345 0.75937156204589151 0 0.55363780716230748 0.74348740161571747 0 0.1650278706801647 0.38791388161335733 0 0.22033343844674469 0.36963382230740238 0 0.191953871957803 0.42546416763755879 0 0.52289427570932567 0.3932284363388488 0 0.46655310992796922 0.39650496622958609 0 0.49077833859261139 0.35229981449445641 0 0.91696753777131557 0.497780560203536 0 0.88594198078881503 0.46167788676578442 0 0.93814194660195893 0.44426664081746747 0 0.24999999999941211 0 0 0.27499999999933927 0.060310814194988557 0 0.22668068146512929 0.045875643423131329 0 0.25000000000104028 1 0 0.22850979588452081 0.95594428570238643 0 0.27609987656793722 0.94991445621608572 0 0.77846603114747959 0.49850927265137401 0 0.77151014687832564 0.54436834383023036 0 0.73947346780852752 0.49062440112282169 0 0.27499999999933927 0.060310814194988557 0 0.27474541102162192 0.11822029332053539 0 0.24218496799700481 0.089025544070598317 0 0.27270076654418179 0.87751467830216623 0 0.29209212897034281 0.84715728365233667 0 0.30864387279288652 0.89906554525974958 0 0.3096713403101819 0.085471541595262421 0 0.27474541102162192 0.11822029332053539 0 0.27499999999933927 0.060310814194988557 0 0.17933913398461551 0.2350063570234002 0 0.18124454140915969 0.18790916706335251 0 0.224700362040408 0.22206622194729711 0 0.18269480424590959 0.75905448272264375 0 0.22556077506376701 0.77837424984191617 0 0.17777405986036951 0.81832336108265358 0 0.35864759629805099 0.87963482415279515 0 0.33403534827021109 0.84402799729020661 0 0.39536230704883951 0.84069429572832477 0 0.77354604466818633 0.40378688774472771 0 0.73483647259922602 0.44789725365921768 0 0.72622533758026719 0.40265885511101601 0 0.80185942888539485 0.77452061303608133 0 0.85491058998424563 0.76004753345552634 0 0.84725310900444062 0.80779732082917555 0 0.80185942888501827 0.074520613036224564 0 0.85491058998398861 0.060047533455626502 0 0.84725310900442086 0.10779732082922661 0 0.086179601630648681 0.64647209519980475 0 0.046634677244967337 0.671418230738282 0 0.050069554451969707 0.61308520079857043 0 0.087545339447545459 0.35122518864182262 0 0.050583896093752537 0.38543522283434112 0 0.046389130980076937 0.32668781832131749 0 0 0.75000000000034661 0 0.049706944316475897 0.72477277076253799 0 0.04408157711937423 0.7728941757575627 0 0 0.25000000000104028 0 0.044081577119474857 0.2271058242433576 0 0.049706944316556423 0.27522722923869108 0 0.52289427570932567 0.3932284363388488 0 0.56836770495988642 0.3523062350852913 0 0.57744073070774993 0.41535148636609359 0 0.6084546825910605 0.37989672713932537 0 0.57744073070774993 0.41535148636609359 0 0.56836770495988642 0.3523062350852913 0 0.61343887413683884 0.856862479058357 0 0.55899371797446828 0.85003102233514438 0 0.60294066490120068 0.80851322453934582 0 0.54782696902220018 0.79245182748204157 0 0.60294066490120068 0.80851322453934582 0 0.55899371797446828 0.85003102233514438 0 0.40326160981139969 0.73346192995102844 0 0.36622285152418499 0.69092437780804039 0 0.43323420005758778 0.6913544522562407 0 0.52289427570932567 0.3932284363388488 0 0.48858720058566618 0.43964267759203868 0 0.46655310992796922 0.39650496622958609 0 0.15720202157091859 0.60665697304410315 0 0.1154888278694548 0.56733818459978413 0 0.14934928745814749 0.55042914607228977 0 0.6879972333610942 0.43038561374960838 0 0.73483647259922602 0.44789725365921768 0 0.69385896817107129 0.48377516041410151 0 0.7250000000005199 0.89375000000045834 0 0.68987011941058407 0.92105047536677087 0 0.66412543161245952 0.88015090885499059 0 0.83573492347052902 0.36590755630746369 0 0.78145581580700685 0.34881365920033602 0 0.82500000000000062 0.33010209762754811 0 0.82862096804812391 0.55037090955459045 0 0.81441713509985358 0.51161854125224959 0 0.86907294890112186 0.52008116128001669 0 0.19670163708476801 0.31472518408333222 0 0.14223753364722069 0.3341983344262433 0 0.168349569971391 0.28054490850913671 0 0.50202631463681879 0.87892870825713787 0 0.45677673713123867 0.84253684404072415 0 0.50627822638148745 0.8263979829520941 0 0.099999999999814668 0 0 0.14999999999970359 0 0 0.10266856499169109 0.044518360900210059 0 0.15000000000062411 1 0 0.10000000000041601 1 0 0.10266856499240549 0.95548163909968886 0 0.67323294229744413 0.57556450033612505 0 0.63065402604362242 0.59661356661633302 0 0.62042975506801734 0.54295974692364424 0 0.083105206071467416 0.20007701332709979 0 0.13737030665753211 0.20313708640667491 0 0.095326043202144745 0.24554465089224409 0 0.083105206071452636 0.79992298667296435 0 0.090953281884486245 0.7564451946902494 0 0.1382744753146134 0.79650574229207483 0 0.50000000000205869 1 0 0.47135117303824892 0.95556877749289892 0 0.52122150208832174 0.94089974453840242 0 0.49999999999869432 0 0 0.52375890611712683 0.059318771819432882 0 0.47040171442036788 0.044141676406503738 0 0.4656888918609538 0.78493261229743638 0 0.45582236402875981 0.73896743678908217 0 0.50945740445113552 0.75476055527778108 0 0.5 0.69999999999999996 0 0.50945740445113552 0.75476055527778108 0 0.45582236402875981 0.73896743678908217 0 0.55306006949600994 0.20198184231352201 0 0.56202748619534593 0.15054058349222879 0 0.59443395090188023 0.18455690917515069 0 0.6236733212988993 0.14864538214901801 0 0.59443395090188023 0.18455690917515069 0 0.56202748619534593 0.15054058349222879 0 0.57412547362576272 0.58273804879550706 0 0.5498280205245758 0.6290146943450976 0 0.5166924242153631 0.59825134841919447 0 0.91696753777131557 0.497780560203536 0 0.93814194660195893 0.44426664081746747 0 0.96228564064454991 0.48206450662049471 0 0.15720202157091859 0.60665697304410315 0 0.16500388252850301 0.66612077714085194 0 0.1241190223511371 0.64391885572885044 0 0.44288491854585582 0.14116182884956319 0 0.47881186583059909 0.093591717165689425 0 0.48466639505193998 0.1421439844745814 0 1 0.54999999999963112 0 0.93732437411268477 0.55911392101136159 0 0.95631871884947484 0.51827533208233789 0 0.57724883562309992 0.92155686857100794 0 0.57382506491224949 0.9629411906298494 0 0.52122150208832174 0.94089974453840242 0 0.85170973911348691 0.93569607295217616 0 0.81159157511211755 0.88795995483179491 0 0.85600844944837662 0.88483418979512773 0 0.8517097391133297 0.2356960729520409 0 0.81283102246527783 0.1881007222486438 0 0.85600844944842547 0.1848341897950983 0 0.27866744612395528 0.38416094670951489 0 0.29124338931648802 0.43334555462578611 0 0.24049127783545701 0.41270748208749802 0 0.6084546825910605 0.37989672713932537 0 0.56836770495988642 0.3523062350852913 0 0.61959173890754571 0.33832250091341232 0 0.20050006573841939 0.53248514016039872 0 0.25115337790845271 0.54719303014923271 0 0.22549374774072969 0.58452645269293457 0 0.26573297623774761 0.59828298563722948 0 0.22549374774072969 0.58452645269293457 0 0.25115337790845271 0.54719303014923271 0 0.26104540868854792 0.81401944968719064 0 0.29209212897034281 0.84715728365233667 0 0.2401283238295133 0.85648409884788523 0 0.6236733212988993 0.14864538214901801 0 0.65290632656860115 0.11434202593454081 0 0.68391457121233579 0.14440470121196541 0 0.19901705110390991 0.9175543425573498 0 0.19741632902693801 0.86755867406447229 0 0.24536017905392571 0.90704567837671446 0 0.72500000000000064 0.7952620967744265 0 0.76901770135486491 0.84293557325473656 0 0.72863726579783861 0.85390518901155588 0 0.72500000000000064 0.7952620967744265 0 0.72863726579783861 0.85390518901155588 0 0.68697391633157634 0.84450604838764298 0 0.7250000000005199 0.89375000000045834 0 0.68697391633157634 0.84450604838764298 0 0.72863726579783861 0.85390518901155588 0 0.72525833953073282 0.1032114801687094 0 0.77144070960558853 0.14311854477243749 0 0.72634814642510737 0.16106886917518889 0 0.72525833953073282 0.1032114801687094 0 0.72634814642510737 0.16106886917518889 0 0.68391457121233579 0.14440470121196541 0 0.36622285152418499 0.69092437780804039 0 0.3977710372045391 0.65868194622830212 0 0.43323420005758778 0.6913544522562407 0 0 0.65000000000104008 0 0 0.60000000000138687 0 0.050069554451969707 0.61308520079857043 0 0 0.40000000000166441 0 0 0.35000000000145642 0 0.050583896093752537 0.38543522283434112 0 0.22033343844674469 0.36963382230740238 0 0.24049127783545701 0.41270748208749802 0 0.191953871957803 0.42546416763755879 0 0.5 0.29999999999999999 0 0.4604742573284204 0.27846934318264788 0 0.49695729691142171 0.25014895411178018 0 0.19741632902693801 0.86755867406447229 0 0.2401283238295133 0.85648409884788523 0 0.24536017905392571 0.90704567837671446 0 0 0.50000000000205869 0 0.068743045408989428 0.48853989837882689 0 0.044576108720083309 0.53509043209532614 0 0.15000000000062411 1 0 0.14617343800780541 0.93808063414349496 0 0.18474005699953849 0.96231585248064622 0 0.14999999999970359 0 0 0.184418230509967 0.038773194583122873 0 0.14618258501891079 0.062070108745602003 0 0.57667858002728545 0.078486105337742612 0 0.52375890611712683 0.059318771819432882 0 0.57396793757665954 0.037011367187645222 0 0.113541300460994 0.46208784312094731 0 0.078358742472063481 0.43365249433908948 0 0.13773355295499351 0.42497777642586831 0 0.77354604466818633 0.40378688774472771 0 0.78145581580700685 0.34881365920033602 0 0.81308179852519835 0.39754945808726527 0 0.38244435121258652 0.51653317813019495 0 0.33190227185843768 0.52715113583864037 0 0.35024835142131061 0.48654922671676981 0 0.64753070846764316 0.77332939069435502 0 0.65005442820240822 0.82644988530054031 0 0.60294066490120068 0.80851322453934582 0 0.15720202157091859 0.60665697304410315 0 0.1024350934457823 0.60772393977513839 0 0.1154888278694548 0.56733818459978413 0 0.90416666666660628 0.9041666666666166 0 0.85600844944837662 0.88483418979512773 0 0.88088768115933802 0.84674609810493673 0 0.90416666666668166 0.20416666666667119 0 0.85600844944842547 0.1848341897950983 0 0.88088768115941807 0.14674609810479519 0 0.078358742472063481 0.43365249433908948 0 0.1117088112799664 0.38831403004970022 0 0.13773355295499351 0.42497777642586831 0 0.38244435121258652 0.51653317813019495 0 0.3908716102680424 0.47010282357248828 0 0.43507373378304309 0.49699695397193322 0 0.90299850604011456 0.79563452813489832 0 0.95386563387742829 0.80414874155775029 0 0.93677536231884972 0.85000000000000286 0 0.90416666666660628 0.9041666666666166 0 0.93677536231884972 0.85000000000000286 0 0.95391631417670719 0.89584263333814784 0 0.90299850604006393 0.09563452813493091 0 0.95386563387744361 0.1041487415577465 0 0.93677536231883773 0.14999999999999089 0 0.90416666666668166 0.20416666666667119 0 0.93677536231883773 0.14999999999999089 0 0.95391631417672862 0.19584263333809451 0 0.39536230704883951 0.84069429572832477 0 0.44003836461056539 0.88093474584252718 0 0.39767323751400468 0.89584229130535065 0 0.51076801031701946 0.1202837388510348 0 0.52375890611712683 0.059318771819432882 0 0.54979595918804436 0.1060565713905809 0 0.57667858002728545 0.078486105337742612 0 0.54979595918804436 0.1060565713905809 0 0.52375890611712683 0.059318771819432882 0 0.57724883562309992 0.92155686857100794 0 0.52122150208832174 0.94089974453840242 0 0.54783390826260769 0.89287767010860219 0 0.50202631463681879 0.87892870825713787 0 0.54783390826260769 0.89287767010860219 0 0.52122150208832174 0.94089974453840242 0 0.087545339447545459 0.35122518864182262 0 0.093851963071650835 0.30582068233324772 0 0.14223753364722069 0.3341983344262433 0 0.54999999999999993 0.69999999999999996 0 0.59999999999999976 0.69999999999999996 0 0.55363780716230748 0.74348740161571747 0 0.083105206071452636 0.79992298667296435 0 0.1074251789111534 0.83564394292147814 0 0.065374659239661639 0.8551091961254178 0 0.083105206071467416 0.20007701332709979 0 0.065374659239632718 0.1448908038746782 0 0.106902708054812 0.16453234188234539 0 0.52289427570932567 0.3932284363388488 0 0.53823865529665704 0.45873898050322898 0 0.48858720058566618 0.43964267759203868 0 0.13737030665753211 0.20313708640667491 0 0.14377654328998779 0.2442024734791064 0 0.095326043202144745 0.24554465089224409 0 0.1382744753146134 0.79650574229207483 0 0.090953281884486245 0.7564451946902494 0 0.14335651144331049 0.75565258250209677 0 0.27270076654418179 0.87751467830216623 0 0.30864387279288652 0.89906554525974958 0 0.24536017905392571 0.90704567837671446 0 0.27609987656793722 0.94991445621608572 0 0.24536017905392571 0.90704567837671446 0 0.30864387279288652 0.89906554525974958 0 0.90299850604011456 0.79563452813489832 0 0.84725310900444062 0.80779732082917555 0 0.85491058998424563 0.76004753345552634 0 0.90299850604006393 0.09563452813493091 0 0.84725310900442086 0.10779732082922661 0 0.85491058998398861 0.060047533455626502 0 1 0.54999999999963112 0 1 0.59999999999973963 0 0.95867599106212187 0.60011091146651041 0 1 0.39999999999978308 0 1 0.44999999999963131 0 0.95871855522754235 0.40006508612975411 0 0.28040350263641872 0.23054717217092141 0 0.25195515620380449 0.25883339815888678 0 0.224700362040408 0.22206622194729711 0 0.84999999999999987 0.29999999999999999 0 0.87430060258887643 0.34056085888204451 0 0.82500000000000062 0.33010209762754811 0 0.84999999999999987 0.69999999999999996 0 0.82457059160610424 0.66831947184359608 0 0.87712158428786946 0.65709029563313581 0 0.86956835336234861 0.571283299838105 0 0.87159648282691515 0.61285406320581504 0 0.81723410853263523 0.59419663659258926 0 0.43698630808430822 0.080423614171545449 0 0.47881186583059909 0.093591717165689425 0 0.44288491854585582 0.14116182884956319 0 1 0.44999999999963131 0 0.96228564064454991 0.48206450662049471 0 0.93814194660195893 0.44426664081746747 0 0.35752321586431363 0.9185439911803448 0 0.30864387279288652 0.89906554525974958 0 0.35864759629805099 0.87963482415279515 0 0.29124338931648802 0.43334555462578611 0 0.25982634974572738 0.46097799597715272 0 0.24049127783545701 0.41270748208749802 0 0.51076801031701946 0.1202837388510348 0 0.56202748619534593 0.15054058349222879 0 0.51729576145820033 0.1683240575987815 0 0.55306006949600994 0.20198184231352201 0 0.51729576145820033 0.1683240575987815 0 0.56202748619534593 0.15054058349222879 0 0.26429849586623999 0.19346700179430079 0 0.28040350263641872 0.23054717217092141 0 0.224700362040408 0.22206622194729711 0 0.51076801031701946 0.1202837388510348 0 0.48466639505193998 0.1421439844745814 0 0.47881186583059909 0.093591717165689425 0 0.2185883431182947 0.18019736283949719 0 0.26429849586623999 0.19346700179430079 0 0.224700362040408 0.22206622194729711 0 0.18269480424590959 0.75905448272264375 0 0.2248999640082178 0.72584299459689172 0 0.22556077506376701 0.77837424984191617 0 0.51076801031701946 0.1202837388510348 0 0.47881186583059909 0.093591717165689425 0 0.52375890611712683 0.059318771819432882 0 0.50202631463681879 0.87892870825713787 0 0.52122150208832174 0.94089974453840242 0 0.47401147028110507 0.91529957330468115 0 0 0.84999999999965292 0 0.038512288486097702 0.8155852717111195 0 0.065374659239661639 0.8551091961254178 0 0 0.15000000000062411 0 0.065374659239632718 0.1448908038746782 0 0.038512288486115001 0.1844147282893184 0 0.2185883431182947 0.18019736283949719 0 0.224700362040408 0.22206622194729711 0 0.18124454140915969 0.18790916706335251 0 0.21858834311891909 0.81980263716112767 0 0.17777405986036951 0.81832336108265358 0 0.22556077506376701 0.77837424984191617 0 0.1215415378367805 0.72939333680004137 0 0.1020579365089687 0.69352219419301997 0 0.15332765547575641 0.71200081858233666 0 0.49695729691142171 0.25014895411178018 0 0.50760557329222289 0.20700468884612061 0 0.54248833945060504 0.2520322959927106 0 0.15720202157091859 0.60665697304410315 0 0.14934928745814749 0.55042914607228977 0 0.18381867841758909 0.57774125163628387 0 0.90416666666660628 0.9041666666666166 0 0.85170973911348691 0.93569607295217616 0 0.85600844944837662 0.88483418979512773 0 0.90416666666668166 0.20416666666667119 0 0.8517097391133297 0.2356960729520409 0 0.85600844944842547 0.1848341897950983 0 0.17933913398461551 0.2350063570234002 0 0.13737030665753211 0.20313708640667491 0 0.18124454140915969 0.18790916706335251 0 0.18269480424590959 0.75905448272264375 0 0.17777405986036951 0.81832336108265358 0 0.1382744753146134 0.79650574229207483 0 0.1216098864341134 0.50637075089503902 0 0.15801167086041079 0.46008690540259539 0 0.16618607197337229 0.50652878253548905 0 0.50760557329222289 0.20700468884612061 0 0.55306006949600994 0.20198184231352201 0 0.54248833945060504 0.2520322959927106 0 0.75000000000034661 1 0 0.7000000000006934 1 0 0.7250000000005199 0.94981617647078953 0 0.69999999999999984 0.29999999999999999 0 0.72500000000000064 0.2498161764706 0 0.74999999999999989 0.29999999999999999 0 0.72525833953073282 0.1032114801687094 0 0.68391457121233579 0.14440470121196541 0 0.68330259535470161 0.10038702501083881 0 0.43249999999999988 0.43937499999999979 0 0.46655310992796922 0.39650496622958609 0 0.48858720058566618 0.43964267759203868 0 0.19901705110390991 0.9175543425573498 0 0.14617343800780541 0.93808063414349496 0 0.16206583317966519 0.89685560785156404 0 0.19922788606653311 0.085920220746880993 0 0.16141998738593399 0.10404039647458049 0 0.14618258501891079 0.062070108745602003 0 0.31378396441836959 0.70157213313026345 0 0.26439878998046262 0.7048065392091396 0 0.27820712747429932 0.65530134213254643 0 0.1216098864341134 0.50637075089503902 0 0.113541300460994 0.46208784312094731 0 0.15801167086041079 0.46008690540259539 0 0.6084546825910605 0.37989672713932537 0 0.65481233915350323 0.35652751921065562 0 0.63912439215427275 0.41063340167983359 0 0.19901705110390991 0.9175543425573498 0 0.18474005699953849 0.96231585248064622 0 0.14617343800780541 0.93808063414349496 0 0.19922788606653311 0.085920220746880993 0 0.14618258501891079 0.062070108745602003 0 0.184418230509967 0.038773194583122873 0 0.38244435121258652 0.51653317813019495 0 0.35024835142131061 0.48654922671676981 0 0.3908716102680424 0.47010282357248828 0 0.82709327591102189 0.14937141670914489 0 0.77144070960558853 0.14311854477243749 0 0.80076557130237269 0.1154587552654202 0 0.82709327591091286 0.84937141670920724 0 0.76901770135486491 0.84293557325473656 0 0.80041942726660109 0.81543261647703358 0 0.43698630808430822 0.080423614171545449 0 0.44288491854585582 0.14116182884956319 0 0.39823268594401579 0.1116623613130045 0 0.39801143831225599 0.16651381068160659 0 0.39823268594401579 0.1116623613130045 0 0.44288491854585582 0.14116182884956319 0 0.36575549820117997 0.31677992835137742 0 0.3786248352540974 0.27082301512024259 0 0.41914690343363781 0.30688979866601612 0 0.42377727103934271 0.25099357235810238 0 0.41914690343363781 0.30688979866601612 0 0.3786248352540974 0.27082301512024259 0 0.049706944316475897 0.72477277076253799 0 0.1020579365089687 0.69352219419301997 0 0.090953281884486245 0.7564451946902494 0 0.1215415378367805 0.72939333680004137 0 0.090953281884486245 0.7564451946902494 0 0.1020579365089687 0.69352219419301997 0 0.1247745017231483 0.27198077544791172 0 0.093851963071650835 0.30582068233324772 0 0.095326043202144745 0.24554465089224409 0 0.049706944316556423 0.27522722923869108 0 0.095326043202144745 0.24554465089224409 0 0.093851963071650835 0.30582068233324772 0 0.77354604466818633 0.40378688774472771 0 0.81973119833356312 0.43505687159469048 0 0.77972660463949339 0.45529290596363098 0 0.43249999999999988 0.43937499999999979 0 0.43507373378304309 0.49699695397193322 0 0.3908716102680424 0.47010282357248828 0 0.26573297623774761 0.59828298563722948 0 0.2459498854893499 0.63248470766216769 0 0.22549374774072969 0.58452645269293457 0 0.72500000000000064 0.7952620967744265 0 0.77094201086366854 0.79647480515688507 0 0.76901770135486491 0.84293557325473656 0 0.72525833953073282 0.1032114801687094 0 0.76878382444651716 0.097147941686331368 0 0.77144070960558853 0.14311854477243749 0 0.72500000000000064 0.7952620967744265 0 0.68697391633157634 0.84450604838764298 0 0.68024162096458085 0.79868546898116533 0 0.31378396441836959 0.70157213313026345 0 0.29904318922293632 0.74132814928635593 0 0.26439878998046262 0.7048065392091396 0 0.31378396441836959 0.70157213313026345 0 0.35415581127540569 0.73730480045900215 0 0.29904318922293632 0.74132814928635593 0 0.61343887413683884 0.856862479058357 0 0.65005442820240822 0.82644988530054031 0 0.66412543161245952 0.88015090885499059 0 0.68697391633157634 0.84450604838764298 0 0.66412543161245952 0.88015090885499059 0 0.65005442820240822 0.82644988530054031 0 0.083411279318375747 0.91030024466934134 0 0.065374659239661639 0.8551091961254178 0 0.10562472963403439 0.87143394428979881 0 0.083411279318303222 0.089699755330707398 0 0.1053400320299198 0.12877248826361379 0 0.065374659239632718 0.1448908038746782 0 0.55306006949600994 0.20198184231352201 0 0.59443395090188023 0.18455690917515069 0 0.59814117807200873 0.23398510860739519 0 0.84999999999999987 0.29999999999999999 0 0.89999999999999991 0.29999999999999999 0 0.87430060258887643 0.34056085888204451 0 0.84999999999999987 0.69999999999999996 0 0.87712158428786946 0.65709029563313581 0 0.89999999999999991 0.69999999999999996 0 0.34258405725730701 0.4444034294386992 0 0.3908716102680424 0.47010282357248828 0 0.35024835142131061 0.48654922671676981 0 0.26573297623774761 0.59828298563722948 0 0.31502927232353312 0.6134992213375432 0 0.27820712747429932 0.65530134213254643 0 0.91696753777131557 0.497780560203536 0 0.86907294890112186 0.52008116128001669 0 0.88594198078881503 0.46167788676578442 0 0.84723782639812573 0.48638347960178252 0 0.88594198078881503 0.46167788676578442 0 0.86907294890112186 0.52008116128001669 0 0.7152569930854884 0.5237994455134295 0 0.77151014687832564 0.54436834383023036 0 0.71809016091162536 0.58185040402320831 0 0.90416666666660628 0.9041666666666166 0 0.89898474358632463 0.95391965591118966 0 0.85170973911348691 0.93569607295217616 0 0.90416666666668166 0.20416666666667119 0 0.89898474358614167 0.25391965591104898 0 0.8517097391133297 0.2356960729520409 0 0.91750694127107502 0.36982372220068471 0 0.95780851984364423 0.34215720972155339 0 0.95871855522754235 0.40006508612975411 0 0.91750694127105259 0.63017627779935648 0 0.95867599106212187 0.60011091146651041 0 0.9578014258160763 0.65787212321113708 0 0.90299850604011456 0.79563452813489832 0 0.88088768115933802 0.84674609810493673 0 0.84725310900444062 0.80779732082917555 0 0.90299850604006393 0.09563452813493091 0 0.88088768115941807 0.14674609810479519 0 0.84725310900442086 0.10779732082922661 0 0.1216098864341134 0.50637075089503902 0 0.16618607197337229 0.50652878253548905 0 0.14934928745814749 0.55042914607228977 0 0.20050006573841939 0.53248514016039872 0 0.14934928745814749 0.55042914607228977 0 0.16618607197337229 0.50652878253548905 0 0.80185942888539485 0.77452061303608133 0 0.84725310900444062 0.80779732082917555 0 0.80041942726660109 0.81543261647703358 0 0.80185942888501827 0.074520613036224564 0 0.84725310900442086 0.10779732082922661 0 0.80076557130237269 0.1154587552654202 0 0.083105206071452636 0.79992298667296435 0 0.065374659239661639 0.8551091961254178 0 0.038512288486097702 0.8155852717111195 0 0.083105206071467416 0.20007701332709979 0 0.038512288486115001 0.1844147282893184 0 0.065374659239632718 0.1448908038746782 0 0.54782696902220018 0.79245182748204157 0 0.59636844454254345 0.75937156204589151 0 0.60294066490120068 0.80851322453934582 0 0.083411279318375747 0.91030024466934134 0 0.0443105827531413 0.89858748162559932 0 0.065374659239661639 0.8551091961254178 0 0.083411279318303222 0.089699755330707398 0 0.065374659239632718 0.1448908038746782 0 0.044310582753132287 0.101412518374475 0 0.84999999999965292 1 0 0.81486180804382891 0.96321394949790495 0 0.85170973911348691 0.93569607295217616 0 0.84999999999999987 0.29999999999999999 0 0.81486180804364938 0.26321394949780091 0 0.8517097391133297 0.2356960729520409 0 0.4656888918609538 0.78493261229743638 0 0.45677673713123867 0.84253684404072415 0 0.42609163930740518 0.80361684430568059 0 0.39536230704883951 0.84069429572832477 0 0.42609163930740518 0.80361684430568059 0 0.45677673713123867 0.84253684404072415 0 0.6236733212988993 0.14864538214901801 0 0.56202748619534593 0.15054058349222879 0 0.58516465772821369 0.11653801664834119 0 0.57412547362576272 0.58273804879550706 0 0.63065402604362242 0.59661356661633302 0 0.5991018319127801 0.62925360607495295 0 0.61343887413683884 0.856862479058357 0 0.5832743223239254 0.88483152652961872 0 0.55899371797446828 0.85003102233514438 0 0.50202631463681879 0.87892870825713787 0 0.55899371797446828 0.85003102233514438 0 0.54783390826260769 0.89287767010860219 0 0.51076801031701946 0.1202837388510348 0 0.54979595918804436 0.1060565713905809 0 0.56202748619534593 0.15054058349222879 0 0.55306006949600994 0.20198184231352201 0 0.59814117807200873 0.23398510860739519 0 0.54248833945060504 0.2520322959927106 0 0.83573492347052902 0.36590755630746369 0 0.82500000000000062 0.33010209762754811 0 0.87430060258887643 0.34056085888204451 0 0.83758014339878906 0.63222013025741819 0 0.87712158428786946 0.65709029563313581 0 0.82457059160610424 0.66831947184359608 0 0.49102375406324739 0.49123754822244059 0 0.53823865529665704 0.45873898050322898 0 0.53330375813596242 0.50827942741749099 0 0.52289427570932567 0.3932284363388488 0 0.57744073070774993 0.41535148636609359 0 0.53823865529665704 0.45873898050322898 0 0.4089290844030305 0.58728915500154233 0 0.37272913873093971 0.56192925302619479 0 0.42644501560315817 0.54603747078095544 0 0.49695729691142171 0.25014895411178018 0 0.4604742573284204 0.27846934318264788 0 0.46429753744194407 0.22870891180733599 0 0.90299850604011456 0.79563452813489832 0 0.85491058998424563 0.76004753345552634 0 0.89999166460796554 0.74528934923809909 0 0.90299850604006393 0.09563452813493091 0 0.85491058998398861 0.060047533455626502 0 0.899991664607802 0.045289349238254978 0 0.38244435121258652 0.51653317813019495 0 0.42644501560315817 0.54603747078095544 0 0.37272913873093971 0.56192925302619479 0 0.71406021706547751 0.63292083137662503 0 0.71809016091162536 0.58185040402320831 0 0.74994237037456724 0.62775548192980357 0 0.84723782639812573 0.48638347960178252 0 0.86907294890112186 0.52008116128001669 0 0.81441713509985358 0.51161854125224959 0 0.33122374654748771 0.57588941099433744 0 0.33190227185843768 0.52715113583864037 0 0.37272913873093971 0.56192925302619479 0 0.086179601630648681 0.64647209519980475 0 0.1241190223511371 0.64391885572885044 0 0.1020579365089687 0.69352219419301997 0 0.59999999999894682 0 0 0.64999999999907843 0 0 0.61940220174112337 0.047251958781050582 0 0.18269480424590959 0.75905448272264375 0 0.14335651144331049 0.75565258250209677 0 0.15332765547575641 0.71200081858233666 0 0.22549374774072969 0.58452645269293457 0 0.2459498854893499 0.63248470766216769 0 0.19914261668318661 0.62286739485272158 0 0.38244435121258652 0.51653317813019495 0 0.43507373378304309 0.49699695397193322 0 0.42644501560315817 0.54603747078095544 0 0.65000000000104008 1 0 0.60000000000138687 1 0 0.62065498684670595 0.95224934003983619 0 0.078358742472063481 0.43365249433908948 0 0.068743045408989428 0.48853989837882689 0 0.033550201249889847 0.46247875832467239 0 0.2236846579037573 0.67380363126050236 0 0.27820712747429932 0.65530134213254643 0 0.26439878998046262 0.7048065392091396 0 0.6879972333610942 0.43038561374960838 0 0.68128176404677243 0.38629093627004979 0 0.72622533758026719 0.40265885511101601 0 0.72525833953073282 0.1032114801687094 0 0.7010294155333181 0.056779085686491267 0 0.7527966693318906 0.053051678021508272 0 0.18269480424590959 0.75905448272264375 0 0.15332765547575641 0.71200081858233666 0 0.19068556247388771 0.71028988922845504 0 0.1216098864341134 0.50637075089503902 0 0.085622222639554768 0.53333248912060549 0 0.068743045408989428 0.48853989837882689 0 0.25676291524611189 0.7436741304886243 0 0.26439878998046262 0.7048065392091396 0 0.29904318922293632 0.74132814928635593 0 0.65481233915350323 0.35652751921065562 0 0.68128176404677243 0.38629093627004979 0 0.63912439215427275 0.41063340167983359 0 0.83573492347052902 0.36590755630746369 0 0.86844634540301924 0.38530937474099819 0 0.81308179852519835 0.39754945808726527 0 0.27270076654418179 0.87751467830216623 0 0.2401283238295133 0.85648409884788523 0 0.29209212897034281 0.84715728365233667 0 0.84999999999999987 0.69999999999999996 0 0.85491058998424563 0.76004753345552634 0 0.81864958914779962 0.73589050177899629 0 0.84999999999960507 0 0 0.85491058998398861 0.060047533455626502 0 0.81864958914740749 0.035890501779055867 0 0.18381867841758909 0.57774125163628387 0 0.19914261668318661 0.62286739485272158 0 0.15720202157091859 0.60665697304410315 0 0.22549374774072969 0.58452645269293457 0 0.19914261668318661 0.62286739485272158 0 0.18381867841758909 0.57774125163628387 0 0.79680861578988083 0.92656778056766709 0 0.85170973911348691 0.93569607295217616 0 0.81486180804382891 0.96321394949790495 0 0.79680861578956375 0.22656778056752541 0 0.8517097391133297 0.2356960729520409 0 0.81486180804364938 0.26321394949780091 0 0.20050006573841939 0.53248514016039872 0 0.23975172658309729 0.49475499200540818 0 0.25115337790845271 0.54719303014923271 0 0.28307294598219601 0.50789252727458634 0 0.25115337790845271 0.54719303014923271 0 0.23975172658309729 0.49475499200540818 0 0.20050006573841939 0.53248514016039872 0 0.18381867841758909 0.57774125163628387 0 0.14934928745814749 0.55042914607228977 0 0.19922788606653311 0.085920220746880993 0 0.22985637510995899 0.1298347970200906 0 0.18652628422869419 0.14162325200928061 0 0.33758650185219202 0.23837101504325639 0 0.38831533174504851 0.2189834941785925 0 0.3786248352540974 0.27082301512024259 0 0.42377727103934271 0.25099357235810238 0 0.3786248352540974 0.27082301512024259 0 0.38831533174504851 0.2189834941785925 0 0.19922788606653311 0.085920220746880993 0 0.18652628422869419 0.14162325200928061 0 0.16141998738593399 0.10404039647458049 0 0.54782696902220018 0.79245182748204157 0 0.55363780716230748 0.74348740161571747 0 0.59636844454254345 0.75937156204589151 0 0.82709327591091286 0.84937141670920724 0 0.88088768115933802 0.84674609810493673 0 0.85600844944837662 0.88483418979512773 0 0.82709327591102189 0.14937141670914489 0 0.88088768115941807 0.14674609810479519 0 0.85600844944842547 0.1848341897950983 0 0.27866744612395528 0.38416094670951489 0 0.22033343844674469 0.36963382230740238 0 0.25966125648670141 0.34351016742083729 0 0 0.50000000000205869 0 0.033550201249889847 0.46247875832467239 0 0.068743045408989428 0.48853989837882689 0 0.31378396441836959 0.70157213313026345 0 0.36622285152418499 0.69092437780804039 0 0.35415581127540569 0.73730480045900215 0 0.77293540622714185 0.59448302402785813 0 0.71809016091162536 0.58185040402320831 0 0.77151014687832564 0.54436834383023036 0 0.7152569930854884 0.5237994455134295 0 0.69385896817107129 0.48377516041410151 0 0.73947346780852752 0.49062440112282169 0 0.15801167086041079 0.46008690540259539 0 0.191953871957803 0.42546416763755879 0 0.19604738184454831 0.47787523520405789 0 0.57667858002728545 0.078486105337742612 0 0.61940220174112337 0.047251958781050582 0 0.61956000905586006 0.1043312481793135 0 0.65408113592120842 0.073941773121567966 0 0.61956000905586006 0.1043312481793135 0 0.61940220174112337 0.047251958781050582 0 0 0.55000000000173355 0 0 0.50000000000205869 0 0.044576108720083309 0.53509043209532614 0 0.65507451745379841 0.92229208810758578 0 0.62065498684670595 0.95224934003983619 0 0.61885627562261258 0.90282959257498208 0 0.57724883562309992 0.92155686857100794 0 0.61885627562261258 0.90282959257498208 0 0.62065498684670595 0.95224934003983619 0 0.91750694127107502 0.36982372220068471 0 0.86844634540301924 0.38530937474099819 0 0.87430060258887643 0.34056085888204451 0 0.91750694127105259 0.63017627779935648 0 0.87712158428786946 0.65709029563313581 0 0.87159648282691515 0.61285406320581504 0 0.33123028043633618 0.77629643437932982 0 0.29904318922293632 0.74132814928635593 0 0.35415581127540569 0.73730480045900215 0 0.86411095495256451 0.42388805655111889 0 0.84925632466077294 0.45359738909549091 0 0.81973119833356312 0.43505687159469048 0 0.43846182030517877 0.64845797726506715 0 0.47913475093885149 0.66010775372412711 0 0.43323420005758778 0.6913544522562407 0 0.18269480424590959 0.75905448272264375 0 0.19068556247388771 0.71028988922845504 0 0.2248999640082178 0.72584299459689172 0 0.39536230704883951 0.84069429572832477 0 0.38586766253264881 0.78219501014812498 0 0.42609163930740518 0.80361684430568059 0 0.59999999999999976 0.69999999999999996 0 0.63221990677827677 0.73442891067859706 0 0.59636844454254345 0.75937156204589151 0 0.27866744612395528 0.38416094670951489 0 0.24049127783545701 0.41270748208749802 0 0.22033343844674469 0.36963382230740238 0 0.82709327591091286 0.84937141670920724 0 0.84725310900444062 0.80779732082917555 0 0.88088768115933802 0.84674609810493673 0 0.82709327591102189 0.14937141670914489 0 0.84725310900442086 0.10779732082922661 0 0.88088768115941807 0.14674609810479519 0 0.1650278706801647 0.38791388161335733 0 0.18434624290945251 0.35208838264196463 0 0.22033343844674469 0.36963382230740238 0 0.4409427642593301 0.35743108089689513 0 0.49077833859261139 0.35229981449445641 0 0.46655310992796922 0.39650496622958609 0 0.80185942888539485 0.77452061303608133 0 0.81864958914779962 0.73589050177899629 0 0.85491058998424563 0.76004753345552634 0 0.80185942888501827 0.074520613036224564 0 0.81864958914740749 0.035890501779055867 0 0.85491058998398861 0.060047533455626502 0 0.29999999999926641 0 0 0.34999999999912063 0 0 0.32541448401678508 0.046215317981507749 0 0.35000000000145642 1 0 0.30000000000124832 1 0 0.32544832635163229 0.95485394099568932 0 0.4656888918609538 0.78493261229743638 0 0.50731287292894423 0.78963574450233831 0 0.50627822638148745 0.8263979829520941 0 0.2185883431182947 0.18019736283949719 0 0.25557216766470708 0.15874861286892261 0 0.26429849586623999 0.19346700179430079 0 1 0.29999999999999999 0 1 0.34999999999993492 0 0.95780851984364423 0.34215720972155339 0 1 0.29999999999999999 0 0.95780851984364423 0.34215720972155339 0 0.94999999999999996 0.29999999999999999 0 1 0.69999999999999996 0 0.94999999999999996 0.69999999999999996 0 0.9578014258160763 0.65787212321113708 0 1 0.69999999999999996 0 0.9578014258160763 0.65787212321113708 0 1 0.64999999999986979 0 0.91750694127107502 0.36982372220068471 0 0.90594285160987287 0.4141265964174129 0 0.86844634540301924 0.38530937474099819 0 0.91750694127105259 0.63017627779935648 0 0.87159648282691515 0.61285406320581504 0 0.91143117093204207 0.58709913730335972 0 0.74999999999999989 0.69999999999999996 0 0.7750489929959945 0.66593931409600093 0 0.79999999999999982 0.69999999999999996 0 0.74999999999999989 0.29999999999999999 0 0.79999999999999982 0.29999999999999999 0 0.78145581580700685 0.34881365920033602 0 0.54999999999999993 0.69999999999999996 0 0.57484956128872922 0.66573805030881994 0 0.59999999999999976 0.69999999999999996 0 0.90299850604011456 0.79563452813489832 0 0.94399509803918602 0.75600490196082126 0 0.95386563387742829 0.80414874155775029 0 0.90416666666660628 0.9041666666666166 0 0.95391631417670719 0.89584263333814784 0 0.94399509803919068 0.9439950980391687 0 0.90299850604006393 0.09563452813493091 0 0.94399509803922566 0.056004901960802607 0 0.95386563387744361 0.1041487415577465 0 0.90416666666668166 0.20416666666667119 0 0.95391631417672862 0.19584263333809451 0 0.94399509803921056 0.24399509803922639 0 0.22278230690790279 0.44824268025881547 0 0.19604738184454831 0.47787523520405789 0 0.191953871957803 0.42546416763755879 0 0.90299850604011456 0.79563452813489832 0 0.89999166460796554 0.74528934923809909 0 0.94399509803918602 0.75600490196082126 0 0.90299850604006393 0.09563452813493091 0 0.899991664607802 0.045289349238254978 0 0.94399509803922566 0.056004901960802607 0 0.49102375406324739 0.49123754822244059 0 0.47793794143994173 0.52940715638744962 0 0.43507373378304309 0.49699695397193322 0 0.90416666666660628 0.9041666666666166 0 0.94399509803919068 0.9439950980391687 0 0.89898474358632463 0.95391965591118966 0 0.90416666666668166 0.20416666666667119 0 0.94399509803921056 0.24399509803922639 0 0.89898474358614167 0.25391965591104898 0 0.65394964615507722 0.22666784374016369 0 0.62657463266645097 0.26524202571255862 0 0.59814117807200873 0.23398510860739519 0 0.6084546825910605 0.37989672713932537 0 0.63912439215427275 0.41063340167983359 0 0.57744073070774993 0.41535148636609359 0 0.61209567303293111 0.44669033081290321 0 0.57744073070774993 0.41535148636609359 0 0.63912439215427275 0.41063340167983359 0 0.25676291524611189 0.7436741304886243 0 0.22556077506376701 0.77837424984191617 0 0.2248999640082178 0.72584299459689172 0 0.61343887413683884 0.856862479058357 0 0.60294066490120068 0.80851322453934582 0 0.65005442820240822 0.82644988530054031 0 0.64999999999907843 0 0 0.66369801598854572 0.036327466368102787 0 0.61940220174112337 0.047251958781050582 0 0.40326160981139969 0.73346192995102844 0 0.38586766253264881 0.78219501014812498 0 0.35415581127540569 0.73730480045900215 0 0.33123028043633618 0.77629643437932982 0 0.35415581127540569 0.73730480045900215 0 0.38586766253264881 0.78219501014812498 0 0.26573297623774761 0.59828298563722948 0 0.29110487519241501 0.56588143995431495 0 0.31502927232353312 0.6134992213375432 0 0.77846603114747959 0.49850927265137401 0 0.81441713509985358 0.51161854125224959 0 0.77151014687832564 0.54436834383023036 0 0.82862096804812391 0.55037090955459045 0 0.77151014687832564 0.54436834383023036 0 0.81441713509985358 0.51161854125224959 0 0.50000000000205869 1 0 0.45000000000187229 1 0 0.47135117303824892 0.95556877749289892 0 0.44999999999882923 0 0 0.49999999999869432 0 0 0.47040171442036788 0.044141676406503738 0 0 0.7000000000006934 0 0 0.65000000000104008 0 0.046634677244967337 0.671418230738282 0 0 0.35000000000145642 0 0 0.30000000000124832 0 0.046389130980076937 0.32668781832131749 0 0.31378396441836959 0.70157213313026345 0 0.27820712747429932 0.65530134213254643 0 0.32263089806001177 0.66003674931826484 0 0.33122374654748771 0.57588941099433744 0 0.31502927232353312 0.6134992213375432 0 0.29110487519241501 0.56588143995431495 0 0.26573297623774761 0.59828298563722948 0 0.27820712747429932 0.65530134213254643 0 0.2459498854893499 0.63248470766216769 0 0.14474682429600511 0.85524784522713515 0 0.16206583317966519 0.89685560785156404 0 0.1241151115713819 0.9045666525468371 0 0.14332333627550789 0.14578431753966009 0 0.12372429750337779 0.095814237875728972 0 0.16141998738593399 0.10404039647458049 0 0.64753070846764316 0.77332939069435502 0 0.59636844454254345 0.75937156204589151 0 0.63221990677827677 0.73442891067859706 0 0.14474682429600511 0.85524784522713515 0 0.1241151115713819 0.9045666525468371 0 0.10562472963403439 0.87143394428979881 0 0.14332333627550789 0.14578431753966009 0 0.1053400320299198 0.12877248826361379 0 0.12372429750337779 0.095814237875728972 0 0.77354604466818633 0.40378688774472771 0 0.81308179852519835 0.39754945808726527 0 0.81973119833356312 0.43505687159469048 0 0.54782696902220018 0.79245182748204157 0 0.50945740445113552 0.75476055527778108 0 0.55363780716230748 0.74348740161571747 0 0.2236846579037573 0.67380363126050236 0 0.2459498854893499 0.63248470766216769 0 0.27820712747429932 0.65530134213254643 0 0.77293540622714185 0.59448302402785813 0 0.74994237037456724 0.62775548192980357 0 0.71809016091162536 0.58185040402320831 0 0 0.79999999999999982 0 0 0.75000000000034661 0 0.04408157711937423 0.7728941757575627 0 0 0.25000000000104028 0 0 0.20000000000083221 0 0.044081577119474857 0.2271058242433576 0 0.19999999999955789 0 0 0.24999999999941211 0 0 0.22668068146512929 0.045875643423131329 0 0.25000000000104028 1 0 0.20000000000083221 1 0 0.22850979588452081 0.95594428570238643 0 0.47357141910802508 0.1873585799078378 0 0.44288491854585582 0.14116182884956319 0 0.48466639505193998 0.1421439844745814 0 0.59999999999999976 0.29999999999999999 0 0.5794309697024993 0.27124795968204829 0 0.62657463266645097 0.26524202571255862 0 0.43249999999999988 0.43937499999999979 0 0.42161023666869668 0.39493916313643851 0 0.46655310992796922 0.39650496622958609 0 0.31068898841644388 0.47541502461811092 0 0.33190227185843768 0.52715113583864037 0 0.28307294598219601 0.50789252727458634 0 0.35024835142131061 0.48654922671676981 0 0.33190227185843768 0.52715113583864037 0 0.31068898841644388 0.47541502461811092 0 0.35864735590330371 0.63903383440414463 0 0.36622285152418499 0.69092437780804039 0 0.32263089806001177 0.66003674931826484 0 0.31378396441836959 0.70157213313026345 0 0.32263089806001177 0.66003674931826484 0 0.36622285152418499 0.69092437780804039 0 0.86956835336234861 0.571283299838105 0 0.90900154012161016 0.53607784105648792 0 0.91143117093204207 0.58709913730335972 0 0.6499999999999998 0.29999999999999999 0 0.65481233915350323 0.35652751921065562 0 0.61959173890754571 0.33832250091341232 0 0.4409427642593301 0.35743108089689513 0 0.46226845272279993 0.31901800744800313 0 0.49077833859261139 0.35229981449445641 0 0.5 0.29999999999999999 0 0.49077833859261139 0.35229981449445641 0 0.46226845272279993 0.31901800744800313 0 0.14999999999970359 0 0 0.19999999999955789 0 0 0.184418230509967 0.038773194583122873 0 0.20000000000083221 1 0 0.15000000000062411 1 0 0.18474005699953849 0.96231585248064622 0 1 0.49999999999950101 0 1 0.54999999999963112 0 0.95631871884947484 0.51827533208233789 0 0.38586766253264881 0.78219501014812498 0 0.42676259796334498 0.76772545931379299 0 0.42609163930740518 0.80361684430568059 0 0.20050006573841939 0.53248514016039872 0 0.22549374774072969 0.58452645269293457 0 0.18381867841758909 0.57774125163628387 0 0.065374659239661639 0.8551091961254178 0 0.1074251789111534 0.83564394292147814 0 0.10562472963403439 0.87143394428979881 0 0.065374659239632718 0.1448908038746782 0 0.1053400320299198 0.12877248826361379 0 0.106902708054812 0.16453234188234539 0 0.1650278706801647 0.38791388161335733 0 0.14223753364722069 0.3341983344262433 0 0.18434624290945251 0.35208838264196463 0 0.43249999999999988 0.43937499999999979 0 0.46111841286828259 0.46690301029591341 0 0.43507373378304309 0.49699695397193322 0 0.83758014339878906 0.63222013025741819 0 0.81723410853263523 0.59419663659258926 0 0.87159648282691515 0.61285406320581504 0 0.19670163708476801 0.31472518408333222 0 0.18434624290945251 0.35208838264196463 0 0.14223753364722069 0.3341983344262433 0 0.75000000000034661 1 0 0.7250000000005199 0.94981617647078953 0 0.770759834363826 0.95919399014344442 0 0.74999999999999989 0.29999999999999999 0 0.72500000000000064 0.2498161764706 0 0.77075983436335049 0.25919399014334171 0 0.69999999999999984 0.29999999999999999 0 0.67933712972090698 0.25920070958121938 0 0.72500000000000064 0.2498161764706 0 0.57611405284611883 0.50165903596042916 0 0.53330375813596242 0.50827942741749099 0 0.53823865529665704 0.45873898050322898 0 0.6499999999999998 0.29999999999999999 0 0.68887083591306764 0.33632058575757479 0 0.65481233915350323 0.35652751921065562 0 0.27866744612395528 0.38416094670951489 0 0.33277555741076909 0.36432196682010132 0 0.31778888742534622 0.40581751814196781 0 0.49102375406324739 0.49123754822244059 0 0.43507373378304309 0.49699695397193322 0 0.46111841286828259 0.46690301029591341 0 0.94999999999999996 0.69999999999999996 0 0.97166519676947294 0.73337114490064459 0 0.94399509803918602 0.75600490196082126 0 0.94999999999986839 0 0 0.97166519676946894 0.033371144900598393 0 0.94399509803922566 0.056004901960802607 0 0.94999999999999996 0.29999999999999999 0 0.94399509803921056 0.24399509803922639 0 0.97166519676951801 0.26662885509932011 0 0.94999999999979179 1 0 0.94399509803919068 0.9439950980391687 0 0.97166519676946206 0.96662885509935492 0 0.34258405725730701 0.4444034294386992 0 0.29124338931648802 0.43334555462578611 0 0.31778888742534622 0.40581751814196781 0 0.27866744612395528 0.38416094670951489 0 0.31778888742534622 0.40581751814196781 0 0.29124338931648802 0.43334555462578611 0 0.36575549820117997 0.31677992835137742 0 0.33277555741076909 0.36432196682010132 0 0.32752639306529541 0.32610012995269699 0 0.35752321586431363 0.9185439911803448 0 0.32544832635163229 0.95485394099568932 0 0.30864387279288652 0.89906554525974958 0 0.27609987656793722 0.94991445621608572 0 0.30864387279288652 0.89906554525974958 0 0.32544832635163229 0.95485394099568932 0 0.33123028043633618 0.77629643437932982 0 0.30857225866488791 0.81101973481716805 0 0.2792923945214143 0.77665808831789485 0 0.33758650185219202 0.23837101504325639 0 0.29132859388405002 0.27203693976649962 0 0.28040350263641872 0.23054717217092141 0 0.4409427642593301 0.35743108089689513 0 0.41914690343363781 0.30688979866601612 0 0.46226845272279993 0.31901800744800313 0 0.14332333627550789 0.14578431753966009 0 0.13737030665753211 0.20313708640667491 0 0.106902708054812 0.16453234188234539 0 0.083105206071467416 0.20007701332709979 0 0.106902708054812 0.16453234188234539 0 0.13737030665753211 0.20313708640667491 0 0.083105206071452636 0.79992298667296435 0 0.1382744753146134 0.79650574229207483 0 0.1074251789111534 0.83564394292147814 0 0.14474682429600511 0.85524784522713515 0 0.1074251789111534 0.83564394292147814 0 0.1382744753146134 0.79650574229207483 0 0.65408113592120842 0.073941773121567966 0 0.7010294155333181 0.056779085686491267 0 0.68330259535470161 0.10038702501083881 0 0.72525833953073282 0.1032114801687094 0 0.68330259535470161 0.10038702501083881 0 0.7010294155333181 0.056779085686491267 0 0.049706944316475897 0.72477277076253799 0 0.046634677244967337 0.671418230738282 0 0.1020579365089687 0.69352219419301997 0 0.086179601630648681 0.64647209519980475 0 0.1020579365089687 0.69352219419301997 0 0.046634677244967337 0.671418230738282 0 0.087545339447545459 0.35122518864182262 0 0.046389130980076937 0.32668781832131749 0 0.093851963071650835 0.30582068233324772 0 0.049706944316556423 0.27522722923869108 0 0.093851963071650835 0.30582068233324772 0 0.046389130980076937 0.32668781832131749 0 0.82709327591091286 0.84937141670920724 0 0.80041942726660109 0.81543261647703358 0 0.84725310900444062 0.80779732082917555 0 0.82709327591102189 0.14937141670914489 0 0.80076557130237269 0.1154587552654202 0 0.84725310900442086 0.10779732082922661 0 0.17933913398461551 0.2350063570234002 0 0.14377654328998779 0.2442024734791064 0 0.13737030665753211 0.20313708640667491 0 0.18269480424590959 0.75905448272264375 0 0.1382744753146134 0.79650574229207483 0 0.14335651144331049 0.75565258250209677 0 0.33758650185219202 0.23837101504325639 0 0.3786248352540974 0.27082301512024259 0 0.33402499257867951 0.28911035184473982 0 0.14332333627550789 0.14578431753966009 0 0.18124454140915969 0.18790916706335251 0 0.13737030665753211 0.20313708640667491 0 0.14474682429600511 0.85524784522713515 0 0.1382744753146134 0.79650574229207483 0 0.17777405986036951 0.81832336108265358 0 0.5 0.29999999999999999 0 0.52752007115234678 0.33170632466418198 0 0.49077833859261139 0.35229981449445641 0 0.27866744612395528 0.38416094670951489 0 0.29644548887253103 0.34914008784168082 0 0.33277555741076909 0.36432196682010132 0 0 0.84999999999965292 0 0 0.79999999999999982 0 0.038512288486097702 0.8155852717111195 0 0 0.20000000000083221 0 0 0.15000000000062411 0 0.038512288486115001 0.1844147282893184 0 0.40326160981139969 0.73346192995102844 0 0.35415581127540569 0.73730480045900215 0 0.36622285152418499 0.69092437780804039 0 0.91696753777131557 0.497780560203536 0 0.96228564064454991 0.48206450662049471 0 0.95631871884947484 0.51827533208233789 0 0.33758650185219202 0.23837101504325639 0 0.31255190597181792 0.19850845631528771 0 0.3572130504031617 0.1874703368446563 0 0.59814117807200873 0.23398510860739519 0 0.62657463266645097 0.26524202571255862 0 0.5794309697024993 0.27124795968204829 0 0.34258405725730701 0.4444034294386992 0 0.31068898841644388 0.47541502461811092 0 0.29124338931648802 0.43334555462578611 0 0.38083244760691543 0.38531983672244652 0 0.35221190152536241 0.40457127605439203 0 0.33277555741076909 0.36432196682010132 0 0.083411279318375747 0.91030024466934134 0 0.10266856499240549 0.95548163909968886 0 0.053064897599294662 0.95186845269532028 0 0.083411279318303222 0.089699755330707398 0 0.053064897599215843 0.048131547304697528 0 0.10266856499169109 0.044518360900210059 0 0.42377727103934271 0.25099357235810238 0 0.4604742573284204 0.27846934318264788 0 0.41914690343363781 0.30688979866601612 0 0.28307294598219601 0.50789252727458634 0 0.25982634974572738 0.46097799597715272 0 0.31068898841644388 0.47541502461811092 0 0.29348325746214782 0.31350119524708198 0 0.29132859388405002 0.27203693976649962 0 0.33402499257867951 0.28911035184473982 0 0.35312867752657662 0.084946736076730367 0 0.39823268594401579 0.1116623613130045 0 0.36246644853392812 0.1399454205365751 0 0.7000000000006934 1 0 0.68015064798562208 0.95924320340003011 0 0.7250000000005199 0.94981617647078953 0 0.42377727103934271 0.25099357235810238 0 0.38831533174504851 0.2189834941785925 0 0.42905200079338551 0.19982395548231649 0 0.53823865529665704 0.45873898050322898 0 0.57744073070774993 0.41535148636609359 0 0.57975577671020095 0.46172033326338591 0 0.33758650185219202 0.23837101504325639 0 0.3572130504031617 0.1874703368446563 0 0.38831533174504851 0.2189834941785925 0 0.29124338931648802 0.43334555462578611 0 0.31068898841644388 0.47541502461811092 0 0.25982634974572738 0.46097799597715272 0 0.6084546825910605 0.37989672713932537 0 0.61959173890754571 0.33832250091341232 0 0.65481233915350323 0.35652751921065562 0 0.40326160981139969 0.73346192995102844 0 0.43323420005758778 0.6913544522562407 0 0.45582236402875981 0.73896743678908217 0 0.33758650185219202 0.23837101504325639 0 0.28040350263641872 0.23054717217092141 0 0.31255190597181792 0.19850845631528771 0 0.79999999999999982 1 0 0.75000000000034661 1 0 0.770759834363826 0.95919399014344442 0 0.74999999999999989 0.29999999999999999 0 0.77075983436335049 0.25919399014334171 0 0.79999999999999982 0.29999999999999999 0 0.6499999999999998 0.29999999999999999 0 0.67933712972090698 0.25920070958121938 0 0.69999999999999984 0.29999999999999999 0 0.39536230704883951 0.84069429572832477 0 0.39767323751400468 0.89584229130535065 0 0.35864759629805099 0.87963482415279515 0 0.54999999999999993 0.69999999999999996 0 0.52584555706968406 0.66664215091846768 0 0.57484956128872922 0.66573805030881994 0 0.35312867752657662 0.084946736076730367 0 0.32541448401678508 0.046215317981507749 0 0.3615861437013822 0.03582617922508851 0 0.35752321586431363 0.9185439911803448 0 0.36184234618600131 0.96443954459096326 0 0.32544832635163229 0.95485394099568932 0 0.35312867752657662 0.084946736076730367 0 0.3615861437013822 0.03582617922508851 0 0.39591832466117061 0.056982757562006353 0 0.35752321586431363 0.9185439911803448 0 0.39641108128798319 0.94356127926187128 0 0.36184234618600131 0.96443954459096326 0 0.083411279318303222 0.089699755330707398 0 0.044310582753132287 0.101412518374475 0 0.053064897599215843 0.048131547304697528 0 0.083411279318375747 0.91030024466934134 0 0.053064897599294662 0.95186845269532028 0 0.0443105827531413 0.89858748162559932 0 0.38083244760691543 0.38531983672244652 0 0.40076539126862748 0.34589349467022118 0 0.42161023666869668 0.39493916313643851 0 0.4409427642593301 0.35743108089689513 0 0.42161023666869668 0.39493916313643851 0 0.40076539126862748 0.34589349467022118 0 0.79999999999999982 0.29999999999999999 0 0.82500000000000062 0.33010209762754811 0 0.78145581580700685 0.34881365920033602 0 0.79999999999999982 0.69999999999999996 0 0.7750489929959945 0.66593931409600093 0 0.82457059160610424 0.66831947184359608 0 0.59999999999999976 0.69999999999999996 0 0.57484956128872922 0.66573805030881994 0 0.62460753523532009 0.66851202781000296 0 0.74999999999999989 0.69999999999999996 0 0.72500000000000064 0.67022701834392062 0 0.7750489929959945 0.66593931409600093 0 0.74999999999999989 0.29999999999999999 0 0.78145581580700685 0.34881365920033602 0 0.73090396928863699 0.33699297293167962 0 0.33758650185219202 0.23837101504325639 0 0.33402499257867951 0.28911035184473982 0 0.29132859388405002 0.27203693976649962 0 0.36575549820117997 0.31677992835137742 0 0.41914690343363781 0.30688979866601612 0 0.40076539126862748 0.34589349467022118 0 0.4409427642593301 0.35743108089689513 0 0.40076539126862748 0.34589349467022118 0 0.41914690343363781 0.30688979866601612 0 0.34258405725730701 0.4444034294386992 0 0.38707855792647411 0.42299362914874578 0 0.3908716102680424 0.47010282357248828 0 0.7000000000006934 1 0 0.65000000000104008 1 0 0.68015064798562208 0.95924320340003011 0 0.49102375406324739 0.49123754822244059 0 0.46111841286828259 0.46690301029591341 0 0.48858720058566618 0.43964267759203868 0 0.4656888918609538 0.78493261229743638 0 0.42676259796334498 0.76772545931379299 0 0.45582236402875981 0.73896743678908217 0 0.40326160981139969 0.73346192995102844 0 0.45582236402875981 0.73896743678908217 0 0.42676259796334498 0.76772545931379299 0 0.59999999999999976 0.29999999999999999 0 0.62657463266645097 0.26524202571255862 0 0.6499999999999998 0.29999999999999999 0 0.40000000000166441 1 0 0.36184234618600131 0.96443954459096326 0 0.39641108128798319 0.94356127926187128 0 0.3999999999989749 0 0 0.39591832466117061 0.056982757562006353 0 0.3615861437013822 0.03582617922508851 0 0.43249999999999988 0.43937499999999979 0 0.48858720058566618 0.43964267759203868 0 0.46111841286828259 0.46690301029591341 0 0.7250000000005199 0.89375000000045834 0 0.7250000000005199 0.94981617647078953 0 0.68987011941058407 0.92105047536677087 0 0.7250000000005199 0.89375000000045834 0 0.75729602384198635 0.92353652857884294 0 0.7250000000005199 0.94981617647078953 0 0.72500000000001008 0.19776155966387679 0 0.75668890529066124 0.2244279804069782 0 0.72500000000000064 0.2498161764706 0 0.72500000000001008 0.19776155966387679 0 0.72500000000000064 0.2498161764706 0 0.69397719155551807 0.2245125647000914 0 0.79999999999999982 0.29999999999999999 0 0.81486180804364938 0.26321394949780091 0 0.84999999999999987 0.29999999999999999 0 0.84999999999965292 1 0 0.79999999999999982 1 0 0.81486180804382891 0.96321394949790495 0 0.1247745017231483 0.27198077544791172 0 0.095326043202144745 0.24554465089224409 0 0.14377654328998779 0.2442024734791064 0 0.1215415378367805 0.72939333680004137 0 0.14335651144331049 0.75565258250209677 0 0.090953281884486245 0.7564451946902494 0 0.72500000000001008 0.19776155966387679 0 0.72634814642510737 0.16106886917518889 0 0.76587607630038135 0.18880039518954719 0 0.72500000000001008 0.19776155966387679 0 0.6865991819015953 0.189116534044597 0 0.72634814642510737 0.16106886917518889 0 0.77144070960558853 0.14311854477243749 0 0.76587607630038135 0.18880039518954719 0 0.72634814642510737 0.16106886917518889 0 0.68391457121233579 0.14440470121196541 0 0.72634814642510737 0.16106886917518889 0 0.6865991819015953 0.189116534044597 0 0.7250000000005199 0.89375000000045834 0 0.72863726579783861 0.85390518901155588 0 0.76891166905518427 0.88835469571185499 0 0.76901770135486491 0.84293557325473656 0 0.76891166905518427 0.88835469571185499 0 0.72863726579783861 0.85390518901155588 0 0 0.20000000000083221 0 0.038512288486115001 0.1844147282893184 0 0.044081577119474857 0.2271058242433576 0 0 0.79999999999999982 0 0.04408157711937423 0.7728941757575627 0 0.038512288486097702 0.8155852717111195 0 0.52375890611712683 0.059318771819432882 0 0.47881186583059909 0.093591717165689425 0 0.47040171442036788 0.044141676406503738 0 0.52122150208832174 0.94089974453840242 0 0.47135117303824892 0.95556877749289892 0 0.47401147028110507 0.91529957330468115 0 0.27474541102162192 0.11822029332053539 0 0.3096713403101819 0.085471541595262421 0 0.32215584939770009 0.1218492143506909 0 0.22278230690790279 0.44824268025881547 0 0.24049127783545701 0.41270748208749802 0 0.25982634974572738 0.46097799597715272 0 0.93732437411268477 0.55911392101136159 0 0.91143117093204207 0.58709913730335972 0 0.90900154012161016 0.53607784105648792 0 0.19901705110390991 0.9175543425573498 0 0.24536017905392571 0.90704567837671446 0 0.22850979588452081 0.95594428570238643 0 0.27609987656793722 0.94991445621608572 0 0.22850979588452081 0.95594428570238643 0 0.24536017905392571 0.90704567837671446 0 0.15720202157091859 0.60665697304410315 0 0.1241190223511371 0.64391885572885044 0 0.1024350934457823 0.60772393977513839 0 0.6499999999999998 0.69999999999999996 0 0.675261390228442 0.65996937624687813 0 0.69999999999999984 0.69999999999999996 0 0.3999999999989749 0 0 0.4320097814748517 0.037406712692169303 0 0.39591832466117061 0.056982757562006353 0 0.40000000000166441 1 0 0.39641108128798319 0.94356127926187128 0 0.4308986359464303 0.96395712492906194 0 0.54999999999999993 0.29999999999999999 0 0.56836770495988642 0.3523062350852913 0 0.52752007115234678 0.33170632466418198 0 0.14474682429600511 0.85524784522713515 0 0.17777405986036951 0.81832336108265358 0 0.19741632902693801 0.86755867406447229 0 0.21858834311891909 0.81980263716112767 0 0.19741632902693801 0.86755867406447229 0 0.17777405986036951 0.81832336108265358 0 0.54782696902220018 0.79245182748204157 0 0.50731287292894423 0.78963574450233831 0 0.50945740445113552 0.75476055527778108 0 0.20000000000083221 1 0 0.18474005699953849 0.96231585248064622 0 0.22850979588452081 0.95594428570238643 0 0.19999999999955789 0 0 0.22668068146512929 0.045875643423131329 0 0.184418230509967 0.038773194583122873 0 0.77846603114747959 0.49850927265137401 0 0.73947346780852752 0.49062440112282169 0 0.77972660463949339 0.45529290596363098 0 0.73483647259922602 0.44789725365921768 0 0.77972660463949339 0.45529290596363098 0 0.73947346780852752 0.49062440112282169 0 0.34258405725730701 0.4444034294386992 0 0.35024835142131061 0.48654922671676981 0 0.31068898841644388 0.47541502461811092 0 0.33123028043633618 0.77629643437932982 0 0.2792923945214143 0.77665808831789485 0 0.29904318922293632 0.74132814928635593 0 0.26573297623774761 0.59828298563722948 0 0.25115337790845271 0.54719303014923271 0 0.29110487519241501 0.56588143995431495 0 0.4656888918609538 0.78493261229743638 0 0.50945740445113552 0.75476055527778108 0 0.50731287292894423 0.78963574450233831 0 0.35312867752657662 0.084946736076730367 0 0.36246644853392812 0.1399454205365751 0 0.32215584939770009 0.1218492143506909 0 0.29348325746214782 0.31350119524708198 0 0.25966125648670141 0.34351016742083729 0 0.24432083401701241 0.3006253385567515 0 0.59999999999999976 0.69999999999999996 0 0.6499999999999998 0.69999999999999996 0 0.63221990677827677 0.73442891067859706 0 0.69999999999921003 0 0 0.7010294155333181 0.056779085686491267 0 0.66369801598854572 0.036327466368102787 0 0.40000000000166441 1 0 0.35000000000145642 1 0 0.36184234618600131 0.96443954459096326 0 0.34999999999912063 0 0 0.3999999999989749 0 0 0.3615861437013822 0.03582617922508851 0 0.43507373378304309 0.49699695397193322 0 0.47793794143994173 0.52940715638744962 0 0.42644501560315817 0.54603747078095544 0 0.14474682429600511 0.85524784522713515 0 0.19741632902693801 0.86755867406447229 0 0.16206583317966519 0.89685560785156404 0 0.19901705110390991 0.9175543425573498 0 0.16206583317966519 0.89685560785156404 0 0.19741632902693801 0.86755867406447229 0 0.35864735590330371 0.63903383440414463 0 0.3977710372045391 0.65868194622830212 0 0.36622285152418499 0.69092437780804039 0 0.7527966693318906 0.053051678021508272 0 0.7010294155333181 0.056779085686491267 0 0.72683645290270404 0.027797073151180601 0 0.71508799138962864 0.36622814920737751 0 0.72622533758026719 0.40265885511101601 0 0.68128176404677243 0.38629093627004979 0 0.79999999999999982 0.69999999999999996 0 0.84999999999999987 0.69999999999999996 0 0.81864958914779962 0.73589050177899629 0 0.79999999999947335 0 0 0.84999999999960507 0 0 0.81864958914740749 0.035890501779055867 0 0.39536230704883951 0.84069429572832477 0 0.35642984951668422 0.80994399665655703 0 0.38586766253264881 0.78219501014812498 0 0.42377727103934271 0.25099357235810238 0 0.46429753744194407 0.22870891180733599 0 0.4604742573284204 0.27846934318264788 0 0.39801143831225599 0.16651381068160659 0 0.42905200079338551 0.19982395548231649 0 0.38831533174504851 0.2189834941785925 0 0.79999999999999982 1 0 0.770759834363826 0.95919399014344442 0 0.81486180804382891 0.96321394949790495 0 0.79999999999999982 0.29999999999999999 0 0.77075983436335049 0.25919399014334171 0 0.81486180804364938 0.26321394949780091 0 0.25195515620380449 0.25883339815888678 0 0.21049769590865089 0.26857363548218488 0 0.224700362040408 0.22206622194729711 0 0.40326160981139969 0.73346192995102844 0 0.42676259796334498 0.76772545931379299 0 0.38586766253264881 0.78219501014812498 0 0.35312867752657662 0.084946736076730367 0 0.3096713403101819 0.085471541595262421 0 0.32541448401678508 0.046215317981507749 0 0.59999999999999976 0.29999999999999999 0 0.6499999999999998 0.29999999999999999 0 0.61959173890754571 0.33832250091341232 0 0.2185883431182947 0.18019736283949719 0 0.18652628422869419 0.14162325200928061 0 0.22985637510995899 0.1298347970200906 0 0.64999999999907843 0 0 0.69999999999921003 0 0 0.66369801598854572 0.036327466368102787 0 0.27499999999933927 0.060310814194988557 0 0.24218496799700481 0.089025544070598317 0 0.22668068146512929 0.045875643423131329 0 0.19922788606653311 0.085920220746880993 0 0.22668068146512929 0.045875643423131329 0 0.24218496799700481 0.089025544070598317 0 0.65507451745379841 0.92229208810758578 0 0.66412543161245952 0.88015090885499059 0 0.68987011941058407 0.92105047536677087 0 0.049706944316475897 0.72477277076253799 0 0.090953281884486245 0.7564451946902494 0 0.04408157711937423 0.7728941757575627 0 0.083105206071452636 0.79992298667296435 0 0.04408157711937423 0.7728941757575627 0 0.090953281884486245 0.7564451946902494 0 0.083105206071467416 0.20007701332709979 0 0.095326043202144745 0.24554465089224409 0 0.044081577119474857 0.2271058242433576 0 0.049706944316556423 0.27522722923869108 0 0.044081577119474857 0.2271058242433576 0 0.095326043202144745 0.24554465089224409 0 0.36575549820117997 0.31677992835137742 0 0.33402499257867951 0.28911035184473982 0 0.3786248352540974 0.27082301512024259 0 0.53245488764484505 0.55078124999999989 0 0.53330375813596242 0.50827942741749099 0 0.57435499076887508 0.54267261987897775 0 0.57611405284611883 0.50165903596042916 0 0.57435499076887508 0.54267261987897775 0 0.53330375813596242 0.50827942741749099 0 0.6499999999999998 0.29999999999999999 0 0.69999999999999984 0.29999999999999999 0 0.68887083591306764 0.33632058575757479 0 0.57611405284611883 0.50165903596042916 0 0.53823865529665704 0.45873898050322898 0 0.57975577671020095 0.46172033326338591 0 0.7750489929959945 0.66593931409600093 0 0.72500000000000064 0.67022701834392062 0 0.74994237037456724 0.62775548192980357 0 0.78145581580700685 0.34881365920033602 0 0.74764719760526988 0.3719647154012321 0 0.73090396928863699 0.33699297293167962 0 0.3999999999989749 0 0 0.44999999999882923 0 0 0.4320097814748517 0.037406712692169303 0 0.45000000000187229 1 0 0.40000000000166441 1 0 0.4308986359464303 0.96395712492906194 0 0.57484956128872922 0.66573805030881994 0 0.5991018319127801 0.62925360607495295 0 0.62460753523532009 0.66851202781000296 0 0.7750489929959945 0.66593931409600093 0 0.79884539758237771 0.62875045078114233 0 0.82457059160610424 0.66831947184359608 0 0.39801143831225599 0.16651381068160659 0 0.36246644853392812 0.1399454205365751 0 0.39823268594401579 0.1116623613130045 0 0.078358742472063481 0.43365249433908948 0 0.033550201249889847 0.46247875832467239 0 0.035463093262830522 0.42673416072819947 0 0.25676291524611189 0.7436741304886243 0 0.2792923945214143 0.77665808831789485 0 0.22556077506376701 0.77837424984191617 0 0.2236846579037573 0.67380363126050236 0 0.2248999640082178 0.72584299459689172 0 0.19068556247388771 0.71028988922845504 0 0.50715858906372158 0.63295939104129484 0 0.5166924242153631 0.59825134841919447 0 0.5498280205245758 0.6290146943450976 0 0.14618258501891079 0.062070108745602003 0 0.12372429750337779 0.095814237875728972 0 0.10266856499169109 0.044518360900210059 0 0.083411279318303222 0.089699755330707398 0 0.10266856499169109 0.044518360900210059 0 0.12372429750337779 0.095814237875728972 0 0.083411279318375747 0.91030024466934134 0 0.1241151115713819 0.9045666525468371 0 0.10266856499240549 0.95548163909968886 0 0.14617343800780541 0.93808063414349496 0 0.10266856499240549 0.95548163909968886 0 0.1241151115713819 0.9045666525468371 0 0.5499999999988151 0 0 0.59999999999894682 0 0 0.57396793757665954 0.037011367187645222 0 0.54782696902220018 0.79245182748204157 0 0.50627822638148745 0.8263979829520941 0 0.50731287292894423 0.78963574450233831 0 0.6499999999999998 0.29999999999999999 0 0.62657463266645097 0.26524202571255862 0 0.67933712972090698 0.25920070958121938 0 0.86956835336234861 0.571283299838105 0 0.86907294890112186 0.52008116128001669 0 0.90900154012161016 0.53607784105648792 0 0.17933913398461551 0.2350063570234002 0 0.224700362040408 0.22206622194729711 0 0.21049769590865089 0.26857363548218488 0 0.43249999999999988 0.43937499999999979 0 0.3908716102680424 0.47010282357248828 0 0.38707855792647411 0.42299362914874578 0 0.27474541102162192 0.11822029332053539 0 0.22985637510995899 0.1298347970200906 0 0.24218496799700481 0.089025544070598317 0 0.64753070846764316 0.77332939069435502 0 0.66427993341343905 0.73232764502436276 0 0.6916490518212759 0.75387992374886192 0 0 0.40000000000166441 0 0.050583896093752537 0.38543522283434112 0 0.035463093262830522 0.42673416072819947 0 0.73483647259922602 0.44789725365921768 0 0.73947346780852752 0.49062440112282169 0 0.69385896817107129 0.48377516041410151 0 0.57484956128872922 0.66573805030881994 0 0.52584555706968406 0.66664215091846768 0 0.5498280205245758 0.6290146943450976 0 0.60000000000138687 1 0 0.55000000000173355 1 0 0.57382506491224949 0.9629411906298494 0 0.068743045408989428 0.48853989837882689 0 0.085622222639554768 0.53333248912060549 0 0.044576108720083309 0.53509043209532614 0 0.083105206071467416 0.20007701332709979 0 0.044081577119474857 0.2271058242433576 0 0.038512288486115001 0.1844147282893184 0 0.083105206071452636 0.79992298667296435 0 0.038512288486097702 0.8155852717111195 0 0.04408157711937423 0.7728941757575627 0 0.28307294598219601 0.50789252727458634 0 0.23975172658309729 0.49475499200540818 0 0.25982634974572738 0.46097799597715272 0 0.43698630808430822 0.080423614171545449 0 0.39591832466117061 0.056982757562006353 0 0.4320097814748517 0.037406712692169303 0 0.4367309254023824 0.92065556789053882 0 0.4308986359464303 0.96395712492906194 0 0.39641108128798319 0.94356127926187128 0 0.80185942888539485 0.77452061303608133 0 0.75841349681148107 0.75422312624214749 0 0.78578450296893509 0.73292684821144505 0 0.80185942888501827 0.074520613036224564 0 0.7527966693318906 0.053051678021508272 0 0.78393852574753176 0.032039079577822822 0 0.6499999999999998 0.69999999999999996 0 0.62460753523532009 0.66851202781000296 0 0.675261390228442 0.65996937624687813 0 0.33123028043633618 0.77629643437932982 0 0.38586766253264881 0.78219501014812498 0 0.35642984951668422 0.80994399665655703 0 0.6405463747586706 0.63290524857395714 0 0.675261390228442 0.65996937624687813 0 0.62460753523532009 0.66851202781000296 0 0.22278230690790279 0.44824268025881547 0 0.191953871957803 0.42546416763755879 0 0.24049127783545701 0.41270748208749802 0 0.077693244765132896 0.56932317963405099 0 0.050069554451969707 0.61308520079857043 0 0.034381862692950467 0.57372682250960894 0 0.25195515620380449 0.25883339815888678 0 0.24432083401701241 0.3006253385567515 0 0.21049769590865089 0.26857363548218488 0 0.46666084890304671 0.57634471035397938 0 0.5166924242153631 0.59825134841919447 0 0.47095389620662098 0.61892551373708504 0 0.50715858906372158 0.63295939104129484 0 0.47095389620662098 0.61892551373708504 0 0.5166924242153631 0.59825134841919447 0 0.72525833953073282 0.1032114801687094 0 0.7527966693318906 0.053051678021508272 0 0.76878382444651716 0.097147941686331368 0 0.80185942888501827 0.074520613036224564 0 0.76878382444651716 0.097147941686331368 0 0.7527966693318906 0.053051678021508272 0 0.72500000000000064 0.7952620967744265 0 0.75841349681148107 0.75422312624214749 0 0.77094201086366854 0.79647480515688507 0 0.80185942888539485 0.77452061303608133 0 0.77094201086366854 0.79647480515688507 0 0.75841349681148107 0.75422312624214749 0 0.72500000000000064 0.7952620967744265 0 0.68024162096458085 0.79868546898116533 0 0.6916490518212759 0.75387992374886192 0 0.64753070846764316 0.77332939069435502 0 0.6916490518212759 0.75387992374886192 0 0.68024162096458085 0.79868546898116533 0 0 0.50000000000205869 0 0 0.45000000000187229 0 0.033550201249889847 0.46247875832467239 0 0.69999999999999984 0.69999999999999996 0 0.675261390228442 0.65996937624687813 0 0.72500000000000064 0.67022701834392062 0 0.71406021706547751 0.63292083137662503 0 0.72500000000000064 0.67022701834392062 0 0.675261390228442 0.65996937624687813 0 0.65408113592120842 0.073941773121567966 0 0.61940220174112337 0.047251958781050582 0 0.66369801598854572 0.036327466368102787 0 0.59999999999894682 0 0 0.61940220174112337 0.047251958781050582 0 0.57396793757665954 0.037011367187645222 0 0.60000000000138687 1 0 0.57382506491224949 0.9629411906298494 0 0.62065498684670595 0.95224934003983619 0 0.33122374654748771 0.57588941099433744 0 0.35765792684946668 0.6000687869219653 0 0.31502927232353312 0.6134992213375432 0 0.35864735590330371 0.63903383440414463 0 0.31502927232353312 0.6134992213375432 0 0.35765792684946668 0.6000687869219653 0 0.15801167086041079 0.46008690540259539 0 0.19604738184454831 0.47787523520405789 0 0.16618607197337229 0.50652878253548905 0 0.078358742472063481 0.43365249433908948 0 0.035463093262830522 0.42673416072819947 0 0.050583896093752537 0.38543522283434112 0 0.19901705110390991 0.9175543425573498 0 0.22850979588452081 0.95594428570238643 0 0.18474005699953849 0.96231585248064622 0 0.19922788606653311 0.085920220746880993 0 0.184418230509967 0.038773194583122873 0 0.22668068146512929 0.045875643423131329 0 0.19922788606653311 0.085920220746880993 0 0.24218496799700481 0.089025544070598317 0 0.22985637510995899 0.1298347970200906 0 0.74999999999999989 0.69999999999999996 0 0.78578450296893509 0.73292684821144505 0 0.75841349681148107 0.75422312624214749 0 0.74999999999934175 0 0 0.78393852574753176 0.032039079577822822 0 0.7527966693318906 0.053051678021508272 0 0 0.60000000000138687 0 0.034381862692950467 0.57372682250960894 0 0.050069554451969707 0.61308520079857043 0 0.2236846579037573 0.67380363126050236 0 0.26439878998046262 0.7048065392091396 0 0.2248999640082178 0.72584299459689172 0 0.6236733212988993 0.14864538214901801 0 0.58516465772821369 0.11653801664834119 0 0.61956000905586006 0.1043312481793135 0 0.26104540868854792 0.81401944968719064 0 0.2792923945214143 0.77665808831789485 0 0.30857225866488791 0.81101973481716805 0 0.42377727103934271 0.25099357235810238 0 0.42905200079338551 0.19982395548231649 0 0.46429753744194407 0.22870891180733599 0 0.27820712747429932 0.65530134213254643 0 0.31502927232353312 0.6134992213375432 0 0.32263089806001177 0.66003674931826484 0 0.61343887413683884 0.856862479058357 0 0.61885627562261258 0.90282959257498208 0 0.5832743223239254 0.88483152652961872 0 0.43698630808430822 0.080423614171545449 0 0.47040171442036788 0.044141676406503738 0 0.47881186583059909 0.093591717165689425 0 0.4367309254023824 0.92065556789053882 0 0.47401147028110507 0.91529957330468115 0 0.47135117303824892 0.95556877749289892 0 0.91696753777131557 0.497780560203536 0 0.95631871884947484 0.51827533208233789 0 0.90900154012161016 0.53607784105648792 0 0.93732437411268477 0.55911392101136159 0 0.90900154012161016 0.53607784105648792 0 0.95631871884947484 0.51827533208233789 0 0.27474541102162192 0.11822029332053539 0 0.25557216766470708 0.15874861286892261 0 0.22985637510995899 0.1298347970200906 0 0.2185883431182947 0.18019736283949719 0 0.22985637510995899 0.1298347970200906 0 0.25557216766470708 0.15874861286892261 0 0.29348325746214782 0.31350119524708198 0 0.33402499257867951 0.28911035184473982 0 0.32752639306529541 0.32610012995269699 0 0.27499999999933927 0.060310814194988557 0 0.32541448401678508 0.046215317981507749 0 0.3096713403101819 0.085471541595262421 0 0.27270076654418179 0.87751467830216623 0 0.24536017905392571 0.90704567837671446 0 0.2401283238295133 0.85648409884788523 0 1 0.44999999999963131 0 1 0.49999999999950101 0 0.96228564064454991 0.48206450662049471 0 0.61343887413683884 0.856862479058357 0 0.66412543161245952 0.88015090885499059 0 0.61885627562261258 0.90282959257498208 0 0 0.45000000000187229 0 0 0.40000000000166441 0 0.035463093262830522 0.42673416072819947 0 0.69999999999999984 0.69999999999999996 0 0.6916490518212759 0.75387992374886192 0 0.66427993341343905 0.73232764502436276 0 0.43846182030517877 0.64845797726506715 0 0.43323420005758778 0.6913544522562407 0 0.3977710372045391 0.65868194622830212 0 0.4367309254023824 0.92065556789053882 0 0.44003836461056539 0.88093474584252718 0 0.47401147028110507 0.91529957330468115 0 0.43846182030517877 0.64845797726506715 0 0.39743091024207589 0.6239520004230239 0 0.43545892161006339 0.61093128915313821 0 0.43846182030517877 0.64845797726506715 0 0.3977710372045391 0.65868194622830212 0 0.39743091024207589 0.6239520004230239 0 0.26429849586623999 0.19346700179430079 0 0.29336099386129338 0.15892013001050981 0 0.31255190597181792 0.19850845631528771 0 0.19670163708476801 0.31472518408333222 0 0.21049769590865089 0.26857363548218488 0 0.24432083401701241 0.3006253385567515 0 0.57724883562309992 0.92155686857100794 0 0.62065498684670595 0.95224934003983619 0 0.57382506491224949 0.9629411906298494 0 0.4409427642593301 0.35743108089689513 0 0.46655310992796922 0.39650496622958609 0 0.42161023666869668 0.39493916313643851 0 0.46666084890304671 0.57634471035397938 0 0.47095389620662098 0.61892551373708504 0 0.43545892161006339 0.61093128915313821 0 0.6879972333610942 0.43038561374960838 0 0.65178832218679827 0.45929119821019959 0 0.63912439215427275 0.41063340167983359 0 0.43698630808430822 0.080423614171545449 0 0.4320097814748517 0.037406712692169303 0 0.47040171442036788 0.044141676406503738 0 0.4367309254023824 0.92065556789053882 0 0.47135117303824892 0.95556877749289892 0 0.4308986359464303 0.96395712492906194 0 0.79680861578988083 0.92656778056766709 0 0.81486180804382891 0.96321394949790495 0 0.770759834363826 0.95919399014344442 0 0.79680861578956375 0.22656778056752541 0 0.81486180804364938 0.26321394949780091 0 0.77075983436335049 0.25919399014334171 0 0.71508799138962864 0.36622814920737751 0 0.68128176404677243 0.38629093627004979 0 0.68887083591306764 0.33632058575757479 0 0.35864735590330371 0.63903383440414463 0 0.32263089806001177 0.66003674931826484 0 0.31502927232353312 0.6134992213375432 0 0.21858834311891909 0.81980263716112767 0 0.2401283238295133 0.85648409884788523 0 0.19741632902693801 0.86755867406447229 0 0.35312867752657662 0.084946736076730367 0 0.32215584939770009 0.1218492143506909 0 0.3096713403101819 0.085471541595262421 0 0.35752321586431363 0.9185439911803448 0 0.35864759629805099 0.87963482415279515 0 0.39767323751400468 0.89584229130535065 0 0.41914690343363781 0.30688979866601612 0 0.4604742573284204 0.27846934318264788 0 0.46226845272279993 0.31901800744800313 0 0.33084213324567391 0.16272720141332131 0 0.32215584939770009 0.1218492143506909 0 0.36246644853392812 0.1399454205365751 0 0.46666084890304671 0.57634471035397938 0 0.42644501560315817 0.54603747078095544 0 0.47793794143994173 0.52940715638744962 0 0 0.60000000000138687 0 0 0.55000000000173355 0 0.034381862692950467 0.57372682250960894 0 0.77354604466818633 0.40378688774472771 0 0.74764719760526988 0.3719647154012321 0 0.78145581580700685 0.34881365920033602 0 0.34999999999912063 0 0 0.3615861437013822 0.03582617922508851 0 0.32541448401678508 0.046215317981507749 0 0.35000000000145642 1 0 0.32544832635163229 0.95485394099568932 0 0.36184234618600131 0.96443954459096326 0 0.57667858002728545 0.078486105337742612 0 0.57396793757665954 0.037011367187645222 0 0.61940220174112337 0.047251958781050582 0 0.47357141910802508 0.1873585799078378 0 0.50760557329222289 0.20700468884612061 0 0.46429753744194407 0.22870891180733599 0 0.49695729691142171 0.25014895411178018 0 0.46429753744194407 0.22870891180733599 0 0.50760557329222289 0.20700468884612061 0 0.33084213324567391 0.16272720141332131 0 0.3572130504031617 0.1874703368446563 0 0.31255190597181792 0.19850845631528771 0 0.6879972333610942 0.43038561374960838 0 0.63912439215427275 0.41063340167983359 0 0.68128176404677243 0.38629093627004979 0 0.65408113592120842 0.073941773121567966 0 0.65290632656860115 0.11434202593454081 0 0.61956000905586006 0.1043312481793135 0 0.33084213324567391 0.16272720141332131 0 0.31255190597181792 0.19850845631528771 0 0.29336099386129338 0.15892013001050981 0 0.61209567303293111 0.44669033081290321 0 0.63912439215427275 0.41063340167983359 0 0.65178832218679827 0.45929119821019959 0 0.086179601630648681 0.64647209519980475 0 0.1024350934457823 0.60772393977513839 0 0.1241190223511371 0.64391885572885044 0 0.44999999999882923 0 0 0.47040171442036788 0.044141676406503738 0 0.4320097814748517 0.037406712692169303 0 0.45000000000187229 1 0 0.4308986359464303 0.96395712492906194 0 0.47135117303824892 0.95556877749289892 0 0.74999999999934175 0 0 0.7527966693318906 0.053051678021508272 0 0.72683645290270404 0.027797073151180601 0 0.74999999999999989 0.69999999999999996 0 0.75841349681148107 0.75422312624214749 0 0.72501250972655151 0.74067302935308721 0 0.69999999999999984 0.69999999999999996 0 0.72501250972655151 0.74067302935308721 0 0.6916490518212759 0.75387992374886192 0 0.74999999999934175 0 0 0.79999999999947335 0 0 0.78393852574753176 0.032039079577822822 0 0.74999999999999989 0.69999999999999996 0 0.79999999999999982 0.69999999999999996 0 0.78578450296893509 0.73292684821144505 0 0.6405463747586706 0.63290524857395714 0 0.5991018319127801 0.62925360607495295 0 0.63065402604362242 0.59661356661633302 0 0.65481233915350323 0.35652751921065562 0 0.68887083591306764 0.33632058575757479 0 0.68128176404677243 0.38629093627004979 0 0.89999999999999991 0.29999999999999999 0 0.94999999999999996 0.29999999999999999 0 0.92012390126144183 0.33123581297173937 0 0.89999999999999991 0.69999999999999996 0 0.92057473616084773 0.66770436535372446 0 0.94999999999999996 0.69999999999999996 0 0.4367309254023824 0.92065556789053882 0 0.39767323751400468 0.89584229130535065 0 0.44003836461056539 0.88093474584252718 0 0.2185883431182947 0.18019736283949719 0 0.18124454140915969 0.18790916706335251 0 0.18652628422869419 0.14162325200928061 0 0.20050006573841939 0.53248514016039872 0 0.19604738184454831 0.47787523520405789 0 0.23975172658309729 0.49475499200540818 0 0.65507451745379841 0.92229208810758578 0 0.61885627562261258 0.90282959257498208 0 0.66412543161245952 0.88015090885499059 0 0.65394964615507722 0.22666784374016369 0 0.67933712972090698 0.25920070958121938 0 0.62657463266645097 0.26524202571255862 0 0.077693244765132896 0.56932317963405099 0 0.034381862692950467 0.57372682250960894 0 0.044576108720083309 0.53509043209532614 0 0.39801143831225599 0.16651381068160659 0 0.38831533174504851 0.2189834941785925 0 0.3572130504031617 0.1874703368446563 0 0.6499999999999998 0.69999999999999996 0 0.69999999999999984 0.69999999999999996 0 0.66427993341343905 0.73232764502436276 0 0.1215415378367805 0.72939333680004137 0 0.15332765547575641 0.71200081858233666 0 0.14335651144331049 0.75565258250209677 0 0.6405463747586706 0.63290524857395714 0 0.63065402604362242 0.59661356661633302 0 0.67529834988829951 0.61613270668143583 0 0.67323294229744413 0.57556450033612505 0 0.67529834988829951 0.61613270668143583 0 0.63065402604362242 0.59661356661633302 0 0.91750694127107502 0.36982372220068471 0 0.87430060258887643 0.34056085888204451 0 0.92012390126144183 0.33123581297173937 0 0.89999999999999991 0.29999999999999999 0 0.92012390126144183 0.33123581297173937 0 0.87430060258887643 0.34056085888204451 0 0.89999999999999991 0.69999999999999996 0 0.87712158428786946 0.65709029563313581 0 0.92057473616084773 0.66770436535372446 0 0.91750694127105259 0.63017627779935648 0 0.92057473616084773 0.66770436535372446 0 0.87712158428786946 0.65709029563313581 0 0.33122374654748771 0.57588941099433744 0 0.29110487519241501 0.56588143995431495 0 0.33190227185843768 0.52715113583864037 0 0.57484956128872922 0.66573805030881994 0 0.5498280205245758 0.6290146943450976 0 0.5991018319127801 0.62925360607495295 0 0.57412547362576272 0.58273804879550706 0 0.5991018319127801 0.62925360607495295 0 0.5498280205245758 0.6290146943450976 0 0.65408113592120842 0.073941773121567966 0 0.66369801598854572 0.036327466368102787 0 0.7010294155333181 0.056779085686491267 0 0.27474541102162192 0.11822029332053539 0 0.32215584939770009 0.1218492143506909 0 0.29336099386129338 0.15892013001050981 0 0.33084213324567391 0.16272720141332131 0 0.29336099386129338 0.15892013001050981 0 0.32215584939770009 0.1218492143506909 0 0.5 0.29999999999999999 0 0.54999999999999993 0.29999999999999999 0 0.52752007115234678 0.33170632466418198 0 0.83573492347052902 0.36590755630746369 0 0.87430060258887643 0.34056085888204451 0 0.86844634540301924 0.38530937474099819 0 0.83758014339878906 0.63222013025741819 0 0.87159648282691515 0.61285406320581504 0 0.87712158428786946 0.65709029563313581 0 0.22278230690790279 0.44824268025881547 0 0.23975172658309729 0.49475499200540818 0 0.19604738184454831 0.47787523520405789 0 1 0.49999999999950101 0 0.95631871884947484 0.51827533208233789 0 0.96228564064454991 0.48206450662049471 0 0.1650278706801647 0.38791388161335733 0 0.13773355295499351 0.42497777642586831 0 0.1117088112799664 0.38831403004970022 0 0.61209567303293111 0.44669033081290321 0 0.57975577671020095 0.46172033326338591 0 0.57744073070774993 0.41535148636609359 0 0.077693244765132896 0.56932317963405099 0 0.1154888278694548 0.56733818459978413 0 0.1024350934457823 0.60772393977513839 0 0.68697391633157634 0.84450604838764298 0 0.65005442820240822 0.82644988530054031 0 0.68024162096458085 0.79868546898116533 0 0.76901770135486491 0.84293557325473656 0 0.77094201086366854 0.79647480515688507 0 0.80041942726660109 0.81543261647703358 0 0.77144070960558853 0.14311854477243749 0 0.76878382444651716 0.097147941686331368 0 0.80076557130237269 0.1154587552654202 0 0.5 0.69999999999999996 0 0.52584555706968406 0.66664215091846768 0 0.54999999999999993 0.69999999999999996 0 0.077693244765132896 0.56932317963405099 0 0.044576108720083309 0.53509043209532614 0 0.085622222639554768 0.53333248912060549 0 0.69999999999921003 0 0 0.72683645290270404 0.027797073151180601 0 0.7010294155333181 0.056779085686491267 0 1 0 0 0.97166519676946894 0.033371144900598393 0 0.94999999999986839 0 0 1 0.69999999999999996 0 0.97166519676947294 0.73337114490064459 0 0.94999999999999996 0.69999999999999996 0 1 0.69999999999999996 0 1 0.74999999999993494 0 0.97166519676947294 0.73337114490064459 0 1 0.29999999999999999 0 0.97166519676951801 0.26662885509932011 0 1 0.24999999999987299 0 1 1 0 0.94999999999979179 1 0 0.97166519676946206 0.96662885509935492 0 1 0 0 1 0.049999999999896842 0 0.97166519676946894 0.033371144900598393 0 1 0.29999999999999999 0 0.94999999999999996 0.29999999999999999 0 0.97166519676951801 0.26662885509932011 0 1 1 0 0.97166519676946206 0.96662885509935492 0 1 0.94999999999997109 0 0 0.55000000000173355 0 0.044576108720083309 0.53509043209532614 0 0.034381862692950467 0.57372682250960894 0 0.6879972333610942 0.43038561374960838 0 0.69385896817107129 0.48377516041410151 0 0.65178832218679827 0.45929119821019959 0 0.33084213324567391 0.16272720141332131 0 0.36246644853392812 0.1399454205365751 0 0.3572130504031617 0.1874703368446563 0 0.65408113592120842 0.073941773121567966 0 0.68330259535470161 0.10038702501083881 0 0.65290632656860115 0.11434202593454081 0 0.16500388252850301 0.66612077714085194 0 0.19068556247388771 0.71028988922845504 0 0.15332765547575641 0.71200081858233666 0 0.82709327591091286 0.84937141670920724 0 0.85600844944837662 0.88483418979512773 0 0.81159157511211755 0.88795995483179491 0 0.82709327591102189 0.14937141670914489 0 0.85600844944842547 0.1848341897950983 0 0.81283102246527783 0.1881007222486438 0 0.79999999999999982 0.29999999999999999 0 0.84999999999999987 0.29999999999999999 0 0.82500000000000062 0.33010209762754811 0 0.79999999999999982 0.69999999999999996 0 0.82457059160610424 0.66831947184359608 0 0.84999999999999987 0.69999999999999996 0 0.59999999999999976 0.69999999999999996 0 0.62460753523532009 0.66851202781000296 0 0.6499999999999998 0.69999999999999996 0 0.39801143831225599 0.16651381068160659 0 0.3572130504031617 0.1874703368446563 0 0.36246644853392812 0.1399454205365751 0 0.69999999999999984 0.29999999999999999 0 0.74999999999999989 0.29999999999999999 0 0.73090396928863699 0.33699297293167962 0 0.69999999999999984 0.69999999999999996 0 0.72500000000000064 0.67022701834392062 0 0.74999999999999989 0.69999999999999996 0 0.6236733212988993 0.14864538214901801 0 0.64011864159029941 0.18789607982138171 0 0.59443395090188023 0.18455690917515069 0 0.20050006573841939 0.53248514016039872 0 0.16618607197337229 0.50652878253548905 0 0.19604738184454831 0.47787523520405789 0 0.79680861578956375 0.22656778056752541 0 0.76587607630038135 0.18880039518954719 0 0.81283102246527783 0.1881007222486438 0 0.79680861578988083 0.92656778056766709 0 0.76891166905518427 0.88835469571185499 0 0.81159157511211755 0.88795995483179491 0 0.71406021706547751 0.63292083137662503 0 0.675261390228442 0.65996937624687813 0 0.67529834988829951 0.61613270668143583 0 0.6405463747586706 0.63290524857395714 0 0.67529834988829951 0.61613270668143583 0 0.675261390228442 0.65996937624687813 0 0.19670163708476801 0.31472518408333222 0 0.168349569971391 0.28054490850913671 0 0.21049769590865089 0.26857363548218488 0 0.47357141910802508 0.1873585799078378 0 0.46429753744194407 0.22870891180733599 0 0.42905200079338551 0.19982395548231649 0 0.59814117807200873 0.23398510860739519 0 0.5794309697024993 0.27124795968204829 0 0.54248833945060504 0.2520322959927106 0 0.6541250972820879 0.49999999999999989 0 0.65178832218679827 0.45929119821019959 0 0.69385896817107129 0.48377516041410151 0 0.54999999999999993 0.29999999999999999 0 0.5794309697024993 0.27124795968204829 0 0.59999999999999976 0.29999999999999999 0 0.7750489929959945 0.66593931409600093 0 0.74994237037456724 0.62775548192980357 0 0.79884539758237771 0.62875045078114233 0 0.77293540622714185 0.59448302402785813 0 0.79884539758237771 0.62875045078114233 0 0.74994237037456724 0.62775548192980357 0 0.14332333627550789 0.14578431753966009 0 0.16141998738593399 0.10404039647458049 0 0.18652628422869419 0.14162325200928061 0 0.38083244760691543 0.38531983672244652 0 0.42161023666869668 0.39493916313643851 0 0.38707855792647411 0.42299362914874578 0 0.43249999999999988 0.43937499999999979 0 0.38707855792647411 0.42299362914874578 0 0.42161023666869668 0.39493916313643851 0 0.43846182030517877 0.64845797726506715 0 0.47095389620662098 0.61892551373708504 0 0.47913475093885149 0.66010775372412711 0 0.50715858906372158 0.63295939104129484 0 0.47913475093885149 0.66010775372412711 0 0.47095389620662098 0.61892551373708504 0 0.69999999999999984 0.69999999999999996 0 0.74999999999999989 0.69999999999999996 0 0.72501250972655151 0.74067302935308721 0 0.4089290844030305 0.58728915500154233 0 0.35765792684946668 0.6000687869219653 0 0.37272913873093971 0.56192925302619479 0 0.69999999999921003 0 0 0.74999999999934175 0 0 0.72683645290270404 0.027797073151180601 0 0.17933913398461551 0.2350063570234002 0 0.21049769590865089 0.26857363548218488 0 0.168349569971391 0.28054490850913671 0 0.14474682429600511 0.85524784522713515 0 0.10562472963403439 0.87143394428979881 0 0.1074251789111534 0.83564394292147814 0 0.14332333627550789 0.14578431753966009 0 0.106902708054812 0.16453234188234539 0 0.1053400320299198 0.12877248826361379 0 0.2236846579037573 0.67380363126050236 0 0.19914261668318661 0.62286739485272158 0 0.2459498854893499 0.63248470766216769 0 0.049999999999899652 0 0 0.053064897599215843 0.048131547304697528 0 0.02576622439977887 0.024532886826226379 0 0 0.050000000000207989 0 0.02576622439977887 0.024532886826226379 0 0.053064897599215843 0.048131547304697528 0 0.050000000000207989 1 0 0.025766224399875661 0.97546711317377799 0 0.053064897599294662 0.95186845269532028 0 0 0.94999999999979179 0 0.053064897599294662 0.95186845269532028 0 0.025766224399875661 0.97546711317377799 0 0.47357141910802508 0.1873585799078378 0 0.48466639505193998 0.1421439844745814 0 0.51729576145820033 0.1683240575987815 0 0.077693244765132896 0.56932317963405099 0 0.085622222639554768 0.53333248912060549 0 0.1154888278694548 0.56733818459978413 0 0.64753070846764316 0.77332939069435502 0 0.63221990677827677 0.73442891067859706 0 0.66427993341343905 0.73232764502436276 0 0.4656888918609538 0.78493261229743638 0 0.42609163930740518 0.80361684430568059 0 0.42676259796334498 0.76772545931379299 0 0.4089290844030305 0.58728915500154233 0 0.39743091024207589 0.6239520004230239 0 0.35765792684946668 0.6000687869219653 0 0.55306006949600994 0.20198184231352201 0 0.50760557329222289 0.20700468884612061 0 0.51729576145820033 0.1683240575987815 0 1 0.8999999999998336 0 1 0.94999999999997109 0 0.97435614836744289 0.92499999999990257 0 1 0.19999999999974799 0 1 0.24999999999987299 0 0.97435614836740092 0.22499999999981049 0 1 0.74999999999993494 0 1 0.7999999999998193 0 0.97435614836745565 0.77499999999987745 0 1 0.049999999999896842 0 1 0.099999999999753911 0 0.97435614836748241 0.074999999999825387 0 0.86411095495256451 0.42388805655111889 0 0.86844634540301924 0.38530937474099819 0 0.90594285160987287 0.4141265964174129 0 0.86956835336234861 0.571283299838105 0 0.91143117093204207 0.58709913730335972 0 0.87159648282691515 0.61285406320581504 0 0 0 0 0.02576622439977887 0.024532886826226379 0 0 0.050000000000207989 0 0 1 0 0 0.94999999999979179 0 0.025766224399875661 0.97546711317377799 0 0 1 0 0.025766224399875661 0.97546711317377799 0 0.050000000000207989 1 0 0 0 0 0.049999999999899652 0 0 0.02576622439977887 0.024532886826226379 0 0.65394964615507722 0.22666784374016369 0 0.64011864159029941 0.18789607982138171 0 0.6865991819015953 0.189116534044597 0 0.25195515620380449 0.25883339815888678 0 0.28040350263641872 0.23054717217092141 0 0.29132859388405002 0.27203693976649962 0 0.61209567303293111 0.44669033081290321 0 0.65178832218679827 0.45929119821019959 0 0.61547661924074692 0.48539576058873962 0 0.6541250972820879 0.49999999999999989 0 0.61547661924074692 0.48539576058873962 0 0.65178832218679827 0.45929119821019959 0 0.19670163708476801 0.31472518408333222 0 0.24432083401701241 0.3006253385567515 0 0.22615676742807109 0.33458786033114157 0 0.15801167086041079 0.46008690540259539 0 0.13773355295499351 0.42497777642586831 0 0.191953871957803 0.42546416763755879 0 0.1650278706801647 0.38791388161335733 0 0.191953871957803 0.42546416763755879 0 0.13773355295499351 0.42497777642586831 0 0.50715858906372158 0.63295939104129484 0 0.52584555706968406 0.66664215091846768 0 0.47913475093885149 0.66010775372412711 0 0.5 0.69999999999999996 0 0.47913475093885149 0.66010775372412711 0 0.52584555706968406 0.66664215091846768 0 0.51076801031701946 0.1202837388510348 0 0.51729576145820033 0.1683240575987815 0 0.48466639505193998 0.1421439844745814 0 0.71406021706547751 0.63292083137662503 0 0.74994237037456724 0.62775548192980357 0 0.72500000000000064 0.67022701834392062 0 0.71508799138962864 0.36622814920737751 0 0.73090396928863699 0.33699297293167962 0 0.74764719760526988 0.3719647154012321 0 0.22278230690790279 0.44824268025881547 0 0.25982634974572738 0.46097799597715272 0 0.23975172658309729 0.49475499200540818 0 0.80185942888539485 0.77452061303608133 0 0.78578450296893509 0.73292684821144505 0 0.81864958914779962 0.73589050177899629 0 0.80185942888501827 0.074520613036224564 0 0.78393852574753176 0.032039079577822822 0 0.81864958914740749 0.035890501779055867 0 0.5 0.29999999999999999 0 0.46226845272279993 0.31901800744800313 0 0.4604742573284204 0.27846934318264788 0 0.6405463747586706 0.63290524857395714 0 0.62460753523532009 0.66851202781000296 0 0.5991018319127801 0.62925360607495295 0 0.79680861578988083 0.92656778056766709 0 0.770759834363826 0.95919399014344442 0 0.75729602384198635 0.92353652857884294 0 0.79680861578956375 0.22656778056752541 0 0.77075983436335049 0.25919399014334171 0 0.75668890529066124 0.2244279804069782 0 0.65394964615507722 0.22666784374016369 0 0.69397719155551807 0.2245125647000914 0 0.67933712972090698 0.25920070958121938 0 0.81973119833356312 0.43505687159469048 0 0.84925632466077294 0.45359738909549091 0 0.81400510706333218 0.47357325943904899 0 0.83758014339878906 0.63222013025741819 0 0.82457059160610424 0.66831947184359608 0 0.79884539758237771 0.62875045078114233 0 0.25676291524611189 0.7436741304886243 0 0.2248999640082178 0.72584299459689172 0 0.26439878998046262 0.7048065392091396 0 0.91696753777131557 0.497780560203536 0 0.90900154012161016 0.53607784105648792 0 0.86907294890112186 0.52008116128001669 0 0.17933913398461551 0.2350063570234002 0 0.168349569971391 0.28054490850913671 0 0.14377654328998779 0.2442024734791064 0 0.1247745017231483 0.27198077544791172 0 0.14377654328998779 0.2442024734791064 0 0.168349569971391 0.28054490850913671 0 0.34258405725730701 0.4444034294386992 0 0.35221190152536241 0.40457127605439203 0 0.38707855792647411 0.42299362914874578 0 0.47357141910802508 0.1873585799078378 0 0.51729576145820033 0.1683240575987815 0 0.50760557329222289 0.20700468884612061 0 0.19670163708476801 0.31472518408333222 0 0.22615676742807109 0.33458786033114157 0 0.18434624290945251 0.35208838264196463 0 0.22033343844674469 0.36963382230740238 0 0.18434624290945251 0.35208838264196463 0 0.22615676742807109 0.33458786033114157 0 0.24432083401701241 0.3006253385567515 0 0.25966125648670141 0.34351016742083729 0 0.22615676742807109 0.33458786033114157 0 0.93814194660195893 0.44426664081746747 0 0.90594285160987287 0.4141265964174129 0 0.95871855522754235 0.40006508612975411 0 0.91750694127107502 0.36982372220068471 0 0.95871855522754235 0.40006508612975411 0 0.90594285160987287 0.4141265964174129 0 0.91750694127105259 0.63017627779935648 0 0.91143117093204207 0.58709913730335972 0 0.95867599106212187 0.60011091146651041 0 0.93732437411268477 0.55911392101136159 0 0.95867599106212187 0.60011091146651041 0 0.91143117093204207 0.58709913730335972 0 0.50715858906372158 0.63295939104129484 0 0.5498280205245758 0.6290146943450976 0 0.52584555706968406 0.66664215091846768 0 0.94399509803918602 0.75600490196082126 0 0.97435614836745565 0.77499999999987745 0 0.95386563387742829 0.80414874155775029 0 0.94399509803922566 0.056004901960802607 0 0.97435614836748241 0.074999999999825387 0 0.95386563387744361 0.1041487415577465 0 0.94399509803921056 0.24399509803922639 0 0.95391631417672862 0.19584263333809451 0 0.97435614836740092 0.22499999999981049 0 0.94399509803919068 0.9439950980391687 0 0.95391631417670719 0.89584263333814784 0 0.97435614836744289 0.92499999999990257 0 0.79680861578988083 0.92656778056766709 0 0.75729602384198635 0.92353652857884294 0 0.76891166905518427 0.88835469571185499 0 0.79680861578956375 0.22656778056752541 0 0.75668890529066124 0.2244279804069782 0 0.76587607630038135 0.18880039518954719 0 0.65394964615507722 0.22666784374016369 0 0.6865991819015953 0.189116534044597 0 0.69397719155551807 0.2245125647000914 0 0.38083244760691543 0.38531983672244652 0 0.38707855792647411 0.42299362914874578 0 0.35221190152536241 0.40457127605439203 0 1 0.7999999999998193 0 0.95386563387742829 0.80414874155775029 0 0.97435614836745565 0.77499999999987745 0 1 0.099999999999753911 0 0.95386563387744361 0.1041487415577465 0 0.97435614836748241 0.074999999999825387 0 1 0.8999999999998336 0 0.97435614836744289 0.92499999999990257 0 0.95391631417670719 0.89584263333814784 0 1 0.19999999999974799 0 0.97435614836740092 0.22499999999981049 0 0.95391631417672862 0.19584263333809451 0 0.84723782639812573 0.48638347960178252 0 0.81400510706333218 0.47357325943904899 0 0.84925632466077294 0.45359738909549091 0 0.54999999999999993 0.29999999999999999 0 0.54248833945060504 0.2520322959927106 0 0.5794309697024993 0.27124795968204829 0 0.94999999999999996 0.29999999999999999 0 0.95780851984364423 0.34215720972155339 0 0.92012390126144183 0.33123581297173937 0 0.94999999999999996 0.69999999999999996 0 0.92057473616084773 0.66770436535372446 0 0.9578014258160763 0.65787212321113708 0 0.15801167086041079 0.46008690540259539 0 0.113541300460994 0.46208784312094731 0 0.13773355295499351 0.42497777642586831 0 0.7250000000005199 0.94981617647078953 0 0.68015064798562208 0.95924320340003011 0 0.68987011941058407 0.92105047536677087 0 0.65507451745379841 0.92229208810758578 0 0.68987011941058407 0.92105047536677087 0 0.68015064798562208 0.95924320340003011 0 0.77846603114747959 0.49850927265137401 0 0.77972660463949339 0.45529290596363098 0 0.81400510706333218 0.47357325943904899 0 0.27866744612395528 0.38416094670951489 0 0.25966125648670141 0.34351016742083729 0 0.29644548887253103 0.34914008784168082 0 0.61209567303293111 0.44669033081290321 0 0.61547661924074692 0.48539576058873962 0 0.57975577671020095 0.46172033326338591 0 0.57611405284611883 0.50165903596042916 0 0.57975577671020095 0.46172033326338591 0 0.61547661924074692 0.48539576058873962 0 0.7250000000005199 0.89375000000045834 0 0.76891166905518427 0.88835469571185499 0 0.75729602384198635 0.92353652857884294 0 0.72500000000001008 0.19776155966387679 0 0.76587607630038135 0.18880039518954719 0 0.75668890529066124 0.2244279804069782 0 0.72500000000001008 0.19776155966387679 0 0.69397719155551807 0.2245125647000914 0 0.6865991819015953 0.189116534044597 0 0.083411279318303222 0.089699755330707398 0 0.12372429750337779 0.095814237875728972 0 0.1053400320299198 0.12877248826361379 0 0.083411279318375747 0.91030024466934134 0 0.10562472963403439 0.87143394428979881 0 0.1241151115713819 0.9045666525468371 0 0.14617343800780541 0.93808063414349496 0 0.1241151115713819 0.9045666525468371 0 0.16206583317966519 0.89685560785156404 0 0.14618258501891079 0.062070108745602003 0 0.16141998738593399 0.10404039647458049 0 0.12372429750337779 0.095814237875728972 0 0.33277555741076909 0.36432196682010132 0 0.35221190152536241 0.40457127605439203 0 0.31778888742534622 0.40581751814196781 0 0.7250000000005199 0.94981617647078953 0 0.75729602384198635 0.92353652857884294 0 0.770759834363826 0.95919399014344442 0 0.72500000000000064 0.2498161764706 0 0.75668890529066124 0.2244279804069782 0 0.77075983436335049 0.25919399014334171 0 0.72500000000000064 0.2498161764706 0 0.67933712972090698 0.25920070958121938 0 0.69397719155551807 0.2245125647000914 0 0.6236733212988993 0.14864538214901801 0 0.61956000905586006 0.1043312481793135 0 0.65290632656860115 0.11434202593454081 0 0.81973119833356312 0.43505687159469048 0 0.81400510706333218 0.47357325943904899 0 0.77972660463949339 0.45529290596363098 0 0.25676291524611189 0.7436741304886243 0 0.29904318922293632 0.74132814928635593 0 0.2792923945214143 0.77665808831789485 0 0.36575549820117997 0.31677992835137742 0 0.32752639306529541 0.32610012995269699 0 0.33402499257867951 0.28911035184473982 0 0.14332333627550789 0.14578431753966009 0 0.18652628422869419 0.14162325200928061 0 0.18124454140915969 0.18790916706335251 0 0.57724883562309992 0.92155686857100794 0 0.5832743223239254 0.88483152652961872 0 0.61885627562261258 0.90282959257498208 0 0.57667858002728545 0.078486105337742612 0 0.61956000905586006 0.1043312481793135 0 0.58516465772821369 0.11653801664834119 0 0.80185942888539485 0.77452061303608133 0 0.80041942726660109 0.81543261647703358 0 0.77094201086366854 0.79647480515688507 0 0.80185942888501827 0.074520613036224564 0 0.80076557130237269 0.1154587552654202 0 0.76878382444651716 0.097147941686331368 0 0.64753070846764316 0.77332939069435502 0 0.68024162096458085 0.79868546898116533 0 0.65005442820240822 0.82644988530054031 0 0.26429849586623999 0.19346700179430079 0 0.25557216766470708 0.15874861286892261 0 0.29336099386129338 0.15892013001050981 0 0.29348325746214782 0.31350119524708198 0 0.29644548887253103 0.34914008784168082 0 0.25966125648670141 0.34351016742083729 0 0.68391457121233579 0.14440470121196541 0 0.65290632656860115 0.11434202593454081 0 0.68330259535470161 0.10038702501083881 0 0.91750694127107502 0.36982372220068471 0 0.92012390126144183 0.33123581297173937 0 0.95780851984364423 0.34215720972155339 0 0.91750694127105259 0.63017627779935648 0 0.9578014258160763 0.65787212321113708 0 0.92057473616084773 0.66770436535372446 0 0.22033343844674469 0.36963382230740238 0 0.22615676742807109 0.33458786033114157 0 0.25966125648670141 0.34351016742083729 0 1 0.94999999999997109 0 0.97166519676946206 0.96662885509935492 0 0.97435614836744289 0.92499999999990257 0 0.94399509803919068 0.9439950980391687 0 0.97435614836744289 0.92499999999990257 0 0.97166519676946206 0.96662885509935492 0 0.94399509803921056 0.24399509803922639 0 0.97435614836740092 0.22499999999981049 0 0.97166519676951801 0.26662885509932011 0 1 0.24999999999987299 0 0.97166519676951801 0.26662885509932011 0 0.97435614836740092 0.22499999999981049 0 1 0.74999999999993494 0 0.97435614836745565 0.77499999999987745 0 0.97166519676947294 0.73337114490064459 0 1 0.049999999999896842 0 0.97435614836748241 0.074999999999825387 0 0.97166519676946894 0.033371144900598393 0 0.94399509803918602 0.75600490196082126 0 0.97166519676947294 0.73337114490064459 0 0.97435614836745565 0.77499999999987745 0 0.94399509803922566 0.056004901960802607 0 0.97166519676946894 0.033371144900598393 0 0.97435614836748241 0.074999999999825387 0 0.77846603114747959 0.49850927265137401 0 0.81400510706333218 0.47357325943904899 0 0.81441713509985358 0.51161854125224959 0 0.77354604466818633 0.40378688774472771 0 0.72622533758026719 0.40265885511101601 0 0.74764719760526988 0.3719647154012321 0 0.71508799138962864 0.36622814920737751 0 0.74764719760526988 0.3719647154012321 0 0.72622533758026719 0.40265885511101601 0 0.84723782639812573 0.48638347960178252 0 0.84925632466077294 0.45359738909549091 0 0.88594198078881503 0.46167788676578442 0 0.86411095495256451 0.42388805655111889 0 0.88594198078881503 0.46167788676578442 0 0.84925632466077294 0.45359738909549091 0 0.43846182030517877 0.64845797726506715 0 0.43545892161006339 0.61093128915313821 0 0.47095389620662098 0.61892551373708504 0 0.33123028043633618 0.77629643437932982 0 0.35642984951668422 0.80994399665655703 0 0.30857225866488791 0.81101973481716805 0 0.33403534827021109 0.84402799729020661 0 0.30857225866488791 0.81101973481716805 0 0.35642984951668422 0.80994399665655703 0 0.26429849586623999 0.19346700179430079 0 0.31255190597181792 0.19850845631528771 0 0.28040350263641872 0.23054717217092141 0 0.57724883562309992 0.92155686857100794 0 0.54783390826260769 0.89287767010860219 0 0.5832743223239254 0.88483152652961872 0 0.55899371797446828 0.85003102233514438 0 0.5832743223239254 0.88483152652961872 0 0.54783390826260769 0.89287767010860219 0 0.4089290844030305 0.58728915500154233 0 0.43545892161006339 0.61093128915313821 0 0.39743091024207589 0.6239520004230239 0 0.77293540622714185 0.59448302402785813 0 0.81723410853263523 0.59419663659258926 0 0.79884539758237771 0.62875045078114233 0 0.83758014339878906 0.63222013025741819 0 0.79884539758237771 0.62875045078114233 0 0.81723410853263523 0.59419663659258926 0 0.35864735590330371 0.63903383440414463 0 0.39743091024207589 0.6239520004230239 0 0.3977710372045391 0.65868194622830212 0 0.56202748619534593 0.15054058349222879 0 0.54979595918804436 0.1060565713905809 0 0.58516465772821369 0.11653801664834119 0 0.57667858002728545 0.078486105337742612 0 0.58516465772821369 0.11653801664834119 0 0.54979595918804436 0.1060565713905809 0 0.33122374654748771 0.57588941099433744 0 0.37272913873093971 0.56192925302619479 0 0.35765792684946668 0.6000687869219653 0 0.35864735590330371 0.63903383440414463 0 0.35765792684946668 0.6000687869219653 0 0.39743091024207589 0.6239520004230239 0 0.71508799138962864 0.36622814920737751 0 0.68887083591306764 0.33632058575757479 0 0.73090396928863699 0.33699297293167962 0 0.29348325746214782 0.31350119524708198 0 0.32752639306529541 0.32610012995269699 0 0.29644548887253103 0.34914008784168082 0 0.33277555741076909 0.36432196682010132 0 0.29644548887253103 0.34914008784168082 0 0.32752639306529541 0.32610012995269699 0 0.34258405725730701 0.4444034294386992 0 0.31778888742534622 0.40581751814196781 0 0.35221190152536241 0.40457127605439203 0 0.79999999999999982 0.69999999999999996 0 0.81864958914779962 0.73589050177899629 0 0.78578450296893509 0.73292684821144505 0 0.79999999999947335 0 0 0.81864958914740749 0.035890501779055867 0 0.78393852574753176 0.032039079577822822 0 0.27474541102162192 0.11822029332053539 0 0.29336099386129338 0.15892013001050981 0 0.25557216766470708 0.15874861286892261 0 0 0.45000000000187229 0 0.035463093262830522 0.42673416072819947 0 0.033550201249889847 0.46247875832467239 0 0.6499999999999998 0.69999999999999996 0 0.66427993341343905 0.73232764502436276 0 0.63221990677827677 0.73442891067859706 0 0.84723782639812573 0.48638347960178252 0 0.81441713509985358 0.51161854125224959 0 0.81400510706333218 0.47357325943904899 0 0.26104540868854792 0.81401944968719064 0 0.30857225866488791 0.81101973481716805 0 0.29209212897034281 0.84715728365233667 0 0.33403534827021109 0.84402799729020661 0 0.29209212897034281 0.84715728365233667 0 0.30857225866488791 0.81101973481716805 0 0.69999999999999984 0.29999999999999999 0 0.73090396928863699 0.33699297293167962 0 0.68887083591306764 0.33632058575757479 0 
</DataArray>
</Points>
<Cells>
<DataArray type="UInt32" Name="connectivity" format="ascii">
0 1 2 3 4 5 6 7 8 9 10 11 12 13 14 15 16 17 18 19 20 21 22 23 24 25 26 27 28 29 30 31 32 33 34 35 36 37 38 39 40 41 42 43 44 45 46 47 48 49 50 51 52 53 54 55 56 57 58 59 60 61 62 63 64 65 66 67 68 69 70 71 72 73 74 75 76 77 78 79 80 81 82 83 84 85 86 87 88 89 90 91 92 93 94 95 96 97 98 99 100 101 102 103 104 105 106 107 108 109 110 111 112 113 114 115 116 117 118 119 120 121 122 123 124 125 126 127 128 129 130 131 132 133 134 135 136 137 138 139 140 141 142 143 144 145 146 147 148 149 150 151 152 153 154 155 156 157 158 159 160 161 162 163 164 165 166 167 168 169 170 171 172 173 174 175 176 177 178 179 180 181 182 183 184 185 186 187 188 189 190 191 192 193 194 195 196 197 198 199 200 201 202 203 204 205 206 207 208 209 210 211 212 213 214 215 216 217 218 219 220 221 222 223 224 225 226 227 228 229 230 231 232 233 234 235 236 237 238 239 240 241 242 243 244 245 246 247 248 249 250 251 252 253 254 255 256 257 258 259 260 261 262 263 264 265 266 267 268 269 270 271 272 273 274 275 276 277 278 279 280 281 282 283 284 285 286 287 288 289 290 291 292 293 294 295 296 297 298 299 300 301 302 303 304 305 306 307 308 309 310 311 312 313 314 315 316 317 318 319 320 321 322 323 324 325 326 327 328 329 330 331 332 333 334 335 336 337 338 339 340 341 342 343 344 345 346 347 348 349 350 351 352 353 354 355 356 357 358 359 360 361 362 363 364 365 366 367 368 369 370 371 372 373 374 375 376 377 378 379 380 381 382 383 384 385 386 387 388 389 390 391 392 393 394 395 396 397 398 399 400 401 402 403 404 405 406 407 408 409 410 411 412 413 414 415 416 417 418 419 420 421 422 423 424 425 426 427 428 429 430 431 432 433 434 435 436 437 438 439 440 441 442 443 444 445 446 447 448 449 450 451 452 453 454 455 456 457 458 459 460 461 462 463 464 465 466 467 468 469 470 471 472 473 474 475 476 477 478 479 480 481 482 483 484 485 486 487 488 489 490 491 492 493 494 495 496 497 498 499 500 501 502 503 504 505 506 507 508 509 510 511 512 513 514 515 516 517 518 519 520 521 522 523 524 525 526 527 528 529 530 531 532 533 534 535 536 537 538 539 540 541 542 543 544 545 546 547 548 549 550 551 552 553 554 555 556 557 558 559 560 561 562 563 564 565 566 567 568 569 570 571 572 573 574 575 576 577 578 579 580 581 582 583 584 585 586 587 588 589 590 591 592 593 594 595 596 597 598 599 600 601 602 603 604 605 606 607 608 609 610 611 612 613 614 615 616 617 618 619 620 621 622 623 624 625 626 627 628 629 630 631 632 633 634 635 636 637 638 639 640 641 642 643 644 645 646 647 648 649 650 651 652 653 654 655 656 657 658 659 660 661 662 663 664 665 666 667 668 669 670 671 672 673 674 675 676 677 678 679 680 681 682 683 684 685 686 687 688 689 690 691 692 693 694 695 696 697 698 699 700 701 702 703 704 705 706 707 708 709 710 711 712 713 714 715 716 717 718 719 720 721 722 723 724 725 726 727 728 729 730 731 732 733 734 735 736 737 738 739 740 741 742 743 744 745 746 747 748 749 750 751 752 753 754 755 756 757 758 759 760 761 762 763 764 765 766 767 768 769 770 771 772 773 774 775 776 777 778 779 780 781 782 783 784 785 786 787 788 789 790 791 792 793 794 795 796 797 798 799 800 801 802 803 804 805 806 807 808 809 810 811 812 813 814 815 816 817 818 819 820 821 822 823 824 825 826 827 828 829 830 831 832 833 834 835 836 837 838 839 840 841 842 843 844 845 846 847 848 849 850 851 852 853 854 855 856 857 858 859 860 861 862 863 864 865 866 867 868 869 870 871 872 873 874 875 876 877 878 879 880 881 882 883 884 885 886 887 888 889 890 891 892 893 894 895 896 897 898 899 900 901 902 903 904 905 906 907 908 909 910 911 912 913 914 915 916 917 918 919 920 921 922 923 924 925 926 927 928 929 930 931 932 933 934 935 936 937 938 939 940 941 942 943 944 945 946 947 948 949 950 951 952 953 954 955 956 957 958 959 960 961 962 963 964 965 966 967 968 969 970 971 972 973 974 975 976 977 978 979 980 981 982 983 984 985 986 987 988 989 990 991 992 993 994 995 996 997 998 999 1000 1001 1002 1003 1004 1005 1006 1007 1008 1009 1010 1011 1012 1013 1014 1015 1016 1017 1018 1019 1020 1021 1022 1023 1024 1025 1026 1027 1028 1029 1030 1031 1032 1033 1034 1035 1036 1037 1038 1039 1040 1041 1042 1043 1044 1045 1046 1047 1048 1049 1050 1051 1052 1053 1054 1055 1056 1057 1058 1059 1060 1061 1062 1063 1064 1065 1066 1067 1068 1069 1070 1071 1072 1073 1074 1075 1076 1077 1078 1079 1080 1081 1082 1083 1084 1085 1086 1087 1088 1089 1090 1091 1092 1093 1094 1095 1096 1097 1098 1099 1100 1101 1102 1103 1104 1105 1106 1107 1108 1109 1110 1111 1112 1113 1114 1115 1116 1117 1118 1119 1120 1121 1122 1123 1124 1125 1126 1127 1128 1129 1130 1131 1132 1133 1134 1135 1136 1137 1138 1139 1140 1141 1142 1143 1144 1145 1146 1147 1148 1149 1150 1151 1152 1153 1154 1155 1156 1157 1158 1159 1160 1161 1162 1163 1164 1165 1166 1167 1168 1169 1170 1171 1172 1173 1174 1175 1176 1177 1178 1179 1180 1181 1182 1183 1184 1185 1186 1187 1188 1189 1190 1191 1192 1193 1194 1195 1196 1197 1198 1199 1200 1201 1202 1203 1204 1205 1206 1207 1208 1209 1210 1211 1212 1213 1214 1215 1216 1217 1218 1219 1220 1221 1222 1223 1224 1225 1226 1227 1228 1229 1230 1231 1232 1233 1234 1235 1236 1237 1238 1239 1240 1241 1242 1243 1244 1245 1246 1247 1248 1249 1250 1251 1252 1253 1254 1255 1256 1257 1258 1259 1260 1261 1262 1263 1264 1265 1266 1267 1268 1269 1270 1271 1272 1273 1274 1275 1276 1277 1278 1279 1280 1281 1282 1283 1284 1285 1286 1287 1288 1289 1290 1291 1292 1293 1294 1295 1296 1297 1298 1299 1300 1301 1302 1303 1304 1305 1306 1307 1308 1309 1310 1311 1312 1313 1314 1315 1316 1317 1318 1319 1320 1321 1322 1323 1324 1325 1326 1327 1328 1329 1330 1331 1332 1333 1334 1335 1336 1337 1338 1339 1340 1341 1342 1343 1344 1345 1346 1347 1348 1349 1350 1351 1352 1353 1354 1355 1356 1357 1358 1359 1360 1361 1362 1363 1364 1365 1366 1367 1368 1369 1370 1371 1372 1373 1374 1375 1376 1377 1378 1379 1380 1381 1382 1383 1384 1385 1386 1387 1388 1389 1390 1391 1392 1393 1394 1395 1396 1397 1398 1399 1400 1401 1402 1403 1404 1405 1406 1407 1408 1409 1410 1411 1412 1413 1414 1415 1416 1417 1418 1419 1420 1421 1422 1423 1424 1425 1426 1427 1428 1429 1430 1431 1432 1433 1434 1435 1436 1437 1438 1439 1440 1441 1442 1443 1444 1445 1446 1447 1448 1449 1450 1451 1452 1453 1454 1455 1456 1457 1458 1459 1460 1461 1462 1463 1464 1465 1466 1467 1468 1469 1470 1471 1472 1473 1474 1475 1476 1477 1478 1479 1480 1481 1482 1483 1484 1485 1486 1487 1488 1489 1490 1491 1492 1493 1494 1495 1496 1497 1498 1499 1500 1501 1502 1503 1504 1505 1506 1507 1508 1509 1510 1511 1512 1513 1514 1515 1516 1517 1518 1519 1520 1521 1522 1523 1524 1525 1526 1527 1528 1529 1530 1531 1532 1533 1534 1535 1536 1537 1538 1539 1540 1541 1542 1543 1544 1545 1546 1547 1548 1549 1550 1551 1552 1553 1554 1555 1556 1557 1558 1559 1560 1561 1562 1563 1564 1565 1566 1567 1568 1569 1570 1571 1572 1573 1574 1575 1576 1577 1578 1579 1580 1581 1582 1583 1584 1585 1586 1587 1588 1589 1590 1591 1592 1593 1594 1595 1596 1597 1598 1599 1600 1601 1602 1603 1604 1605 1606 1607 1608 1609 1610 1611 1612 1613 1614 1615 1616 1617 1618 1619 1620 1621 1622 1623 1624 1625 1626 1627 1628 1629 1630 1631 1632 1633 1634 1635 1636 1637 1638 1639 1640 1641 1642 1643 1644 1645 1646 1647 1648 1649 1650 1651 1652 1653 1654 1655 1656 1657 1658 1659 1660 1661 1662 1663 1664 1665 1666 1667 1668 1669 1670 1671 1672 1673 1674 1675 1676 1677 1678 1679 1680 1681 1682 1683 1684 1685 1686 1687 1688 1689 1690 1691 1692 1693 1694 1695 1696 1697 1698 1699 1700 1701 1702 1703 1704 1705 1706 1707 1708 1709 1710 1711 1712 1713 1714 1715 1716 1717 1718 1719 1720 1721 1722 1723 1724 1725 1726 1727 1728 1729 1730 1731 1732 1733 1734 1735 1736 1737 1738 1739 1740 1741 1742 1743 1744 1745 1746 1747 1748 1749 1750 1751 1752 1753 1754 1755 1756 1757 1758 1759 1760 1761 1762 1763 1764 1765 1766 1767 1768 1769 1770 1771 1772 1773 1774 1775 1776 1777 1778 1779 1780 1781 1782 1783 1784 1785 1786 1787 1788 1789 1790 1791 1792 1793 1794 1795 1796 1797 1798 1799 1800 1801 1802 1803 1804 1805 1806 1807 1808 1809 1810 1811 1812 1813 1814 1815 1816 1817 1818 1819 1820 1821 1822 1823 1824 1825 1826 1827 1828 1829 1830 1831 1832 1833 1834 1835 1836 1837 1838 1839 1840 1841 1842 1843 1844 1845 1846 1847 1848 1849 1850 1851 1852 1853 1854 1855 1856 1857 1858 1859 1860 1861 1862 1863 1864 1865 1866 1867 1868 1869 1870 1871 1872 1873 1874 1875 1876 1877 1878 1879 1880 1881 1882 1883 1884 1885 1886 1887 1888 1889 1890 1891 1892 1893 1894 1895 1896 1897 1898 1899 1900 1901 1902 1903 1904 1905 1906 1907 1908 1909 1910 1911 1912 1913 1914 1915 1916 1917 1918 1919 1920 1921 1922 1923 1924 1925 1926 1927 1928 1929 1930 1931 1932 1933 1934 1935 1936 1937 1938 1939 1940 1941 1942 1943 1944 1945 1946 1947 1948 1949 1950 1951 1952 1953 1954 1955 1956 1957 1958 1959 1960 1961 1962 1963 1964 1965 1966 1967 1968 1969 1970 1971 1972 1973 1974 1975 1976 1977 1978 1979 1980 1981 1982 1983 1984 1985 1986 1987 1988 1989 1990 1991 1992 1993 1994 1995 1996 1997 1998 1999 2000 2001 2002 2003 2004 2005 2006 2007 2008 2009 2010 2011 2012 2013 2014 2015 2016 2017 2018 2019 2020 2021 2022 2023 2024 2025 2026 2027 2028 2029 2030 2031 2032 2033 2034 2035 2036 2037 2038 2039 2040 2041 2042 2043 2044 2045 2046 2047 2048 2049 2050 2051 2052 2053 2054 2055 2056 2057 2058 2059 2060 2061 2062 2063 2064 2065 2066 2067 2068 2069 2070 2071 2072 2073 2074 2075 2076 2077 2078 2079 2080 2081 2082 2083 2084 2085 2086 2087 2088 2089 2090 2091 2092 2093 2094 2095 2096 2097 2098 2099 2100 2101 2102 2103 2104 2105 2106 2107 2108 2109 2110 2111 2112 2113 2114 2115 2116 2117 2118 2119 2120 2121 2122 2123 2124 2125 2126 2127 2128 2129 2130 2131 2132 2133 2134 2135 2136 2137 2138 2139 2140 2141 2142 2143 2144 2145 2146 2147 2148 2149 2150 2151 2152 2153 2154 2155 2156 2157 2158 2159 2160 2161 2162 2163 2164 2165 2166 2167 2168 2169 2170 2171 2172 2173 2174 2175 2176 2177 2178 2179 2180 2181 2182 2183 2184 2185 2186 2187 2188 2189 2190 2191 2192 2193 2194 2195 2196 2197 2198 2199 2200 2201 2202 2203 2204 2205 2206 2207 2208 2209 2210 2211 2212 2213 2214 2215 2216 2217 2218 2219 2220 2221 2222 2223 2224 2225 2226 2227 2228 2229 2230 2231 2232 2233 2234 2235 2236 2237 2238 2239 2240 2241 2242 2243 2244 2245 2246 2247 2248 2249 2250 2251 2252 2253 2254 2255 2256 2257 2258 2259 2260 2261 2262 2263 2264 2265 2266 2267 2268 2269 2270 2271 2272 2273 2274 2275 2276 2277 2278 2279 2280 2281 2282 2283 2284 2285 2286 2287 2288 2289 2290 2291 2292 2293 2294 2295 2296 2297 2298 2299 2300 2301 2302 2303 2304 2305 2306 2307 2308 2309 2310 2311 2312 2313 2314 2315 2316 2317 2318 2319 2320 2321 2322 2323 2324 2325 2326 2327 2328 2329 2330 2331 2332 2333 2334 2335 2336 2337 2338 2339 2340 2341 2342 2343 2344 2345 2346 2347 2348 2349 2350 2351 2352 2353 2354 2355 2356 2357 2358 2359 2360 2361 2362 2363 2364 2365 2366 2367 2368 2369 2370 2371 2372 2373 2374 2375 2376 2377 2378 2379 2380 2381 2382 2383 2384 2385 2386 2387 2388 2389 2390 2391 2392 2393 2394 2395 2396 2397 2398 2399 2400 2401 2402 2403 2404 2405 2406 2407 2408 2409 2410 2411 2412 2413 2414 2415 2416 2417 2418 2419 2420 2421 2422 2423 2424 2425 2426 2427 2428 2429 2430 2431 2432 2433 2434 2435 2436 2437 2438 2439 2440 2441 2442 2443 2444 2445 2446 2447 2448 2449 2450 2451 2452 2453 2454 2455 2456 2457 2458 2459 2460 2461 2462 2463 2464 2465 2466 2467 2468 2469 2470 2471 2472 2473 2474 2475 2476 2477 2478 2479 2480 2481 2482 2483 2484 2485 2486 2487 2488 2489 2490 2491 2492 2493 2494 2495 2496 2497 2498 2499 2500 2501 2502 2503 2504 2505 2506 2507 2508 2509 2510 2511 2512 2513 2514 2515 2516 2517 2518 2519 2520 2521 2522 2523 2524 2525 2526 2527 2528 2529 2530 2531 2532 2533 2534 2535 2536 2537 2538 2539 2540 2541 2542 2543 2544 2545 2546 2547 2548 2549 2550 2551 2552 2553 2554 2555 2556 2557 2558 2559 2560 2561 2562 2563 2564 2565 2566 2567 2568 2569 2570 2571 2572 2573 2574 2575 2576 2577 2578 2579 2580 2581 2582 2583 2584 2585 2586 2587 2588 2589 2590 2591 2592 2593 2594 2595 2596 2597 2598 2599 2600 2601 2602 2603 2604 2605 2606 2607 2608 2609 2610 2611 2612 2613 2614 2615 2616 2617 2618 2619 2620 2621 2622 2623 2624 2625 2626 2627 2628 2629 2630 2631 2632 2633 2634 2635 2636 2637 2638 2639 2640 2641 2642 2643 2644 2645 2646 2647 2648 2649 2650 2651 2652 2653 2654 2655 2656 2657 2658 2659 2660 2661 2662 2663 2664 2665 2666 2667 2668 2669 2670 2671 2672 2673 2674 2675 2676 2677 2678 2679 2680 2681 2682 2683 2684 2685 2686 2687 2688 2689 2690 2691 2692 2693 2694 2695 2696 2697 2698 2699 2700 2701 2702 2703 2704 2705 2706 2707 2708 2709 2710 2711 2712 2713 2714 2715 2716 2717 2718 2719 2720 2721 2722 2723 2724 2725 2726 2727 2728 2729 2730 2731 2732 2733 2734 2735 2736 2737 2738 2739 2740 2741 2742 2743 2744 2745 2746 2747 2748 2749 2750 2751 2752 2753 2754 2755 2756 2757 2758 2759 2760 2761 2762 2763 2764 2765 2766 2767 2768 2769 2770 2771 2772 2773 2774 2775 2776 2777 2778 2779 2780 2781 2782 2783 2784 2785 2786 2787 2788 2789 2790 2791 2792 2793 2794 2795 2796 2797 2798 2799 2800 2801 2802 2803 2804 2805 2806 2807 2808 2809 2810 2811 2812 2813 2814 2815 2816 2817 2818 2819 2820 2821 2822 2823 2824 2825 2826 2827 2828 2829 2830 2831 2832 2833 2834 2835 2836 2837 2838 2839 2840 2841 2842 2843 2844 2845 2846 2847 2848 2849 2850 2851 2852 2853 2854 2855 2856 2857 2858 2859 2860 2861 2862 2863 2864 2865 2866 2867 2868 2869 2870 2871 2872 2873 2874 2875 2876 2877 2878 2879 2880 2881 2882 2883 2884 2885 2886 2887 2888 2889 2890 2891 2892 2893 2894 2895 2896 2897 2898 2899 2900 2901 2902 2903 2904 2905 2906 2907 2908 2909 2910 2911 2912 2913 2914 2915 2916 2917 2918 2919 2920 2921 2922 2923 2924 2925 2926 2927 2928 2929 2930 2931 2932 2933 2934 2935 2936 2937 2938 2939 2940 2941 2942 2943 2944 2945 2946 2947 2948 2949 2950 2951 2952 2953 2954 2955 2956 2957 2958 2959 2960 2961 2962 2963 2964 2965 2966 2967 2968 2969 2970 2971 2972 2973 2974 2975 2976 2977 2978 2979 2980 2981 2982 2983 2984 2985 2986 2987 2988 2989 2990 2991 2992 2993 2994 2995 2996 2997 2998 2999 3000 3001 3002 3003 3004 3005 3006 3007 3008 3009 3010 3011 3012 3013 3014 3015 3016 3017 3018 3019 3020 3021 3022 3023 3024 3025 3026 3027 3028 3029 3030 3031 3032 3033 3034 3035 3036 3037 3038 3039 3040 3041 3042 3043 3044 3045 3046 3047 3048 3049 3050 3051 3052 3053 3054 3055 3056 3057 3058 3059 3060 3061 3062 3063 3064 3065 3066 3067 3068 3069 3070 3071 3072 3073 3074 3075 3076 3077 3078 3079 3080 3081 3082 3083 3084 3085 3086 3087 3088 3089 3090 3091 3092 3093 3094 3095 3096 3097 3098 3099 3100 3101 3102 3103 3104 3105 3106 3107 3108 3109 3110 3111 3112 3113 3114 3115 3116 3117 3118 3119 3120 3121 3122 3123 3124 3125 3126 3127 3128 3129 3130 3131 3132 3133 3134 3135 3136 3137 3138 3139 3140 3141 
</DataArray>
<DataArray type="UInt32" Name="offsets" format="ascii">
2 4 6 8 10 12 14 16 18 20 22 24 26 28 30 32 34 36 38 40 43 46 49 52 55 58 61 64 67 70 73 76 79 82 85 88 91 94 97 100 103 106 109 112 115 118 121 124 127 130 133 136 139 142 145 148 151 154 157 160 163 166 169 172 175 178 181 184 187 190 193 196 199 202 205 208 211 214 217 220 223 226 229 232 235 238 241 244 247 250 253 256 259 262 265 268 271 274 277 280 283 286 289 292 295 298 301 304 307 310 313 316 319 322 325 328 331 334 337 340 343 346 349 352 355 358 361 364 367 370 373 376 379 382 385 388 391 394 397 400 403 406 409 412 415 418 421 424 427 430 433 436 439 442 445 448 451 454 457 460 463 466 469 472 475 478 481 484 487 490 493 496 499 502 505 508 511 514 517 520 523 526 529 532 535 538 541 544 547 550 553 556 559 562 565 568 571 574 577 580 583 586 589 592 595 598 601 604 607 610 613 616 619 622 625 628 631 634 637 640 643 646 649 652 655 658 661 664 667 670 673 676 679 682 685 688 691 694 697 700 703 706 709 712 715 718 721 724 727 730 733 736 739 742 745 748 751 754 757 760 763 766 769 772 775 778 781 784 787 790 793 796 799 802 805 808 811 814 817 820 823 826 829 832 835 838 841 844 847 850 853 856 859 862 865 868 871 874 877 880 883 886 889 892 895 898 901 904 907 910 913 916 919 922 925 928 931 934 937 940 943 946 949 952 955 958 961 964 967 970 973 976 979 982 985 988 991 994 997 1000 1003 1006 1009 1012 1015 1018 1021 1024 1027 1030 1033 1036 1039 1042 1045 1048 1051 1054 1057 1060 1063 1066 1069 1072 1075 1078 1081 1084 1087 1090 1093 1096 1099 1102 1105 1108 1111 1114 1117 1120 1123 1126 1129 1132 1135 1138 1141 1144 1147 1150 1153 1156 1159 1162 1165 1168 1171 1174 1177 1180 1183 1186 1189 1192 1195 1198 1201 1204 1207 1210 1213 1216 1219 1222 1225 1228 1231 1234 1237 1240 1243 1246 1249 1252 1255 1258 1261 1264 1267 1270 1273 1276 1279 1282 1285 1288 1291 1294 1297 1300 1303 1306 1309 1312 1315 1318 1321 1324 1327 1330 1333 1336 1339 1342 1345 1348 1351 1354 1357 1360 1363 1366 1369 1372 1375 1378 1381 1384 1387 1390 1393 1396 1399 1402 1405 1408 1411 1414 1417 1420 1423 1426 1429 1432 1435 1438 1441 1444 1447 1450 1453 1456 1459 1462 1465 1468 1471 1474 1477 1480 1483 1486 1489 1492 1495 1498 1501 1504 1507 1510 1513 1516 1519 1522 1525 1528 1531 1534 1537 1540 1543 1546 1549 1552 1555 1558 1561 1564 1567 1570 1573 1576 1579 1582 1585 1588 1591 1594 1597 1600 1603 1606 1609 1612 1615 1618 1621 1624 1627 1630 1633 1636 1639 1642 1645 1648 1651 1654 1657 1660 1663 1666 1669 1672 1675 1678 1681 1684 1687 1690 1693 1696 1699 1702 1705 1708 1711 1714 1717 1720 1723 1726 1729 1732 1735 1738 1741 1744 1747 1750 1753 1756 1759 1762 1765 1768 1771 1774 1777 1780 1783 1786 1789 1792 1795 1798 1801 1804 1807 1810 1813 1816 1819 1822 1825 1828 1831 1834 1837 1840 1843 1846 1849 1852 1855 1858 1861 1864 1867 1870 1873 1876 1879 1882 1885 1888 1891 1894 1897 1900 1903 1906 1909 1912 1915 1918 1921 1924 1927 1930 1933 1936 1939 1942 1945 1948 1951 1954 1957 1960 1963 1966 1969 1972 1975 1978 1981 1984 1987 1990 1993 1996 1999 2002 2005 2008 2011 2014 2017 2020 2023 2026 2029 2032 2035 2038 2041 2044 2047 2050 2053 2056 2059 2062 2065 2068 2071 2074 2077 2080 2083 2086 2089 2092 2095 2098 2101 2104 2107 2110 2113 2116 2119 2122 2125 2128 2131 2134 2137 2140 2143 2146 2149 2152 2155 2158 2161 2164 2167 2170 2173 2176 2179 2182 2185 2188 2191 2194 2197 2200 2203 2206 2209 2212 2215 2218 2221 2224 2227 2230 2233 2236 2239 2242 2245 2248 2251 2254 2257 2260 2263 2266 2269 2272 2275 2278 2281 2284 2287 2290 2293 2296 2299 2302 2305 2308 2311 2314 2317 2320 2323 2326 2329 2332 2335 2338 2341 2344 2347 2350 2353 2356 2359 2362 2365 2368 2371 2374 2377 2380 2383 2386 2389 2392 2395 2398 2401 2404 2407 2410 2413 2416 2419 2422 2425 2428 2431 2434 2437 2440 2443 2446 2449 2452 2455 2458 2461 2464 2467 2470 2473 2476 2479 2482 2485 2488 2491 2494 2497 2500 2503 2506 2509 2512 2515 2518 2521 2524 2527 2530 2533 2536 2539 2542 2545 2548 2551 2554 2557 2560 2563 2566 2569 2572 2575 2578 2581 2584 2587 2590 2593 2596 2599 2602 2605 2608 2611 2614 2617 2620 2623 2626 2629 2632 2635 2638 2641 2644 2647 2650 2653 2656 2659 2662 2665 2668 2671 2674 2677 2680 2683 2686 2689 2692 2695 2698 2701 2704 2707 2710 2713 2716 2719 2722 2725 2728 2731 2734 2737 2740 2743 2746 2749 2752 2755 2758 2761 2764 2767 2770 2773 2776 2779 2782 2785 2788 2791 2794 2797 2800 2803 2806 2809 2812 2815 2818 2821 2824 2827 2830 2833 2836 2839 2842 2845 2848 2851 2854 2857 2860 2863 2866 2869 2872 2875 2878 2881 2884 2887 2890 2893 2896 2899 2902 2905 2908 2911 2914 2917 2920 2923 2926 2929 2932 2935 2938 2941 2944 2947 2950 2953 2956 2959 2962 2965 2968 2971 2974 2977 2980 2983 2986 2989 2992 2995 2998 3001 3004 3007 3010 3013 3016 3019 3022 3025 3028 3031 3034 3037 3040 3043 3046 3049 3052 3055 3058 3061 3064 3067 3070 3073 3076 3079 3082 3085 3088 3091 3094 3097 3100 3103 3106 3109 3112 3115 3118 3121 3124 3127 3130 3133 3136 3139 3142 
</DataArray>
<DataArray type="UInt32" Name="types" format="ascii">
3 3 3 3 3 3 3 3 3 3 3 3 3 3 3 3 3 3 3 3 5 5 5 5 5 5 5 5 5 5 5 5 5 5 5 5 5 5 5 5 5 5 5 5 5 5 5 5 5 5 5 5 5 5 5 5 5 5 5 5 5 5 5 5 5 5 5 5 5 5 5 5 5 5 5 5 5 5 5 5 5 5 5 5 5 5 5 5 5 5 5 5 5 5 5 5 5 5 5 5 5 5 5 5 5 5 5 5 5 5 5 5 5 5 5 5 5 5 5 5 5 5 5 5 5 5 5 5 5 5 5 5 5 5 5 5 5 5 5 5 5 5 5 5 5 5 5 5 5 5 5 5 5 5 5 5 5 5 5 5 5 5 5 5 5 5 5 5 5 5 5 5 5 5 5 5 5 5 5 5 5 5 5 5 5 5 5 5 5 5 5 5 5 5 5 5 5 5 5 5 5 5 5 5 5 5 5 5 5 5 5 5 5 5 5 5 5 5 5 5 5 5 5 5 5 5 5 5 5 5 5 5 5 5 5 5 5 5 5 5 5 5 5 5 5 5 5 5 5 5 5 5 5 5 5 5 5 5 5 5 5 5 5 5 5 5 5 5 5 5 5 5 5 5 5 5 5 5 5 5 5 5 5 5 5 5 5 5 5 5 5 5 5 5 5 5 5 5 5 5 5 5 5 5 5 5 5 5 5 5 5 5 5 5 5 5 5 5 5 5 5 5 5 5 5 5 5 5 5 5 5 5 5 5 5 5 5 5 5 5 5 5 5 5 5 5 5 5 5 5 5 5 5 5 5 5 5 5 5 5 5 5 5 5 5 5 5 5 5 5 5 5 5 5 5 5 5 5 5 5 5 5 5 5 5 5 5 5 5 5 5 5 5 5 5 5 5 5 5 5 5 5 5 5 5 5 5 5 5 5 5 5 5 5 5 5 5 5 5 5 5 5 5 5 5 5 5 5 5 5 5 5 5 5 5 5 5 5 5 5 5 5 5 5 5 5 5 5 5 5 5 5 5 5 5 5 5 5 5 5 5 5 5 5 5 5 5 5 5 5 5 5 5 5 5 5 5 5 5 5 5 5 5 5 5 5 5 5 5 5 5 5 5 5 5 5 5 5 5 5 5 5 5 5 5 5 5 5 5 5 5 5 5 5 5 5 5 5 5 5 5 5 5 5 5 5 5 5 5 5 5 5 5 5 5 5 5 5 5 5 5 5 5 5 5 5 5 5 5 5 5 5 5 5 5 5 5 5 5 5 5 5 5 5 5 5 5 5 5 5 5 5 5 5 5 5 5 5 5 5 5 5 5 5 5 5 5 5 5 5 5 5 5 5 5 5 5 5 5 5 5 5 5 5 5 5 5 5 5 5 5 5 5 5 5 5 5 5 5 5 5 5 5 5 5 5 5 5 5 5 5 5 5 5 5 5 5 5 5 5 5 5 5 5 5 5 5 5 5 5 5 5 5 5 5 5 5 5 5 5 5 5 5 5 5 5 5 5 5 5 5 5 5 5 5 5 5 5 5 5 5 5 5 5 5 5 5 5 5 5 5 5 5 5 5 5 5 5 5 5 5 5 5 5 5 5 5 5 5 5 5 5 5 5 5 5 5 5 5 5 5 5 5 5 5 5 5 5 5 5 5 5 5 5 5 5 5 5 5 5 5 5 5 5 5 5 5 5 5 5 5 5 5 5 5 5 5 5 5 5 5 5 5 5 5 5 5 5 5 5 5 5 5 5 5 5 5 5 5 5 5 5 5 5 5 5 5 5 5 5 5 5 5 5 5 5 5 5 5 5 5 5 5 5 5 5 5 5 5 5 5 5 5 5 5 5 5 5 5 5 5 5 5 5 5 5 5 5 5 5 5 5 5 5 5 5 5 5 5 5 5 5 5 5 5 5 5 5 5 5 5 5 5 5 5 5 5 5 5 5 5 5 5 5 5 5 5 5 5 5 5 5 5 5 5 5 5 5 5 5 5 5 5 5 5 5 5 5 5 5 5 5 5 5 5 5 5 5 5 5 5 5 5 5 5 5 5 5 5 5 5 5 5 5 5 5 5 5 5 5 5 5 5 5 5 5 5 5 5 5 5 5 5 5 5 5 5 5 5 5 5 5 5 5 5 5 5 5 5 5 5 5 5 5 5 5 5 5 5 5 5 5 5 5 5 5 5 5 5 5 5 5 5 5 5 5 5 5 5 5 5 5 5 5 5 5 5 5 5 5 5 5 5 5 5 5 5 5 5 5 5 5 5 5 5 5 5 5 5 5 5 5 5 5 5 5 5 5 5 5 5 5 5 5 5 5 5 5 5 5 5 5 5 5 5 5 5 5 5 5 5 5 5 5 5 5 5 5 5 5 5 5 5 5 
</DataArray>
</Cells>
<PointData Scalars="" Vectors="displacement," Tensors="">
<DataArray type="Float64" Name="displacement" NumberOfComponents="3" format="ascii">
7.70485337948767e-06 -1.9516663459673845e-05 0 1.2523829180344165e-05 -2.6339855624766164e-05 0 1.2523829180344165e-05 -2.6339855624766164e-05 0 1.351893979293978e-05 -3.580879197398919e-05 0 1.351893979293978e-05 -3.580879197398919e-05 0 1.524317400601641e-05 -4.7744695868294054e-05 0 1.524317400601641e-05 -4.7744695868294054e-05 0 1.7019738274748611e-05 -6.0405390580511078e-05 0 1.7019738274748611e-05 -6.0405390580511078e-05 0 1.9246662821131377e-05 -7.23835786867869e-05 0 1.9246662821131377e-05 -7.23835786867869e-05 0 2.2006908257221988e-05 -8.5591414082516378e-05 0 2.2006908257221988e-05 -8.5591414082516378e-05 0 2.5015549664996177e-05 -9.820244703495962e-05 0 2.5015549664996177e-05 -9.820244703495962e-05 0 2.9731340694657951e-05 -0.00011244251024227113 0 2.9731340694657951e-05 -0.00011244251024227113 0 3.2063125452851491e-05 -0.00012479958091473359 0 3.2063125452851491e-05 -0.00012479958091473359 0 4.8694368375589152e-05 -0.00013262135308061493 0 1.7295535965228497e-05 2.519619504148783e-05 0 5.7409619546952408e-05 3.5945874442918847e-05 0 5.7409619546952408e-05 3.5945874442918847e-05 0 5.4112920440786814e-05 4.7253824144008954e-05 0 5.4112920440786814e-05 4.7253824144008954e-05 0 6.0798897585993422e-05 5.6097757921483029e-05 0 6.0798897585993422e-05 5.6097757921483029e-05 0 6.4865618181403714e-05 7.2216992666267817e-05 0 6.4865618181403714e-05 7.2216992666267817e-05 0 6.9640555780041446e-05 8.6252319677891594e-05 0 6.9640555780041446e-05 8.6252319677891594e-05 0 7.4993526016949282e-05 0.000100836344368429 0 7.4993526016949282e-05 0.000100836344368429 0 7.9689460554561748e-05 0.0001151595511405597 0 7.9689460554561748e-05 0.0001151595511405597 0 9.0415373728234863e-05 0.00013392560815307731 0 9.0415373728234863e-05 0.00013392560815307731 0 8.3076053332212983e-05 0.00014773694467807663 0 8.3076053332212983e-05 0.00014773694467807663 0 0.00015115556060335479 0.0001512921202809507 0 7.991190165075156e-06 -5.7960509226269576e-06 0 7.8416081675088594e-06 -7.6979587893840663e-07 0 6.0678064372850707e-06 -3.925841348120738e-06 0 9.3885846120622415e-06 -3.1056432411589546e-06 0 7.8416081675088594e-06 -7.6979587893840663e-07 0 7.991190165075156e-06 -5.7960509226269576e-06 0 8.0807620785484094e-06 -1.524721947365815e-05 0 9.5125891003860904e-06 -1.1487942329153255e-05 0 7.1286677208695435e-06 -1.4200110323515669e-05 0 7.1286677208695435e-06 -1.4200110323515669e-05 0 9.5125891003860904e-06 -1.1487942329153257e-05 0 7.9895212845000485e-06 -1.25058168126149e-05 0 -6.3495683448591215e-06 -1.2515191850769019e-06 0 -2.7933942937826252e-06 -1.513970071554833e-06 0 -6.1050679458877069e-06 -2.4884676404521012e-06 0 -4.8307602562528955e-06 4.1840728486515018e-07 0 -4.658284862890287e-06 1.3016493216719509e-06 0 -2.1689644739161124e-06 8.1752302189503206e-07 0 -2.7338052291766917e-06 -3.2138886466399702e-07 0 -2.7933942937826252e-06 -1.513970071554833e-06 0 -6.3495683448591215e-06 -1.2515191850769019e-06 0 -2.1709977425528145e-06 -5.3960825446564713e-08 0 -4.8307602562528955e-06 4.1840728486515018e-07 0 -2.1689644739161124e-06 8.1752302189503206e-07 0 -1.6209634520631784e-05 -1.8776713565526309e-06 0 -2.0775984979940242e-05 -4.6288904009771946e-06 0 -1.440741760734311e-05 -1.4313833817377834e-06 0 -3.1082222647432573e-05 6.2056000132300417e-06 0 -2.3339994659752631e-05 1.7392992154769317e-06 0 -2.1394033194531819e-05 1.4905049187468673e-06 0 7.1653637468130945e-06 -2.3857403338767683e-07 0 9.3604799933088055e-06 1.0273547783875453e-07 0 6.5919502305396301e-06 -1.5990772303447283e-06 0 9.642126584880048e-06 -5.2113399861516536e-07 0 6.5919502305396301e-06 -1.5990772303447283e-06 0 9.3604799933088055e-06 1.0273547783875453e-07 0 6.668358360816023e-07 3.231765403868374e-06 0 1.3261150809091598e-06 3.3132052333321649e-06 0 2.6223846745823506e-06 3.1747881864255805e-06 0 4.5885541150643531e-10 -1.0329186577824334e-09 0 1.0415403057728124e-09 -6.9590395512483953e-10 0 9.2689493440021292e-07 -1.9356647972722572e-06 0 4.9811660030283742e-10 7.4173834214157258e-10 0 -1.4372791487346497e-11 8.4677271117641103e-10 0 2.7209380188702981e-07 1.8717178003752957e-06 0 5.0187200792077742e-06 -1.9812545666925825e-05 0 7.6839790306683141e-06 -2.0836933303739127e-05 0 8.0807620785484094e-06 -1.524721947365815e-05 0 3.9423615553361245e-05 2.4758523135343457e-05 0 2.7245487847301734e-05 1.4802914833932592e-05 0 2.9689255667987937e-05 1.5707394791974991e-05 0 -9.0524425290459062e-06 -0.00020580274718505991 0 7.4728357648785819e-06 -0.00018652412338221409 0 -1.0883535162599418e-05 -0.00018016661584709874 0 2.3354942083902235e-06 0.00039742819052909924 0 -3.4123273245740072e-05 0.00036226331777683185 0 -5.6380961035044393e-07 0.00034832425498840133 0 2.3354942083902235e-06 0.00039742819052909924 0 -5.6380961035044393e-07 0.00034832425498840133 0 3.5163696706615253e-05 0.00036012927430453015 0 -9.0524425290459062e-06 -0.00020580274718505991 0 -1.0883535162599418e-05 -0.00018016661584709874 0 -2.8011504678134759e-05 -0.000187359992385458 0 -4.1384357861119219e-05 0.00032417736706165753 0 -8.253379968726929e-07 0.00030562005806911597 0 -5.6380961035044393e-07 0.00034832425498840133 0 8.1674200706478219e-06 -0.00016613578845388205 0 -1.3560218451017691e-05 -0.00015763375602381672 0 -1.0883535162599418e-05 -0.00018016661584709874 0 6.668358360816023e-07 3.231765403868374e-06 0 2.6223846745823506e-06 3.1747881864255805e-06 0 1.1410316231816244e-06 2.7944604183166953e-06 0 3.9423615553361245e-05 2.4758523135343457e-05 0 2.3699105479178883e-05 2.1107242711861439e-05 0 2.7245487847301734e-05 1.4802914833932592e-05 0 -8.2481547718006107e-05 8.2599210455818205e-05 0 -7.2893068162967046e-05 5.8444458526228486e-05 0 -5.0443724663302047e-05 6.4342763366284398e-05 0 -4.3687675201624467e-05 -3.1840202293150106e-05 0 -4.8990751602316744e-05 -4.3737334265513752e-05 0 -3.2849413551386254e-05 -3.5175561197078474e-05 0 6.4120427985815188e-06 -1.5337083249300847e-05 0 5.0187200792077742e-06 -1.9812545666925825e-05 0 8.0807620785484094e-06 -1.524721947365815e-05 0 -2.390485118379765e-05 5.1680808369567573e-05 0 -2.0517598549332104e-05 2.8130004609539282e-05 0 -8.994380239284065e-06 3.1315434483043809e-05 0 -6.2377896876121433e-06 4.6705702258339468e-06 0 -1.5058824440341504e-05 9.1856387694467278e-06 0 -1.6108533241017777e-05 2.8350007378516145e-06 0 1.9912183518955869e-05 -6.3808243663407982e-06 0 1.7359546678516459e-05 -9.9858975564679993e-07 0 1.7014102561541203e-05 -8.3409083863958073e-06 0 -1.3735387512819071e-05 -0.00013617938797082175 0 -1.1207933654466738e-06 -0.00013015031942772935 0 -1.6690832570147903e-05 -0.00011459479339676691 0 -5.1670040381486173e-06 0.00026535742573874452 0 -3.1632385187117369e-05 0.000254267827349942 0 -3.3740124975121146e-06 0.00022265887199776369 0 -1.6690832570147903e-05 -0.00011459479339676691 0 -1.1207933654466738e-06 -0.00013015031942772935 0 -2.208031234130711e-06 -0.00011204354429079619 0 -3.3740124975121146e-06 0.00022265887199776369 0 -3.1632385187117369e-05 0.000254267827349942 0 -3.2655850852422784e-05 0.00022290486676680761 0 -6.2377896876121433e-06 4.6705702258339468e-06 0 -1.6108533241017777e-05 2.8350007378516145e-06 0 -5.8723344904540334e-06 5.1888999579181407e-07 0 2.4328344787428908e-05 -1.2618326414145638e-05 0 2.2870688187571247e-05 -8.0826537268676501e-07 0 1.9912183518955869e-05 -6.3808243663407982e-06 0 -2.390485118379765e-05 5.1680808369567573e-05 0 -3.5158055741684446e-05 4.2448073452199771e-05 0 -2.0517598549332108e-05 2.8130004609539282e-05 0 3.9423615553361245e-05 2.4758523135343457e-05 0 5.6861483844485598e-05 7.1761852599077513e-05 0 3.1554029558419707e-05 7.3768906083718623e-05 0 2.8933678488629553e-05 -6.7763397875015535e-05 0 2.7838468388256346e-05 -6.4628262914269381e-05 0 2.4443895242603573e-05 -6.5538057278188684e-05 0 7.4266206659443081e-05 -7.4093622959164854e-05 0 7.0173580629625686e-05 -6.3669136970646362e-05 0 5.6948831178259585e-05 -6.7091173866379788e-05 0 2.0562285523973077e-05 3.8873321744216505e-06 0 1.7359546678516459e-05 -9.9858975564679993e-07 0 1.9912183518955869e-05 -6.3808243663407982e-06 0 4.7697780997124456e-05 -0.00017987318886671054 0 2.6109333302585916e-05 -0.00016251525350613699 0 2.5767890029282739e-05 -0.00018106756703863247 0 -0.00011206977738241702 0.00036030161120625384 0 -7.7746823536540798e-05 0.00032092000123999024 0 -7.0102430965366096e-05 0.00035513011589203235 0 1.4075871545616393e-09 -5.4802620358701553e-10 0 1.8433161713039179e-06 -6.3150685057824544e-07 0 1.4270703623679777e-06 -1.2278583165621594e-06 0 8.3351687220081147e-10 7.4678552551785527e-10 0 7.1162080253959817e-07 1.623965547137031e-06 0 1.2228326111738224e-06 1.5282566298413595e-06 0 -2.390485118379765e-05 5.1680808369567573e-05 0 -4.5803841338193495e-06 5.0175164432147673e-05 0 -1.4362409593283539e-05 8.0263383738387746e-05 0 9.2644656343556306e-06 7.1279998791686639e-05 0 -1.4362409593283539e-05 8.0263383738387746e-05 0 -4.5803841338193487e-06 5.0175164432147673e-05 0 2.1574845527591539e-05 4.2885879483632121e-05 0 3.9423615553361245e-05 2.4758523135343457e-05 0 3.1554029558419707e-05 7.3768906083718623e-05 0 -0.00011130274953769157 0.00028446114350825645 0 -6.4458300373137372e-05 0.00028484624464327689 0 -7.7746823536540798e-05 0.00032092000123999024 0 3.923333399966312e-05 -0.00014060698237280638 0 1.6690205504232979e-05 -0.00014441589380632513 0 2.610933330258592e-05 -0.00016251525350613699 0 4.4663853019703127e-05 -5.3669104659681465e-05 0 3.8842971475948668e-05 -4.8603932373748251e-05 0 3.6761510437239916e-05 -5.4033181977898695e-05 0 1.5105764817825273e-05 -4.5429207831733392e-06 0 1.7014102561541203e-05 -8.3409083863958073e-06 0 1.7359546678516459e-05 -9.9858975564679993e-07 0 1.7973874971618486e-05 -1.4147064102797122e-05 0 1.8636785580671538e-05 -1.9647722395154353e-05 0 2.377704475090987e-05 -2.0619482473586792e-05 0 4.1906591213255003e-05 -3.3885304048297578e-05 0 3.6675975533549209e-05 -2.9423700883931784e-05 0 3.5539896842485394e-05 -3.4846529470937178e-05 0 -9.8395587047045695e-05 0.00014230494709427974 0 -6.6642800072704624e-05 0.00012147562585181151 0 -7.5475373946164363e-05 0.00016101875074369315 0 -6.7761785671860311e-05 -0.00014657614929768813 0 -5.0774934446558535e-05 -0.00016609703086177037 0 -4.5048804878370041e-05 -0.00014797848788589764 0 9.9675733584371034e-05 0.00027375841253843882 0 7.3810119705252573e-05 0.00031526929999546041 0 5.8328644996194314e-05 0.00028306956780562191 0 4.3055321503824791e-05 -0.00015989545700189671 0 2.610933330258592e-05 -0.00016251525350613699 0 4.7697780997124456e-05 -0.00017987318886671054 0 -0.00011206977738241702 0.00036030161120625384 0 -0.00011198429197378333 0.00032235775539966161 0 -7.7746823536540798e-05 0.00032092000123999024 0 2.4812539336176796e-05 -5.3524121373901216e-05 0 1.9579658170325295e-05 -4.6933502722716963e-05 0 2.1147542387182354e-05 -5.4622424064471987e-05 0 9.6091273630194677e-06 -1.8574977599517321e-05 0 3.364564945000009e-06 -2.2230045707435892e-05 0 5.2155604345526415e-06 -3.4876045626100218e-05 0 2.4812539336176796e-05 -5.3524121373901216e-05 0 2.3907777790281268e-05 -4.7498930303380919e-05 0 1.9579658170325295e-05 -4.6933502722716963e-05 0 3.13830772354143e-05 -2.8893528570148987e-05 0 3.5539896842485394e-05 -3.4846529470937178e-05 0 3.6675975533549209e-05 -2.9423700883931784e-05 0 -1.5762283477258075e-05 -6.1848710720852689e-05 0 -1.6787306743368377e-05 -8.2307750787244871e-05 0 -5.5271198032121647e-06 -6.6940906790591813e-05 0 -1.7054850039975496e-09 5.4327681817721313e-10 0 -2.1689644739161124e-06 8.1752302189503206e-07 0 -1.3738006511415104e-06 1.2189609227236937e-06 0 -2.2777907383282823e-09 -8.7695595010129043e-10 0 -1.6600386936268754e-06 -1.9500174191439708e-06 0 -2.7933942937826252e-06 -1.513970071554833e-06 0 2.8933678488629553e-05 -6.7763397875015535e-05 0 3.100030728687953e-05 -6.7827388470476395e-05 0 2.7838468388256346e-05 -6.4628262914269381e-05 0 6.1130409982317361e-05 -7.6027974949530405e-05 0 7.4266206659443081e-05 -7.4093622959164854e-05 0 5.6948831178259585e-05 -6.7091173866379788e-05 0 -8.7661070516638342e-10 -1.454426840330806e-09 0 -1.6200662876097881e-06 -2.9972426791704025e-06 0 -1.6600386936268752e-06 -1.9500174191439708e-06 0 -8.7488856409810035e-10 9.7650306068070644e-10 0 -1.3738006511415104e-06 1.2189609227236937e-06 0 -1.5786849212985063e-06 2.0290570048029318e-06 0 6.5919502305396301e-06 -1.5990772303447283e-06 0 3.0554256577301757e-06 -2.4232395898379653e-06 0 4.9442419512744686e-06 -1.2990178502627669e-06 0 -8.068777720581889e-06 5.2876954308885987e-07 0 -6.6311984868143129e-06 1.7359103437554758e-06 0 -4.658284862890287e-06 1.3016493216719509e-06 0 -1.097151878286797e-05 -1.5859987853490225e-06 0 -6.1050679458877069e-06 -2.4884676404521016e-06 0 -8.695152402832315e-06 -3.255047541409275e-06 0 2.8288234736686073e-05 -3.3915534713515642e-05 0 2.6907387967867185e-05 -2.8666635283321035e-05 0 2.273919440731641e-05 -3.0436148105346636e-05 0 2.20153496889948e-05 -2.5065308615448252e-05 0 2.377704475090987e-05 -2.0619482473586792e-05 0 1.8636785580671538e-05 -1.9647722395154353e-05 0 0.00011446115632344369 0.00034716328033609949 0 7.127211810150212e-05 0.00034951317828093903 0 7.3810119705252573e-05 0.00031526929999546041 0 -6.8384379833014272e-05 -0.00018636508603758639 0 -4.6565531526259962e-05 -0.00018361009984399582 0 -5.0774934446558535e-05 -0.00016609703086177037 0 2.20153496889948e-05 -2.5065308615448252e-05 0 2.273919440731641e-05 -3.0436148105346636e-05 0 2.6907387967867185e-05 -2.8666635283321035e-05 0 3.8842971475948668e-05 -4.8603932373748251e-05 0 4.4427243271109224e-05 -4.6618874971209452e-05 0 3.4446298087699566e-05 -4.1412079585763885e-05 0 -3.6404404986610557e-05 0.00019133191279779974 0 -2.8617634616662745e-05 0.00014864236156212436 0 -8.0728836804370897e-06 0.00016422442212456353 0 -2.2777907383282823e-09 -8.7695595010129043e-10 0 -2.0180373930009967e-09 -5.1825729952378477e-10 0 -1.6600386936268752e-06 -1.9500174191439708e-06 0 -1.6774157957046642e-09 3.0841796608778111e-10 0 -1.7054850039975496e-09 5.4327681817721313e-10 0 -1.3738006511415104e-06 1.2189609227236937e-06 0 6.5919502305396301e-06 -1.5990772303447283e-06 0 4.5661780770159348e-06 -2.7105203366331061e-06 0 3.0554256577301757e-06 -2.4232395898379653e-06 0 3.7469555547039954e-05 0.00032071329243382122 0 -5.6380961035044393e-07 0.00034832425498840133 0 -8.253379968726929e-07 0.00030562005806911597 0 -3.1900840991546547e-05 -0.00016689723836235166 0 -1.0883535162599418e-05 -0.00018016661584709874 0 -1.3560218451017691e-05 -0.00015763375602381672 0 -1.6787306743368377e-05 -8.2307750787244871e-05 0 -4.1591094944467155e-06 -8.2999848806306094e-05 0 -5.5271198032121647e-06 -6.6940906790591813e-05 0 3.4925479053504616e-06 5.6139313277283805e-07 0 5.0518987515828104e-06 1.3179446109255982e-06 0 5.0460642022259141e-06 2.1818319038745507e-07 0 -1.6216201600395447e-06 -3.3158171814533664e-06 0 2.6585119898677491e-06 -2.8141490879453652e-06 0 -8.1716819510144884e-07 -1.5530056012422757e-06 0 4.4427243271109224e-05 -4.6618874971209452e-05 0 4.1200277917395218e-05 -4.1402807262127202e-05 0 3.4446298087699566e-05 -4.1412079585763885e-05 0 5.0460642022259141e-06 2.1818319038745507e-07 0 5.0518987515828104e-06 1.3179446109255982e-06 0 6.7273899429026012e-06 8.2584490208714596e-07 0 5.0518987515828104e-06 1.3179446109255982e-06 0 2.5930273053025977e-06 9.8765136597581791e-07 0 4.1743413611872252e-06 1.803833194800896e-06 0 2.5265479950462421e-06 1.6784520156506939e-06 0 4.1743413611872252e-06 1.803833194800896e-06 0 2.5930273053025977e-06 9.8765136597581791e-07 0 1.7472563988467725e-05 -5.0728724008197029e-05 0 1.9579658170325295e-05 -4.6933502722716963e-05 0 1.3011136205690482e-05 -4.356638604155761e-05 0 1.7973874971618486e-05 -1.4147064102797122e-05 0 2.3777044750909866e-05 -2.0619482473586792e-05 0 2.1153580269972652e-05 -1.3334906833017144e-05 0 4.4663853019703127e-05 -5.3669104659681465e-05 0 4.4427243271109224e-05 -4.6618874971209452e-05 0 3.8842971475948668e-05 -4.8603932373748251e-05 0 2.0562285523973077e-05 3.8873321744216505e-06 0 1.9912183518955873e-05 -6.3808243663407966e-06 0 2.2870688187571247e-05 -8.0826537268676501e-07 0 0.00010648866932984531 0.00030970286808287167 0 0.00011446115632344369 0.00034716328033609949 0 7.3810119705252573e-05 0.00031526929999546041 0 -6.8290642614371436e-05 -0.00016649640923801576 0 -6.8384379833014272e-05 -0.00018636508603758639 0 -5.0774934446558535e-05 -0.00016609703086177037 0 -6.7761785671860311e-05 -0.00014657614929768813 0 -6.8290642614371436e-05 -0.00016649640923801576 0 -5.0774934446558535e-05 -0.00016609703086177037 0 9.9675733584371034e-05 0.00027375841253843882 0 0.00010648866932984531 0.00030970286808287167 0 7.3810119705252573e-05 0.00031526929999546041 0 2.2821535874252894e-05 8.1357192203775841e-06 0 2.036231818367638e-05 6.4793543888441118e-06 0 2.0562285523973077e-05 3.8873321744216505e-06 0 4.5855451389647193e-06 2.8946497413915885e-06 0 3.0355479377992151e-06 2.5540787308220357e-06 0 2.6223846745823506e-06 3.1747881864255805e-06 0 1.7700027483766082e-06 2.4582321562655577e-06 0 2.6223846745823506e-06 3.1747881864255805e-06 0 3.0355479377992151e-06 2.5540787308220357e-06 0 4.5784970097497132e-05 0.00016742601569003394 0 5.7753891184230382e-05 0.0001898789669842335 0 2.3695835216784744e-05 0.00019087433017456814 0 5.7753891184230382e-05 0.0001898789669842335 0 5.2669168605508929e-05 0.00021350924433114231 0 2.3695835216784744e-05 0.00019087433017456814 0 2.4328344787428908e-05 -1.2618326414145638e-05 0 1.9912183518955866e-05 -6.3808243663407982e-06 0 2.1153580269972652e-05 -1.3334906833017144e-05 0 4.9508946970604113e-05 -7.4941722681437181e-05 0 5.6948831178259585e-05 -6.7091173866379788e-05 0 4.7131507829832791e-05 -6.3734230956321095e-05 0 3.4469838733595866e-05 -6.9800297396562552e-05 0 3.0585777950005047e-05 -6.282170182748682e-05 0 2.7838468388256346e-05 -6.4628262914269381e-05 0 2.036231818367638e-05 6.4793543888441118e-06 0 1.8077885969336479e-05 3.2404035444176551e-06 0 2.0562285523973077e-05 3.8873321744216505e-06 0 -0.00011198429197378333 0.00032235775539966161 0 -0.00011130274953769157 0.00028446114350825645 0 -7.7746823536540798e-05 0.00032092000123999024 0 3.923333399966312e-05 -0.00014060698237280638 0 2.610933330258592e-05 -0.00016251525350613699 0 4.3055321503824791e-05 -0.00015989545700189671 0 -2.0775984979940242e-05 -4.6288904009771946e-06 0 -1.9312930475145105e-05 -4.9949738548169047e-06 0 -1.440741760734311e-05 -1.4313833817377834e-06 0 -3.1082222647432573e-05 6.2056000132300417e-06 0 -2.1394033194531819e-05 1.4905049187468673e-06 0 -2.808526687566937e-05 7.0342857579842231e-06 0 2.4328344787428908e-05 -1.2618326414145638e-05 0 2.377704475090987e-05 -2.0619482473586792e-05 0 3.0510182413706279e-05 -2.290804445920301e-05 0 9.6091273630194677e-06 -1.8574977599517321e-05 0 5.2155604345526415e-06 -3.4876045626100218e-05 0 1.7249417161682368e-05 -3.7772101251341292e-05 0 3.13830772354143e-05 -2.8893528570148987e-05 0 2.377704475090987e-05 -2.0619482473586792e-05 0 2.6907387967867185e-05 -2.8666635283321035e-05 0 2.20153496889948e-05 -2.5065308615448252e-05 0 2.6907387967867185e-05 -2.8666635283321035e-05 0 2.377704475090987e-05 -2.0619482473586792e-05 0 -9.0524425290459062e-06 -0.00020580274718505991 0 1.1438680522783537e-05 -0.00020547887413233348 0 7.4728357648785819e-06 -0.00018652412338221409 0 2.3354942083902235e-06 0.00039742819052909924 0 -3.592523733415256e-05 0.00039778667428614636 0 -3.4123273245740066e-05 0.00036226331777683185 0 4.1969856503658942e-05 0.00039644273021953609 0 2.3354942083902235e-06 0.00039742819052909924 0 3.5163696706615253e-05 0.00036012927430453015 0 -2.8798202113126526e-05 -0.00020588628294358565 0 -9.0524425290459062e-06 -0.00020580274718505991 0 -2.8011504678134759e-05 -0.000187359992385458 0 9.9694993333247414e-06 2.9662629340902266e-05 0 -4.5803841338193487e-06 5.0175164432147673e-05 0 -8.994380239284065e-06 3.1315434483043809e-05 0 1.7377137913383198e-05 -2.9176736983689407e-05 0 1.6337893868195821e-05 -3.4607772487232881e-05 0 2.1282493557894536e-05 -3.578124881665283e-05 0 3.13830772354143e-05 -2.8893528570148987e-05 0 2.6907387967867185e-05 -2.8666635283321035e-05 0 3.5539896842485394e-05 -3.4846529470937178e-05 0 2.8288234736686073e-05 -3.3915534713515642e-05 0 3.5539896842485394e-05 -3.4846529470937178e-05 0 2.6907387967867185e-05 -2.8666635283321035e-05 0 5.1679764209805134e-06 -7.1389864893163738e-05 0 4.456888900819559e-06 -5.2805776746380066e-05 0 -5.5271198032121647e-06 -6.6940906790591813e-05 0 -8.2481547718006107e-05 8.2599210455818205e-05 0 -5.0443724663302047e-05 6.4342763366284398e-05 0 -6.7437686035153068e-05 9.3672574597221671e-05 0 -8.492907618756718e-06 -9.5378943639239255e-06 0 -1.3476127418064465e-05 -1.6471643590136088e-05 0 -4.3718800999638959e-06 -1.2761895307938681e-05 0 -6.8098951335412615e-06 -2.0486839975394816e-05 0 -4.3718800999638959e-06 -1.2761895307938681e-05 0 -1.3476127418064465e-05 -1.6471643590136088e-05 0 2.5915947018443603e-05 -5.8913775288039683e-05 0 2.9990326073424429e-05 -5.6281001235130235e-05 0 2.4812539336176796e-05 -5.3524121373901216e-05 0 -5.2178440954180702e-05 0.00014323090378906968 0 -7.5475373946164363e-05 0.00016101875074369315 0 -6.6642800072704624e-05 0.00012147562585181151 0 -1.7037149899231065e-05 -6.4082952954478929e-06 0 -2.357254604672922e-05 -1.1979783940502147e-05 0 -1.6057768232471326e-05 -1.0812797507232346e-05 0 -2.2941794771134738e-05 -1.7187218816667981e-05 0 -1.6057768232471326e-05 -1.0812797507232346e-05 0 -2.357254604672922e-05 -1.1979783940502147e-05 0 -3.3050231345545731e-05 2.9373834132155967e-05 0 -3.5062786945424593e-05 1.9625581730553207e-05 0 -2.195329014535694e-05 1.7632594638646987e-05 0 -2.4228091549325235e-05 1.030242411716151e-05 0 -2.195329014535694e-05 1.7632594638646987e-05 0 -3.5062786945424593e-05 1.9625581730553207e-05 0 1.8478171915059924e-05 -4.1300791958112961e-05 0 2.4229707908892433e-05 -4.2025742994744565e-05 0 2.1282493557894536e-05 -3.578124881665283e-05 0 -4.8990751602316744e-05 -4.3737334265513752e-05 0 -4.1871523880352747e-05 -4.9031353476712444e-05 0 -3.2849413551386254e-05 -3.5175561197078474e-05 0 2.9139955098910686e-05 0.00013757672148114906 0 6.1497098759346967e-06 0.00010737041994862513 0 3.0091570453801526e-05 0.00010301332610896015 0 1.5105764817825273e-05 -4.5429207831733392e-06 0 1.2035061394734234e-05 -6.9939998517612953e-06 0 1.3746967026320343e-05 -1.0543566950358529e-05 0 1.2447734649233159e-05 2.696922218837411e-06 0 1.4496615696457315e-05 3.2679938788541132e-06 0 1.2061517373374266e-05 2.3783940610683453e-06 0 -5.8064618740402838e-05 0.00024376328580663222 0 -3.1632385187117369e-05 0.000254267827349942 0 -6.4458300373137372e-05 0.00028484624464327689 0 1.1048546527554002e-05 -0.00012320585339807184 0 -1.1207933654466738e-06 -0.00013015031942772935 0 1.6690205504232979e-05 -0.00014441589380632513 0 2.4328344787428908e-05 -1.2618326414145638e-05 0 2.1153580269972648e-05 -1.3334906833017144e-05 0 2.377704475090987e-05 -2.0619482473586792e-05 0 3.0585777950005047e-05 -6.282170182748682e-05 0 2.9990326073424429e-05 -5.6281001235130235e-05 0 2.5915947018443603e-05 -5.8913775288039683e-05 0 2.8288234736686073e-05 -3.3915534713515642e-05 0 2.6020900753204272e-05 -3.6742527224909775e-05 0 3.4446298087699566e-05 -4.1412079585763885e-05 0 1.0415403057728124e-09 -6.9590395512483953e-10 0 1.4270703623679777e-06 -1.2278583165621594e-06 0 9.2689493440021292e-07 -1.9356647972722572e-06 0 4.9811660030283742e-10 7.4173834214157258e-10 0 2.7209380188702981e-07 1.8717178003752957e-06 0 7.1162080253959817e-07 1.623965547137031e-06 0 4.456888900819559e-06 -5.2805776746380066e-05 0 -7.3073728249366696e-06 -5.2236493740254254e-05 0 -5.5271198032121647e-06 -6.6940906790591813e-05 0 -1.6216201600395447e-06 -3.3158171814533664e-06 0 -8.1716819510144884e-07 -1.5530056012422757e-06 0 -6.2224445338891529e-06 -2.5580034317221932e-06 0 -6.5728164152608996e-06 1.4312234565349619e-05 0 -8.9943802392840616e-06 3.1315434483043809e-05 0 -2.0517598549332108e-05 2.8130004609539282e-05 0 3.1553576190299058e-06 -1.3896182459276957e-06 0 1.8433161713039179e-06 -6.3150685057824544e-07 0 4.2839781078176886e-06 -6.6681494996474271e-07 0 3.1891483773490798e-06 -2.0687778538293973e-08 0 4.2839781078176886e-06 -6.6681494996474271e-07 0 1.8433161713039179e-06 -6.3150685057824544e-07 0 2.5265479950462421e-06 1.6784520156506939e-06 0 1.2228326111738224e-06 1.5282566298413595e-06 0 3.0355479377992151e-06 2.5540787308220357e-06 0 1.7700027483766082e-06 2.4582321562655577e-06 0 3.0355479377992151e-06 2.5540787308220357e-06 0 1.2228326111738224e-06 1.5282566298413595e-06 0 -6.2377896876121433e-06 4.6705702258339468e-06 0 1.0417841739817921e-06 7.0964030264189206e-06 0 -6.5728164152608996e-06 1.4312234565349619e-05 0 1.2447734649233159e-05 2.696922218837411e-06 0 1.4973378131008342e-05 3.3430404493331339e-06 0 1.4496615696457315e-05 3.2679938788541132e-06 0 9.642126584880048e-06 -5.2113399861516536e-07 0 6.2444979899937724e-06 -2.187378147389581e-06 0 6.5919502305396301e-06 -1.5990772303447283e-06 0 -8.1716819510144884e-07 -1.5530056012422757e-06 0 2.6585119898677491e-06 -2.8141490879453652e-06 0 4.4268604817392751e-06 -1.8393200840912712e-07 0 1.5690406182498332e-05 2.586036001854178e-06 0 1.7888664002541558e-05 4.7732842600913692e-06 0 1.4973378131008342e-05 3.3430404493331339e-06 0 8.5332312669044311e-07 1.7752805335763297e-06 0 2.0409741564675786e-06 2.7071266234720658e-07 0 3.0991177075234796e-06 2.16314936287644e-06 0 4.5674397561955845e-06 3.965783715997882e-07 0 3.0991177075234796e-06 2.16314936287644e-06 0 2.0409741564675786e-06 2.7071266234720658e-07 0 -2.0180373930009657e-09 -5.1825729952374828e-10 0 -8.7661070516638342e-10 -1.454426840330806e-09 0 -1.6600386936268752e-06 -1.9500174191439708e-06 0 -8.7488856409810035e-10 9.7650306068070644e-10 0 -1.6774157957046642e-09 3.0841796608778111e-10 0 -1.3738006511415104e-06 1.2189609227236937e-06 0 6.6115212526218493e-05 0.00010606984913740415 0 3.0091570453801526e-05 0.00010301332610896015 0 3.1554029558419707e-05 7.3768906083718623e-05 0 4.5855451389647193e-06 2.8946497413915885e-06 0 5.6014465111537959e-06 2.6598074193576184e-06 0 6.5125218392354735e-06 2.6493149205869825e-06 0 9.5125891003860904e-06 -1.1487942329153255e-05 0 1.0000765080934225e-05 -8.0612516449696966e-06 0 7.9895212845000485e-06 -1.25058168126149e-05 0 3.6022733466507977e-05 -6.0540881348101894e-05 0 2.9990326073424429e-05 -5.6281001235130235e-05 0 3.0585777950005047e-05 -6.282170182748682e-05 0 -1.6209634520631784e-05 -1.8776713565526309e-06 0 -1.440741760734311e-05 -1.4313833817377834e-06 0 -1.1968502177513119e-05 2.0076871992660243e-07 0 -2.3339994659752631e-05 1.7392992154769317e-06 0 -1.6927495009963621e-05 -1.2270286881858809e-06 0 -2.1394033194531819e-05 1.4905049187468673e-06 0 2.9133198764583352e-05 -4.2106317929063603e-05 0 3.4446298087699566e-05 -4.1412079585763885e-05 0 2.6020900753204272e-05 -3.6742527224909775e-05 0 -1.440741760734311e-05 -1.4313833817377834e-06 0 -9.7944969948445146e-06 -2.9864700149769069e-07 0 -1.0406950875548761e-05 5.5301730196676361e-07 0 -1.0337477695126056e-05 -5.2910055199664812e-07 0 -5.8723344904540334e-06 5.1888999579181407e-07 0 -1.6108533241017777e-05 2.8350007378516145e-06 0 -1.4392739094522123e-05 -2.9483103383144799e-06 0 -9.7944969948445146e-06 -2.9864700149769074e-07 0 -1.440741760734311e-05 -1.4313833817377834e-06 0 -5.1208052470929068e-07 3.2489038505596797e-06 0 -2.7153765815580401e-06 3.0567925426388657e-06 0 -1.338912481356156e-06 2.5019543954476071e-06 0 3.1128251274772119e-06 -3.4862731734164009e-06 0 2.6585119898677491e-06 -2.8141490879453652e-06 0 -1.4001539067112102e-06 -4.3087196816260629e-06 0 -1.5058824440341504e-05 9.1856387694467278e-06 0 -6.2377896876121433e-06 4.6705702258339468e-06 0 -6.5728164152608996e-06 1.4312234565349619e-05 0 1.8478171915059924e-05 -4.1300791958112961e-05 0 2.1282493557894536e-05 -3.578124881665283e-05 0 1.6337893868195821e-05 -3.4607772487232881e-05 0 4.3477918387457497e-05 0.00024512821600231066 0 5.8328644996194314e-05 0.00028306956780562191 0 2.4559043760479452e-05 0.00027948129871171844 0 -3.9526437923601144e-05 -0.0001269164781016447 0 -4.5048804878370035e-05 -0.00014797848788589764 0 -2.7938592392618926e-05 -0.00014452758997927201 0 3.1553576190299058e-06 -1.3896182459276957e-06 0 1.4270703623679779e-06 -1.2278583165621594e-06 0 1.8433161713039179e-06 -6.3150685057824544e-07 0 1.7700027483766082e-06 2.4582321562655577e-06 0 1.2228326111738224e-06 1.5282566298413593e-06 0 7.1162080253959817e-07 1.623965547137031e-06 0 4.5885541150643531e-10 -1.0329186577824334e-09 0 9.2689493440021292e-07 -1.9356647972722572e-06 0 2.158246158642036e-07 -2.1009136494751693e-06 0 -1.4372791487346497e-11 8.4677271117641103e-10 0 -2.1192471205012662e-07 1.7146010286313959e-06 0 2.7209380188702981e-07 1.8717178003752957e-06 0 9.5125891003860904e-06 -1.1487942329153255e-05 0 8.0807620785484094e-06 -1.524721947365815e-05 0 1.1893902365868475e-05 -1.5172243800749937e-05 0 1.0456986304760022e-05 -1.8898919061572141e-05 0 1.1893902365868475e-05 -1.5172243800749937e-05 0 8.0807620785484094e-06 -1.524721947365815e-05 0 -1.6766180883213198e-05 0.0001147345113116704 0 -1.4362409593283539e-05 8.0263383738387746e-05 0 6.1497098759346967e-06 0.00010737041994862513 0 9.2644656343556306e-06 7.1279998791686639e-05 0 6.149709875934695e-06 0.00010737041994862513 0 -1.4362409593283539e-05 8.0263383738387746e-05 0 1.8847124345558977e-05 1.2362650738450611e-05 0 1.9610714936958637e-05 7.5896116018199247e-06 0 2.7245487847301734e-05 1.4802914833932592e-05 0 9.5125891003860904e-06 -1.1487942329153255e-05 0 1.2035061394734234e-05 -6.9939998517612953e-06 0 1.0000765080934225e-05 -8.0612516449696966e-06 0 7.1653637468130945e-06 -2.3857403338767683e-07 0 5.0460642022259141e-06 2.1818319038745507e-07 0 6.7273899429026012e-06 8.2584490208714596e-07 0 1.7377137913383198e-05 -2.9176736983689407e-05 0 2.1282493557894536e-05 -3.578124881665283e-05 0 2.273919440731641e-05 -3.0436148105346636e-05 0 -3.6404404986610557e-05 0.00019133191279779974 0 -5.2668357659261207e-05 0.00016692121971862925 0 -2.8617634616662745e-05 0.00014864236156212436 0 1.7472563988467725e-05 -5.0728724008197029e-05 0 1.3011136205690482e-05 -4.356638604155761e-05 0 1.3131138775609636e-05 -5.0583244413599508e-05 0 3.8842971475948668e-05 -4.8603932373748251e-05 0 3.2740660443214882e-05 -4.6835376407068954e-05 0 3.6761510437239916e-05 -5.4033181977898695e-05 0 2.9847348662600514e-06 3.0418817482067208e-06 0 2.6223846745823506e-06 3.1747881864255805e-06 0 1.3261150809091598e-06 3.3132052333321649e-06 0 -2.390485118379765e-05 5.1680808369567573e-05 0 -8.994380239284065e-06 3.1315434483043809e-05 0 -4.5803841338193487e-06 5.0175164432147673e-05 0 -4.8307602562528955e-06 4.1840728486515018e-07 0 -8.068777720581889e-06 5.2876954308885987e-07 0 -4.658284862890287e-06 1.3016493216719509e-06 0 -1.097151878286797e-05 -1.5859987853490225e-06 0 -6.3495683448591215e-06 -1.2515191850769019e-06 0 -6.1050679458877069e-06 -2.4884676404521012e-06 0 3.13830772354143e-05 -2.8893528570148987e-05 0 3.0510182413706279e-05 -2.290804445920301e-05 0 2.377704475090987e-05 -2.0619482473586792e-05 0 -9.6671189753280263e-07 2.6406964047496822e-06 0 -1.4674732548311762e-06 3.2950693589640904e-06 0 -4.6677195184037695e-08 2.9410365550058856e-06 0 -3.2531953684602801e-07 -3.4505935821693662e-06 0 1.1687956389759139e-06 -3.2513342626998357e-06 0 -3.9036270860918232e-09 -4.2670360552458776e-06 0 -7.2893068162967046e-05 5.8444458526228486e-05 0 -4.9564438846514516e-05 4.3521533715032631e-05 0 -5.0443724663302047e-05 6.4342763366284398e-05 0 -4.3687675201624467e-05 -3.1840202293150106e-05 0 -3.2849413551386254e-05 -3.5175561197078474e-05 0 -3.172936611507058e-05 -2.4133067687016088e-05 0 9.9694993333247414e-06 2.9662629340902266e-05 0 2.3699105479178886e-05 2.1107242711861439e-05 0 2.1574845527591539e-05 4.2885879483632121e-05 0 3.9423615553361245e-05 2.4758523135343457e-05 0 2.1574845527591539e-05 4.2885879483632121e-05 0 2.3699105479178886e-05 2.1107242711861439e-05 0 -4.12888529866872e-06 -3.9213300648452998e-05 0 -1.4909743808318573e-05 -4.2928597419401824e-05 0 -7.3073728249366696e-06 -5.2236493740254254e-05 0 -1.5762283477258075e-05 -6.1848710720852689e-05 0 -7.3073728249366696e-06 -5.2236493740254254e-05 0 -1.4909743808318573e-05 -4.2928597419401824e-05 0 2.4328344787428908e-05 -1.2618326414145638e-05 0 2.7252809033540345e-05 -5.8443492309106987e-06 0 2.2870688187571247e-05 -8.0826537268676501e-07 0 3.6022733466507977e-05 -6.0540881348101894e-05 0 3.0585777950005047e-05 -6.282170182748682e-05 0 3.6179679558831116e-05 -6.6470463105647003e-05 0 7.1653637468130945e-06 -2.3857403338767683e-07 0 6.5919502305396301e-06 -1.5990772303447283e-06 0 4.9442419512744686e-06 -1.2990178502627669e-06 0 -1.3476127418064465e-05 -1.6471643590136088e-05 0 -2.3161002055284166e-05 -2.4321828745813155e-05 0 -1.4755390064059174e-05 -2.4217485235877539e-05 0 4.9508946970604113e-05 -7.4941722681437181e-05 0 4.7131507829832791e-05 -6.3734230956321095e-05 0 4.1072890831240428e-05 -6.6473477786722579e-05 0 -4.722793823375558e-05 9.3731017716127638e-05 0 -6.7437686035153068e-05 9.3672574597221671e-05 0 -5.0443724663302047e-05 6.4342763366284398e-05 0 -6.4458300373137372e-05 0.00028484624464327689 0 -3.1632385187117369e-05 0.000254267827349942 0 -2.8644444883303745e-05 0.00028749488612231068 0 1.6690205504232979e-05 -0.00014441589380632513 0 -1.1207933654466738e-06 -0.00013015031942772935 0 -7.3815281202694879e-07 -0.00014722408035179507 0 7.6331464510729125e-06 1.5763507062180783e-06 0 9.9207664099484511e-06 1.7933040080099484e-06 0 7.681102542124265e-06 2.4036153334065197e-06 0 1.0456986304760022e-05 -1.8898919061572141e-05 0 8.0807620785484094e-06 -1.524721947365815e-05 0 7.6839790306683141e-06 -2.0836933303739127e-05 0 9.2245506473402811e-06 1.7492314283874792e-06 0 1.2061517373374266e-05 2.3783940610683453e-06 0 1.1096161538263494e-05 1.4743510283766845e-06 0 1.3522405428249265e-05 2.3449895002131775e-06 0 1.1096161538263494e-05 1.4743510283766845e-06 0 1.2061517373374266e-05 2.3783940610683453e-06 0 -8.1716819510144884e-07 -1.5530056012422757e-06 0 -5.8723344904540334e-06 5.1888999579181407e-07 0 -6.2224445338891529e-06 -2.5580034317221932e-06 0 -1.5762283477258075e-05 -6.1848710720852689e-05 0 -2.4978984413936614e-05 -7.1991726315549529e-05 0 -1.6787306743368377e-05 -8.2307750787244871e-05 0 -1.0950544350960062e-05 -3.1674620990749163e-06 0 -6.1488550633516998e-06 -4.0155256291079777e-06 0 -1.2888846490718748e-05 -1.8453661611851429e-06 0 2.3695835216784744e-05 0.00019087433017456814 0 -3.3740124975121146e-06 0.00022265887199776369 0 -1.2050634941544269e-05 0.00019383592715084959 0 2.3695835216784744e-05 0.00019087433017456814 0 -1.2050634941544269e-05 0.00019383592715084959 0 -8.0728836804370897e-06 0.00016422442212456353 0 -3.6404404986610557e-05 0.00019133191279779974 0 -8.0728836804370914e-06 0.0001642244221245635 0 -1.2050634941544269e-05 0.00019383592715084959 0 -2.9226325963931009e-05 -9.759454553706485e-05 0 -1.6690832570147903e-05 -0.00011459479339676691 0 -1.1572224573886956e-05 -9.7549094786206266e-05 0 -2.9226325963931009e-05 -9.759454553706485e-05 0 -1.1572224573886956e-05 -9.7549094786206266e-05 0 -1.6787306743368377e-05 -8.2307750787244871e-05 0 1.9610714936958637e-05 7.5896116018199247e-06 0 2.3321253683674882e-05 1.0032022540420254e-05 0 2.7245487847301734e-05 1.4802914833932592e-05 0 1.4075871545616393e-09 -5.4802620358701553e-10 0 1.8035153281237011e-09 1.9801757119131613e-11 0 1.8433161713039179e-06 -6.3150685057824544e-07 0 1.3014580987627742e-09 4.9501571906476331e-10 0 8.3351687220081147e-10 7.4678552551785527e-10 0 1.2228326111738224e-06 1.5282566298413595e-06 0 5.6014465111537959e-06 2.6598074193576184e-06 0 7.681102542124265e-06 2.4036153334065197e-06 0 6.5125218392354735e-06 2.6493149205869825e-06 0 9.6091273630194677e-06 -1.8574977599517321e-05 0 5.9083158263687256e-06 -1.4426769512688485e-05 0 3.364564945000009e-06 -2.2230045707435892e-05 0 -6.1488550633516998e-06 -4.0155256291079777e-06 0 -6.2224445338891529e-06 -2.5580034317221932e-06 0 -1.2888846490718748e-05 -1.8453661611851429e-06 0 1.6498701426512694e-09 3.4920854285051561e-10 0 2.5930273053025977e-06 9.8765136597581791e-07 0 1.6891730325102904e-06 2.8950461042110564e-07 0 -1.097151878286797e-05 -1.5859987853490225e-06 0 -8.695152402832315e-06 -3.255047541409275e-06 0 -1.3049421668575526e-05 -2.3110335217215373e-06 0 -8.068777720581889e-06 5.2876954308885987e-07 0 -9.5035421577359523e-06 9.9395647291237159e-07 0 -6.631198486814312e-06 1.7359103437554756e-06 0 -3.1740894403234287e-05 -4.8679156927345121e-05 0 -3.2849413551386254e-05 -3.5175561197078474e-05 0 -4.1871523880352747e-05 -4.9031353476712444e-05 0 4.1743413611872252e-06 1.803833194800896e-06 0 2.5265479950462421e-06 1.6784520156506939e-06 0 4.5384098869273648e-06 2.4679448146080615e-06 0 1.8478171915059924e-05 -4.1300791958112961e-05 0 1.3011136205690482e-05 -4.356638604155761e-05 0 1.9579658170325295e-05 -4.6933502722716963e-05 0 1.5690406182498332e-05 2.586036001854178e-06 0 1.4973378131008342e-05 3.3430404493331339e-06 0 1.3611574033776922e-05 1.9089761641177107e-06 0 2.9139955098910686e-05 0.00013757672148114906 0 1.9943579946850382e-07 0.00013897843706241517 0 6.1497098759346967e-06 0.00010737041994862513 0 7.1653637468130945e-06 -2.3857403338767683e-07 0 4.2839781078176886e-06 -6.6681494996474271e-07 0 5.0460642022259141e-06 2.1818319038745507e-07 0 -4.1384357861119219e-05 0.00032417736706165753 0 -2.8644444883303745e-05 0.00028749488612231068 0 -8.253379968726929e-07 0.00030562005806911597 0 8.1674200706478219e-06 -0.00016613578845388205 0 -7.3815281202694879e-07 -0.00014722408035179507 0 -1.3560218451017691e-05 -0.00015763375602381672 0 2.5265479950462421e-06 1.6784520156506939e-06 0 3.0355479377992151e-06 2.5540787308220357e-06 0 4.5384098869273648e-06 2.4679448146080615e-06 0 1.5690406182498332e-05 2.586036001854178e-06 0 1.3394630997642482e-05 5.3078742712698947e-08 0 1.5109314043932346e-05 -2.9921637124589225e-07 0 3.7469555547039954e-05 0.00032071329243382122 0 3.5163696706615253e-05 0.00036012927430453015 0 -5.6380961035044393e-07 0.00034832425498840133 0 -4.1384357861119219e-05 0.00032417736706165753 0 -5.6380961035043704e-07 0.00034832425498840128 0 -3.4123273245740066e-05 0.00036226331777683185 0 -3.1900840991546547e-05 -0.00016689723836235166 0 -2.8011504678134759e-05 -0.000187359992385458 0 -1.0883535162599418e-05 -0.00018016661584709874 0 8.1674200706478219e-06 -0.00016613578845388205 0 -1.0883535162599418e-05 -0.00018016661584709874 0 7.4728357648785819e-06 -0.00018652412338221409 0 -6.5728164152608996e-06 1.4312234565349619e-05 0 -2.0517598549332108e-05 2.8130004609539282e-05 0 -2.195329014535694e-05 1.7632594638646987e-05 0 -1.9675067800151849e-05 -3.0454857946375205e-05 0 -3.2849413551386254e-05 -3.5175561197078474e-05 0 -2.4201252791446566e-05 -4.0772310019623195e-05 0 -3.1740894403234287e-05 -4.8679156927345121e-05 0 -2.4201252791446566e-05 -4.0772310019623195e-05 0 -3.2849413551386254e-05 -3.5175561197078474e-05 0 -4.722793823375558e-05 9.3731017716127638e-05 0 -5.0443724663302047e-05 6.4342763366284398e-05 0 -3.2241918282135815e-05 7.626226526114528e-05 0 -2.390485118379765e-05 5.1680808369567573e-05 0 -3.2241918282135815e-05 7.626226526114528e-05 0 -5.0443724663302047e-05 6.4342763366284398e-05 0 1.7700027483766082e-06 2.4582321562655577e-06 0 1.1410316231816244e-06 2.7944604183166953e-06 0 2.6223846745823506e-06 3.1747881864255805e-06 0 5.6861483844485598e-05 7.1761852599077513e-05 0 6.6115212526218493e-05 0.00010606984913740415 0 3.1554029558419707e-05 7.3768906083718623e-05 0 -3.2531953684602801e-07 -3.4505935821693662e-06 0 -1.8503779988489624e-06 -4.0964727584585516e-06 0 -1.6200662876097881e-06 -2.9972426791704021e-06 0 -9.6671189753280263e-07 2.6406964047496822e-06 0 -1.5786849212985063e-06 2.0290570048029318e-06 0 -2.1694370993619917e-06 2.8491422495607835e-06 0 9.5125891003860904e-06 -1.1487942329153255e-05 0 1.3746967026320343e-05 -1.0543566950358529e-05 0 1.2035061394734234e-05 -6.9939998517612953e-06 0 -1.4674732548311762e-06 3.2950693589640904e-06 0 -1.4140494857969014e-07 3.3319756891875897e-06 0 -4.6677195184037695e-08 2.9410365550058856e-06 0 -3.9036270860918232e-09 -4.2670360552458776e-06 0 1.1687956389759139e-06 -3.2513342626998357e-06 0 2.2293318181487589e-06 -3.5803779197339008e-06 0 -1.0337477695126056e-05 -5.2910055199664812e-07 0 -1.6108533241017777e-05 2.8350007378516145e-06 0 -1.2888846490718748e-05 -1.8453661611851429e-06 0 -2.1394033194531819e-05 1.4905049187468673e-06 0 -1.2888846490718748e-05 -1.8453661611851429e-06 0 -1.6108533241017777e-05 2.8350007378516145e-06 0 3.7469555547039954e-05 0.00032071329243382122 0 2.4559043760479452e-05 0.00027948129871171844 0 5.8328644996194314e-05 0.00028306956780562191 0 -3.1900840991546547e-05 -0.00016689723836235166 0 -2.7938592392618926e-05 -0.00014452758997927201 0 -4.5048804878370041e-05 -0.00014797848788589764 0 4.9508946970604113e-05 -7.4941722681437181e-05 0 6.1130409982317361e-05 -7.6027974949530405e-05 0 5.6948831178259585e-05 -6.7091173866379788e-05 0 3.100030728687953e-05 -6.7827388470476395e-05 0 3.4469838733595866e-05 -6.9800297396562552e-05 0 2.7838468388256346e-05 -6.4628262914269381e-05 0 -9.4759617712672242e-07 5.7740275984950959e-07 0 8.5332312669044311e-07 1.7752805335763297e-06 0 -1.338912481356156e-06 2.5019543954476071e-06 0 1.1497391894824337e-05 -5.5836783816995167e-05 0 1.7383874132000758e-05 -5.6742640094244061e-05 0 1.3131138775609636e-05 -5.0583244413599508e-05 0 6.2775428405371719e-05 -4.2802886909015015e-05 0 5.5818261308059683e-05 -4.3667366219981167e-05 0 5.9777336138153669e-05 -5.0740848268202458e-05 0 4.4663853019703127e-05 -5.3669104659681465e-05 0 5.165811464090394e-05 -5.2759321431112901e-05 0 4.4427243271109224e-05 -4.6618874971209452e-05 0 -2.2941794771134738e-05 -1.7187218816667981e-05 0 -2.3161002055284166e-05 -2.4321828745813155e-05 0 -1.3476127418064465e-05 -1.6471643590136088e-05 0 3.4469838733595866e-05 -6.9800297396562552e-05 0 3.6179679558831116e-05 -6.6470463105647003e-05 0 3.0585777950005047e-05 -6.282170182748682e-05 0 -2.4228091549325235e-05 1.030242411716151e-05 0 -1.6108533241017777e-05 2.8350007378516145e-06 0 -1.5058824440341504e-05 9.1856387694467278e-06 0 9.9207664099484511e-06 1.7933040080099482e-06 0 9.992239205557709e-06 2.400206690562378e-06 0 7.681102542124265e-06 2.4036153334065197e-06 0 -1.9675067800151849e-05 -3.0454857946375205e-05 0 -1.4909743808318573e-05 -4.2928597419401824e-05 0 -1.0720078224664834e-05 -3.0635428875773288e-05 0 -4.12888529866872e-06 -3.9213300648452998e-05 0 -1.0720078224664836e-05 -3.0635428875773288e-05 0 -1.4909743808318573e-05 -4.2928597419401824e-05 0 -3.5619328325746227e-06 1.0187265572408322e-06 0 -9.4759617712672242e-07 5.7740275984950959e-07 0 -1.338912481356156e-06 2.5019543954476071e-06 0 -1.9675067800151849e-05 -3.0454857946375205e-05 0 -1.4755390064059174e-05 -2.4217485235877539e-05 0 -2.3161002055284166e-05 -2.4321828745813155e-05 0 -3.7533978333458131e-06 2.3674642384748478e-06 0 -3.5619328325746227e-06 1.0187265572408322e-06 0 -1.338912481356156e-06 2.5019543954476071e-06 0 3.1128251274772119e-06 -3.4862731734164009e-06 0 7.0427991739733332e-06 -1.7748855110075528e-06 0 2.6585119898677491e-06 -2.8141490879453652e-06 0 -1.9675067800151849e-05 -3.0454857946375205e-05 0 -2.3161002055284166e-05 -2.4321828745813155e-05 0 -3.2849413551386254e-05 -3.5175561197078474e-05 0 -2.390485118379765e-05 5.1680808369567573e-05 0 -5.0443724663302047e-05 6.4342763366284398e-05 0 -3.5158055741684446e-05 4.2448073452199771e-05 0 -8.7661070516638342e-10 -1.454426840330806e-09 0 -3.7859408371690766e-07 -1.9591575318034629e-06 0 -1.6200662876097881e-06 -2.9972426791704021e-06 0 -8.7488856409810035e-10 9.7650306068070644e-10 0 -1.5786849212985063e-06 2.0290570048029318e-06 0 -5.5002835280541945e-07 1.4309414857281988e-06 0 -3.7533978333458131e-06 2.3674642384748478e-06 0 -1.338912481356156e-06 2.5019543954476071e-06 0 -2.7153765815580401e-06 3.0567925426388657e-06 0 -1.6216201600395447e-06 -3.3158171814533664e-06 0 -1.4001539067112102e-06 -4.3087196816260629e-06 0 2.6585119898677491e-06 -2.8141490879453652e-06 0 2.7309664516128708e-06 -3.1389738288072108e-06 0 3.0554256577301757e-06 -2.4232395898379653e-06 0 4.5661780770159348e-06 -2.7105203366331061e-06 0 3.364564945000009e-06 -2.2230045707435892e-05 0 -3.7558951563071601e-06 -2.6921552226518713e-05 0 5.2155604345526415e-06 -3.4876045626100218e-05 0 7.1653637468130945e-06 -2.3857403338767683e-07 0 6.7273899429026012e-06 8.2584490208714607e-07 0 8.6945710888677987e-06 7.592893487634222e-07 0 -4.1384357861119219e-05 0.00032417736706165753 0 -6.4458300373137372e-05 0.00028484624464327689 0 -2.8644444883303745e-05 0.00028749488612231068 0 8.1674200706478219e-06 -0.00016613578845388205 0 1.6690205504232979e-05 -0.00014441589380632513 0 -7.3815281202694879e-07 -0.00014722408035179507 0 -5.1208052470929068e-07 3.2489038505596797e-06 0 -1.4674732548311762e-06 3.2950693589640904e-06 0 -2.7153765815580401e-06 3.0567925426388657e-06 0 3.1128251274772119e-06 -3.4862731734164009e-06 0 -1.4001539067112102e-06 -4.3087196816260629e-06 0 -3.9036270860918232e-09 -4.2670360552458776e-06 0 5.0518987515828104e-06 1.3179446109255982e-06 0 6.0025952103276452e-06 2.2401574667292736e-06 0 7.1454385837850692e-06 1.7156817913429656e-06 0 -3.7558951563071601e-06 -2.6921552226518713e-05 0 -4.12888529866872e-06 -3.9213300648452998e-05 0 5.2155604345526415e-06 -3.4876045626100218e-05 0 -0.00010724637558582983 0.00021117418538972338 0 -0.00010370765260999301 0.00017606344833525066 0 -7.1820765125523553e-05 0.00019213067203652749 0 2.9459401252770217e-05 -8.570873008912006e-05 0 1.5184190918218022e-05 -9.5980499217133478e-05 0 3.26084115039159e-05 -0.00010318238444575664 0 -2.9226325963931009e-05 -9.759454553706485e-05 0 -1.6787306743368377e-05 -8.2307750787244857e-05 0 -2.946086230460348e-05 -8.263051849690329e-05 0 1.2057926978235232e-05 -3.4856464674681062e-06 0 1.0000765080934225e-05 -8.0612516449696966e-06 0 1.2035061394734234e-05 -6.9939998517612953e-06 0 -1.0950544350960062e-05 -3.1674620990749163e-06 0 -8.6951524028323133e-06 -3.255047541409275e-06 0 -7.096278648405377e-06 -4.0154070740875584e-06 0 -8.4154671480620087e-06 1.6681806853889841e-06 0 -5.9064154078332411e-06 2.3418276061170838e-06 0 -6.631198486814312e-06 1.7359103437554756e-06 0 1.4331109646326986e-05 3.3291399124647398e-06 0 1.0644761646550466e-05 3.6658499584758114e-07 0 1.3881334765306968e-05 2.0745341596239098e-06 0 5.0518987515828104e-06 1.3179446109255982e-06 0 4.1743413611872252e-06 1.803833194800896e-06 0 6.0025952103276452e-06 2.2401574667292736e-06 0 1.0456986304760022e-05 -1.8898919061572141e-05 0 9.794798796396038e-06 -2.5063746677771469e-05 0 1.371823510636697e-05 -2.2503024347385854e-05 0 -1.0950544350960062e-05 -3.1674620990749163e-06 0 -1.3049421668575526e-05 -2.3110335217215373e-06 0 -8.695152402832315e-06 -3.255047541409275e-06 0 -8.4154671480620087e-06 1.6681806853889841e-06 0 -6.6311984868143112e-06 1.7359103437554758e-06 0 -9.503542157735954e-06 9.9395647291237138e-07 0 1.5690406182498332e-05 2.586036001854178e-06 0 1.3611574033776922e-05 1.9089761641177107e-06 0 1.3394630997642482e-05 5.3078742712698947e-08 0 -1.3735387512819071e-05 -0.00013617938797082175 0 -1.6690832570147906e-05 -0.00011459479339676691 0 -2.5538176558232263e-05 -0.00012617314281897115 0 -5.1670040381486173e-06 0.00026535742573874452 0 -3.3740124975121192e-06 0.00022265887199776369 0 1.6187940535323624e-05 0.00024520308568314406 0 -2.2941794771134738e-05 -1.7187218816667981e-05 0 -1.3476127418064463e-05 -1.6471643590136085e-05 0 -1.6057768232471326e-05 -1.0812797507232346e-05 0 -8.492907618756718e-06 -9.5378943639239255e-06 0 -1.6057768232471326e-05 -1.0812797507232346e-05 0 -1.3476127418064465e-05 -1.6471643590136088e-05 0 6.0678064372850707e-06 -3.925841348120738e-06 0 3.0978485242664851e-06 -5.7019214356657776e-06 0 6.7493161317682268e-06 -8.733559202889314e-06 0 2.0785842548619582e-06 -1.0665817169562432e-05 0 6.7493161317682268e-06 -8.733559202889314e-06 0 3.0978485242664851e-06 -5.7019214356657776e-06 0 9.2689493440021292e-07 -1.9356647972722572e-06 0 3.0554256577301757e-06 -2.4232395898379653e-06 0 1.1687956389759139e-06 -3.2513342626998357e-06 0 2.7309664516128708e-06 -3.1389738288072108e-06 0 1.1687956389759139e-06 -3.2513342626998357e-06 0 3.0554256577301757e-06 -2.4232395898379653e-06 0 6.668358360816023e-07 3.231765403868374e-06 0 1.1410316231816244e-06 2.7944604183166953e-06 0 -4.6677195184037695e-08 2.9410365550058856e-06 0 2.7209380188702981e-07 1.8717178003752957e-06 0 -4.6677195184037695e-08 2.9410365550058856e-06 0 1.1410316231816244e-06 2.7944604183166953e-06 0 1.8478171915059924e-05 -4.1300791958112961e-05 0 2.3907777790281271e-05 -4.7498930303380926e-05 0 2.4229707908892433e-05 -4.2025742994744565e-05 0 1.2057926978235232e-05 -3.4856464674681062e-06 0 1.5109314043932346e-05 -2.9921637124589225e-07 0 1.3394630997642482e-05 5.3078742712698947e-08 0 1.3522405428249265e-05 2.3449895002131775e-06 0 1.2103866817773868e-05 1.2463683709389799e-06 0 1.1096161538263494e-05 1.4743510283766845e-06 0 2.3695835216784744e-05 0.00019087433017456814 0 2.6446040465772657e-05 0.00022363094257219472 0 -3.3740124975121146e-06 0.00022265887199776369 0 -2.9226325963931009e-05 -9.759454553706485e-05 0 -3.1571515526529065e-05 -0.00011407186912481506 0 -1.6690832570147903e-05 -0.00011459479339676691 0 2.3695835216784744e-05 0.00019087433017456814 0 -8.0728836804370897e-06 0.00016422442212456353 0 1.7975702849297778e-05 0.00015976518716063413 0 1.4331109646326986e-05 3.3291399124647398e-06 0 9.6622266099041643e-06 1.6445322515170845e-06 0 1.0644761646550466e-05 3.6658499584758104e-07 0 1.4331109646326986e-05 3.3291399124647398e-06 0 1.4009137496445237e-05 6.409612831764892e-06 0 9.6622266099041643e-06 1.6445322515170847e-06 0 -1.6766180883213198e-05 0.0001147345113116704 0 1.9943579946850615e-07 0.0001389784370624152 0 -2.8617634616662745e-05 0.00014864236156212436 0 -8.0728836804370897e-06 0.00016422442212456353 0 -2.8617634616662745e-05 0.00014864236156212436 0 1.9943579946850615e-07 0.0001389784370624152 0 -3.6900368647220055e-06 -2.9842867219691352e-06 0 -1.6200662876097883e-06 -2.9972426791704021e-06 0 -3.3390895273856513e-06 -3.9191638971215894e-06 0 -3.003683797864119e-06 1.7977766363970705e-06 0 -3.0480511001433893e-06 2.5305783641956356e-06 0 -1.5786849212985063e-06 2.0290570048029318e-06 0 -4.12888529866872e-06 -3.9213300648452998e-05 0 -7.3073728249366696e-06 -5.2236493740254254e-05 0 4.456888900819559e-06 -5.2805776746380066e-05 0 1.1497391894824337e-05 -5.5836783816995167e-05 0 1.5763437420556022e-05 -6.2433547222622484e-05 0 1.7383874132000758e-05 -5.6742640094244061e-05 0 6.2775428405371719e-05 -4.2802886909015015e-05 0 5.9777336138153669e-05 -5.0740848268202458e-05 0 6.9682657199723083e-05 -4.8617708205980641e-05 0 1.1569873795634904e-05 7.3870965209356494e-07 0 1.3394630997642482e-05 5.3078742712698947e-08 0 1.3611574033776922e-05 1.9089761641177107e-06 0 1.3522405428249265e-05 2.3449895002131775e-06 0 1.6723031952352946e-05 4.2159839964473697e-06 0 1.3881334765306968e-05 2.0745341596239098e-06 0 3.6022733466507977e-05 -6.0540881348101894e-05 0 3.6761510437239916e-05 -5.4033181977898695e-05 0 2.9990326073424429e-05 -5.6281001235130235e-05 0 3.1261381447664942e-05 -5.1122451681086321e-05 0 2.9990326073424429e-05 -5.6281001235130235e-05 0 3.6761510437239916e-05 -5.4033181977898695e-05 0 2.8288234736686073e-05 -3.3915534713515642e-05 0 3.4446298087699566e-05 -4.1412079585763885e-05 0 3.5539896842485394e-05 -3.4846529470937178e-05 0 -4.1384357861119219e-05 0.00032417736706165753 0 -7.7746823536540798e-05 0.00032092000123999024 0 -6.4458300373137372e-05 0.00028484624464327689 0 8.1674200706478219e-06 -0.00016613578845388205 0 2.610933330258592e-05 -0.00016251525350613699 0 1.6690205504232979e-05 -0.00014441589380632513 0 2.2892917804138788e-05 -6.0881009500555564e-05 0 2.4443895242603573e-05 -6.5538057278188684e-05 0 2.7838468388256346e-05 -6.4628262914269381e-05 0 5.9253998306827839e-05 -5.8435543861243955e-05 0 5.6948831178259585e-05 -6.7091173866379788e-05 0 7.0173580629625686e-05 -6.3669136970646362e-05 0 3.7469555547039954e-05 0.00032071329243382122 0 -8.253379968726929e-07 0.00030562005806911597 0 2.4559043760479452e-05 0.00027948129871171844 0 -3.1900840991546547e-05 -0.00016689723836235166 0 -1.3560218451017691e-05 -0.00015763375602381672 0 -2.7938592392618926e-05 -0.00014452758997927201 0 5.0518987515828104e-06 1.3179446109255982e-06 0 7.1454385837850692e-06 1.7156817913429656e-06 0 6.7273899429026012e-06 8.2584490208714596e-07 0 9.2245506473402811e-06 1.7492314283874792e-06 0 6.7273899429026012e-06 8.2584490208714596e-07 0 7.1454385837850692e-06 1.7156817913429656e-06 0 4.3477918387457497e-05 0.00024512821600231066 0 2.4559043760479452e-05 0.00027948129871171844 0 1.6187940535323624e-05 0.00024520308568314406 0 -3.9526437923601144e-05 -0.0001269164781016447 0 -2.7938592392618926e-05 -0.00014452758997927201 0 -2.5538176558232263e-05 -0.00012617314281897115 0 -3.2531953684602801e-07 -3.4505935821693662e-06 0 -1.6200662876097885e-06 -2.9972426791704021e-06 0 -3.7859408371690766e-07 -1.9591575318034629e-06 0 -9.6671189753280263e-07 2.6406964047496822e-06 0 -5.5002835280541945e-07 1.4309414857281988e-06 0 -1.5786849212985063e-06 2.0290570048029318e-06 0 9.2644656343556306e-06 7.1279998791686639e-05 0 3.0091570453801526e-05 0.00010301332610896015 0 6.1497098759346967e-06 0.00010737041994862513 0 -3.6900368647220055e-06 -2.9842867219691352e-06 0 -1.6600386936268752e-06 -1.9500174191439708e-06 0 -1.6200662876097881e-06 -2.9972426791704021e-06 0 -3.003683797864119e-06 1.7977766363970705e-06 0 -1.5786849212985063e-06 2.0290570048029318e-06 0 -1.3738006511415104e-06 1.2189609227236937e-06 0 -0.00011130274953769157 0.00028446114350825645 0 -8.3856451661784733e-05 0.00025764860779118671 0 -6.4458300373137372e-05 0.00028484624464327689 0 3.923333399966312e-05 -0.00014060698237280638 0 2.4185526175336594e-05 -0.00012900231047834973 0 1.6690205504232979e-05 -0.00014441589380632513 0 9.9694993333247414e-06 2.9662629340902266e-05 0 -8.994380239284065e-06 3.1315434483043809e-05 0 3.615065928309297e-06 1.9758378088698045e-05 0 -6.5728164152608996e-06 1.4312234565349619e-05 0 3.6150659283092966e-06 1.9758378088698048e-05 0 -8.994380239284065e-06 3.1315434483043809e-05 0 -1.5762283477258075e-05 -6.1848710720852689e-05 0 -1.4909743808318573e-05 -4.2928597419401824e-05 0 -2.3008440685099432e-05 -5.0456712393930074e-05 0 2.4328344787428908e-05 -1.2618326414145638e-05 0 3.0510182413706279e-05 -2.290804445920301e-05 0 3.1914013163404773e-05 -1.7624316930785224e-05 0 -1.6766180883213198e-05 0.0001147345113116704 0 -3.0207641174857013e-05 9.6202666814234876e-05 0 -1.4362409593283539e-05 8.0263383738387746e-05 0 -2.390485118379765e-05 5.1680808369567573e-05 0 -1.4362409593283539e-05 8.0263383738387746e-05 0 -3.2241918282135815e-05 7.626226526114528e-05 0 -1.9675067800151849e-05 -3.0454857946375205e-05 0 -2.4201252791446566e-05 -4.0772310019623195e-05 0 -1.4909743808318573e-05 -4.2928597419401824e-05 0 -4.12888529866872e-06 -3.9213300648452998e-05 0 4.456888900819559e-06 -5.2805776746380066e-05 0 5.2155604345526415e-06 -3.4876045626100218e-05 0 1.7472563988467725e-05 -5.0728724008197029e-05 0 1.3131138775609636e-05 -5.0583244413599508e-05 0 1.7383874132000758e-05 -5.6742640094244061e-05 0 5.1788262384629777e-05 -4.7629796541654685e-05 0 5.9777336138153669e-05 -5.0740848268202458e-05 0 5.5818261308059683e-05 -4.3667366219981167e-05 0 1.5105764817825273e-05 -4.5429207831733392e-06 0 1.3746967026320343e-05 -1.0543566950358529e-05 0 1.7014102561541203e-05 -8.3409083863958073e-06 0 9.5125891003860904e-06 -1.1487942329153255e-05 0 1.1893902365868475e-05 -1.5172243800749937e-05 0 1.3746967026320343e-05 -1.0543566950358529e-05 0 2.036231818367638e-05 6.4793543888441118e-06 0 1.7888664002541558e-05 4.7732842600913692e-06 0 1.8077885969336479e-05 3.2404035444176551e-06 0 3.364564945000009e-06 -2.2230045707435892e-05 0 5.9083158263687256e-06 -1.4426769512688485e-05 0 -2.7670781329041769e-07 -1.7147732560525221e-05 0 3.7469555547039954e-05 0.00032071329243382122 0 5.8328644996194321e-05 0.00028306956780562191 0 7.3810119705252573e-05 0.00031526929999546041 0 -3.1900840991546547e-05 -0.00016689723836235166 0 -4.5048804878370041e-05 -0.00014797848788589764 0 -5.0774934446558535e-05 -0.00016609703086177037 0 1.5690406182498332e-05 2.586036001854178e-06 0 1.8077885969336479e-05 3.2404035444176551e-06 0 1.7888664002541558e-05 4.7732842600913692e-06 0 4.1906591213255003e-05 -3.3885304048297578e-05 0 3.5539896842485394e-05 -3.4846529470937178e-05 0 4.3990597980910046e-05 -3.808995383151874e-05 0 3.1261381447664942e-05 -5.1122451681086321e-05 0 3.6761510437239916e-05 -5.4033181977898695e-05 0 3.2740660443214882e-05 -4.6835376407068954e-05 0 1.6733016988347375e-05 4.3762736528935618e-06 0 1.4973378131008342e-05 3.3430404493331339e-06 0 1.7888664002541558e-05 4.7732842600913692e-06 0 3.1553576190299058e-06 -1.3896182459276957e-06 0 4.9442419512744686e-06 -1.2990178502627669e-06 0 3.0554256577301757e-06 -2.4232395898379653e-06 0 -5.4219622919919338e-05 -5.7699053774850408e-05 0 -5.8397224403757448e-05 -7.324008401104306e-05 0 -4.2139432245659083e-05 -6.225778253049999e-05 0 3.1128251274772119e-06 -3.4862731734164009e-06 0 2.2293318181487589e-06 -3.5803779197339008e-06 0 4.5661780770159348e-06 -2.7105203366331061e-06 0 1.1096161538263494e-05 1.4743510283766845e-06 0 1.2103866817773868e-05 1.2463683709389799e-06 0 9.3604799933088055e-06 1.0273547783875453e-07 0 1.5690406182498332e-05 2.586036001854178e-06 0 1.5109314043932346e-05 -2.9921637124589225e-07 0 1.8077885969336479e-05 3.2404035444176551e-06 0 -9.8395587047045695e-05 0.00014230494709427974 0 -9.1598887391270803e-05 0.00011103890271408481 0 -6.6642800072704624e-05 0.00012147562585181151 0 2.5265479950462421e-06 1.6784520156506939e-06 0 2.5930273053025977e-06 9.8765136597581791e-07 0 1.1052474537330211e-06 7.0040334863464099e-07 0 9.642126584880048e-06 -5.2113399861516536e-07 0 1.3881334765306968e-05 2.0745341596239098e-06 0 1.0644761646550466e-05 3.6658499584758104e-07 0 1.7377137913383198e-05 -2.9176736983689407e-05 0 1.3140412578790947e-05 -2.8338500928523486e-05 0 1.6337893868195821e-05 -3.4607772487232881e-05 0 -2.9226325963931009e-05 -9.759454553706485e-05 0 -4.3234303099382134e-05 -8.9446135714137232e-05 0 -4.59735466360225e-05 -0.00010840918981213209 0 3.1128251274772119e-06 -3.4862731734164009e-06 0 4.5661780770159348e-06 -2.7105203366331061e-06 0 6.2444979899937724e-06 -2.187378147389581e-06 0 5.0518987515828104e-06 1.3179446109255982e-06 0 3.4925479053504616e-06 5.6139313277283805e-07 0 2.5930273053025977e-06 9.8765136597581791e-07 0 7.0711346521317211e-06 -8.132666771556847e-07 0 1.0644761646550466e-05 3.6658499584758104e-07 0 9.6622266099041643e-06 1.6445322515170847e-06 0 9.7947987963960397e-06 -2.5063746677771469e-05 0 1.3140412578790947e-05 -2.8338500928523486e-05 0 1.371823510636697e-05 -2.2503024347385854e-05 0 1.7472563988467725e-05 -5.0728724008197029e-05 0 2.1147542387182354e-05 -5.4622424064471987e-05 0 1.9579658170325295e-05 -4.6933502722716963e-05 0 -1.0337477695126056e-05 -5.2910055199664812e-07 0 -6.2224445338891529e-06 -2.5580034317221932e-06 0 -5.8723344904540334e-06 5.1888999579181407e-07 0 9.9675733584371034e-05 0.00027375841253843882 0 5.8328644996194314e-05 0.00028306956780562191 0 7.1188048555438841e-05 0.00025505051783481853 0 -6.7761785671860311e-05 -0.00014657614929768813 0 -4.5048804878370041e-05 -0.00014797848788589764 0 -5.3622075491667336e-05 -0.00013387452888926135 0 8.6945710888677987e-06 7.592893487634222e-07 0 9.3604799933088055e-06 1.0273547783875453e-07 0 7.1653637468130945e-06 -2.3857403338767683e-07 0 1.1096161538263494e-05 1.4743510283766845e-06 0 9.3604799933088055e-06 1.0273547783875453e-07 0 8.6945710888677987e-06 7.592893487634222e-07 0 -5.8064618740402838e-05 0.00024376328580663222 0 -6.4458300373137372e-05 0.00028484624464327689 0 -8.3856451661784733e-05 0.00025764860779118671 0 1.1048546527554002e-05 -0.00012320585339807184 0 1.6690205504232979e-05 -0.00014441589380632513 0 2.4185526175336594e-05 -0.00012900231047834973 0 9.2245506473402811e-06 1.7492314283874792e-06 0 1.025228995423043e-05 2.4318103524422529e-06 0 1.2061517373374266e-05 2.3783940610683453e-06 0 1.2447734649233159e-05 2.696922218837411e-06 0 1.2061517373374266e-05 2.3783940610683453e-06 0 1.025228995423043e-05 2.4318103524422529e-06 0 9.2245506473402811e-06 1.7492314283874792e-06 0 8.6945710888677987e-06 7.592893487634222e-07 0 6.7273899429026012e-06 8.2584490208714596e-07 0 -8.4154671480620087e-06 1.6681806853889841e-06 0 -7.2235825277958616e-06 1.5812926029925768e-06 0 -5.1089135548058436e-06 2.5908574359061473e-06 0 -1.5411127563614084e-07 -2.7194295238468007e-06 0 -1.8672566965354912e-06 -7.4168825756148562e-06 0 3.0978485242664851e-06 -5.7019214356657776e-06 0 2.0785842548619582e-06 -1.0665817169562432e-05 0 3.0978485242664851e-06 -5.7019214356657776e-06 0 -1.8672566965354912e-06 -7.4168825756148562e-06 0 -8.4154671480620087e-06 1.6681806853889841e-06 0 -5.1089135548058436e-06 2.5908574359061473e-06 0 -5.9064154078332411e-06 2.3418276061170838e-06 0 9.2644656343556306e-06 7.1279998791686639e-05 0 3.1554029558419707e-05 7.3768906083718623e-05 0 3.0091570453801526e-05 0.00010301332610896015 0 -5.1670040381486173e-06 0.00026535742573874452 0 -8.2533799687268824e-07 0.00030562005806911597 0 -2.8644444883303745e-05 0.00028749488612231068 0 -1.3735387512819071e-05 -0.00013617938797082175 0 -1.3560218451017691e-05 -0.00015763375602381672 0 -7.3815281202694879e-07 -0.00014722408035179507 0 7.6331464510729125e-06 1.5763507062180783e-06 0 5.601446511153795e-06 2.6598074193576184e-06 0 5.4649667000811484e-06 1.8054269552654846e-06 0 1.6498701426512694e-09 3.4920854285051561e-10 0 1.1052474537330211e-06 7.0040334863464099e-07 0 2.5930273053025977e-06 9.8765136597581791e-07 0 1.4331109646326986e-05 3.3291399124647398e-06 0 1.9610714936958637e-05 7.5896116018199247e-06 0 1.4009137496445237e-05 6.409612831764892e-06 0 4.1200277917395218e-05 -4.1402807262127202e-05 0 3.5539896842485394e-05 -3.4846529470937178e-05 0 3.4446298087699566e-05 -4.1412079585763885e-05 0 2.8288234736686073e-05 -3.3915534713515642e-05 0 2.273919440731641e-05 -3.0436148105346636e-05 0 2.6020900753204272e-05 -3.6742527224909775e-05 0 6.0025952103276452e-06 2.2401574667292736e-06 0 6.5125218392354735e-06 2.6493149205869825e-06 0 7.9624835970305805e-06 2.2511375578042909e-06 0 -3.1740894403234287e-05 -4.8679156927345121e-05 0 -4.2139432245659083e-05 -6.225778253049999e-05 0 -2.6903913112082107e-05 -6.1221655202184095e-05 0 -3.6357823827228899e-05 -7.2924631746549952e-05 0 -2.6903913112082107e-05 -6.1221655202184095e-05 0 -4.2139432245659083e-05 -6.225778253049999e-05 0 1.7748302228166502e-09 -1.078311034898853e-10 0 1.6498701426513616e-09 3.4920854285053143e-10 0 1.6891730325102904e-06 2.8950461042110564e-07 0 -5.2178440954180702e-05 0.00014323090378906968 0 -6.6642800072704624e-05 0.00012147562585181151 0 -4.0129203882999013e-05 0.00011894735798269359 0 -4.722793823375558e-05 9.3731017716127638e-05 0 -4.0129203882999013e-05 0.00011894735798269359 0 -6.6642800072704624e-05 0.00012147562585181151 0 2.2892917804138788e-05 -6.0881009500555564e-05 0 2.1147542387182354e-05 -5.4622424064471987e-05 0 1.7383874132000758e-05 -5.6742640094244061e-05 0 5.9253998306827839e-05 -5.8435543861243955e-05 0 5.9777336138153669e-05 -5.0740848268202458e-05 0 5.165811464090394e-05 -5.2759321431112901e-05 0 6.5830488329050026e-06 3.9634571086743264e-06 0 9.6622266099041643e-06 1.6445322515170847e-06 0 1.4009137496445237e-05 6.409612831764892e-06 0 2.4812539336176796e-05 -5.3524121373901216e-05 0 2.738827343549337e-05 -5.1418485990767413e-05 0 2.3907777790281268e-05 -4.7498930303380919e-05 0 2.6069041917305792e-05 1.1727357977099823e-05 0 2.9689255667987937e-05 1.5707394791974991e-05 0 2.7245487847301734e-05 1.4802914833932592e-05 0 3.1128251274772119e-06 -3.4862731734164009e-06 0 6.2444979899937724e-06 -2.187378147389581e-06 0 7.0427991739733332e-06 -1.7748855110075528e-06 0 -6.5728164152608996e-06 1.4312234565349619e-05 0 8.209859279250954e-06 1.0765902312305178e-05 0 3.615065928309297e-06 1.9758378088698045e-05 0 6.6115212526218493e-05 0.00010606984913740415 0 5.0231795014695082e-05 0.00012747100114347452 0 3.0091570453801526e-05 0.00010301332610896015 0 7.6331464510729125e-06 1.5763507062180783e-06 0 7.681102542124265e-06 2.4036153334065193e-06 0 5.6014465111537959e-06 2.6598074193576184e-06 0 -5.1670040381486173e-06 0.00026535742573874452 0 2.4559043760479452e-05 0.00027948129871171844 0 -8.253379968726929e-07 0.00030562005806911597 0 -1.3735387512819071e-05 -0.00013617938797082175 0 -2.7938592392618926e-05 -0.00014452758997927201 0 -1.3560218451017691e-05 -0.00015763375602381672 0 4.5855451389647193e-06 2.8946497413915885e-06 0 4.0751565992377556e-06 3.0009420966336278e-06 0 5.6014465111537959e-06 2.6598074193576184e-06 0 8.7465631514812774e-06 -8.7081218155857442e-06 0 7.9895212845000485e-06 -1.25058168126149e-05 0 1.0000765080934225e-05 -8.0612516449696966e-06 0 4.3477918387457497e-05 0.00024512821600231066 0 7.1188048555438841e-05 0.00025505051783481853 0 5.8328644996194314e-05 0.00028306956780562191 0 -3.9526437923601144e-05 -0.0001269164781016447 0 -5.3622075491667336e-05 -0.00013387452888926135 0 -4.5048804878370041e-05 -0.00014797848788589764 0 -2.0775984979940242e-05 -4.6288904009771946e-06 0 -2.603270913138095e-05 -8.6970679352990267e-06 0 -1.9312930475145105e-05 -4.9949738548169047e-06 0 -4.0170220230083549e-05 1.3438763708363767e-05 0 -3.1082222647432573e-05 6.2056000132300417e-06 0 -2.808526687566937e-05 7.0342857579842231e-06 0 9.9694993333247414e-06 2.9662629340902266e-05 0 9.1786803623565268e-06 4.7234090717919364e-05 0 -4.5803841338193487e-06 5.0175164432147673e-05 0 -3.7533978333458131e-06 2.3674642384748478e-06 0 -5.982450059972759e-06 1.0201161521238188e-06 0 -3.5619328325746227e-06 1.0187265572408322e-06 0 2.7980596138952106e-05 -7.07828616157652e-05 0 2.8933678488629553e-05 -6.7763397875015535e-05 0 2.4443895242603573e-05 -6.5538057278188684e-05 0 2.7980596138952106e-05 -7.07828616157652e-05 0 2.4443895242603573e-05 -6.5538057278188684e-05 0 2.141226370080717e-05 -6.781341648982201e-05 0 8.8276987134540931e-05 -6.7688769278384842e-05 0 7.8398265316796206e-05 -5.641306295997422e-05 0 7.0173580629625686e-05 -6.3669136970646362e-05 0 8.8276987134540931e-05 -6.7688769278384842e-05 0 7.0173580629625686e-05 -6.3669136970646362e-05 0 7.4266206659443081e-05 -7.4093622959164854e-05 0 2.2892917804138788e-05 -6.0881009500555564e-05 0 2.5915947018443603e-05 -5.8913775288039683e-05 0 2.1147542387182354e-05 -5.4622424064471987e-05 0 5.9253998306827839e-05 -5.8435543861243955e-05 0 5.165811464090394e-05 -5.2759321431112901e-05 0 5.0359408053335245e-05 -5.9254103847700064e-05 0 5.2886195974121101e-05 -3.3411890989862242e-05 0 5.0965137862192945e-05 -3.8831794869683753e-05 0 5.728076796338789e-05 -3.7963698013237178e-05 0 6.1012883944928491e-06 -4.1181644879954752e-05 0 8.3742797523851516e-06 -4.8650045490539724e-05 0 1.3011136205690482e-05 -4.356638604155761e-05 0 4.3447428511627351e-05 -4.9275391080432561e-06 0 3.5860887624353988e-05 -1.252074689828867e-05 0 4.4785544039042934e-05 -1.6445432179607723e-05 0 3.7469555547039954e-05 0.00032071329243382122 0 7.127211810150212e-05 0.00034951317828093908 0 3.5163696706615253e-05 0.00036012927430453015 0 -4.1384357861119219e-05 0.00032417736706165753 0 -3.4123273245740066e-05 0.00036226331777683185 0 -7.0102430965366096e-05 0.00035513011589203235 0 -3.1900840991546547e-05 -0.00016689723836235166 0 -4.6565531526259962e-05 -0.00018361009984399582 0 -2.8011504678134759e-05 -0.000187359992385458 0 8.1674200706478219e-06 -0.00016613578845388205 0 7.4728357648785802e-06 -0.00018652412338221409 0 2.5767890029282739e-05 -0.00018106756703863247 0 8.2605433819228099e-06 2.4938485607280432e-06 0 7.9624835970305805e-06 2.2511375578042909e-06 0 6.5125218392354735e-06 2.6493149205869825e-06 0 3.7469555547039954e-05 0.00032071329243382122 0 7.3810119705252587e-05 0.00031526929999546041 0 7.1272118101502134e-05 0.00034951317828093908 0 -3.1900840991546547e-05 -0.00016689723836235166 0 -5.0774934446558535e-05 -0.00016609703086177037 0 -4.6565531526259962e-05 -0.00018361009984399582 0 1.5105764817825273e-05 -4.5429207831733392e-06 0 1.7359546678516459e-05 -9.9858975564679993e-07 0 1.5109314043932346e-05 -2.9921637124589225e-07 0 -4.1384357861119219e-05 0.00032417736706165753 0 -7.0102430965366096e-05 0.00035513011589203235 0 -7.7746823536540798e-05 0.00032092000123999024 0 8.1674200706478219e-06 -0.00016613578845388205 0 2.5767890029282739e-05 -0.00018106756703863247 0 2.610933330258592e-05 -0.00016251525350613699 0 5.1679764209805134e-06 -7.1389864893163738e-05 0 1.4385784666085624e-05 -6.193810215166453e-05 0 4.456888900819559e-06 -5.2805776746380066e-05 0 1.0456986304760022e-05 -1.8898919061572141e-05 0 1.371823510636697e-05 -2.2503024347385854e-05 0 1.1893902365868475e-05 -1.5172243800749937e-05 0 1.545785471090321e-05 -1.9158607541701821e-05 0 1.1893902365868475e-05 -1.5172243800749937e-05 0 1.371823510636697e-05 -2.2503024347385854e-05 0 7.0711346521317211e-06 -8.132666771556847e-07 0 2.6585119898677491e-06 -2.8141490879453652e-06 0 7.0427991739733332e-06 -1.7748855110075528e-06 0 -1.6766180883213198e-05 0.0001147345113116704 0 6.1497098759346967e-06 0.00010737041994862513 0 1.9943579946850615e-07 0.0001389784370624152 0 -5.8397224403757448e-05 -7.324008401104306e-05 0 -4.7980313848704022e-05 -7.6914802113334861e-05 0 -4.2139432245659083e-05 -6.225778253049999e-05 0 1.8847124345558977e-05 1.2362650738450611e-05 0 8.2098592792509557e-06 1.0765902312305176e-05 0 1.4009137496445237e-05 6.409612831764892e-06 0 6.5830488329050026e-06 3.9634571086743264e-06 0 1.4009137496445237e-05 6.409612831764892e-06 0 8.2098592792509557e-06 1.0765902312305176e-05 0 1.3522405428249265e-05 2.3449895002131775e-06 0 1.4496615696457315e-05 3.2679938788541132e-06 0 1.6723031952352946e-05 4.2159839964473697e-06 0 2.9133198764583352e-05 -4.2106317929063603e-05 0 3.2740660443214882e-05 -4.6835376407068954e-05 0 3.4446298087699566e-05 -4.1412079585763885e-05 0 3.8842971475948668e-05 -4.8603932373748251e-05 0 3.4446298087699566e-05 -4.1412079585763885e-05 0 3.2740660443214882e-05 -4.6835376407068954e-05 0 -7.2893068162967046e-05 5.8444458526228486e-05 0 -6.1932676176018419e-05 3.8751111402049893e-05 0 -4.9564438846514516e-05 4.3521533715032631e-05 0 -3.7779347012272709e-05 -2.2032697086807489e-05 0 -4.3687675201624467e-05 -3.1840202293150106e-05 0 -3.172936611507058e-05 -2.4133067687016088e-05 0 1.0415403057728124e-09 -6.9590395512483953e-10 0 1.4075871545616393e-09 -5.4802620358701553e-10 0 1.4270703623679777e-06 -1.2278583165621594e-06 0 8.3351687220081147e-10 7.4678552551785527e-10 0 4.9811660030283742e-10 7.4173834214157258e-10 0 7.1162080253959817e-07 1.623965547137031e-06 0 1.4331109646326986e-05 3.3291399124647398e-06 0 1.3881334765306968e-05 2.0745341596239098e-06 0 1.6932355649215366e-05 4.4689530881047568e-06 0 1.6733016988347375e-05 4.3762736528935618e-06 0 1.6723031952352946e-05 4.2159839964473697e-06 0 1.4496615696457315e-05 3.2679938788541132e-06 0 1.3522405428249265e-05 2.3449895002131775e-06 0 1.3881334765306967e-05 2.0745341596239094e-06 0 1.2103866817773868e-05 1.2463683709389799e-06 0 -3.6511685860560402e-06 -4.4616232830797308e-06 0 -7.096278648405377e-06 -4.0154070740875584e-06 0 -5.6901522924689e-06 -3.8155065965222906e-06 0 -3.6790801570573229e-06 2.9228902521380776e-06 0 -4.6280624977714264e-06 2.2668354576211397e-06 0 -5.9064154078332411e-06 2.3418276061170838e-06 0 2.9139955098910686e-05 0.00013757672148114906 0 3.0091570453801526e-05 0.00010301332610896015 0 5.0231795014695082e-05 0.00012747100114347452 0 -3.6511685860560402e-06 -4.4616232830797308e-06 0 -5.6901522924688991e-06 -3.8155065965222898e-06 0 -3.3390895273856513e-06 -3.9191638971215894e-06 0 -3.6790801570573229e-06 2.9228902521380776e-06 0 -3.0480511001433893e-06 2.5305783641956356e-06 0 -4.6280624977714264e-06 2.2668354576211397e-06 0 1.8478171915059924e-05 -4.1300791958112961e-05 0 1.9579658170325295e-05 -4.6933502722716963e-05 0 2.3907777790281268e-05 -4.7498930303380919e-05 0 9.2644656343556306e-06 7.1279998791686639e-05 0 2.1574845527591539e-05 4.2885879483632121e-05 0 3.1554029558419707e-05 7.3768906083718623e-05 0 9.642126584880048e-06 -5.2113399861516536e-07 0 1.2103866817773868e-05 1.2463683709389799e-06 0 1.3881334765306968e-05 2.0745341596239098e-06 0 4.1200277917395218e-05 -4.1402807262127202e-05 0 4.3990597980910046e-05 -3.808995383151874e-05 0 3.5539896842485394e-05 -3.4846529470937178e-05 0 -2.8031652457203148e-10 -9.3917659850538639e-10 0 4.5885541150643531e-10 -1.0329186577824334e-09 0 2.158246158642036e-07 -2.1009136494751693e-06 0 -1.4372791487346497e-11 8.4677271117641103e-10 0 -5.4150898912390496e-10 6.8144003632631083e-10 0 -2.1192471205012662e-07 1.7146010286313959e-06 0 -1.1890253355000843e-05 -2.1511648178356472e-07 0 -1.6209634520631784e-05 -1.8776713565526309e-06 0 -1.1968502177513119e-05 2.0076871992660243e-07 0 -2.3339994659752631e-05 1.7392992154769317e-06 0 -1.6608651660949822e-05 -6.3457845804014081e-07 0 -1.6927495009963621e-05 -1.2270286881858809e-06 0 -6.8098951335412615e-06 -2.0486839975394816e-05 0 -1.3476127418064465e-05 -1.6471643590136088e-05 0 -1.4755390064059174e-05 -2.4217485235877539e-05 0 2.2314541149243153e-05 -5.3087920761254495e-05 0 1.2744000036321918e-05 -4.6730719864654832e-05 0 1.4385784666085627e-05 -6.1938102151664544e-05 0 1.2057926978235232e-05 -3.4856464674681062e-06 0 1.0093719153333067e-05 -5.2285518358157885e-06 0 1.0000765080934225e-05 -8.0612516449696966e-06 0 1.2171348484892958e-05 2.1950056204469994e-06 0 1.4973378131008342e-05 3.3430404493331339e-06 0 1.2447734649233159e-05 2.696922218837411e-06 0 1.3611574033776922e-05 1.9089761641177107e-06 0 1.4973378131008342e-05 3.3430404493331339e-06 0 1.2171348484892958e-05 2.1950056204469994e-06 0 1.997956315449474e-05 6.6968074239344056e-06 0 1.9610714936958637e-05 7.5896116018199247e-06 0 1.6932355649215366e-05 4.4689530881047568e-06 0 1.4331109646326986e-05 3.3291399124647398e-06 0 1.6932355649215366e-05 4.4689530881047568e-06 0 1.9610714936958637e-05 7.5896116018199247e-06 0 4.4663853019703127e-05 -5.3669104659681465e-05 0 4.1421940190717708e-05 -5.9517942653438217e-05 0 5.0359408053335245e-05 -5.9254103847700064e-05 0 4.3455550646752047e-06 -2.6123495622478222e-05 0 9.794798796396038e-06 -2.5063746677771469e-05 0 7.6839790306683141e-06 -2.0836933303739127e-05 0 8.7465631514812774e-06 -8.7081218155857442e-06 0 8.3694450068896741e-06 -1.2897884425283586e-05 0 7.9895212845000485e-06 -1.25058168126149e-05 0 9.6091273630194677e-06 -1.8574977599517321e-05 0 7.9895212845000485e-06 -1.2505816812614902e-05 0 8.3694450068896741e-06 -1.2897884425283586e-05 0 -8.068777720581889e-06 5.2876954308885987e-07 0 -1.1890253355000844e-05 -2.1511648178356496e-07 0 -9.503542157735954e-06 9.9395647291237138e-07 0 -1.6608651660949822e-05 -6.3457845804014081e-07 0 -1.097151878286797e-05 -1.5859987853490225e-06 0 -1.3049421668575526e-05 -2.3110335217215373e-06 0 4.0809811327554539e-05 -7.2579035805293461e-05 0 4.9508946970604113e-05 -7.4941722681437181e-05 0 4.1072890831240428e-05 -6.6473477786722579e-05 0 8.2098592792509557e-06 1.0765902312305176e-05 0 1.3779529292886031e-05 1.7529170046634327e-05 0 3.615065928309297e-06 1.9758378088698045e-05 0 9.2245506473402811e-06 1.7492314283874792e-06 0 1.1096161538263494e-05 1.4743510283766843e-06 0 8.6945710888677987e-06 7.592893487634222e-07 0 -1.6200662876097881e-06 -2.9972426791704021e-06 0 -1.8503779988489622e-06 -4.0964727584585516e-06 0 -3.3390895273856513e-06 -3.9191638971215894e-06 0 -1.5786849212985063e-06 2.0290570048029318e-06 0 -3.0480511001433897e-06 2.5305783641956356e-06 0 -2.1694370993619917e-06 2.8491422495607835e-06 0 4.5855451389647193e-06 2.8946497413915885e-06 0 2.6223846745823506e-06 3.1747881864255805e-06 0 4.0751565992377556e-06 3.0009420966336278e-06 0 1.2057926978235232e-05 -3.4856464674681062e-06 0 1.3514507771265967e-05 -3.73563575363587e-06 0 1.5109314043932346e-05 -2.9921637124589225e-07 0 5.1788262384629777e-05 -4.7629796541654685e-05 0 4.4427243271109224e-05 -4.6618874971209452e-05 0 5.165811464090394e-05 -5.2759321431112901e-05 0 2.9847348662600514e-06 3.0418817482067208e-06 0 4.0751565992377547e-06 3.0009420966336278e-06 0 2.6223846745823506e-06 3.1747881864255805e-06 0 -0.00010724637558582983 0.00021117418538972338 0 -7.1820765125523553e-05 0.00019213067203652749 0 -7.9903093766823757e-05 0.00022520810836665304 0 3.26084115039159e-05 -0.00010318238444575664 0 1.5184190918218022e-05 -9.5980499217133478e-05 0 2.047302191538381e-05 -0.00011244573432902224 0 2.9459401252770217e-05 -8.570873008912006e-05 0 1.5717883710588409e-05 -7.9680554515175161e-05 0 1.5184190918218022e-05 -9.5980499217133478e-05 0 1.7973874971618486e-05 -1.4147064102797122e-05 0 1.7014102561541203e-05 -8.3409083863958073e-06 0 1.3746967026320343e-05 -1.0543566950358529e-05 0 4.3455550646752047e-06 -2.6123495622478222e-05 0 8.6056444409413286e-06 -3.0369404631792468e-05 0 9.7947987963960397e-06 -2.5063746677771469e-05 0 7.6331464510729125e-06 1.5763507062180783e-06 0 7.8416081675088594e-06 -7.6979587893840663e-07 0 9.3882516009053598e-06 5.7944089546766724e-07 0 1.5105764817825273e-05 -4.5429207831733392e-06 0 1.5109314043932346e-05 -2.9921637124589225e-07 0 1.3514507771265967e-05 -3.7356357536358696e-06 0 0.00011446115632344369 0.00034716328033609949 0 9.2578086495156164e-05 0.00036870125955911105 0 7.1272118101502134e-05 0.00034951317828093908 0 -6.8384379833014272e-05 -0.00018636508603758639 0 -5.5247961159398662e-05 -0.00019477543042955631 0 -4.6565531526259962e-05 -0.00018361009984399582 0 4.7697780997124456e-05 -0.00017987318886671054 0 2.5767890029282732e-05 -0.00018106756703863247 0 3.7104123329109392e-05 -0.00019119075154082736 0 -0.00011206977738241702 0.00036030161120625384 0 -7.0102430965366096e-05 0.00035513011589203235 0 -8.6828315036019193e-05 0.00037647258009613154 0 1.1569873795634904e-05 7.3870965209356494e-07 0 9.9207664099484511e-06 1.7933040080099482e-06 0 9.3882516009053598e-06 5.7944089546766724e-07 0 7.6331464510729125e-06 1.5763507062180783e-06 0 9.3882516009053598e-06 5.7944089546766724e-07 0 9.9207664099484511e-06 1.7933040080099482e-06 0 6.0678064372850707e-06 -3.925841348120738e-06 0 7.8416081675088577e-06 -7.697958789384061e-07 0 5.8570766243292952e-06 -1.1977580619934301e-06 0 -2.4228091549325235e-05 1.030242411716151e-05 0 -2.808526687566937e-05 7.0342857579842231e-06 0 -1.6108533241017777e-05 2.8350007378516145e-06 0 -2.1394033194531819e-05 1.4905049187468673e-06 0 -1.6108533241017777e-05 2.8350007378516137e-06 0 -2.808526687566937e-05 7.0342857579842231e-06 0 6.5830488329050026e-06 3.9634571086743264e-06 0 1.0298042206700721e-07 1.7348751116054263e-06 0 4.4268604817392751e-06 -1.8393200840912712e-07 0 -1.5411127563614084e-07 -2.7194295238468007e-06 0 2.0409741564675786e-06 2.7071266234720658e-07 0 -9.4759617712672242e-07 5.7740275984950959e-07 0 8.7465631514812774e-06 -8.7081218155857442e-06 0 6.7493161317682268e-06 -8.733559202889314e-06 0 8.3694450068896741e-06 -1.2897884425283586e-05 0 -3.6790801570573229e-06 2.9228902521380776e-06 0 -1.4674732548311762e-06 3.29506935896409e-06 0 -2.1694370993619917e-06 2.8491422495607835e-06 0 -9.6671189753280263e-07 2.6406964047496822e-06 0 -2.1694370993619917e-06 2.8491422495607835e-06 0 -1.4674732548311762e-06 3.2950693589640904e-06 0 -3.2531953684602801e-07 -3.4505935821693662e-06 0 -3.9036270860918232e-09 -4.2670360552458776e-06 0 -1.8503779988489624e-06 -4.0964727584585516e-06 0 -3.6511685860560402e-06 -4.4616232830797308e-06 0 -1.8503779988489624e-06 -4.0964727584585516e-06 0 -3.9036270860918232e-09 -4.2670360552458776e-06 0 -3.6357823827228899e-05 -7.2924631746549952e-05 0 -4.3234303099382141e-05 -8.9446135714137232e-05 0 -2.946086230460348e-05 -8.263051849690329e-05 0 -2.9226325963931009e-05 -9.759454553706485e-05 0 -2.946086230460348e-05 -8.263051849690329e-05 0 -4.3234303099382141e-05 -8.9446135714137232e-05 0 9.2689493440021292e-07 -1.9356647972722572e-06 0 1.4270703623679777e-06 -1.2278583165621594e-06 0 3.0554256577301757e-06 -2.4232395898379653e-06 0 3.1553576190299058e-06 -1.3896182459276957e-06 0 3.0554256577301757e-06 -2.4232395898379653e-06 0 1.4270703623679777e-06 -1.2278583165621594e-06 0 1.7700027483766082e-06 2.4582321562655577e-06 0 7.1162080253959817e-07 1.623965547137031e-06 0 1.1410316231816244e-06 2.7944604183166953e-06 0 2.7209380188702981e-07 1.8717178003752957e-06 0 1.1410316231816244e-06 2.7944604183166953e-06 0 7.1162080253959817e-07 1.623965547137031e-06 0 -5.1670040381486173e-06 0.00026535742573874452 0 1.6187940535323624e-05 0.00024520308568314406 0 2.4559043760479452e-05 0.00027948129871171844 0 -1.3735387512819071e-05 -0.00013617938797082175 0 -2.5538176558232266e-05 -0.00012617314281897115 0 -2.7938592392618926e-05 -0.00014452758997927201 0 -5.1208052470929068e-07 3.2489038505596797e-06 0 -1.4140494857968993e-07 3.3319756891875897e-06 0 -1.4674732548311762e-06 3.2950693589640904e-06 0 3.1128251274772119e-06 -3.4862731734164009e-06 0 -3.9036270860918232e-09 -4.2670360552458776e-06 0 2.2293318181487589e-06 -3.5803779197339008e-06 0 -1.5411127563614084e-07 -2.7194295238468007e-06 0 3.0978485242664851e-06 -5.7019214356657776e-06 0 3.7344074329375757e-06 -2.0300372906969002e-06 0 -3.6790801570573229e-06 2.9228902521380776e-06 0 -2.7153765815580401e-06 3.0567925426388657e-06 0 -1.4674732548311762e-06 3.2950693589640904e-06 0 -3.6511685860560402e-06 -4.4616232830797308e-06 0 -3.9036270860918232e-09 -4.2670360552458776e-06 0 -1.4001539067112102e-06 -4.3087196816260629e-06 0 9.6091273630194677e-06 -1.8574977599517321e-05 0 7.1286677208695435e-06 -1.4200110323515669e-05 0 7.9895212845000485e-06 -1.25058168126149e-05 0 7.6331464510729125e-06 1.5763507062180783e-06 0 6.4296325783242176e-06 5.3934134896873351e-07 0 7.8416081675088594e-06 -7.6979587893840663e-07 0 -8.7661070516638342e-10 -1.454426840330806e-09 0 -2.8031652457203148e-10 -9.3917659850538639e-10 0 -3.7859408371690766e-07 -1.9591575318034629e-06 0 -5.4150898912390496e-10 6.8144003632631083e-10 0 -8.7488856409810035e-10 9.7650306068070644e-10 0 -5.5002835280541945e-07 1.4309414857281988e-06 0 1.8847124345558977e-05 1.2362650738450611e-05 0 1.4009137496445237e-05 6.409612831764892e-06 0 1.9610714936958637e-05 7.5896116018199247e-06 0 3.6022733466507977e-05 -6.0540881348101894e-05 0 3.6179679558831116e-05 -6.6470463105647003e-05 0 4.1072890831240428e-05 -6.6473477786722579e-05 0 -1.5411127563614084e-07 -2.7194295238468007e-06 0 -3.7217359677428487e-06 -1.4519074847480642e-06 0 -5.254072147299588e-06 -4.9391409705622029e-06 0 4.456888900819559e-06 -5.2805776746380066e-05 0 1.4385784666085627e-05 -6.1938102151664544e-05 0 1.2744000036321918e-05 -4.6730719864654832e-05 0 1.1569873795634904e-05 7.3870965209356494e-07 0 1.2171348484892958e-05 2.1950056204469994e-06 0 9.9207664099484511e-06 1.7933040080099482e-06 0 9.3885846120622415e-06 -3.1056432411589546e-06 0 9.9314523839558473e-06 -8.6377515825585994e-07 0 7.8416081675088594e-06 -7.6979587893840663e-07 0 -3.6900368647220055e-06 -2.9842867219691352e-06 0 -6.1050679458877069e-06 -2.4884676404521012e-06 0 -2.7933942937826252e-06 -1.513970071554833e-06 0 -3.003683797864119e-06 1.7977766363970705e-06 0 -2.1689644739161124e-06 8.1752302189503206e-07 0 -4.658284862890287e-06 1.3016493216719509e-06 0 2.0785842548619582e-06 -1.0665817169562432e-05 0 5.9083158263687247e-06 -1.4426769512688486e-05 0 6.7493161317682268e-06 -8.733559202889314e-06 0 1.2447734649233159e-05 2.696922218837411e-06 0 9.992239205557709e-06 2.400206690562378e-06 0 1.2171348484892958e-05 2.1950056204469994e-06 0 4.5674397561955845e-06 3.965783715997882e-07 0 2.0409741564675786e-06 2.7071266234720647e-07 0 3.7344074329375757e-06 -2.0300372906969002e-06 0 -1.7037149899231065e-05 -6.4082952954478929e-06 0 -1.6057768232471326e-05 -1.0812797507232346e-05 0 -1.0902873880377597e-05 -6.2254481302932738e-06 0 -0.00010370765260999303 0.00017606344833525066 0 -7.5475373946164363e-05 0.00016101875074369315 0 -7.1820765125523553e-05 0.00019213067203652749 0 2.0785842548619582e-06 -1.0665817169562432e-05 0 -1.8672566965354912e-06 -7.4168825756148562e-06 0 -4.3718800999638959e-06 -1.2761895307938681e-05 0 1.3746967026320343e-05 -1.0543566950358529e-05 0 1.1893902365868475e-05 -1.5172243800749937e-05 0 1.5345241387865289e-05 -1.5054761446916232e-05 0 -1.5411127563614084e-07 -2.7194295238468007e-06 0 -5.254072147299588e-06 -4.9391409705622029e-06 0 -1.8672566965354912e-06 -7.4168825756148562e-06 0 9.9207664099484511e-06 1.7933040080099482e-06 0 1.2171348484892958e-05 2.1950056204469994e-06 0 9.992239205557709e-06 2.400206690562378e-06 0 1.0456986304760022e-05 -1.8898919061572141e-05 0 7.6839790306683141e-06 -2.0836933303739127e-05 0 9.7947987963960397e-06 -2.5063746677771469e-05 0 1.8847124345558977e-05 1.2362650738450611e-05 0 2.7245487847301734e-05 1.4802914833932592e-05 0 2.3699105479178886e-05 2.1107242711861439e-05 0 -1.5411127563614084e-07 -2.7194295238468007e-06 0 -9.4759617712672295e-07 5.7740275984950938e-07 0 -3.7217359677428487e-06 -1.4519074847480642e-06 0 -0.00010979076292163178 0.00024737198845072722 0 -0.00010724637558582983 0.00021117418538972338 0 -7.9903093766823757e-05 0.00022520810836665304 0 3.26084115039159e-05 -0.00010318238444575664 0 2.047302191538381e-05 -0.00011244573432902224 0 3.5841575375136985e-05 -0.0001214858987118903 0 2.6105486731989936e-05 -6.9043041749591532e-05 0 1.5717883710588409e-05 -7.9680554515175161e-05 0 2.9459401252770217e-05 -8.570873008912006e-05 0 -6.5728164152608996e-06 1.4312234565349619e-05 0 -2.195329014535694e-05 1.7632594638646987e-05 0 -1.5058824440341504e-05 9.1856387694467278e-06 0 4.3447428511627351e-05 -4.9275391080432561e-06 0 3.0582142872051429e-05 4.585881099937661e-06 0 3.5860887624353988e-05 -1.252074689828867e-05 0 -1.7037149899231065e-05 -6.4082952954478929e-06 0 -1.9312930475145105e-05 -4.9949738548169047e-06 0 -2.3415144491686752e-05 -8.6320882321611366e-06 0 -2.4228091549325235e-05 1.030242411716151e-05 0 -3.5192949177231989e-05 1.3372565936969339e-05 0 -2.808526687566937e-05 7.0342857579842231e-06 0 -1.7037149899231065e-05 -6.4082952954478929e-06 0 -2.3415144491686752e-05 -8.6320882321611366e-06 0 -2.357254604672922e-05 -1.1979783940502147e-05 0 -2.4228091549325235e-05 1.030242411716151e-05 0 -3.5062786945424593e-05 1.9625581730553207e-05 0 -3.5192949177231989e-05 1.3372565936969339e-05 0 -3.003683797864119e-06 1.7977766363970705e-06 0 -1.3738006511415104e-06 1.2189609227236937e-06 0 -2.1689644739161124e-06 8.1752302189503206e-07 0 -3.6900368647220055e-06 -2.9842867219691352e-06 0 -2.7933942937826252e-06 -1.513970071554833e-06 0 -1.6600386936268752e-06 -1.9500174191439708e-06 0 9.3885846120622415e-06 -3.1056432411589546e-06 0 7.991190165075156e-06 -5.7960509226269576e-06 0 1.0093719153333067e-05 -5.2285518358157885e-06 0 8.7465631514812774e-06 -8.7081218155857442e-06 0 1.0093719153333067e-05 -5.2285518358157885e-06 0 7.991190165075156e-06 -5.7960509226269576e-06 0 8.3742797523851516e-06 -4.8650045490539724e-05 0 1.3131138775609636e-05 -5.0583244413599508e-05 0 1.3011136205690482e-05 -4.356638604155761e-05 0 5.728076796338789e-05 -3.7963698013237178e-05 0 5.0965137862192945e-05 -3.8831794869683753e-05 0 5.5818261308059683e-05 -4.3667366219981167e-05 0 4.4785544039042934e-05 -1.6445432179607723e-05 0 3.5860887624353988e-05 -1.252074689828867e-05 0 4.0356580990983748e-05 -2.1788362982323163e-05 0 5.2886195974121101e-05 -3.3411890989862242e-05 0 4.7499629767190498e-05 -3.3517575707211197e-05 0 5.0965137862192945e-05 -3.8831794869683753e-05 0 6.1012883944928491e-06 -4.1181644879954752e-05 0 1.3011136205690482e-05 -4.356638604155761e-05 0 9.7938989805019387e-06 -3.6591386283208093e-05 0 -1.5411127563614084e-07 -2.7194295238468007e-06 0 3.7344074329375762e-06 -2.0300372906968997e-06 0 2.0409741564675786e-06 2.7071266234720658e-07 0 6.0678064372850707e-06 -3.925841348120738e-06 0 6.7493161317682268e-06 -8.733559202889314e-06 0 7.991190165075156e-06 -5.7960509226269576e-06 0 8.7465631514812774e-06 -8.7081218155857442e-06 0 7.991190165075156e-06 -5.7960509226269576e-06 0 6.7493161317682268e-06 -8.733559202889314e-06 0 1.1569873795634904e-05 7.3870965209356494e-07 0 1.1144493345940069e-05 -1.8887670455554827e-06 0 1.3394630997642482e-05 5.3078742712698947e-08 0 -0.00010370765260999303 0.00017606344833525066 0 -9.8395587047045695e-05 0.00014230494709427974 0 -7.5475373946164363e-05 0.00016101875074369315 0 1.5105764817825273e-05 -4.5429207831733392e-06 0 1.3514507771265967e-05 -3.7356357536358692e-06 0 1.2035061394734234e-05 -6.9939998517612953e-06 0 9.9694993333247414e-06 2.9662629340902266e-05 0 1.3779529292886033e-05 1.7529170046634327e-05 0 2.3699105479178886e-05 2.1107242711861439e-05 0 1.8847124345558977e-05 1.2362650738450611e-05 0 2.3699105479178886e-05 2.1107242711861439e-05 0 1.3779529292886031e-05 1.7529170046634327e-05 0 2.2314541149243153e-05 -5.3087920761254495e-05 0 1.4385784666085627e-05 -6.1938102151664544e-05 0 2.6105486731989936e-05 -6.9043041749591532e-05 0 -5.0658115683112078e-05 2.3722331632237362e-05 0 -3.5192949177231989e-05 1.3372565936969339e-05 0 -3.5062786945424593e-05 1.9625581730553207e-05 0 -3.1788470122567219e-05 -1.4296224034009712e-05 0 -2.357254604672922e-05 -1.1979783940502147e-05 0 -2.3415144491686752e-05 -8.6320882321611366e-06 0 1.2057926978235232e-05 -3.4856464674681062e-06 0 1.2035061394734234e-05 -6.9939998517612944e-06 0 1.3514507771265967e-05 -3.7356357536358696e-06 0 -3.6404404986610557e-05 0.00019133191279779974 0 -7.1820765125523553e-05 0.00019213067203652749 0 -5.2668357659261201e-05 0.00016692121971862925 0 -3.6404404986610557e-05 0.00019133191279779974 0 -5.5675782785400767e-05 0.00021482956776233591 0 -7.1820765125523553e-05 0.00019213067203652749 0 -6.1099542626667878e-07 -9.6769523171078882e-05 0 8.7255043118988212e-06 -0.00010806879217064418 0 1.5184190918218022e-05 -9.5980499217133478e-05 0 -6.1099542626667878e-07 -9.6769523171078882e-05 0 1.5184190918218022e-05 -9.5980499217133465e-05 0 6.2148489156723611e-06 -8.5317061327982877e-05 0 3.5841575375136985e-05 -0.0001214858987118903 0 2.4185526175336594e-05 -0.00012900231047834973 0 3.923333399966312e-05 -0.00014060698237280638 0 -0.00011130274953769157 0.00028446114350825645 0 -0.00010979076292163178 0.00024737198845072722 0 -8.3856451661784733e-05 0.00025764860779118671 0 6.668358360816023e-07 3.231765403868374e-06 0 -4.6677195184037715e-08 2.9410365550058856e-06 0 -1.4140494857969014e-07 3.3319756891875897e-06 0 2.7309664516128708e-06 -3.1389738288072108e-06 0 2.2293318181487589e-06 -3.5803779197339008e-06 0 1.1687956389759139e-06 -3.2513342626998357e-06 0 -6.1099542626667878e-07 -9.6769523171078882e-05 0 -1.1572224573886956e-05 -9.7549094786206266e-05 0 -2.208031234130711e-06 -0.00011204354429079619 0 -6.1099542626667878e-07 -9.6769523171078882e-05 0 -4.1591094944467155e-06 -8.2999848806306094e-05 0 -1.1572224573886956e-05 -9.7549094786206266e-05 0 -1.6690832570147903e-05 -0.00011459479339676691 0 -2.208031234130711e-06 -0.00011204354429079619 0 -1.1572224573886956e-05 -9.7549094786206266e-05 0 -1.6787306743368377e-05 -8.2307750787244871e-05 0 -1.1572224573886956e-05 -9.7549094786206266e-05 0 -4.1591094944467155e-06 -8.2999848806306094e-05 0 -3.6404404986610557e-05 0.00019133191279779974 0 -1.2050634941544269e-05 0.00019383592715084959 0 -3.2655850852422784e-05 0.00022290486676680761 0 -3.3740124975121146e-06 0.00022265887199776369 0 -3.2655850852422784e-05 0.00022290486676680761 0 -1.2050634941544269e-05 0.00019383592715084959 0 -5.4150898912390496e-10 6.8144003632631083e-10 0 -5.5002835280541945e-07 1.4309414857281988e-06 0 -2.1192471205012662e-07 1.7146010286313959e-06 0 -2.8031652457203148e-10 -9.3917659850538639e-10 0 2.158246158642036e-07 -2.1009136494751693e-06 0 -3.7859408371690766e-07 -1.9591575318034629e-06 0 -3.2849413551386254e-05 -3.5175561197078474e-05 0 -2.3161002055284166e-05 -2.4321828745813155e-05 0 -3.172936611507058e-05 -2.4133067687016088e-05 0 -5.0443724663302047e-05 6.4342763366284398e-05 0 -4.9564438846514516e-05 4.3521533715032631e-05 0 -3.5158055741684446e-05 4.2448073452199771e-05 0 -9.7944969948445146e-06 -2.9864700149769069e-07 0 -1.4392739094522125e-05 -2.9483103383144803e-06 0 -1.1384112584307299e-05 -3.1008627656884063e-06 0 8.2605433819228099e-06 2.4938485607280432e-06 0 7.681102542124265e-06 2.4036153334065197e-06 0 9.992239205557709e-06 2.400206690562378e-06 0 4.7131507829832791e-05 -6.3734230956321095e-05 0 5.0359408053335245e-05 -5.9254103847700064e-05 0 4.1421940190717708e-05 -5.9517942653438217e-05 0 -1.0950544350960062e-05 -3.1674620990749163e-06 0 -1.2888846490718746e-05 -1.8453661611851431e-06 0 -1.6927495009963621e-05 -1.2270286881858809e-06 0 -2.1394033194531819e-05 1.4905049187468673e-06 0 -1.6927495009963621e-05 -1.2270286881858809e-06 0 -1.2888846490718748e-05 -1.8453661611851429e-06 0 7.1653637468130945e-06 -2.3857403338767683e-07 0 4.9442419512744686e-06 -1.2990178502627669e-06 0 4.2839781078176886e-06 -6.6681494996474271e-07 0 4.6607182226307567e-05 -2.3509755361441315e-05 0 4.2638901458592757e-05 -2.871087958818145e-05 0 4.9455607939311834e-05 -2.8727617118309295e-05 0 -3.1788470122567219e-05 -1.4296224034009712e-05 0 -2.9537224494181893e-05 -1.7710218245402851e-05 0 -2.357254604672922e-05 -1.1979783940502147e-05 0 -5.0658115683112078e-05 2.3722331632237362e-05 0 -3.5062786945424587e-05 1.9625581730553207e-05 0 -4.6126874147065895e-05 3.0095064376922266e-05 0 6.4120427985815188e-06 -1.5337083249300847e-05 0 8.0807620785484094e-06 -1.524721947365815e-05 0 7.1286677208695435e-06 -1.4200110323515669e-05 0 -3.6511685860560402e-06 -4.4616232830797308e-06 0 -1.4001539067112102e-06 -4.3087196816260629e-06 0 -6.1488550633516998e-06 -4.0155256291079777e-06 0 -1.6216201600395447e-06 -3.3158171814533664e-06 0 -6.1488550633516998e-06 -4.0155256291079777e-06 0 -1.4001539067112102e-06 -4.3087196816260629e-06 0 9.2644656343556306e-06 7.1279998791686639e-05 0 9.1786803623565268e-06 4.7234090717919371e-05 0 2.1574845527591539e-05 4.2885879483632121e-05 0 -1.6608651660949822e-05 -6.3457845804014081e-07 0 -1.3049421668575526e-05 -2.3110335217215373e-06 0 -1.6927495009963621e-05 -1.2270286881858809e-06 0 -1.1890253355000843e-05 -2.1511648178356472e-07 0 -1.1968502177513119e-05 2.0076871992660243e-07 0 -9.503542157735954e-06 9.9395647291237138e-07 0 2.9133198764583352e-05 -4.2106317929063603e-05 0 2.6020900753204272e-05 -3.6742527224909775e-05 0 2.4229707908892433e-05 -4.2025742994744565e-05 0 2.1282493557894536e-05 -3.578124881665283e-05 0 2.4229707908892433e-05 -4.2025742994744565e-05 0 2.6020900753204272e-05 -3.6742527224909775e-05 0 1.1569873795634904e-05 7.3870965209356494e-07 0 1.3611574033776922e-05 1.9089761641177107e-06 0 1.2171348484892958e-05 2.1950056204469994e-06 0 6.5830488329050026e-06 3.9634571086743264e-06 0 4.4268604817392743e-06 -1.8393200840912765e-07 0 9.6622266099041643e-06 1.6445322515170847e-06 0 1.3522405428249265e-05 2.3449895002131775e-06 0 1.2061517373374266e-05 2.3783940610683453e-06 0 1.4496615696457315e-05 3.2679938788541132e-06 0 9.9694993333247414e-06 2.9662629340902266e-05 0 2.1574845527591539e-05 4.2885879483632121e-05 0 9.1786803623565285e-06 4.7234090717919364e-05 0 -1.7037149899231065e-05 -6.4082952954478929e-06 0 -1.0902873880377597e-05 -6.2254481302932738e-06 0 -1.1384112584307299e-05 -3.1008627656884063e-06 0 4.5674397561955845e-06 3.965783715997882e-07 0 5.4649667000811484e-06 1.8054269552654846e-06 0 3.0991177075234796e-06 2.16314936287644e-06 0 6.6115212526218493e-05 0.00010606984913740415 0 7.3841794017240141e-05 0.00013813162478728075 0 5.0231795014695082e-05 0.00012747100114347452 0 -6.1854250355212223e-05 -9.0184877528929597e-05 0 -4.3234303099382141e-05 -8.9446135714137232e-05 0 -4.7980313848704022e-05 -7.6914802113334861e-05 0 -5.0658115683112078e-05 2.3722331632237362e-05 0 -4.0170220230083549e-05 1.3438763708363767e-05 0 -3.5192949177231989e-05 1.3372565936969339e-05 0 -2.603270913138095e-05 -8.6970679352990267e-06 0 -3.1788470122567219e-05 -1.4296224034009712e-05 0 -2.3415144491686752e-05 -8.6320882321611366e-06 0 1.5109314043932346e-05 -2.9921637124589225e-07 0 1.7359546678516459e-05 -9.9858975564679993e-07 0 1.8077885969336479e-05 3.2404035444176551e-06 0 -3.6511685860560402e-06 -4.4616232830797308e-06 0 -6.1488550633516998e-06 -4.0155256291079777e-06 0 -7.096278648405377e-06 -4.0154070740875584e-06 0 -1.0950544350960062e-05 -3.1674620990749163e-06 0 -7.096278648405377e-06 -4.0154070740875584e-06 0 -6.1488550633516998e-06 -4.0155256291079777e-06 0 1.997956315449474e-05 6.6968074239344056e-06 0 2.3321253683674882e-05 1.0032022540420254e-05 0 1.9610714936958637e-05 7.5896116018199247e-06 0 -4.59735466360225e-05 -0.00010840918981213209 0 -4.3234303099382141e-05 -8.9446135714137232e-05 0 -5.3871149513266866e-05 -9.9196394699560149e-05 0 1.2313413563841737e-05 -3.3468511110934526e-05 0 1.6337893868195821e-05 -3.4607772487232881e-05 0 1.3140412578790947e-05 -2.8338500928523486e-05 0 9.320003225854321e-05 0.00023848426687305104 0 9.9675733584371034e-05 0.00027375841253843882 0 7.1188048555438841e-05 0.00025505051783481853 0 -6.6594149009174052e-05 -0.00012715407248967329 0 -6.7761785671860311e-05 -0.00014657614929768813 0 -5.3622075491667336e-05 -0.00013387452888926135 0 -6.5728164152608996e-06 1.4312234565349619e-05 0 1.0417841739817921e-06 7.0964030264189206e-06 0 8.2098592792509557e-06 1.0765902312305176e-05 0 2.0785842548619582e-06 -1.0665817169562432e-05 0 -2.7670781329041769e-07 -1.7147732560525221e-05 0 5.9083158263687256e-06 -1.4426769512688485e-05 0 -8.492907618756718e-06 -9.5378943639239255e-06 0 -4.3718800999638959e-06 -1.2761895307938681e-05 0 -1.8672566965354912e-06 -7.4168825756148562e-06 0 -0.00010979076292163178 0.00024737198845072722 0 -7.9903093766823757e-05 0.00022520810836665304 0 -8.3856451661784733e-05 0.00025764860779118671 0 3.5841575375136985e-05 -0.0001214858987118903 0 2.047302191538381e-05 -0.00011244573432902224 0 2.4185526175336594e-05 -0.00012900231047834973 0 8.5332312669044311e-07 1.7752805335763297e-06 0 1.1446516446359169e-06 2.8747203776235487e-06 0 -1.338912481356156e-06 2.5019543954476071e-06 0 1.8847124345558977e-05 1.2362650738450611e-05 0 1.3779529292886031e-05 1.7529170046634327e-05 0 8.2098592792509557e-06 1.0765902312305176e-05 0 -1.7037149899231065e-05 -6.4082952954478929e-06 0 -1.4392739094522123e-05 -2.9483103383144799e-06 0 -1.9312930475145105e-05 -4.9949738548169047e-06 0 5.0187200792077742e-06 -1.9812545666925825e-05 0 4.3455550646752047e-06 -2.6123495622478222e-05 0 7.6839790306683141e-06 -2.0836933303739127e-05 0 -3.7533978333458131e-06 2.3674642384748478e-06 0 -5.1089135548058436e-06 2.5908574359061469e-06 0 -7.2235825277958616e-06 1.5812926029925768e-06 0 -5.8397224403757448e-05 -7.324008401104306e-05 0 -6.1854250355212223e-05 -9.0184877528929597e-05 0 -4.7980313848704022e-05 -7.6914802113334861e-05 0 -1.440741760734311e-05 -1.4313833817377834e-06 0 -1.0406950875548761e-05 5.5301730196676361e-07 0 -1.1968502177513119e-05 2.0076871992660243e-07 0 -8.4154671480620087e-06 1.6681806853889841e-06 0 -1.1968502177513119e-05 2.0076871992660243e-07 0 -1.0406950875548761e-05 5.5301730196676361e-07 0 -5.2178440954180702e-05 0.00014323090378906968 0 -2.8617634616662745e-05 0.00014864236156212436 0 -5.2668357659261201e-05 0.00016692121971862925 0 9.2689493440021292e-07 -1.9356647972722572e-06 0 1.1687956389759139e-06 -3.2513342626998357e-06 0 2.158246158642036e-07 -2.1009136494751693e-06 0 -3.2531953684602801e-07 -3.4505935821693662e-06 0 2.158246158642036e-07 -2.1009136494751693e-06 0 1.1687956389759139e-06 -3.2513342626998357e-06 0 -9.6671189753280263e-07 2.6406964047496822e-06 0 -4.6677195184037695e-08 2.9410365550058856e-06 0 -2.1192471205012662e-07 1.7146010286313959e-06 0 2.7209380188702981e-07 1.8717178003752957e-06 0 -2.1192471205012662e-07 1.7146010286313959e-06 0 -4.6677195184037695e-08 2.9410365550058856e-06 0 6.0678064372850707e-06 -3.925841348120738e-06 0 3.7344074329375762e-06 -2.0300372906969002e-06 0 3.0978485242664851e-06 -5.7019214356657776e-06 0 1.9912183518955869e-05 -6.3808243663407982e-06 0 1.7014102561541203e-05 -8.3409083863958073e-06 0 2.1153580269972652e-05 -1.3334906833017144e-05 0 1.7973874971618486e-05 -1.4147064102797122e-05 0 2.1153580269972652e-05 -1.3334906833017144e-05 0 1.7014102561541203e-05 -8.3409083863958073e-06 0 4.3455550646752047e-06 -2.6123495622478222e-05 0 4.726103678701148e-06 -3.3583737377964312e-05 0 8.6056444409413286e-06 -3.0369404631792468e-05 0 1.7973874971618486e-05 -1.4147064102797122e-05 0 1.3746967026320343e-05 -1.0543566950358529e-05 0 1.5345241387865289e-05 -1.5054761446916232e-05 0 5.0965137862192945e-05 -3.8831794869683753e-05 0 4.7499629767190498e-05 -3.3517575707211197e-05 0 4.3990597980910046e-05 -3.808995383151874e-05 0 1.3011136205690482e-05 -4.356638604155761e-05 0 1.4070918497254558e-05 -3.8065284811005355e-05 0 9.7938989805019387e-06 -3.6591386283208093e-05 0 -3.1788470122567219e-05 -1.4296224034009712e-05 0 -3.7779347012272709e-05 -2.2032697086807489e-05 0 -2.9537224494181893e-05 -1.7710218245402851e-05 0 -6.1932676176018419e-05 3.8751111402049893e-05 0 -5.0658115683112078e-05 2.3722331632237362e-05 0 -4.6126874147065895e-05 3.0095064376922266e-05 0 3.5860887624353988e-05 -1.252074689828867e-05 0 3.1914013163404773e-05 -1.7624316930785224e-05 0 4.0356580990983748e-05 -2.1788362982323163e-05 0 5.0965137862192945e-05 -3.8831794869683753e-05 0 4.7990940900569527e-05 -4.3424734134815591e-05 0 5.5818261308059683e-05 -4.3667366219981167e-05 0 -8.492907618756718e-06 -9.5378943639239255e-06 0 -1.0902873880377597e-05 -6.2254481302932738e-06 0 -1.6057768232471326e-05 -1.0812797507232346e-05 0 2.5265479950462421e-06 1.6784520156506939e-06 0 1.1052474537330211e-06 7.0040334863464099e-07 0 1.0460461477635083e-06 9.3660927498842205e-07 0 7.0711346521317211e-06 -8.132666771556847e-07 0 4.4268604817392751e-06 -1.8393200840912717e-07 0 2.6585119898677491e-06 -2.8141490879453652e-06 0 9.642126584880048e-06 -5.2113399861516536e-07 0 7.0427991739733332e-06 -1.7748855110075528e-06 0 6.2444979899937724e-06 -2.187378147389581e-06 0 2.5964149693283892e-05 4.6947560171142744e-06 0 2.2870688187571247e-05 -8.0826537268676501e-07 0 2.7252809033540345e-05 -5.8443492309107012e-06 0 -6.631198486814312e-06 1.7359103437554756e-06 0 -4.6280624977714264e-06 2.2668354576211397e-06 0 -4.658284862890287e-06 1.3016493216719509e-06 0 -3.003683797864119e-06 1.7977766363970705e-06 0 -4.658284862890287e-06 1.3016493216719509e-06 0 -4.6280624977714264e-06 2.2668354576211397e-06 0 -3.6900368647220055e-06 -2.9842867219691352e-06 0 -5.6901522924689e-06 -3.8155065965222906e-06 0 -6.1050679458877069e-06 -2.4884676404521012e-06 0 -8.695152402832315e-06 -3.255047541409275e-06 0 -6.1050679458877069e-06 -2.4884676404521012e-06 0 -5.6901522924689e-06 -3.8155065965222906e-06 0 -4.8990751602316744e-05 -4.3737334265513752e-05 0 -5.4219622919919338e-05 -5.7699053774850408e-05 0 -4.1871523880352747e-05 -4.9031353476712444e-05 0 9.2644656343556306e-06 7.1279998791686639e-05 0 -4.5803841338193512e-06 5.017516443214768e-05 0 9.1786803623565285e-06 4.7234090717919364e-05 0 2.6105486731989936e-05 -6.9043041749591532e-05 0 1.4385784666085627e-05 -6.1938102151664544e-05 0 1.5717883710588409e-05 -7.9680554515175161e-05 0 4.4663853019703127e-05 -5.3669104659681465e-05 0 3.6761510437239916e-05 -5.4033181977898695e-05 0 4.1421940190717708e-05 -5.9517942653438217e-05 0 -5.1208052470929068e-07 3.2489038505596797e-06 0 -1.338912481356156e-06 2.5019543954476071e-06 0 1.1446516446359169e-06 2.8747203776235487e-06 0 1.2057926978235232e-05 -3.4856464674681062e-06 0 1.3394630997642482e-05 5.3078742712698947e-08 0 1.1144493345940069e-05 -1.8887670455554827e-06 0 -9.7944969948445146e-06 -2.9864700149769069e-07 0 -7.2235825277958616e-06 1.5812926029925768e-06 0 -1.0406950875548761e-05 5.5301730196676361e-07 0 2.9139955098910686e-05 0.00013757672148114906 0 5.5755929946348765e-05 0.00014863255444912693 0 4.5784970097497132e-05 0.00016742601569003394 0 1.3014580987627742e-09 4.9501571906476331e-10 0 1.2228326111738224e-06 1.5282566298413595e-06 0 1.0460461477635083e-06 9.3660927498842205e-07 0 2.1282493557894536e-05 -3.578124881665283e-05 0 2.6020900753204272e-05 -3.6742527224909775e-05 0 2.273919440731641e-05 -3.0436148105346636e-05 0 3.5860887624353988e-05 -1.252074689828867e-05 0 3.0582142872051429e-05 4.585881099937661e-06 0 2.7252809033540345e-05 -5.8443492309107012e-06 0 -9.1598887391270803e-05 0.00011103890271408481 0 -8.2481547718006107e-05 8.2599210455818205e-05 0 -6.7437686035153068e-05 9.3672574597221671e-05 0 2.5930273053025977e-06 9.8765136597581791e-07 0 3.492547905350462e-06 5.6139313277283805e-07 0 1.6891730325102904e-06 2.8950461042110564e-07 0 -9.6671189753280263e-07 2.6406964047496822e-06 0 -2.1192471205012662e-07 1.7146010286313959e-06 0 -5.5002835280541945e-07 1.4309414857281988e-06 0 -3.2531953684602801e-07 -3.4505935821693662e-06 0 -3.7859408371690766e-07 -1.9591575318034629e-06 0 2.158246158642036e-07 -2.1009136494751693e-06 0 1.2447734649233159e-05 2.696922218837411e-06 0 1.025228995423043e-05 2.4318103524422529e-06 0 9.992239205557709e-06 2.400206690562378e-06 0 -2.2941794771134738e-05 -1.7187218816667981e-05 0 -2.357254604672922e-05 -1.1979783940502147e-05 0 -2.9537224494181893e-05 -1.7710218245402851e-05 0 -3.3050231345545731e-05 2.9373834132155967e-05 0 -4.6126874147065895e-05 3.0095064376922266e-05 0 -3.5062786945424593e-05 1.9625581730553207e-05 0 4.3477918387457497e-05 0.00024512821600231066 0 5.2669168605508929e-05 0.00021350924433114231 0 6.9587935466760583e-05 0.00023157396921128133 0 -3.9526437923601144e-05 -0.0001269164781016447 0 -4.59735466360225e-05 -0.00010840918981213209 0 -5.4263909089893301e-05 -0.00012054217345587916 0 4.6607182226307567e-05 -2.3509755361441315e-05 0 4.0356580990983748e-05 -2.1788362982323163e-05 0 4.2638901458592757e-05 -2.871087958818145e-05 0 6.5830488329050026e-06 3.9634571086743264e-06 0 8.209859279250954e-06 1.0765902312305176e-05 0 1.0417841739817921e-06 7.0964030264189206e-06 0 3.610852737395094e-05 -2.4604087531472871e-05 0 4.2638901458592757e-05 -2.871087958818145e-05 0 4.0356580990983748e-05 -2.1788362982323163e-05 0 8.2605433819228099e-06 2.4938485607280432e-06 0 6.5125218392354735e-06 2.6493149205869825e-06 0 7.681102542124265e-06 2.4036153334065197e-06 0 3.1891483773490798e-06 -2.0687778538293973e-08 0 1.8433161713039179e-06 -6.3150685057824544e-07 0 1.2877763728894835e-06 -1.1651793338198428e-07 0 8.5332312669044311e-07 1.7752805335763297e-06 0 3.0991177075234796e-06 2.16314936287644e-06 0 1.1446516446359169e-06 2.8747203776235487e-06 0 2.0562285523973077e-05 3.8873321744216505e-06 0 2.2870688187571247e-05 -8.0826537268676501e-07 0 2.4367199135335323e-05 8.5175373333108416e-06 0 2.5964149693283892e-05 4.6947560171142744e-06 0 2.4367199135335323e-05 8.5175373333108416e-06 0 2.2870688187571247e-05 -8.0826537268676501e-07 0 -2.9226325963931009e-05 -9.759454553706485e-05 0 -4.59735466360225e-05 -0.00010840918981213209 0 -3.1571515526529065e-05 -0.00011407186912481506 0 -3.9526437923601144e-05 -0.0001269164781016447 0 -3.1571515526529065e-05 -0.00011407186912481506 0 -4.59735466360225e-05 -0.00010840918981213209 0 2.3695835216784744e-05 0.00019087433017456814 0 5.2669168605508929e-05 0.00021350924433114231 0 2.6446040465772657e-05 0.00022363094257219472 0 4.3477918387457497e-05 0.00024512821600231066 0 2.6446040465772657e-05 0.00022363094257219472 0 5.2669168605508929e-05 0.00021350924433114231 0 2.3695835216784744e-05 0.00019087433017456814 0 1.7975702849297778e-05 0.00015976518716063413 0 4.5784970097497132e-05 0.00016742601569003394 0 2.9139955098910686e-05 0.00013757672148114906 0 4.5784970097497132e-05 0.00016742601569003394 0 1.7975702849297778e-05 0.00015976518716063413 0 1.6498701426512694e-09 3.4920854285051561e-10 0 1.5323009055687189e-09 4.1759890407398425e-10 0 1.1052474537330211e-06 7.0040334863464099e-07 0 4.9455607939311834e-05 -2.8727617118309295e-05 0 4.2638901458592757e-05 -2.871087958818145e-05 0 4.7499629767190498e-05 -3.3517575707211197e-05 0 4.1906591213255003e-05 -3.3885304048297578e-05 0 4.7499629767190498e-05 -3.3517575707211197e-05 0 4.2638901458592757e-05 -2.871087958818145e-05 0 -3.6357823827228899e-05 -7.2924631746549952e-05 0 -4.2139432245659083e-05 -6.225778253049999e-05 0 -4.7980313848704022e-05 -7.6914802113334861e-05 0 -5.4219622919919338e-05 -5.7699053774850408e-05 0 -4.2139432245659083e-05 -6.225778253049999e-05 0 -4.1871523880352747e-05 -4.9031353476712444e-05 0 -9.1598887391270803e-05 0.00011103890271408481 0 -6.7437686035153068e-05 9.3672574597221671e-05 0 -6.6642800072704624e-05 0.00012147562585181151 0 1.6733016988347375e-05 4.3762736528935618e-06 0 1.8884491632015288e-05 5.8273863904549823e-06 0 1.6723031952352946e-05 4.2159839964473697e-06 0 1.997956315449474e-05 6.6968074239344056e-06 0 1.6723031952352946e-05 4.2159839964473697e-06 0 1.8884491632015288e-05 5.8273863904549823e-06 0 6.0025952103276452e-06 2.2401574667292736e-06 0 7.9624835970305805e-06 2.2511375578042909e-06 0 7.1454385837850692e-06 1.7156817913429656e-06 0 2.5265479950462421e-06 1.6784520156506939e-06 0 1.0460461477635081e-06 9.3660927498842184e-07 0 1.2228326111738224e-06 1.5282566298413595e-06 0 -1.0950544350960062e-05 -3.1674620990749163e-06 0 -1.6927495009963621e-05 -1.2270286881858809e-06 0 -1.3049421668575526e-05 -2.3110335217215373e-06 0 -8.4154671480620087e-06 1.6681806853889841e-06 0 -9.503542157735954e-06 9.9395647291237138e-07 0 -1.1968502177513119e-05 2.0076871992660243e-07 0 -8.4154671480620087e-06 1.6681806853889841e-06 0 -1.0406950875548761e-05 5.5301730196676372e-07 0 -7.2235825277958616e-06 1.5812926029925768e-06 0 8.6976822249499136e-05 0.00020433688275155656 0 6.9587935466760583e-05 0.00023157396921128133 0 5.2669168605508929e-05 0.00021350924433114231 0 -6.4648163836655826e-05 -0.00010819253038600898 0 -5.4263909089893301e-05 -0.00012054217345587918 0 -4.59735466360225e-05 -0.00010840918981213209 0 1.8035153281237011e-09 1.9801757119131613e-11 0 1.2877763728894835e-06 -1.1651793338198435e-07 0 1.8433161713039179e-06 -6.3150685057824544e-07 0 9.642126584880048e-06 -5.2113399861516536e-07 0 1.0644761646550464e-05 3.6658499584758141e-07 0 7.0427991739733332e-06 -1.7748855110075528e-06 0 -1.5762283477258075e-05 -6.1848710720852689e-05 0 -2.3008440685099432e-05 -5.0456712393930074e-05 0 -2.6903913112082107e-05 -6.1221655202184095e-05 0 -8.1716819510144884e-07 -1.5530056012422757e-06 0 4.426860481739276e-06 -1.8393200840912722e-07 0 1.0298042206700721e-07 1.7348751116054263e-06 0 2.0785842548619582e-06 -1.0665817169562432e-05 0 -4.3718800999638959e-06 -1.2761895307938681e-05 0 -2.7670781329041769e-07 -1.7147732560525221e-05 0 1.3881334765306968e-05 2.0745341596239098e-06 0 1.6723031952352946e-05 4.2159839964473697e-06 0 1.6932355649215366e-05 4.4689530881047568e-06 0 -1.6766180883213198e-05 0.0001147345113116704 0 -4.0129203882999013e-05 0.00011894735798269359 0 -3.0207641174857013e-05 9.6202666814234876e-05 0 -2.2941794771134738e-05 -1.7187218816667981e-05 0 -3.172936611507058e-05 -2.4133067687016088e-05 0 -2.3161002055284166e-05 -2.4321828745813155e-05 0 -3.3050231345545731e-05 2.9373834132155967e-05 0 -3.5158055741684446e-05 4.2448073452199771e-05 0 -4.9564438846514516e-05 4.3521533715032631e-05 0 3.6022733466507977e-05 -6.0540881348101894e-05 0 4.1072890831240428e-05 -6.6473477786722579e-05 0 4.1421940190717708e-05 -5.9517942653438217e-05 0 4.7131507829832791e-05 -6.3734230956321095e-05 0 4.1421940190717708e-05 -5.9517942653438217e-05 0 4.1072890831240428e-05 -6.6473477786722579e-05 0 -9.7944969948445146e-06 -2.9864700149769069e-07 0 -5.982450059972759e-06 1.020116152123819e-06 0 -7.2235825277958616e-06 1.5812926029925768e-06 0 -3.7533978333458131e-06 2.3674642384748478e-06 0 -7.2235825277958616e-06 1.5812926029925768e-06 0 -5.982450059972759e-06 1.020116152123819e-06 0 4.5674397561955845e-06 3.965783715997882e-07 0 3.7344074329375757e-06 -2.0300372906969002e-06 0 5.8570766243292952e-06 -1.1977580619934301e-06 0 -1.440741760734311e-05 -1.4313833817377834e-06 0 -1.9312930475145105e-05 -4.9949738548169047e-06 0 -1.4392739094522123e-05 -2.9483103383144799e-06 0 -1.0337477695126056e-05 -5.2910055199664812e-07 0 -1.2888846490718748e-05 -1.8453661611851429e-06 0 -6.2224445338891529e-06 -2.5580034317221932e-06 0 3.4469838733595866e-05 -6.9800297396562552e-05 0 4.0809811327554539e-05 -7.2579035805293461e-05 0 3.6179679558831116e-05 -6.6470463105647003e-05 0 -1.6766180883213198e-05 0.0001147345113116704 0 -2.8617634616662745e-05 0.00014864236156212436 0 -4.0129203882999013e-05 0.00011894735798269359 0 1.5323009055687189e-09 4.1759890407398425e-10 0 1.3014580987627742e-09 4.9501571906476331e-10 0 1.0460461477635083e-06 9.3660927498842205e-07 0 8.0615329745976509e-05 0.00017079934560921246 0 4.5784970097497132e-05 0.00016742601569003394 0 5.5755929946348765e-05 0.00014863255444912693 0 2.6069041917305792e-05 1.1727357977099823e-05 0 2.7245487847301734e-05 1.4802914833932592e-05 0 2.3321253683674882e-05 1.0032022540420254e-05 0 -3.3050231345545731e-05 2.9373834132155967e-05 0 -2.0517598549332108e-05 2.8130004609539279e-05 0 -3.5158055741684446e-05 4.2448073452199771e-05 0 2.6069041917305792e-05 1.1727357977099823e-05 0 2.2052525515111999e-05 8.3261970614477664e-06 0 2.2821535874252894e-05 8.1357192203775841e-06 0 2.6069041917305792e-05 1.1727357977099823e-05 0 2.3321253683674879e-05 1.0032022540420253e-05 0 2.2052525515111999e-05 8.3261970614477664e-06 0 -3.5619328325746227e-06 1.0187265572408322e-06 0 -6.9175290932983418e-06 -7.4120426741101523e-07 0 -3.7217359677428487e-06 -1.4519074847480642e-06 0 2.9847348662600514e-06 3.0418817482067208e-06 0 1.1446516446359169e-06 2.8747203776235487e-06 0 3.0991177075234796e-06 2.16314936287644e-06 0 -4.722793823375558e-05 9.3731017716127638e-05 0 -6.6642800072704624e-05 0.00012147562585181151 0 -6.7437686035153068e-05 9.3672574597221671e-05 0 8.7465631514812774e-06 -8.7081218155857442e-06 0 1.0000765080934225e-05 -8.0612516449696966e-06 0 1.0093719153333067e-05 -5.2285518358157885e-06 0 2.0562285523973077e-05 3.8873321744216505e-06 0 2.4367199135335323e-05 8.5175373333108416e-06 0 2.2821535874252894e-05 8.1357192203775841e-06 0 1.7377137913383198e-05 -2.9176736983689407e-05 0 1.8259879164257981e-05 -2.4363464169342374e-05 0 1.371823510636697e-05 -2.2503024347385854e-05 0 -2.2941794771134738e-05 -1.7187218816667981e-05 0 -2.9537224494181893e-05 -1.7710218245402851e-05 0 -3.172936611507058e-05 -2.4133067687016088e-05 0 -3.3050231345545731e-05 2.9373834132155967e-05 0 -4.9564438846514516e-05 4.3521533715032631e-05 0 -4.6126874147065895e-05 3.0095064376922266e-05 0 -5.8064618740402838e-05 0.00024376328580663222 0 -8.3856451661784733e-05 0.00025764860779118671 0 -7.9903093766823757e-05 0.00022520810836665304 0 1.1048546527554002e-05 -0.00012320585339807184 0 2.4185526175336594e-05 -0.00012900231047834973 0 2.047302191538381e-05 -0.00011244573432902224 0 1.2313413563841737e-05 -3.3468511110934526e-05 0 1.3140412578790947e-05 -2.8338500928523486e-05 0 8.6056444409413286e-06 -3.0369404631792468e-05 0 1.997956315449474e-05 6.6968074239344056e-06 0 1.6932355649215366e-05 4.4689530881047568e-06 0 1.6723031952352946e-05 4.2159839964473697e-06 0 -1.6216201600395447e-06 -3.3158171814533664e-06 0 -6.2224445338891529e-06 -2.5580034317221932e-06 0 -6.1488550633516998e-06 -4.0155256291079777e-06 0 -1.7037149899231065e-05 -6.4082952954478929e-06 0 -1.1384112584307299e-05 -3.1008627656884063e-06 0 -1.4392739094522123e-05 -2.9483103383144799e-06 0 -2.4228091549325235e-05 1.030242411716151e-05 0 -1.5058824440341504e-05 9.1856387694467261e-06 0 -2.195329014535694e-05 1.7632594638646987e-05 0 6.7493161317682268e-06 -8.733559202889314e-06 0 5.9083158263687256e-06 -1.4426769512688485e-05 0 8.3694450068896741e-06 -1.2897884425283586e-05 0 -7.4657274632426137e-06 -3.1607288727387383e-06 0 -1.1384112584307298e-05 -3.1008627656884063e-06 0 -1.0902873880377597e-05 -6.2254481302932738e-06 0 2.0562285523973077e-05 3.8873321744216505e-06 0 1.8077885969336479e-05 3.2404035444176551e-06 0 1.7359546678516459e-05 -9.9858975564679993e-07 0 1.8035153281237011e-09 1.9801757119131613e-11 0 1.7748302228164144e-09 -1.0783110348986395e-10 0 1.2877763728894835e-06 -1.1651793338198428e-07 0 1.8478171915059924e-05 -4.1300791958112961e-05 0 1.4070918497254558e-05 -3.8065284811005355e-05 0 1.3011136205690482e-05 -4.356638604155761e-05 0 -2.603270913138095e-05 -8.6970679352990267e-06 0 -2.3415144491686752e-05 -8.6320882321611366e-06 0 -1.9312930475145105e-05 -4.9949738548169047e-06 0 -4.0170220230083549e-05 1.3438763708363767e-05 0 -2.808526687566937e-05 7.0342857579842231e-06 0 -3.5192949177231989e-05 1.3372565936969339e-05 0 -3.1740894403234287e-05 -4.8679156927345121e-05 0 -4.1871523880352747e-05 -4.9031353476712444e-05 0 -4.2139432245659083e-05 -6.225778253049999e-05 0 -6.8098951335412615e-06 -2.0486839975394816e-05 0 -3.7558951563071601e-06 -2.6921552226518713e-05 0 -2.7670781329041769e-07 -1.7147732560525221e-05 0 3.364564945000009e-06 -2.2230045707435892e-05 0 -2.7670781329041769e-07 -1.7147732560525221e-05 0 -3.7558951563071601e-06 -2.6921552226518713e-05 0 -7.4657274632426137e-06 -3.1607288727387383e-06 0 -5.254072147299588e-06 -4.9391409705622029e-06 0 -3.7217359677428487e-06 -1.4519074847480642e-06 0 1.7377137913383198e-05 -2.9176736983689407e-05 0 1.371823510636697e-05 -2.2503024347385854e-05 0 1.3140412578790947e-05 -2.8338500928523486e-05 0 -3.6357823827228899e-05 -7.2924631746549952e-05 0 -2.4978984413936614e-05 -7.1991726315549529e-05 0 -2.6903913112082107e-05 -6.1221655202184095e-05 0 -7.4657274632426137e-06 -3.1607288727387383e-06 0 -3.7217359677428487e-06 -1.4519074847480642e-06 0 -6.9175290932983418e-06 -7.4120426741101523e-07 0 1.545785471090321e-05 -1.9158607541701821e-05 0 1.371823510636697e-05 -2.2503024347385854e-05 0 1.8259879164257981e-05 -2.4363464169342374e-05 0 3.1553576190299058e-06 -1.3896182459276957e-06 0 4.2839781078176895e-06 -6.6681494996474271e-07 0 4.9442419512744686e-06 -1.2990178502627669e-06 0 -3.7779347012272709e-05 -2.2032697086807489e-05 0 -3.172936611507058e-05 -2.4133067687016088e-05 0 -2.9537224494181893e-05 -1.7710218245402851e-05 0 -6.1932676176018419e-05 3.8751111402049893e-05 0 -4.6126874147065895e-05 3.0095064376922266e-05 0 -4.9564438846514516e-05 4.3521533715032631e-05 0 -6.4648163836655826e-05 -0.00010819253038600898 0 -4.59735466360225e-05 -0.00010840918981213209 0 -5.3871149513266866e-05 -9.9196394699560149e-05 0 8.6976822249499136e-05 0.00020433688275155656 0 5.2669168605508929e-05 0.00021350924433114231 0 5.7753891184230382e-05 0.0001898789669842335 0 8.0615329745976509e-05 0.00017079934560921246 0 5.7753891184230382e-05 0.0001898789669842335 0 4.5784970097497132e-05 0.00016742601569003394 0 -6.4648163836655826e-05 -0.00010819253038600898 0 -6.6594149009174052e-05 -0.00012715407248967329 0 -5.4263909089893301e-05 -0.00012054217345587916 0 8.6976822249499136e-05 0.00020433688275155656 0 9.320003225854321e-05 0.00023848426687305104 0 6.9587935466760583e-05 0.00023157396921128133 0 3.610852737395094e-05 -2.4604087531472871e-05 0 3.1914013163404773e-05 -1.7624316930785224e-05 0 3.0510182413706279e-05 -2.290804445920301e-05 0 9.7947987963960397e-06 -2.5063746677771469e-05 0 8.6056444409413286e-06 -3.0369404631792468e-05 0 1.3140412578790947e-05 -2.8338500928523486e-05 0 1.5763437420556022e-05 -6.2433547222622484e-05 0 2.141226370080717e-05 -6.781341648982201e-05 0 2.0276354787271333e-05 -6.2639060993217483e-05 0 6.9682657199723083e-05 -4.8617708205980641e-05 0 6.7071166680233196e-05 -5.5853246769974716e-05 0 7.8398265316796206e-05 -5.641306295997422e-05 0 -3.3050231345545731e-05 2.9373834132155967e-05 0 -2.195329014535694e-05 1.7632594638646987e-05 0 -2.0517598549332108e-05 2.8130004609539282e-05 0 -3.7533978333458131e-06 2.3674642384748478e-06 0 -2.7153765815580401e-06 3.0567925426388657e-06 0 -5.1089135548058436e-06 2.5908574359061473e-06 0 9.2245506473402811e-06 1.7492314283874792e-06 0 7.9624835970305805e-06 2.2511375578042909e-06 0 1.025228995423043e-05 2.4318103524422529e-06 0 -5.2178440954180702e-05 0.00014323090378906968 0 -4.0129203882999013e-05 0.00011894735798269359 0 -2.8617634616662745e-05 0.00014864236156212436 0 5.1679764209805134e-06 -7.1389864893163738e-05 0 1.5717883710588409e-05 -7.9680554515175161e-05 0 1.4385784666085627e-05 -6.1938102151664544e-05 0 3.1891483773490798e-06 -2.0687778538293973e-08 0 1.2877763728894835e-06 -1.1651793338198428e-07 0 1.6891730325102904e-06 2.8950461042110564e-07 0 -8.492907618756718e-06 -9.5378943639239255e-06 0 -1.8672566965354914e-06 -7.4168825756148554e-06 0 -5.254072147299588e-06 -4.9391409705622029e-06 0 7.3841794017240141e-05 0.00013813162478728075 0 8.0615329745976523e-05 0.00017079934560921246 0 5.5755929946348765e-05 0.00014863255444912693 0 2.7309664516128708e-06 -3.1389738288072108e-06 0 4.5661780770159348e-06 -2.7105203366331061e-06 0 2.2293318181487589e-06 -3.5803779197339008e-06 0 3.610852737395094e-05 -2.4604087531472871e-05 0 3.0510182413706279e-05 -2.290804445920301e-05 0 3.6675975533549209e-05 -2.9423700883931784e-05 0 3.13830772354143e-05 -2.8893528570148987e-05 0 3.6675975533549209e-05 -2.9423700883931784e-05 0 3.0510182413706279e-05 -2.290804445920301e-05 0 2.2892917804138788e-05 -6.0881009500555564e-05 0 1.7383874132000758e-05 -5.6742640094244061e-05 0 2.0276354787271333e-05 -6.2639060993217483e-05 0 1.5763437420556022e-05 -6.2433547222622484e-05 0 2.0276354787271333e-05 -6.2639060993217483e-05 0 1.7383874132000758e-05 -5.6742640094244061e-05 0 6.9682657199723083e-05 -4.8617708205980641e-05 0 5.9777336138153669e-05 -5.0740848268202458e-05 0 6.7071166680233196e-05 -5.5853246769974716e-05 0 5.9253998306827839e-05 -5.8435543861243955e-05 0 6.7071166680233196e-05 -5.5853246769974716e-05 0 5.9777336138153669e-05 -5.0740848268202458e-05 0 1.6733016988347375e-05 4.3762736528935618e-06 0 1.4496615696457315e-05 3.2679938788541132e-06 0 1.4973378131008342e-05 3.3430404493331339e-06 0 3.5860887624353988e-05 -1.252074689828867e-05 0 2.7252809033540345e-05 -5.8443492309107012e-06 0 3.1914013163404773e-05 -1.7624316930785224e-05 0 2.4328344787428908e-05 -1.2618326414145638e-05 0 3.1914013163404773e-05 -1.7624316930785224e-05 0 2.7252809033540345e-05 -5.8443492309107012e-06 0 -3.6357823827228899e-05 -7.2924631746549952e-05 0 -4.7980313848704022e-05 -7.6914802113334861e-05 0 -4.3234303099382141e-05 -8.9446135714137232e-05 0 -9.7944969948445146e-06 -2.9864700149769069e-07 0 -1.1384112584307299e-05 -3.1008627656884063e-06 0 -6.9175290932983418e-06 -7.4120426741101523e-07 0 -7.4657274632426137e-06 -3.1607288727387383e-06 0 -6.9175290932983418e-06 -7.4120426741101523e-07 0 -1.1384112584307299e-05 -3.1008627656884063e-06 0 9.6091273630194677e-06 -1.8574977599517321e-05 0 6.4120427985815188e-06 -1.5337083249300847e-05 0 7.1286677208695435e-06 -1.4200110323515669e-05 0 1.7472563988467725e-05 -5.0728724008197029e-05 0 1.7383874132000758e-05 -5.6742640094244061e-05 0 2.1147542387182354e-05 -5.4622424064471987e-05 0 5.1788262384629777e-05 -4.7629796541654685e-05 0 5.165811464090394e-05 -5.2759321431112901e-05 0 5.9777336138153669e-05 -5.0740848268202458e-05 0 8.2605433819228099e-06 2.4938485607280432e-06 0 1.025228995423043e-05 2.4318103524422524e-06 0 7.9624835970305805e-06 2.2511375578042909e-06 0 4.0809811327554539e-05 -7.2579035805293461e-05 0 4.1072890831240428e-05 -6.6473477786722579e-05 0 3.6179679558831116e-05 -6.6470463105647003e-05 0 4.5855451389647193e-06 2.8946497413915885e-06 0 4.5384098869273648e-06 2.4679448146080615e-06 0 3.0355479377992151e-06 2.5540787308220357e-06 0 1.545785471090321e-05 -1.9158607541701821e-05 0 1.5345241387865289e-05 -1.5054761446916232e-05 0 1.1893902365868475e-05 -1.5172243800749937e-05 0 3.1891483773490798e-06 -2.0687778538293973e-08 0 5.0460642022259141e-06 2.1818319038745507e-07 0 4.2839781078176886e-06 -6.6681494996474271e-07 0 -8.0728836804370897e-06 0.00016422442212456353 0 1.9943579946850615e-07 0.0001389784370624152 0 1.7975702849297778e-05 0.00015976518716063413 0 -3.3740124975121146e-06 0.00022265887199776369 0 2.644604046577266e-05 0.00022363094257219472 0 1.6187940535323624e-05 0.00024520308568314406 0 -1.6690832570147903e-05 -0.00011459479339676691 0 -3.1571515526529065e-05 -0.00011407186912481506 0 -2.5538176558232263e-05 -0.00012617314281897115 0 3.9423615553361245e-05 2.4758523135343457e-05 0 3.0582142872051429e-05 4.585881099937661e-06 0 4.3447428511627351e-05 -4.9275391080432561e-06 0 3.1891483773490798e-06 -2.0687778538293973e-08 0 1.6891730325102904e-06 2.8950461042110564e-07 0 3.4925479053504616e-06 5.6139313277283805e-07 0 -6.1854250355212223e-05 -9.0184877528929597e-05 0 -5.3871149513266866e-05 -9.9196394699560135e-05 0 -4.3234303099382141e-05 -8.9446135714137232e-05 0 -6.8187819536654661e-05 -0.00020614715067473121 0 -5.5247961159398668e-05 -0.00019477543042955631 0 -6.8384379833014272e-05 -0.00018636508603758639 0 0.00012451439413686271 0.000386337427659665 0 9.2578086495156164e-05 0.00036870125955911105 0 0.00011446115632344369 0.00034716328033609949 0 0.00012451439413686271 0.000386337427659665 0 8.3316559291965117e-05 0.00039342310133855452 0 9.2578086495156164e-05 0.00036870125955911105 0 5.4055576227240026e-05 -0.00020020234488280666 0 3.7104123329109392e-05 -0.00019119075154082736 0 3.2964293189178534e-05 -0.0002040201230409262 0 -0.00011174164440963625 0.00039827035041987724 0 -0.00011206977738241702 0.00036030161120625384 0 -8.6828315036019193e-05 0.00037647258009613154 0 -6.8187819536654661e-05 -0.00020614715067473121 0 -4.8531499439685924e-05 -0.00020592907802348002 0 -5.5247961159398662e-05 -0.00019477543042955631 0 5.4055576227240026e-05 -0.00020020234488280666 0 4.7697780997124456e-05 -0.00017987318886671054 0 3.7104123329109392e-05 -0.00019119075154082736 0 -0.00011174164440963625 0.00039827035041987724 0 -8.6828315036019193e-05 0.00037647258009613154 0 -7.3952732391851958e-05 0.00039790877662320464 0 1.7748302228166502e-09 -1.078311034898853e-10 0 1.6891730325102904e-06 2.8950461042110564e-07 0 1.2877763728894835e-06 -1.1651793338198428e-07 0 1.7377137913383198e-05 -2.9176736983689407e-05 0 2.273919440731641e-05 -3.0436148105346636e-05 0 1.8259879164257981e-05 -2.4363464169342374e-05 0 -7.4657274632426137e-06 -3.1607288727387383e-06 0 -1.0902873880377597e-05 -6.2254481302932738e-06 0 -5.254072147299588e-06 -4.9391409705622029e-06 0 -3.6357823827228899e-05 -7.2924631746549952e-05 0 -2.946086230460348e-05 -8.263051849690329e-05 0 -2.4978984413936614e-05 -7.1991726315549529e-05 0 6.5919502305396301e-06 -1.5990772303447283e-06 0 6.2444979899937724e-06 -2.187378147389581e-06 0 4.5661780770159348e-06 -2.7105203366331061e-06 0 -5.1670040381486173e-06 0.00026535742573874452 0 -2.8644444883303745e-05 0.00028749488612231068 0 -3.1632385187117369e-05 0.000254267827349942 0 -1.3735387512819071e-05 -0.00013617938797082175 0 -7.3815281202694879e-07 -0.00014722408035179507 0 -1.1207933654466738e-06 -0.00013015031942772935 0 8.3742797523851516e-06 -4.8650045490539724e-05 0 1.1497391894824337e-05 -5.5836783816995167e-05 0 1.3131138775609636e-05 -5.0583244413599508e-05 0 5.728076796338789e-05 -3.7963698013237178e-05 0 5.5818261308059683e-05 -4.3667366219981167e-05 0 6.2775428405371719e-05 -4.2802886909015015e-05 0 4.4785544039042934e-05 -1.6445432179607723e-05 0 4.0356580990983748e-05 -2.1788362982323163e-05 0 4.6607182226307567e-05 -2.3509755361441315e-05 0 -8.492907618756718e-06 -9.5378943639239255e-06 0 -5.254072147299588e-06 -4.9391409705622029e-06 0 -1.0902873880377597e-05 -6.2254481302932738e-06 0 4.726103678701148e-06 -3.3583737377964312e-05 0 6.1012883944928491e-06 -4.1181644879954752e-05 0 9.7938989805019387e-06 -3.6591386283208093e-05 0 4.9455607939311834e-05 -2.8727617118309295e-05 0 4.7499629767190498e-05 -3.3517575707211197e-05 0 5.2886195974121101e-05 -3.3411890989862242e-05 0 -1.5762283477258075e-05 -6.1848710720852689e-05 0 -5.5271198032121647e-06 -6.6940906790591813e-05 0 -7.3073728249366696e-06 -5.2236493740254254e-05 0 9.2245506473402811e-06 1.7492314283874792e-06 0 7.1454385837850692e-06 1.7156817913429656e-06 0 7.9624835970305805e-06 2.2511375578042909e-06 0 1.1048546527554002e-05 -0.00012320585339807184 0 -2.208031234130711e-06 -0.00011204354429079619 0 -1.1207933654466738e-06 -0.00013015031942772935 0 -5.8064618740402838e-05 0.00024376328580663222 0 -3.2655850852422784e-05 0.00022290486676680761 0 -3.1632385187117369e-05 0.000254267827349942 0 4.1906591213255003e-05 -3.3885304048297578e-05 0 4.2638901458592757e-05 -2.871087958818145e-05 0 3.6675975533549209e-05 -2.9423700883931784e-05 0 3.610852737395094e-05 -2.4604087531472871e-05 0 3.6675975533549209e-05 -2.9423700883931784e-05 0 4.2638901458592757e-05 -2.871087958818145e-05 0 2.9847348662600514e-06 3.0418817482067208e-06 0 1.3261150809091598e-06 3.3132052333321649e-06 0 1.1446516446359169e-06 2.8747203776235487e-06 0 -6.8098951335412615e-06 -2.0486839975394816e-05 0 -2.7670781329041753e-07 -1.7147732560525221e-05 0 -4.3718800999638959e-06 -1.2761895307938681e-05 0 4.456888900819559e-06 -5.2805776746380066e-05 0 1.2744000036321918e-05 -4.6730719864654832e-05 0 5.2155604345526415e-06 -3.4876045626100218e-05 0 2.20153496889948e-05 -2.5065308615448252e-05 0 1.8259879164257981e-05 -2.4363464169342374e-05 0 2.273919440731641e-05 -3.0436148105346636e-05 0 1.7249417161682368e-05 -3.7772101251341292e-05 0 1.2744000036321918e-05 -4.6730719864654832e-05 0 2.2314541149243153e-05 -5.3087920761254495e-05 0 5.0965137862192945e-05 -3.8831794869683753e-05 0 4.3990597980910046e-05 -3.808995383151874e-05 0 4.7990940900569527e-05 -4.3424734134815591e-05 0 4.1200277917395218e-05 -4.1402807262127202e-05 0 4.7990940900569527e-05 -4.3424734134815591e-05 0 4.3990597980910046e-05 -3.808995383151874e-05 0 -3.6790801570573229e-06 2.9228902521380776e-06 0 -5.9064154078332411e-06 2.3418276061170838e-06 0 -5.1089135548058436e-06 2.5908574359061473e-06 0 9.3885846120622415e-06 -3.1056432411589546e-06 0 1.0093719153333067e-05 -5.2285518358157885e-06 0 1.1144493345940069e-05 -1.8887670455554827e-06 0 1.2057926978235232e-05 -3.4856464674681062e-06 0 1.1144493345940069e-05 -1.8887670455554827e-06 0 1.0093719153333067e-05 -5.2285518358157885e-06 0 2.6069041917305792e-05 1.1727357977099823e-05 0 2.4367199135335323e-05 8.5175373333108416e-06 0 2.9689255667987937e-05 1.5707394791974991e-05 0 2.5964149693283892e-05 4.6947560171142744e-06 0 2.9689255667987937e-05 1.5707394791974991e-05 0 2.4367199135335323e-05 8.5175373333108416e-06 0 8.0615329745976509e-05 0.00017079934560921246 0 8.6976822249499136e-05 0.00020433688275155656 0 5.7753891184230382e-05 0.0001898789669842335 0 2.036231818367638e-05 6.4793543888441118e-06 0 1.8884491632015288e-05 5.8273863904549823e-06 0 1.7888664002541558e-05 4.7732842600913692e-06 0 -6.1854250355212223e-05 -9.0184877528929597e-05 0 -6.4648163836655826e-05 -0.00010819253038600898 0 -5.3871149513266866e-05 -9.9196394699560149e-05 0 -5.1208052470929068e-07 3.2489038505596797e-06 0 1.1446516446359169e-06 2.8747203776235487e-06 0 1.3261150809091598e-06 3.3132052333321649e-06 0 -3.6511685860560402e-06 -4.4616232830797308e-06 0 -3.3390895273856513e-06 -3.9191638971215894e-06 0 -1.8503779988489624e-06 -4.0964727584585516e-06 0 -3.6790801570573229e-06 2.9228902521380776e-06 0 -2.1694370993619917e-06 2.8491422495607835e-06 0 -3.0480511001433893e-06 2.5305783641956356e-06 0 9.642126584880048e-06 -5.2113399861516536e-07 0 9.3604799933088055e-06 1.0273547783875453e-07 0 1.2103866817773868e-05 1.2463683709389799e-06 0 -2.1709977425528145e-06 -5.3960825446564713e-08 0 -2.1689644739161124e-06 8.1752302189503206e-07 0 -9.7526552681207706e-07 1.9954696689607601e-07 0 -1.7054850039975496e-09 5.4327681817721313e-10 0 -9.7526552681207706e-07 1.9954696689607609e-07 0 -2.1689644739161124e-06 8.1752302189503206e-07 0 -2.7338052291766917e-06 -3.2138886466399702e-07 0 -1.2348711168392194e-06 -4.617821076249531e-07 0 -2.7933942937826252e-06 -1.513970071554833e-06 0 -2.2777907383282823e-09 -8.7695595010129043e-10 0 -2.7933942937826252e-06 -1.513970071554833e-06 0 -1.2348711168392194e-06 -4.617821076249531e-07 0 -6.8098951335412615e-06 -2.0486839975394816e-05 0 -1.4755390064059174e-05 -2.4217485235877539e-05 0 -1.0720078224664834e-05 -3.0635428875773288e-05 0 3.1891483773490798e-06 -2.0687778538293973e-08 0 3.4925479053504616e-06 5.6139313277283805e-07 0 5.0460642022259141e-06 2.1818319038745507e-07 0 2.9139955098910686e-05 0.00013757672148114906 0 5.0231795014695082e-05 0.00012747100114347452 0 5.5755929946348765e-05 0.00014863255444912693 0 9.9694993333247414e-06 2.9662629340902266e-05 0 3.6150659283092987e-06 1.9758378088698041e-05 0 1.3779529292886031e-05 1.7529170046634327e-05 0 2.036231818367638e-05 6.4793543888441118e-06 0 2.2052525515111999e-05 8.3261970614477664e-06 0 1.8884491632015288e-05 5.8273863904549823e-06 0 -4.12888529866872e-06 -3.9213300648452998e-05 0 -3.7558951563071601e-06 -2.6921552226518713e-05 0 -1.0720078224664834e-05 -3.0635428875773288e-05 0 -3.592523733415256e-05 0.00039778667428614636 0 -7.3952732391851958e-05 0.00039790877662320464 0 -5.5467166208291694e-05 0.00037818690149608858 0 1.1438680522783537e-05 -0.00020547887413233348 0 3.2964293189178534e-05 -0.0002040201230409262 0 2.0380372724935495e-05 -0.00019414715112489028 0 8.3316559291965117e-05 0.00039342310133855452 0 4.1969856503658942e-05 0.00039644273021953609 0 5.9844958190760716e-05 0.00037457551972292565 0 -4.8531499439685924e-05 -0.00020592907802348002 0 -2.8798202113126526e-05 -0.00020588628294358565 0 -3.8973562869908439e-05 -0.00019565818189299069 0 2.4812539336176796e-05 -5.3524121373901216e-05 0 2.1147542387182354e-05 -5.4622424064471987e-05 0 2.5915947018443603e-05 -5.8913775288039683e-05 0 4.4663853019703127e-05 -5.3669104659681465e-05 0 5.0359408053335252e-05 -5.9254103847700064e-05 0 5.165811464090394e-05 -5.2759321431112901e-05 0 -1.9147296666879445e-09 -7.8801723502427209e-10 0 -9.7526552681207727e-07 1.9954696689607606e-07 0 -1.7054850039975496e-09 5.4327681817721313e-10 0 -2.1556155133481365e-09 8.8189010322026538e-10 0 -2.2777907383282823e-09 -8.7695595010129043e-10 0 -1.2348711168392194e-06 -4.617821076249531e-07 0 -2.1556155133481365e-09 8.8189010322026538e-10 0 -1.2348711168392194e-06 -4.617821076249531e-07 0 -2.7338052291766917e-06 -3.2138886466399702e-07 0 -1.9147296666879445e-09 -7.8801723502427209e-10 0 -2.1709977425528145e-06 -5.3960825446564713e-08 0 -9.7526552681207706e-07 1.9954696689607601e-07 0 5.1679764209805134e-06 -7.1389864893163738e-05 0 -5.5271198032121656e-06 -6.6940906790591799e-05 0 -4.1591094944467155e-06 -8.2999848806306094e-05 0 8.5332312669044311e-07 1.7752805335763297e-06 0 -9.4759617712672242e-07 5.7740275984950959e-07 0 2.0409741564675786e-06 2.7071266234720658e-07 0 1.545785471090321e-05 -1.9158607541701821e-05 0 1.8259879164257981e-05 -2.4363464169342374e-05 0 1.8636785580671538e-05 -1.9647722395154353e-05 0 2.20153496889948e-05 -2.5065308615448252e-05 0 1.8636785580671538e-05 -1.9647722395154353e-05 0 1.8259879164257981e-05 -2.4363464169342374e-05 0 2.9847348662600514e-06 3.0418817482067208e-06 0 3.0991177075234796e-06 2.16314936287644e-06 0 4.3445963100269469e-06 2.5648601129279601e-06 0 6.0025952103276452e-06 2.2401574667292736e-06 0 4.5384098869273648e-06 2.4679448146080615e-06 0 6.5125218392354735e-06 2.6493149205869825e-06 0 4.5855451389647193e-06 2.8946497413915885e-06 0 6.5125218392354735e-06 2.6493149205869825e-06 0 4.5384098869273648e-06 2.4679448146080615e-06 0 2.5964149693283892e-05 4.6947560171142744e-06 0 3.0582142872051429e-05 4.5858810999376618e-06 0 2.9689255667987937e-05 1.5707394791974991e-05 0 3.9423615553361245e-05 2.4758523135343457e-05 0 2.9689255667987937e-05 1.5707394791974994e-05 0 3.0582142872051429e-05 4.585881099937661e-06 0 -1.9675067800151849e-05 -3.0454857946375205e-05 0 -1.0720078224664834e-05 -3.0635428875773288e-05 0 -1.4755390064059174e-05 -2.4217485235877539e-05 0 4.1906591213255003e-05 -3.3885304048297578e-05 0 4.3990597980910046e-05 -3.808995383151874e-05 0 4.7499629767190498e-05 -3.3517575707211197e-05 0 1.2313413563841737e-05 -3.3468511110934526e-05 0 9.7938989805019387e-06 -3.6591386283208093e-05 0 1.4070918497254558e-05 -3.8065284811005355e-05 0 8.2605433819228099e-06 2.4938485607280432e-06 0 9.992239205557709e-06 2.400206690562378e-06 0 1.025228995423043e-05 2.4318103524422529e-06 0 4.3477918387457497e-05 0.00024512821600231066 0 6.9587935466760583e-05 0.00023157396921128133 0 7.1188048555438841e-05 0.00025505051783481853 0 -3.9526437923601144e-05 -0.0001269164781016447 0 -5.4263909089893301e-05 -0.00012054217345587916 0 -5.3622075491667336e-05 -0.00013387452888926135 0 9.6091273630194677e-06 -1.8574977599517321e-05 0 8.3694450068896741e-06 -1.2897884425283586e-05 0 5.9083158263687256e-06 -1.4426769512688485e-05 0 3.610852737395094e-05 -2.4604087531472871e-05 0 4.0356580990983748e-05 -2.1788362982323163e-05 0 3.1914013163404773e-05 -1.7624316930785224e-05 0 -5.8064618740402838e-05 0.00024376328580663222 0 -7.9903093766823757e-05 0.00022520810836665304 0 -5.5675782785400767e-05 0.00021482956776233591 0 1.1048546527554002e-05 -0.00012320585339807184 0 2.047302191538381e-05 -0.00011244573432902224 0 8.7255043118988212e-06 -0.00010806879217064418 0 5.1679764209805134e-06 -7.1389864893163738e-05 0 6.2148489156723619e-06 -8.531706132798289e-05 0 1.5717883710588409e-05 -7.9680554515175161e-05 0 2.3907777790281268e-05 -4.7498930303380919e-05 0 2.738827343549337e-05 -5.1418485990767413e-05 0 2.8038003444374545e-05 -4.6693575018851018e-05 0 5.1788262384629777e-05 -4.7629796541654685e-05 0 5.5818261308059683e-05 -4.3667366219981167e-05 0 4.7990940900569527e-05 -4.3424734134815591e-05 0 7.0711346521317211e-06 -8.132666771556847e-07 0 7.0427991739733332e-06 -1.7748855110075528e-06 0 1.0644761646550466e-05 3.6658499584758104e-07 0 3.6022733466507977e-05 -6.0540881348101894e-05 0 4.1421940190717708e-05 -5.9517942653438217e-05 0 3.6761510437239916e-05 -5.4033181977898695e-05 0 -5.1208052470929068e-07 3.2489038505596797e-06 0 1.3261150809091598e-06 3.3132052333321649e-06 0 -1.4140494857969014e-07 3.3319756891875897e-06 0 6.668358360816023e-07 3.231765403868374e-06 0 -1.4140494857969014e-07 3.3319756891875897e-06 0 1.3261150809091598e-06 3.3132052333321649e-06 0 1.1569873795634904e-05 7.3870965209356494e-07 0 9.9314523839558473e-06 -8.6377515825585973e-07 0 1.1144493345940069e-05 -1.8887670455554827e-06 0 -6.8098951335412615e-06 -2.0486839975394816e-05 0 -1.0720078224664834e-05 -3.0635428875773288e-05 0 -3.7558951563071601e-06 -2.6921552226518713e-05 0 2.9847348662600514e-06 3.0418817482067208e-06 0 4.3445963100269469e-06 2.5648601129279601e-06 0 4.0751565992377556e-06 3.0009420966336278e-06 0 5.6014465111537959e-06 2.6598074193576184e-06 0 4.0751565992377556e-06 3.0009420966336278e-06 0 4.3445963100269469e-06 2.5648601129279601e-06 0 3.0991177075234796e-06 2.16314936287644e-06 0 5.4649667000811484e-06 1.8054269552654846e-06 0 4.3445963100269469e-06 2.5648601129279601e-06 0 3.0585777950005047e-05 -6.282170182748682e-05 0 2.5915947018443603e-05 -5.8913775288039683e-05 0 2.7838468388256346e-05 -6.4628262914269381e-05 0 2.2892917804138788e-05 -6.0881009500555564e-05 0 2.7838468388256346e-05 -6.4628262914269381e-05 0 2.5915947018443603e-05 -5.8913775288039683e-05 0 5.9253998306827839e-05 -5.8435543861243955e-05 0 5.0359408053335245e-05 -5.9254103847700064e-05 0 5.6948831178259585e-05 -6.7091173866379788e-05 0 4.7131507829832791e-05 -6.3734230956321095e-05 0 5.6948831178259585e-05 -6.7091173866379788e-05 0 5.0359408053335245e-05 -5.9254103847700064e-05 0 2.5964149693283892e-05 4.6947560171142744e-06 0 2.7252809033540345e-05 -5.8443492309107012e-06 0 3.0582142872051429e-05 4.585881099937661e-06 0 7.1272118101502134e-05 0.00034951317828093908 0 5.9844958190760716e-05 0.00037457551972292565 0 3.5163696706615253e-05 0.00036012927430453015 0 -4.6565531526259962e-05 -0.00018361009984399582 0 -3.8973562869908439e-05 -0.00019565818189299069 0 -2.8011504678134759e-05 -0.000187359992385458 0 2.5767890029282739e-05 -0.00018106756703863247 0 7.4728357648785819e-06 -0.00018652412338221409 0 2.0380372724935495e-05 -0.00019414715112489028 0 -7.0102430965366096e-05 0.00035513011589203235 0 -3.4123273245740066e-05 0.00036226331777683185 0 -5.5467166208291694e-05 0.00037818690149608858 0 -5.8064618740402838e-05 0.00024376328580663222 0 -5.5675782785400767e-05 0.00021482956776233588 0 -3.2655850852422784e-05 0.00022290486676680761 0 1.1048546527554002e-05 -0.00012320585339807184 0 8.7255043118988212e-06 -0.00010806879217064418 0 -2.208031234130711e-06 -0.00011204354429079619 0 5.1679764209805134e-06 -7.1389864893163738e-05 0 -4.1591094944467155e-06 -8.2999848806306094e-05 0 6.2148489156723611e-06 -8.5317061327982877e-05 0 9.3885846120622415e-06 -3.1056432411589546e-06 0 1.1144493345940069e-05 -1.8887670455554827e-06 0 9.9314523839558473e-06 -8.6377515825585973e-07 0 4.1969856503658942e-05 0.00039644273021953609 0 3.5163696706615253e-05 0.00036012927430453015 0 5.9844958190760716e-05 0.00037457551972292565 0 -2.8798202113126526e-05 -0.00020588628294358565 0 -2.8011504678134759e-05 -0.000187359992385458 0 -3.8973562869908439e-05 -0.00019565818189299069 0 -3.592523733415256e-05 0.00039778667428614636 0 -5.5467166208291694e-05 0.00037818690149608858 0 -3.4123273245740066e-05 0.00036226331777683185 0 1.1438680522783537e-05 -0.00020547887413233348 0 2.0380372724935498e-05 -0.00019414715112489031 0 7.4728357648785819e-06 -0.00018652412338221409 0 3.1261381447664942e-05 -5.1122451681086321e-05 0 2.8038003444374548e-05 -4.6693575018851018e-05 0 2.738827343549337e-05 -5.1418485990767413e-05 0 1.7249417161682368e-05 -3.7772101251341292e-05 0 5.2155604345526415e-06 -3.4876045626100218e-05 0 1.2744000036321918e-05 -4.6730719864654832e-05 0 2.141226370080717e-05 -6.781341648982201e-05 0 2.4443895242603573e-05 -6.5538057278188684e-05 0 2.0276354787271333e-05 -6.2639060993217483e-05 0 7.8398265316796206e-05 -5.641306295997422e-05 0 6.7071166680233196e-05 -5.5853246769974716e-05 0 7.0173580629625686e-05 -6.3669136970646362e-05 0 6.0025952103276452e-06 2.2401574667292736e-06 0 4.1743413611872252e-06 1.803833194800896e-06 0 4.5384098869273648e-06 2.4679448146080615e-06 0 -7.1820765125523553e-05 0.00019213067203652749 0 -7.5475373946164363e-05 0.00016101875074369315 0 -5.2668357659261201e-05 0.00016692121971862925 0 -5.2178440954180702e-05 0.00014323090378906968 0 -5.2668357659261201e-05 0.00016692121971862925 0 -7.5475373946164363e-05 0.00016101875074369315 0 2.9133198764583352e-05 -4.2106317929063603e-05 0 2.4229707908892433e-05 -4.2025742994744565e-05 0 2.8038003444374545e-05 -4.6693575018851018e-05 0 7.6331464510729125e-06 1.5763507062180783e-06 0 5.4649667000811484e-06 1.8054269552654846e-06 0 6.4296325783242176e-06 5.3934134896873361e-07 0 1.545785471090321e-05 -1.9158607541701821e-05 0 1.8636785580671538e-05 -1.9647722395154353e-05 0 1.5345241387865289e-05 -1.5054761446916232e-05 0 1.7973874971618486e-05 -1.4147064102797122e-05 0 1.5345241387865289e-05 -1.5054761446916232e-05 0 1.8636785580671538e-05 -1.9647722395154353e-05 0 -3.6404404986610557e-05 0.00019133191279779974 0 -3.2655850852422784e-05 0.00022290486676680761 0 -5.5675782785400767e-05 0.00021482956776233591 0 -6.1099542626667878e-07 -9.6769523171078882e-05 0 -2.208031234130711e-06 -0.00011204354429079619 0 8.7255043118988212e-06 -0.00010806879217064418 0 -6.1099542626667878e-07 -9.6769523171078882e-05 0 6.2148489156723611e-06 -8.5317061327982877e-05 0 -4.1591094944467155e-06 -8.2999848806306094e-05 0 -3.003683797864119e-06 1.7977766363970705e-06 0 -4.6280624977714264e-06 2.2668354576211397e-06 0 -3.0480511001433893e-06 2.5305783641956356e-06 0 -3.6900368647220055e-06 -2.9842867219691352e-06 0 -3.3390895273856513e-06 -3.9191638971215894e-06 0 -5.6901522924689e-06 -3.8155065965222906e-06 0 -8.695152402832315e-06 -3.255047541409275e-06 0 -5.6901522924689e-06 -3.8155065965222906e-06 0 -7.096278648405377e-06 -4.0154070740875584e-06 0 -6.631198486814312e-06 1.7359103437554756e-06 0 -5.9064154078332411e-06 2.3418276061170838e-06 0 -4.6280624977714264e-06 2.2668354576211397e-06 0 7.8416081675088594e-06 -7.6979587893840663e-07 0 9.9314523839558473e-06 -8.6377515825585973e-07 0 9.3882516009053598e-06 5.7944089546766724e-07 0 -7.1820765125523553e-05 0.00019213067203652749 0 -5.5675782785400767e-05 0.00021482956776233591 0 -7.9903093766823757e-05 0.00022520810836665304 0 1.5184190918218022e-05 -9.5980499217133478e-05 0 8.7255043118988212e-06 -0.00010806879217064418 0 2.047302191538381e-05 -0.00011244573432902224 0 1.5184190918218022e-05 -9.5980499217133478e-05 0 1.5717883710588409e-05 -7.9680554515175161e-05 0 6.2148489156723611e-06 -8.5317061327982877e-05 0 -1.5762283477258075e-05 -6.1848710720852689e-05 0 -2.6903913112082107e-05 -6.1221655202184095e-05 0 -2.4978984413936614e-05 -7.1991726315549529e-05 0 2.3907777790281268e-05 -4.7498930303380919e-05 0 2.8038003444374545e-05 -4.6693575018851018e-05 0 2.4229707908892433e-05 -4.2025742994744565e-05 0 7.0711346521317211e-06 -8.132666771556847e-07 0 9.6622266099041643e-06 1.6445322515170847e-06 0 4.4268604817392751e-06 -1.8393200840912712e-07 0 6.0678064372850707e-06 -3.925841348120738e-06 0 5.8570766243292943e-06 -1.1977580619934299e-06 0 3.7344074329375757e-06 -2.0300372906969002e-06 0 -3.6790801570573229e-06 2.9228902521380776e-06 0 -5.1089135548058436e-06 2.5908574359061469e-06 0 -2.7153765815580401e-06 3.0567925426388657e-06 0 -4.722793823375558e-05 9.3731017716127638e-05 0 -3.0207641174857013e-05 9.6202666814234876e-05 0 -4.0129203882999013e-05 0.00011894735798269359 0 -3.1740894403234287e-05 -4.8679156927345121e-05 0 -2.6903913112082107e-05 -6.1221655202184095e-05 0 -2.3008440685099432e-05 -5.0456712393930074e-05 0 4.3477918387457497e-05 0.00024512821600231066 0 1.6187940535323624e-05 0.00024520308568314406 0 2.6446040465772657e-05 0.00022363094257219472 0 -3.9526437923601144e-05 -0.0001269164781016447 0 -2.5538176558232263e-05 -0.00012617314281897115 0 -3.1571515526529065e-05 -0.00011407186912481506 0 2.9139955098910686e-05 0.00013757672148114906 0 1.7975702849297778e-05 0.00015976518716063413 0 1.9943579946850615e-07 0.0001389784370624152 0 -3.5619328325746227e-06 1.0187265572408322e-06 0 -5.9824500599727582e-06 1.020116152123819e-06 0 -6.9175290932983418e-06 -7.4120426741101523e-07 0 4.5674397561955845e-06 3.965783715997882e-07 0 6.4296325783242176e-06 5.3934134896873361e-07 0 5.4649667000811484e-06 1.8054269552654846e-06 0 -1.6787306743368377e-05 -8.2307750787244871e-05 0 -2.4978984413936614e-05 -7.1991726315549529e-05 0 -2.946086230460348e-05 -8.263051849690329e-05 0 2.2892917804138788e-05 -6.0881009500555564e-05 0 2.0276354787271333e-05 -6.2639060993217483e-05 0 2.4443895242603573e-05 -6.5538057278188684e-05 0 5.9253998306827839e-05 -5.8435543861243955e-05 0 7.0173580629625686e-05 -6.3669136970646362e-05 0 6.7071166680233196e-05 -5.5853246769974716e-05 0 5.6014465111537959e-06 2.6598074193576184e-06 0 4.3445963100269469e-06 2.5648601129279601e-06 0 5.4649667000811484e-06 1.8054269552654846e-06 0 -7.3952732391851958e-05 0.00039790877662320464 0 -8.6828315036019193e-05 0.00037647258009613154 0 -5.5467166208291694e-05 0.00037818690149608858 0 -7.0102430965366096e-05 0.00035513011589203235 0 -5.5467166208291694e-05 0.00037818690149608858 0 -8.6828315036019193e-05 0.00037647258009613154 0 2.5767890029282739e-05 -0.00018106756703863247 0 2.0380372724935495e-05 -0.00019414715112489028 0 3.7104123329109392e-05 -0.00019119075154082736 0 3.2964293189178534e-05 -0.0002040201230409262 0 3.7104123329109392e-05 -0.00019119075154082736 0 2.0380372724935495e-05 -0.00019414715112489028 0 8.3316559291965117e-05 0.00039342310133855452 0 5.9844958190760716e-05 0.00037457551972292565 0 9.2578086495156164e-05 0.00036870125955911105 0 -4.8531499439685924e-05 -0.00020592907802348002 0 -3.8973562869908439e-05 -0.00019565818189299069 0 -5.5247961159398662e-05 -0.00019477543042955631 0 7.1272118101502134e-05 0.00034951317828093908 0 9.2578086495156164e-05 0.00036870125955911105 0 5.9844958190760716e-05 0.00037457551972292565 0 -4.6565531526259962e-05 -0.00018361009984399582 0 -5.5247961159398662e-05 -0.00019477543042955631 0 -3.8973562869908439e-05 -0.00019565818189299069 0 2.9133198764583352e-05 -4.2106317929063603e-05 0 2.8038003444374545e-05 -4.6693575018851018e-05 0 3.2740660443214882e-05 -4.6835376407068954e-05 0 1.8478171915059924e-05 -4.1300791958112961e-05 0 1.6337893868195821e-05 -3.4607772487232881e-05 0 1.4070918497254558e-05 -3.8065284811005355e-05 0 1.2313413563841737e-05 -3.3468511110934526e-05 0 1.4070918497254558e-05 -3.8065284811005355e-05 0 1.6337893868195821e-05 -3.4607772487232881e-05 0 3.1261381447664942e-05 -5.1122451681086321e-05 0 2.738827343549337e-05 -5.1418485990767413e-05 0 2.9990326073424429e-05 -5.6281001235130235e-05 0 2.4812539336176796e-05 -5.3524121373901216e-05 0 2.9990326073424429e-05 -5.6281001235130235e-05 0 2.738827343549337e-05 -5.1418485990767413e-05 0 2.6069041917305792e-05 1.1727357977099823e-05 0 2.2821535874252894e-05 8.1357192203775841e-06 0 2.4367199135335323e-05 8.5175373333108416e-06 0 6.5830488329050026e-06 3.9634571086743264e-06 0 1.0417841739817921e-06 7.0964030264189206e-06 0 1.0298042206700721e-07 1.7348751116054263e-06 0 -6.2377896876121433e-06 4.6705702258339468e-06 0 1.0298042206700721e-07 1.7348751116054263e-06 0 1.0417841739817921e-06 7.0964030264189206e-06 0 -3.5619328325746227e-06 1.0187265572408322e-06 0 -3.7217359677428483e-06 -1.4519074847480642e-06 0 -9.4759617712672242e-07 5.7740275984950959e-07 0 -4.722793823375558e-05 9.3731017716127638e-05 0 -3.2241918282135815e-05 7.626226526114528e-05 0 -3.0207641174857013e-05 9.6202666814234876e-05 0 -1.4362409593283539e-05 8.0263383738387746e-05 0 -3.0207641174857013e-05 9.6202666814234876e-05 0 -3.2241918282135815e-05 7.626226526114528e-05 0 2.036231818367638e-05 6.4793543888441118e-06 0 2.2821535874252894e-05 8.1357192203775841e-06 0 2.2052525515111999e-05 8.3261970614477664e-06 0 4.1200277917395218e-05 -4.1402807262127202e-05 0 4.4427243271109224e-05 -4.6618874971209452e-05 0 4.7990940900569527e-05 -4.3424734134815591e-05 0 5.1788262384629777e-05 -4.7629796541654685e-05 0 4.7990940900569527e-05 -4.3424734134815591e-05 0 4.4427243271109224e-05 -4.6618874971209452e-05 0 1.997956315449474e-05 6.6968074239344056e-06 0 2.2052525515111999e-05 8.3261970614477664e-06 0 2.3321253683674882e-05 1.0032022540420254e-05 0 -1.4909743808318573e-05 -4.2928597419401824e-05 0 -2.4201252791446566e-05 -4.0772310019623195e-05 0 -2.3008440685099432e-05 -5.0456712393930074e-05 0 -3.1740894403234287e-05 -4.8679156927345121e-05 0 -2.3008440685099432e-05 -5.0456712393930074e-05 0 -2.4201252791446566e-05 -4.0772310019623195e-05 0 1.6733016988347375e-05 4.3762736528935618e-06 0 1.7888664002541558e-05 4.7732842600913692e-06 0 1.8884491632015288e-05 5.8273863904549823e-06 0 1.997956315449474e-05 6.6968074239344056e-06 0 1.8884491632015288e-05 5.8273863904549823e-06 0 2.2052525515111999e-05 8.3261970614477664e-06 0 1.2313413563841737e-05 -3.3468511110934526e-05 0 8.6056444409413286e-06 -3.0369404631792468e-05 0 9.7938989805019387e-06 -3.6591386283208093e-05 0 4.5674397561955845e-06 3.965783715997882e-07 0 5.8570766243292952e-06 -1.1977580619934301e-06 0 6.4296325783242176e-06 5.3934134896873361e-07 0 7.8416081675088594e-06 -7.6979587893840663e-07 0 6.4296325783242176e-06 5.3934134896873361e-07 0 5.8570766243292952e-06 -1.1977580619934301e-06 0 1.1569873795634904e-05 7.3870965209356494e-07 0 9.3882516009053598e-06 5.7944089546766724e-07 0 9.9314523839558473e-06 -8.6377515825585973e-07 0 9.320003225854321e-05 0.00023848426687305104 0 7.1188048555438841e-05 0.00025505051783481853 0 6.9587935466760583e-05 0.00023157396921128133 0 -6.6594149009174052e-05 -0.00012715407248967329 0 -5.3622075491667336e-05 -0.00013387452888926135 0 -5.4263909089893301e-05 -0.00012054217345587916 0 -9.7944969948445146e-06 -2.9864700149769069e-07 0 -6.9175290932983418e-06 -7.4120426741101523e-07 0 -5.982450059972759e-06 1.020116152123819e-06 0 1.5323009055687189e-09 4.1759890407398425e-10 0 1.0460461477635083e-06 9.3660927498842216e-07 0 1.1052474537330211e-06 7.0040334863464099e-07 0 7.3841794017240141e-05 0.00013813162478728075 0 5.5755929946348765e-05 0.00014863255444912693 0 5.0231795014695082e-05 0.00012747100114347452 0 3.1261381447664942e-05 -5.1122451681086321e-05 0 3.2740660443214882e-05 -4.6835376407068954e-05 0 2.8038003444374545e-05 -4.6693575018851018e-05 0 -8.1716819510144884e-07 -1.5530056012422757e-06 0 1.0298042206700611e-07 1.7348751116054258e-06 0 -5.8723344904540334e-06 5.1888999579181407e-07 0 -6.2377896876121433e-06 4.6705702258339468e-06 0 -5.8723344904540326e-06 5.1888999579181375e-07 0 1.0298042206700721e-07 1.7348751116054263e-06 0 4.726103678701148e-06 -3.3583737377964312e-05 0 9.7938989805019387e-06 -3.6591386283208093e-05 0 8.6056444409413286e-06 -3.0369404631792468e-05 0 
</DataArray>
</PointData>
<CellData Scalars="region_id," Vectors="" Tensors="stress,">
<DataArray type="Float64" Name="region_id" format="ascii">
2 2 2 2 2 2 2 2 2 2 3 3 3 3 3 3 3 3 3 3 1 1 1 1 1 1 1 1 1 1 1 1 1 1 1 1 1 1 1 1 1 1 1 1 1 1 1 1 1 1 1 1 1 1 1 1 1 1 1 1 1 1 1 1 1 1 1 1 1 1 1 1 1 1 1 1 1 1 1 1 1 1 1 1 1 1 1 1 1 1 1 1 1 1 1 1 1 1 1 1 1 1 1 1 1 1 1 1 1 1 1 1 1 1 1 1 1 1 1 1 1 1 1 1 1 1 1 1 1 1 1 1 1 1 1 1 1 1 1 1 1 1 1 1 1 1 1 1 1 1 1 1 1 1 1 1 1 1 1 1 1 1 1 1 1 1 1 1 1 1 1 1 1 1 1 1 1 1 1 1 1 1 1 1 1 1 1 1 1 1 1 1 1 1 1 1 1 1 1 1 1 1 1 1 1 1 1 1 1 1 1 1 1 1 1 1 1 1 1 1 1 1 1 1 1 1 1 1 1 1 1 1 1 1 1 1 1 1 1 1 1 1 1 1 1 1 1 1 1 1 1 1 1 1 1 1 1 1 1 1 1 1 1 1 1 1 1 1 1 1 1 1 1 1 1 1 1 1 1 1 1 1 1 1 1 1 1 1 1 1 1 1 1 1 1 1 1 1 1 1 1 1 1 1 1 1 1 1 1 1 1 1 1 1 1 1 1 1 1 1 1 1 1 1 1 1 1 1 1 1 1 1 1 1 1 1 1 1 1 1 1 1 1 1 1 1 1 1 1 1 1 1 1 1 1 1 1 1 1 1 1 1 1 1 1 1 1 1 1 1 1 1 1 1 1 1 1 1 1 1 1 1 1 1 1 1 1 1 1 1 1 1 1 1 1 1 1 1 1 1 1 1 1 1 1 1 1 1 1 1 1 1 1 1 1 1 1 1 1 1 1 1 1 1 1 1 1 1 1 1 1 1 1 1 1 1 1 1 1 1 1 1 1 1 1 1 1 1 1 1 1 1 1 1 1 1 1 1 1 1 1 1 1 1 1 1 1 1 1 1 1 1 1 1 1 1 1 1 1 1 1 1 1 1 1 1 1 1 1 1 1 1 1 1 1 1 1 1 1 1 1 1 1 1 1 1 1 1 1 1 1 1 1 1 1 1 1 1 1 1 1 1 1 1 1 1 1 1 1 1 1 1 1 1 1 1 1 1 1 1 1 1 1 1 1 1 1 1 1 1 1 1 1 1 1 1 1 1 1 1 1 1 1 1 1 1 1 1 1 1 1 1 1 1 1 1 1 1 1 1 1 1 1 1 1 1 1 1 1 1 1 1 1 1 1 1 1 1 1 1 1 1 1 1 1 1 1 1 1 1 1 1 1 1 1 1 1 1 1 1 1 1 1 1 1 1 1 1 1 1 1 1 1 1 1 1 1 1 1 1 1 1 1 1 1 1 1 1 1 1 1 1 1 1 1 1 1 1 1 1 1 1 1 1 1 1 1 1 1 1 1 1 1 1 1 1 1 1 1 1 1 1 1 1 1 1 1 1 1 1 1 1 1 1 1 1 1 1 1 1 1 1 1 1 1 1 1 1 1 1 1 1 1 1 1 1 1 1 1 1 1 1 1 1 1 1 1 1 1 1 1 1 1 1 1 1 1 1 1 1 1 1 1 1 1 1 1 1 1 1 1 1 1 1 1 1 1 1 1 1 1 1 1 1 1 1 1 1 1 1 1 1 1 1 1 1 1 1 1 1 1 1 1 1 1 1 1 1 1 1 1 1 1 1 1 1 1 1 1 1 1 1 1 1 1 1 1 1 1 1 1 1 1 1 1 1 1 1 1 1 1 1 1 1 1 1 1 1 1 1 1 1 1 1 1 1 1 1 1 1 1 1 1 1 1 1 1 1 1 1 1 1 1 1 1 1 1 1 1 1 1 1 1 1 1 1 1 1 1 1 1 1 1 1 1 1 1 1 1 1 1 1 1 1 1 1 1 1 1 1 1 1 1 1 1 1 1 1 1 1 1 1 1 1 1 1 1 1 1 1 1 1 1 1 1 1 1 1 1 1 1 1 1 1 1 1 1 1 1 1 1 1 1 1 1 1 1 1 1 1 1 1 1 1 1 1 1 1 1 1 1 1 1 1 1 1 1 1 1 1 1 1 1 1 1 1 1 1 1 1 1 1 1 1 1 1 1 1 1 1 1 1 1 1 1 1 1 1 1 1 1 1 1 1 1 1 1 1 1 1 1 1 1 1 1 1 1 1 1 1 1 1 1 1 1 1 1 1 1 1 1 1 1 1 1 1 1 1 1 1 1 1 1 1 1 1 1 1 1 1 1 1 1 1 1 1 1 1 1 1 1 1 1 1 
</DataArray>
<DataArray type="Float64" Name="stress" NumberOfComponents="9" format="ascii">
0.00011565541922055602 -5.4585537320738637e-05 0 -5.4585537320738637e-05 3.8551806406852011e-05 0 0 0 3.8551806406852011e-05 2.3882654702294846e-05 -7.5751490793784479e-05 0 -7.5751490793784479e-05 7.9608849007649531e-06 0 0 0 7.9608849007649531e-06 4.1381621113839074e-05 -9.5487231154438854e-05 0 -9.5487231154438854e-05 1.379387370461302e-05 0 0 0 1.379387370461302e-05 4.2637542449572774e-05 -0.00010128555769773609 0 -0.00010128555769773609 1.4212514149857609e-05 0 0 0 1.4212514149857609e-05 5.3446189113186336e-05 -9.5825504850206465e-05 0 -9.5825504850206465e-05 1.7815396371062103e-05 0 0 0 1.7815396371062103e-05 6.6245890466174742e-05 -0.00010566268316583604 0 -0.00010566268316583604 2.2081963488724914e-05 0 0 0 2.2081963488724914e-05 7.2207393786580406e-05 -0.00010088826361954594 0 -0.00010088826361954594 2.4069131262193487e-05 0 0 0 2.4069131262193487e-05 0.00011317898471188248 -0.00011392050565849196 0 -0.00011392050565849196 3.7726328237294168e-05 0 0 0 3.7726328237294168e-05 5.5962834196644925e-05 -9.8856565379699577e-05 0 -9.8856565379699577e-05 1.8654278065548317e-05 0 0 0 1.8654278065548317e-05 0.00039914983014570349 -6.2574177327050749e-05 0 -6.2574177327050749e-05 0.00013304994338190118 0 0 0 0.00013304994338190118 0.00096273800596137537 8.5997435211448243e-05 0 8.5997435211448243e-05 0.00032091266865379175 0 0 0 0.00032091266865379175 -7.9120778547974585e-05 9.046359760872118e-05 0 9.046359760872118e-05 -2.6373592849324862e-05 0 0 0 -2.6373592849324862e-05 0.00016046345148495859 7.0751470219792547e-05 0 7.0751470219792547e-05 5.3487817161652809e-05 0 0 0 5.3487817161652809e-05 9.7601294289846943e-05 0.00012895387795827814 0 0.00012895387795827814 3.2533764763282332e-05 0 0 0 3.2533764763282332e-05 0.00011459850236730535 0.00011228261609299011 0 0.00011228261609299011 3.8199500789101747e-05 0 0 0 3.8199500789101747e-05 0.0001284712856857884 0.0001166721975242995 0 0.0001166721975242995 4.2823761895262802e-05 0 0 0 4.2823761895262802e-05 0.00011270242890269906 0.00011458565417704549 0 0.00011458565417704549 3.7567476300899723e-05 0 0 0 3.7567476300899723e-05 0.00025742191616815466 0.00015012845610014086 0 0.00015012845610014086 8.5807305389384815e-05 0 0 0 8.5807305389384815e-05 -0.00017614368950452522 0.00011049069219999435 0 0.00011049069219999435 -5.871456316817493e-05 0 0 0 -5.871456316817493e-05 0.0016339081745074023 2.8441404822992546e-05 0 2.8441404822992546e-05 0.00054463605816913393 0 0 0 0.00054463605816913393 0.025636323307780918 -0.0084223898567652184 0 -0.0084223898567652184 0.028383715223659456 0 0 0 0.013505009632860096 0.030723828595777703 -0.0087489677537606024 0 -0.0087489677537606024 0.048390003191769754 0 0 0 0.019778457946886874 0.020601860105644146 -0.0028384579420442507 0 -0.0028384579420442507 0.050191943653948939 0 0 0 0.017698450939898275 0.014817788136209096 0.0065073497381119283 0 0.0065073497381119283 0.050170454517365536 0 0 0 0.016247060663393667 -0.068692214498733722 -0.012411271296120659 0 -0.012411271296120659 0.0053605550117658968 0 0 0 -0.015832914871741946 -0.051953583957330608 0.007203546559711998 0 0.007203546559711998 0.0031314238287096612 0 0 0 -0.012205540032155243 -0.077341127012363203 -0.0087877668496100566 0 -0.0087877668496100566 -0.00061454163437696103 0 0 0 -0.019488917161685045 -0.056832417391201033 0.0051507791387462977 0 0.0051507791387462977 -0.00027245129650853642 0 0 0 -0.014276217171927393 -0.097509022521376276 0.0050858337179396085 0 0.0050858337179396085 -0.00028063816753605073 0 0 0 -0.024447415172228093 -0.16520718819394051 -0.012086867102544765 0 -0.012086867102544765 -0.00011897337236740219 0 0 0 -0.041331540391577 0.06078246508246795 0.00019845553831098362 0 0.00019845553831098362 -0.0066474598118276967 0 0 0 0.013533751317660063 0.056639674537784908 0.00019556403855372538 0 0.00019556403855372538 -0.00514087144466965 0 0 0 0.01287470077327881 0.010760321107644449 0.012375978770098937 0 0.012375978770098937 0.0019607045675177764 0 0 0 0.0031802564187905537 0.022355759455525748 -0.015574332430875684 0 -0.015574332430875684 0.0074447301715185096 0 0 0 0.0074501224067610658 0.0065620157928008033 0.015059734880513259 0 0.015059734880513259 0.0021850978643942042 0 0 0 0.0021867784142987519 0.022035346844016902 -0.015062608797049723 0 -0.015062608797049723 0.034542959654583649 0 0 0 0.014144576624650136 0.25799625466443804 0.11513636196189335 0 0.11513636196189335 0.25636135347977196 0 0 0 0.12858940203605246 0.039926099361711209 -0.0063538220801973022 0 -0.0063538220801973022 0.027100876074682478 0 0 0 0.016756743859098311 0.060494286833929767 0.010981562051514349 0 0.010981562051514349 0.034739872960505735 0 0 0 0.023808539948609209 0.06783769808433604 0.0058184913830420489 0 0.0058184913830420489 0.056770106711839574 0 0 0 0.031151951199043904 0.03705421761868477 -0.0084507543262921127 0 -0.0084507543262921127 0.018485230845700862 0 0 0 0.013884862116096519 0.061785676284235258 0.015175800049793686 0 0.015175800049793686 0.035238388322947678 0 0 0 0.02425601615179529 0.038090093994786356 -0.014577088683917827 0 -0.014577088683917827 0.029507897936358551 0 0 0 0.016899497982786116 0.016003724684814005 0.01495604809951483 0 0.01495604809951483 0.0013482407099456549 0 0 0 0.0043379913486899097 0.27181996810860848 -0.012380447231626096 0 -0.012380447231626096 0.16069021751716639 0 0 0 0.10812754640644369 -0.20065698674756058 0.013753293619469587 0 0.013753293619469587 0.011691731283808515 0 0 0 -0.047241313865938106 -0.11164371952484572 -0.0050998871026113838 0 -0.0050998871026113838 0.0044657310689486529 0 0 0 -0.026794497113974219 -0.020179809903648482 -0.019128348198800476 0 -0.019128348198800476 0.028633224328974471 0 0 0 0.0021133536063314973 -0.044795202685597224 0.021633340173962928 0 0.021633340173962928 0.074498712144634771 0 0 0 0.0074258773647594145 -0.058900945206808948 -0.027106326838150029 0 -0.027106326838150029 0.013171782609580587 0 0 0 -0.011432290649307083 0.041440763728977703 -0.018925622388595381 0 -0.018925622388595381 0.06053661516902073 0 0 0 0.025494344724499594 0.023958823183316436 -0.023072531450354705 0 -0.023072531450354705 0.021144304250105939 0 0 0 0.011275781858355871 0.054900429447930055 0.026359853821301016 0 0.026359853821301016 0.026441072247926023 0 0 0 0.020335375423963908 0.037072049338751634 -0.026019712345697887 0 -0.026019712345697887 0.021840944224726488 0 0 0 0.014728248390869392 0.024473889897320245 0.036098611068327457 0 0.036098611068327457 0.01576518341774058 0 0 0 0.010059768328765317 -0.022356056320264817 -0.035986792929727507 0 -0.035986792929727507 0.0061517665675397612 0 0 0 -0.0040510724381812623 0.077228213183518385 -0.045334995675270301 0 -0.045334995675270301 0.083288956866339026 0 0 0 0.040129292512464346 -0.063658680049568928 0.0082944607445059881 0 0.0082944607445059881 0.021213977225492564 0 0 0 -0.010611175706019105 0.40551447800536439 0.13157729781466887 0 0.13157729781466887 0.10051986338413332 0 0 0 0.12650858534737441 0.12159252996336167 0.00051494646068350747 0 0.00051494646068350747 0.05822514111034871 0 0 0 0.044954417768427624 0.1903751779696306 -0.0022295156559181961 0 -0.0022295156559181961 0.12283056569713668 0 0 0 0.078301435916691864 0.051393611673335962 -0.021953581909475276 0 -0.021953581909475276 0.095483488277053705 0 0 0 0.036719274987597431 0.11792453416289517 -0.00589743886247307 0 -0.00589743886247307 0.10758263007247937 0 0 0 0.056376791058843523 0.0096404948143615776 0.0050209270172070219 0 0.0050209270172070219 0.014516134488975041 0 0 0 0.0060391573258349318 0.034963048523858065 -0.010499181478973585 0 -0.010499181478973585 -0.00057274218049976899 0 0 0 0.0085975765858395704 0.021221769284017269 0.016133273050829462 0 0.016133273050829462 0.0028235965979049454 0 0 0 0.0060113414704805546 0.0049929401363398782 0.067559292466991439 0 0.067559292466991439 0.078719701286280003 0 0 0 0.020928160355655027 0.017749386897996627 0.055405969650530185 0 0.055405969650530185 0.058866989953734045 0 0 0 0.019154094212932765 0.24459024704612847 0.16034804509662187 0 0.16034804509662187 0.29638743084570274 0 0 0 0.13524441947295779 0.0053373907738081122 0.011645329183719522 0 0.011645329183719522 0.016877542013388591 0 0 0 0.0055537331967996234 0.095565225608827561 -0.019724513682543909 0 -0.019724513682543909 0.083647977670984641 0 0 0 0.044803300819953137 0.079717142982908828 0.010302814721838582 0 0.010302814721838582 0.035477653162597322 0 0 0 0.028798699036376496 0.044304890387981549 -0.018533725652240103 0 -0.018533725652240103 0.072929500767311708 0 0 0 0.029308597788823304 0.060392624090750191 -0.022739916738890427 0 -0.022739916738890427 0.015127866606267859 0 0 0 0.018880122674254485 0.097695152631046028 0.004664014524353069 0 0.004664014524353069 0.042609861211773903 0 0 0 0.035076253460704948 -0.078945958965731977 0.017084020729399407 0 0.017084020729399407 0.0055993121631026099 0 0 0 -0.018336661700657286 -2.2882175087390877e-05 -0.0081490863113298229 0 -0.0081490863113298229 0.0098757817483363652 0 0 0 0.0024632248933122991 0.17555615036971117 0.0188432281983415 0 0.0188432281983415 0.15892591919422649 0 0 0 0.083620517390983862 0.13768139173649235 -0.013540634160469356 0 -0.013540634160469356 0.1159267676382984 0 0 0 0.06340203984369791 0.0037408355905670376 0.0063678863670342317 0 0.0063678863670342317 0.016693572924234346 0 0 0 0.0051086021287005678 0.065970547305206351 -0.014110993135093119 0 -0.014110993135093119 0.036059558630140875 0 0 0 0.025507526483836807 0.078874472327494102 -0.063357664102683592 0 -0.063357664102683592 0.1228255294081986 0 0 0 0.050425000433923159 0.060223297647885143 -0.010636936489211934 0 -0.010636936489211934 0.029257812794021731 0 0 0 0.022370277610476719 0.087360380696790196 -0.0020657114853532624 0 -0.0020657114853532624 0.022338799698507272 0 0 0 0.027424795098824339 0.0064428483539240577 -0.031416666575546565 0 -0.031416666575546565 0.015159790560516528 0 0 0 0.0054006597286100355 -0.044611927111634697 0.0096054282843235084 0 0.0096054282843235084 -0.0040732749029643821 0 0 0 -0.012171300503649774 -0.057403563102626919 -0.016668973820159229 0 -0.016668973820159229 -0.0053278086689764956 0 0 0 -0.015682842942900857 0.091476979989348964 -0.014465970466223665 0 -0.014465970466223665 0.029127193959946979 0 0 0 0.030151043487323958 0.13774902276242518 0.018623220625833103 0 0.018623220625833103 0.087182516715166081 0 0 0 0.056232884869397814 -0.027827485904395724 -0.023365724170787604 0 -0.023365724170787604 -0.0073382976298442815 0 0 0 -0.0087914458835600014 -0.02694261545280556 0.015207773294611437 0 0.015207773294611437 -0.0052782305056534237 0 0 0 -0.0080552114896147459 0.050586261190356502 -0.0048927677101526616 0 -0.0048927677101526616 -0.0054146231098305339 0 0 0 0.011292909520131495 -0.056199218639555376 0.0087850183274960601 0 0.0087850183274960601 0.0021481700311668222 0 0 0 -0.013512762152097148 -0.075992029602292135 -0.015584074727196567 0 -0.015584074727196567 0.0038614839532636336 0 0 0 -0.018032636412257122 0.071751771606601372 -0.012964888556983994 0 -0.012964888556983994 0.0090945616314426214 0 0 0 0.020211583309510978 0.064581917274999942 -0.021508281410280744 0 -0.021508281410280744 0.01621335436090976 0 0 0 0.020198817908977443 0.20104706999041794 -0.003647935702939975 0 -0.003647935702939975 0.1973712118244747 0 0 0 0.099604570453722785 0.0034646511824990567 -0.0039478133676844607 0 -0.0039478133676844607 0.0079311708452071139 0 0 0 0.0028489555069265426 0.065914515554411413 -0.015552077274396725 0 -0.015552077274396725 0.0052765239992702551 0 0 0 0.017797759888420361 0.079179124704567533 0.00651553142098793 0 0.00651553142098793 0.039450390510243155 0 0 0 0.029657378803702755 0.0052141169639128293 0.049181353146930951 0 0.049181353146930951 0.013279556163787731 0 0 0 0.0046234182819255842 -0.044904865221219857 -0.017600666662565958 0 -0.017600666662565958 -0.014975940644952243 0 0 0 -0.014970201466543025 -0.03716114719159077 0.01100129079010926 0 0.01100129079010926 -0.012392059386041467 0 0 0 -0.012388301644408057 0.040483037771795266 -0.012283934249454061 0 -0.012283934249454061 -0.011567885042742497 0 0 0 0.0072287881822631879 0.070292937207855566 0.013298521967113786 0 0.013298521967113786 0.060109869003892591 0 0 0 0.032600701552937039 0.034268888889884774 -0.013335880013626511 0 -0.013335880013626511 0.018523658884845418 0 0 0 0.013198136943682437 0.028570324622462492 -0.025810156724570543 0 -0.025810156724570543 0.015148841920516923 0 0 0 0.010929791635744743 0.049242960619533885 0.0050878078821561725 0 0.0050878078821561725 -0.0019572861625324397 0 0 0 0.011821418614250356 0.0038903070068203012 -0.024667371999182647 0 -0.024667371999182647 -0.0042942908890950763 0 0 0 -0.00010099597056869355 0.089857233391973934 0.0059798268261064182 0 0.0059798268261064182 0.033721062174471128 0 0 0 0.030894573891611266 0.055832668827757378 0.0058230059690775153 0 0.0058230059690775153 0.00037753916487749412 0 0 0 0.014052551998158733 0.045759982307231009 0.0090740208396914018 0 0.0090740208396914018 0.0014893675828268199 0 0 0 0.011812337472514457 0.044011641598408036 0.0081122246259377074 0 0.0081122246259377074 0.0034941574029562373 0 0 0 0.011876449750341064 0.068265606069291079 -0.014456742054187677 0 -0.014456742054187677 0.044928499802571631 0 0 0 0.028298526467965684 0.072936348522669031 -0.031294260534512258 0 -0.031294260534512258 0.038197620981822444 0 0 0 0.027783492376122848 0.086305603395169461 0.0061880488008251855 0 0.0061880488008251855 0.041156283300939567 0 0 0 0.031865471674027257 0.04986164118739507 -0.023610832929616809 0 -0.023610832929616809 0.096921196116169311 0 0 0 0.036695709325891085 0.2405581195595623 0.011074862724996137 0 0.011074862724996137 0.21143519108839115 0 0 0 0.11299832766198792 0.0012484017240450562 -0.0042490900533220799 0 -0.0042490900533220799 0.0097443871652611591 0 0 0 0.0027481972223264428 -0.009194547598755376 -0.0046623958409887159 0 -0.0046623958409887159 0.0062632015243577754 0 0 0 -0.00073283651859967769 0.21272665754010234 -0.0010544982455389373 0 -0.0010544982455389373 0.20215208490995629 0 0 0 0.10371968561251466 0.062665352082110937 0.022598777740791848 0 0.022598777740791848 0.12682380424871914 0 0 0 0.047372289082707547 0.031941598707581412 0.012185900228112631 0 0.012185900228112631 0.0022204182046325627 0 0 0 0.0085405042280534971 0.024167225158926078 0.012595138698510772 0 0.012595138698510772 0.0027779596318739386 0 0 0 0.0067362961977000049 0.14149638444374868 0.02255465448057814 0 0.02255465448057814 0.06678107274041345 0 0 0 0.052069364296040588 0.12839075813817269 0.030453824690755749 0 0.030453824690755749 0.062417358417654611 0 0 0 0.047702029138957158 0.060795829556864356 -0.033275977174397578 0 -0.033275977174397578 0.038348787449202948 0 0 0 0.02478615425151684 0.085340491723743084 0.010777631721902214 0 0.010777631721902214 0.039599144259312213 0 0 0 0.031234908995763977 0.061138193840352795 -0.0096709252792557127 0 -0.0096709252792557127 0.0084697960960908869 0 0 0 0.017401997484110865 0.044083991415377208 0.011673991510559964 0 0.011673991510559964 0.083662521015907959 0 0 0 0.031936628107821288 -0.010556205927918505 0.0060949951515704686 0 0.0060949951515704686 0.011950098126177977 0 0 0 0.00034847304956509007 0.11786857656592087 -0.0078819611307043846 0 -0.0078819611307043846 0.10899852943141575 0 0 0 0.056716776499334376 -0.081267924846810058 0.0042523830959777121 0 0.0042523830959777121 0.0015245208467138324 0 0 0 -0.019935851000024037 -0.12944527581560339 -0.0108434675366198 0 -0.0108434675366198 0.0022565273111699868 0 0 0 -0.031797187126108323 0.09554767332988276 -0.0280747883325973 0 -0.0280747883325973 0.022933888253810542 0 0 0 0.029620390395923346 0.18326680363850578 -0.062798981944164944 0 -0.062798981944164944 0.060821863801091003 0 0 0 0.061022166859899196 0.081967304678692787 -0.013162751843522835 0 -0.013162751843522835 0.011792344813856825 0 0 0 0.023439912373137473 0.079763728365824793 -0.020418714455204073 0 -0.020418714455204073 0.013697021194112924 0 0 0 0.023365187389984443 0.061494151061919848 -0.00082936415671897024 0 -0.00082936415671897024 0.027407342145451402 0 0 0 0.022225373301842977 0.038784624949885327 0.0019932338422421481 0 0.0019932338422421481 0.020575861800299577 0 0 0 0.014840121687546226 0.099377436217544801 -0.0015164340181130775 0 -0.0015164340181130775 0.054148965343191691 0 0 0 0.038381600390184456 0.0228219308464769 -0.0026028072125015012 0 -0.0026028072125015012 0.0093894064640455792 0 0 0 0.0080528343276308426 0.013964137888548556 0.031565606859404016 0 0.031565606859404016 0.10310010059322183 0 0 0 0.029266059620442597 0.055313131465336618 -0.016311120092757786 0 -0.016311120092757786 0.019471570506468305 0 0 0 0.018696175492951217 0.086448731336765755 -0.0063234210928436174 0 -0.0063234210928436174 0.01437977450420537 0 0 0 0.025207126460242726 0.079431777603368461 -0.0055243523382962345 0 -0.0055243523382962345 0.01641644519676793 0 0 0 0.023962055700034082 0.057613118942766994 -0.029324566444616562 0 -0.029324566444616562 0.023323674789607729 0 0 0 0.020234198433093598 -0.12580417145900968 0.021782887052654076 0 0.021782887052654076 0.0081907335159661088 0 0 0 -0.029403359485760894 -0.019983739440603665 0.004717184870304425 0 0.004717184870304425 0.026322765153858063 0 0 0 0.0015847564283136134 -0.0049683337659085641 -0.0057933354998722791 0 -0.0057933354998722791 0.023837711319911858 0 0 0 0.0047173443885008132 0.062222784341058823 -0.0084902555882774289 0 -0.0084902555882774289 0.022130009182159127 0 0 0 0.021088198380804446 -0.083755141099034813 0.034043047838599572 0 0.034043047838599572 0.0072554873724235414 0 0 0 -0.01912491343165279 -0.063016757528246314 0.010757891068550116 0 0.010757891068550116 0.0068670201293983824 0 0 0 -0.014037434349711969 -0.066628587774813078 -0.00090148938759881947 0 -0.00090148938759881947 0.0069856002043946486 0 0 0 -0.01491074689260459 -0.10977189153925528 -0.0032093480970669941 0 -0.0032093480970669941 0.015563623098827917 0 0 0 -0.02355206711010685 -0.10128933669271237 -0.027223074871323916 0 -0.027223074871323916 0.016691716709319293 0 0 0 -0.021149404995848248 0.058919815430488305 -0.013465527624787477 0 -0.013465527624787477 0.022487951574406501 0 0 0 0.02035194175122363 -0.076731551039757068 -0.0095658200799920989 0 -0.0095658200799920989 0.0039703704171551446 0 0 0 -0.018190295155650488 0.14167352553403256 0.069189295169146847 0 0.069189295169146847 0.04535777474299385 0 0 0 0.046757825069256631 0.034892657244390883 -0.012985249332882851 0 -0.012985249332882851 0.066909398697971786 0 0 0 0.02545051398559068 0.059894602846467776 0.019054727654777517 0 0.019054727654777517 0.02767940727263335 0 0 0 0.021893502529775285 0.0024699510480078457 0.024188422345872818 0 0.024188422345872818 0.015308511115367018 0 0 0 0.0044446155408438548 0.063631304202600825 -0.021393800213253322 0 -0.021393800213253322 0.040777244025052228 0 0 0 0.026102137056913277 0.07452374867090604 -0.031458537138419396 0 -0.031458537138419396 0.042952123837826157 0 0 0 0.02936896812718302 0.05705412356791506 -0.007607890697781311 0 -0.007607890697781311 0.022322612155254884 0 0 0 0.019844183930792458 0.076210023218836159 -0.0051050995731815596 0 -0.0051050995731815596 0.015246670610501223 0 0 0 0.022864173457334352 0.024243872539090279 -0.017610632836185879 0 -0.017610632836185879 -0.0040256879553045161 0 0 0 0.005054546145946439 0.011065199519771782 0.018239699459972235 0 0.018239699459972235 0.0010570343803947627 0 0 0 0.0030305584750416371 0.031106201537404961 -0.034565975078255984 0 -0.034565975078255984 0.02390793068597083 0 0 0 0.013753533055843932 0.00069127874367734543 -0.034155522406849465 0 -0.034155522406849465 -0.0034455326330997127 0 0 0 -0.00068856347235558835 -0.021143024671125665 -0.014979894583734941 0 -0.014979894583734941 0.032678200481959796 0 0 0 0.002883793952708491 0.046786117557747538 -0.0050815574204079632 0 -0.0050815574204079632 -0.0055103219762545879 0 0 0 0.010318948895373239 0.049603851105626873 -0.0014695526814607054 0 -0.0014695526814607054 0.00013236366894332253 0 0 0 0.012434053693642548 0.032314760759589674 0.010933081881955211 0 0.010933081881955211 0.003587593262785866 0 0 0 0.0089755885055938876 0.031278580219975434 0.012983079063810765 0 0.012983079063810765 0.0012381072196606009 0 0 0 0.0081291718599090096 -0.0079201011875392469 -0.026472837756183046 0 -0.026472837756183046 0.032896610934173537 0 0 0 0.0062441274366585864 0.051358025729243889 0.015873630206607162 0 0.015873630206607162 0.026162906843011681 0 0 0 0.019380233143063887 0.058461234624803619 -0.0077827436053558279 0 -0.0077827436053558279 -0.0082224453755253973 0 0 0 0.012559697312319556 0.029478392910247616 -0.03108721491599736 0 -0.03108721491599736 -0.003975103172226691 0 0 0 0.0063758224345052301 0.049445136746825602 0.019519337787518822 0 0.019519337787518822 0.066714626650898362 0 0 0 0.029039940849430998 0.014597960341558108 0.0067552283190088977 0 0.0067552283190088977 0.0071781605027594758 0 0 0 0.0054440302110793943 0.018908787257963085 0.009185324505928464 0 0.009185324505928464 0.011604713830561324 0 0 0 0.0076283752721311056 -0.04489518081240778 -0.017607389830202862 0 -0.017607389830202862 -0.014945088653932017 0 0 0 -0.01496006736658495 -0.037154516150132925 0.01100725618426341 0 0.01100725618426341 -0.012370586234693054 0 0 0 -0.012381275596206495 0.22071811051491885 0.037031778890890266 0 0.037031778890890266 0.063540052716433718 0 0 0 0.071064540807838084 0.033145524804772876 0.01026338052226128 0 0.01026338052226128 0.008040266899263987 0 0 0 0.010296447926009224 0.0203102003810922 -0.005876751436361875 0 -0.005876751436361875 0.080824460946092691 0 0 0 0.025283665331796226 0.059412376105299092 -0.00229126356482523 0 -0.00229126356482523 0.011253766754643846 0 0 0 0.017666535714985832 -0.071586894819491181 0.0067639751650310984 0 0.0067639751650310984 0.0021926331950538188 0 0 0 -0.017348565406109354 -0.11204056468536172 -0.012860535575690507 0 -0.012860535575690507 0.0023105746583029496 0 0 0 -0.027432497506764721 0.063431529180081991 -0.0049120309844444821 0 -0.0049120309844444821 0.015217433306590977 0 0 0 0.019662240621668263 -0.055140876636810422 0.014361457300128676 0 0.014361457300128676 0.0022801052835998308 0 0 0 -0.01321519283830264 -0.055487747465237429 -0.039147886616101663 0 -0.039147886616101663 0.00098948001029335736 0 0 0 -0.013624566863735995 -0.060918517899408789 0.008657501751456801 0 0.008657501751456801 0.00028745315755645054 0 0 0 -0.015157766185463092 -0.0045461069273923516 0.012440129096639555 0 0.012440129096639555 0.0021675065494492635 0 0 0 -0.0005946500944857756 0.022588673217803522 -0.021241269186355979 0 -0.021241269186355979 -0.0053996997393598728 0 0 0 0.0042972433696109175 -0.014903140000294128 -0.030782516960797188 0 -0.030782516960797188 0.013671879865158748 0 0 0 -0.00030781503378384673 0.051776647818034066 -0.016125022609919382 0 -0.016125022609919382 0.018312417567805106 0 0 0 0.017522266346459758 0.12570911923317052 0.013534069268980709 0 0.013534069268980709 0.086013663525360329 0 0 0 0.05293069568963249 -0.0043545968522651357 -0.014916422190171141 0 -0.014916422190171141 0.0081445101287327404 0 0 0 0.00094747831911701219 0.044511372112728417 -0.0062737830132573117 0 -0.0062737830132573117 0.0032448255527292823 0 0 0 0.011939049416364426 0.024443755071964217 0.011742979196754363 0 0.011742979196754363 0.0047203401110352469 0 0 0 0.0072910237957498642 0.010814343623598736 -0.022648252084447387 0 -0.022648252084447387 -0.005448402107011259 0 0 0 0.0013414853791468666 -1.1234722534865862e-05 0.019305068893859682 0 0.019305068893859682 -0.0012906070550040977 0 0 0 -0.00032546044438474045 0.029008220912557128 -0.0058735403452585405 0 -0.0058735403452585405 0.022027793452807864 0 0 0 0.012759003591341259 0.02985505217970838 -0.017741728589922234 0 -0.017741728589922234 0.026880662458233368 0 0 0 0.014183928659485437 0.024999617602484037 0.061534319542304941 0 0.061534319542304941 0.02460147981739258 0 0 0 0.012400274354969154 0.092517048567947624 0.089028474584400469 0 0.089028474584400469 0.063648947867244621 0 0 0 0.039041499108798061 0.14505975857273518 -0.004116074125753405 0 -0.004116074125753405 0.068175568388136931 0 0 0 0.053308831740218027 0.01477715015619576 -0.0030290717715569168 0 -0.0030290717715569168 0.062735634385684635 0 0 0 0.019378196135470115 0.05204847373776178 0.0034951327558254675 0 0.0034951327558254675 -0.0040256749696870806 0 0 0 0.012005699692018666 0.053967293178724479 -0.017062845609080002 0 -0.017062845609080002 0.008970333414139664 0 0 0 0.015734406648216098 0.0073780215340257804 0.043708094360937144 0 0.043708094360937144 0.0092833858469565378 0 0 0 0.0041653518452458016 0.073997247765208884 -0.015047473557076252 0 -0.015047473557076252 0.066478579508588709 0 0 0 0.035118956818449232 0.063689230375582384 0.0024926710818727882 0 0.0024926710818727882 0.024206056905111517 0 0 0 0.021973821820173378 0.020390606764614651 0.01163947448703836 0 0.01163947448703836 0.0019316596518760831 0 0 0 0.005580566604122681 -0.013475679650009731 0.01219604821532011 0 0.01219604821532011 0.060695316809423971 0 0 0 0.011804909289853505 -0.069829362877922393 0.0039853716281479674 0 0.0039853716281479674 -0.0022549709162512643 0 0 0 -0.018021083448543411 -0.09997315615714622 -0.0070891161027392957 0 -0.0070891161027392957 -0.004114640440103734 0 0 0 -0.026021949149312495 0.084718481606168766 -0.014649755329009806 0 -0.014649755329009806 0.012772335932160039 0 0 0 0.024372704384582222 -0.011267980351405846 0.013972411096613766 0 0.013972411096613766 -0.00011206999878478341 0 0 0 -0.0028450125875476573 0.0015524958364391966 -0.019577340272325567 0 -0.019577340272325567 -0.0073079402829931382 0 0 0 -0.0014388611116384863 -0.15115359108149257 0.00088035502447841862 0 0.00088035502447841862 0.0093846343432378854 0 0 0 -0.03544223918456374 -0.086776121907039427 7.1915187259130597e-05 0 7.1915187259130597e-05 0.0031725357712971969 0 0 0 -0.020900896533935565 0.10418835395800642 0.026068388888787764 0 0.026068388888787764 0.14741729269875206 0 0 0 0.062901411664189624 0.18122008710663626 -0.004434696510810493 0 -0.004434696510810493 0.35361313942941591 0 0 0 0.13370830663401301 0.022308129673127369 -0.038061064502946662 0 -0.038061064502946662 0.027412014600503853 0 0 0 0.012430036068407813 -0.00082205813143307327 -0.030569343341364019 0 -0.030569343341364019 0.019168173825548473 0 0 0 0.0045865289235289264 0.077262693830120854 -0.04174976843843467 0 -0.04174976843843467 0.073500002772216438 0 0 0 0.03769067415058433 0.049579334299807432 -0.0060704169063381386 0 -0.0060704169063381386 0.0052127445936461791 0 0 0 0.013698019723363486 0.0493981388496108 -0.0042403024925885616 0 -0.0042403024925885616 -0.0087050527321931703 0 0 0 0.010173271529354405 -0.031914071583552694 -0.0034589656833976523 0 -0.0034589656833976523 0.015573571063482783 0 0 0 -0.004085125130017464 0.069681478494857729 -0.0013153072760243439 0 -0.0013153072760243439 0.0048144995430932092 0 0 0 0.018623994509487596 -0.12007493889657156 0.016656581129028181 0 0.016656581129028181 0.0060736589584343276 0 0 0 -0.028500319984534332 0.025875147930291664 0.018491699571473674 0 0.018491699571473674 0.020589483768240768 0 0 0 0.011616157924632553 0.050783861104764738 -0.019261591702105063 0 -0.019261591702105063 0.040321374211111927 0 0 0 0.022776308828969194 0.037112308414989095 0.0095570665260854247 0 0.0095570665260854247 0.021282112160331729 0 0 0 0.014598605143830209 0.021047691862601414 -0.01371154209732052 0 -0.01371154209732052 0.027021321903450968 0 0 0 0.012017253441513082 0.058310449372235978 0.010700191739003164 0 0.010700191739003164 0.0054955233606660339 0 0 0 0.015951493183225508 0.064151175543064931 0.014736892553400079 0 0.014736892553400079 0.013312825795680987 0 0 0 0.019366000334686488 -0.018792417120590797 -0.030279299412183904 0 -0.030279299412183904 0.00017134679117286611 0 0 0 -0.0046552675823544783 0.0050900681197599829 -0.027498324728157497 0 -0.027498324728157497 0.0088070591016051747 0 0 0 0.0034742818053412616 -0.069400379942206242 -0.024751555262702653 0 -0.024751555262702653 -0.0061375571245559828 0 0 0 -0.018884484266690538 0.060608105963710912 0.041153466616314915 0 0.041153466616314915 0.026738371884198031 0 0 0 0.021836619461976792 0.053769981727026475 0.038823811314654177 0 0.038823811314654177 0.024868222285961805 0 0 0 0.01965955100324708 0.05066876428719258 0.041144358088305744 0 0.041144358088305744 0.019017115749582203 0 0 0 0.017421470009193696 0.012610790704485897 -0.027963744819139658 0 -0.027963744819139658 0.012573798581948292 0 0 0 0.0062961473216084363 0.0067558860851435979 -0.022838287089706255 0 -0.022838287089706255 0.010366530440542296 0 0 0 0.0042806041314214453 0.14850231120367863 0.041549495597245842 0 0.041549495597245842 0.080849279665741514 0 0 0 0.057337897717355063 0.044132848862043265 -0.0050471751573394315 0 -0.0050471751573394315 0.014698835957519269 0 0 0 0.014707921204890633 0.028979560372810059 0.012084175387954038 0 0.012084175387954038 0.0096544823683990463 0 0 0 0.0096585106853022771 0.038011522565192912 0.010824238446350845 0 0.010824238446350845 0.009271227452684716 0 0 0 0.011820687504469407 0.064509913081337203 -0.010484191527116271 0 -0.010484191527116271 0.10946845744798339 0 0 0 0.043494592632330131 -0.037849828693099871 -0.036574721802166636 0 -0.036574721802166636 -0.0016433674115283181 0 0 0 -0.0098732990261570508 0.041967187561876715 0.0052616694059399909 0 0.0052616694059399909 0.0051827354043770708 0 0 0 0.011787480741563446 -0.10152627289347509 -0.0092584460474347645 0 -0.0092584460474347645 -0.0056069142237022696 0 0 0 -0.026783296779294339 -0.068476716051253397 0.0045651960630079171 0 0.0045651960630079171 -0.0025959410677802927 0 0 0 -0.017768164279758407 -0.072680581692051771 -0.0062913561909165028 0 -0.0062913561909165028 0.0032709394866226038 0 0 0 -0.017352410551357333 0.038960703853272216 0.010151201280734413 0 0.010151201280734413 0.0021080988155438712 0 0 0 0.010267200667204015 0.061951973419330744 -0.013306695890053344 0 -0.013306695890053344 0.043258067163981978 0 0 0 0.026302510145828198 0.04077072530316353 0.014316227098987066 0 0.014316227098987066 0.047240411081631184 0 0 0 0.022002784096198678 0.096899995578804493 0.049712146004554536 0 0.049712146004554536 0.026340546157068823 0 0 0 0.030810135433968523 0.05528664541899464 0.0022251116290694577 0 0.0022251116290694577 -0.002380779527755025 0 0 0 0.013226466472809909 0.034117668707513094 0.015703365352045751 0 0.015703365352045751 0.029688810483315287 0 0 0 0.015951619797706762 0.052650387094002049 -0.01425413285087973 0 -0.01425413285087973 0.031741435943950957 0 0 0 0.021097955759488141 0.039079575781500481 0.010833413962634954 0 0.010833413962634954 0.0016344723193388311 0 0 0 0.010178512025209826 0.028540090354570551 0.0055199372451704715 0 0.0055199372451704715 0.060527516218781045 0 0 0 0.022266901643337882 0.10792299849166564 0.0082361418571474387 0 0.0082361418571474387 0.067460957563174162 0 0 0 0.04384598901370973 0.033208006128103484 0.011216948723386189 0 0.011216948723386189 0.028954983202828188 0 0 0 0.015540747332732474 0.018353416761199393 -0.0099713840824983691 0 -0.0099713840824983691 0.013088363969183447 0 0 0 0.0078604451825954325 0.065375004160708627 -0.010307481852836808 0 -0.010307481852836808 0.036401478182618519 0 0 0 0.025444120585831786 -0.056338754673864622 -0.0044717304680225028 0 -0.0044717304680225028 0.033594786311804514 0 0 0 -0.005685992090515013 -0.039244929817128155 -0.019407011604595348 0 -0.019407011604595348 0.011321717019844579 0 0 0 -0.0069808031993209563 -0.058034401819109349 -0.019259259598736783 0 -0.019259259598736783 0.010595152499538463 0 0 0 -0.011859812329892722 -0.087998522376023125 0.045318494916484098 0 0.045318494916484098 0.026689400117705819 0 0 0 -0.015327280564579215 -0.05153387646553953 0.04528477173627582 0 0.04528477173627582 0.0276993714817102 0 0 0 -0.0059586262459573325 0.022621269814923392 0.011210186140051889 0 0.011210186140051889 0.0013134182430551006 0 0 0 0.0059836720144946214 0.21759104506243399 0.035491590142443158 0 0.035491590142443158 0.060534499556394561 0 0 0 0.069531386154707109 -0.023116238369930524 -0.022347201108770347 0 -0.022347201108770347 -0.0079355999551033382 0 0 0 -0.0077629595812584648 -0.025315867864092394 0.014228255626046783 0 0.014228255626046783 -0.0024785069068426063 0 0 0 -0.0069485936927337483 0.026383487776322611 -0.0090000832957568416 0 -0.0090000832957568416 0.045323042996891369 0 0 0 0.017926632693303478 -0.0014106350311519091 0.016206111474996374 0 0.016206111474996374 -0.00085258527372238796 0 0 0 -0.00056580507621857698 0.016288430090507074 -0.023516517971444276 0 -0.023516517971444276 -0.013367552896949464 0 0 0 0.00073021929838940416 -0.073100125481151051 -0.029509898427477768 0 -0.029509898427477768 0.0044968150226179365 0 0 0 -0.017150827614633275 -0.074431237474252232 -0.02866675994771677 0 -0.02866675994771677 -0.00056750900569167706 0 0 0 -0.018749686619985981 0.11413242366474208 0.02204041466613027 0 0.02204041466613027 0.086090845016611794 0 0 0 0.050055817170338468 0.0121167908079578 -0.015992349871930045 0 -0.015992349871930045 0.012791087457979966 0 0 0 0.0062269695664844971 0.11348664328874479 0.00644369415878987 0 0.00644369415878987 0.014655499376976586 0 0 0 0.032035535666430234 0.076258718407355541 -0.0032668267509903259 0 -0.0032668267509903259 -0.016669150954180756 0 0 0 0.014897391863293752 -0.00014061182504531214 0.010314646349174965 0 0.010314646349174965 0.0069835589314912669 0 0 0 0.0017107367766114878 0.10032665998420803 -0.012258384199966166 0 -0.012258384199966166 0.097617315819182982 0 0 0 0.049485993950847795 0.17144228321658528 0.010366077126160611 0 0.010366077126160611 0.18036555395064691 0 0 0 0.087951959291808102 0.10300514531309754 0.016799341870280926 0 0.016799341870280926 0.064054975414673282 0 0 0 0.041765030181942636 -0.055525850963967172 -0.0074009393335749962 0 -0.0074009393335749962 0.012682107264142761 0 0 0 -0.010710935924956103 0.052188711002940702 0.0017086009276144343 0 0.0017086009276144343 -0.010349009592522496 0 0 0 0.010459925352604482 -0.072562762617571358 -0.039198167207264947 0 -0.039198167207264947 0.010735188375622373 0 0 0 -0.015456893560487239 0.037617542394859142 0.0086993342374853642 0 0.0086993342374853642 0.01858688305389819 0 0 0 0.01405110636218933 -0.0095181180407017396 -0.029290380947113032 0 -0.029290380947113032 0.030814214030137732 0 0 0 0.0053240239973589842 -0.00288533907737204 -0.022717622018074174 0 -0.022717622018074174 0.026907265253158674 0 0 0 0.0060054815439466447 -0.0034370239292926142 0.014869593044300279 0 0.014869593044300279 0.0024000053606407223 0 0 0 -0.00025925464216297427 -0.036149997204301454 -0.015009285128864319 0 -0.015009285128864319 0.01794872603044384 0 0 0 -0.0045503177934644035 -0.012588385849070106 0.011118184955372978 0 0.011118184955372978 0.0041796280394909291 0 0 0 -0.0021021894523947926 0.024567730343358175 -0.023626351225904233 0 -0.023626351225904233 -0.013245304092963775 0 0 0 0.0028306065625985956 -0.060342393917426962 -0.0058595099737990819 0 -0.0058595099737990819 0.01297029778771186 0 0 0 -0.011843024032428789 -0.10288299608931739 0.012028097454763687 0 0.012028097454763687 0.043483838575293698 0 0 0 -0.01484978937850584 -0.026216091976749165 -0.024649058996029833 0 -0.024649058996029833 -0.0032412529925667441 0 0 0 -0.0073643362423289789 -0.025494696560196962 0.016670549596860172 0 0.016670549596860172 -0.0017940324356453125 0 0 0 -0.0068221822489605705 -0.016213459946310411 0.017057730894965491 0 0.017057730894965491 0.00071173968569814526 0 0 0 -0.0038754300651530644 -0.005192326118828007 -0.031591696728589566 0 -0.031591696728589566 -0.010228247168961119 0 0 0 -0.0038551433219472797 0.040421445280197532 -0.011669235349727846 0 -0.011669235349727846 -0.0089533669736795995 0 0 0 0.0078670195766294901 0.056095892922669505 -0.042435008837913013 0 -0.042435008837913013 0.061135658022255734 0 0 0 0.029307887736231275 0.060285005964749144 0.0057965321295038391 0 0.0057965321295038391 -0.002286606288952951 0 0 0 0.014499599918949044 0.025795185905636231 0.021709302220857651 0 0.021709302220857651 0.021290251300121632 0 0 0 0.011771359301439244 0.063494630156156751 -0.021886977035007638 0 -0.021886977035007638 0.043884277297684626 0 0 0 0.026844726863460178 -0.013289628198206017 0.016883494159106512 0 0.016883494159106512 -0.00025463794562737008 0 0 0 -0.0033860665359583542 0.0023579595698030075 -0.027716761017732738 0 -0.027716761017732738 -0.013455989426458351 0 0 0 -0.0027745074641638374 0.051140274826156934 0.010127982564479327 0 0.010127982564479327 0.0033169446958517257 0 0 0 0.013614304880502161 0.027364622869598509 -0.031075547933811884 0 -0.031075547933811884 0.041383251893284734 0 0 0 0.017186968690720783 -0.073067801452538328 0.012622168363701608 0 0.012622168363701608 0.0072748660975134882 0 0 0 -0.016448233838756154 0.087810801641183989 -0.01345597169836632 0 -0.01345597169836632 0.061895748850229415 0 0 0 0.037426637622853254 -0.011645514090749987 -0.027751511318971134 0 -0.027751511318971134 0.0092412101656762502 0 0 0 -0.00060107598126857287 0.021970695661093644 -0.0061363248430310324 0 -0.0061363248430310324 0.067941811954568387 0 0 0 0.022478126903915506 -0.07252096235913788 -0.021836106909428089 0 -0.021836106909428089 -0.00023350386512080434 0 0 0 -0.01818861655606465 -0.052250259526016203 0.010379472074385051 0 0.010379472074385051 0.0015774943966445354 0 0 0 -0.012668191282342922 0.078767309972448407 0.0053665187940027228 0 0.0053665187940027228 0.0069506611109287908 0 0 0 0.021429492770844317 0.044931673387947034 0.008587263056502448 0 0.008587263056502448 0.0014771345328755871 0 0 0 0.011602201980205661 0.035407742643980306 -0.019091912631107946 0 -0.019091912631107946 0.022757891711910339 0 0 0 0.01454140858897271 -0.074429834624988672 -0.023473890293543548 0 -0.023473890293543548 -0.00087153245438295959 0 0 0 -0.018825341769842897 -0.054654060881490052 0.012081315808434686 0 0.012081315808434686 4.2606299701514194e-05 0 0 0 -0.013652863645447134 0.038982563239566656 0.010739969047130165 0 0.010739969047130165 0.066253750595548735 0 0 0 0.026309078458778858 0.021054506231632075 -0.020985130878869773 0 -0.020985130878869773 0.014076601354039653 0 0 0 0.008782776896417932 0.058086732820250564 0.028244211918533602 0 0.028244211918533602 0.038059471989813076 0 0 0 0.024036551202516243 -0.047587311188207283 0.006716510971548767 0 0.006716510971548767 0.011593940024001818 0 0 0 -0.0089983427910513628 -0.030781852289498732 -0.0015711226921353016 0 -0.0015711226921353016 0.013922037182000349 0 0 0 -0.0042149537768745885 0.036972667385501992 -0.0061968744510625812 0 -0.0061968744510625812 0.027434226743038401 0 0 0 0.016101723532135095 0.028156925986181948 -0.0054229667949017846 0 -0.0054229667949017846 0.037570122513779745 0 0 0 0.016431762124990403 0.023909955574347896 -0.01787390808257577 0 -0.01787390808257577 -0.0096805152124446042 0 0 0 0.0035573600904758272 0.028983905796205599 -0.013714876560259531 0 -0.013714876560259531 -0.0061533129272905163 0 0 0 0.0057076482172287672 0.0068224862119069078 0.012662997041937213 0 0.012662997041937213 -1.1981297228659538e-05 0 0 0 0.0017026262286695612 0.006357705385908444 0.016824320646118354 0 0.016824320646118354 0.00010477227456645588 0 0 0 0.0016156194151187263 0.055683408444807736 -0.011803844049564638 0 -0.011803844049564638 0.020916483621522097 0 0 0 0.0191499730165825 0.030990569469652271 0.0039500373366968492 0 0.0039500373366968492 0.07135379084582201 0 0 0 0.02558609007886856 0.068067054179349967 0.0086892277702785205 0 0.0086892277702785205 0.0052280229808181269 0 0 0 0.018323769290042022 0.095504627285689203 0.029646702469083547 0 0.029646702469083547 0.041007313099389542 0 0 0 0.034127985096269242 -0.0062910628695146409 -0.021164755339369345 0 -0.021164755339369345 0.0090179913581081017 0 0 0 0.00068173212214850398 0.098158833473067419 0.04557639606151942 0 0.04557639606151942 0.027654602636337344 0 0 0 0.031453359027351135 0.074090876931686506 -0.013343208780213242 0 -0.013343208780213242 0.0026895064989215832 0 0 0 0.019195095857652014 0.082465874641359946 -0.0019842268039997491 0 -0.0019842268039997491 0.01617915464713867 0 0 0 0.024661257322124659 0.01950038881227667 0.050446713004876464 0 0.050446713004876464 0.012164234330122703 0 0 0 0.0079161557855998987 0.053185025493526994 0.054087121145651285 0 0.054087121145651285 0.018685325855846369 0 0 0 0.017967587837343313 -0.034478254811493504 -0.021464323246073884 0 -0.021464323246073884 -0.0019996849679402157 0 0 0 -0.0091194849448584317 -0.032604071228346757 0.012920146122886139 0 0.012920146122886139 -0.00068102158314798864 0 0 0 -0.0083212732028736837 0.03192593824483636 -0.02941099950935458 0 -0.02941099950935458 0.02314410637816211 0 0 0 0.013767511155749645 0.12506952587673115 -0.015170044576343553 0 -0.015170044576343553 0.10218166398336614 0 0 0 0.056812797465024323 0.21036776745278754 0.016355710634316567 0 0.016355710634316567 0.18904065951987703 0 0 0 0.099852106743166164 0.029392676106860454 0.0055777025791303256 0 0.0055777025791303256 0.045638924230196651 0 0 0 0.018757900084264267 0.075456727320754938 0.013516316862973811 0 0.013516316862973811 0.010227969669242658 0 0 0 0.021421174247499411 0.053108922889578192 -0.0029909143261523108 0 -0.0029909143261523108 0.016768837266041947 0 0 0 0.017469440038904993 0.060560550332342922 -0.0011088604259779644 0 -0.0011088604259779644 0.020175398671250733 0 0 0 0.020183987250898372 0.074061131214968934 -0.0031865115705551894 0 -0.0031865115705551894 0.014333106839386378 0 0 0 0.0220985595135888 0.0061265212701461513 0.010830509808029909 0 0.010830509808029909 0.016403639210929688 0 0 0 0.0056325401202687309 0.082135547874108275 -0.011357118043116676 0 -0.011357118043116676 0.061112095197569327 0 0 0 0.035811910767919466 0.10039925682815087 -0.018502029279520438 0 -0.018502029279520438 0.051962384772747283 0 0 0 0.038090410400224539 0.15762095767964945 0.024724360480443852 0 0.024724360480443852 0.11300754367963761 0 0 0 0.067657125339821822 0.10116726188817815 0.011557402807222061 0 0.011557402807222061 0.062781534209071399 0 0 0 0.040987199024312582 0.012937143560192932 -0.014863563576885008 0 -0.014863563576885008 0.013318084365228522 0 0 0 0.0065638069813553912 0.049592628884055211 0.0069841584310927273 0 0.0069841584310927273 -0.0014153160764500058 0 0 0 0.012044328201901305 0.056890558775638839 0.0093094537150646486 0 0.0093094537150646486 0.0025147085290525076 0 0 0 0.014851316826172838 0.095577167386128536 0.028749946653708225 0 0.028749946653708225 0.061459925781139901 0 0 0 0.039259273291817554 0.0086942962739691154 -0.020699031230699161 0 -0.020699031230699161 0.011049073879343396 0 0 0 0.0049358425383281279 -0.0106711985902727 -0.024184195807633049 0 -0.024184195807633049 -0.0065997922727959249 0 0 0 -0.0043177477157671541 -0.016840329534376534 0.016830203656474738 0 0.016830203656474738 -0.0027674024519440329 0 0 0 -0.0049019329965801408 0.10717111585811212 0.062164695542360204 0 0.062164695542360204 0.036929103355884507 0 0 0 0.036025054803499046 -0.050179360618794328 -0.020867015123087682 0 -0.020867015123087682 -0.0062275541896491815 0 0 0 -0.014101728702110874 -0.041157781236851682 0.012528624758428772 0 0.012528624758428772 -0.0030440435472868978 0 0 0 -0.011050456196034644 -0.015972438417625412 0.0078129654873617671 0 0.0078129654873617671 0.0095158718238286255 0 0 0 -0.0016141416484494187 0.091125483060320533 -0.011796011396744022 0 -0.011796011396744022 0.082733136585913858 0 0 0 0.043464654911558709 0.035728387264249824 -0.017570062033090528 0 -0.017570062033090528 0.089453133675098565 0 0 0 0.031295380234837113 -0.00428777541926878 -0.010219933845559748 0 -0.010219933845559748 0.084511205395777778 0 0 0 0.020055857494127249 -0.0028457505665638871 -0.029146216501918669 0 -0.029146216501918669 0.0127307422685905 0 0 0 0.0024712479255067921 0.091271375789392456 -0.023612836654845801 0 -0.023612836654845801 0.018284030762055092 0 0 0 0.027388851637861866 0.024205179458787751 0.066262199252858256 0 0.066262199252858256 0.027094219461993196 0 0 0 0.012824849730195265 -0.043883108495691991 0.037195987812896902 0 0.037195987812896902 0.031215237287246289 0 0 0 -0.0031669678021114533 -0.034638370973743393 -0.015003893608475538 0 -0.015003893608475538 0.011931513328905741 0 0 0 -0.0056767144112093715 0.068423551769639462 -0.047342076934525135 0 -0.047342076934525135 0.044116139688735068 0 0 0 0.028134922864593653 0.091846094536947032 -0.012253523902561625 0 -0.012253523902561625 0.068655262706337483 0 0 0 0.040125339310821073 0.15550868968231618 0.011978052400579753 0 0.011978052400579753 0.12262782486984114 0 0 0 0.069534128638039261 0.035061949245068419 -0.014346272231517236 0 -0.014346272231517236 0.048106221455228915 0 0 0 0.020792042675074313 0.036490510174985238 -0.0083889365637113168 0 -0.0083889365637113168 0.047801144925650491 0 0 0 0.021072913775158922 0.05769495403987087 0.023589743183744218 0 0.023589743183744218 0.10023358266053424 0 0 0 0.03948213417510129 0.050420686151770686 -0.02233277788075981 0 -0.02233277788075981 0.060191797200468911 0 0 0 0.027653120838059875 0.1517538195067436 0.0028734254652973412 0 0.0028734254652973412 0.11908459580659603 0 0 0 0.067709603828334686 -0.0018671878532998676 -0.0096645034965787691 0 -0.0096645034965787691 0.0078618213576095997 0 0 0 0.001498658376077433 0.040833661444242636 0.014901669882421524 0 0.014901669882421524 0.061524027250816848 0 0 0 0.025589422173764864 0.096152362316480305 0.0059791190917459214 0 0.0059791190917459214 0.042381461681419832 0 0 0 0.034633455999475073 0.063952057291845721 -0.0012308286461080731 0 -0.0012308286461080731 0.020079210456416918 0 0 0 0.02100781693706566 0.056783006584328291 0.021374948448517801 0 0.021374948448517801 0.041789699426906669 0 0 0 0.024643176502808742 0.046249592321034254 -0.0066985712812880011 0 -0.0066985712812880011 -0.0083367246497259781 0 0 0 0.0094782169178270724 -0.087802631948411258 -0.0083433442175646182 0 -0.0083433442175646182 0.0039585991197013115 0 0 0 -0.020961008207177501 0.024274225373972287 -0.01737212155651861 0 -0.01737212155651861 -0.01218095540772339 0 0 0 0.0030233174915622225 0.064756701602716099 0.0093919138976474841 0 0.0093919138976474841 0.0038436251873110571 0 0 0 0.017150081697506803 0.041433412573933778 0.013078524727832393 0 0.013078524727832393 0.085172221403319509 0 0 0 0.031651408494313311 -0.14235231170621354 0.017555216314908157 0 0.017555216314908157 0.0079318428539707497 0 0 0 -0.033605117213060809 0.040001906942133708 0.009240961487321387 0 0.009240961487321387 0.0028008649738858232 0 0 0 0.010700692979004884 0.064273552038068893 -0.0034426147349052548 0 -0.0034426147349052548 -0.0035783063983122459 0 0 0 0.015173811409939173 0.046876380722053489 -0.020040095519143597 0 -0.020040095519143597 0.018148606711656939 0 0 0 0.016256246858427602 -0.03003942941018406 -0.019141871199608973 0 -0.019141871199608973 0.0060825612253037065 0 0 0 -0.0059892170462201855 0.040951887661882486 -0.017763278759465817 0 -0.017763278759465817 -0.012509808909907098 0 0 0 0.0071105196879938598 0.049188402682735388 0.0055046586606759878 0 0.0055046586606759878 0.0018905943719167984 0 0 0 0.01276974926366305 0.060503919021373025 -0.0094862593414525818 0 -0.0094862593414525818 -0.00025228705666508963 0 0 0 0.015062907991176997 0.044049621074174539 -0.020444105030240689 0 -0.020444105030240689 0.023898442033992939 0 0 0 0.016987015777041869 0.071112072437808815 -0.012115444300272143 0 -0.012115444300272143 0.049704116472489401 0 0 0 0.030204047227574748 -0.025158868809728105 -0.040556214190648227 0 -0.040556214190648227 -0.0044090254155047786 0 0 0 -0.0073919735563082239 0.17097375582560734 0.0041588974007873425 0 0.0041588974007873425 0.16063520585021107 0 0 0 0.082902240418954637 -0.016167952330959773 -0.0061271907423645633 0 -0.0061271907423645633 0.0041483711465044593 0 0 0 -0.0030048952961140019 0.056445578154378014 0.0049472486992760819 0 0.0049472486992760819 -0.0024417642974247995 0 0 0 0.013500953464238295 0.061519752505452274 0.0062303006929607056 0 0.0062303006929607056 -0.0024995855006485317 0 0 0 0.014755041751200919 0.0052049832468417101 0.016936526317975931 0 0.016936526317975931 0.013654788255568207 0 0 0 0.004714942875601924 0.070413994135077651 -0.022731587571178602 0 -0.022731587571178602 0.060820658707100073 0 0 0 0.032808663210544431 0.057318193264635775 0.014961015791534478 0 0.014961015791534478 0.014871400026705398 0 0 0 0.018047398322835296 0.050658852028889326 0.012809324241635566 0 0.012809324241635566 0.014203507658928791 0 0 0 0.016215589921954529 0.054629642262608705 0.0076549846236059092 0 0.0076549846236059092 -0.00043600742391694709 0 0 0 0.013548408709672931 -0.036978265374260313 0.012554470163620737 0 0.012554470163620737 0.00046917875619317123 0 0 0 -0.0091272716545167821 0.010456624665415339 0.0040964897980188021 0 0.0040964897980188021 0.021603716973491449 0 0 0 0.0080150854097266952 0.030939080532378212 -0.0016774003697939133 0 -0.0016774003697939133 0.024875366608534288 0 0 0 0.013953611785228116 -0.045464239541486352 0.015425411965191722 0 0.015425411965191722 -0.00018385877096165765 0 0 0 -0.011412024578112016 0.16678886090438577 0.093477871746742602 0 0.093477871746742602 0.086641500342247157 0 0 0 0.063357590311658149 0.061234966528073365 0.019650530201027888 0 0.019650530201027888 0.034753458426626693 0 0 0 0.023997106238675237 0.029686416463406529 -0.019300918963684022 0 -0.019300918963684022 0.023991852387942103 0 0 0 0.013419567212837213 0.030642689421938298 0.0090011079664982768 0 0.0090011079664982768 0.013894712123813706 0 0 0 0.011134350386438001 0.043511850608326269 0.0073078247903368195 0 0.0073078247903368195 0.0072142723184528638 0 0 0 0.012681530731694788 0.094669165030871805 -0.0078124925769914189 0 -0.0078124925769914189 0.026710034057629062 0 0 0 0.030344799772125244 0.088611707688778879 0.0049328239281180852 0 0.0049328239281180852 0.033386208659745953 0 0 0 0.030499479087131132 0.061045343733970497 -0.010882436285124475 0 -0.010882436285124475 0.005250815633022099 0 0 0 0.016574039841748128 0.04489929221511884 0.011409713301858204 0 0.011409713301858204 0.0065305619544603413 0 0 0 0.012857463542394802 -0.050190353756428774 -0.014755212488729352 0 -0.014755212488729352 0.003528788502054736 0 0 0 -0.011665391313593454 -0.038932872477620062 -0.022087684724140466 0 -0.022087684724140466 0.0073352648781370711 0 0 0 -0.0078994018998707616 0.045422528590079357 0.0025985898657290918 0 0.0025985898657290918 0.01513109268423779 0 0 0 0.015138405318579285 -0.043412020139523944 0.048385411019151725 0 0.048385411019151725 0.014638302000337777 0 0 0 -0.0071934295347965138 -0.072211863107389362 0.033992076332518106 0 0.033992076332518106 0.0064698818022024263 0 0 0 -0.016435495326296845 0.090564913732394892 -0.0099516329036477558 0 -0.0099516329036477558 0.064335966777192555 0 0 0 0.03872522012739682 0.14678427830716884 0.0092455690049850214 0 0.0092455690049850214 0.11729288004247573 0 0 0 0.066019289587411101 0.076486677624548555 -0.02599501004998947 0 -0.02599501004998947 0.012233080379722552 0 0 0 0.022179939501067773 0.059306334080574397 -0.0096258821495331381 0 -0.0096258821495331381 0.023420259256844322 0 0 0 0.020681648334354596 0.12641937460730332 0.044676939921629556 0 0.044676939921629556 0.12832849878562175 0 0 0 0.063686968348231232 0.049480539175468179 -0.013488324562883893 0 -0.013488324562883893 -0.0079874249288829496 0 0 0 0.010373278561646314 0.037383575035081523 -0.018776292407665235 0 -0.018776292407665235 0.040877051791315969 0 0 0 0.019565156706599376 0.1709407035315772 0.030911576591063805 0 0.030911576591063805 0.04611381430004835 0 0 0 0.054263629457906304 0.032218670485676539 0.00674166642128219 0 0.00674166642128219 0.014052941935581258 0 0 0 0.011567903105314456 0.065817176592103843 0.022941786729949509 0 0.022941786729949509 0.047293796876092919 0 0 0 0.028277743367049357 0.027530015347856374 -0.018766864767351565 0 -0.018766864767351565 0.017271258553983371 0 0 0 0.011200318475459992 0.031140970713893247 0.0092117227655251991 0 0.0092117227655251991 0.0035570663985776477 0 0 0 0.0086745092781177272 0.011557829409733669 -0.012157593549125018 0 -0.012157593549125018 0.070303621533225058 0 0 0 0.020465362735739692 0.13918648311316351 0.022445910815847014 0 0.022445910815847014 0.11173577787862765 0 0 0 0.062730565247947956 -0.0027611097306099452 -0.012811316308743548 0 -0.012811316308743548 0.0082313497683266235 0 0 0 0.0013675600094291696 -0.11143267686694702 0.0032435200509891918 0 0.0032435200509891918 0.0021323150923452383 0 0 0 -0.027325090443650425 -0.19283618127768207 -0.0096705286226296556 0 -0.0096705286226296556 0.0031233014541963422 0 0 0 -0.047428219955871403 0.064496563319979716 0.015272069790333707 0 0.015272069790333707 0.1191973534981805 0 0 0 0.045923479204540041 -0.01759397355455241 0.016901682496637059 0 0.016901682496637059 0.0026226413660533077 0 0 0 -0.003742833047124779 0.14760110876608828 -0.017963076017874613 0 -0.017963076017874613 0.11361559605810609 0 0 0 0.065304176206048517 0.18362935165981842 -0.0047234431668551347 0 -0.0047234431668551347 0.13051477893817975 0 0 0 0.078536032649499599 0.28928034489078913 0.0025219943277887125 0 0.0025219943277887125 0.23560283833670548 0 0 0 0.13122079580687374 0.23034965360085158 0.022831189817140385 0 0.022831189817140385 0.21342009638990178 0 0 0 0.1109424374976884 0.079531787356792949 -0.015706426659109374 0 -0.015706426659109374 0.039420481815959696 0 0 0 0.029738067293188175 0.1263529940087923 0.022112081827824037 0 0.022112081827824037 0.083172218826786937 0 0 0 0.052381303208894781 0.14233968677631859 0.012000894967568732 0 0.012000894967568732 0.14576645301588009 0 0 0 0.072026534948049725 0.073511662067679839 -0.014842791232655805 0 -0.014842791232655805 0.075063539297931747 0 0 0 0.037143800341402911 0.053933916181485436 0.0041919751488910806 0 0.0041919751488910806 0.076162354789858999 0 0 0 0.032524067742836144 0.12520097940868746 -0.0011370673020199007 0 -0.0011370673020199007 0.10981987225303325 0 0 0 0.058755212915430288 0.029991895577317962 0.0097957914617310404 0 0.0097957914617310404 0.020597019437269992 0 0 0 0.012647228753647433 0.016754373256030242 -0.0080896376521204516 0 -0.0080896376521204516 0.010650922558443909 0 0 0 0.0068513239536187598 0.073621405800627926 -0.0057149806182892338 0 -0.0057149806182892338 0.056446007679634036 0 0 0 0.032516853370065268 0.043119490184506171 0.010106025236253934 0 0.010106025236253934 0.0062190467615321834 0 0 0 0.012334634236509604 0.16883706683371097 0.013595195389254577 0 0.013595195389254577 0.1230151420655653 0 0 0 0.072963052224818858 0.0085157207402802859 -0.010124132802365127 0 -0.010124132802365127 0.01136312096912373 0 0 0 0.0049697104273508375 0.035201609248143306 -0.0030122159385683879 0 -0.0030122159385683879 0.085653641707879036 0 0 0 0.030213812739005599 0.016272416046841265 0.013282209572103465 0 0.013282209572103465 0.020370826526277419 0 0 0 0.0091608106432801151 0.10056038234438747 -0.014862773106958826 0 -0.014862773106958826 0.066098201090577291 0 0 0 0.041664645858740856 0.062154550251357521 -0.023315695043905404 0 -0.023315695043905404 0.030961002495115686 0 0 0 0.023278888186618218 0.042515962950827241 -0.019035922755257756 0 -0.019035922755257756 0.015488429044870022 0 0 0 0.01450109799892435 0.043902858688103355 -0.017539010872300587 0 -0.017539010872300587 0.018782852915144088 0 0 0 0.01567142790081183 0.049396944322150596 -0.017007942548882084 0 -0.017007942548882084 -0.0051944185262641634 0 0 0 0.011050631448971605 0.073727010300362827 0.072539807656369026 0 0.072539807656369026 0.032295113514158591 0 0 0 0.026505530953630341 -0.058484798581787262 -0.0070872905789075569 0 -0.0070872905789075569 0.0035495604690605198 0 0 0 -0.013733809528181623 0.10485863301559079 -0.026519416730515624 0 -0.026519416730515624 0.046479247843408428 0 0 0 0.03783447021474981 0.060734425205956032 -0.015674105737131988 0 -0.015674105737131988 0.030742849418822132 0 0 0 0.02286931865619455 0.072112091222100161 0.021750930698169024 0 0.021750930698169024 0.025096848011383933 0 0 0 0.024302234808371022 0.064238296365146053 -0.0022682866578993127 0 -0.0022682866578993127 0.016547332200189668 0 0 0 0.020196407141333972 0.075642715268257443 0.0033784961929277726 0 0.0033784961929277726 0.025789794884435668 0 0 0 0.025358127538173236 -0.23028777094549971 0.0040638801946825615 0 0.0040638801946825615 0.010601774325598168 0 0 0 -0.054921499154975351 -0.12456964912488763 -0.0017907162012317619 0 -0.0017907162012317619 0.0044240567448692314 0 0 0 -0.030036398095004635 0.036687898862039443 -0.010529403669695004 0 -0.010529403669695004 0.012226144895313653 0 0 0 0.012228510939338274 0.018390822413393789 0.013999247315659139 0 0.013999247315659139 0.0061303818110432845 0 0 0 0.0061303010561092686 0.082176489818708495 0.0034520745908994677 0 0.0034520745908994677 0.010744521348466221 0 0 0 0.0232302527917937 0.063233753933747569 0.018936230960407825 0 0.018936230960407825 0.028430195697292139 0 0 0 0.022915987407759963 0.067005083249971578 0.011011497997574612 0 0.011011497997574612 0.0092611512133171231 0 0 0 0.019066558615822182 -0.054844858775949704 -0.025988279551067577 0 -0.025988279551067577 -0.0055780360440097279 0 0 0 -0.015105723704989854 -0.044540970769713417 0.013742798815369266 0 0.013742798815369266 -0.00044213856400045215 0 0 0 -0.011245777333428464 0.17111374584274519 0.03128399459013137 0 0.03128399459013137 0.049735737785519873 0 0 0 0.055212370907066433 -0.032866797854825894 -0.025697990536442339 0 -0.025697990536442339 -0.0015387808654433455 0 0 0 -0.0086013946800673029 -0.032161123901570846 0.014535531387616337 0 0.014535531387616337 0.0010262168238030084 0 0 0 -0.0077837267694419558 0.057737124133216355 -0.013383717627803812 0 -0.013383717627803812 0.029811575995825956 0 0 0 0.021887175032260509 0.14902539194006248 0.10627277182657713 0 0.10627277182657713 0.085012018230521624 0 0 0 0.058509352542645887 0.076108150299339719 0.0075430617961275738 0 0.0075430617961275738 0.0030171536141106459 0 0 0 0.019781325978362602 0.092696660209122678 0.0043855066613681937 0 0.0043855066613681937 0.046503571175834646 0 0 0 0.034800057846239379 0.0058727054115595249 -0.019060800164809748 0 -0.019060800164809748 0.0019595683011177619 0 0 0 0.0019580684281693219 -0.0057607843986951573 0.01555565667969859 0 0.01555565667969859 -0.0019167343691682682 0 0 0 -0.0019193796919658565 -0.092303588375296258 0.0061140622187528249 0 0.0061140622187528249 -0.00047037052470240339 0 0 0 -0.023193489724999648 -0.14388346305230879 -0.012962526572372627 0 -0.012962526572372627 -0.00084443723533912662 0 0 0 -0.036181975071911961 -0.026737105435890751 -0.0076015763117127377 0 -0.0076015763117127377 0.030347057752891482 0 0 0 0.00090248807925008556 0.088478875158332526 -0.015687153796474951 0 -0.015687153796474951 0.038940248171164704 0 0 0 0.031854780832374252 0.017688772975261932 -0.0079419366039555489 0 -0.0079419366039555489 0.064712332869091407 0 0 0 0.020600276461088335 0.051463885221482764 0.01786127765728179 0 0.01786127765728179 0.038486680034979522 0 0 0 0.022487641314115573 0.040083427219418141 0.011646597712341358 0 0.011646597712341358 0.043693501978709595 0 0 0 0.020944232299531962 0.091991478681978864 0.019326692584962134 0 0.019326692584962134 0.038699794468223636 0 0 0 0.032672818287550601 0.10609121687184467 0.014420433482514219 0 0.014420433482514219 0.024062493307650458 0 0 0 0.03253842754487378 0.090077670430451562 0.013574984985667671 0 0.013574984985667671 0.0425435938105867 0 0 0 0.033155316060259621 0.024801514725091615 -0.016067963448256201 0 -0.016067963448256201 0.040584438429606171 0 0 0 0.016346488288674431 0.01027755123458373 -0.026978165712383997 0 -0.026978165712383997 0.078959533126428672 0 0 0 0.022309271090253081 0.062013538638859569 -0.051428045199134798 0 -0.051428045199134798 0.12546852359192592 0 0 0 0.046870515557696404 -0.081633689911907795 0.0063853123602684234 0 0.0063853123602684234 -0.00032662913219770606 0 0 0 -0.020490079761026375 -0.12057855518754128 -0.011906483321762801 0 -0.011906483321762801 -0.00095916136688677101 0 0 0 -0.030384429138607005 0.061220120667775997 0.0057750323729259812 0 0.0057750323729259812 -0.029997279801676022 0 0 0 0.007805710216524939 0.06973204280373016 -0.037567363320774275 0 -0.037567363320774275 0.093255367198882055 0 0 0 0.040746852500653075 0.061527498347283688 0.011414906776286626 0 0.011414906776286626 0.0048617741880013082 0 0 0 0.016597318133821246 -0.02889534182602365 -0.026914217057078339 0 -0.026914217057078339 -0.005657512652952057 0 0 0 -0.0086382136197439216 -0.028383888665255722 0.016634122390311704 0 0.016634122390311704 -0.00069835343766856683 0 0 0 -0.0072705605257310721 0.026084299541758532 0.0097575501493299202 0 0.0097575501493299202 0.0041878811816423445 0 0 0 0.0075680451808502174 0.023224250616806087 -0.0047000275128479645 0 -0.0047000275128479645 0.069809785306240726 0 0 0 0.023258508980761698 0.11444384626120641 0.0091079554210963809 0 0.0091079554210963809 0.08238223011360013 0 0 0 0.049206519093701662 0.022391486977271807 0.012952353083568052 0 0.012952353083568052 0.0051621790122086189 0 0 0 0.0068884164973701065 -0.034078293039339735 0.012096047251142661 0 0.012096047251142661 0.011656676255170417 0 0 0 -0.005605404196042274 0.075289949454289906 -0.018165614906348493 0 -0.018165614906348493 0.067554054274248321 0 0 0 0.03571100093213464 0.074497675786400153 -0.016158697003212596 0 -0.016158697003212596 0.056745500861056009 0 0 0 0.032810794161863999 0.052328204719508706 -0.0246059779959278 0 -0.0246059779959278 0.050974449383154874 0 0 0 0.025825663525665898 0.037637612314758179 -0.017243291053266802 0 -0.017243291053266802 0.045047713141932455 0 0 0 0.020671331364172679 0.032002435668908501 0.0033313257197067538 0 0.0033313257197067538 0.03139036595029368 0 0 0 0.015848200404800547 0.02842091505272443 -0.0048980611823915407 0 -0.0048980611823915407 0.066321880388286361 0 0 0 0.023685698860252707 0.23409265651296485 0.017176736927673186 0 0.017176736927673186 0.21402456775990952 0 0 0 0.11202930606821848 0.0090357564077623298 -0.0032155691425037602 0 -0.0032155691425037602 0.0099412265753202611 0 0 0 0.0047442457457704812 0.14413426998923223 -0.015632759169007304 0 -0.015632759169007304 0.11884459860457264 0 0 0 0.065744717148451481 0.015385505858731552 0.0049312680979785029 0 0.0049312680979785029 0.016397938352946895 0 0 0 0.0079458610529195006 0.035820585257315407 0.0067170462142404829 0 0.0067170462142404829 0.03339159048930767 0 0 0 0.017303043936655771 0.031812423407840122 0.003315566259134357 0 0.003315566259134357 0.024180823051625631 0 0 0 0.013998311614866456 0.029225134763304052 -0.006760554600368349 0 -0.006760554600368349 0.031413083724623952 0 0 0 0.015159554621981996 -0.096566179908860461 -0.019031717485431299 0 -0.019031717485431299 0.0032719116634213757 0 0 0 -0.023323567061359764 -0.12409207160046919 -0.028471867465363607 0 -0.028471867465363607 0.0042050947100830127 0 0 0 -0.029971744222596533 0.043626671758302274 -0.032196114616185392 0 -0.032196114616185392 0.0016037382922652831 0 0 0 0.011307602512641891 0.0082375600479225788 0.0048694020834429601 0 0.0048694020834429601 0.011365222441363338 0 0 0 0.0049006956223214791 0.055317567397594712 -0.033412096634968025 0 -0.033412096634968025 0.069604888738648799 0 0 0 0.031230614034060862 -0.024552260733170322 0.016744437489014788 0 0.016744437489014788 -0.00063460664393034417 0 0 0 -0.0062967168442751671 -0.012025708668090045 0.015436501969616616 0 0.015436501969616616 -0.0017378607725651724 0 0 0 -0.003440892360163806 0.00059061754790366155 -0.024018704653081417 0 -0.024018704653081417 -0.0079969923465572912 0 0 0 -0.0018515936996634091 -0.020865721650910767 -0.027519493135981607 0 -0.027519493135981607 -0.0094851891462120475 0 0 0 -0.0075877276992807052 -0.037481222406704595 -0.018072215475424369 0 -0.018072215475424369 0.0040947080229671862 0 0 0 -0.008346628595934269 -0.013903442063430416 -0.019102958190405112 0 -0.019102958190405112 0.0071063899450982682 0 0 0 -0.0016992630295831201 0.035754396119777106 -0.011194591375335773 0 -0.011194591375335773 -0.0012090971157832074 0 0 0 0.0086363247509984743 0.035124542691387102 -0.011484012573164301 0 -0.011484012573164301 -0.0063978193249798719 0 0 0 0.0071816808416018101 0.017651170540130198 0.015555900137908746 0 0.015555900137908746 0.0013625583399151792 0 0 0 0.0047534322200113374 0.014483652505561804 0.013037136800181173 0 0.013037136800181173 0.0012881645043247431 0 0 0 0.0039429542524716359 0.087607518853252575 0.020929868883848624 0 0.020929868883848624 0.046792538711166287 0 0 0 0.033600014391104605 0.010151741581039486 -0.019621892078855119 0 -0.019621892078855119 0.014220051921574939 0 0 0 0.0060929483756535507 -0.0019053749631618676 0.012232200014657671 0 0.012232200014657671 0.00065996803590265274 0 0 0 -0.00031135173181480805 0.025742340976387522 -0.01900570173701125 0 -0.01900570173701125 -0.0088428472085287785 0 0 0 0.0042248734419646841 0.024406837086438992 -0.00046256523806631304 0 -0.00046256523806631304 0.016710998383180492 0 0 0 0.010279458867404868 -0.016287056373427089 0.013457046397036387 0 0.013457046397036387 0.0011278223242565596 0 0 0 -0.0037898085122926341 -0.0027072828147628354 -0.024456512524631668 0 -0.024456512524631668 -0.0045327461939102514 0 0 0 -0.0018100072521682713 -0.0064123149470358826 -0.0071772327237629857 0 -0.0071772327237629857 0.12559506253951458 0 0 0 0.029795686898119664 0.027993959407342332 0.0018765338193375601 0 0.0018765338193375601 0.019291525518343112 0 0 0 0.011821371231421355 -0.011786166037848395 -0.020341736302496836 0 -0.020341736302496836 -0.0039397140177751576 0 0 0 -0.0039314700139058871 -0.017120520422087619 0.014856814937567709 0 0.014856814937567709 -0.0057131348185487357 0 0 0 -0.0057084138101590898 0.11159605286528962 0.0098387737866349016 0 0.0098387737866349016 0.043839496023245994 0 0 0 0.038858887222133889 0.05486901350402118 0.0020488513594689173 0 0.0020488513594689173 -0.0061965709449833817 0 0 0 0.012168110639759644 -0.006693711011552108 0.0086927139798915753 0 0.0086927139798915753 0.013687263636602033 0 0 0 0.0017483881562624891 0.081422677202165394 -0.026462034317764282 0 -0.026462034317764282 0.028352092636424464 0 0 0 0.02744369245964734 0.035910699982112618 0.0071307001232247275 0 0.0071307001232247275 0.03452876320587598 0 0 0 0.017609865796997148 0.025169821069048803 -0.0056820748654166937 0 -0.0056820748654166937 0.036965122383818015 0 0 0 0.015533735863216706 -0.069873388733153088 -0.018758889314094352 0 -0.018758889314094352 -0.0019926862372505842 0 0 0 -0.017966518742600916 -0.052596672508465475 0.01064713378615504 0 0.01064713378615504 -0.00086471604425554863 0 0 0 -0.013365347138180259 0.057049880237502723 -0.013620438193458199 0 -0.013620438193458199 0.045209464740252336 0 0 0 0.025564836244438768 0.042955049422792213 0.011767471045228173 0 0.011767471045228173 0.024650080051220793 0 0 0 0.016901282368503259 0.021129840916136698 0.0015400122063575321 0 0.0015400122063575321 0.013400106981049856 0 0 0 0.0086324869742966399 -0.050318032509248045 0.0036587525318777583 0 0.0036587525318777583 0.0068321726754674572 0 0 0 -0.010871464958445126 -0.058439731122461369 0.01411547704465943 0 0.01411547704465943 0.010795652503601705 0 0 0 -0.01191101965471475 0.0087678220497895143 0.0032704863218397662 0 0.0032704863218397662 0.03368094922681758 0 0 0 0.010612192819151794 0.043120152542120385 -0.014584421720452323 0 -0.014584421720452323 0.022893126606249092 0 0 0 0.016503319787092366 0.010071589581423738 0.0052730350978095614 0 0.0052730350978095614 0.013244973953286998 0 0 0 0.0058291408836776866 0.043456832497852607 0.012407428508591067 0 0.012407428508591067 0.028498305481973369 0 0 0 0.017988784494956493 0.031913943632511946 -0.021555303940737791 0 -0.021555303940737791 0.024192721975793086 0 0 0 0.014026666402076296 0.14892879301810585 0.0144057154766567 0 0.0144057154766567 0.10967044839692228 0 0 0 0.064649810353757053 0.0040713427578674254 0.012025304599228608 0 0.012025304599228608 0.006504196343162412 0 0 0 0.0026438847752574598 -0.051309037664997614 0.011194970173364745 0 0.011194970173364745 0.0089136764974613314 0 0 0 -0.01059884029188396 0.093905210885436463 -0.01431239328698064 0 -0.01431239328698064 0.074793144898160024 0 0 0 0.042174588945899094 0.088916090576854678 -0.012191169310267758 0 -0.012191169310267758 0.052097742400627034 0 0 0 0.035253458244370317 -0.053482621896642608 -0.032587050552683808 0 -0.032587050552683808 0.037685940322962228 0 0 0 -0.0039491703934200805 0.12319003177506692 -0.018423361187258319 0 -0.018423361187258319 0.0069387582316481899 0 0 0 0.032532197501678788 -0.084325813342778194 0.0095812358531378455 0 0.0095812358531378455 0.0032663416961245806 0 0 0 -0.020264867911663403 -0.14217001997110121 -0.026247177469732721 0 -0.026247177469732721 0.007850736722599453 0 0 0 -0.03357982081212553 -0.081479738924697426 0.0013189438108612006 0 0.0013189438108612006 0.00030787209728753984 0 0 0 -0.020292966706852492 -0.1406875719457395 -0.0068033943646046285 0 -0.0068033943646046285 0.0034392353253997476 0 0 0 -0.034312084155084924 -0.042775131027533053 0.010574542215640758 0 0.010574542215640758 -0.0030770174540084155 0 0 0 -0.011463037120385367 -0.052212119415160282 -0.017519903346816999 0 -0.017519903346816999 -0.0033468182695967005 0 0 0 -0.013889734421189247 0.024556182983784192 -0.0085670935032387888 0 -0.0085670935032387888 0.048133994532884583 0 0 0 0.0181725443791672 0.028177892429151922 -0.018645623205150799 0 -0.018645623205150799 0.060876864168834907 0 0 0 0.022263689149496713 0.083011782795953226 -0.0097296323630016723 0 -0.0097296323630016723 0.082391640650680609 0 0 0 0.041350855861658431 0.15102998345801785 0.0061205425828209647 0 0.0061205425828209647 0.15760429507894258 0 0 0 0.077158569634240087 0.10412562326652573 0.005960606868657653 0 0.005960606868657653 0.059368656692359967 0 0 0 0.040873569989721456 0.12946054281120589 0.0063075193229019666 0 0.0063075193229019666 0.13540576454370479 0 0 0 0.066216576838727614 0.062019377005567422 -0.012249547986109999 0 -0.012249547986109999 0.070984109467615464 0 0 0 0.033250871618295763 0.014339230101380312 0.0078211628870724186 0 0.0078211628870724186 0.014952387003426647 0 0 0 0.0073229042762017358 0.038945419953371072 -0.016759141102707903 0 -0.016759141102707903 0.051404576565108245 0 0 0 0.022587499129619826 0.024707479114346786 -0.018816494607522063 0 -0.018816494607522063 0.046901963975773425 0 0 0 0.017902360772530046 0.03321065643730578 0.0035876332281653748 0 0.0035876332281653748 0.058280855004848364 0 0 0 0.022872877860538536 -0.1113645564753134 0.013684195131871909 0 0.013684195131871909 0.00587852660504673 0 0 0 -0.026371507467566779 0.026258404979789898 -0.0035976717910886635 0 -0.0035976717910886635 0.062865362197079916 0 0 0 0.022280941794217454 0.097974860889467164 -0.021327395726881707 0 -0.021327395726881707 0.17315737856870272 0 0 0 0.067783059864542528 0.15518377016127305 -0.026133316390508778 0 -0.026133316390508778 0.093876623970738371 0 0 0 0.062265098533002855 0.095242456641503492 -0.013208335816852657 0 -0.013208335816852657 0.043106852628716164 0 0 0 0.034587327317554983 -0.16497852148014197 -0.01996750294937899 0 -0.01996750294937899 0.0077546937253648029 0 0 0 -0.03930595693869425 -0.094484086923749294 0.0081576970875660848 0 0.0081576970875660848 0.0028986554750581699 0 0 0 -0.022896357862172791 0.021694676751918232 -0.0036870603749828241 0 -0.0036870603749828241 0.067207224734846222 0 0 0 0.022225475371691117 -0.027826421046972083 0.029701131697549954 0 0.029701131697549954 0.0059210299546554879 0 0 0 -0.0054763477730790378 -0.011228580934569354 0.033097164154465064 0 0.033097164154465064 0.011453643325455509 0 0 0 5.6265597721427696e-05 0.053208036417391247 -0.026355587101719258 0 -0.026355587101719258 0.0339041371297788 0 0 0 0.021778043386792345 0.056013790669436 -0.021062931558897047 0 -0.021062931558897047 0.034839388547129389 0 0 0 0.02271329480414129 0.10133296054694002 -0.015262094767127365 0 -0.015262094767127365 0.086926329671147773 0 0 0 0.04706482255452199 -0.028158306821380652 0.0098248357894189838 0 0.0098248357894189838 0.012292222964360278 0 0 0 -0.0039665209642558708 -0.00062598208968201591 0.014567077127277615 0 0.014567077127277615 0.001870276685947983 0 0 0 0.00031107364906649698 0.019062097210960902 -0.016769001592021996 0 -0.016769001592021996 -0.0058584956850957076 0 0 0 0.0033009003814662985 0.034992377734706995 -0.028918420497780373 0 -0.028918420497780373 0.019747235366945712 0 0 0 0.013684903275413177 0.03312823297809997 -0.024293162048844935 0 -0.024293162048844935 0.019581466815615567 0 0 0 0.013177424948428884 0.020126233892379899 -0.022101730538520825 0 -0.022101730538520825 0.017695979640814985 0 0 0 0.0094555533832987454 0.017221990280964827 -0.031972449922297197 0 -0.031972449922297197 0.012390326286764175 0 0 0 0.0074030791419321673 0.013589853818413739 0.043635885984104394 0 0.043635885984104394 0.0075410939168857327 0 0 0 0.0052827369338247776 0.050545943407380951 0.028440026047743094 0 0.028440026047743094 0.024408063673559105 0 0 0 0.018738501770235071 -0.011925937617623337 0.018848051314278236 0 0.018848051314278236 -0.0021519560955692713 0 0 0 -0.0035194734282981543 -0.006032798011408198 -0.025606376872512222 0 -0.025606376872512222 -0.0053672962991567208 0 0 0 -0.0028500235776412301 -0.075430403505072102 -0.012200263100952319 0 -0.012200263100952319 0.010030385600782288 0 0 0 -0.016350004476072461 -0.1282304344863196 0.027099281751483822 0 0.027099281751483822 0.016257768053217436 0 0 0 -0.027993166608275499 -0.042511511009472688 0.014553353270415792 0 0.014553353270415792 0.0034561759655141189 0 0 0 -0.0097638337609896458 0.04258512905784928 0.01236260510237841 0 0.01236260510237841 0.015360224293625435 0 0 0 0.014486338337868675 0.078897971020435886 0.0052016384132060889 0 0.0052016384132060889 0.039903685526321286 0 0 0 0.029700414136689335 -0.069070925773071404 -0.028468240093939327 0 -0.028468240093939327 0.002983088031026912 0 0 0 -0.016521959435511109 -0.11737877107444641 -0.023518556197892369 0 -0.023518556197892369 -0.0030744273950741793 0 0 0 -0.030113299617380147 0.054069105221871375 -0.002292493766417685 0 -0.002292493766417685 -0.0053322043995631709 0 0 0 0.012184225205577057 0.093991749168284372 0.012289585384017726 0 0.012289585384017726 0.099676001872580244 0 0 0 0.048416937760216133 -0.096511282723765551 -0.0018233382197224979 0 -0.0018233382197224979 0.00032240765749327882 0 0 0 -0.02404721876656804 -0.17411088551130402 0.0019625703654025939 0 0.0019625703654025939 0.0010196870339119618 0 0 0 -0.043272799619347893 0.015738418696585058 -0.0013527548141082091 0 -0.0013527548141082091 0.019141288094615461 0 0 0 0.0087199266978001261 -0.03178749812258793 -0.031079055397347247 0 -0.031079055397347247 -0.0075655574311243035 0 0 0 -0.0098382638884280636 -0.0038727231523991122 -0.028480951247980849 0 -0.028480951247980849 -0.0053499781530211565 0 0 0 -0.0023056753263550646 0.096247516673447275 0.091425147519542713 0 0.091425147519542713 0.20327154272460146 0 0 0 0.074879764849512143 -0.10296781423516851 -0.010322804377253489 0 -0.010322804377253489 0.00038672450959652792 0 0 0 -0.025645272431392984 -0.068332533045421084 0.0052861770302415362 0 0.0052861770302415362 0.000844096381295973 0 0 0 -0.016872109166031261 0.065511254589707413 -0.0085059742625606255 0 -0.0085059742625606255 0.015605142294479402 0 0 0 0.020279099221046759 0.054880608009176546 -0.012880512206883535 0 -0.012880512206883535 0.010254904961054301 0 0 0 0.01628387824255767 0.041060721559538493 0.011288808919271493 0 0.011288808919271493 0.046381054744054052 0 0 0 0.021860444075898131 0.045912960683995363 -0.018264754675870673 0 -0.018264754675870673 0.0076873242507614764 0 0 0 0.013400071233689213 0.062650606843882031 0.015590597410107383 0 0.015590597410107383 0.012256502491002484 0 0 0 0.018726777333721099 0.085059454968753334 0.020437190453330811 0 0.020437190453330811 0.18792471343299577 0 0 0 0.068246042100437387 -0.04239571557479456 0.01320781510938554 0 0.01320781510938554 0.0049026880118500683 0 0 0 -0.0093732568907361306 0.022405821326870936 0.0047379244282015082 0 0.0047379244282015082 0.012779298448606077 0 0 0 0.0087962799438692577 0.19404239362204456 0.014111721322144756 0 0.014111721322144756 0.08762596544075052 0 0 0 0.070417089765698604 -0.055946824861677749 -0.0069385760309584876 0 -0.0069385760309584876 0.0019252405236101153 0 0 0 -0.013505396084516908 -0.22356779054814443 -0.0016594799269254168 0 -0.0016594799269254168 0.00052193734660072044 0 0 0 -0.05576146330038588 -0.12292668079529824 -0.0006768377813413909 0 -0.0006768377813413909 -0.00041133894889999745 0 0 0 -0.03083450493604957 0.03159200581580468 -0.00039556325590399746 0 -0.00039556325590399746 0.075777408299071439 0 0 0 0.026842353528719023 -0.034122488847983468 -0.025300547923248741 0 -0.025300547923248741 -0.0028677752905239551 0 0 0 -0.0092475660346268557 -0.055106180093661104 -0.032281654455960131 0 -0.032281654455960131 -0.00074271928556748912 0 0 0 -0.01396222484480715 0.11728280827366748 0.024616646989086478 0 0.024616646989086478 0.044573518002256757 0 0 0 0.040464081568981049 -0.029586777355866234 -0.0094851081609956672 0 -0.0094851081609956672 0.0018091625068032968 0 0 0 -0.0069444037122659008 0.046861676158964305 -0.017727067879130698 0 -0.017727067879130698 0.029271087515889804 0 0 0 0.019033190918713527 0.19341334130060295 0.0099499157086801199 0 0.0099499157086801199 0.16579513904883036 0 0 0 0.089802120087357995 -0.022185315743299405 -0.0059488635706535908 0 -0.0059488635706535908 0.0081727991818247858 0 0 0 -0.0035031291403684328 0.019525936245879852 -0.038308178411066679 0 -0.038308178411066679 0.043874830227819017 0 0 0 0.015850191618424714 0.030524356785211745 -0.0042034584878000991 0 -0.0042034584878000991 0.05738613871108611 0 0 0 0.021977623874074467 0.0043368041659438347 0.0011904354371237783 0 0.0011904354371237783 0.020343436519151992 0 0 0 0.0061700601712739514 -0.022499592313933059 0.0076479260614861211 0 0.0076479260614861211 0.010829986151987825 0 0 0 -0.002917401540486475 0.084315190669645657 -0.016654941865553052 0 -0.016654941865553052 0.082277910836340951 0 0 0 0.041648275376496735 0.0070990477624561718 0.011470557803477407 0 0.011470557803477407 0.0022703675155600761 0 0 0 0.0023423538195040602 0.093007288671349664 -0.0072685761016388489 0 -0.0072685761016388489 0.063065765816884167 0 0 0 0.039018263622058458 -0.063429205137507799 0.0088201775274273243 0 0.0088201775274273243 0.00051530162151444681 0 0 0 -0.01572847587899831 -0.0010373015512794292 -0.019915185571476937 0 -0.019915185571476937 0.039970656276246075 0 0 0 0.00973333868124171 -0.033978448057756488 0.01658231402291651 0 0.01658231402291651 0.00048311142274586744 0 0 0 -0.008373834158752657 -0.072315714219301053 -0.010429902629016219 0 -0.010429902629016219 0.0043025182346201341 0 0 0 -0.017003298996170257 -0.07329056046866271 0.0081142151377317333 0 0.0081142151377317333 -0.00017256322228062157 0 0 0 -0.018365780922735841 -0.053155329169748682 0.010799133899967873 0 0.010799133899967873 0.0014362540117255698 0 0 0 -0.012929768789505781 -0.033969888462296205 0.04601015350284654 0 0.04601015350284654 0.0078271972637777854 0 0 0 -0.0065356727996296327 0.016323384831962072 -0.015912393634317769 0 -0.015912393634317769 -0.0015698892601740191 0 0 0 0.0036883738929470097 0.0067479558832570612 -0.024276819954738897 0 -0.024276819954738897 -0.0080151982088901008 0 0 0 -0.00031681058140825558 -0.0053121313883141702 0.01812243861985089 0 0.01812243861985089 -0.0015666131905017269 0 0 0 -0.0017196861447039725 -0.00029906606343988937 0.013545577860195016 0 0.013545577860195016 0.00042059466704974513 0 0 0 3.0382150902466543e-05 0.023619402178501576 -0.0026458590581200717 0 -0.0026458590581200717 0.026661785064438864 0 0 0 0.012570296810735102 0.068774948022653284 -0.035442740090486924 0 -0.035442740090486924 0.068758494847630247 0 0 0 0.034383360717570852 0.047197355198263811 -0.021773724407140996 0 -0.021773724407140996 0.030749626184974035 0 0 0 0.019486745345809454 0.026245309850647547 -0.016023557518015541 0 -0.016023557518015541 0.054380818254282204 0 0 0 0.020156532026232465 0.045355334136846434 -0.016278912136064777 0 -0.016278912136064777 0.028703580042115928 0 0 0 0.01851472854474058 0.11551664514402182 0.011088940435987758 0 0.011088940435987758 0.0893861454297189 0 0 0 0.051225697643435208 0.058126211613307666 -0.016347094105322424 0 -0.016347094105322424 0.048098316466526292 0 0 0 0.026556132019958545 -0.12732558146304462 0.0031936335905281984 0 0.0031936335905281984 0.0014393765531347524 0 0 0 -0.03147155122747744 -0.23824305165305831 -0.0073801404872903603 0 -0.0073801404872903603 0.0068427165838305104 0 0 0 -0.057850083767306937 0.10376885514363454 -0.0099564617510583542 0 -0.0099564617510583542 0.051123647794644456 0 0 0 0.038723125734569708 0.13329667353113497 0.015174185445499866 0 0.015174185445499866 0.10757981601286848 0 0 0 0.060219122386000828 -0.033096095862068228 0.011017028369502545 0 0.011017028369502545 0.013286057651844957 0 0 0 -0.0049525095525558144 0.038491010983503382 0.0086704348958168871 0 0.0086704348958168871 0.0068207107887832477 0 0 0 0.011327930443071654 0.030023018701442757 -0.020781649103274839 0 -0.020781649103274839 -0.0049780885888475179 0 0 0 0.0062612325281488114 0.045984363186356729 -0.011112442841791394 0 -0.011112442841791394 -0.010949694886050099 0 0 0 0.0087586670750766562 0.084558422787675613 -0.055371148210359551 0 -0.055371148210359551 0.12745990685644371 0 0 0 0.053004582411029837 -0.058488973365597365 0.010349678364256504 0 0.010349678364256504 -0.00068003494936878794 0 0 0 -0.014792252078741533 -0.045688751992055743 0.01105228554833426 0 0.01105228554833426 0.00074070588606809859 0 0 0 -0.011237011526496914 -0.056724287654298503 -0.019389291934766462 0 -0.019389291934766462 0.00089286220305703073 0 0 0 -0.013957856362810364 -0.081654483597277561 -0.019445100844228923 0 -0.019445100844228923 -0.0033048260716610767 0 0 0 -0.021239827417234659 -0.11037698018111586 -0.0076637384853360593 0 -0.0076637384853360593 0.0035168237823364201 0 0 0 -0.026715039099694859 0.072300337133761605 0.085331705203358199 0 0.085331705203358199 0.12705257782252866 0 0 0 0.04983822873907251 0.079386883128454988 -0.014672000619587844 0 -0.014672000619587844 0.048465377367991724 0 0 0 0.031963065124111623 0.069509781975677212 0.0052177847865265692 0 0.0052177847865265692 0.032207253066836569 0 0 0 0.025429258760628473 -0.0026270040043777018 0.014746588423946484 0 0.014746588423946484 0.0026139508765931768 0 0 0 -3.2632819461295148e-06 0.021711414700461722 -0.0015975886262571178 0 -0.0015975886262571178 0.055629911789578046 0 0 0 0.019335331622509951 -0.042837816855028972 0.010997008946530365 0 0.010997008946530365 0.00023686309037282416 0 0 0 -0.010650238441164042 0.13662990977517186 0.030578243023094753 0 0.030578243023094753 0.054308345283967885 0 0 0 0.04773456376478491 0.029278725365640738 0.013699630618293103 0 0.013699630618293103 0.0058630360949694198 0 0 0 0.0087854403651525421 0.064402663896333215 -0.012924301993824938 0 -0.012924301993824938 0.013341565289415755 0 0 0 0.019436057296437281 0.15492616047489599 -0.075622518560449672 0 -0.075622518560449672 0.11068466082313969 0 0 0 0.066402705324508912 -0.19206746613810499 0.018247070905484497 0 0.018247070905484497 0.0073073406786710038 0 0 0 -0.04619003136485833 0.048172095641351345 0.0038349779760219879 0 0.0038349779760219879 0.0034476707575271225 0 0 0 0.012904941599719614 -0.013947917268640751 0.014225361676017179 0 0.014225361676017179 -0.0011778645245157857 0 0 0 -0.0037814454482891311 -0.0050849061890360751 -0.019303347766788728 0 -0.019303347766788728 -0.0028605373321229158 0 0 0 -0.0019863608802897469 0.050702832989266547 0.014795190448461556 0 0.014795190448461556 0.021033682901249781 0 0 0 0.017934128972629082 -0.081217610238130816 0.0076255706842455889 0 0.0076255706842455889 0.0035663466962986279 0 0 0 -0.019412815885458096 -0.13675071091972257 -0.01907205197345499 0 -0.01907205197345499 0.011268375401647754 0 0 0 -0.03137058387951875 0.14144019223713267 0.014427225851039394 0 0.014427225851039394 0.10520853312979384 0 0 0 0.061662181341731959 -0.025564391462634672 -0.0098487800151735305 0 -0.0098487800151735305 0.0033572537425721194 0 0 0 -0.0055517844300154717 0.10251560831459053 0.0057358469216378105 0 0.0057358469216378105 0.086321501279836788 0 0 0 0.047209277398606836 0.062026929769433886 -0.031566210411728704 0 -0.031566210411728704 0.02052242371256463 0 0 0 0.020637338370499622 0.092345827428651994 0.0069862072611548698 0 0.0069862072611548698 0.051437971691011719 0 0 0 0.035945949779915942 0.039170904937642748 0.011005297245583287 0 0.011005297245583287 0.013077321258237087 0 0 0 0.013062056548969955 0.0469143595631 -0.00096136484846721763 0 -0.00096136484846721763 0.0013207305557081149 0 0 0 0.012058772529702024 0.0088732675818362326 0.011750149115324935 0 0.011750149115324935 0.0079022020693463313 0 0 0 0.0041938674127956418 0.058268743304433795 -0.023752201929239665 0 -0.023752201929239665 0.15132757930549356 0 0 0 0.052399080652481833 0.057201400841301958 -0.023788161720018523 0 -0.023788161720018523 0.14395437695460903 0 0 0 0.050288944448977774 -0.0062107015342932614 -0.019159525402811406 0 -0.019159525402811406 0.0068993761564146716 0 0 0 0.00017216865553026928 -0.012450191817233724 -0.019996758310627083 0 -0.019996758310627083 0.0064284939882770509 0 0 0 -0.0015054244572391129 0.10356013648715612 0.027529084928572312 0 0.027529084928572312 0.064770719523608911 0 0 0 0.042082714002691368 0.12024069022790584 0.026906876923340928 0 0.026906876923340928 0.069494716666419265 0 0 0 0.047433851723581277 0.10074710962577971 0.03828178319976025 0 0.03828178319976025 0.040085924786195548 0 0 0 0.035208258602993814 0.14069612782556673 0.034507909767064415 0 0.034507909767064415 0.048430862981803102 0 0 0 0.047281747701842569 0.039475310643030274 0.0083466767007837235 0 0.0083466767007837235 0.013156977886637333 0 0 0 0.013158072132416904 0.1132884890363525 0.0061157814348585249 0 0.0061157814348585249 0.11026027596022442 0 0 0 0.055887191249144236 0.10159020783826257 0.0096190263822600874 0 0.0096190263822600874 0.077228099648271542 0 0 0 0.044704576871633553 -0.062110095180275438 -0.012572299986921665 0 -0.012572299986921665 0.0037533173732504643 0 0 0 -0.014589194451756327 -0.073834111348337172 -0.0049765759982589031 0 -0.0049765759982589031 0.0024906642681786773 0 0 0 -0.017835861770039596 -0.1193042614821449 0.012653655257970131 0 0.012653655257970131 0.0054962510475733417 0 0 0 -0.028452002608643001 0.075839235331132071 0.026853148816460858 0 0.026853148816460858 0.040107075899731059 0 0 0 0.028986577807715776 0.079376622939603042 0.028431404079358909 0 0.028431404079358909 0.049054612319996499 0 0 0 0.032107808814899899 0.047385924617854826 0.0092008608507555233 0 0.0092008608507555233 0.0026096660134099017 0 0 0 0.012498897657816191 0.036870467107404062 0.01056064642120387 0 0.01056064642120387 0.0042386044714417537 0 0 0 0.010277267894711456 -0.10874933479648033 -0.019966689029998298 0 -0.019966689029998298 -0.0060111562489602241 0 0 0 -0.028690122761360154 -0.070275660495572975 0.0085420380139927757 0 0.0085420380139927757 -0.00068241550756447831 0 0 0 -0.017739519000784371 -0.054271552181963195 0.014178043465466464 0 0.014178043465466464 2.5362560264134693e-05 0 0 0 -0.013561547405424765 0.15856467267082097 0.022480859912813678 0 0.022480859912813678 0.11638687765197275 0 0 0 0.06873788758069832 -0.02690091157758967 -0.010165467642044401 0 -0.010165467642044401 0.007981537535578731 0 0 0 -0.0047298435105026515 0.040727945037303086 -0.0043482050676319547 0 -0.0043482050676319547 0.0039822344697114341 0 0 0 0.011177544876753627 0.066536366314726939 -0.0042250774906038551 0 -0.0042250774906038551 -0.0045379896827175484 0 0 0 0.015499594158002346 -0.022142079784071456 -0.021709682850199863 0 -0.021709682850199863 0.0080065867766132559 0 0 0 -0.0035338732518646054 0.011823453407500488 -0.02642971419720265 0 -0.02642971419720265 0.00079628635608646262 0 0 0 0.0031549349408967389 0.024628405250146267 -0.0073657040971436549 0 -0.0073657040971436549 0.035883306319250699 0 0 0 0.015127927892349232 0.081919574053683025 0.018970130734112366 0 0.018970130734112366 0.023649949422960073 0 0 0 0.026392380869160795 -0.02081661128404147 0.049966110430576638 0 0.049966110430576638 0.011566553436604232 0 0 0 -0.0023125144618593441 -0.065163476185693195 0.0020227626703026025 0 0.0020227626703026025 0.0066727832367309836 0 0 0 -0.014622673237240535 -0.11064415168492919 -0.0028100943050002603 0 -0.0028100943050002603 0.016774802019758672 0 0 0 -0.0234673374162927 0.057773931740246143 0.0010842324586844976 0 0.0010842324586844976 0.01478441157332111 0 0 0 0.018139585828391813 0.069829592375836191 0.011230051255836204 0 0.011230051255836204 0.021602215273016645 0 0 0 0.022857951912213292 -0.039235123077537015 0.015270632827831157 0 0.015270632827831157 0.0023902427886704596 0 0 0 -0.0092112200722166363 -0.024577554872291341 0.012889055654573826 0 0.012889055654573826 0.00095041420955624921 0 0 0 -0.0059067851656837596 0.024114848795228027 0.0033354620623748769 0 0.0033354620623748769 0.022332718836497234 0 0 0 0.011611891907931313 -0.0734312234818362 0.013607376534359296 0 0.013607376534359296 0.0041017508721176016 0 0 0 -0.017332368152429632 -0.049709745398695257 -0.028112542988432895 0 -0.028112542988432895 -0.0078267521051003305 0 0 0 -0.014384124375948909 0.052731070331423199 -0.0034962992810625426 0 -0.0034962992810625426 -0.041702729275939703 0 0 0 0.0027570852638708456 0.0050414497840214345 0.061812453977699855 0 0.061812453977699855 0.016124822211302625 0 0 0 0.0052915679988310149 0.035347270511929672 0.010561057083217985 0 0.010561057083217985 0.011780771945256762 0 0 0 0.011782010614296609 0.17041542966459478 0.011785126229183263 0 0.011785126229183263 0.098461656313897916 0 0 0 0.067219271494623367 0.123803984668363 0.039337794656463823 0 0.039337794656463823 0.12574767435408415 0 0 0 0.06238791475561177 -0.099223561564962509 0.014158054344394988 0 0.014158054344394988 0.032257401565436647 0 0 0 -0.016741539999881448 0.095646688838880348 0.043870806736069468 0 0.043870806736069468 0.13166533925530172 0 0 0 0.056828007023545526 0.11125858263983336 0.035861705709532357 0 0.035861705709532357 0.088914727597604992 0 0 0 0.050043327559359599 -0.01195320422306083 0.013906510814241707 0 0.013906510814241707 0.0037323660584578471 0 0 0 -0.0020552095411507472 0.017873314786830401 0.010184501332510115 0 0.010184501332510115 0.0037410514386761809 0 0 0 0.0054035915563766411 -0.09615917080780334 0.043396274559022952 0 0.043396274559022952 0.019812448191539378 0 0 0 -0.019086680654066157 0.01977419460350649 -0.012342583670124606 0 -0.012342583670124606 0.069757896412961193 0 0 0 0.02238302275411691 0.072820347864142793 0.029155514328575494 0 0.029155514328575494 0.14177324148276907 0 0 0 0.053648397336727965 0.048605638052266531 -0.02112000973462827 0 -0.02112000973462827 0.012988927531670802 0 0 0 0.015398641395984319 -0.09001686884951221 -0.0038796192576524002 0 -0.0038796192576524002 0.0043036734072175731 0 0 0 -0.021428298860573715 -0.15695865775180465 0.009021889391841259 0 0.009021889391841259 0.015012232761908106 0 0 0 -0.035486606247474101 -0.025100976476940318 0.017336561335542733 0 0.017336561335542733 0.010094172903921894 0 0 0 -0.0037517008932548279 0.075921625542219484 -0.018421768473544597 0 -0.018421768473544597 0.055203718512889743 0 0 0 0.032781336013777196 0.04650181047086932 -0.017846009382996908 0 -0.017846009382996908 0.036128970914889313 0 0 0 0.020657695346439658 0.093866381680547645 0.020343970210340408 0 0.020343970210340408 0.026742545050564212 0 0 0 0.030152231682777975 -0.035447464274859786 -0.029484274239069491 0 -0.029484274239069491 -0.011241072110067925 0 0 0 -0.011672134096231935 -0.062311839271428145 0.0095285680354293689 0 0.0095285680354293689 0.0038002353604063843 0 0 0 -0.014627900977755466 -0.079616159183839727 -0.014323041276126519 0 -0.014323041276126519 0.010306708937045567 0 0 0 -0.017327362561698523 0.04191302502759256 -0.019499999078171473 0 -0.019499999078171473 0.059311859864799477 0 0 0 0.025306221223098002 -0.034610852536154743 0.007279851641555396 0 0.007279851641555396 0.0061578246008284765 0 0 0 -0.007113256983831584 0.047083891061226534 0.0070160355149083238 0 0.0070160355149083238 0.11319695196084716 0 0 0 0.0400702107555184 0.044884729965682491 -0.00135479505361329 0 -0.00135479505361329 0.014964299489587177 0 0 0 0.014962257363817417 0.056822522435481443 -0.017550423022015371 0 -0.017550423022015371 0.040003706182985321 0 0 0 0.024206557154616698 -0.088917612894192699 0.0035534855394547885 0 0.0035534855394547885 0.0038691271163751664 0 0 0 -0.021262121444454371 -0.15277573199660255 -0.011524284367211729 0 -0.011524284367211729 0.0077759704917601535 0 0 0 -0.036249940376210613 -0.063063412738406099 -0.01964121851856071 0 -0.01964121851856071 0.0087700791538196793 0 0 0 -0.013573333396146636 0.012020123672030286 -0.020384532182356987 0 -0.020384532182356987 0.04022323394753391 0 0 0 0.013060839404891084 0.027462594863276096 -0.011856245347237504 0 -0.011856245347237504 0.073716234164065919 0 0 0 0.025294707256835525 -0.0080138641034024054 0.0095316236979192982 0 0.0095316236979192982 0.006906056842452081 0 0 0 -0.0002769518152375746 0.046837817762350686 -0.018834900453029213 0 -0.018834900453029213 0.01764328099464807 0 0 0 0.016120274689249703 -0.026483214070221261 -0.018469673694491373 0 -0.018469673694491373 0.0056587711323417833 0 0 0 -0.0052061107344700923 -0.02319657845335028 0.010554115597311264 0 0.010554115597311264 0.0072346779765077827 0 0 0 -0.0039904751192106173 0.05179043767397698 -0.019196162106936837 0 -0.019196162106936837 0.01248826278225118 0 0 0 0.016069675114057047 0.048538604259380919 -0.0033809567793797561 0 -0.0033809567793797561 -0.0031963589083900956 0 0 0 0.011335561337747713 -0.093017027905464691 0.0019584118311909704 0 0.0019584118311909704 0.0035159650796038333 0 0 0 -0.022375265706465322 -0.16703369899134188 -0.0042475716701849131 0 -0.0042475716701849131 0.0060809416303536645 0 0 0 -0.04023818934024706 -0.042178452451304582 -0.006297996067841316 0 -0.006297996067841316 0.0023826202271094443 0 0 0 -0.0099489580560487845 0.15910416722378762 0.012702104374139545 0 0.012702104374139545 0.12063397631210981 0 0 0 0.069934535883974247 0.14925552807780418 0.02444161232140285 0 0.02444161232140285 0.097137134726866137 0 0 0 0.061598165701167829 -0.040200428253070353 -0.0055566518010173619 0 -0.0055566518010173619 0.0039417662816267907 0 0 0 -0.0090646654928607795 0.18334927746024832 0.0078299428837008151 0 0.0078299428837008151 0.15176239180192574 0 0 0 0.083777917315543071 0.10738730859144022 -0.015419134166386982 0 -0.015419134166386982 0.034890823863612641 0 0 0 0.035569533113763235 0.032427066784304709 -0.020319337593253384 0 -0.020319337593253384 0.030718752677169281 0 0 0 0.015786454865368477 0.16066822107552625 -0.014361756939557347 0 -0.014361756939557347 0.12047978129050563 0 0 0 0.070287000591508053 0.25906110437969099 0.014401930174978372 0 0.014401930174978372 0.2193843936463955 0 0 0 0.11961137450652165 -0.073952246619768014 -0.022207892637579524 0 -0.022207892637579524 0.032431456635917288 0 0 0 -0.01038019749596264 -0.017775721559465423 0.013174434520226591 0 0.013174434520226591 0.002770423152244364 0 0 0 -0.0037513246018052657 0.049921605900413411 0.010953889430824881 0 0.010953889430824881 0.0061470718155980332 0 0 0 0.014017169429002848 -0.029100969260569931 0.039066478889220546 0 0.039066478889220546 0.0052084136722649887 0 0 0 -0.0059731388970762911 0.071494232118595957 -0.022349708839984384 0 -0.022349708839984384 0.031246456582166182 0 0 0 0.025685172175190507 0.04875031124578421 0.00096102036078088752 0 0.00096102036078088752 0.005371581334202619 0 0 0 0.01353047314499671 -0.010596492232542904 0.0086846104700576826 0 0.0086846104700576826 0.019559725716721873 0 0 0 0.00224080837104473 0.17705489657347817 0.013623420999687117 0 0.013623420999687117 0.09765840308130791 0 0 0 0.068678324913696187 0.031306408702005982 -0.017265962272685356 0 -0.017265962272685356 -0.010103012707002937 0 0 0 0.0053008489987507665 0.093113706702191226 -0.0040413148952070932 0 -0.0040413148952070932 0.022619275017902729 0 0 0 0.028933245430023471 0.097187535857396465 -0.0068706945287373422 0 -0.0068706945287373422 0.02624477043782926 0 0 0 0.030858076573806389 0.10853678183783766 -0.019191772538566132 0 -0.019191772538566132 0.076017256582916914 0 0 0 0.046138509605188616 0.12514960530449865 -0.0092668374122589214 0 -0.0092668374122589214 0.11369033496040803 0 0 0 0.059709985066226545 0.20539605312285714 0.0053373827198800461 0 0.0053373827198800461 0.20607698664002294 0 0 0 0.10286825994072002 0.17523925259623618 0.02453769471620032 0 0.02453769471620032 0.14377350599036554 0 0 0 0.079753189646650458 0.064495278920806046 0.023604578022488668 0 0.023604578022488668 0.044441908099453906 0 0 0 0.027234296755064977 0.10493620904632633 -0.027386981910083832 0 -0.027386981910083832 0.014740633840343964 0 0 0 0.029919210721667561 0.12118381102176899 -0.050638123736025269 0 -0.050638123736025269 0.062584537959096201 0 0 0 0.045942087245216312 -0.037253665608365988 -0.018349268834937371 0 -0.018349268834937371 0.0065359482763229781 0 0 0 -0.0076794293330108288 -0.041723879983928749 0.011502682256180258 0 0.011502682256180258 0.0039551732545839852 0 0 0 -0.0094421766823361911 -0.024870550727919133 0.014128616276797193 0 0.014128616276797193 0.0050675377994116449 0 0 0 -0.0049507532321268616 -0.04402077490501255 0.016809956445680993 0 0.016809956445680993 0.072551087408991299 0 0 0 0.0071325781259947152 0.081361723951766773 -0.01793976035269168 0 -0.01793976035269168 0.058606257244038229 0 0 0 0.034991995298951251 0.13685527132705189 0.022108658045921464 0 0.022108658045921464 0.10981495514410855 0 0 0 0.06166755661779022 0.048758762903945679 0.013202846806608312 0 0.013202846806608312 0.012724189433509957 0 0 0 0.015370738084363898 0.055173441821212976 -0.0024364777765431 0 -0.0024364777765431 -0.0080914590767520167 0 0 0 0.011770495686115212 0.032327920210984198 0.010633554427539781 0 0.010633554427539781 0.0034727728169311189 0 0 0 0.0089501732569788224 0.04812071478978959 -0.020117747592970602 0 -0.020117747592970602 0.025286200269030334 0 0 0 0.018351728764704978 0.050679330375311263 0.00088676680038795707 0 0.00088676680038795707 -0.0046684372815736785 0 0 0 0.011502723273434396 0.068416584943033376 0.043375276992307255 0 0.043375276992307255 0.019184043750184898 0 0 0 0.021900157173304402 0.079380874654280204 0.034687539433119863 0 0.034687539433119863 0.036214397268112486 0 0 0 0.028898817980598318 0.008459410758776334 -0.024437011519844898 0 -0.024437011519844898 0.014395855627226617 0 0 0 0.0057138165965009563 0.15445996424839631 -0.1065276988424755 0 -0.1065276988424755 0.2058558634161575 0 0 0 0.090078956916138431 0.04684564494594725 0.0028995978030867363 0 0.0028995978030867363 -0.0002289929886457754 0 0 0 0.011654162989325367 -0.043827173997328384 -0.010895382518998242 0 -0.010895382518998242 0.0061529039814944841 0 0 0 -0.0094185675039586414 0.0066508787157828486 -0.0018189916532875827 0 -0.0018189916532875827 0.0073727771803673292 0 0 0 0.0035059139740372114 0.29597966079062266 -0.0011201821531541256 0 -0.0011201821531541256 0.24453176231305651 0 0 0 0.13512785577591924 0.24471969966839982 -0.013853520102844463 0 -0.013853520102844463 0.23273427170597294 0 0 0 0.11936349284359275 0.15228569219614152 0.0055434468737969311 0 0.0055434468737969311 0.13220783143839121 0 0 0 0.071123380908633349 0.011243792982394751 0.0028998096709862875 0 0.0028998096709862875 0.012730868689297736 0 0 0 0.005993665417923566 0.0093346708118093036 -0.0012283737407967621 0 -0.0012283737407967621 0.0077637734973045871 0 0 0 0.0042746110772783619 0.18265928564230416 -0.002632560092941241 0 -0.002632560092941241 0.14107896219951588 0 0 0 0.08093456196045512 0.015930512487511983 0.0019992369805383881 0 0.0019992369805383881 0.01302374515818272 0 0 0 0.0072385644114234537 0.041390243257317466 0.0011322932305098366 0 0.0011322932305098366 0.0035078725560438555 0 0 0 0.01122452895334033 0.058252224291096256 -0.017892744110748954 0 -0.017892744110748954 0.010596502420612566 0 0 0 0.017212181677927187 -0.022960987085720669 0.012791982009093532 0 0.012791982009093532 0.011299340006758196 0 0 0 -0.0029154117697406182 -0.016828200288766526 -0.02515050348460357 0 -0.02515050348460357 0.0083516409300661287 0 0 0 -0.0021191398396751548 0.043729133701470309 -0.0080240557054089209 0 -0.0080240557054089209 -0.0077220898833100862 0 0 0 0.0090017609545400556 0.028876779473399061 0.028418333000022056 0 0.028418333000022056 0.024042246578658499 0 0 0 0.013229756513013946 0.045492261147364377 -0.022498835165956743 0 -0.022498835165956743 0.026193555484661069 0 0 0 0.0179214541580065 0.09701521704315641 -0.01503436785736556 0 -0.01503436785736556 0.091166474013361753 0 0 0 0.047045422764129596 0.17386147286474868 0.013844297080680634 0 0.013844297080680634 0.16992615030727998 0 0 0 0.085946905793007122 0.067426389903099432 0.011136434223675218 0 0.011136434223675218 0.085694325724362808 0 0 0 0.038280178906865664 -0.017129523557154018 0.0047785892806310425 0 0.0047785892806310425 0.010807772261098303 0 0 0 -0.0015804378240139236 0.051261534059894143 -0.015176522918801087 0 -0.015176522918801087 0.065772780369013795 0 0 0 0.02925857860722697 0.11522059604226001 0.011849349839638701 0 0.011849349839638701 0.12610415389898744 0 0 0 0.060331187485311771 0.02675830136688051 -0.028037818981196005 0 -0.028037818981196005 0.014554784821775746 0 0 0 0.010328271547163981 0.051179314195805653 0.011126313740480787 0 0.011126313740480787 0.0065212855630265992 0 0 0 0.014425149939708063 0.041665573203169881 -0.0229134670031379 0 -0.0229134670031379 0.035259146076504599 0 0 0 0.019231179819918731 0.024981191422167148 0.022829965410545494 0 0.022829965410545494 0.01826944702668154 0 0 0 0.010812659612211784 0.097663683498663112 0.0055956100951411458 0 0.0055956100951411458 0.0497896535253598 0 0 0 0.036863334256005742 0.10487564443009167 0.0020815603754220646 0 0.0020815603754220646 0.052185735216735418 0 0 0 0.039265344911706801 0.009428107314804611 0.012767533792378931 0 0.012767533792378931 0.0037396465648302166 0 0 0 0.0032919384699087034 0.0043801568958262704 -0.0022168933654345552 0 -0.0022168933654345552 0.049074777366841238 0 0 0 0.013363733565666863 0.084439365897088892 -0.025682339892997952 0 -0.025682339892997952 0.029759345235666312 0 0 0 0.028549677783188843 0.061823067257663636 -0.019934332883655537 0 -0.019934332883655537 0.010725683215203806 0 0 0 0.01813718761821688 0.12077597366104753 -0.018369115356297094 0 -0.018369115356297094 0.038159985779250949 0 0 0 0.039733989860074703 0.11617647389415084 0.0081802663799708797 0 0.0081802663799708797 0.095268572055351108 0 0 0 0.052861261487375549 0.1043200764510463 0.011548521334537487 0 0.011548521334537487 0.060208986404379883 0 0 0 0.041132265713856475 -0.03059009013665499 0.013635258677905668 0 0.013635258677905668 0.0015892164363454225 0 0 0 -0.0072502184250773927 0.024903555768779784 -0.0066349565447681152 0 -0.0066349565447681152 0.053738710459543981 0 0 0 0.019660566557080941 0.026477500310934182 -0.0044000697611363201 0 -0.0044000697611363201 0.064801201430717353 0 0 0 0.022819675435412884 0.13195837230767299 0.067606319008807064 0 0.067606319008807064 0.2194610766849806 0 0 0 0.08785486224816344 0.076969785792393913 -0.022878752069707159 0 -0.022878752069707159 0.25165799021553226 0 0 0 0.082156944001981563 0.17531944345947004 0.012172078135913898 0 0.012172078135913898 0.11882281015296137 0 0 0 0.073535563403108073 0.061523152507675774 0.025337707185219001 0 0.025337707185219001 0.059154745993800134 0 0 0 0.030169474625368994 -0.05764698517907707 -0.0076054839143644111 0 -0.0076054839143644111 0.005869507274687713 0 0 0 -0.012944369476097117 0.0087520265492211265 0.012592890907981186 0 0.012592890907981186 0.0016592935796837099 0 0 0 0.0026028300322262117 -0.02912748863913929 -0.021982790498981213 0 -0.021982790498981213 -0.0050722670872470621 0 0 0 -0.0085499389315965846 -0.030352319831656573 0.012906399454393249 0 0.012906399454393249 -0.00091648129848317939 0 0 0 -0.0078172002825349363 0.065883179874347775 0.0018820031453878859 0 0.0018820031453878859 -0.0064756922545979208 0 0 0 0.014851871904937471 -0.048521704788478982 0.0041534677458416255 0 0.0041534677458416255 0.0026373708586104033 0 0 0 -0.011471083482467148 -0.045925812376362209 0.0049887158532353195 0 0.0049887158532353195 -0.0067226941898286471 0 0 0 -0.013162126641547714 -0.061692238560579635 -0.008263572589902006 0 -0.008263572589902006 0.0046344072211539633 0 0 0 -0.014264457834856418 -0.058869635381371715 -0.0095648378611791849 0 -0.0095648378611791849 -0.0077320167044428664 0 0 0 -0.016650413021453647 -0.0059246601584330844 -0.018988689674477532 0 -0.018988689674477532 0.028543886533329954 0 0 0 0.0056548065937242625 0.053127724078433816 0.0031826215755485733 0 0.0031826215755485733 0.0017585604245469628 0 0 0 0.013721571125745201 0.15999254210569169 0.026153061933071653 0 0.026153061933071653 0.05332194023024428 0 0 0 0.05332862058398391 0.059454503124642843 -0.00031034395887077904 0 -0.00031034395887077904 0.091690231401853284 0 0 0 0.037786183631624004 0.076068810552962565 0.034892845835018588 0 0.034892845835018588 0.088259293894538515 0 0 0 0.041082026111875294 0.026056334514825419 -0.033660418746705889 0 -0.033660418746705889 0.039697698530618331 0 0 0 0.016438508261360951 0.02569298159698628 0.0024550935100853266 0 0.0024550935100853266 0.011169177056231496 0 0 0 0.0092155396633041113 0.096888757792957081 0.0068265078874980567 0 0.0068265078874980567 0.063416275880929851 0 0 0 0.040076258418471677 0.15510068555727061 -0.013233241122287076 0 -0.013233241122287076 0.1161189779801786 0 0 0 0.06780491588436241 0.014788494453661205 -0.0020081790380825915 0 -0.0020081790380825915 0.0058424598556374181 0 0 0 0.0051577385773245452 0.065570241905692883 -0.0099541168227230692 0 -0.0099541168227230692 0.03718161144388038 0 0 0 0.025687963337393316 0.1001897697210441 0.00812238844689947 0 0.00812238844689947 0.064252243912450213 0 0 0 0.041110503408373522 -0.045325606115153065 0.0031015735981045271 0 0.0031015735981045271 -0.015080134431916175 0 0 0 -0.015101435136767307 -0.057393900348015614 -0.0071681134069720952 0 -0.0071681134069720952 -0.019093778066867833 0 0 0 -0.019121919603720859 -0.060723796422105528 -0.0054309968273828857 0 -0.0054309968273828857 -0.0073458139925898867 0 0 0 -0.017017402603673855 -0.04834483395322408 0.0019295103264245666 0 0.0019295103264245666 -0.0062131890346815433 0 0 0 -0.013639505746976406 0.030311280110743355 -0.031146489401619126 0 -0.031146489401619126 0.019258065183446305 0 0 0 0.012392336323547526 0.0090802488100506333 0.012440453954718496 0 0.012440453954718496 0.0061508778152858995 0 0 0 0.003807781656334133 0.054460580444835427 -0.021044464232373744 0 -0.021044464232373744 0.016856058338947766 0 0 0 0.017829159695945812 0.060708941291355539 -0.018982577833317665 0 -0.018982577833317665 0.010211726879268967 0 0 0 0.017730167042656148 0.019837571385123171 0.010933765034688658 0 0.010933765034688658 0.0090949520149332663 0 0 0 0.007233130850014112 0.040081635953538683 0.0096814248412680857 0 0.0096814248412680857 0.0043324366612476628 0 0 0 0.011103518153696579 0.03982178309554131 0.011519385298085535 0 0.011519385298085535 0.0036846441301973051 0 0 0 0.010876606806434654 0.05579750704799926 -0.04819793222603172 0 -0.04819793222603172 0.16761499863615403 0 0 0 0.055853126421038311 0.1322184292685199 -0.015456662109527161 0 -0.015456662109527161 0.4485148757883769 0 0 0 0.1451833262642242 -0.024559442013160022 -0.010808481323687225 0 -0.010808481323687225 0.019310467513494967 0 0 0 -0.0013122436249162275 0.10869259632050471 0.0065747598779711466 0 0.0065747598779711466 0.08148746768539783 0 0 0 0.047545016001475704 0.053619107754609124 -0.016294598657310866 0 -0.016294598657310866 0.047517659913138721 0 0 0 0.02528419191693701 0.04375356425817109 0.010838472105553875 0 0.010838472105553875 0.014082580694170274 0 0 0 0.014459036238085343 0.15155584191708193 0.015910441283590426 0 0.015910441283590426 0.1055583341049946 0 0 0 0.064278544005519134 -0.020152416312881005 -0.011889285162341334 0 -0.011889285162341334 0.0066913555339924713 0 0 0 -0.0033652651947220225 0.091834529763125672 -0.028255281892979073 0 -0.028255281892979073 0.076899174600741804 0 0 0 0.042183426090966897 0.10612601159226261 -0.0041449224849310073 0 -0.0041449224849310073 0.039163112326561417 0 0 0 0.036322280979706009 -0.0042971164029621534 0.021963771872102189 0 0.021963771872102189 0.014570235520808161 0 0 0 0.0025682797794610579 0.059872081703868818 -0.022941358367759568 0 -0.022941358367759568 0.049182672732628774 0 0 0 0.027263688609124426 0.056630212479590214 -0.022182734786329691 0 -0.022182734786329691 0.035951005133994407 0 0 0 0.023145304403396127 0.055904148127583153 -0.0077286213552071881 0 -0.0077286213552071881 0.019779550738932894 0 0 0 0.018920924716629095 0.12971026755730128 0.011071924875487527 0 0.011071924875487527 0.11623119877402177 0 0 0 0.061485366582830686 0.047786882987443609 -0.016073427947180679 0 -0.016073427947180679 -0.0075452487988924948 0 0 0 0.01006040854713779 0.066037049974075085 0.006348634641704487 0 0.006348634641704487 0.02017912450710313 0 0 0 0.021554043620294644 0.00038105622182088052 0.015307033084490308 0 0.015307033084490308 0.0010921003220419716 0 0 0 0.00036828913596570999 0.0091339055195899001 0.014817392930465785 0 0.014817392930465785 0.0008547578170297887 0 0 0 0.0024971658341549179 0.025644074925202869 -0.00039431678934390493 0 -0.00039431678934390493 0.039880160934370593 0 0 0 0.016381058964893357 0.0021182704807414798 -0.014665963217976891 0 -0.014665963217976891 0.04604261105373475 0 0 0 0.012040220383619071 0.023879228730312393 0.0094833470080687085 0 0.0094833470080687085 0.0023332413049862583 0 0 0 0.0065531175088246636 0.028090587183942833 0.011881457577762501 0 0.011881457577762501 0.010482590325327584 0 0 0 0.0096432943773176044 0.024763457031563484 0.010062800826635396 0 0.010062800826635396 0.0079793753311366046 0 0 0 0.0081857080906750177 0.068235668468120014 -0.0083459861039796301 0 -0.0083459861039796301 0.011134813068439886 0 0 0 0.019842620384139975 0.077367546766727191 -0.0080406531841803464 0 -0.0080406531841803464 0.044293044171020757 0 0 0 0.030415147734436987 0.12077944576424988 0.0065309059673240855 0 0.0065309059673240855 0.087313053161203635 0 0 0 0.052023124731363349 0.10510763908071935 0.010971508773467642 0 0.010971508773467642 0.040652479939062403 0 0 0 0.03644002975494548 0.099849150643615353 -0.048301001279477208 0 -0.048301001279477208 0.16903851581620566 0 0 0 0.067221916614955246 0.15135516115029946 0.0067323990276073609 0 0.0067323990276073609 0.11318326321400818 0 0 0 0.066134606091077242 0.013901439836781382 -0.0064129075159402582 0 -0.0064129075159402582 0.0088783183798089027 0 0 0 0.0056949395541474601 0.094285850471464316 -0.0075885214322104488 0 -0.0075885214322104488 0.061499036546596386 0 0 0 0.038946221754515342 0.023892856380022698 0.0086626417226973729 0 0.0086626417226973729 0.018165928032699341 0 0 0 0.010514696103180343 -0.0072363123347569669 0.029493255825715159 0 0.029493255825715159 0.010315892125815296 0 0 0 0.00076989494776436018 0.054796916476234747 -0.024239614627359241 0 -0.024239614627359241 0.033281973819633048 0 0 0 0.022019722573966893 0.052555881178687147 -0.025250317892396956 0 -0.025250317892396956 0.024965664891688277 0 0 0 0.019380386517593995 0.029666056858828446 -0.0024654920048707511 0 -0.0024654920048707511 0.053348324081676599 0 0 0 0.020753595235126258 0.11608582705657877 -0.0002015750708722619 0 -0.0002015750708722619 0.10441251735546686 0 0 0 0.055124586103012518 0.022500042086440075 -0.0050750562705527691 0 -0.0050750562705527691 0.010225202922070409 0 0 0 0.008181311252127621 0.036961060041591054 0.0072436289252304498 0 0.0072436289252304498 0.018867547495050374 0 0 0 0.013957151884159913 0.070565150841327862 -0.0022922729941514675 0 -0.0022922729941514675 0.054143498943503232 0 0 0 0.031177162446208051 0.060639712063790929 -0.0049407104770152754 0 -0.0049407104770152754 0.021072310878486711 0 0 0 0.020428005735569466 0.091345575075630972 -0.030713213924774219 0 -0.030713213924774219 0.018692389529683662 0 0 0 0.027509491151328683 0.14264471302042844 -0.017389971404309978 0 -0.017389971404309978 0.12444631051949889 0 0 0 0.066772755884981744 0.22629492655764039 0.019431167950649253 0 0.019431167950649253 0.22499660775497365 0 0 0 0.11282288357815362 0.045540372865437925 0.010712960488738456 0 0.010712960488738456 0.0025433126563640246 0 0 0 0.012020921380450481 -0.046530531349151305 0.035834940184980346 0 0.035834940184980346 0.0092730132349663208 0 0 0 -0.0093143795285461906 -0.035298464960169973 0.030108829167803913 0 0.030108829167803913 0.0083845487264246898 0 0 0 -0.0067284790584360987 0.057478898064213656 -0.0072768376847784921 0 -0.0072768376847784921 0.013029400544034349 0 0 0 0.017627074652061946 0.02784988407593661 0.0032392088922160141 0 0.0032392088922160141 0.021297620012864827 0 0 0 0.012286876022200351 0.047436730747501273 -0.019582266578955898 0 -0.019582266578955898 0.014221069023423363 0 0 0 0.015414449942731147 0.059060283025728515 -0.026186929452299251 0 -0.026186929452299251 0.0307544569373377 0 0 0 0.022453684990766519 0.0094951368220668186 0.026965964598999914 0 0.026965964598999914 0.011901741760906859 0 0 0 0.0053492196457431973 0.042324461313763662 -0.022215705400374208 0 -0.022215705400374208 0.031301685498008602 0 0 0 0.018406536702943121 0.037153936468976578 -0.029385535741396018 0 -0.029385535741396018 0.022767570549011573 0 0 0 0.014980376754497149 -0.047281222926289987 0.013234377729760589 0 0.013234377729760589 -0.0015074793773205281 0 0 0 -0.012197175575902639 -0.06040211316920796 -0.023555061796410041 0 -0.023555061796410041 -0.0057698795283892546 0 0 0 -0.016542998174399314 -0.051376971459992885 -0.023690566353335916 0 -0.023690566353335916 0.0018700227880728282 0 0 0 -0.012376737167980011 -0.043149993154988922 0.012346094623827544 0 0.012346094623827544 0.0015042573517687931 0 0 0 -0.01041143395080504 0.027869129952018432 0.00090097843893816466 0 0.00090097843893816466 0.028066550413418996 0 0 0 0.013983920091359351 -0.040763784344264531 0.021870490456231906 0 0.021870490456231906 0.0073653346697080124 0 0 0 -0.0083496124186390741 0.069231331475430258 -0.018709211525470448 0 -0.018709211525470448 0.046029426018102448 0 0 0 0.028815189373383232 0.063806952472637901 -0.023889974790974933 0 -0.023889974790974933 0.035092491880591048 0 0 0 0.024724861088307071 -0.015402002385988336 -0.029898198032273671 0 -0.029898198032273671 0.012234207090908555 0 0 0 -0.00079194882376988629 0.060189055207575989 -0.0087372643111831572 0 -0.0087372643111831572 0.020720209392714739 0 0 0 0.020227316150072658 0.057762919458134714 -0.024217427550531426 0 -0.024217427550531426 -0.0019434279339683941 0 0 0 0.013954872881041575 0.028614097777253742 -0.0031435101648446236 0 -0.0031435101648446236 0.020640809911649988 0 0 0 0.012313726922225951 -0.030396441921847994 0.01667103311099298 0 0.01667103311099298 -0.00022112608216631746 0 0 0 -0.0076543920010035786 -0.035335995947868931 0.06059717936544029 0 0.06059717936544029 0.025230194979373399 0 0 0 -0.0025264502421240287 -0.026817653321102863 -0.027729257507352278 0 -0.027729257507352278 0.013877791502009407 0 0 0 -0.0032349654547731976 0.10583404516296668 0.020086447433639076 0 0.020086447433639076 0.064054092599667323 0 0 0 0.042472034440658168 -0.0050830201173442044 -0.016563898930791909 0 -0.016563898930791909 0.006760090020250839 0 0 0 0.00041926747572682693 0.098506069142781261 0.053685737043112969 0 0.053685737043112969 0.026368879680800372 0 0 0 0.031218737205895408 -0.025432529015785237 0.011744894313706197 0 0.011744894313706197 0.0039901545026610101 0 0 0 -0.0053605936282810568 0.0249371793699181 0.0060933510323471739 0 0.0060933510323471739 0.015731226328451968 0 0 0 0.010167101424592526 -0.01335166746600458 -0.02252308586202334 0 -0.02252308586202334 0.0084789315150071154 0 0 0 -0.0012181839877494216 0.12284874241429994 -0.0058151665866627011 0 -0.0058151665866627011 0.083152160843804002 0 0 0 0.051500225814525902 0.19617908974594023 0.0038015686705499818 0 0.0038015686705499818 0.15515917203052632 0 0 0 0.087834565444116608 0.0270471919861658 0.0069068598507573808 0 0.0069068598507573808 0.007935916291113055 0 0 0 0.0087457770693197198 0.018539370989261172 0.0034870367265504854 0 0.0034870367265504854 0.014741721028164179 0 0 0 0.0083202730043563378 0.01669543269163265 0.0047788534190362775 0 0.0047788534190362775 0.014356923820290746 0 0 0 0.0077630891279802938 0.11040483601913431 0.0016234011683264882 0 0.0016234011683264882 0.084790819817033736 0 0 0 0.048798913959042345 0.12919553988541965 -0.0078203899880571193 0 -0.0078203899880571193 0.089354331110397922 0 0 0 0.054637467748954283 0.20311060128726588 0.010185185597449298 0 0.010185185597449298 0.16162519245341755 0 0 0 0.091183948435170858 0.011252518849307558 -0.002318027935527267 0 -0.002318027935527267 0.0084519048063080859 0 0 0 0.0049261059139040775 0.1811095024080327 -0.010332547172702267 0 -0.010332547172702267 0.15791504930335876 0 0 0 0.084756137927847419 0.0086917796294829763 -0.0036615702418685281 0 -0.0036615702418685281 0.0078397688035591884 0 0 0 0.0041328871082606522 0.065663907055958981 -0.0030770279238003795 0 -0.0030770279238003795 0.019422136488272956 0 0 0 0.021271510886057887 0.05679009533253121 -0.015227358199992767 0 -0.015227358199992767 0.033547071010667784 0 0 0 0.022584291585799776 0.048802658363443607 -0.01763160414448639 0 -0.01763160414448639 0.029671319595985235 0 0 0 0.019618494489857252 0.05351163632617198 -0.0047495182281208637 0 -0.0047495182281208637 0.018751760554426802 0 0 0 0.018065849220149782 0.057686156752431605 -0.0093663019399661263 0 -0.0093663019399661263 0.023650538466253757 0 0 0 0.020334173804671396 0.068032124593728621 0.029432555459818002 0 0.029432555459818002 0.12570553067816997 0 0 0 0.048434413817974663 0.022403715067096493 -0.0256691073718514 0 -0.0256691073718514 0.017126831742947601 0 0 0 0.00988263670251102 0.019034693502847075 -0.0366441932500947 0 -0.0366441932500947 0.0089826997518948071 0 0 0 0.0070043483136854739 -0.0090916577485418947 0.0092122890402380284 0 0.0092122890402380284 0.0085189472796674791 0 0 0 -0.00014317761721860302 -0.049210077947702158 0.038778694680339676 0 0.038778694680339676 0.011308090932363957 0 0 0 -0.0094754967538345225 -0.025020517109744178 0.059138891791077675 0 0.059138891791077675 0.051932246228514778 0 0 0 0.0067279322796927055 0.070276227591675455 0.02898549899077045 0 0.02898549899077045 0.081744150258839576 0 0 0 0.03800509446262873 0.10047134547111958 0.0099347250115059994 0 0.0099347250115059994 0.065362377444969866 0 0 0 0.041458430729022333 0.11494204189776969 0.014686022553581105 0 0.014686022553581105 0.073608920333715133 0 0 0 0.047137740557871233 0.10028682028505134 0.038700746003612563 0 0.038700746003612563 0.085184262329362326 0 0 0 0.04636777065360341 -0.025130389743766829 -0.02606295807894965 0 -0.02606295807894965 0.022763916669779727 0 0 0 -0.00059161826849671306 -0.037905028829381723 -0.016276691565973112 0 -0.016276691565973112 0.0037547443998880992 0 0 0 -0.0085375711073732846 0.065180717519077475 0.025821495302291393 0 0.025821495302291393 0.06037617297346945 0 0 0 0.031389222623136717 0.084913953954165663 0.030671508865625592 0 0.030671508865625592 0.050745495971355581 0 0 0 0.033914862481380287 0.042595821928168298 -0.019138343959940074 0 -0.019138343959940074 0.042474973049713816 0 0 0 0.021267698744470487 0.026219613477087386 0.00032506238052468347 0 0.00032506238052468347 0.0174322906218023 0 0 0 0.010912976024722418 0.028707225637755289 0.0024911038430043371 0 0.0024911038430043371 0.027839565520724502 0 0 0 0.014136697789619944 0.033051233738386553 0.001807000879310584 0 0.001807000879310584 0.043403967049368899 0 0 0 0.019113800196938847 0.16886195070489296 0.014310143523097896 0 0.014310143523097896 0.15744730725713563 0 0 0 0.081577314490506536 -0.022285694113891141 -0.004878174922703149 0 -0.004878174922703149 0.0065354605045331304 0 0 0 -0.0039375584023395582 -0.02595474414507231 0.014207587964251988 0 0.014207587964251988 0.0025128505973000762 0 0 0 -0.005860473386943058 0.035827887780235511 0.010486643559368323 0 0.010486643559368323 0.0061992244945300624 0 0 0 0.010506778068691391 0.17111718494901351 0.017798004466122785 0 0.017798004466122785 0.09152118952399535 0 0 0 0.065659593618252132 0.058547700856465379 -0.0037257326893374576 0 -0.0037257326893374576 0.017069544907023282 0 0 0 0.018904311440872179 0.010161642764069117 -0.036846308384079887 0 -0.036846308384079887 0.0010805193346070247 0 0 0 0.0028105405246690324 -0.021390503017414041 -0.030166308885523622 0 -0.030166308885523622 0.0055591329958014357 0 0 0 -0.003957842505403146 0.048890011073906392 -0.013519857103686195 0 -0.013519857103686195 0.062090001241568715 0 0 0 0.02774500307886868 
</DataArray>
</CellData>
</Piece>
</UnstructuredGrid>
</VTKFile>
