<?xml version="1.0"?>
<VTKFile type="UnstructuredGrid" version="0.1" byte_order="LittleEndian">
<UnstructuredGrid>
<Piece NumberOfPoints="3142" NumberOfCells="1054">
<Points>
<DataArray type="Float64" NumberOfComponents="3" format="ascii">
0.5 0.29999999999999999 0 0.54999999999999993 0.29999999999999999 0 0.54999999999999993 0.29999999999999999 0 0.59999999999999976 0.29999999999999999 0 0.59999999999999976 0.29999999999999999 0 0.6499999999999998 0.29999999999999999 0 0.6499999999999998 0.29999999999999999 0 0.69999999999999984 0.29999999999999999 0 0.69999999999999984 0.29999999999999999 0 0.74999999999999989 0.29999999999999999 0 0.74999999999999989 0.29999999999999999 0 0.79999999999999982 0.29999999999999999 0 0.79999999999999982 0.29999999999999999 0 0.84999999999999987 0.29999999999999999 0 0.84999999999999987 0.29999999999999999 0 0.89999999999999991 0.29999999999999999 0 0.89999999999999991 0.29999999999999999 0 0.94999999999999996 0.29999999999999999 0 0.94999999999999996 0.29999999999999999 0 1 0.29999999999999999 0 0.5 0.69999999999999996 0 0.54999999999999993 0.69999999999999996 0 0.54999999999999993 0.69999999999999996 0 0.59999999999999976 0.69999999999999996 0 0.59999999999999976 0.69999999999999996 0 0.6499999999999998 0.69999999999999996 0 0.6499999999999998 0.69999999999999996 0 0.69999999999999984 0.69999999999999996 0 0.69999999999999984 0.69999999999999996 0 0.74999999999999989 0.69999999999999996 0 0.74999999999999989 0.69999999999999996 0 0.79999999999999982 0.69999999999999996 0 0.79999999999999982 0.69999999999999996 0 0.84999999999999987 0.69999999999999996 0 0.84999999999999987 0.69999999999999996 0 0.89999999999999991 0.69999999999999996 0 0.89999999999999991 0.69999999999999996 0 0.94999999999999996 0.69999999999999996 0 0.94999999999999996 0.69999999999999996 0 1 0.69999999999999996 0 0.40076539126862748 0.34589349467022118 0 0.33277555741076909 0.36432196682010132 0 0.36575549820117997 0.31677992835137742 0 0.38083244760691543 0.38531983672244652 0 0.33277555741076909 0.36432196682010132 0 0.40076539126862748 0.34589349467022118 0 0.56836770495988642 0.3523062350852913 0 0.52289427570932567 0.3932284363388488 0 0.52752007115234678 0.33170632466418198 0 0.52752007115234678 0.33170632466418198 0 0.52289427570932567 0.3932284363388488 0 0.49077833859261139 0.35229981449445641 0 0.10000000000041601 1 0 0.053064897599294662 0.95186845269532028 0 0.10266856499240549 0.95548163909968886 0 0.099999999999814668 0 0 0.10266856499169109 0.044518360900210059 0 0.053064897599215843 0.048131547304697528 0 0.050000000000207989 1 0 0.053064897599294662 0.95186845269532028 0 0.10000000000041601 1 0 0.049999999999899652 0 0 0.099999999999814668 0 0 0.053064897599215843 0.048131547304697528 0 0.24999999999941211 0 0 0.29999999999926641 0 0 0.27499999999933927 0.060310814194988557 0 0.30000000000124832 1 0 0.25000000000104028 1 0 0.27609987656793722 0.94991445621608572 0 0.15720202157091859 0.60665697304410315 0 0.19914261668318661 0.62286739485272158 0 0.16500388252850301 0.66612077714085194 0 0.2236846579037573 0.67380363126050236 0 0.16500388252850301 0.66612077714085194 0 0.19914261668318661 0.62286739485272158 0 0.1247745017231483 0.27198077544791172 0 0.168349569971391 0.28054490850913671 0 0.14223753364722069 0.3341983344262433 0 0 0.75000000000034661 0 0 0.7000000000006934 0 0.049706944316475897 0.72477277076253799 0 0 0.30000000000124832 0 0 0.25000000000104028 0 0.049706944316556423 0.27522722923869108 0 0.59999999999999976 0.29999999999999999 0 0.61959173890754571 0.33832250091341232 0 0.56836770495988642 0.3523062350852913 0 0.5 0.69999999999999996 0 0.43323420005758778 0.6913544522562407 0 0.47913475093885149 0.66010775372412711 0 1 0.14999999999961891 0 0.95391631417672862 0.19584263333809451 0 0.93677536231883773 0.14999999999999089 0 1 0.84999999999982645 0 0.95391631417670719 0.89584263333814784 0 0.93677536231884972 0.85000000000000286 0 1 0.84999999999982645 0 0.93677536231884972 0.85000000000000286 0 0.95386563387742829 0.80414874155775029 0 1 0.14999999999961891 0 0.93677536231883773 0.14999999999999089 0 0.95386563387744361 0.1041487415577465 0 0.90416666666660628 0.9041666666666166 0 0.88088768115933802 0.84674609810493673 0 0.93677536231884972 0.85000000000000286 0 0.90416666666668166 0.20416666666667119 0 0.88088768115941807 0.14674609810479519 0 0.93677536231883773 0.14999999999999089 0 0.1247745017231483 0.27198077544791172 0 0.14223753364722069 0.3341983344262433 0 0.093851963071650835 0.30582068233324772 0 0.5 0.69999999999999996 0 0.45582236402875981 0.73896743678908217 0 0.43323420005758778 0.6913544522562407 0 0.55000000000173355 1 0 0.50000000000205869 1 0 0.52122150208832174 0.94089974453840242 0 0.49999999999869432 0 0 0.5499999999988151 0 0 0.52375890611712683 0.059318771819432882 0 0.54999999999999993 0.29999999999999999 0 0.59999999999999976 0.29999999999999999 0 0.56836770495988642 0.3523062350852913 0 0.50202631463681879 0.87892870825713787 0 0.44003836461056539 0.88093474584252718 0 0.45677673713123867 0.84253684404072415 0 0.33403534827021109 0.84402799729020661 0 0.35864759629805099 0.87963482415279515 0 0.30864387279288652 0.89906554525974958 0 0.53245488764484505 0.55078124999999989 0 0.47793794143994173 0.52940715638744962 0 0.53330375813596242 0.50827942741749099 0 0.82709327591102189 0.14937141670914489 0 0.81283102246527783 0.1881007222486438 0 0.77144070960558853 0.14311854477243749 0 0.82709327591091286 0.84937141670920724 0 0.81159157511211755 0.88795995483179491 0 0.76901770135486491 0.84293557325473656 0 0.77144070960558853 0.14311854477243749 0 0.81283102246527783 0.1881007222486438 0 0.76587607630038135 0.18880039518954719 0 0.76901770135486491 0.84293557325473656 0 0.81159157511211755 0.88795995483179491 0 0.76891166905518427 0.88835469571185499 0 0.33403534827021109 0.84402799729020661 0 0.30864387279288652 0.89906554525974958 0 0.29209212897034281 0.84715728365233667 0 0.57412547362576272 0.58273804879550706 0 0.5166924242153631 0.59825134841919447 0 0.53245488764484505 0.55078124999999989 0 0.50202631463681879 0.87892870825713787 0 0.47401147028110507 0.91529957330468115 0 0.44003836461056539 0.88093474584252718 0 0.5 0.69999999999999996 0 0.54999999999999993 0.69999999999999996 0 0.55363780716230748 0.74348740161571747 0 1 0.34999999999993492 0 0.95871855522754235 0.40006508612975411 0 0.95780851984364423 0.34215720972155339 0 1 0.64999999999986979 0 0.9578014258160763 0.65787212321113708 0 0.95867599106212187 0.60011091146651041 0 0.46666084890304671 0.57634471035397938 0 0.47793794143994173 0.52940715638744962 0 0.53245488764484505 0.55078124999999989 0 0.94999999999999996 0.29999999999999999 0 0.89898474358614167 0.25391965591104898 0 0.94399509803921056 0.24399509803922639 0 0.94999999999979179 1 0 0.89898474358632463 0.95391965591118966 0 0.94399509803919068 0.9439950980391687 0 0 0.65000000000104008 0 0.050069554451969707 0.61308520079857043 0 0.046634677244967337 0.671418230738282 0 0 0.35000000000145642 0 0.046389130980076937 0.32668781832131749 0 0.050583896093752537 0.38543522283434112 0 0.50202631463681879 0.87892870825713787 0 0.50627822638148745 0.8263979829520941 0 0.55899371797446828 0.85003102233514438 0 0.54782696902220018 0.79245182748204157 0 0.55899371797446828 0.85003102233514438 0 0.50627822638148745 0.8263979829520941 0 0.50945740445113552 0.75476055527778108 0 0.5 0.69999999999999996 0 0.55363780716230748 0.74348740161571747 0 0.84999999999965292 1 0 0.85170973911348691 0.93569607295217616 0 0.89898474358632463 0.95391965591118966 0 0.84999999999999987 0.29999999999999999 0 0.8517097391133297 0.2356960729520409 0 0.89898474358614167 0.25391965591104898 0 0.86956835336234861 0.571283299838105 0 0.82862096804812391 0.55037090955459045 0 0.86907294890112186 0.52008116128001669 0 0.49102375406324739 0.49123754822244059 0 0.53330375813596242 0.50827942741749099 0 0.47793794143994173 0.52940715638744962 0 0.57611405284611883 0.50165903596042916 0 0.61547661924074692 0.48539576058873962 0 0.62042975506801734 0.54295974692364424 0 0.71406021706547751 0.63292083137662503 0 0.67529834988829951 0.61613270668143583 0 0.71809016091162536 0.58185040402320831 0 0.65000000000104008 1 0 0.62065498684670595 0.95224934003983619 0 0.68015064798562208 0.95924320340003011 0 0.84999999999960507 0 0 0.899991664607802 0.045289349238254978 0 0.85491058998398861 0.060047533455626502 0 0.84999999999999987 0.69999999999999996 0 0.89999166460796554 0.74528934923809909 0 0.85491058998424563 0.76004753345552634 0 0.89999999999999991 0.29999999999999999 0 0.89898474358614167 0.25391965591104898 0 0.94999999999999996 0.29999999999999999 0 0.94999999999979179 1 0 0.89999999999958358 1 0 0.89898474358632463 0.95391965591118966 0 0.86411095495256451 0.42388805655111889 0 0.81308179852519835 0.39754945808726527 0 0.86844634540301924 0.38530937474099819 0 0.5 0.29999999999999999 0 0.49695729691142171 0.25014895411178018 0 0.54248833945060504 0.2520322959927106 0 0.86411095495256451 0.42388805655111889 0 0.81973119833356312 0.43505687159469048 0 0.81308179852519835 0.39754945808726527 0 0.67323294229744413 0.57556450033612505 0 0.71809016091162536 0.58185040402320831 0 0.67529834988829951 0.61613270668143583 0 0.6236733212988993 0.14864538214901801 0 0.68391457121233579 0.14440470121196541 0 0.64011864159029941 0.18789607982138171 0 0 0.050000000000207989 0 0.053064897599215843 0.048131547304697528 0 0.044310582753132287 0.101412518374475 0 0 0.94999999999979179 0 0.0443105827531413 0.89858748162559932 0 0.053064897599294662 0.95186845269532028 0 1 0.34999999999993492 0 1 0.39999999999978308 0 0.95871855522754235 0.40006508612975411 0 1 0.59999999999973963 0 1 0.64999999999986979 0 0.95867599106212187 0.60011091146651041 0 0 0.84999999999965292 0 0.065374659239661639 0.8551091961254178 0 0.0443105827531413 0.89858748162559932 0 0 0.15000000000062411 0 0.044310582753132287 0.101412518374475 0 0.065374659239632718 0.1448908038746782 0 0.16500388252850301 0.66612077714085194 0 0.1020579365089687 0.69352219419301997 0 0.1241190223511371 0.64391885572885044 0 0.14999999999970359 0 0 0.14618258501891079 0.062070108745602003 0 0.10266856499169109 0.044518360900210059 0 0.15000000000062411 1 0 0.10266856499240549 0.95548163909968886 0 0.14617343800780541 0.93808063414349496 0 0.7152569930854884 0.5237994455134295 0 0.67569444444444449 0.53500863336860327 0 0.69385896817107129 0.48377516041410151 0 0.6541250972820879 0.49999999999999989 0 0.62042975506801734 0.54295974692364424 0 0.61547661924074692 0.48539576058873962 0 0.94999999999999996 0.69999999999999996 0 0.94399509803918602 0.75600490196082126 0 0.89999166460796554 0.74528934923809909 0 0.94999999999986839 0 0 0.94399509803922566 0.056004901960802607 0 0.899991664607802 0.045289349238254978 0 0.6541250972820879 0.49999999999999989 0 0.69385896817107129 0.48377516041410151 0 0.67569444444444449 0.53500863336860327 0 0.82862096804812391 0.55037090955459045 0 0.81723410853263523 0.59419663659258926 0 0.77151014687832564 0.54436834383023036 0 0.7250000000005199 0.89375000000045834 0 0.66412543161245952 0.88015090885499059 0 0.68697391633157634 0.84450604838764298 0 0 0.94999999999979179 0 0 0.89999999999958358 0 0.0443105827531413 0.89858748162559932 0 0 0.10000000000041601 0 0 0.050000000000207989 0 0.044310582753132287 0.101412518374475 0 0.16500388252850301 0.66612077714085194 0 0.15332765547575641 0.71200081858233666 0 0.1020579365089687 0.69352219419301997 0 0.90299850604011456 0.79563452813489832 0 0.93677536231884972 0.85000000000000286 0 0.88088768115933802 0.84674609810493673 0 0.90299850604006393 0.09563452813493091 0 0.93677536231883773 0.14999999999999089 0 0.88088768115941807 0.14674609810479519 0 0.68391457121233579 0.14440470121196541 0 0.6865991819015953 0.189116534044597 0 0.64011864159029941 0.18789607982138171 0 0.085622222639554768 0.53333248912060549 0 0.1216098864341134 0.50637075089503902 0 0.1154888278694548 0.56733818459978413 0 0.21858834311891909 0.81980263716112767 0 0.22556077506376701 0.77837424984191617 0 0.26104540868854792 0.81401944968719064 0 0.81723410853263523 0.59419663659258926 0 0.77293540622714185 0.59448302402785813 0 0.77151014687832564 0.54436834383023036 0 0.1154888278694548 0.56733818459978413 0 0.1216098864341134 0.50637075089503902 0 0.14934928745814749 0.55042914607228977 0 0.1216098864341134 0.50637075089503902 0 0.068743045408989428 0.48853989837882689 0 0.113541300460994 0.46208784312094731 0 0.078358742472063481 0.43365249433908948 0 0.113541300460994 0.46208784312094731 0 0.068743045408989428 0.48853989837882689 0 0.83573492347052902 0.36590755630746369 0 0.81308179852519835 0.39754945808726527 0 0.78145581580700685 0.34881365920033602 0 0.57611405284611883 0.50165903596042916 0 0.62042975506801734 0.54295974692364424 0 0.57435499076887508 0.54267261987897775 0 0.86956835336234861 0.571283299838105 0 0.81723410853263523 0.59419663659258926 0 0.82862096804812391 0.55037090955459045 0 0.46666084890304671 0.57634471035397938 0 0.53245488764484505 0.55078124999999989 0 0.5166924242153631 0.59825134841919447 0 0.89999999999999991 0.69999999999999996 0 0.94999999999999996 0.69999999999999996 0 0.89999166460796554 0.74528934923809909 0 0.89999999999973679 0 0 0.94999999999986839 0 0 0.899991664607802 0.045289349238254978 0 0.84999999999960507 0 0 0.89999999999973679 0 0 0.899991664607802 0.045289349238254978 0 0.84999999999999987 0.69999999999999996 0 0.89999999999999991 0.69999999999999996 0 0.89999166460796554 0.74528934923809909 0 0.43545892161006339 0.61093128915313821 0 0.4089290844030305 0.58728915500154233 0 0.46666084890304671 0.57634471035397938 0 0.1650278706801647 0.38791388161335733 0 0.1117088112799664 0.38831403004970022 0 0.14223753364722069 0.3341983344262433 0 0.087545339447545459 0.35122518864182262 0 0.14223753364722069 0.3341983344262433 0 0.1117088112799664 0.38831403004970022 0 0.6916490518212759 0.75387992374886192 0 0.72501250972655151 0.74067302935308721 0 0.72500000000000064 0.7952620967744265 0 0.72501250972655151 0.74067302935308721 0 0.75841349681148107 0.75422312624214749 0 0.72500000000000064 0.7952620967744265 0 0.57412547362576272 0.58273804879550706 0 0.53245488764484505 0.55078124999999989 0 0.57435499076887508 0.54267261987897775 0 1 0.54999999999963112 0 0.95867599106212187 0.60011091146651041 0 0.93732437411268477 0.55911392101136159 0 1 0.44999999999963131 0 0.93814194660195893 0.44426664081746747 0 0.95871855522754235 0.40006508612975411 0 0.4089290844030305 0.58728915500154233 0 0.42644501560315817 0.54603747078095544 0 0.46666084890304671 0.57634471035397938 0 0.89999999999958358 1 0 0.84999999999965292 1 0 0.89898474358632463 0.95391965591118966 0 0.84999999999999987 0.29999999999999999 0 0.89898474358614167 0.25391965591104898 0 0.89999999999999991 0.29999999999999999 0 0.29999999999926641 0 0 0.32541448401678508 0.046215317981507749 0 0.27499999999933927 0.060310814194988557 0 0.30000000000124832 1 0 0.27609987656793722 0.94991445621608572 0 0.32544832635163229 0.95485394099568932 0 0.57412547362576272 0.58273804879550706 0 0.62042975506801734 0.54295974692364424 0 0.63065402604362242 0.59661356661633302 0 0.5 0.29999999999999999 0 0.54248833945060504 0.2520322959927106 0 0.54999999999999993 0.29999999999999999 0 0.67323294229744413 0.57556450033612505 0 0.62042975506801734 0.54295974692364424 0 0.67569444444444449 0.53500863336860327 0 0.6541250972820879 0.49999999999999989 0 0.67569444444444449 0.53500863336860327 0 0.62042975506801734 0.54295974692364424 0 1 0.14999999999961891 0 1 0.19999999999974799 0 0.95391631417672862 0.19584263333809451 0 1 0.84999999999982645 0 1 0.8999999999998336 0 0.95391631417670719 0.89584263333814784 0 1 0.7999999999998193 0 1 0.84999999999982645 0 0.95386563387742829 0.80414874155775029 0 1 0.099999999999753911 0 1 0.14999999999961891 0 0.95386563387744361 0.1041487415577465 0 0.4656888918609538 0.78493261229743638 0 0.50627822638148745 0.8263979829520941 0 0.45677673713123867 0.84253684404072415 0 0.6879972333610942 0.43038561374960838 0 0.72622533758026719 0.40265885511101601 0 0.73483647259922602 0.44789725365921768 0 0.67323294229744413 0.57556450033612505 0 0.67569444444444449 0.53500863336860327 0 0.71809016091162536 0.58185040402320831 0 0.7152569930854884 0.5237994455134295 0 0.71809016091162536 0.58185040402320831 0 0.67569444444444449 0.53500863336860327 0 0.65394964615507722 0.22666784374016369 0 0.59814117807200873 0.23398510860739519 0 0.64011864159029941 0.18789607982138171 0 0.55000000000173355 1 0 0.52122150208832174 0.94089974453840242 0 0.57382506491224949 0.9629411906298494 0 0.39801143831225599 0.16651381068160659 0 0.44288491854585582 0.14116182884956319 0 0.42905200079338551 0.19982395548231649 0 0.47357141910802508 0.1873585799078378 0 0.42905200079338551 0.19982395548231649 0 0.44288491854585582 0.14116182884956319 0 0.90594285160987287 0.4141265964174129 0 0.88594198078881503 0.46167788676578442 0 0.86411095495256451 0.42388805655111889 0 0.65507451745379841 0.92229208810758578 0 0.68015064798562208 0.95924320340003011 0 0.62065498684670595 0.95224934003983619 0 0.35312867752657662 0.084946736076730367 0 0.39591832466117061 0.056982757562006353 0 0.39823268594401579 0.1116623613130045 0 0.43698630808430822 0.080423614171545449 0 0.39823268594401579 0.1116623613130045 0 0.39591832466117061 0.056982757562006353 0 0.4367309254023824 0.92065556789053882 0 0.39641108128798319 0.94356127926187128 0 0.39767323751400468 0.89584229130535065 0 0.35752321586431363 0.9185439911803448 0 0.39767323751400468 0.89584229130535065 0 0.39641108128798319 0.94356127926187128 0 0.77354604466818633 0.40378688774472771 0 0.77972660463949339 0.45529290596363098 0 0.73483647259922602 0.44789725365921768 0 0.5499999999988151 0 0 0.57396793757665954 0.037011367187645222 0 0.52375890611712683 0.059318771819432882 0 0.64753070846764316 0.77332939069435502 0 0.60294066490120068 0.80851322453934582 0 0.59636844454254345 0.75937156204589151 0 0.49102375406324739 0.49123754822244059 0 0.48858720058566618 0.43964267759203868 0 0.53823865529665704 0.45873898050322898 0 0.28307294598219601 0.50789252727458634 0 0.29110487519241501 0.56588143995431495 0 0.25115337790845271 0.54719303014923271 0 0.79680861578988083 0.92656778056766709 0 0.81159157511211755 0.88795995483179491 0 0.85170973911348691 0.93569607295217616 0 0.79680861578956375 0.22656778056752541 0 0.81283102246527783 0.1881007222486438 0 0.8517097391133297 0.2356960729520409 0 0.57412547362576272 0.58273804879550706 0 0.57435499076887508 0.54267261987897775 0 0.62042975506801734 0.54295974692364424 0 0.93814194660195893 0.44426664081746747 0 0.88594198078881503 0.46167788676578442 0 0.90594285160987287 0.4141265964174129 0 0.7152569930854884 0.5237994455134295 0 0.73947346780852752 0.49062440112282169 0 0.77151014687832564 0.54436834383023036 0 0 0.7000000000006934 0 0.046634677244967337 0.671418230738282 0 0.049706944316475897 0.72477277076253799 0 0 0.30000000000124832 0 0.049706944316556423 0.27522722923869108 0 0.046389130980076937 0.32668781832131749 0 0.59814117807200873 0.23398510860739519 0 0.59443395090188023 0.18455690917515069 0 0.64011864159029941 0.18789607982138171 0 0.21858834311891909 0.81980263716112767 0 0.26104540868854792 0.81401944968719064 0 0.2401283238295133 0.85648409884788523 0 0.39536230704883951 0.84069429572832477 0 0.45677673713123867 0.84253684404072415 0 0.44003836461056539 0.88093474584252718 0 0.086179601630648681 0.64647209519980475 0 0.050069554451969707 0.61308520079857043 0 0.1024350934457823 0.60772393977513839 0 0.077693244765132896 0.56932317963405099 0 0.1024350934457823 0.60772393977513839 0 0.050069554451969707 0.61308520079857043 0 0.078358742472063481 0.43365249433908948 0 0.050583896093752537 0.38543522283434112 0 0.1117088112799664 0.38831403004970022 0 0.087545339447545459 0.35122518864182262 0 0.1117088112799664 0.38831403004970022 0 0.050583896093752537 0.38543522283434112 0 0.33403534827021109 0.84402799729020661 0 0.35642984951668422 0.80994399665655703 0 0.39536230704883951 0.84069429572832477 0 0.28307294598219601 0.50789252727458634 0 0.33190227185843768 0.52715113583864037 0 0.29110487519241501 0.56588143995431495 0 0.2236846579037573 0.67380363126050236 0 0.19068556247388771 0.71028988922845504 0 0.16500388252850301 0.66612077714085194 0 0.26104540868854792 0.81401944968719064 0 0.22556077506376701 0.77837424984191617 0 0.2792923945214143 0.77665808831789485 0 0.38244435121258652 0.51653317813019495 0 0.37272913873093971 0.56192925302619479 0 0.33190227185843768 0.52715113583864037 0 0.25195515620380449 0.25883339815888678 0 0.29132859388405002 0.27203693976649962 0 0.24432083401701241 0.3006253385567515 0 0.29348325746214782 0.31350119524708198 0 0.24432083401701241 0.3006253385567515 0 0.29132859388405002 0.27203693976649962 0 0 0.89999999999958358 0 0 0.84999999999965292 0 0.0443105827531413 0.89858748162559932 0 0 0.15000000000062411 0 0 0.10000000000041601 0 0.044310582753132287 0.101412518374475 0 0.59999999999999976 0.69999999999999996 0 0.59636844454254345 0.75937156204589151 0 0.55363780716230748 0.74348740161571747 0 0.1650278706801647 0.38791388161335733 0 0.22033343844674469 0.36963382230740238 0 0.191953871957803 0.42546416763755879 0 0.52289427570932567 0.3932284363388488 0 0.46655310992796922 0.39650496622958609 0 0.49077833859261139 0.35229981449445641 0 0.91696753777131557 0.497780560203536 0 0.88594198078881503 0.46167788676578442 0 0.93814194660195893 0.44426664081746747 0 0.24999999999941211 0 0 0.27499999999933927 0.060310814194988557 0 0.22668068146512929 0.045875643423131329 0 0.25000000000104028 1 0 0.22850979588452081 0.95594428570238643 0 0.27609987656793722 0.94991445621608572 0 0.77846603114747959 0.49850927265137401 0 0.77151014687832564 0.54436834383023036 0 0.73947346780852752 0.49062440112282169 0 0.27499999999933927 0.060310814194988557 0 0.27474541102162192 0.11822029332053539 0 0.24218496799700481 0.089025544070598317 0 0.27270076654418179 0.87751467830216623 0 0.29209212897034281 0.84715728365233667 0 0.30864387279288652 0.89906554525974958 0 0.3096713403101819 0.085471541595262421 0 0.27474541102162192 0.11822029332053539 0 0.27499999999933927 0.060310814194988557 0 0.17933913398461551 0.2350063570234002 0 0.18124454140915969 0.18790916706335251 0 0.224700362040408 0.22206622194729711 0 0.18269480424590959 0.75905448272264375 0 0.22556077506376701 0.77837424984191617 0 0.17777405986036951 0.81832336108265358 0 0.35864759629805099 0.87963482415279515 0 0.33403534827021109 0.84402799729020661 0 0.39536230704883951 0.84069429572832477 0 0.77354604466818633 0.40378688774472771 0 0.73483647259922602 0.44789725365921768 0 0.72622533758026719 0.40265885511101601 0 0.80185942888539485 0.77452061303608133 0 0.85491058998424563 0.76004753345552634 0 0.84725310900444062 0.80779732082917555 0 0.80185942888501827 0.074520613036224564 0 0.85491058998398861 0.060047533455626502 0 0.84725310900442086 0.10779732082922661 0 0.086179601630648681 0.64647209519980475 0 0.046634677244967337 0.671418230738282 0 0.050069554451969707 0.61308520079857043 0 0.087545339447545459 0.35122518864182262 0 0.050583896093752537 0.38543522283434112 0 0.046389130980076937 0.32668781832131749 0 0 0.75000000000034661 0 0.049706944316475897 0.72477277076253799 0 0.04408157711937423 0.7728941757575627 0 0 0.25000000000104028 0 0.044081577119474857 0.2271058242433576 0 0.049706944316556423 0.27522722923869108 0 0.52289427570932567 0.3932284363388488 0 0.56836770495988642 0.3523062350852913 0 0.57744073070774993 0.41535148636609359 0 0.6084546825910605 0.37989672713932537 0 0.57744073070774993 0.41535148636609359 0 0.56836770495988642 0.3523062350852913 0 0.61343887413683884 0.856862479058357 0 0.55899371797446828 0.85003102233514438 0 0.60294066490120068 0.80851322453934582 0 0.54782696902220018 0.79245182748204157 0 0.60294066490120068 0.80851322453934582 0 0.55899371797446828 0.85003102233514438 0 0.40326160981139969 0.73346192995102844 0 0.36622285152418499 0.69092437780804039 0 0.43323420005758778 0.6913544522562407 0 0.52289427570932567 0.3932284363388488 0 0.48858720058566618 0.43964267759203868 0 0.46655310992796922 0.39650496622958609 0 0.15720202157091859 0.60665697304410315 0 0.1154888278694548 0.56733818459978413 0 0.14934928745814749 0.55042914607228977 0 0.6879972333610942 0.43038561374960838 0 0.73483647259922602 0.44789725365921768 0 0.69385896817107129 0.48377516041410151 0 0.7250000000005199 0.89375000000045834 0 0.68987011941058407 0.92105047536677087 0 0.66412543161245952 0.88015090885499059 0 0.83573492347052902 0.36590755630746369 0 0.78145581580700685 0.34881365920033602 0 0.82500000000000062 0.33010209762754811 0 0.82862096804812391 0.55037090955459045 0 0.81441713509985358 0.51161854125224959 0 0.86907294890112186 0.52008116128001669 0 0.19670163708476801 0.31472518408333222 0 0.14223753364722069 0.3341983344262433 0 0.168349569971391 0.28054490850913671 0 0.50202631463681879 0.87892870825713787 0 0.45677673713123867 0.84253684404072415 0 0.50627822638148745 0.8263979829520941 0 0.099999999999814668 0 0 0.14999999999970359 0 0 0.10266856499169109 0.044518360900210059 0 0.15000000000062411 1 0 0.10000000000041601 1 0 0.10266856499240549 0.95548163909968886 0 0.67323294229744413 0.57556450033612505 0 0.63065402604362242 0.59661356661633302 0 0.62042975506801734 0.54295974692364424 0 0.083105206071467416 0.20007701332709979 0 0.13737030665753211 0.20313708640667491 0 0.095326043202144745 0.24554465089224409 0 0.083105206071452636 0.79992298667296435 0 0.090953281884486245 0.7564451946902494 0 0.1382744753146134 0.79650574229207483 0 0.50000000000205869 1 0 0.47135117303824892 0.95556877749289892 0 0.52122150208832174 0.94089974453840242 0 0.49999999999869432 0 0 0.52375890611712683 0.059318771819432882 0 0.47040171442036788 0.044141676406503738 0 0.4656888918609538 0.78493261229743638 0 0.45582236402875981 0.73896743678908217 0 0.50945740445113552 0.75476055527778108 0 0.5 0.69999999999999996 0 0.50945740445113552 0.75476055527778108 0 0.45582236402875981 0.73896743678908217 0 0.55306006949600994 0.20198184231352201 0 0.56202748619534593 0.15054058349222879 0 0.59443395090188023 0.18455690917515069 0 0.6236733212988993 0.14864538214901801 0 0.59443395090188023 0.18455690917515069 0 0.56202748619534593 0.15054058349222879 0 0.57412547362576272 0.58273804879550706 0 0.5498280205245758 0.6290146943450976 0 0.5166924242153631 0.59825134841919447 0 0.91696753777131557 0.497780560203536 0 0.93814194660195893 0.44426664081746747 0 0.96228564064454991 0.48206450662049471 0 0.15720202157091859 0.60665697304410315 0 0.16500388252850301 0.66612077714085194 0 0.1241190223511371 0.64391885572885044 0 0.44288491854585582 0.14116182884956319 0 0.47881186583059909 0.093591717165689425 0 0.48466639505193998 0.1421439844745814 0 1 0.54999999999963112 0 0.93732437411268477 0.55911392101136159 0 0.95631871884947484 0.51827533208233789 0 0.57724883562309992 0.92155686857100794 0 0.57382506491224949 0.9629411906298494 0 0.52122150208832174 0.94089974453840242 0 0.85170973911348691 0.93569607295217616 0 0.81159157511211755 0.88795995483179491 0 0.85600844944837662 0.88483418979512773 0 0.8517097391133297 0.2356960729520409 0 0.81283102246527783 0.1881007222486438 0 0.85600844944842547 0.1848341897950983 0 0.27866744612395528 0.38416094670951489 0 0.29124338931648802 0.43334555462578611 0 0.24049127783545701 0.41270748208749802 0 0.6084546825910605 0.37989672713932537 0 0.56836770495988642 0.3523062350852913 0 0.61959173890754571 0.33832250091341232 0 0.20050006573841939 0.53248514016039872 0 0.25115337790845271 0.54719303014923271 0 0.22549374774072969 0.58452645269293457 0 0.26573297623774761 0.59828298563722948 0 0.22549374774072969 0.58452645269293457 0 0.25115337790845271 0.54719303014923271 0 0.26104540868854792 0.81401944968719064 0 0.29209212897034281 0.84715728365233667 0 0.2401283238295133 0.85648409884788523 0 0.6236733212988993 0.14864538214901801 0 0.65290632656860115 0.11434202593454081 0 0.68391457121233579 0.14440470121196541 0 0.19901705110390991 0.9175543425573498 0 0.19741632902693801 0.86755867406447229 0 0.24536017905392571 0.90704567837671446 0 0.72500000000000064 0.7952620967744265 0 0.76901770135486491 0.84293557325473656 0 0.72863726579783861 0.85390518901155588 0 0.72500000000000064 0.7952620967744265 0 0.72863726579783861 0.85390518901155588 0 0.68697391633157634 0.84450604838764298 0 0.7250000000005199 0.89375000000045834 0 0.68697391633157634 0.84450604838764298 0 0.72863726579783861 0.85390518901155588 0 0.72525833953073282 0.1032114801687094 0 0.77144070960558853 0.14311854477243749 0 0.72634814642510737 0.16106886917518889 0 0.72525833953073282 0.1032114801687094 0 0.72634814642510737 0.16106886917518889 0 0.68391457121233579 0.14440470121196541 0 0.36622285152418499 0.69092437780804039 0 0.3977710372045391 0.65868194622830212 0 0.43323420005758778 0.6913544522562407 0 0 0.65000000000104008 0 0 0.60000000000138687 0 0.050069554451969707 0.61308520079857043 0 0 0.40000000000166441 0 0 0.35000000000145642 0 0.050583896093752537 0.38543522283434112 0 0.22033343844674469 0.36963382230740238 0 0.24049127783545701 0.41270748208749802 0 0.191953871957803 0.42546416763755879 0 0.5 0.29999999999999999 0 0.4604742573284204 0.27846934318264788 0 0.49695729691142171 0.25014895411178018 0 0.19741632902693801 0.86755867406447229 0 0.2401283238295133 0.85648409884788523 0 0.24536017905392571 0.90704567837671446 0 0 0.50000000000205869 0 0.068743045408989428 0.48853989837882689 0 0.044576108720083309 0.53509043209532614 0 0.15000000000062411 1 0 0.14617343800780541 0.93808063414349496 0 0.18474005699953849 0.96231585248064622 0 0.14999999999970359 0 0 0.184418230509967 0.038773194583122873 0 0.14618258501891079 0.062070108745602003 0 0.57667858002728545 0.078486105337742612 0 0.52375890611712683 0.059318771819432882 0 0.57396793757665954 0.037011367187645222 0 0.113541300460994 0.46208784312094731 0 0.078358742472063481 0.43365249433908948 0 0.13773355295499351 0.42497777642586831 0 0.77354604466818633 0.40378688774472771 0 0.78145581580700685 0.34881365920033602 0 0.81308179852519835 0.39754945808726527 0 0.38244435121258652 0.51653317813019495 0 0.33190227185843768 0.52715113583864037 0 0.35024835142131061 0.48654922671676981 0 0.64753070846764316 0.77332939069435502 0 0.65005442820240822 0.82644988530054031 0 0.60294066490120068 0.80851322453934582 0 0.15720202157091859 0.60665697304410315 0 0.1024350934457823 0.60772393977513839 0 0.1154888278694548 0.56733818459978413 0 0.90416666666660628 0.9041666666666166 0 0.85600844944837662 0.88483418979512773 0 0.88088768115933802 0.84674609810493673 0 0.90416666666668166 0.20416666666667119 0 0.85600844944842547 0.1848341897950983 0 0.88088768115941807 0.14674609810479519 0 0.078358742472063481 0.43365249433908948 0 0.1117088112799664 0.38831403004970022 0 0.13773355295499351 0.42497777642586831 0 0.38244435121258652 0.51653317813019495 0 0.3908716102680424 0.47010282357248828 0 0.43507373378304309 0.49699695397193322 0 0.90299850604011456 0.79563452813489832 0 0.95386563387742829 0.80414874155775029 0 0.93677536231884972 0.85000000000000286 0 0.90416666666660628 0.9041666666666166 0 0.93677536231884972 0.85000000000000286 0 0.95391631417670719 0.89584263333814784 0 0.90299850604006393 0.09563452813493091 0 0.95386563387744361 0.1041487415577465 0 0.93677536231883773 0.14999999999999089 0 0.90416666666668166 0.20416666666667119 0 0.93677536231883773 0.14999999999999089 0 0.95391631417672862 0.19584263333809451 0 0.39536230704883951 0.84069429572832477 0 0.44003836461056539 0.88093474584252718 0 0.39767323751400468 0.89584229130535065 0 0.51076801031701946 0.1202837388510348 0 0.52375890611712683 0.059318771819432882 0 0.54979595918804436 0.1060565713905809 0 0.57667858002728545 0.078486105337742612 0 0.54979595918804436 0.1060565713905809 0 0.52375890611712683 0.059318771819432882 0 0.57724883562309992 0.92155686857100794 0 0.52122150208832174 0.94089974453840242 0 0.54783390826260769 0.89287767010860219 0 0.50202631463681879 0.87892870825713787 0 0.54783390826260769 0.89287767010860219 0 0.52122150208832174 0.94089974453840242 0 0.087545339447545459 0.35122518864182262 0 0.093851963071650835 0.30582068233324772 0 0.14223753364722069 0.3341983344262433 0 0.54999999999999993 0.69999999999999996 0 0.59999999999999976 0.69999999999999996 0 0.55363780716230748 0.74348740161571747 0 0.083105206071452636 0.79992298667296435 0 0.1074251789111534 0.83564394292147814 0 0.065374659239661639 0.8551091961254178 0 0.083105206071467416 0.20007701332709979 0 0.065374659239632718 0.1448908038746782 0 0.106902708054812 0.16453234188234539 0 0.52289427570932567 0.3932284363388488 0 0.53823865529665704 0.45873898050322898 0 0.48858720058566618 0.43964267759203868 0 0.13737030665753211 0.20313708640667491 0 0.14377654328998779 0.2442024734791064 0 0.095326043202144745 0.24554465089224409 0 0.1382744753146134 0.79650574229207483 0 0.090953281884486245 0.7564451946902494 0 0.14335651144331049 0.75565258250209677 0 0.27270076654418179 0.87751467830216623 0 0.30864387279288652 0.89906554525974958 0 0.24536017905392571 0.90704567837671446 0 0.27609987656793722 0.94991445621608572 0 0.24536017905392571 0.90704567837671446 0 0.30864387279288652 0.89906554525974958 0 0.90299850604011456 0.79563452813489832 0 0.84725310900444062 0.80779732082917555 0 0.85491058998424563 0.76004753345552634 0 0.90299850604006393 0.09563452813493091 0 0.84725310900442086 0.10779732082922661 0 0.85491058998398861 0.060047533455626502 0 1 0.54999999999963112 0 1 0.59999999999973963 0 0.95867599106212187 0.60011091146651041 0 1 0.39999999999978308 0 1 0.44999999999963131 0 0.95871855522754235 0.40006508612975411 0 0.28040350263641872 0.23054717217092141 0 0.25195515620380449 0.25883339815888678 0 0.224700362040408 0.22206622194729711 0 0.84999999999999987 0.29999999999999999 0 0.87430060258887643 0.34056085888204451 0 0.82500000000000062 0.33010209762754811 0 0.84999999999999987 0.69999999999999996 0 0.82457059160610424 0.66831947184359608 0 0.87712158428786946 0.65709029563313581 0 0.86956835336234861 0.571283299838105 0 0.87159648282691515 0.61285406320581504 0 0.81723410853263523 0.59419663659258926 0 0.43698630808430822 0.080423614171545449 0 0.47881186583059909 0.093591717165689425 0 0.44288491854585582 0.14116182884956319 0 1 0.44999999999963131 0 0.96228564064454991 0.48206450662049471 0 0.93814194660195893 0.44426664081746747 0 0.35752321586431363 0.9185439911803448 0 0.30864387279288652 0.89906554525974958 0 0.35864759629805099 0.87963482415279515 0 0.29124338931648802 0.43334555462578611 0 0.25982634974572738 0.46097799597715272 0 0.24049127783545701 0.41270748208749802 0 0.51076801031701946 0.1202837388510348 0 0.56202748619534593 0.15054058349222879 0 0.51729576145820033 0.1683240575987815 0 0.55306006949600994 0.20198184231352201 0 0.51729576145820033 0.1683240575987815 0 0.56202748619534593 0.15054058349222879 0 0.26429849586623999 0.19346700179430079 0 0.28040350263641872 0.23054717217092141 0 0.224700362040408 0.22206622194729711 0 0.51076801031701946 0.1202837388510348 0 0.48466639505193998 0.1421439844745814 0 0.47881186583059909 0.093591717165689425 0 0.2185883431182947 0.18019736283949719 0 0.26429849586623999 0.19346700179430079 0 0.224700362040408 0.22206622194729711 0 0.18269480424590959 0.75905448272264375 0 0.2248999640082178 0.72584299459689172 0 0.22556077506376701 0.77837424984191617 0 0.51076801031701946 0.1202837388510348 0 0.47881186583059909 0.093591717165689425 0 0.52375890611712683 0.059318771819432882 0 0.50202631463681879 0.87892870825713787 0 0.52122150208832174 0.94089974453840242 0 0.47401147028110507 0.91529957330468115 0 0 0.84999999999965292 0 0.038512288486097702 0.8155852717111195 0 0.065374659239661639 0.8551091961254178 0 0 0.15000000000062411 0 0.065374659239632718 0.1448908038746782 0 0.038512288486115001 0.1844147282893184 0 0.2185883431182947 0.18019736283949719 0 0.224700362040408 0.22206622194729711 0 0.18124454140915969 0.18790916706335251 0 0.21858834311891909 0.81980263716112767 0 0.17777405986036951 0.81832336108265358 0 0.22556077506376701 0.77837424984191617 0 0.1215415378367805 0.72939333680004137 0 0.1020579365089687 0.69352219419301997 0 0.15332765547575641 0.71200081858233666 0 0.49695729691142171 0.25014895411178018 0 0.50760557329222289 0.20700468884612061 0 0.54248833945060504 0.2520322959927106 0 0.15720202157091859 0.60665697304410315 0 0.14934928745814749 0.55042914607228977 0 0.18381867841758909 0.57774125163628387 0 0.90416666666660628 0.9041666666666166 0 0.85170973911348691 0.93569607295217616 0 0.85600844944837662 0.88483418979512773 0 0.90416666666668166 0.20416666666667119 0 0.8517097391133297 0.2356960729520409 0 0.85600844944842547 0.1848341897950983 0 0.17933913398461551 0.2350063570234002 0 0.13737030665753211 0.20313708640667491 0 0.18124454140915969 0.18790916706335251 0 0.18269480424590959 0.75905448272264375 0 0.17777405986036951 0.81832336108265358 0 0.1382744753146134 0.79650574229207483 0 0.1216098864341134 0.50637075089503902 0 0.15801167086041079 0.46008690540259539 0 0.16618607197337229 0.50652878253548905 0 0.50760557329222289 0.20700468884612061 0 0.55306006949600994 0.20198184231352201 0 0.54248833945060504 0.2520322959927106 0 0.75000000000034661 1 0 0.7000000000006934 1 0 0.7250000000005199 0.94981617647078953 0 0.69999999999999984 0.29999999999999999 0 0.72500000000000064 0.2498161764706 0 0.74999999999999989 0.29999999999999999 0 0.72525833953073282 0.1032114801687094 0 0.68391457121233579 0.14440470121196541 0 0.68330259535470161 0.10038702501083881 0 0.43249999999999988 0.43937499999999979 0 0.46655310992796922 0.39650496622958609 0 0.48858720058566618 0.43964267759203868 0 0.19901705110390991 0.9175543425573498 0 0.14617343800780541 0.93808063414349496 0 0.16206583317966519 0.89685560785156404 0 0.19922788606653311 0.085920220746880993 0 0.16141998738593399 0.10404039647458049 0 0.14618258501891079 0.062070108745602003 0 0.31378396441836959 0.70157213313026345 0 0.26439878998046262 0.7048065392091396 0 0.27820712747429932 0.65530134213254643 0 0.1216098864341134 0.50637075089503902 0 0.113541300460994 0.46208784312094731 0 0.15801167086041079 0.46008690540259539 0 0.6084546825910605 0.37989672713932537 0 0.65481233915350323 0.35652751921065562 0 0.63912439215427275 0.41063340167983359 0 0.19901705110390991 0.9175543425573498 0 0.18474005699953849 0.96231585248064622 0 0.14617343800780541 0.93808063414349496 0 0.19922788606653311 0.085920220746880993 0 0.14618258501891079 0.062070108745602003 0 0.184418230509967 0.038773194583122873 0 0.38244435121258652 0.51653317813019495 0 0.35024835142131061 0.48654922671676981 0 0.3908716102680424 0.47010282357248828 0 0.82709327591102189 0.14937141670914489 0 0.77144070960558853 0.14311854477243749 0 0.80076557130237269 0.1154587552654202 0 0.82709327591091286 0.84937141670920724 0 0.76901770135486491 0.84293557325473656 0 0.80041942726660109 0.81543261647703358 0 0.43698630808430822 0.080423614171545449 0 0.44288491854585582 0.14116182884956319 0 0.39823268594401579 0.1116623613130045 0 0.39801143831225599 0.16651381068160659 0 0.39823268594401579 0.1116623613130045 0 0.44288491854585582 0.14116182884956319 0 0.36575549820117997 0.31677992835137742 0 0.3786248352540974 0.27082301512024259 0 0.41914690343363781 0.30688979866601612 0 0.42377727103934271 0.25099357235810238 0 0.41914690343363781 0.30688979866601612 0 0.3786248352540974 0.27082301512024259 0 0.049706944316475897 0.72477277076253799 0 0.1020579365089687 0.69352219419301997 0 0.090953281884486245 0.7564451946902494 0 0.1215415378367805 0.72939333680004137 0 0.090953281884486245 0.7564451946902494 0 0.1020579365089687 0.69352219419301997 0 0.1247745017231483 0.27198077544791172 0 0.093851963071650835 0.30582068233324772 0 0.095326043202144745 0.24554465089224409 0 0.049706944316556423 0.27522722923869108 0 0.095326043202144745 0.24554465089224409 0 0.093851963071650835 0.30582068233324772 0 0.77354604466818633 0.40378688774472771 0 0.81973119833356312 0.43505687159469048 0 0.77972660463949339 0.45529290596363098 0 0.43249999999999988 0.43937499999999979 0 0.43507373378304309 0.49699695397193322 0 0.3908716102680424 0.47010282357248828 0 0.26573297623774761 0.59828298563722948 0 0.2459498854893499 0.63248470766216769 0 0.22549374774072969 0.58452645269293457 0 0.72500000000000064 0.7952620967744265 0 0.77094201086366854 0.79647480515688507 0 0.76901770135486491 0.84293557325473656 0 0.72525833953073282 0.1032114801687094 0 0.76878382444651716 0.097147941686331368 0 0.77144070960558853 0.14311854477243749 0 0.72500000000000064 0.7952620967744265 0 0.68697391633157634 0.84450604838764298 0 0.68024162096458085 0.79868546898116533 0 0.31378396441836959 0.70157213313026345 0 0.29904318922293632 0.74132814928635593 0 0.26439878998046262 0.7048065392091396 0 0.31378396441836959 0.70157213313026345 0 0.35415581127540569 0.73730480045900215 0 0.29904318922293632 0.74132814928635593 0 0.61343887413683884 0.856862479058357 0 0.65005442820240822 0.82644988530054031 0 0.66412543161245952 0.88015090885499059 0 0.68697391633157634 0.84450604838764298 0 0.66412543161245952 0.88015090885499059 0 0.65005442820240822 0.82644988530054031 0 0.083411279318375747 0.91030024466934134 0 0.065374659239661639 0.8551091961254178 0 0.10562472963403439 0.87143394428979881 0 0.083411279318303222 0.089699755330707398 0 0.1053400320299198 0.12877248826361379 0 0.065374659239632718 0.1448908038746782 0 0.55306006949600994 0.20198184231352201 0 0.59443395090188023 0.18455690917515069 0 0.59814117807200873 0.23398510860739519 0 0.84999999999999987 0.29999999999999999 0 0.89999999999999991 0.29999999999999999 0 0.87430060258887643 0.34056085888204451 0 0.84999999999999987 0.69999999999999996 0 0.87712158428786946 0.65709029563313581 0 0.89999999999999991 0.69999999999999996 0 0.34258405725730701 0.4444034294386992 0 0.3908716102680424 0.47010282357248828 0 0.35024835142131061 0.48654922671676981 0 0.26573297623774761 0.59828298563722948 0 0.31502927232353312 0.6134992213375432 0 0.27820712747429932 0.65530134213254643 0 0.91696753777131557 0.497780560203536 0 0.86907294890112186 0.52008116128001669 0 0.88594198078881503 0.46167788676578442 0 0.84723782639812573 0.48638347960178252 0 0.88594198078881503 0.46167788676578442 0 0.86907294890112186 0.52008116128001669 0 0.7152569930854884 0.5237994455134295 0 0.77151014687832564 0.54436834383023036 0 0.71809016091162536 0.58185040402320831 0 0.90416666666660628 0.9041666666666166 0 0.89898474358632463 0.95391965591118966 0 0.85170973911348691 0.93569607295217616 0 0.90416666666668166 0.20416666666667119 0 0.89898474358614167 0.25391965591104898 0 0.8517097391133297 0.2356960729520409 0 0.91750694127107502 0.36982372220068471 0 0.95780851984364423 0.34215720972155339 0 0.95871855522754235 0.40006508612975411 0 0.91750694127105259 0.63017627779935648 0 0.95867599106212187 0.60011091146651041 0 0.9578014258160763 0.65787212321113708 0 0.90299850604011456 0.79563452813489832 0 0.88088768115933802 0.84674609810493673 0 0.84725310900444062 0.80779732082917555 0 0.90299850604006393 0.09563452813493091 0 0.88088768115941807 0.14674609810479519 0 0.84725310900442086 0.10779732082922661 0 0.1216098864341134 0.50637075089503902 0 0.16618607197337229 0.50652878253548905 0 0.14934928745814749 0.55042914607228977 0 0.20050006573841939 0.53248514016039872 0 0.14934928745814749 0.55042914607228977 0 0.16618607197337229 0.50652878253548905 0 0.80185942888539485 0.77452061303608133 0 0.84725310900444062 0.80779732082917555 0 0.80041942726660109 0.81543261647703358 0 0.80185942888501827 0.074520613036224564 0 0.84725310900442086 0.10779732082922661 0 0.80076557130237269 0.1154587552654202 0 0.083105206071452636 0.79992298667296435 0 0.065374659239661639 0.8551091961254178 0 0.038512288486097702 0.8155852717111195 0 0.083105206071467416 0.20007701332709979 0 0.038512288486115001 0.1844147282893184 0 0.065374659239632718 0.1448908038746782 0 0.54782696902220018 0.79245182748204157 0 0.59636844454254345 0.75937156204589151 0 0.60294066490120068 0.80851322453934582 0 0.083411279318375747 0.91030024466934134 0 0.0443105827531413 0.89858748162559932 0 0.065374659239661639 0.8551091961254178 0 0.083411279318303222 0.089699755330707398 0 0.065374659239632718 0.1448908038746782 0 0.044310582753132287 0.101412518374475 0 0.84999999999965292 1 0 0.81486180804382891 0.96321394949790495 0 0.85170973911348691 0.93569607295217616 0 0.84999999999999987 0.29999999999999999 0 0.81486180804364938 0.26321394949780091 0 0.8517097391133297 0.2356960729520409 0 0.4656888918609538 0.78493261229743638 0 0.45677673713123867 0.84253684404072415 0 0.42609163930740518 0.80361684430568059 0 0.39536230704883951 0.84069429572832477 0 0.42609163930740518 0.80361684430568059 0 0.45677673713123867 0.84253684404072415 0 0.6236733212988993 0.14864538214901801 0 0.56202748619534593 0.15054058349222879 0 0.58516465772821369 0.11653801664834119 0 0.57412547362576272 0.58273804879550706 0 0.63065402604362242 0.59661356661633302 0 0.5991018319127801 0.62925360607495295 0 0.61343887413683884 0.856862479058357 0 0.5832743223239254 0.88483152652961872 0 0.55899371797446828 0.85003102233514438 0 0.50202631463681879 0.87892870825713787 0 0.55899371797446828 0.85003102233514438 0 0.54783390826260769 0.89287767010860219 0 0.51076801031701946 0.1202837388510348 0 0.54979595918804436 0.1060565713905809 0 0.56202748619534593 0.15054058349222879 0 0.55306006949600994 0.20198184231352201 0 0.59814117807200873 0.23398510860739519 0 0.54248833945060504 0.2520322959927106 0 0.83573492347052902 0.36590755630746369 0 0.82500000000000062 0.33010209762754811 0 0.87430060258887643 0.34056085888204451 0 0.83758014339878906 0.63222013025741819 0 0.87712158428786946 0.65709029563313581 0 0.82457059160610424 0.66831947184359608 0 0.49102375406324739 0.49123754822244059 0 0.53823865529665704 0.45873898050322898 0 0.53330375813596242 0.50827942741749099 0 0.52289427570932567 0.3932284363388488 0 0.57744073070774993 0.41535148636609359 0 0.53823865529665704 0.45873898050322898 0 0.4089290844030305 0.58728915500154233 0 0.37272913873093971 0.56192925302619479 0 0.42644501560315817 0.54603747078095544 0 0.49695729691142171 0.25014895411178018 0 0.4604742573284204 0.27846934318264788 0 0.46429753744194407 0.22870891180733599 0 0.90299850604011456 0.79563452813489832 0 0.85491058998424563 0.76004753345552634 0 0.89999166460796554 0.74528934923809909 0 0.90299850604006393 0.09563452813493091 0 0.85491058998398861 0.060047533455626502 0 0.899991664607802 0.045289349238254978 0 0.38244435121258652 0.51653317813019495 0 0.42644501560315817 0.54603747078095544 0 0.37272913873093971 0.56192925302619479 0 0.71406021706547751 0.63292083137662503 0 0.71809016091162536 0.58185040402320831 0 0.74994237037456724 0.62775548192980357 0 0.84723782639812573 0.48638347960178252 0 0.86907294890112186 0.52008116128001669 0 0.81441713509985358 0.51161854125224959 0 0.33122374654748771 0.57588941099433744 0 0.33190227185843768 0.52715113583864037 0 0.37272913873093971 0.56192925302619479 0 0.086179601630648681 0.64647209519980475 0 0.1241190223511371 0.64391885572885044 0 0.1020579365089687 0.69352219419301997 0 0.59999999999894682 0 0 0.64999999999907843 0 0 0.61940220174112337 0.047251958781050582 0 0.18269480424590959 0.75905448272264375 0 0.14335651144331049 0.75565258250209677 0 0.15332765547575641 0.71200081858233666 0 0.22549374774072969 0.58452645269293457 0 0.2459498854893499 0.63248470766216769 0 0.19914261668318661 0.62286739485272158 0 0.38244435121258652 0.51653317813019495 0 0.43507373378304309 0.49699695397193322 0 0.42644501560315817 0.54603747078095544 0 0.65000000000104008 1 0 0.60000000000138687 1 0 0.62065498684670595 0.95224934003983619 0 0.078358742472063481 0.43365249433908948 0 0.068743045408989428 0.48853989837882689 0 0.033550201249889847 0.46247875832467239 0 0.2236846579037573 0.67380363126050236 0 0.27820712747429932 0.65530134213254643 0 0.26439878998046262 0.7048065392091396 0 0.6879972333610942 0.43038561374960838 0 0.68128176404677243 0.38629093627004979 0 0.72622533758026719 0.40265885511101601 0 0.72525833953073282 0.1032114801687094 0 0.7010294155333181 0.056779085686491267 0 0.7527966693318906 0.053051678021508272 0 0.18269480424590959 0.75905448272264375 0 0.15332765547575641 0.71200081858233666 0 0.19068556247388771 0.71028988922845504 0 0.1216098864341134 0.50637075089503902 0 0.085622222639554768 0.53333248912060549 0 0.068743045408989428 0.48853989837882689 0 0.25676291524611189 0.7436741304886243 0 0.26439878998046262 0.7048065392091396 0 0.29904318922293632 0.74132814928635593 0 0.65481233915350323 0.35652751921065562 0 0.68128176404677243 0.38629093627004979 0 0.63912439215427275 0.41063340167983359 0 0.83573492347052902 0.36590755630746369 0 0.86844634540301924 0.38530937474099819 0 0.81308179852519835 0.39754945808726527 0 0.27270076654418179 0.87751467830216623 0 0.2401283238295133 0.85648409884788523 0 0.29209212897034281 0.84715728365233667 0 0.84999999999999987 0.69999999999999996 0 0.85491058998424563 0.76004753345552634 0 0.81864958914779962 0.73589050177899629 0 0.84999999999960507 0 0 0.85491058998398861 0.060047533455626502 0 0.81864958914740749 0.035890501779055867 0 0.18381867841758909 0.57774125163628387 0 0.19914261668318661 0.62286739485272158 0 0.15720202157091859 0.60665697304410315 0 0.22549374774072969 0.58452645269293457 0 0.19914261668318661 0.62286739485272158 0 0.18381867841758909 0.57774125163628387 0 0.79680861578988083 0.92656778056766709 0 0.85170973911348691 0.93569607295217616 0 0.81486180804382891 0.96321394949790495 0 0.79680861578956375 0.22656778056752541 0 0.8517097391133297 0.2356960729520409 0 0.81486180804364938 0.26321394949780091 0 0.20050006573841939 0.53248514016039872 0 0.23975172658309729 0.49475499200540818 0 0.25115337790845271 0.54719303014923271 0 0.28307294598219601 0.50789252727458634 0 0.25115337790845271 0.54719303014923271 0 0.23975172658309729 0.49475499200540818 0 0.20050006573841939 0.53248514016039872 0 0.18381867841758909 0.57774125163628387 0 0.14934928745814749 0.55042914607228977 0 0.19922788606653311 0.085920220746880993 0 0.22985637510995899 0.1298347970200906 0 0.18652628422869419 0.14162325200928061 0 0.33758650185219202 0.23837101504325639 0 0.38831533174504851 0.2189834941785925 0 0.3786248352540974 0.27082301512024259 0 0.42377727103934271 0.25099357235810238 0 0.3786248352540974 0.27082301512024259 0 0.38831533174504851 0.2189834941785925 0 0.19922788606653311 0.085920220746880993 0 0.18652628422869419 0.14162325200928061 0 0.16141998738593399 0.10404039647458049 0 0.54782696902220018 0.79245182748204157 0 0.55363780716230748 0.74348740161571747 0 0.59636844454254345 0.75937156204589151 0 0.82709327591091286 0.84937141670920724 0 0.88088768115933802 0.84674609810493673 0 0.85600844944837662 0.88483418979512773 0 0.82709327591102189 0.14937141670914489 0 0.88088768115941807 0.14674609810479519 0 0.85600844944842547 0.1848341897950983 0 0.27866744612395528 0.38416094670951489 0 0.22033343844674469 0.36963382230740238 0 0.25966125648670141 0.34351016742083729 0 0 0.50000000000205869 0 0.033550201249889847 0.46247875832467239 0 0.068743045408989428 0.48853989837882689 0 0.31378396441836959 0.70157213313026345 0 0.36622285152418499 0.69092437780804039 0 0.35415581127540569 0.73730480045900215 0 0.77293540622714185 0.59448302402785813 0 0.71809016091162536 0.58185040402320831 0 0.77151014687832564 0.54436834383023036 0 0.7152569930854884 0.5237994455134295 0 0.69385896817107129 0.48377516041410151 0 0.73947346780852752 0.49062440112282169 0 0.15801167086041079 0.46008690540259539 0 0.191953871957803 0.42546416763755879 0 0.19604738184454831 0.47787523520405789 0 0.57667858002728545 0.078486105337742612 0 0.61940220174112337 0.047251958781050582 0 0.61956000905586006 0.1043312481793135 0 0.65408113592120842 0.073941773121567966 0 0.61956000905586006 0.1043312481793135 0 0.61940220174112337 0.047251958781050582 0 0 0.55000000000173355 0 0 0.50000000000205869 0 0.044576108720083309 0.53509043209532614 0 0.65507451745379841 0.92229208810758578 0 0.62065498684670595 0.95224934003983619 0 0.61885627562261258 0.90282959257498208 0 0.57724883562309992 0.92155686857100794 0 0.61885627562261258 0.90282959257498208 0 0.62065498684670595 0.95224934003983619 0 0.91750694127107502 0.36982372220068471 0 0.86844634540301924 0.38530937474099819 0 0.87430060258887643 0.34056085888204451 0 0.91750694127105259 0.63017627779935648 0 0.87712158428786946 0.65709029563313581 0 0.87159648282691515 0.61285406320581504 0 0.33123028043633618 0.77629643437932982 0 0.29904318922293632 0.74132814928635593 0 0.35415581127540569 0.73730480045900215 0 0.86411095495256451 0.42388805655111889 0 0.84925632466077294 0.45359738909549091 0 0.81973119833356312 0.43505687159469048 0 0.43846182030517877 0.64845797726506715 0 0.47913475093885149 0.66010775372412711 0 0.43323420005758778 0.6913544522562407 0 0.18269480424590959 0.75905448272264375 0 0.19068556247388771 0.71028988922845504 0 0.2248999640082178 0.72584299459689172 0 0.39536230704883951 0.84069429572832477 0 0.38586766253264881 0.78219501014812498 0 0.42609163930740518 0.80361684430568059 0 0.59999999999999976 0.69999999999999996 0 0.63221990677827677 0.73442891067859706 0 0.59636844454254345 0.75937156204589151 0 0.27866744612395528 0.38416094670951489 0 0.24049127783545701 0.41270748208749802 0 0.22033343844674469 0.36963382230740238 0 0.82709327591091286 0.84937141670920724 0 0.84725310900444062 0.80779732082917555 0 0.88088768115933802 0.84674609810493673 0 0.82709327591102189 0.14937141670914489 0 0.84725310900442086 0.10779732082922661 0 0.88088768115941807 0.14674609810479519 0 0.1650278706801647 0.38791388161335733 0 0.18434624290945251 0.35208838264196463 0 0.22033343844674469 0.36963382230740238 0 0.4409427642593301 0.35743108089689513 0 0.49077833859261139 0.35229981449445641 0 0.46655310992796922 0.39650496622958609 0 0.80185942888539485 0.77452061303608133 0 0.81864958914779962 0.73589050177899629 0 0.85491058998424563 0.76004753345552634 0 0.80185942888501827 0.074520613036224564 0 0.81864958914740749 0.035890501779055867 0 0.85491058998398861 0.060047533455626502 0 0.29999999999926641 0 0 0.34999999999912063 0 0 0.32541448401678508 0.046215317981507749 0 0.35000000000145642 1 0 0.30000000000124832 1 0 0.32544832635163229 0.95485394099568932 0 0.4656888918609538 0.78493261229743638 0 0.50731287292894423 0.78963574450233831 0 0.50627822638148745 0.8263979829520941 0 0.2185883431182947 0.18019736283949719 0 0.25557216766470708 0.15874861286892261 0 0.26429849586623999 0.19346700179430079 0 1 0.29999999999999999 0 1 0.34999999999993492 0 0.95780851984364423 0.34215720972155339 0 1 0.29999999999999999 0 0.95780851984364423 0.34215720972155339 0 0.94999999999999996 0.29999999999999999 0 1 0.69999999999999996 0 0.94999999999999996 0.69999999999999996 0 0.9578014258160763 0.65787212321113708 0 1 0.69999999999999996 0 0.9578014258160763 0.65787212321113708 0 1 0.64999999999986979 0 0.91750694127107502 0.36982372220068471 0 0.90594285160987287 0.4141265964174129 0 0.86844634540301924 0.38530937474099819 0 0.91750694127105259 0.63017627779935648 0 0.87159648282691515 0.61285406320581504 0 0.91143117093204207 0.58709913730335972 0 0.74999999999999989 0.69999999999999996 0 0.7750489929959945 0.66593931409600093 0 0.79999999999999982 0.69999999999999996 0 0.74999999999999989 0.29999999999999999 0 0.79999999999999982 0.29999999999999999 0 0.78145581580700685 0.34881365920033602 0 0.54999999999999993 0.69999999999999996 0 0.57484956128872922 0.66573805030881994 0 0.59999999999999976 0.69999999999999996 0 0.90299850604011456 0.79563452813489832 0 0.94399509803918602 0.75600490196082126 0 0.95386563387742829 0.80414874155775029 0 0.90416666666660628 0.9041666666666166 0 0.95391631417670719 0.89584263333814784 0 0.94399509803919068 0.9439950980391687 0 0.90299850604006393 0.09563452813493091 0 0.94399509803922566 0.056004901960802607 0 0.95386563387744361 0.1041487415577465 0 0.90416666666668166 0.20416666666667119 0 0.95391631417672862 0.19584263333809451 0 0.94399509803921056 0.24399509803922639 0 0.22278230690790279 0.44824268025881547 0 0.19604738184454831 0.47787523520405789 0 0.191953871957803 0.42546416763755879 0 0.90299850604011456 0.79563452813489832 0 0.89999166460796554 0.74528934923809909 0 0.94399509803918602 0.75600490196082126 0 0.90299850604006393 0.09563452813493091 0 0.899991664607802 0.045289349238254978 0 0.94399509803922566 0.056004901960802607 0 0.49102375406324739 0.49123754822244059 0 0.47793794143994173 0.52940715638744962 0 0.43507373378304309 0.49699695397193322 0 0.90416666666660628 0.9041666666666166 0 0.94399509803919068 0.9439950980391687 0 0.89898474358632463 0.95391965591118966 0 0.90416666666668166 0.20416666666667119 0 0.94399509803921056 0.24399509803922639 0 0.89898474358614167 0.25391965591104898 0 0.65394964615507722 0.22666784374016369 0 0.62657463266645097 0.26524202571255862 0 0.59814117807200873 0.23398510860739519 0 0.6084546825910605 0.37989672713932537 0 0.63912439215427275 0.41063340167983359 0 0.57744073070774993 0.41535148636609359 0 0.61209567303293111 0.44669033081290321 0 0.57744073070774993 0.41535148636609359 0 0.63912439215427275 0.41063340167983359 0 0.25676291524611189 0.7436741304886243 0 0.22556077506376701 0.77837424984191617 0 0.2248999640082178 0.72584299459689172 0 0.61343887413683884 0.856862479058357 0 0.60294066490120068 0.80851322453934582 0 0.65005442820240822 0.82644988530054031 0 0.64999999999907843 0 0 0.66369801598854572 0.036327466368102787 0 0.61940220174112337 0.047251958781050582 0 0.40326160981139969 0.73346192995102844 0 0.38586766253264881 0.78219501014812498 0 0.35415581127540569 0.73730480045900215 0 0.33123028043633618 0.77629643437932982 0 0.35415581127540569 0.73730480045900215 0 0.38586766253264881 0.78219501014812498 0 0.26573297623774761 0.59828298563722948 0 0.29110487519241501 0.56588143995431495 0 0.31502927232353312 0.6134992213375432 0 0.77846603114747959 0.49850927265137401 0 0.81441713509985358 0.51161854125224959 0 0.77151014687832564 0.54436834383023036 0 0.82862096804812391 0.55037090955459045 0 0.77151014687832564 0.54436834383023036 0 0.81441713509985358 0.51161854125224959 0 0.50000000000205869 1 0 0.45000000000187229 1 0 0.47135117303824892 0.95556877749289892 0 0.44999999999882923 0 0 0.49999999999869432 0 0 0.47040171442036788 0.044141676406503738 0 0 0.7000000000006934 0 0 0.65000000000104008 0 0.046634677244967337 0.671418230738282 0 0 0.35000000000145642 0 0 0.30000000000124832 0 0.046389130980076937 0.32668781832131749 0 0.31378396441836959 0.70157213313026345 0 0.27820712747429932 0.65530134213254643 0 0.32263089806001177 0.66003674931826484 0 0.33122374654748771 0.57588941099433744 0 0.31502927232353312 0.6134992213375432 0 0.29110487519241501 0.56588143995431495 0 0.26573297623774761 0.59828298563722948 0 0.27820712747429932 0.65530134213254643 0 0.2459498854893499 0.63248470766216769 0 0.14474682429600511 0.85524784522713515 0 0.16206583317966519 0.89685560785156404 0 0.1241151115713819 0.9045666525468371 0 0.14332333627550789 0.14578431753966009 0 0.12372429750337779 0.095814237875728972 0 0.16141998738593399 0.10404039647458049 0 0.64753070846764316 0.77332939069435502 0 0.59636844454254345 0.75937156204589151 0 0.63221990677827677 0.73442891067859706 0 0.14474682429600511 0.85524784522713515 0 0.1241151115713819 0.9045666525468371 0 0.10562472963403439 0.87143394428979881 0 0.14332333627550789 0.14578431753966009 0 0.1053400320299198 0.12877248826361379 0 0.12372429750337779 0.095814237875728972 0 0.77354604466818633 0.40378688774472771 0 0.81308179852519835 0.39754945808726527 0 0.81973119833356312 0.43505687159469048 0 0.54782696902220018 0.79245182748204157 0 0.50945740445113552 0.75476055527778108 0 0.55363780716230748 0.74348740161571747 0 0.2236846579037573 0.67380363126050236 0 0.2459498854893499 0.63248470766216769 0 0.27820712747429932 0.65530134213254643 0 0.77293540622714185 0.59448302402785813 0 0.74994237037456724 0.62775548192980357 0 0.71809016091162536 0.58185040402320831 0 0 0.79999999999999982 0 0 0.75000000000034661 0 0.04408157711937423 0.7728941757575627 0 0 0.25000000000104028 0 0 0.20000000000083221 0 0.044081577119474857 0.2271058242433576 0 0.19999999999955789 0 0 0.24999999999941211 0 0 0.22668068146512929 0.045875643423131329 0 0.25000000000104028 1 0 0.20000000000083221 1 0 0.22850979588452081 0.95594428570238643 0 0.47357141910802508 0.1873585799078378 0 0.44288491854585582 0.14116182884956319 0 0.48466639505193998 0.1421439844745814 0 0.59999999999999976 0.29999999999999999 0 0.5794309697024993 0.27124795968204829 0 0.62657463266645097 0.26524202571255862 0 0.43249999999999988 0.43937499999999979 0 0.42161023666869668 0.39493916313643851 0 0.46655310992796922 0.39650496622958609 0 0.31068898841644388 0.47541502461811092 0 0.33190227185843768 0.52715113583864037 0 0.28307294598219601 0.50789252727458634 0 0.35024835142131061 0.48654922671676981 0 0.33190227185843768 0.52715113583864037 0 0.31068898841644388 0.47541502461811092 0 0.35864735590330371 0.63903383440414463 0 0.36622285152418499 0.69092437780804039 0 0.32263089806001177 0.66003674931826484 0 0.31378396441836959 0.70157213313026345 0 0.32263089806001177 0.66003674931826484 0 0.36622285152418499 0.69092437780804039 0 0.86956835336234861 0.571283299838105 0 0.90900154012161016 0.53607784105648792 0 0.91143117093204207 0.58709913730335972 0 0.6499999999999998 0.29999999999999999 0 0.65481233915350323 0.35652751921065562 0 0.61959173890754571 0.33832250091341232 0 0.4409427642593301 0.35743108089689513 0 0.46226845272279993 0.31901800744800313 0 0.49077833859261139 0.35229981449445641 0 0.5 0.29999999999999999 0 0.49077833859261139 0.35229981449445641 0 0.46226845272279993 0.31901800744800313 0 0.14999999999970359 0 0 0.19999999999955789 0 0 0.184418230509967 0.038773194583122873 0 0.20000000000083221 1 0 0.15000000000062411 1 0 0.18474005699953849 0.96231585248064622 0 1 0.49999999999950101 0 1 0.54999999999963112 0 0.95631871884947484 0.51827533208233789 0 0.38586766253264881 0.78219501014812498 0 0.42676259796334498 0.76772545931379299 0 0.42609163930740518 0.80361684430568059 0 0.20050006573841939 0.53248514016039872 0 0.22549374774072969 0.58452645269293457 0 0.18381867841758909 0.57774125163628387 0 0.065374659239661639 0.8551091961254178 0 0.1074251789111534 0.83564394292147814 0 0.10562472963403439 0.87143394428979881 0 0.065374659239632718 0.1448908038746782 0 0.1053400320299198 0.12877248826361379 0 0.106902708054812 0.16453234188234539 0 0.1650278706801647 0.38791388161335733 0 0.14223753364722069 0.3341983344262433 0 0.18434624290945251 0.35208838264196463 0 0.43249999999999988 0.43937499999999979 0 0.46111841286828259 0.46690301029591341 0 0.43507373378304309 0.49699695397193322 0 0.83758014339878906 0.63222013025741819 0 0.81723410853263523 0.59419663659258926 0 0.87159648282691515 0.61285406320581504 0 0.19670163708476801 0.31472518408333222 0 0.18434624290945251 0.35208838264196463 0 0.14223753364722069 0.3341983344262433 0 0.75000000000034661 1 0 0.7250000000005199 0.94981617647078953 0 0.770759834363826 0.95919399014344442 0 0.74999999999999989 0.29999999999999999 0 0.72500000000000064 0.2498161764706 0 0.77075983436335049 0.25919399014334171 0 0.69999999999999984 0.29999999999999999 0 0.67933712972090698 0.25920070958121938 0 0.72500000000000064 0.2498161764706 0 0.57611405284611883 0.50165903596042916 0 0.53330375813596242 0.50827942741749099 0 0.53823865529665704 0.45873898050322898 0 0.6499999999999998 0.29999999999999999 0 0.68887083591306764 0.33632058575757479 0 0.65481233915350323 0.35652751921065562 0 0.27866744612395528 0.38416094670951489 0 0.33277555741076909 0.36432196682010132 0 0.31778888742534622 0.40581751814196781 0 0.49102375406324739 0.49123754822244059 0 0.43507373378304309 0.49699695397193322 0 0.46111841286828259 0.46690301029591341 0 0.94999999999999996 0.69999999999999996 0 0.97166519676947294 0.73337114490064459 0 0.94399509803918602 0.75600490196082126 0 0.94999999999986839 0 0 0.97166519676946894 0.033371144900598393 0 0.94399509803922566 0.056004901960802607 0 0.94999999999999996 0.29999999999999999 0 0.94399509803921056 0.24399509803922639 0 0.97166519676951801 0.26662885509932011 0 0.94999999999979179 1 0 0.94399509803919068 0.9439950980391687 0 0.97166519676946206 0.96662885509935492 0 0.34258405725730701 0.4444034294386992 0 0.29124338931648802 0.43334555462578611 0 0.31778888742534622 0.40581751814196781 0 0.27866744612395528 0.38416094670951489 0 0.31778888742534622 0.40581751814196781 0 0.29124338931648802 0.43334555462578611 0 0.36575549820117997 0.31677992835137742 0 0.33277555741076909 0.36432196682010132 0 0.32752639306529541 0.32610012995269699 0 0.35752321586431363 0.9185439911803448 0 0.32544832635163229 0.95485394099568932 0 0.30864387279288652 0.89906554525974958 0 0.27609987656793722 0.94991445621608572 0 0.30864387279288652 0.89906554525974958 0 0.32544832635163229 0.95485394099568932 0 0.33123028043633618 0.77629643437932982 0 0.30857225866488791 0.81101973481716805 0 0.2792923945214143 0.77665808831789485 0 0.33758650185219202 0.23837101504325639 0 0.29132859388405002 0.27203693976649962 0 0.28040350263641872 0.23054717217092141 0 0.4409427642593301 0.35743108089689513 0 0.41914690343363781 0.30688979866601612 0 0.46226845272279993 0.31901800744800313 0 0.14332333627550789 0.14578431753966009 0 0.13737030665753211 0.20313708640667491 0 0.106902708054812 0.16453234188234539 0 0.083105206071467416 0.20007701332709979 0 0.106902708054812 0.16453234188234539 0 0.13737030665753211 0.20313708640667491 0 0.083105206071452636 0.79992298667296435 0 0.1382744753146134 0.79650574229207483 0 0.1074251789111534 0.83564394292147814 0 0.14474682429600511 0.85524784522713515 0 0.1074251789111534 0.83564394292147814 0 0.1382744753146134 0.79650574229207483 0 0.65408113592120842 0.073941773121567966 0 0.7010294155333181 0.056779085686491267 0 0.68330259535470161 0.10038702501083881 0 0.72525833953073282 0.1032114801687094 0 0.68330259535470161 0.10038702501083881 0 0.7010294155333181 0.056779085686491267 0 0.049706944316475897 0.72477277076253799 0 0.046634677244967337 0.671418230738282 0 0.1020579365089687 0.69352219419301997 0 0.086179601630648681 0.64647209519980475 0 0.1020579365089687 0.69352219419301997 0 0.046634677244967337 0.671418230738282 0 0.087545339447545459 0.35122518864182262 0 0.046389130980076937 0.32668781832131749 0 0.093851963071650835 0.30582068233324772 0 0.049706944316556423 0.27522722923869108 0 0.093851963071650835 0.30582068233324772 0 0.046389130980076937 0.32668781832131749 0 0.82709327591091286 0.84937141670920724 0 0.80041942726660109 0.81543261647703358 0 0.84725310900444062 0.80779732082917555 0 0.82709327591102189 0.14937141670914489 0 0.80076557130237269 0.1154587552654202 0 0.84725310900442086 0.10779732082922661 0 0.17933913398461551 0.2350063570234002 0 0.14377654328998779 0.2442024734791064 0 0.13737030665753211 0.20313708640667491 0 0.18269480424590959 0.75905448272264375 0 0.1382744753146134 0.79650574229207483 0 0.14335651144331049 0.75565258250209677 0 0.33758650185219202 0.23837101504325639 0 0.3786248352540974 0.27082301512024259 0 0.33402499257867951 0.28911035184473982 0 0.14332333627550789 0.14578431753966009 0 0.18124454140915969 0.18790916706335251 0 0.13737030665753211 0.20313708640667491 0 0.14474682429600511 0.85524784522713515 0 0.1382744753146134 0.79650574229207483 0 0.17777405986036951 0.81832336108265358 0 0.5 0.29999999999999999 0 0.52752007115234678 0.33170632466418198 0 0.49077833859261139 0.35229981449445641 0 0.27866744612395528 0.38416094670951489 0 0.29644548887253103 0.34914008784168082 0 0.33277555741076909 0.36432196682010132 0 0 0.84999999999965292 0 0 0.79999999999999982 0 0.038512288486097702 0.8155852717111195 0 0 0.20000000000083221 0 0 0.15000000000062411 0 0.038512288486115001 0.1844147282893184 0 0.40326160981139969 0.73346192995102844 0 0.35415581127540569 0.73730480045900215 0 0.36622285152418499 0.69092437780804039 0 0.91696753777131557 0.497780560203536 0 0.96228564064454991 0.48206450662049471 0 0.95631871884947484 0.51827533208233789 0 0.33758650185219202 0.23837101504325639 0 0.31255190597181792 0.19850845631528771 0 0.3572130504031617 0.1874703368446563 0 0.59814117807200873 0.23398510860739519 0 0.62657463266645097 0.26524202571255862 0 0.5794309697024993 0.27124795968204829 0 0.34258405725730701 0.4444034294386992 0 0.31068898841644388 0.47541502461811092 0 0.29124338931648802 0.43334555462578611 0 0.38083244760691543 0.38531983672244652 0 0.35221190152536241 0.40457127605439203 0 0.33277555741076909 0.36432196682010132 0 0.083411279318375747 0.91030024466934134 0 0.10266856499240549 0.95548163909968886 0 0.053064897599294662 0.95186845269532028 0 0.083411279318303222 0.089699755330707398 0 0.053064897599215843 0.048131547304697528 0 0.10266856499169109 0.044518360900210059 0 0.42377727103934271 0.25099357235810238 0 0.4604742573284204 0.27846934318264788 0 0.41914690343363781 0.30688979866601612 0 0.28307294598219601 0.50789252727458634 0 0.25982634974572738 0.46097799597715272 0 0.31068898841644388 0.47541502461811092 0 0.29348325746214782 0.31350119524708198 0 0.29132859388405002 0.27203693976649962 0 0.33402499257867951 0.28911035184473982 0 0.35312867752657662 0.084946736076730367 0 0.39823268594401579 0.1116623613130045 0 0.36246644853392812 0.1399454205365751 0 0.7000000000006934 1 0 0.68015064798562208 0.95924320340003011 0 0.7250000000005199 0.94981617647078953 0 0.42377727103934271 0.25099357235810238 0 0.38831533174504851 0.2189834941785925 0 0.42905200079338551 0.19982395548231649 0 0.53823865529665704 0.45873898050322898 0 0.57744073070774993 0.41535148636609359 0 0.57975577671020095 0.46172033326338591 0 0.33758650185219202 0.23837101504325639 0 0.3572130504031617 0.1874703368446563 0 0.38831533174504851 0.2189834941785925 0 0.29124338931648802 0.43334555462578611 0 0.31068898841644388 0.47541502461811092 0 0.25982634974572738 0.46097799597715272 0 0.6084546825910605 0.37989672713932537 0 0.61959173890754571 0.33832250091341232 0 0.65481233915350323 0.35652751921065562 0 0.40326160981139969 0.73346192995102844 0 0.43323420005758778 0.6913544522562407 0 0.45582236402875981 0.73896743678908217 0 0.33758650185219202 0.23837101504325639 0 0.28040350263641872 0.23054717217092141 0 0.31255190597181792 0.19850845631528771 0 0.79999999999999982 1 0 0.75000000000034661 1 0 0.770759834363826 0.95919399014344442 0 0.74999999999999989 0.29999999999999999 0 0.77075983436335049 0.25919399014334171 0 0.79999999999999982 0.29999999999999999 0 0.6499999999999998 0.29999999999999999 0 0.67933712972090698 0.25920070958121938 0 0.69999999999999984 0.29999999999999999 0 0.39536230704883951 0.84069429572832477 0 0.39767323751400468 0.89584229130535065 0 0.35864759629805099 0.87963482415279515 0 0.54999999999999993 0.69999999999999996 0 0.52584555706968406 0.66664215091846768 0 0.57484956128872922 0.66573805030881994 0 0.35312867752657662 0.084946736076730367 0 0.32541448401678508 0.046215317981507749 0 0.3615861437013822 0.03582617922508851 0 0.35752321586431363 0.9185439911803448 0 0.36184234618600131 0.96443954459096326 0 0.32544832635163229 0.95485394099568932 0 0.35312867752657662 0.084946736076730367 0 0.3615861437013822 0.03582617922508851 0 0.39591832466117061 0.056982757562006353 0 0.35752321586431363 0.9185439911803448 0 0.39641108128798319 0.94356127926187128 0 0.36184234618600131 0.96443954459096326 0 0.083411279318303222 0.089699755330707398 0 0.044310582753132287 0.101412518374475 0 0.053064897599215843 0.048131547304697528 0 0.083411279318375747 0.91030024466934134 0 0.053064897599294662 0.95186845269532028 0 0.0443105827531413 0.89858748162559932 0 0.38083244760691543 0.38531983672244652 0 0.40076539126862748 0.34589349467022118 0 0.42161023666869668 0.39493916313643851 0 0.4409427642593301 0.35743108089689513 0 0.42161023666869668 0.39493916313643851 0 0.40076539126862748 0.34589349467022118 0 0.79999999999999982 0.29999999999999999 0 0.82500000000000062 0.33010209762754811 0 0.78145581580700685 0.34881365920033602 0 0.79999999999999982 0.69999999999999996 0 0.7750489929959945 0.66593931409600093 0 0.82457059160610424 0.66831947184359608 0 0.59999999999999976 0.69999999999999996 0 0.57484956128872922 0.66573805030881994 0 0.62460753523532009 0.66851202781000296 0 0.74999999999999989 0.69999999999999996 0 0.72500000000000064 0.67022701834392062 0 0.7750489929959945 0.66593931409600093 0 0.74999999999999989 0.29999999999999999 0 0.78145581580700685 0.34881365920033602 0 0.73090396928863699 0.33699297293167962 0 0.33758650185219202 0.23837101504325639 0 0.33402499257867951 0.28911035184473982 0 0.29132859388405002 0.27203693976649962 0 0.36575549820117997 0.31677992835137742 0 0.41914690343363781 0.30688979866601612 0 0.40076539126862748 0.34589349467022118 0 0.4409427642593301 0.35743108089689513 0 0.40076539126862748 0.34589349467022118 0 0.41914690343363781 0.30688979866601612 0 0.34258405725730701 0.4444034294386992 0 0.38707855792647411 0.42299362914874578 0 0.3908716102680424 0.47010282357248828 0 0.7000000000006934 1 0 0.65000000000104008 1 0 0.68015064798562208 0.95924320340003011 0 0.49102375406324739 0.49123754822244059 0 0.46111841286828259 0.46690301029591341 0 0.48858720058566618 0.43964267759203868 0 0.4656888918609538 0.78493261229743638 0 0.42676259796334498 0.76772545931379299 0 0.45582236402875981 0.73896743678908217 0 0.40326160981139969 0.73346192995102844 0 0.45582236402875981 0.73896743678908217 0 0.42676259796334498 0.76772545931379299 0 0.59999999999999976 0.29999999999999999 0 0.62657463266645097 0.26524202571255862 0 0.6499999999999998 0.29999999999999999 0 0.40000000000166441 1 0 0.36184234618600131 0.96443954459096326 0 0.39641108128798319 0.94356127926187128 0 0.3999999999989749 0 0 0.39591832466117061 0.056982757562006353 0 0.3615861437013822 0.03582617922508851 0 0.43249999999999988 0.43937499999999979 0 0.48858720058566618 0.43964267759203868 0 0.46111841286828259 0.46690301029591341 0 0.7250000000005199 0.89375000000045834 0 0.7250000000005199 0.94981617647078953 0 0.68987011941058407 0.92105047536677087 0 0.7250000000005199 0.89375000000045834 0 0.75729602384198635 0.92353652857884294 0 0.7250000000005199 0.94981617647078953 0 0.72500000000001008 0.19776155966387679 0 0.75668890529066124 0.2244279804069782 0 0.72500000000000064 0.2498161764706 0 0.72500000000001008 0.19776155966387679 0 0.72500000000000064 0.2498161764706 0 0.69397719155551807 0.2245125647000914 0 0.79999999999999982 0.29999999999999999 0 0.81486180804364938 0.26321394949780091 0 0.84999999999999987 0.29999999999999999 0 0.84999999999965292 1 0 0.79999999999999982 1 0 0.81486180804382891 0.96321394949790495 0 0.1247745017231483 0.27198077544791172 0 0.095326043202144745 0.24554465089224409 0 0.14377654328998779 0.2442024734791064 0 0.1215415378367805 0.72939333680004137 0 0.14335651144331049 0.75565258250209677 0 0.090953281884486245 0.7564451946902494 0 0.72500000000001008 0.19776155966387679 0 0.72634814642510737 0.16106886917518889 0 0.76587607630038135 0.18880039518954719 0 0.72500000000001008 0.19776155966387679 0 0.6865991819015953 0.189116534044597 0 0.72634814642510737 0.16106886917518889 0 0.77144070960558853 0.14311854477243749 0 0.76587607630038135 0.18880039518954719 0 0.72634814642510737 0.16106886917518889 0 0.68391457121233579 0.14440470121196541 0 0.72634814642510737 0.16106886917518889 0 0.6865991819015953 0.189116534044597 0 0.7250000000005199 0.89375000000045834 0 0.72863726579783861 0.85390518901155588 0 0.76891166905518427 0.88835469571185499 0 0.76901770135486491 0.84293557325473656 0 0.76891166905518427 0.88835469571185499 0 0.72863726579783861 0.85390518901155588 0 0 0.20000000000083221 0 0.038512288486115001 0.1844147282893184 0 0.044081577119474857 0.2271058242433576 0 0 0.79999999999999982 0 0.04408157711937423 0.7728941757575627 0 0.038512288486097702 0.8155852717111195 0 0.52375890611712683 0.059318771819432882 0 0.47881186583059909 0.093591717165689425 0 0.47040171442036788 0.044141676406503738 0 0.52122150208832174 0.94089974453840242 0 0.47135117303824892 0.95556877749289892 0 0.47401147028110507 0.91529957330468115 0 0.27474541102162192 0.11822029332053539 0 0.3096713403101819 0.085471541595262421 0 0.32215584939770009 0.1218492143506909 0 0.22278230690790279 0.44824268025881547 0 0.24049127783545701 0.41270748208749802 0 0.25982634974572738 0.46097799597715272 0 0.93732437411268477 0.55911392101136159 0 0.91143117093204207 0.58709913730335972 0 0.90900154012161016 0.53607784105648792 0 0.19901705110390991 0.9175543425573498 0 0.24536017905392571 0.90704567837671446 0 0.22850979588452081 0.95594428570238643 0 0.27609987656793722 0.94991445621608572 0 0.22850979588452081 0.95594428570238643 0 0.24536017905392571 0.90704567837671446 0 0.15720202157091859 0.60665697304410315 0 0.1241190223511371 0.64391885572885044 0 0.1024350934457823 0.60772393977513839 0 0.6499999999999998 0.69999999999999996 0 0.675261390228442 0.65996937624687813 0 0.69999999999999984 0.69999999999999996 0 0.3999999999989749 0 0 0.4320097814748517 0.037406712692169303 0 0.39591832466117061 0.056982757562006353 0 0.40000000000166441 1 0 0.39641108128798319 0.94356127926187128 0 0.4308986359464303 0.96395712492906194 0 0.54999999999999993 0.29999999999999999 0 0.56836770495988642 0.3523062350852913 0 0.52752007115234678 0.33170632466418198 0 0.14474682429600511 0.85524784522713515 0 0.17777405986036951 0.81832336108265358 0 0.19741632902693801 0.86755867406447229 0 0.21858834311891909 0.81980263716112767 0 0.19741632902693801 0.86755867406447229 0 0.17777405986036951 0.81832336108265358 0 0.54782696902220018 0.79245182748204157 0 0.50731287292894423 0.78963574450233831 0 0.50945740445113552 0.75476055527778108 0 0.20000000000083221 1 0 0.18474005699953849 0.96231585248064622 0 0.22850979588452081 0.95594428570238643 0 0.19999999999955789 0 0 0.22668068146512929 0.045875643423131329 0 0.184418230509967 0.038773194583122873 0 0.77846603114747959 0.49850927265137401 0 0.73947346780852752 0.49062440112282169 0 0.77972660463949339 0.45529290596363098 0 0.73483647259922602 0.44789725365921768 0 0.77972660463949339 0.45529290596363098 0 0.73947346780852752 0.49062440112282169 0 0.34258405725730701 0.4444034294386992 0 0.35024835142131061 0.48654922671676981 0 0.31068898841644388 0.47541502461811092 0 0.33123028043633618 0.77629643437932982 0 0.2792923945214143 0.77665808831789485 0 0.29904318922293632 0.74132814928635593 0 0.26573297623774761 0.59828298563722948 0 0.25115337790845271 0.54719303014923271 0 0.29110487519241501 0.56588143995431495 0 0.4656888918609538 0.78493261229743638 0 0.50945740445113552 0.75476055527778108 0 0.50731287292894423 0.78963574450233831 0 0.35312867752657662 0.084946736076730367 0 0.36246644853392812 0.1399454205365751 0 0.32215584939770009 0.1218492143506909 0 0.29348325746214782 0.31350119524708198 0 0.25966125648670141 0.34351016742083729 0 0.24432083401701241 0.3006253385567515 0 0.59999999999999976 0.69999999999999996 0 0.6499999999999998 0.69999999999999996 0 0.63221990677827677 0.73442891067859706 0 0.69999999999921003 0 0 0.7010294155333181 0.056779085686491267 0 0.66369801598854572 0.036327466368102787 0 0.40000000000166441 1 0 0.35000000000145642 1 0 0.36184234618600131 0.96443954459096326 0 0.34999999999912063 0 0 0.3999999999989749 0 0 0.3615861437013822 0.03582617922508851 0 0.43507373378304309 0.49699695397193322 0 0.47793794143994173 0.52940715638744962 0 0.42644501560315817 0.54603747078095544 0 0.14474682429600511 0.85524784522713515 0 0.19741632902693801 0.86755867406447229 0 0.16206583317966519 0.89685560785156404 0 0.19901705110390991 0.9175543425573498 0 0.16206583317966519 0.89685560785156404 0 0.19741632902693801 0.86755867406447229 0 0.35864735590330371 0.63903383440414463 0 0.3977710372045391 0.65868194622830212 0 0.36622285152418499 0.69092437780804039 0 0.7527966693318906 0.053051678021508272 0 0.7010294155333181 0.056779085686491267 0 0.72683645290270404 0.027797073151180601 0 0.71508799138962864 0.36622814920737751 0 0.72622533758026719 0.40265885511101601 0 0.68128176404677243 0.38629093627004979 0 0.79999999999999982 0.69999999999999996 0 0.84999999999999987 0.69999999999999996 0 0.81864958914779962 0.73589050177899629 0 0.79999999999947335 0 0 0.84999999999960507 0 0 0.81864958914740749 0.035890501779055867 0 0.39536230704883951 0.84069429572832477 0 0.35642984951668422 0.80994399665655703 0 0.38586766253264881 0.78219501014812498 0 0.42377727103934271 0.25099357235810238 0 0.46429753744194407 0.22870891180733599 0 0.4604742573284204 0.27846934318264788 0 0.39801143831225599 0.16651381068160659 0 0.42905200079338551 0.19982395548231649 0 0.38831533174504851 0.2189834941785925 0 0.79999999999999982 1 0 0.770759834363826 0.95919399014344442 0 0.81486180804382891 0.96321394949790495 0 0.79999999999999982 0.29999999999999999 0 0.77075983436335049 0.25919399014334171 0 0.81486180804364938 0.26321394949780091 0 0.25195515620380449 0.25883339815888678 0 0.21049769590865089 0.26857363548218488 0 0.224700362040408 0.22206622194729711 0 0.40326160981139969 0.73346192995102844 0 0.42676259796334498 0.76772545931379299 0 0.38586766253264881 0.78219501014812498 0 0.35312867752657662 0.084946736076730367 0 0.3096713403101819 0.085471541595262421 0 0.32541448401678508 0.046215317981507749 0 0.59999999999999976 0.29999999999999999 0 0.6499999999999998 0.29999999999999999 0 0.61959173890754571 0.33832250091341232 0 0.2185883431182947 0.18019736283949719 0 0.18652628422869419 0.14162325200928061 0 0.22985637510995899 0.1298347970200906 0 0.64999999999907843 0 0 0.69999999999921003 0 0 0.66369801598854572 0.036327466368102787 0 0.27499999999933927 0.060310814194988557 0 0.24218496799700481 0.089025544070598317 0 0.22668068146512929 0.045875643423131329 0 0.19922788606653311 0.085920220746880993 0 0.22668068146512929 0.045875643423131329 0 0.24218496799700481 0.089025544070598317 0 0.65507451745379841 0.92229208810758578 0 0.66412543161245952 0.88015090885499059 0 0.68987011941058407 0.92105047536677087 0 0.049706944316475897 0.72477277076253799 0 0.090953281884486245 0.7564451946902494 0 0.04408157711937423 0.7728941757575627 0 0.083105206071452636 0.79992298667296435 0 0.04408157711937423 0.7728941757575627 0 0.090953281884486245 0.7564451946902494 0 0.083105206071467416 0.20007701332709979 0 0.095326043202144745 0.24554465089224409 0 0.044081577119474857 0.2271058242433576 0 0.049706944316556423 0.27522722923869108 0 0.044081577119474857 0.2271058242433576 0 0.095326043202144745 0.24554465089224409 0 0.36575549820117997 0.31677992835137742 0 0.33402499257867951 0.28911035184473982 0 0.3786248352540974 0.27082301512024259 0 0.53245488764484505 0.55078124999999989 0 0.53330375813596242 0.50827942741749099 0 0.57435499076887508 0.54267261987897775 0 0.57611405284611883 0.50165903596042916 0 0.57435499076887508 0.54267261987897775 0 0.53330375813596242 0.50827942741749099 0 0.6499999999999998 0.29999999999999999 0 0.69999999999999984 0.29999999999999999 0 0.68887083591306764 0.33632058575757479 0 0.57611405284611883 0.50165903596042916 0 0.53823865529665704 0.45873898050322898 0 0.57975577671020095 0.46172033326338591 0 0.7750489929959945 0.66593931409600093 0 0.72500000000000064 0.67022701834392062 0 0.74994237037456724 0.62775548192980357 0 0.78145581580700685 0.34881365920033602 0 0.74764719760526988 0.3719647154012321 0 0.73090396928863699 0.33699297293167962 0 0.3999999999989749 0 0 0.44999999999882923 0 0 0.4320097814748517 0.037406712692169303 0 0.45000000000187229 1 0 0.40000000000166441 1 0 0.4308986359464303 0.96395712492906194 0 0.57484956128872922 0.66573805030881994 0 0.5991018319127801 0.62925360607495295 0 0.62460753523532009 0.66851202781000296 0 0.7750489929959945 0.66593931409600093 0 0.79884539758237771 0.62875045078114233 0 0.82457059160610424 0.66831947184359608 0 0.39801143831225599 0.16651381068160659 0 0.36246644853392812 0.1399454205365751 0 0.39823268594401579 0.1116623613130045 0 0.078358742472063481 0.43365249433908948 0 0.033550201249889847 0.46247875832467239 0 0.035463093262830522 0.42673416072819947 0 0.25676291524611189 0.7436741304886243 0 0.2792923945214143 0.77665808831789485 0 0.22556077506376701 0.77837424984191617 0 0.2236846579037573 0.67380363126050236 0 0.2248999640082178 0.72584299459689172 0 0.19068556247388771 0.71028988922845504 0 0.50715858906372158 0.63295939104129484 0 0.5166924242153631 0.59825134841919447 0 0.5498280205245758 0.6290146943450976 0 0.14618258501891079 0.062070108745602003 0 0.12372429750337779 0.095814237875728972 0 0.10266856499169109 0.044518360900210059 0 0.083411279318303222 0.089699755330707398 0 0.10266856499169109 0.044518360900210059 0 0.12372429750337779 0.095814237875728972 0 0.083411279318375747 0.91030024466934134 0 0.1241151115713819 0.9045666525468371 0 0.10266856499240549 0.95548163909968886 0 0.14617343800780541 0.93808063414349496 0 0.10266856499240549 0.95548163909968886 0 0.1241151115713819 0.9045666525468371 0 0.5499999999988151 0 0 0.59999999999894682 0 0 0.57396793757665954 0.037011367187645222 0 0.54782696902220018 0.79245182748204157 0 0.50627822638148745 0.8263979829520941 0 0.50731287292894423 0.78963574450233831 0 0.6499999999999998 0.29999999999999999 0 0.62657463266645097 0.26524202571255862 0 0.67933712972090698 0.25920070958121938 0 0.86956835336234861 0.571283299838105 0 0.86907294890112186 0.52008116128001669 0 0.90900154012161016 0.53607784105648792 0 0.17933913398461551 0.2350063570234002 0 0.224700362040408 0.22206622194729711 0 0.21049769590865089 0.26857363548218488 0 0.43249999999999988 0.43937499999999979 0 0.3908716102680424 0.47010282357248828 0 0.38707855792647411 0.42299362914874578 0 0.27474541102162192 0.11822029332053539 0 0.22985637510995899 0.1298347970200906 0 0.24218496799700481 0.089025544070598317 0 0.64753070846764316 0.77332939069435502 0 0.66427993341343905 0.73232764502436276 0 0.6916490518212759 0.75387992374886192 0 0 0.40000000000166441 0 0.050583896093752537 0.38543522283434112 0 0.035463093262830522 0.42673416072819947 0 0.73483647259922602 0.44789725365921768 0 0.73947346780852752 0.49062440112282169 0 0.69385896817107129 0.48377516041410151 0 0.57484956128872922 0.66573805030881994 0 0.52584555706968406 0.66664215091846768 0 0.5498280205245758 0.6290146943450976 0 0.60000000000138687 1 0 0.55000000000173355 1 0 0.57382506491224949 0.9629411906298494 0 0.068743045408989428 0.48853989837882689 0 0.085622222639554768 0.53333248912060549 0 0.044576108720083309 0.53509043209532614 0 0.083105206071467416 0.20007701332709979 0 0.044081577119474857 0.2271058242433576 0 0.038512288486115001 0.1844147282893184 0 0.083105206071452636 0.79992298667296435 0 0.038512288486097702 0.8155852717111195 0 0.04408157711937423 0.7728941757575627 0 0.28307294598219601 0.50789252727458634 0 0.23975172658309729 0.49475499200540818 0 0.25982634974572738 0.46097799597715272 0 0.43698630808430822 0.080423614171545449 0 0.39591832466117061 0.056982757562006353 0 0.4320097814748517 0.037406712692169303 0 0.4367309254023824 0.92065556789053882 0 0.4308986359464303 0.96395712492906194 0 0.39641108128798319 0.94356127926187128 0 0.80185942888539485 0.77452061303608133 0 0.75841349681148107 0.75422312624214749 0 0.78578450296893509 0.73292684821144505 0 0.80185942888501827 0.074520613036224564 0 0.7527966693318906 0.053051678021508272 0 0.78393852574753176 0.032039079577822822 0 0.6499999999999998 0.69999999999999996 0 0.62460753523532009 0.66851202781000296 0 0.675261390228442 0.65996937624687813 0 0.33123028043633618 0.77629643437932982 0 0.38586766253264881 0.78219501014812498 0 0.35642984951668422 0.80994399665655703 0 0.6405463747586706 0.63290524857395714 0 0.675261390228442 0.65996937624687813 0 0.62460753523532009 0.66851202781000296 0 0.22278230690790279 0.44824268025881547 0 0.191953871957803 0.42546416763755879 0 0.24049127783545701 0.41270748208749802 0 0.077693244765132896 0.56932317963405099 0 0.050069554451969707 0.61308520079857043 0 0.034381862692950467 0.57372682250960894 0 0.25195515620380449 0.25883339815888678 0 0.24432083401701241 0.3006253385567515 0 0.21049769590865089 0.26857363548218488 0 0.46666084890304671 0.57634471035397938 0 0.5166924242153631 0.59825134841919447 0 0.47095389620662098 0.61892551373708504 0 0.50715858906372158 0.63295939104129484 0 0.47095389620662098 0.61892551373708504 0 0.5166924242153631 0.59825134841919447 0 0.72525833953073282 0.1032114801687094 0 0.7527966693318906 0.053051678021508272 0 0.76878382444651716 0.097147941686331368 0 0.80185942888501827 0.074520613036224564 0 0.76878382444651716 0.097147941686331368 0 0.7527966693318906 0.053051678021508272 0 0.72500000000000064 0.7952620967744265 0 0.75841349681148107 0.75422312624214749 0 0.77094201086366854 0.79647480515688507 0 0.80185942888539485 0.77452061303608133 0 0.77094201086366854 0.79647480515688507 0 0.75841349681148107 0.75422312624214749 0 0.72500000000000064 0.7952620967744265 0 0.68024162096458085 0.79868546898116533 0 0.6916490518212759 0.75387992374886192 0 0.64753070846764316 0.77332939069435502 0 0.6916490518212759 0.75387992374886192 0 0.68024162096458085 0.79868546898116533 0 0 0.50000000000205869 0 0 0.45000000000187229 0 0.033550201249889847 0.46247875832467239 0 0.69999999999999984 0.69999999999999996 0 0.675261390228442 0.65996937624687813 0 0.72500000000000064 0.67022701834392062 0 0.71406021706547751 0.63292083137662503 0 0.72500000000000064 0.67022701834392062 0 0.675261390228442 0.65996937624687813 0 0.65408113592120842 0.073941773121567966 0 0.61940220174112337 0.047251958781050582 0 0.66369801598854572 0.036327466368102787 0 0.59999999999894682 0 0 0.61940220174112337 0.047251958781050582 0 0.57396793757665954 0.037011367187645222 0 0.60000000000138687 1 0 0.57382506491224949 0.9629411906298494 0 0.62065498684670595 0.95224934003983619 0 0.33122374654748771 0.57588941099433744 0 0.35765792684946668 0.6000687869219653 0 0.31502927232353312 0.6134992213375432 0 0.35864735590330371 0.63903383440414463 0 0.31502927232353312 0.6134992213375432 0 0.35765792684946668 0.6000687869219653 0 0.15801167086041079 0.46008690540259539 0 0.19604738184454831 0.47787523520405789 0 0.16618607197337229 0.50652878253548905 0 0.078358742472063481 0.43365249433908948 0 0.035463093262830522 0.42673416072819947 0 0.050583896093752537 0.38543522283434112 0 0.19901705110390991 0.9175543425573498 0 0.22850979588452081 0.95594428570238643 0 0.18474005699953849 0.96231585248064622 0 0.19922788606653311 0.085920220746880993 0 0.184418230509967 0.038773194583122873 0 0.22668068146512929 0.045875643423131329 0 0.19922788606653311 0.085920220746880993 0 0.24218496799700481 0.089025544070598317 0 0.22985637510995899 0.1298347970200906 0 0.74999999999999989 0.69999999999999996 0 0.78578450296893509 0.73292684821144505 0 0.75841349681148107 0.75422312624214749 0 0.74999999999934175 0 0 0.78393852574753176 0.032039079577822822 0 0.7527966693318906 0.053051678021508272 0 0 0.60000000000138687 0 0.034381862692950467 0.57372682250960894 0 0.050069554451969707 0.61308520079857043 0 0.2236846579037573 0.67380363126050236 0 0.26439878998046262 0.7048065392091396 0 0.2248999640082178 0.72584299459689172 0 0.6236733212988993 0.14864538214901801 0 0.58516465772821369 0.11653801664834119 0 0.61956000905586006 0.1043312481793135 0 0.26104540868854792 0.81401944968719064 0 0.2792923945214143 0.77665808831789485 0 0.30857225866488791 0.81101973481716805 0 0.42377727103934271 0.25099357235810238 0 0.42905200079338551 0.19982395548231649 0 0.46429753744194407 0.22870891180733599 0 0.27820712747429932 0.65530134213254643 0 0.31502927232353312 0.6134992213375432 0 0.32263089806001177 0.66003674931826484 0 0.61343887413683884 0.856862479058357 0 0.61885627562261258 0.90282959257498208 0 0.5832743223239254 0.88483152652961872 0 0.43698630808430822 0.080423614171545449 0 0.47040171442036788 0.044141676406503738 0 0.47881186583059909 0.093591717165689425 0 0.4367309254023824 0.92065556789053882 0 0.47401147028110507 0.91529957330468115 0 0.47135117303824892 0.95556877749289892 0 0.91696753777131557 0.497780560203536 0 0.95631871884947484 0.51827533208233789 0 0.90900154012161016 0.53607784105648792 0 0.93732437411268477 0.55911392101136159 0 0.90900154012161016 0.53607784105648792 0 0.95631871884947484 0.51827533208233789 0 0.27474541102162192 0.11822029332053539 0 0.25557216766470708 0.15874861286892261 0 0.22985637510995899 0.1298347970200906 0 0.2185883431182947 0.18019736283949719 0 0.22985637510995899 0.1298347970200906 0 0.25557216766470708 0.15874861286892261 0 0.29348325746214782 0.31350119524708198 0 0.33402499257867951 0.28911035184473982 0 0.32752639306529541 0.32610012995269699 0 0.27499999999933927 0.060310814194988557 0 0.32541448401678508 0.046215317981507749 0 0.3096713403101819 0.085471541595262421 0 0.27270076654418179 0.87751467830216623 0 0.24536017905392571 0.90704567837671446 0 0.2401283238295133 0.85648409884788523 0 1 0.44999999999963131 0 1 0.49999999999950101 0 0.96228564064454991 0.48206450662049471 0 0.61343887413683884 0.856862479058357 0 0.66412543161245952 0.88015090885499059 0 0.61885627562261258 0.90282959257498208 0 0 0.45000000000187229 0 0 0.40000000000166441 0 0.035463093262830522 0.42673416072819947 0 0.69999999999999984 0.69999999999999996 0 0.6916490518212759 0.75387992374886192 0 0.66427993341343905 0.73232764502436276 0 0.43846182030517877 0.64845797726506715 0 0.43323420005758778 0.6913544522562407 0 0.3977710372045391 0.65868194622830212 0 0.4367309254023824 0.92065556789053882 0 0.44003836461056539 0.88093474584252718 0 0.47401147028110507 0.91529957330468115 0 0.43846182030517877 0.64845797726506715 0 0.39743091024207589 0.6239520004230239 0 0.43545892161006339 0.61093128915313821 0 0.43846182030517877 0.64845797726506715 0 0.3977710372045391 0.65868194622830212 0 0.39743091024207589 0.6239520004230239 0 0.26429849586623999 0.19346700179430079 0 0.29336099386129338 0.15892013001050981 0 0.31255190597181792 0.19850845631528771 0 0.19670163708476801 0.31472518408333222 0 0.21049769590865089 0.26857363548218488 0 0.24432083401701241 0.3006253385567515 0 0.57724883562309992 0.92155686857100794 0 0.62065498684670595 0.95224934003983619 0 0.57382506491224949 0.9629411906298494 0 0.4409427642593301 0.35743108089689513 0 0.46655310992796922 0.39650496622958609 0 0.42161023666869668 0.39493916313643851 0 0.46666084890304671 0.57634471035397938 0 0.47095389620662098 0.61892551373708504 0 0.43545892161006339 0.61093128915313821 0 0.6879972333610942 0.43038561374960838 0 0.65178832218679827 0.45929119821019959 0 0.63912439215427275 0.41063340167983359 0 0.43698630808430822 0.080423614171545449 0 0.4320097814748517 0.037406712692169303 0 0.47040171442036788 0.044141676406503738 0 0.4367309254023824 0.92065556789053882 0 0.47135117303824892 0.95556877749289892 0 0.4308986359464303 0.96395712492906194 0 0.79680861578988083 0.92656778056766709 0 0.81486180804382891 0.96321394949790495 0 0.770759834363826 0.95919399014344442 0 0.79680861578956375 0.22656778056752541 0 0.81486180804364938 0.26321394949780091 0 0.77075983436335049 0.25919399014334171 0 0.71508799138962864 0.36622814920737751 0 0.68128176404677243 0.38629093627004979 0 0.68887083591306764 0.33632058575757479 0 0.35864735590330371 0.63903383440414463 0 0.32263089806001177 0.66003674931826484 0 0.31502927232353312 0.6134992213375432 0 0.21858834311891909 0.81980263716112767 0 0.2401283238295133 0.85648409884788523 0 0.19741632902693801 0.86755867406447229 0 0.35312867752657662 0.084946736076730367 0 0.32215584939770009 0.1218492143506909 0 0.3096713403101819 0.085471541595262421 0 0.35752321586431363 0.9185439911803448 0 0.35864759629805099 0.87963482415279515 0 0.39767323751400468 0.89584229130535065 0 0.41914690343363781 0.30688979866601612 0 0.4604742573284204 0.27846934318264788 0 0.46226845272279993 0.31901800744800313 0 0.33084213324567391 0.16272720141332131 0 0.32215584939770009 0.1218492143506909 0 0.36246644853392812 0.1399454205365751 0 0.46666084890304671 0.57634471035397938 0 0.42644501560315817 0.54603747078095544 0 0.47793794143994173 0.52940715638744962 0 0 0.60000000000138687 0 0 0.55000000000173355 0 0.034381862692950467 0.57372682250960894 0 0.77354604466818633 0.40378688774472771 0 0.74764719760526988 0.3719647154012321 0 0.78145581580700685 0.34881365920033602 0 0.34999999999912063 0 0 0.3615861437013822 0.03582617922508851 0 0.32541448401678508 0.046215317981507749 0 0.35000000000145642 1 0 0.32544832635163229 0.95485394099568932 0 0.36184234618600131 0.96443954459096326 0 0.57667858002728545 0.078486105337742612 0 0.57396793757665954 0.037011367187645222 0 0.61940220174112337 0.047251958781050582 0 0.47357141910802508 0.1873585799078378 0 0.50760557329222289 0.20700468884612061 0 0.46429753744194407 0.22870891180733599 0 0.49695729691142171 0.25014895411178018 0 0.46429753744194407 0.22870891180733599 0 0.50760557329222289 0.20700468884612061 0 0.33084213324567391 0.16272720141332131 0 0.3572130504031617 0.1874703368446563 0 0.31255190597181792 0.19850845631528771 0 0.6879972333610942 0.43038561374960838 0 0.63912439215427275 0.41063340167983359 0 0.68128176404677243 0.38629093627004979 0 0.65408113592120842 0.073941773121567966 0 0.65290632656860115 0.11434202593454081 0 0.61956000905586006 0.1043312481793135 0 0.33084213324567391 0.16272720141332131 0 0.31255190597181792 0.19850845631528771 0 0.29336099386129338 0.15892013001050981 0 0.61209567303293111 0.44669033081290321 0 0.63912439215427275 0.41063340167983359 0 0.65178832218679827 0.45929119821019959 0 0.086179601630648681 0.64647209519980475 0 0.1024350934457823 0.60772393977513839 0 0.1241190223511371 0.64391885572885044 0 0.44999999999882923 0 0 0.47040171442036788 0.044141676406503738 0 0.4320097814748517 0.037406712692169303 0 0.45000000000187229 1 0 0.4308986359464303 0.96395712492906194 0 0.47135117303824892 0.95556877749289892 0 0.74999999999934175 0 0 0.7527966693318906 0.053051678021508272 0 0.72683645290270404 0.027797073151180601 0 0.74999999999999989 0.69999999999999996 0 0.75841349681148107 0.75422312624214749 0 0.72501250972655151 0.74067302935308721 0 0.69999999999999984 0.69999999999999996 0 0.72501250972655151 0.74067302935308721 0 0.6916490518212759 0.75387992374886192 0 0.74999999999934175 0 0 0.79999999999947335 0 0 0.78393852574753176 0.032039079577822822 0 0.74999999999999989 0.69999999999999996 0 0.79999999999999982 0.69999999999999996 0 0.78578450296893509 0.73292684821144505 0 0.6405463747586706 0.63290524857395714 0 0.5991018319127801 0.62925360607495295 0 0.63065402604362242 0.59661356661633302 0 0.65481233915350323 0.35652751921065562 0 0.68887083591306764 0.33632058575757479 0 0.68128176404677243 0.38629093627004979 0 0.89999999999999991 0.29999999999999999 0 0.94999999999999996 0.29999999999999999 0 0.92012390126144183 0.33123581297173937 0 0.89999999999999991 0.69999999999999996 0 0.92057473616084773 0.66770436535372446 0 0.94999999999999996 0.69999999999999996 0 0.4367309254023824 0.92065556789053882 0 0.39767323751400468 0.89584229130535065 0 0.44003836461056539 0.88093474584252718 0 0.2185883431182947 0.18019736283949719 0 0.18124454140915969 0.18790916706335251 0 0.18652628422869419 0.14162325200928061 0 0.20050006573841939 0.53248514016039872 0 0.19604738184454831 0.47787523520405789 0 0.23975172658309729 0.49475499200540818 0 0.65507451745379841 0.92229208810758578 0 0.61885627562261258 0.90282959257498208 0 0.66412543161245952 0.88015090885499059 0 0.65394964615507722 0.22666784374016369 0 0.67933712972090698 0.25920070958121938 0 0.62657463266645097 0.26524202571255862 0 0.077693244765132896 0.56932317963405099 0 0.034381862692950467 0.57372682250960894 0 0.044576108720083309 0.53509043209532614 0 0.39801143831225599 0.16651381068160659 0 0.38831533174504851 0.2189834941785925 0 0.3572130504031617 0.1874703368446563 0 0.6499999999999998 0.69999999999999996 0 0.69999999999999984 0.69999999999999996 0 0.66427993341343905 0.73232764502436276 0 0.1215415378367805 0.72939333680004137 0 0.15332765547575641 0.71200081858233666 0 0.14335651144331049 0.75565258250209677 0 0.6405463747586706 0.63290524857395714 0 0.63065402604362242 0.59661356661633302 0 0.67529834988829951 0.61613270668143583 0 0.67323294229744413 0.57556450033612505 0 0.67529834988829951 0.61613270668143583 0 0.63065402604362242 0.59661356661633302 0 0.91750694127107502 0.36982372220068471 0 0.87430060258887643 0.34056085888204451 0 0.92012390126144183 0.33123581297173937 0 0.89999999999999991 0.29999999999999999 0 0.92012390126144183 0.33123581297173937 0 0.87430060258887643 0.34056085888204451 0 0.89999999999999991 0.69999999999999996 0 0.87712158428786946 0.65709029563313581 0 0.92057473616084773 0.66770436535372446 0 0.91750694127105259 0.63017627779935648 0 0.92057473616084773 0.66770436535372446 0 0.87712158428786946 0.65709029563313581 0 0.33122374654748771 0.57588941099433744 0 0.29110487519241501 0.56588143995431495 0 0.33190227185843768 0.52715113583864037 0 0.57484956128872922 0.66573805030881994 0 0.5498280205245758 0.6290146943450976 0 0.5991018319127801 0.62925360607495295 0 0.57412547362576272 0.58273804879550706 0 0.5991018319127801 0.62925360607495295 0 0.5498280205245758 0.6290146943450976 0 0.65408113592120842 0.073941773121567966 0 0.66369801598854572 0.036327466368102787 0 0.7010294155333181 0.056779085686491267 0 0.27474541102162192 0.11822029332053539 0 0.32215584939770009 0.1218492143506909 0 0.29336099386129338 0.15892013001050981 0 0.33084213324567391 0.16272720141332131 0 0.29336099386129338 0.15892013001050981 0 0.32215584939770009 0.1218492143506909 0 0.5 0.29999999999999999 0 0.54999999999999993 0.29999999999999999 0 0.52752007115234678 0.33170632466418198 0 0.83573492347052902 0.36590755630746369 0 0.87430060258887643 0.34056085888204451 0 0.86844634540301924 0.38530937474099819 0 0.83758014339878906 0.63222013025741819 0 0.87159648282691515 0.61285406320581504 0 0.87712158428786946 0.65709029563313581 0 0.22278230690790279 0.44824268025881547 0 0.23975172658309729 0.49475499200540818 0 0.19604738184454831 0.47787523520405789 0 1 0.49999999999950101 0 0.95631871884947484 0.51827533208233789 0 0.96228564064454991 0.48206450662049471 0 0.1650278706801647 0.38791388161335733 0 0.13773355295499351 0.42497777642586831 0 0.1117088112799664 0.38831403004970022 0 0.61209567303293111 0.44669033081290321 0 0.57975577671020095 0.46172033326338591 0 0.57744073070774993 0.41535148636609359 0 0.077693244765132896 0.56932317963405099 0 0.1154888278694548 0.56733818459978413 0 0.1024350934457823 0.60772393977513839 0 0.68697391633157634 0.84450604838764298 0 0.65005442820240822 0.82644988530054031 0 0.68024162096458085 0.79868546898116533 0 0.76901770135486491 0.84293557325473656 0 0.77094201086366854 0.79647480515688507 0 0.80041942726660109 0.81543261647703358 0 0.77144070960558853 0.14311854477243749 0 0.76878382444651716 0.097147941686331368 0 0.80076557130237269 0.1154587552654202 0 0.5 0.69999999999999996 0 0.52584555706968406 0.66664215091846768 0 0.54999999999999993 0.69999999999999996 0 0.077693244765132896 0.56932317963405099 0 0.044576108720083309 0.53509043209532614 0 0.085622222639554768 0.53333248912060549 0 0.69999999999921003 0 0 0.72683645290270404 0.027797073151180601 0 0.7010294155333181 0.056779085686491267 0 1 0 0 0.97166519676946894 0.033371144900598393 0 0.94999999999986839 0 0 1 0.69999999999999996 0 0.97166519676947294 0.73337114490064459 0 0.94999999999999996 0.69999999999999996 0 1 0.69999999999999996 0 1 0.74999999999993494 0 0.97166519676947294 0.73337114490064459 0 1 0.29999999999999999 0 0.97166519676951801 0.26662885509932011 0 1 0.24999999999987299 0 1 1 0 0.94999999999979179 1 0 0.97166519676946206 0.96662885509935492 0 1 0 0 1 0.049999999999896842 0 0.97166519676946894 0.033371144900598393 0 1 0.29999999999999999 0 0.94999999999999996 0.29999999999999999 0 0.97166519676951801 0.26662885509932011 0 1 1 0 0.97166519676946206 0.96662885509935492 0 1 0.94999999999997109 0 0 0.55000000000173355 0 0.044576108720083309 0.53509043209532614 0 0.034381862692950467 0.57372682250960894 0 0.6879972333610942 0.43038561374960838 0 0.69385896817107129 0.48377516041410151 0 0.65178832218679827 0.45929119821019959 0 0.33084213324567391 0.16272720141332131 0 0.36246644853392812 0.1399454205365751 0 0.3572130504031617 0.1874703368446563 0 0.65408113592120842 0.073941773121567966 0 0.68330259535470161 0.10038702501083881 0 0.65290632656860115 0.11434202593454081 0 0.16500388252850301 0.66612077714085194 0 0.19068556247388771 0.71028988922845504 0 0.15332765547575641 0.71200081858233666 0 0.82709327591091286 0.84937141670920724 0 0.85600844944837662 0.88483418979512773 0 0.81159157511211755 0.88795995483179491 0 0.82709327591102189 0.14937141670914489 0 0.85600844944842547 0.1848341897950983 0 0.81283102246527783 0.1881007222486438 0 0.79999999999999982 0.29999999999999999 0 0.84999999999999987 0.29999999999999999 0 0.82500000000000062 0.33010209762754811 0 0.79999999999999982 0.69999999999999996 0 0.82457059160610424 0.66831947184359608 0 0.84999999999999987 0.69999999999999996 0 0.59999999999999976 0.69999999999999996 0 0.62460753523532009 0.66851202781000296 0 0.6499999999999998 0.69999999999999996 0 0.39801143831225599 0.16651381068160659 0 0.3572130504031617 0.1874703368446563 0 0.36246644853392812 0.1399454205365751 0 0.69999999999999984 0.29999999999999999 0 0.74999999999999989 0.29999999999999999 0 0.73090396928863699 0.33699297293167962 0 0.69999999999999984 0.69999999999999996 0 0.72500000000000064 0.67022701834392062 0 0.74999999999999989 0.69999999999999996 0 0.6236733212988993 0.14864538214901801 0 0.64011864159029941 0.18789607982138171 0 0.59443395090188023 0.18455690917515069 0 0.20050006573841939 0.53248514016039872 0 0.16618607197337229 0.50652878253548905 0 0.19604738184454831 0.47787523520405789 0 0.79680861578956375 0.22656778056752541 0 0.76587607630038135 0.18880039518954719 0 0.81283102246527783 0.1881007222486438 0 0.79680861578988083 0.92656778056766709 0 0.76891166905518427 0.88835469571185499 0 0.81159157511211755 0.88795995483179491 0 0.71406021706547751 0.63292083137662503 0 0.675261390228442 0.65996937624687813 0 0.67529834988829951 0.61613270668143583 0 0.6405463747586706 0.63290524857395714 0 0.67529834988829951 0.61613270668143583 0 0.675261390228442 0.65996937624687813 0 0.19670163708476801 0.31472518408333222 0 0.168349569971391 0.28054490850913671 0 0.21049769590865089 0.26857363548218488 0 0.47357141910802508 0.1873585799078378 0 0.46429753744194407 0.22870891180733599 0 0.42905200079338551 0.19982395548231649 0 0.59814117807200873 0.23398510860739519 0 0.5794309697024993 0.27124795968204829 0 0.54248833945060504 0.2520322959927106 0 0.6541250972820879 0.49999999999999989 0 0.65178832218679827 0.45929119821019959 0 0.69385896817107129 0.48377516041410151 0 0.54999999999999993 0.29999999999999999 0 0.5794309697024993 0.27124795968204829 0 0.59999999999999976 0.29999999999999999 0 0.7750489929959945 0.66593931409600093 0 0.74994237037456724 0.62775548192980357 0 0.79884539758237771 0.62875045078114233 0 0.77293540622714185 0.59448302402785813 0 0.79884539758237771 0.62875045078114233 0 0.74994237037456724 0.62775548192980357 0 0.14332333627550789 0.14578431753966009 0 0.16141998738593399 0.10404039647458049 0 0.18652628422869419 0.14162325200928061 0 0.38083244760691543 0.38531983672244652 0 0.42161023666869668 0.39493916313643851 0 0.38707855792647411 0.42299362914874578 0 0.43249999999999988 0.43937499999999979 0 0.38707855792647411 0.42299362914874578 0 0.42161023666869668 0.39493916313643851 0 0.43846182030517877 0.64845797726506715 0 0.47095389620662098 0.61892551373708504 0 0.47913475093885149 0.66010775372412711 0 0.50715858906372158 0.63295939104129484 0 0.47913475093885149 0.66010775372412711 0 0.47095389620662098 0.61892551373708504 0 0.69999999999999984 0.69999999999999996 0 0.74999999999999989 0.69999999999999996 0 0.72501250972655151 0.74067302935308721 0 0.4089290844030305 0.58728915500154233 0 0.35765792684946668 0.6000687869219653 0 0.37272913873093971 0.56192925302619479 0 0.69999999999921003 0 0 0.74999999999934175 0 0 0.72683645290270404 0.027797073151180601 0 0.17933913398461551 0.2350063570234002 0 0.21049769590865089 0.26857363548218488 0 0.168349569971391 0.28054490850913671 0 0.14474682429600511 0.85524784522713515 0 0.10562472963403439 0.87143394428979881 0 0.1074251789111534 0.83564394292147814 0 0.14332333627550789 0.14578431753966009 0 0.106902708054812 0.16453234188234539 0 0.1053400320299198 0.12877248826361379 0 0.2236846579037573 0.67380363126050236 0 0.19914261668318661 0.62286739485272158 0 0.2459498854893499 0.63248470766216769 0 0.049999999999899652 0 0 0.053064897599215843 0.048131547304697528 0 0.02576622439977887 0.024532886826226379 0 0 0.050000000000207989 0 0.02576622439977887 0.024532886826226379 0 0.053064897599215843 0.048131547304697528 0 0.050000000000207989 1 0 0.025766224399875661 0.97546711317377799 0 0.053064897599294662 0.95186845269532028 0 0 0.94999999999979179 0 0.053064897599294662 0.95186845269532028 0 0.025766224399875661 0.97546711317377799 0 0.47357141910802508 0.1873585799078378 0 0.48466639505193998 0.1421439844745814 0 0.51729576145820033 0.1683240575987815 0 0.077693244765132896 0.56932317963405099 0 0.085622222639554768 0.53333248912060549 0 0.1154888278694548 0.56733818459978413 0 0.64753070846764316 0.77332939069435502 0 0.63221990677827677 0.73442891067859706 0 0.66427993341343905 0.73232764502436276 0 0.4656888918609538 0.78493261229743638 0 0.42609163930740518 0.80361684430568059 0 0.42676259796334498 0.76772545931379299 0 0.4089290844030305 0.58728915500154233 0 0.39743091024207589 0.6239520004230239 0 0.35765792684946668 0.6000687869219653 0 0.55306006949600994 0.20198184231352201 0 0.50760557329222289 0.20700468884612061 0 0.51729576145820033 0.1683240575987815 0 1 0.8999999999998336 0 1 0.94999999999997109 0 0.97435614836744289 0.92499999999990257 0 1 0.19999999999974799 0 1 0.24999999999987299 0 0.97435614836740092 0.22499999999981049 0 1 0.74999999999993494 0 1 0.7999999999998193 0 0.97435614836745565 0.77499999999987745 0 1 0.049999999999896842 0 1 0.099999999999753911 0 0.97435614836748241 0.074999999999825387 0 0.86411095495256451 0.42388805655111889 0 0.86844634540301924 0.38530937474099819 0 0.90594285160987287 0.4141265964174129 0 0.86956835336234861 0.571283299838105 0 0.91143117093204207 0.58709913730335972 0 0.87159648282691515 0.61285406320581504 0 0 0 0 0.02576622439977887 0.024532886826226379 0 0 0.050000000000207989 0 0 1 0 0 0.94999999999979179 0 0.025766224399875661 0.97546711317377799 0 0 1 0 0.025766224399875661 0.97546711317377799 0 0.050000000000207989 1 0 0 0 0 0.049999999999899652 0 0 0.02576622439977887 0.024532886826226379 0 0.65394964615507722 0.22666784374016369 0 0.64011864159029941 0.18789607982138171 0 0.6865991819015953 0.189116534044597 0 0.25195515620380449 0.25883339815888678 0 0.28040350263641872 0.23054717217092141 0 0.29132859388405002 0.27203693976649962 0 0.61209567303293111 0.44669033081290321 0 0.65178832218679827 0.45929119821019959 0 0.61547661924074692 0.48539576058873962 0 0.6541250972820879 0.49999999999999989 0 0.61547661924074692 0.48539576058873962 0 0.65178832218679827 0.45929119821019959 0 0.19670163708476801 0.31472518408333222 0 0.24432083401701241 0.3006253385567515 0 0.22615676742807109 0.33458786033114157 0 0.15801167086041079 0.46008690540259539 0 0.13773355295499351 0.42497777642586831 0 0.191953871957803 0.42546416763755879 0 0.1650278706801647 0.38791388161335733 0 0.191953871957803 0.42546416763755879 0 0.13773355295499351 0.42497777642586831 0 0.50715858906372158 0.63295939104129484 0 0.52584555706968406 0.66664215091846768 0 0.47913475093885149 0.66010775372412711 0 0.5 0.69999999999999996 0 0.47913475093885149 0.66010775372412711 0 0.52584555706968406 0.66664215091846768 0 0.51076801031701946 0.1202837388510348 0 0.51729576145820033 0.1683240575987815 0 0.48466639505193998 0.1421439844745814 0 0.71406021706547751 0.63292083137662503 0 0.74994237037456724 0.62775548192980357 0 0.72500000000000064 0.67022701834392062 0 0.71508799138962864 0.36622814920737751 0 0.73090396928863699 0.33699297293167962 0 0.74764719760526988 0.3719647154012321 0 0.22278230690790279 0.44824268025881547 0 0.25982634974572738 0.46097799597715272 0 0.23975172658309729 0.49475499200540818 0 0.80185942888539485 0.77452061303608133 0 0.78578450296893509 0.73292684821144505 0 0.81864958914779962 0.73589050177899629 0 0.80185942888501827 0.074520613036224564 0 0.78393852574753176 0.032039079577822822 0 0.81864958914740749 0.035890501779055867 0 0.5 0.29999999999999999 0 0.46226845272279993 0.31901800744800313 0 0.4604742573284204 0.27846934318264788 0 0.6405463747586706 0.63290524857395714 0 0.62460753523532009 0.66851202781000296 0 0.5991018319127801 0.62925360607495295 0 0.79680861578988083 0.92656778056766709 0 0.770759834363826 0.95919399014344442 0 0.75729602384198635 0.92353652857884294 0 0.79680861578956375 0.22656778056752541 0 0.77075983436335049 0.25919399014334171 0 0.75668890529066124 0.2244279804069782 0 0.65394964615507722 0.22666784374016369 0 0.69397719155551807 0.2245125647000914 0 0.67933712972090698 0.25920070958121938 0 0.81973119833356312 0.43505687159469048 0 0.84925632466077294 0.45359738909549091 0 0.81400510706333218 0.47357325943904899 0 0.83758014339878906 0.63222013025741819 0 0.82457059160610424 0.66831947184359608 0 0.79884539758237771 0.62875045078114233 0 0.25676291524611189 0.7436741304886243 0 0.2248999640082178 0.72584299459689172 0 0.26439878998046262 0.7048065392091396 0 0.91696753777131557 0.497780560203536 0 0.90900154012161016 0.53607784105648792 0 0.86907294890112186 0.52008116128001669 0 0.17933913398461551 0.2350063570234002 0 0.168349569971391 0.28054490850913671 0 0.14377654328998779 0.2442024734791064 0 0.1247745017231483 0.27198077544791172 0 0.14377654328998779 0.2442024734791064 0 0.168349569971391 0.28054490850913671 0 0.34258405725730701 0.4444034294386992 0 0.35221190152536241 0.40457127605439203 0 0.38707855792647411 0.42299362914874578 0 0.47357141910802508 0.1873585799078378 0 0.51729576145820033 0.1683240575987815 0 0.50760557329222289 0.20700468884612061 0 0.19670163708476801 0.31472518408333222 0 0.22615676742807109 0.33458786033114157 0 0.18434624290945251 0.35208838264196463 0 0.22033343844674469 0.36963382230740238 0 0.18434624290945251 0.35208838264196463 0 0.22615676742807109 0.33458786033114157 0 0.24432083401701241 0.3006253385567515 0 0.25966125648670141 0.34351016742083729 0 0.22615676742807109 0.33458786033114157 0 0.93814194660195893 0.44426664081746747 0 0.90594285160987287 0.4141265964174129 0 0.95871855522754235 0.40006508612975411 0 0.91750694127107502 0.36982372220068471 0 0.95871855522754235 0.40006508612975411 0 0.90594285160987287 0.4141265964174129 0 0.91750694127105259 0.63017627779935648 0 0.91143117093204207 0.58709913730335972 0 0.95867599106212187 0.60011091146651041 0 0.93732437411268477 0.55911392101136159 0 0.95867599106212187 0.60011091146651041 0 0.91143117093204207 0.58709913730335972 0 0.50715858906372158 0.63295939104129484 0 0.5498280205245758 0.6290146943450976 0 0.52584555706968406 0.66664215091846768 0 0.94399509803918602 0.75600490196082126 0 0.97435614836745565 0.77499999999987745 0 0.95386563387742829 0.80414874155775029 0 0.94399509803922566 0.056004901960802607 0 0.97435614836748241 0.074999999999825387 0 0.95386563387744361 0.1041487415577465 0 0.94399509803921056 0.24399509803922639 0 0.95391631417672862 0.19584263333809451 0 0.97435614836740092 0.22499999999981049 0 0.94399509803919068 0.9439950980391687 0 0.95391631417670719 0.89584263333814784 0 0.97435614836744289 0.92499999999990257 0 0.79680861578988083 0.92656778056766709 0 0.75729602384198635 0.92353652857884294 0 0.76891166905518427 0.88835469571185499 0 0.79680861578956375 0.22656778056752541 0 0.75668890529066124 0.2244279804069782 0 0.76587607630038135 0.18880039518954719 0 0.65394964615507722 0.22666784374016369 0 0.6865991819015953 0.189116534044597 0 0.69397719155551807 0.2245125647000914 0 0.38083244760691543 0.38531983672244652 0 0.38707855792647411 0.42299362914874578 0 0.35221190152536241 0.40457127605439203 0 1 0.7999999999998193 0 0.95386563387742829 0.80414874155775029 0 0.97435614836745565 0.77499999999987745 0 1 0.099999999999753911 0 0.95386563387744361 0.1041487415577465 0 0.97435614836748241 0.074999999999825387 0 1 0.8999999999998336 0 0.97435614836744289 0.92499999999990257 0 0.95391631417670719 0.89584263333814784 0 1 0.19999999999974799 0 0.97435614836740092 0.22499999999981049 0 0.95391631417672862 0.19584263333809451 0 0.84723782639812573 0.48638347960178252 0 0.81400510706333218 0.47357325943904899 0 0.84925632466077294 0.45359738909549091 0 0.54999999999999993 0.29999999999999999 0 0.54248833945060504 0.2520322959927106 0 0.5794309697024993 0.27124795968204829 0 0.94999999999999996 0.29999999999999999 0 0.95780851984364423 0.34215720972155339 0 0.92012390126144183 0.33123581297173937 0 0.94999999999999996 0.69999999999999996 0 0.92057473616084773 0.66770436535372446 0 0.9578014258160763 0.65787212321113708 0 0.15801167086041079 0.46008690540259539 0 0.113541300460994 0.46208784312094731 0 0.13773355295499351 0.42497777642586831 0 0.7250000000005199 0.94981617647078953 0 0.68015064798562208 0.95924320340003011 0 0.68987011941058407 0.92105047536677087 0 0.65507451745379841 0.92229208810758578 0 0.68987011941058407 0.92105047536677087 0 0.68015064798562208 0.95924320340003011 0 0.77846603114747959 0.49850927265137401 0 0.77972660463949339 0.45529290596363098 0 0.81400510706333218 0.47357325943904899 0 0.27866744612395528 0.38416094670951489 0 0.25966125648670141 0.34351016742083729 0 0.29644548887253103 0.34914008784168082 0 0.61209567303293111 0.44669033081290321 0 0.61547661924074692 0.48539576058873962 0 0.57975577671020095 0.46172033326338591 0 0.57611405284611883 0.50165903596042916 0 0.57975577671020095 0.46172033326338591 0 0.61547661924074692 0.48539576058873962 0 0.7250000000005199 0.89375000000045834 0 0.76891166905518427 0.88835469571185499 0 0.75729602384198635 0.92353652857884294 0 0.72500000000001008 0.19776155966387679 0 0.76587607630038135 0.18880039518954719 0 0.75668890529066124 0.2244279804069782 0 0.72500000000001008 0.19776155966387679 0 0.69397719155551807 0.2245125647000914 0 0.6865991819015953 0.189116534044597 0 0.083411279318303222 0.089699755330707398 0 0.12372429750337779 0.095814237875728972 0 0.1053400320299198 0.12877248826361379 0 0.083411279318375747 0.91030024466934134 0 0.10562472963403439 0.87143394428979881 0 0.1241151115713819 0.9045666525468371 0 0.14617343800780541 0.93808063414349496 0 0.1241151115713819 0.9045666525468371 0 0.16206583317966519 0.89685560785156404 0 0.14618258501891079 0.062070108745602003 0 0.16141998738593399 0.10404039647458049 0 0.12372429750337779 0.095814237875728972 0 0.33277555741076909 0.36432196682010132 0 0.35221190152536241 0.40457127605439203 0 0.31778888742534622 0.40581751814196781 0 0.7250000000005199 0.94981617647078953 0 0.75729602384198635 0.92353652857884294 0 0.770759834363826 0.95919399014344442 0 0.72500000000000064 0.2498161764706 0 0.75668890529066124 0.2244279804069782 0 0.77075983436335049 0.25919399014334171 0 0.72500000000000064 0.2498161764706 0 0.67933712972090698 0.25920070958121938 0 0.69397719155551807 0.2245125647000914 0 0.6236733212988993 0.14864538214901801 0 0.61956000905586006 0.1043312481793135 0 0.65290632656860115 0.11434202593454081 0 0.81973119833356312 0.43505687159469048 0 0.81400510706333218 0.47357325943904899 0 0.77972660463949339 0.45529290596363098 0 0.25676291524611189 0.7436741304886243 0 0.29904318922293632 0.74132814928635593 0 0.2792923945214143 0.77665808831789485 0 0.36575549820117997 0.31677992835137742 0 0.32752639306529541 0.32610012995269699 0 0.33402499257867951 0.28911035184473982 0 0.14332333627550789 0.14578431753966009 0 0.18652628422869419 0.14162325200928061 0 0.18124454140915969 0.18790916706335251 0 0.57724883562309992 0.92155686857100794 0 0.5832743223239254 0.88483152652961872 0 0.61885627562261258 0.90282959257498208 0 0.57667858002728545 0.078486105337742612 0 0.61956000905586006 0.1043312481793135 0 0.58516465772821369 0.11653801664834119 0 0.80185942888539485 0.77452061303608133 0 0.80041942726660109 0.81543261647703358 0 0.77094201086366854 0.79647480515688507 0 0.80185942888501827 0.074520613036224564 0 0.80076557130237269 0.1154587552654202 0 0.76878382444651716 0.097147941686331368 0 0.64753070846764316 0.77332939069435502 0 0.68024162096458085 0.79868546898116533 0 0.65005442820240822 0.82644988530054031 0 0.26429849586623999 0.19346700179430079 0 0.25557216766470708 0.15874861286892261 0 0.29336099386129338 0.15892013001050981 0 0.29348325746214782 0.31350119524708198 0 0.29644548887253103 0.34914008784168082 0 0.25966125648670141 0.34351016742083729 0 0.68391457121233579 0.14440470121196541 0 0.65290632656860115 0.11434202593454081 0 0.68330259535470161 0.10038702501083881 0 0.91750694127107502 0.36982372220068471 0 0.92012390126144183 0.33123581297173937 0 0.95780851984364423 0.34215720972155339 0 0.91750694127105259 0.63017627779935648 0 0.9578014258160763 0.65787212321113708 0 0.92057473616084773 0.66770436535372446 0 0.22033343844674469 0.36963382230740238 0 0.22615676742807109 0.33458786033114157 0 0.25966125648670141 0.34351016742083729 0 1 0.94999999999997109 0 0.97166519676946206 0.96662885509935492 0 0.97435614836744289 0.92499999999990257 0 0.94399509803919068 0.9439950980391687 0 0.97435614836744289 0.92499999999990257 0 0.97166519676946206 0.96662885509935492 0 0.94399509803921056 0.24399509803922639 0 0.97435614836740092 0.22499999999981049 0 0.97166519676951801 0.26662885509932011 0 1 0.24999999999987299 0 0.97166519676951801 0.26662885509932011 0 0.97435614836740092 0.22499999999981049 0 1 0.74999999999993494 0 0.97435614836745565 0.77499999999987745 0 0.97166519676947294 0.73337114490064459 0 1 0.049999999999896842 0 0.97435614836748241 0.074999999999825387 0 0.97166519676946894 0.033371144900598393 0 0.94399509803918602 0.75600490196082126 0 0.97166519676947294 0.73337114490064459 0 0.97435614836745565 0.77499999999987745 0 0.94399509803922566 0.056004901960802607 0 0.97166519676946894 0.033371144900598393 0 0.97435614836748241 0.074999999999825387 0 0.77846603114747959 0.49850927265137401 0 0.81400510706333218 0.47357325943904899 0 0.81441713509985358 0.51161854125224959 0 0.77354604466818633 0.40378688774472771 0 0.72622533758026719 0.40265885511101601 0 0.74764719760526988 0.3719647154012321 0 0.71508799138962864 0.36622814920737751 0 0.74764719760526988 0.3719647154012321 0 0.72622533758026719 0.40265885511101601 0 0.84723782639812573 0.48638347960178252 0 0.84925632466077294 0.45359738909549091 0 0.88594198078881503 0.46167788676578442 0 0.86411095495256451 0.42388805655111889 0 0.88594198078881503 0.46167788676578442 0 0.84925632466077294 0.45359738909549091 0 0.43846182030517877 0.64845797726506715 0 0.43545892161006339 0.61093128915313821 0 0.47095389620662098 0.61892551373708504 0 0.33123028043633618 0.77629643437932982 0 0.35642984951668422 0.80994399665655703 0 0.30857225866488791 0.81101973481716805 0 0.33403534827021109 0.84402799729020661 0 0.30857225866488791 0.81101973481716805 0 0.35642984951668422 0.80994399665655703 0 0.26429849586623999 0.19346700179430079 0 0.31255190597181792 0.19850845631528771 0 0.28040350263641872 0.23054717217092141 0 0.57724883562309992 0.92155686857100794 0 0.54783390826260769 0.89287767010860219 0 0.5832743223239254 0.88483152652961872 0 0.55899371797446828 0.85003102233514438 0 0.5832743223239254 0.88483152652961872 0 0.54783390826260769 0.89287767010860219 0 0.4089290844030305 0.58728915500154233 0 0.43545892161006339 0.61093128915313821 0 0.39743091024207589 0.6239520004230239 0 0.77293540622714185 0.59448302402785813 0 0.81723410853263523 0.59419663659258926 0 0.79884539758237771 0.62875045078114233 0 0.83758014339878906 0.63222013025741819 0 0.79884539758237771 0.62875045078114233 0 0.81723410853263523 0.59419663659258926 0 0.35864735590330371 0.63903383440414463 0 0.39743091024207589 0.6239520004230239 0 0.3977710372045391 0.65868194622830212 0 0.56202748619534593 0.15054058349222879 0 0.54979595918804436 0.1060565713905809 0 0.58516465772821369 0.11653801664834119 0 0.57667858002728545 0.078486105337742612 0 0.58516465772821369 0.11653801664834119 0 0.54979595918804436 0.1060565713905809 0 0.33122374654748771 0.57588941099433744 0 0.37272913873093971 0.56192925302619479 0 0.35765792684946668 0.6000687869219653 0 0.35864735590330371 0.63903383440414463 0 0.35765792684946668 0.6000687869219653 0 0.39743091024207589 0.6239520004230239 0 0.71508799138962864 0.36622814920737751 0 0.68887083591306764 0.33632058575757479 0 0.73090396928863699 0.33699297293167962 0 0.29348325746214782 0.31350119524708198 0 0.32752639306529541 0.32610012995269699 0 0.29644548887253103 0.34914008784168082 0 0.33277555741076909 0.36432196682010132 0 0.29644548887253103 0.34914008784168082 0 0.32752639306529541 0.32610012995269699 0 0.34258405725730701 0.4444034294386992 0 0.31778888742534622 0.40581751814196781 0 0.35221190152536241 0.40457127605439203 0 0.79999999999999982 0.69999999999999996 0 0.81864958914779962 0.73589050177899629 0 0.78578450296893509 0.73292684821144505 0 0.79999999999947335 0 0 0.81864958914740749 0.035890501779055867 0 0.78393852574753176 0.032039079577822822 0 0.27474541102162192 0.11822029332053539 0 0.29336099386129338 0.15892013001050981 0 0.25557216766470708 0.15874861286892261 0 0 0.45000000000187229 0 0.035463093262830522 0.42673416072819947 0 0.033550201249889847 0.46247875832467239 0 0.6499999999999998 0.69999999999999996 0 0.66427993341343905 0.73232764502436276 0 0.63221990677827677 0.73442891067859706 0 0.84723782639812573 0.48638347960178252 0 0.81441713509985358 0.51161854125224959 0 0.81400510706333218 0.47357325943904899 0 0.26104540868854792 0.81401944968719064 0 0.30857225866488791 0.81101973481716805 0 0.29209212897034281 0.84715728365233667 0 0.33403534827021109 0.84402799729020661 0 0.29209212897034281 0.84715728365233667 0 0.30857225866488791 0.81101973481716805 0 0.69999999999999984 0.29999999999999999 0 0.73090396928863699 0.33699297293167962 0 0.68887083591306764 0.33632058575757479 0 
</DataArray>
</Points>
<Cells>
<DataArray type="UInt32" Name="connectivity" format="ascii">
0 1 2 3 4 5 6 7 8 9 10 11 12 13 14 15 16 17 18 19 20 21 22 23 24 25 26 27 28 29 30 31 32 33 34 35 36 37 38 39 40 41 42 43 44 45 46 47 48 49 50 51 52 53 54 55 56 57 58 59 60 61 62 63 64 65 66 67 68 69 70 71 72 73 74 75 76 77 78 79 80 81 82 83 84 85 86 87 88 89 90 91 92 93 94 95 96 97 98 99 100 101 102 103 104 105 106 107 108 109 110 111 112 113 114 115 116 117 118 119 120 121 122 123 124 125 126 127 128 129 130 131 132 133 134 135 136 137 138 139 140 141 142 143 144 145 146 147 148 149 150 151 152 153 154 155 156 157 158 159 160 161 162 163 164 165 166 167 168 169 170 171 172 173 174 175 176 177 178 179 180 181 182 183 184 185 186 187 188 189 190 191 192 193 194 195 196 197 198 199 200 201 202 203 204 205 206 207 208 209 210 211 212 213 214 215 216 217 218 219 220 221 222 223 224 225 226 227 228 229 230 231 232 233 234 235 236 237 238 239 240 241 242 243 244 245 246 247 248 249 250 251 252 253 254 255 256 257 258 259 260 261 262 263 264 265 266 267 268 269 270 271 272 273 274 275 276 277 278 279 280 281 282 283 284 285 286 287 288 289 290 291 292 293 294 295 296 297 298 299 300 301 302 303 304 305 306 307 308 309 310 311 312 313 314 315 316 317 318 319 320 321 322 323 324 325 326 327 328 329 330 331 332 333 334 335 336 337 338 339 340 341 342 343 344 345 346 347 348 349 350 351 352 353 354 355 356 357 358 359 360 361 362 363 364 365 366 367 368 369 370 371 372 373 374 375 376 377 378 379 380 381 382 383 384 385 386 387 388 389 390 391 392 393 394 395 396 397 398 399 400 401 402 403 404 405 406 407 408 409 410 411 412 413 414 415 416 417 418 419 420 421 422 423 424 425 426 427 428 429 430 431 432 433 434 435 436 437 438 439 440 441 442 443 444 445 446 447 448 449 450 451 452 453 454 455 456 457 458 459 460 461 462 463 464 465 466 467 468 469 470 471 472 473 474 475 476 477 478 479 480 481 482 483 484 485 486 487 488 489 490 491 492 493 494 495 496 497 498 499 500 501 502 503 504 505 506 507 508 509 510 511 512 513 514 515 516 517 518 519 520 521 522 523 524 525 526 527 528 529 530 531 532 533 534 535 536 537 538 539 540 541 542 543 544 545 546 547 548 549 550 551 552 553 554 555 556 557 558 559 560 561 562 563 564 565 566 567 568 569 570 571 572 573 574 575 576 577 578 579 580 581 582 583 584 585 586 587 588 589 590 591 592 593 594 595 596 597 598 599 600 601 602 603 604 605 606 607 608 609 610 611 612 613 614 615 616 617 618 619 620 621 622 623 624 625 626 627 628 629 630 631 632 633 634 635 636 637 638 639 640 641 642 643 644 645 646 647 648 649 650 651 652 653 654 655 656 657 658 659 660 661 662 663 664 665 666 667 668 669 670 671 672 673 674 675 676 677 678 679 680 681 682 683 684 685 686 687 688 689 690 691 692 693 694 695 696 697 698 699 700 701 702 703 704 705 706 707 708 709 710 711 712 713 714 715 716 717 718 719 720 721 722 723 724 725 726 727 728 729 730 731 732 733 734 735 736 737 738 739 740 741 742 743 744 745 746 747 748 749 750 751 752 753 754 755 756 757 758 759 760 761 762 763 764 765 766 767 768 769 770 771 772 773 774 775 776 777 778 779 780 781 782 783 784 785 786 787 788 789 790 791 792 793 794 795 796 797 798 799 800 801 802 803 804 805 806 807 808 809 810 811 812 813 814 815 816 817 818 819 820 821 822 823 824 825 826 827 828 829 830 831 832 833 834 835 836 837 838 839 840 841 842 843 844 845 846 847 848 849 850 851 852 853 854 855 856 857 858 859 860 861 862 863 864 865 866 867 868 869 870 871 872 873 874 875 876 877 878 879 880 881 882 883 884 885 886 887 888 889 890 891 892 893 894 895 896 897 898 899 900 901 902 903 904 905 906 907 908 909 910 911 912 913 914 915 916 917 918 919 920 921 922 923 924 925 926 927 928 929 930 931 932 933 934 935 936 937 938 939 940 941 942 943 944 945 946 947 948 949 950 951 952 953 954 955 956 957 958 959 960 961 962 963 964 965 966 967 968 969 970 971 972 973 974 975 976 977 978 979 980 981 982 983 984 985 986 987 988 989 990 991 992 993 994 995 996 997 998 999 1000 1001 1002 1003 1004 1005 1006 1007 1008 1009 1010 1011 1012 1013 1014 1015 1016 1017 1018 1019 1020 1021 1022 1023 1024 1025 1026 1027 1028 1029 1030 1031 1032 1033 1034 1035 1036 1037 1038 1039 1040 1041 1042 1043 1044 1045 1046 1047 1048 1049 1050 1051 1052 1053 1054 1055 1056 1057 1058 1059 1060 1061 1062 1063 1064 1065 1066 1067 1068 1069 1070 1071 1072 1073 1074 1075 1076 1077 1078 1079 1080 1081 1082 1083 1084 1085 1086 1087 1088 1089 1090 1091 1092 1093 1094 1095 1096 1097 1098 1099 1100 1101 1102 1103 1104 1105 1106 1107 1108 1109 1110 1111 1112 1113 1114 1115 1116 1117 1118 1119 1120 1121 1122 1123 1124 1125 1126 1127 1128 1129 1130 1131 1132 1133 1134 1135 1136 1137 1138 1139 1140 1141 1142 1143 1144 1145 1146 1147 1148 1149 1150 1151 1152 1153 1154 1155 1156 1157 1158 1159 1160 1161 1162 1163 1164 1165 1166 1167 1168 1169 1170 1171 1172 1173 1174 1175 1176 1177 1178 1179 1180 1181 1182 1183 1184 1185 1186 1187 1188 1189 1190 1191 1192 1193 1194 1195 1196 1197 1198 1199 1200 1201 1202 1203 1204 1205 1206 1207 1208 1209 1210 1211 1212 1213 1214 1215 1216 1217 1218 1219 1220 1221 1222 1223 1224 1225 1226 1227 1228 1229 1230 1231 1232 1233 1234 1235 1236 1237 1238 1239 1240 1241 1242 1243 1244 1245 1246 1247 1248 1249 1250 1251 1252 1253 1254 1255 1256 1257 1258 1259 1260 1261 1262 1263 1264 1265 1266 1267 1268 1269 1270 1271 1272 1273 1274 1275 1276 1277 1278 1279 1280 1281 1282 1283 1284 1285 1286 1287 1288 1289 1290 1291 1292 1293 1294 1295 1296 1297 1298 1299 1300 1301 1302 1303 1304 1305 1306 1307 1308 1309 1310 1311 1312 1313 1314 1315 1316 1317 1318 1319 1320 1321 1322 1323 1324 1325 1326 1327 1328 1329 1330 1331 1332 1333 1334 1335 1336 1337 1338 1339 1340 1341 1342 1343 1344 1345 1346 1347 1348 1349 1350 1351 1352 1353 1354 1355 1356 1357 1358 1359 1360 1361 1362 1363 1364 1365 1366 1367 1368 1369 1370 1371 1372 1373 1374 1375 1376 1377 1378 1379 1380 1381 1382 1383 1384 1385 1386 1387 1388 1389 1390 1391 1392 1393 1394 1395 1396 1397 1398 1399 1400 1401 1402 1403 1404 1405 1406 1407 1408 1409 1410 1411 1412 1413 1414 1415 1416 1417 1418 1419 1420 1421 1422 1423 1424 1425 1426 1427 1428 1429 1430 1431 1432 1433 1434 1435 1436 1437 1438 1439 1440 1441 1442 1443 1444 1445 1446 1447 1448 1449 1450 1451 1452 1453 1454 1455 1456 1457 1458 1459 1460 1461 1462 1463 1464 1465 1466 1467 1468 1469 1470 1471 1472 1473 1474 1475 1476 1477 1478 1479 1480 1481 1482 1483 1484 1485 1486 1487 1488 1489 1490 1491 1492 1493 1494 1495 1496 1497 1498 1499 1500 1501 1502 1503 1504 1505 1506 1507 1508 1509 1510 1511 1512 1513 1514 1515 1516 1517 1518 1519 1520 1521 1522 1523 1524 1525 1526 1527 1528 1529 1530 1531 1532 1533 1534 1535 1536 1537 1538 1539 1540 1541 1542 1543 1544 1545 1546 1547 1548 1549 1550 1551 1552 1553 1554 1555 1556 1557 1558 1559 1560 1561 1562 1563 1564 1565 1566 1567 1568 1569 1570 1571 1572 1573 1574 1575 1576 1577 1578 1579 1580 1581 1582 1583 1584 1585 1586 1587 1588 1589 1590 1591 1592 1593 1594 1595 1596 1597 1598 1599 1600 1601 1602 1603 1604 1605 1606 1607 1608 1609 1610 1611 1612 1613 1614 1615 1616 1617 1618 1619 1620 1621 1622 1623 1624 1625 1626 1627 1628 1629 1630 1631 1632 1633 1634 1635 1636 1637 1638 1639 1640 1641 1642 1643 1644 1645 1646 1647 1648 1649 1650 1651 1652 1653 1654 1655 1656 1657 1658 1659 1660 1661 1662 1663 1664 1665 1666 1667 1668 1669 1670 1671 1672 1673 1674 1675 1676 1677 1678 1679 1680 1681 1682 1683 1684 1685 1686 1687 1688 1689 1690 1691 1692 1693 1694 1695 1696 1697 1698 1699 1700 1701 1702 1703 1704 1705 1706 1707 1708 1709 1710 1711 1712 1713 1714 1715 1716 1717 1718 1719 1720 1721 1722 1723 1724 1725 1726 1727 1728 1729 1730 1731 1732 1733 1734 1735 1736 1737 1738 1739 1740 1741 1742 1743 1744 1745 1746 1747 1748 1749 1750 1751 1752 1753 1754 1755 1756 1757 1758 1759 1760 1761 1762 1763 1764 1765 1766 1767 1768 1769 1770 1771 1772 1773 1774 1775 1776 1777 1778 1779 1780 1781 1782 1783 1784 1785 1786 1787 1788 1789 1790 1791 1792 1793 1794 1795 1796 1797 1798 1799 1800 1801 1802 1803 1804 1805 1806 1807 1808 1809 1810 1811 1812 1813 1814 1815 1816 1817 1818 1819 1820 1821 1822 1823 1824 1825 1826 1827 1828 1829 1830 1831 1832 1833 1834 1835 1836 1837 1838 1839 1840 1841 1842 1843 1844 1845 1846 1847 1848 1849 1850 1851 1852 1853 1854 1855 1856 1857 1858 1859 1860 1861 1862 1863 1864 1865 1866 1867 1868 1869 1870 1871 1872 1873 1874 1875 1876 1877 1878 1879 1880 1881 1882 1883 1884 1885 1886 1887 1888 1889 1890 1891 1892 1893 1894 1895 1896 1897 1898 1899 1900 1901 1902 1903 1904 1905 1906 1907 1908 1909 1910 1911 1912 1913 1914 1915 1916 1917 1918 1919 1920 1921 1922 1923 1924 1925 1926 1927 1928 1929 1930 1931 1932 1933 1934 1935 1936 1937 1938 1939 1940 1941 1942 1943 1944 1945 1946 1947 1948 1949 1950 1951 1952 1953 1954 1955 1956 1957 1958 1959 1960 1961 1962 1963 1964 1965 1966 1967 1968 1969 1970 1971 1972 1973 1974 1975 1976 1977 1978 1979 1980 1981 1982 1983 1984 1985 1986 1987 1988 1989 1990 1991 1992 1993 1994 1995 1996 1997 1998 1999 2000 2001 2002 2003 2004 2005 2006 2007 2008 2009 2010 2011 2012 2013 2014 2015 2016 2017 2018 2019 2020 2021 2022 2023 2024 2025 2026 2027 2028 2029 2030 2031 2032 2033 2034 2035 2036 2037 2038 2039 2040 2041 2042 2043 2044 2045 2046 2047 2048 2049 2050 2051 2052 2053 2054 2055 2056 2057 2058 2059 2060 2061 2062 2063 2064 2065 2066 2067 2068 2069 2070 2071 2072 2073 2074 2075 2076 2077 2078 2079 2080 2081 2082 2083 2084 2085 2086 2087 2088 2089 2090 2091 2092 2093 2094 2095 2096 2097 2098 2099 2100 2101 2102 2103 2104 2105 2106 2107 2108 2109 2110 2111 2112 2113 2114 2115 2116 2117 2118 2119 2120 2121 2122 2123 2124 2125 2126 2127 2128 2129 2130 2131 2132 2133 2134 2135 2136 2137 2138 2139 2140 2141 2142 2143 2144 2145 2146 2147 2148 2149 2150 2151 2152 2153 2154 2155 2156 2157 2158 2159 2160 2161 2162 2163 2164 2165 2166 2167 2168 2169 2170 2171 2172 2173 2174 2175 2176 2177 2178 2179 2180 2181 2182 2183 2184 2185 2186 2187 2188 2189 2190 2191 2192 2193 2194 2195 2196 2197 2198 2199 2200 2201 2202 2203 2204 2205 2206 2207 2208 2209 2210 2211 2212 2213 2214 2215 2216 2217 2218 2219 2220 2221 2222 2223 2224 2225 2226 2227 2228 2229 2230 2231 2232 2233 2234 2235 2236 2237 2238 2239 2240 2241 2242 2243 2244 2245 2246 2247 2248 2249 2250 2251 2252 2253 2254 2255 2256 2257 2258 2259 2260 2261 2262 2263 2264 2265 2266 2267 2268 2269 2270 2271 2272 2273 2274 2275 2276 2277 2278 2279 2280 2281 2282 2283 2284 2285 2286 2287 2288 2289 2290 2291 2292 2293 2294 2295 2296 2297 2298 2299 2300 2301 2302 2303 2304 2305 2306 2307 2308 2309 2310 2311 2312 2313 2314 2315 2316 2317 2318 2319 2320 2321 2322 2323 2324 2325 2326 2327 2328 2329 2330 2331 2332 2333 2334 2335 2336 2337 2338 2339 2340 2341 2342 2343 2344 2345 2346 2347 2348 2349 2350 2351 2352 2353 2354 2355 2356 2357 2358 2359 2360 2361 2362 2363 2364 2365 2366 2367 2368 2369 2370 2371 2372 2373 2374 2375 2376 2377 2378 2379 2380 2381 2382 2383 2384 2385 2386 2387 2388 2389 2390 2391 2392 2393 2394 2395 2396 2397 2398 2399 2400 2401 2402 2403 2404 2405 2406 2407 2408 2409 2410 2411 2412 2413 2414 2415 2416 2417 2418 2419 2420 2421 2422 2423 2424 2425 2426 2427 2428 2429 2430 2431 2432 2433 2434 2435 2436 2437 2438 2439 2440 2441 2442 2443 2444 2445 2446 2447 2448 2449 2450 2451 2452 2453 2454 2455 2456 2457 2458 2459 2460 2461 2462 2463 2464 2465 2466 2467 2468 2469 2470 2471 2472 2473 2474 2475 2476 2477 2478 2479 2480 2481 2482 2483 2484 2485 2486 2487 2488 2489 2490 2491 2492 2493 2494 2495 2496 2497 2498 2499 2500 2501 2502 2503 2504 2505 2506 2507 2508 2509 2510 2511 2512 2513 2514 2515 2516 2517 2518 2519 2520 2521 2522 2523 2524 2525 2526 2527 2528 2529 2530 2531 2532 2533 2534 2535 2536 2537 2538 2539 2540 2541 2542 2543 2544 2545 2546 2547 2548 2549 2550 2551 2552 2553 2554 2555 2556 2557 2558 2559 2560 2561 2562 2563 2564 2565 2566 2567 2568 2569 2570 2571 2572 2573 2574 2575 2576 2577 2578 2579 2580 2581 2582 2583 2584 2585 2586 2587 2588 2589 2590 2591 2592 2593 2594 2595 2596 2597 2598 2599 2600 2601 2602 2603 2604 2605 2606 2607 2608 2609 2610 2611 2612 2613 2614 2615 2616 2617 2618 2619 2620 2621 2622 2623 2624 2625 2626 2627 2628 2629 2630 2631 2632 2633 2634 2635 2636 2637 2638 2639 2640 2641 2642 2643 2644 2645 2646 2647 2648 2649 2650 2651 2652 2653 2654 2655 2656 2657 2658 2659 2660 2661 2662 2663 2664 2665 2666 2667 2668 2669 2670 2671 2672 2673 2674 2675 2676 2677 2678 2679 2680 2681 2682 2683 2684 2685 2686 2687 2688 2689 2690 2691 2692 2693 2694 2695 2696 2697 2698 2699 2700 2701 2702 2703 2704 2705 2706 2707 2708 2709 2710 2711 2712 2713 2714 2715 2716 2717 2718 2719 2720 2721 2722 2723 2724 2725 2726 2727 2728 2729 2730 2731 2732 2733 2734 2735 2736 2737 2738 2739 2740 2741 2742 2743 2744 2745 2746 2747 2748 2749 2750 2751 2752 2753 2754 2755 2756 2757 2758 2759 2760 2761 2762 2763 2764 2765 2766 2767 2768 2769 2770 2771 2772 2773 2774 2775 2776 2777 2778 2779 2780 2781 2782 2783 2784 2785 2786 2787 2788 2789 2790 2791 2792 2793 2794 2795 2796 2797 2798 2799 2800 2801 2802 2803 2804 2805 2806 2807 2808 2809 2810 2811 2812 2813 2814 2815 2816 2817 2818 2819 2820 2821 2822 2823 2824 2825 2826 2827 2828 2829 2830 2831 2832 2833 2834 2835 2836 2837 2838 2839 2840 2841 2842 2843 2844 2845 2846 2847 2848 2849 2850 2851 2852 2853 2854 2855 2856 2857 2858 2859 2860 2861 2862 2863 2864 2865 2866 2867 2868 2869 2870 2871 2872 2873 2874 2875 2876 2877 2878 2879 2880 2881 2882 2883 2884 2885 2886 2887 2888 2889 2890 2891 2892 2893 2894 2895 2896 2897 2898 2899 2900 2901 2902 2903 2904 2905 2906 2907 2908 2909 2910 2911 2912 2913 2914 2915 2916 2917 2918 2919 2920 2921 2922 2923 2924 2925 2926 2927 2928 2929 2930 2931 2932 2933 2934 2935 2936 2937 2938 2939 2940 2941 2942 2943 2944 2945 2946 2947 2948 2949 2950 2951 2952 2953 2954 2955 2956 2957 2958 2959 2960 2961 2962 2963 2964 2965 2966 2967 2968 2969 2970 2971 2972 2973 2974 2975 2976 2977 2978 2979 2980 2981 2982 2983 2984 2985 2986 2987 2988 2989 2990 2991 2992 2993 2994 2995 2996 2997 2998 2999 3000 3001 3002 3003 3004 3005 3006 3007 3008 3009 3010 3011 3012 3013 3014 3015 3016 3017 3018 3019 3020 3021 3022 3023 3024 3025 3026 3027 3028 3029 3030 3031 3032 3033 3034 3035 3036 3037 3038 3039 3040 3041 3042 3043 3044 3045 3046 3047 3048 3049 3050 3051 3052 3053 3054 3055 3056 3057 3058 3059 3060 3061 3062 3063 3064 3065 3066 3067 3068 3069 3070 3071 3072 3073 3074 3075 3076 3077 3078 3079 3080 3081 3082 3083 3084 3085 3086 3087 3088 3089 3090 3091 3092 3093 3094 3095 3096 3097 3098 3099 3100 3101 3102 3103 3104 3105 3106 3107 3108 3109 3110 3111 3112 3113 3114 3115 3116 3117 3118 3119 3120 3121 3122 3123 3124 3125 3126 3127 3128 3129 3130 3131 3132 3133 3134 3135 3136 3137 3138 3139 3140 3141 
</DataArray>
<DataArray type="UInt32" Name="offsets" format="ascii">
2 4 6 8 10 12 14 16 18 20 22 24 26 28 30 32 34 36 38 40 43 46 49 52 55 58 61 64 67 70 73 76 79 82 85 88 91 94 97 100 103 106 109 112 115 118 121 124 127 130 133 136 139 142 145 148 151 154 157 160 163 166 169 172 175 178 181 184 187 190 193 196 199 202 205 208 211 214 217 220 223 226 229 232 235 238 241 244 247 250 253 256 259 262 265 268 271 274 277 280 283 286 289 292 295 298 301 304 307 310 313 316 319 322 325 328 331 334 337 340 343 346 349 352 355 358 361 364 367 370 373 376 379 382 385 388 391 394 397 400 403 406 409 412 415 418 421 424 427 430 433 436 439 442 445 448 451 454 457 460 463 466 469 472 475 478 481 484 487 490 493 496 499 502 505 508 511 514 517 520 523 526 529 532 535 538 541 544 547 550 553 556 559 562 565 568 571 574 577 580 583 586 589 592 595 598 601 604 607 610 613 616 619 622 625 628 631 634 637 640 643 646 649 652 655 658 661 664 667 670 673 676 679 682 685 688 691 694 697 700 703 706 709 712 715 718 721 724 727 730 733 736 739 742 745 748 751 754 757 760 763 766 769 772 775 778 781 784 787 790 793 796 799 802 805 808 811 814 817 820 823 826 829 832 835 838 841 844 847 850 853 856 859 862 865 868 871 874 877 880 883 886 889 892 895 898 901 904 907 910 913 916 919 922 925 928 931 934 937 940 943 946 949 952 955 958 961 964 967 970 973 976 979 982 985 988 991 994 997 1000 1003 1006 1009 1012 1015 1018 1021 1024 1027 1030 1033 1036 1039 1042 1045 1048 1051 1054 1057 1060 1063 1066 1069 1072 1075 1078 1081 1084 1087 1090 1093 1096 1099 1102 1105 1108 1111 1114 1117 1120 1123 1126 1129 1132 1135 1138 1141 1144 1147 1150 1153 1156 1159 1162 1165 1168 1171 1174 1177 1180 1183 1186 1189 1192 1195 1198 1201 1204 1207 1210 1213 1216 1219 1222 1225 1228 1231 1234 1237 1240 1243 1246 1249 1252 1255 1258 1261 1264 1267 1270 1273 1276 1279 1282 1285 1288 1291 1294 1297 1300 1303 1306 1309 1312 1315 1318 1321 1324 1327 1330 1333 1336 1339 1342 1345 1348 1351 1354 1357 1360 1363 1366 1369 1372 1375 1378 1381 1384 1387 1390 1393 1396 1399 1402 1405 1408 1411 1414 1417 1420 1423 1426 1429 1432 1435 1438 1441 1444 1447 1450 1453 1456 1459 1462 1465 1468 1471 1474 1477 1480 1483 1486 1489 1492 1495 1498 1501 1504 1507 1510 1513 1516 1519 1522 1525 1528 1531 1534 1537 1540 1543 1546 1549 1552 1555 1558 1561 1564 1567 1570 1573 1576 1579 1582 1585 1588 1591 1594 1597 1600 1603 1606 1609 1612 1615 1618 1621 1624 1627 1630 1633 1636 1639 1642 1645 1648 1651 1654 1657 1660 1663 1666 1669 1672 1675 1678 1681 1684 1687 1690 1693 1696 1699 1702 1705 1708 1711 1714 1717 1720 1723 1726 1729 1732 1735 1738 1741 1744 1747 1750 1753 1756 1759 1762 1765 1768 1771 1774 1777 1780 1783 1786 1789 1792 1795 1798 1801 1804 1807 1810 1813 1816 1819 1822 1825 1828 1831 1834 1837 1840 1843 1846 1849 1852 1855 1858 1861 1864 1867 1870 1873 1876 1879 1882 1885 1888 1891 1894 1897 1900 1903 1906 1909 1912 1915 1918 1921 1924 1927 1930 1933 1936 1939 1942 1945 1948 1951 1954 1957 1960 1963 1966 1969 1972 1975 1978 1981 1984 1987 1990 1993 1996 1999 2002 2005 2008 2011 2014 2017 2020 2023 2026 2029 2032 2035 2038 2041 2044 2047 2050 2053 2056 2059 2062 2065 2068 2071 2074 2077 2080 2083 2086 2089 2092 2095 2098 2101 2104 2107 2110 2113 2116 2119 2122 2125 2128 2131 2134 2137 2140 2143 2146 2149 2152 2155 2158 2161 2164 2167 2170 2173 2176 2179 2182 2185 2188 2191 2194 2197 2200 2203 2206 2209 2212 2215 2218 2221 2224 2227 2230 2233 2236 2239 2242 2245 2248 2251 2254 2257 2260 2263 2266 2269 2272 2275 2278 2281 2284 2287 2290 2293 2296 2299 2302 2305 2308 2311 2314 2317 2320 2323 2326 2329 2332 2335 2338 2341 2344 2347 2350 2353 2356 2359 2362 2365 2368 2371 2374 2377 2380 2383 2386 2389 2392 2395 2398 2401 2404 2407 2410 2413 2416 2419 2422 2425 2428 2431 2434 2437 2440 2443 2446 2449 2452 2455 2458 2461 2464 2467 2470 2473 2476 2479 2482 2485 2488 2491 2494 2497 2500 2503 2506 2509 2512 2515 2518 2521 2524 2527 2530 2533 2536 2539 2542 2545 2548 2551 2554 2557 2560 2563 2566 2569 2572 2575 2578 2581 2584 2587 2590 2593 2596 2599 2602 2605 2608 2611 2614 2617 2620 2623 2626 2629 2632 2635 2638 2641 2644 2647 2650 2653 2656 2659 2662 2665 2668 2671 2674 2677 2680 2683 2686 2689 2692 2695 2698 2701 2704 2707 2710 2713 2716 2719 2722 2725 2728 2731 2734 2737 2740 2743 2746 2749 2752 2755 2758 2761 2764 2767 2770 2773 2776 2779 2782 2785 2788 2791 2794 2797 2800 2803 2806 2809 2812 2815 2818 2821 2824 2827 2830 2833 2836 2839 2842 2845 2848 2851 2854 2857 2860 2863 2866 2869 2872 2875 2878 2881 2884 2887 2890 2893 2896 2899 2902 2905 2908 2911 2914 2917 2920 2923 2926 2929 2932 2935 2938 2941 2944 2947 2950 2953 2956 2959 2962 2965 2968 2971 2974 2977 2980 2983 2986 2989 2992 2995 2998 3001 3004 3007 3010 3013 3016 3019 3022 3025 3028 3031 3034 3037 3040 3043 3046 3049 3052 3055 3058 3061 3064 3067 3070 3073 3076 3079 3082 3085 3088 3091 3094 3097 3100 3103 3106 3109 3112 3115 3118 3121 3124 3127 3130 3133 3136 3139 3142 
</DataArray>
<DataArray type="UInt32" Name="types" format="ascii">
3 3 3 3 3 3 3 3 3 3 3 3 3 3 3 3 3 3 3 3 5 5 5 5 5 5 5 5 5 5 5 5 5 5 5 5 5 5 5 5 5 5 5 5 5 5 5 5 5 5 5 5 5 5 5 5 5 5 5 5 5 5 5 5 5 5 5 5 5 5 5 5 5 5 5 5 5 5 5 5 5 5 5 5 5 5 5 5 5 5 5 5 5 5 5 5 5 5 5 5 5 5 5 5 5 5 5 5 5 5 5 5 5 5 5 5 5 5 5 5 5 5 5 5 5 5 5 5 5 5 5 5 5 5 5 5 5 5 5 5 5 5 5 5 5 5 5 5 5 5 5 5 5 5 5 5 5 5 5 5 5 5 5 5 5 5 5 5 5 5 5 5 5 5 5 5 5 5 5 5 5 5 5 5 5 5 5 5 5 5 5 5 5 5 5 5 5 5 5 5 5 5 5 5 5 5 5 5 5 5 5 5 5 5 5 5 5 5 5 5 5 5 5 5 5 5 5 5 5 5 5 5 5 5 5 5 5 5 5 5 5 5 5 5 5 5 5 5 5 5 5 5 5 5 5 5 5 5 5 5 5 5 5 5 5 5 5 5 5 5 5 5 5 5 5 5 5 5 5 5 5 5 5 5 5 5 5 5 5 5 5 5 5 5 5 5 5 5 5 5 5 5 5 5 5 5 5 5 5 5 5 5 5 5 5 5 5 5 5 5 5 5 5 5 5 5 5 5 5 5 5 5 5 5 5 5 5 5 5 5 5 5 5 5 5 5 5 5 5 5 5 5 5 5 5 5 5 5 5 5 5 5 5 5 5 5 5 5 5 5 5 5 5 5 5 5 5 5 5 5 5 5 5 5 5 5 5 5 5 5 5 5 5 5 5 5 5 5 5 5 5 5 5 5 5 5 5 5 5 5 5 5 5 5 5 5 5 5 5 5 5 5 5 5 5 5 5 5 5 5 5 5 5 5 5 5 5 5 5 5 5 5 5 5 5 5 5 5 5 5 5 5 5 5 5 5 5 5 5 5 5 5 5 5 5 5 5 5 5 5 5 5 5 5 5 5 5 5 5 5 5 5 5 5 5 5 5 5 5 5 5 5 5 5 5 5 5 5 5 5 5 5 5 5 5 5 5 5 5 5 5 5 5 5 5 5 5 5 5 5 5 5 5 5 5 5 5 5 5 5 5 5 5 5 5 5 5 5 5 5 5 5 5 5 5 5 5 5 5 5 5 5 5 5 5 5 5 5 5 5 5 5 5 5 5 5 5 5 5 5 5 5 5 5 5 5 5 5 5 5 5 5 5 5 5 5 5 5 5 5 5 5 5 5 5 5 5 5 5 5 5 5 5 5 5 5 5 5 5 5 5 5 5 5 5 5 5 5 5 5 5 5 5 5 5 5 5 5 5 5 5 5 5 5 5 5 5 5 5 5 5 5 5 5 5 5 5 5 5 5 5 5 5 5 5 5 5 5 5 5 5 5 5 5 5 5 5 5 5 5 5 5 5 5 5 5 5 5 5 5 5 5 5 5 5 5 5 5 5 5 5 5 5 5 5 5 5 5 5 5 5 5 5 5 5 5 5 5 5 5 5 5 5 5 5 5 5 5 5 5 5 5 5 5 5 5 5 5 5 5 5 5 5 5 5 5 5 5 5 5 5 5 5 5 5 5 5 5 5 5 5 5 5 5 5 5 5 5 5 5 5 5 5 5 5 5 5 5 5 5 5 5 5 5 5 5 5 5 5 5 5 5 5 5 5 5 5 5 5 5 5 5 5 5 5 5 5 5 5 5 5 5 5 5 5 5 5 5 5 5 5 5 5 5 5 5 5 5 5 5 5 5 5 5 5 5 5 5 5 5 5 5 5 5 5 5 5 5 5 5 5 5 5 5 5 5 5 5 5 5 5 5 5 5 5 5 5 5 5 5 5 5 5 5 5 5 5 5 5 5 5 5 5 5 5 5 5 5 5 5 5 5 5 5 5 5 5 5 5 5 5 5 5 5 5 5 5 5 5 5 5 5 5 5 5 5 5 5 5 5 5 5 5 5 5 5 5 5 5 5 5 5 5 5 5 5 5 5 5 5 5 5 5 5 5 5 5 5 5 5 5 5 5 5 5 5 5 5 5 5 5 5 5 5 5 5 5 5 5 5 5 5 5 5 5 5 5 5 5 5 5 5 5 5 5 5 5 5 5 5 5 5 5 5 5 5 5 5 5 5 5 5 5 5 5 5 5 5 5 5 5 5 5 5 5 5 5 5 5 5 5 5 5 5 5 5 5 5 5 5 5 5 5 5 5 5 5 5 5 5 5 5 5 5 5 5 5 5 5 5 5 5 5 5 5 5 5 5 5 5 5 5 5 5 
</DataArray>
</Cells>
<PointData Scalars="" Vectors="displacement," Tensors="">
<DataArray type="Float64" Name="displacement" NumberOfComponents="3" format="ascii">
-6.1792988453547503e-06 -8.2491221956753534e-06 0 -6.633793632610458e-06 -1.1738385250706648e-05 0 -6.633793632610458e-06 -1.1738385250706648e-05 0 -7.1455385208271704e-06 -1.593439869059191e-05 0 -7.1455385208271704e-06 -1.593439869059191e-05 0 -7.7880363547257507e-06 -2.0847791045772121e-05 0 -7.7880363547257507e-06 -2.0847791045772121e-05 0 -8.3754917813768859e-06 -2.6070869822100566e-05 0 -8.3754917813768859e-06 -2.6070869822100566e-05 0 -8.888924510642316e-06 -3.1415666809017816e-05 0 -8.888924510642316e-06 -3.1415666809017816e-05 0 -9.3853560656908199e-06 -3.693148747332519e-05 0 -9.3853560656908199e-06 -3.693148747332519e-05 0 -9.9812745318125406e-06 -4.1829541636632805e-05 0 -9.9812745318125406e-06 -4.1829541636632805e-05 0 -1.0661716346450459e-05 -4.7728703116098731e-05 0 -1.0661716346450459e-05 -4.7728703116098731e-05 0 -1.1031532040193299e-05 -5.1176338419724311e-05 0 -1.1031532040193299e-05 -5.1176338419724311e-05 0 -1.2845346989484417e-05 -5.6605984364629757e-05 0 6.456836853889883e-06 1.2375830973274585e-05 0 9.1908998682247639e-06 1.9710439855326301e-05 0 9.1908998682247639e-06 1.9710439855326301e-05 0 9.5623793776175651e-06 2.3290512326175562e-05 0 9.5623793776175651e-06 2.3290512326175562e-05 0 9.8073211522556792e-06 3.0745785339340899e-05 0 9.8073211522556792e-06 3.0745785339340899e-05 0 9.8032836973741872e-06 3.703139085539865e-05 0 9.8032836973741872e-06 3.703139085539865e-05 0 9.5608234453108512e-06 4.4238822096178613e-05 0 9.5608234453108512e-06 4.4238822096178613e-05 0 9.0543119769983513e-06 5.2396096261140265e-05 0 9.0543119769983513e-06 5.2396096261140265e-05 0 8.3103469959879938e-06 5.7909725513473677e-05 0 8.3103469959879938e-06 5.7909725513473677e-05 0 6.5978016366154374e-06 6.8460635381137886e-05 0 6.5978016366154374e-06 6.8460635381137886e-05 0 7.6422326164506114e-06 7.1117779434582676e-05 0 7.6422326164506114e-06 7.1117779434582676e-05 0 -2.9515939640890299e-06 8.1672799287825067e-05 0 -4.9295691690302142e-06 -2.7643835581391709e-06 0 -3.466847326081551e-06 -5.8820998124569676e-07 0 -4.7852012332797141e-06 -2.2027763898723589e-06 0 -4.0440264572524898e-06 -1.3617472350205244e-06 0 -3.466847326081551e-06 -5.8820998124569676e-07 0 -4.9295691690302142e-06 -2.7643835581391709e-06 0 -9.7679442106550599e-06 -6.695226187125405e-06 0 -8.0145061274779375e-06 -4.6676532296090962e-06 0 -8.659158654481225e-06 -6.2920081578527596e-06 0 -8.659158654481225e-06 -6.2920081578527596e-06 0 -8.0145061274779375e-06 -4.6676532296090962e-06 0 -7.3746669776433044e-06 -5.4513539713985434e-06 0 -6.2668955758242323e-06 1.5163267852498085e-06 0 -2.754381823504404e-06 2.3600586981747955e-07 0 -5.7681001443925248e-06 5.9265535742976483e-07 0 -4.3842700018774986e-06 -1.3722291093876781e-06 0 -4.0476203467578505e-06 -7.5872501368646645e-07 0 -1.9545872016461277e-06 -3.6902620683475178e-07 0 -3.1440840558656393e-06 1.1935822209294122e-06 0 -2.754381823504404e-06 2.3600586981747955e-07 0 -6.2668955758242323e-06 1.5163267852498085e-06 0 -2.2536008042902624e-06 -1.0159276460945189e-06 0 -4.3842700018774986e-06 -1.3722291093876781e-06 0 -1.9545872016461277e-06 -3.6902620683475178e-07 0 -1.1786939877360646e-05 -3.0882258915801794e-06 0 -1.458689086285238e-05 -4.2912005614307767e-06 0 -1.1383472647331007e-05 -2.5795539063392068e-06 0 -2.2875476554589305e-05 6.3778861595117416e-06 0 -1.798711167867265e-05 4.1244063095794601e-06 0 -1.753391222419835e-05 3.6874813058769697e-06 0 -1.8407273163348801e-07 3.2721306462513252e-07 0 -1.8382458100632173e-07 7.1837603214061727e-07 0 -7.0424001013673118e-07 -4.5957254474176284e-08 0 -7.2872744263397189e-07 7.6659892335318585e-07 0 -7.0424001013673128e-07 -4.5957254474176284e-08 0 -1.8382458100632173e-07 7.1837603214061727e-07 0 -2.004321678975821e-06 8.2192263313591868e-07 0 -2.5833395089641883e-06 7.5797643711190391e-07 0 -1.558481117031934e-06 9.3944015085918397e-07 0 -8.8121552791212564e-10 -3.7924154297088716e-10 0 -5.9489150549087522e-10 -2.5648635709954286e-10 0 -6.7655110232688736e-07 -6.2933984719541333e-07 0 -6.6789536513954989e-10 2.4320342866933417e-10 0 -8.6266989197047688e-10 2.5917042294387919e-10 0 -7.6764027100076661e-07 5.5140769004016807e-07 0 -1.1888896762740763e-05 -9.0986767847680559e-06 0 -1.1596839311239191e-05 -9.2284195374392675e-06 0 -9.7679442106550599e-06 -6.695226187125405e-06 0 5.7267674897394565e-06 1.3930888684867423e-05 0 2.0825984011316118e-06 9.0138052025170027e-06 0 1.8012275501104544e-06 9.7186095431307599e-06 0 -2.2899270857075279e-05 -8.8337899584362424e-05 0 -1.7392497290617314e-05 -8.2386741932495672e-05 0 -2.3054366071126154e-05 -7.9362372215448611e-05 0 -2.7917239260822384e-05 0.00019050744879795255 0 -4.1937454632613804e-05 0.00017553446835263088 0 -2.8139682118598685e-05 0.00017040470847076434 0 -2.7917239260822384e-05 0.00019050744879795255 0 -2.8139682118598685e-05 0.00017040470847076434 0 -1.4655285169222989e-05 0.00017658832580490436 0 -2.2899270857075279e-05 -8.8337899584362424e-05 0 -2.3054366071126154e-05 -7.9362372215448611e-05 0 -2.8980113803718785e-05 -8.1555500720279124e-05 0 -4.4432059883314227e-05 0.00015880380207894962 0 -2.7027773569452493e-05 0.00015108283969403642 0 -2.8139682118598685e-05 0.00017040470847076434 0 -1.6329301448974827e-05 -7.4458192223224396e-05 0 -2.3289929014975585e-05 -7.0240471612449456e-05 0 -2.3054366071126154e-05 -7.9362372215448611e-05 0 -2.004321678975821e-06 8.2192263313591868e-07 0 -1.558481117031934e-06 9.3944015085918397e-07 0 -1.2301885378943507e-06 8.1894079157942523e-07 0 5.7267674897394565e-06 1.3930888684867423e-05 0 -2.6180849881258951e-07 1.200379656727484e-05 0 2.0825984011316118e-06 9.0138052025170027e-06 0 -5.4363699359974745e-05 4.2533180575992934e-05 0 -4.8210052861795237e-05 3.1030843017430263e-05 0 -3.8112172297191424e-05 3.3301211317489181e-05 0 -2.8093994403714743e-05 -1.5569372365854642e-05 0 -3.1390596531143475e-05 -2.062216653476631e-05 0 -2.3973922271917977e-05 -1.6593644971439577e-05 0 -9.6140694114836169e-06 -7.1348462761322451e-06 0 -1.1888896762740763e-05 -9.0986767847680559e-06 0 -9.7679442106550599e-06 -6.695226187125405e-06 0 -2.4685699709060401e-05 2.6791144409437792e-05 0 -2.1268099309851745e-05 1.5766068207003032e-05 0 -1.6090678311912268e-05 1.7001643552818317e-05 0 -1.1489584922291339e-05 4.5133256370183393e-06 0 -1.6453780853591622e-05 6.8880365032213237e-06 0 -1.5699882666948033e-05 3.9955936126632357e-06 0 -4.5505439733649129e-06 -5.9200934843705252e-07 0 -3.785055144600916e-06 1.2700512015743551e-06 0 -5.7599774242291268e-06 -1.9640297624672267e-06 0 -2.2458530521789111e-05 -6.1002461582134957e-05 0 -1.7471551131015183e-05 -5.8367084846266222e-05 0 -2.2465912248931363e-05 -5.136500624662215e-05 0 -2.7304913610315403e-05 0.00013166683282555259 0 -3.8442715384523141e-05 0.00012607078335603953 0 -2.4574097347198545e-05 0.0001104722175863313 0 -2.2465912248931363e-05 -5.136500624662215e-05 0 -1.7471551131015183e-05 -5.8367084846266222e-05 0 -1.6729051833883979e-05 -5.0089373820627232e-05 0 -2.4574097347198545e-05 0.0001104722175863313 0 -3.8442715384523141e-05 0.00012607078335603953 0 -3.765294224131157e-05 0.00011062619143022979 0 -1.1489584922291339e-05 4.5133256370183393e-06 0 -1.5699882666948033e-05 3.9955936126632357e-06 0 -1.0223440574412414e-05 2.4937078376722514e-06 0 -4.2128745463245514e-06 -2.8266826489074329e-06 0 -2.6704560470749836e-06 2.2643523119114043e-06 0 -4.5505439733649129e-06 -5.9200934843705252e-07 0 -2.4685699709060401e-05 2.6791144409437792e-05 0 -2.9334687481246827e-05 2.2740585203704417e-05 0 -2.1268099309851748e-05 1.5766068207003032e-05 0 5.7267674897394565e-06 1.3930888684867423e-05 0 1.230870289945241e-05 3.5470191372334162e-05 0 4.0387977162518221e-07 3.6351369967211365e-05 0 -1.6142172145941249e-05 -2.3137784231765308e-05 0 -1.4321774466050527e-05 -2.2796997603530949e-05 0 -1.6688104736477585e-05 -2.1905113657269378e-05 0 -4.4770410941972289e-06 -3.1380029067473344e-05 0 -4.338589739868277e-06 -2.921066821209662e-05 0 -6.4060390876492247e-06 -2.8671502250147881e-05 0 -2.012706564220959e-06 3.8411307778705505e-06 0 -3.785055144600916e-06 1.2700512015743551e-06 0 -4.5505439733649129e-06 -5.9200934843705252e-07 0 -4.3873301226985567e-06 -8.1030201482389205e-05 0 -1.0020697541183005e-05 -7.3379594156488241e-05 0 -1.1627690900164009e-05 -8.1145550212336314e-05 0 -7.5340826828838801e-05 0.00017400694373564211 0 -6.0094879992599119e-05 0.00015696296027545778 0 -5.7094623578395035e-05 0.00017201822506183879 0 -4.0998556186427435e-10 -1.9877504166477426e-10 0 -2.2030115078861628e-07 -1.7565995553934812e-07 0 -3.6015604480864384e-07 -3.9275396315345044e-07 0 -5.3255967488787853e-10 2.5004184441861465e-10 0 -5.3716213125574516e-07 5.1672742856011052e-07 0 -4.1239890706158974e-07 5.209684881049205e-07 0 -2.4685699709060401e-05 2.6791144409437792e-05 0 -1.5383895267997352e-05 2.5707996386039935e-05 0 -2.1881477041844479e-05 4.0089534557795593e-05 0 -1.0069043439490723e-05 3.5382914201838832e-05 0 -2.1881477041844479e-05 4.0089534557795593e-05 0 -1.5383895267997348e-05 2.5707996386039935e-05 0 -2.822117102342419e-06 2.2109818156243554e-05 0 5.7267674897394565e-06 1.3930888684867423e-05 0 4.0387977162518221e-07 3.6351369967211365e-05 0 -7.4796811525468834e-05 0.00014014888099983422 0 -5.3680511659540347e-05 0.00014051272855136361 0 -6.0094879992599119e-05 0.00015696296027545778 0 -2.650649962910642e-06 -6.3263784778841772e-05 0 -1.1921390137606801e-05 -6.5039479341207377e-05 0 -1.0020697541183003e-05 -7.3379594156488241e-05 0 -7.5355842494300397e-06 -2.2645520346474477e-05 0 -8.1318237353592885e-06 -1.9881345504892777e-05 0 -9.5378010775745399e-06 -2.1854182348744599e-05 0 -5.1165588440362704e-06 -6.536351613305159e-07 0 -5.7599774242291268e-06 -1.9640297624672267e-06 0 -3.785055144600916e-06 1.2700512015743551e-06 0 -6.8492900918231351e-06 -4.4965768733703844e-06 0 -7.9546929457624995e-06 -7.0814641491798905e-06 0 -6.2370773358670217e-06 -6.7570032483920117e-06 0 -2.7146484123477245e-06 -1.2330299160426588e-05 0 -3.1958400821575247e-06 -1.0075723645882299e-05 0 -5.5011410571883563e-06 -1.3003769631021092e-05 0 -6.5155635019470637e-05 7.1430674578357324e-05 0 -4.8952934565510221e-05 6.0909889666191773e-05 0 -5.4951250344740688e-05 8.0340249921651049e-05 0 -4.3547612846628881e-05 -6.5214678445780068e-05 0 -3.707084103825485e-05 -7.3170269067506576e-05 0 -3.457079015837672e-05 -6.585954088893471e-05 0 1.8431334077832947e-05 0.00013749783324541214 0 2.9224136225157412e-06 0.00015789750430944414 0 -1.15578151414529e-06 0.00014161772402654539 0 -3.436038398797877e-06 -7.1883655629523697e-05 0 -1.0020697541183003e-05 -7.3379594156488241e-05 0 -4.3873301226985567e-06 -8.1030201482389205e-05 0 -7.5340826828838801e-05 0.00017400694373564211 0 -7.5245218856147264e-05 0.0001573202010612533 0 -6.0094879992599119e-05 0.00015696296027545778 0 -1.3324695307143819e-05 -2.0292399828052961e-05 0 -1.3823560745913259e-05 -1.8275104996400484e-05 0 -1.4826861342347971e-05 -2.023633719134319e-05 0 -6.2765453727776853e-06 -8.2992542102347374e-06 0 -8.2916409294969628e-06 -1.000909606969444e-05 0 -8.4166211755870746e-06 -1.5132072347850787e-05 0 -1.3324695307143819e-05 -2.0292399828052961e-05 0 -1.2516294829481192e-05 -1.8576671740610418e-05 0 -1.3823560745913259e-05 -1.8275104996400484e-05 0 -5.2823097234941396e-06 -1.0142478209176543e-05 0 -5.5011410571883563e-06 -1.3003769631021092e-05 0 -3.1958400821575247e-06 -1.0075723645882299e-05 0 -1.8881802529382651e-05 -2.7554233690545028e-05 0 -2.0643405308238349e-05 -3.6750024052319021e-05 0 -1.5033085317695906e-05 -2.9557695677856279e-05 0 -1.4755635740704969e-09 1.7576080707139275e-10 0 -1.9545872016461277e-06 -3.6902620683475178e-07 0 -1.3599973738792111e-06 6.2877236496744428e-08 0 -2.122578572844131e-09 -3.608583626336355e-10 0 -1.8462966604259559e-06 -3.3373539551078998e-07 0 -2.754381823504404e-06 2.3600586981747955e-07 0 -1.6142172145941249e-05 -2.3137784231765308e-05 0 -1.3926133404387055e-05 -2.4414699160403523e-05 0 -1.4321774466050527e-05 -2.2796997603530949e-05 0 -6.047464530951578e-06 -3.0306959886053249e-05 0 -4.4770410941972289e-06 -3.1380029067473344e-05 0 -6.4060390876492247e-06 -2.8671502250147881e-05 0 -1.4953330773608957e-09 -5.5433754084748311e-10 0 -2.3218717863501288e-06 -7.0743699221734858e-07 0 -1.8462966604259557e-06 -3.3373539551079008e-07 0 -1.1810973839456969e-09 2.9171519965246831e-10 0 -1.3599973738792111e-06 6.2877236496744428e-08 0 -1.8245037764369686e-06 3.0787725689654247e-07 0 -7.0424001013673118e-07 -4.5957254474176284e-08 0 -8.799568660231247e-07 -6.4233363557152184e-07 0 -4.7699451937600763e-07 -1.6794844437086915e-07 0 -6.6454441481938075e-06 -1.7205405881478906e-06 0 -5.6564225483211591e-06 -8.0123174509370356e-07 0 -4.0476203467578505e-06 -7.5872501368646645e-07 0 -9.7189933920837624e-06 1.9287546812040188e-06 0 -5.7681001443925248e-06 5.9265535742976483e-07 0 -8.0575949980249312e-06 5.6611824015706072e-07 0 -7.9973409523837762e-06 -1.2951880143532226e-05 0 -7.0909687414593701e-06 -1.0452791814864909e-05 0 -9.1806852412743321e-06 -1.1780558581900038e-05 0 -8.0833578082940888e-06 -9.2636289744407299e-06 0 -6.2370773358670217e-06 -6.7570032483920117e-06 0 -7.9546929457624995e-06 -7.0814641491798905e-06 0 1.628038528871532e-05 0.00017345252494501193 0 -6.9009168726707487e-07 0.0001735372937698039 0 2.9224136225157412e-06 0.00015789750430944414 0 -4.3902495623973985e-05 -8.0814902125606451e-05 0 -3.5670282638811697e-05 -7.9904746519691034e-05 0 -3.707084103825485e-05 -7.3170269067506576e-05 0 -8.0833578082940888e-06 -9.2636289744407299e-06 0 -9.1806852412743321e-06 -1.1780558581900038e-05 0 -7.0909687414593701e-06 -1.0452791814864909e-05 0 -8.1318237353592885e-06 -1.9881345504892777e-05 0 -6.1639839089108631e-06 -1.9372049025164526e-05 0 -7.8347435198873548e-06 -1.6405593806911451e-05 0 -3.7997752605535668e-05 9.495534540805291e-05 0 -3.2368433232970385e-05 7.3668067144257493e-05 0 -2.364165057876746e-05 8.1159087721428645e-05 0 -2.122578572844131e-09 -3.608583626336355e-10 0 -2.2172715791930648e-09 3.9660441806301363e-11 0 -1.8462966604259557e-06 -3.3373539551079008e-07 0 -1.6353347833131102e-09 -8.0856527032515757e-11 0 -1.4755635740704969e-09 1.7576080707139275e-10 0 -1.3599973738792111e-06 6.2877236496744428e-08 0 -7.0424001013673118e-07 -4.5957254474176284e-08 0 -1.4255576217128706e-06 -4.4638401186060003e-07 0 -8.799568660231247e-07 -6.4233363557152184e-07 0 -1.214466544767479e-05 0.00015931612393290293 0 -2.8139682118598685e-05 0.00017040470847076434 0 -2.7027773569452493e-05 0.00015108283969403642 0 -3.0060166886600314e-05 -7.3694045680138711e-05 0 -2.3054366071126154e-05 -7.9362372215448611e-05 0 -2.3289929014975585e-05 -7.0240471612449456e-05 0 -2.0643405308238349e-05 -3.6750024052319021e-05 0 -1.5563337449610996e-05 -3.6795679403637342e-05 0 -1.5033085317695906e-05 -2.9557695677856279e-05 0 -1.9261670385551989e-07 3.0829936976506611e-07 0 -2.422405708478969e-07 6.2889496980140528e-07 0 -1.6531116565695979e-07 2.8463073096531515e-07 0 -6.2055177222532407e-06 2.068911725750857e-07 0 -4.2574269525477352e-06 2.2895750446186261e-07 0 -6.9167833026149283e-06 1.1954481131081349e-06 0 -6.1639839089108631e-06 -1.9372049025164526e-05 0 -5.5740996766236346e-06 -1.6453346494485044e-05 0 -7.8347435198873548e-06 -1.6405593806911451e-05 0 -1.6531116565695979e-07 2.8463073096531515e-07 0 -2.422405708478969e-07 6.2889496980140528e-07 0 -1.4180611070620228e-07 6.0024577595276428e-07 0 -2.422405708478969e-07 6.2889496980140528e-07 0 -2.1904218429202852e-07 4.0458539899345136e-07 0 -4.2403414939644343e-07 7.2629123410123473e-07 0 -4.1071932414974028e-07 6.169563896124051e-07 0 -4.2403414939644343e-07 7.2629123410123473e-07 0 -2.1904218429202852e-07 4.0458539899345136e-07 0 -1.5150725144049569e-05 -1.9250074783035782e-05 0 -1.3823560745913259e-05 -1.8275104996400484e-05 0 -1.4934632376592797e-05 -1.7445027971551097e-05 0 -6.8492900918231351e-06 -4.4965768733703844e-06 0 -6.2370773358670208e-06 -6.7570032483920109e-06 0 -5.559284396553924e-06 -3.6131468059534699e-06 0 -7.5355842494300397e-06 -2.2645520346474477e-05 0 -6.1639839089108631e-06 -1.9372049025164526e-05 0 -8.1318237353592885e-06 -1.9881345504892777e-05 0 -2.012706564220959e-06 3.8411307778705505e-06 0 -4.5505439733649129e-06 -5.920093484370521e-07 0 -2.6704560470749836e-06 2.2643523119114043e-06 0 1.7508202715299292e-05 0.00015505425649034772 0 1.628038528871532e-05 0.00017345252494501193 0 2.9224136225157412e-06 0.00015789750430944414 0 -4.3844128184738061e-05 -7.3180322050991019e-05 0 -4.3902495623973985e-05 -8.0814902125606451e-05 0 -3.707084103825485e-05 -7.3170269067506576e-05 0 -4.3547612846628881e-05 -6.5214678445780068e-05 0 -4.3844128184738061e-05 -7.3180322050991019e-05 0 -3.707084103825485e-05 -7.3170269067506576e-05 0 1.8431334077832947e-05 0.00013749783324541214 0 1.7508202715299292e-05 0.00015505425649034772 0 2.9224136225157412e-06 0.00015789750430944414 0 -3.5918146955171246e-08 5.7425925913023965e-06 0 -3.9055210640026757e-07 4.6467226944370532e-06 0 -2.012706564220959e-06 3.8411307778705505e-06 0 -1.2355646162729505e-06 9.7745595224485907e-07 0 -8.2229651249881537e-07 8.6821727705350749e-07 0 -1.558481117031934e-06 9.3944015085918397e-07 0 -8.6724648124643596e-07 7.8888714839983253e-07 0 -1.558481117031934e-06 9.3944015085918397e-07 0 -8.2229651249881537e-07 8.6821727705350749e-07 0 1.4891294960178698e-06 8.2356461573826085e-05 0 5.7065743097407756e-06 9.3847207725127055e-05 0 -1.0499299097686885e-05 9.4345252957726115e-05 0 5.7065743097407756e-06 9.3847207725127055e-05 0 1.5351038325534304e-06 0.00010597578927893149 0 -1.0499299097686885e-05 9.4345252957726115e-05 0 -4.2128745463245514e-06 -2.8266826489074329e-06 0 -4.550543973364912e-06 -5.9200934843705284e-07 0 -5.559284396553924e-06 -3.6131468059534699e-06 0 -7.6485572829628289e-06 -2.896725121646143e-05 0 -6.4060390876492247e-06 -2.8671502250147881e-05 0 -7.9556125227455821e-06 -2.6421775464395683e-05 0 -1.1666384590497298e-05 -2.5843992740119283e-05 0 -1.2479556559011912e-05 -2.3239748710717009e-05 0 -1.4321774466050527e-05 -2.2796997603530949e-05 0 -3.9055210640026757e-07 4.6467226944370532e-06 0 -1.8976872996292447e-06 3.0086324063344953e-06 0 -2.012706564220959e-06 3.8411307778705505e-06 0 -7.5245218856147264e-05 0.0001573202010612533 0 -7.4796811525468834e-05 0.00014014888099983422 0 -6.0094879992599119e-05 0.00015696296027545778 0 -2.650649962910642e-06 -6.3263784778841772e-05 0 -1.0020697541183003e-05 -7.3379594156488241e-05 0 -3.436038398797877e-06 -7.1883655629523697e-05 0 -1.458689086285238e-05 -4.2912005614307767e-06 0 -1.4400617273057685e-05 -4.1684019980525224e-06 0 -1.1383472647331007e-05 -2.5795539063392068e-06 0 -2.2875476554589305e-05 6.3778861595117416e-06 0 -1.753391222419835e-05 3.6874813058769697e-06 0 -2.1995298312758453e-05 6.4395791560749704e-06 0 -4.2128745463245514e-06 -2.8266826489074329e-06 0 -6.2370773358670217e-06 -6.7570032483920117e-06 0 -3.8805406702932757e-06 -7.1793471889479702e-06 0 -6.2765453727776853e-06 -8.2992542102347374e-06 0 -8.4166211755870746e-06 -1.5132072347850787e-05 0 -3.7573576413185909e-06 -1.6216642185146703e-05 0 -5.2823097234941396e-06 -1.0142478209176543e-05 0 -6.2370773358670217e-06 -6.7570032483920117e-06 0 -7.0909687414593701e-06 -1.0452791814864909e-05 0 -8.0833578082940888e-06 -9.2636289744407299e-06 0 -7.0909687414593701e-06 -1.0452791814864909e-05 0 -6.2370773358670217e-06 -6.7570032483920117e-06 0 -2.2899270857075279e-05 -8.8337899584362424e-05 0 -1.6724403357530537e-05 -8.8754192717802109e-05 0 -1.7392497290617314e-05 -8.2386741932495672e-05 0 -2.7917239260822384e-05 0.00019050744879795255 0 -4.3202054223776135e-05 0.00019021202778506211 0 -4.1937454632613804e-05 0.00017553446835263088 0 -1.3245711746574678e-05 0.00019098225292330244 0 -2.7917239260822384e-05 0.00019050744879795255 0 -1.4655285169222989e-05 0.00017658832580490436 0 -2.9523010186874888e-05 -8.8105346114017788e-05 0 -2.2899270857075279e-05 -8.8337899584362424e-05 0 -2.8980113803718785e-05 -8.1555500720279124e-05 0 -7.112501359538505e-06 1.5980889057111543e-05 0 -1.5383895267997348e-05 2.5707996386039935e-05 0 -1.6090678311912268e-05 1.7001643552818317e-05 0 -1.0716995233940302e-05 -1.176914801821357e-05 0 -1.223894377518334e-05 -1.412549990400234e-05 0 -1.094279522351188e-05 -1.4289903701222746e-05 0 -5.2823097234941396e-06 -1.0142478209176543e-05 0 -7.0909687414593701e-06 -1.0452791814864909e-05 0 -5.5011410571883563e-06 -1.3003769631021092e-05 0 -7.9973409523837762e-06 -1.2951880143532226e-05 0 -5.5011410571883563e-06 -1.3003769631021092e-05 0 -7.0909687414593701e-06 -1.0452791814864909e-05 0 -1.0913714891584178e-05 -3.1311334256466248e-05 0 -9.9170201371477477e-06 -2.297155952639099e-05 0 -1.5033085317695906e-05 -2.9557695677856279e-05 0 -5.4363699359974745e-05 4.2533180575992934e-05 0 -3.8112172297191424e-05 3.3301211317489181e-05 0 -4.7889173877970143e-05 4.7526253029180892e-05 0 -1.1171358945851715e-05 -5.3012828881487722e-06 0 -1.4134034251088652e-05 -8.2678338598624227e-06 0 -1.0057544353288417e-05 -6.4250408646692571e-06 0 -1.1936526952979677e-05 -9.6322007289408376e-06 0 -1.0057544353288417e-05 -6.4250408646692571e-06 0 -1.4134034251088652e-05 -8.2678338598624227e-06 0 -1.3856320788219012e-05 -2.1520816535635619e-05 0 -1.1890245273162814e-05 -2.1631402060486975e-05 0 -1.3324695307143819e-05 -2.0292399828052961e-05 0 -4.3143854116385057e-05 7.1343385082851048e-05 0 -5.4951250344740688e-05 8.0340249921651049e-05 0 -4.8952934565510221e-05 6.0909889666191773e-05 0 -1.3940399645704239e-05 -4.5087911177965547e-06 0 -1.752958279368317e-05 -6.9628600674363651e-06 0 -1.4373337694144694e-05 -6.1413747425599483e-06 0 -1.8046304070284688e-05 -8.9455588534621912e-06 0 -1.4373337694144694e-05 -6.1413747425599483e-06 0 -1.752958279368317e-05 -6.9628600674363651e-06 0 -2.7277633101919576e-05 1.6656809218084381e-05 0 -2.7178547985609685e-05 1.2288529644602077e-05 0 -2.0838922578932693e-05 1.0978081925022011e-05 0 -2.0911816724630594e-05 7.704619763445899e-06 0 -2.0838922578932693e-05 1.0978081925022011e-05 0 -2.7178547985609685e-05 1.2288529644602077e-05 0 -1.3012617457745071e-05 -1.6503098458091866e-05 0 -1.1318982638498715e-05 -1.6692128647520542e-05 0 -1.094279522351188e-05 -1.4289903701222746e-05 0 -3.1390596531143475e-05 -2.062216653476631e-05 0 -2.8827557500675616e-05 -2.2675954195399823e-05 0 -2.3973922271917977e-05 -1.6593644971439577e-05 0 -4.5407799182089207e-06 6.7374062849367348e-05 0 -1.3668595510206753e-05 5.2776941241608442e-05 0 -1.9549362150686134e-06 5.0363043538344139e-05 0 -5.1165588440362704e-06 -6.536351613305159e-07 0 -6.1560619781481708e-06 -2.3072660726596338e-06 0 -7.1221210073676331e-06 -3.5349263918697211e-06 0 -6.0720147428957498e-07 1.7071255372213049e-06 0 2.9303467116057094e-08 2.3319256210200312e-06 0 -7.7641722656338751e-08 1.6379458174184378e-06 0 -4.981537008497247e-05 0.00012092971593376 0 -3.8442715384523141e-05 0.00012607078335603953 0 -5.3680511659540347e-05 0.00014051272855136361 0 -1.2370153353251035e-05 -5.5208388663742362e-05 0 -1.7471551131015183e-05 -5.8367084846266222e-05 0 -1.1921390137606799e-05 -6.5039479341207377e-05 0 -4.2128745463245514e-06 -2.8266826489074329e-06 0 -5.5592843965539231e-06 -3.6131468059534694e-06 0 -6.2370773358670217e-06 -6.7570032483920117e-06 0 -1.2479556559011912e-05 -2.3239748710717006e-05 0 -1.1890245273162814e-05 -2.1631402060486975e-05 0 -1.3856320788219012e-05 -2.1520816535635619e-05 0 -7.9973409523837762e-06 -1.2951880143532226e-05 0 -9.5518412075629142e-06 -1.4449300877068626e-05 0 -7.8347435198873548e-06 -1.6405593806911451e-05 0 -5.9489150549087522e-10 -2.5648635709954286e-10 0 -3.6015604480864384e-07 -3.9275396315345044e-07 0 -6.7655110232688736e-07 -6.2933984719541333e-07 0 -6.6789536513954989e-10 2.4320342866933417e-10 0 -7.6764027100076661e-07 5.5140769004016807e-07 0 -5.3716213125574516e-07 5.1672742856011052e-07 0 -9.9170201371477477e-06 -2.297155952639099e-05 0 -1.4729062134380854e-05 -2.3074067581269726e-05 0 -1.5033085317695906e-05 -2.9557695677856279e-05 0 -6.2055177222532407e-06 2.068911725750857e-07 0 -6.9167833026149283e-06 1.1954481131081349e-06 0 -9.0552430041648206e-06 9.1833772640168474e-07 0 -1.3249988165069526e-05 9.0605994064729509e-06 0 -1.6090678311912264e-05 1.7001643552818317e-05 0 -2.1268099309851748e-05 1.5766068207003032e-05 0 -4.3368985721450672e-07 -3.4790492750103287e-07 0 -2.2030115078861628e-07 -1.7565995553934812e-07 0 -2.5834439666095329e-07 -5.1350007730462889e-08 0 -1.8261837005095215e-07 9.8395291389084808e-08 0 -2.5834439666095329e-07 -5.1350007730462889e-08 0 -2.2030115078861628e-07 -1.7565995553934812e-07 0 -4.1071932414974028e-07 6.169563896124051e-07 0 -4.1239890706158974e-07 5.209684881049206e-07 0 -8.2229651249881537e-07 8.6821727705350749e-07 0 -8.6724648124643596e-07 7.8888714839983253e-07 0 -8.2229651249881537e-07 8.6821727705350749e-07 0 -4.1239890706158974e-07 5.209684881049205e-07 0 -1.1489584922291339e-05 4.5133256370183393e-06 0 -8.5114229385363543e-06 5.485671242812792e-06 0 -1.3249988165069526e-05 9.0605994064729509e-06 0 -6.0720147428957498e-07 1.7071255372213049e-06 0 -7.1186367409967795e-07 2.3480327702276887e-06 0 2.9303467116057094e-08 2.3319256210200312e-06 0 -7.2872744263397189e-07 7.6659892335318585e-07 0 -1.5589215535537943e-06 -6.384461011776601e-09 0 -7.0424001013673118e-07 -4.5957254474176284e-08 0 -6.9167833026149283e-06 1.1954481131081349e-06 0 -4.2574269525477352e-06 2.2895750446186261e-07 0 -4.8053706134617115e-06 1.6935173400839951e-06 0 -1.6983146287002837e-06 2.2079992519597834e-06 0 -5.0515058703951827e-07 3.4619917830270801e-06 0 -7.1186367409967795e-07 2.3480327702276887e-06 0 -4.4454470230632071e-06 -1.2040739263640425e-07 0 -4.7691175801342365e-06 -7.0995049897754197e-07 0 -3.3947707389558272e-06 2.5456728801349804e-07 0 -3.833072498329947e-06 -4.328375234678664e-07 0 -3.3947707389558272e-06 2.5456728801349804e-07 0 -4.7691175801342365e-06 -7.0995049897754197e-07 0 -2.2172715791930305e-09 3.9660441806307651e-11 0 -1.4953330773608957e-09 -5.5433754084748311e-10 0 -1.8462966604259557e-06 -3.3373539551079008e-07 0 -1.1810973839456969e-09 2.9171519965246831e-10 0 -1.6353347833131102e-09 -8.0856527032515757e-11 0 -1.3599973738792111e-06 6.2877236496744428e-08 0 1.5139283696285639e-05 5.1681810748044806e-05 0 -1.9549362150686134e-06 5.0363043538344139e-05 0 4.0387977162518221e-07 3.6351369967211365e-05 0 -1.2355646162729505e-06 9.7745595224485907e-07 0 -1.938163580558918e-06 8.0032586173844183e-07 0 -1.0200353895603488e-06 1.0271028100873548e-06 0 -8.0145061274779375e-06 -4.6676532296090962e-06 0 -6.1348423901702527e-06 -3.2203259568570542e-06 0 -7.3746669776433044e-06 -5.4513539713985434e-06 0 -1.0380690595921163e-05 -2.3757913187496856e-05 0 -1.1890245273162814e-05 -2.1631402060486975e-05 0 -1.2479556559011912e-05 -2.3239748710717006e-05 0 -1.1786939877360646e-05 -3.0882258915801794e-06 0 -1.1383472647331007e-05 -2.5795539063392068e-06 0 -9.4899505869111405e-06 -1.8997999129586256e-06 0 -1.798711167867265e-05 4.1244063095794601e-06 0 -1.4224353784064315e-05 2.2746290261258329e-06 0 -1.753391222419835e-05 3.6874813058769697e-06 0 -9.6949676107419013e-06 -1.6691469003428796e-05 0 -7.8347435198873548e-06 -1.6405593806911451e-05 0 -9.5518412075629142e-06 -1.4449300877068626e-05 0 -1.1383472647331007e-05 -2.5795539063392068e-06 0 -9.3637192864122836e-06 -1.7625379851912097e-06 0 -9.0330880669127048e-06 -1.5272420969341405e-06 0 -1.19435257691408e-05 2.147355443647822e-06 0 -1.0223440574412414e-05 2.4937078376722514e-06 0 -1.5699882666948033e-05 3.9955936126632357e-06 0 -1.2001820826407103e-05 -3.0780330393024315e-06 0 -9.3637192864122836e-06 -1.7625379851912097e-06 0 -1.1383472647331007e-05 -2.5795539063392068e-06 0 -3.5490939005270967e-06 5.2172090268468397e-07 0 -4.5075138775023514e-06 2.2931193525022879e-07 0 -4.7905842422601202e-06 4.0182800342297058e-08 0 -2.9080925675754017e-06 -4.2746444341724876e-07 0 -4.2574269525477352e-06 2.2895750446186261e-07 0 -5.0271469284443311e-06 -5.2035977201871625e-07 0 -1.6453780853591622e-05 6.8880365032213237e-06 0 -1.1489584922291339e-05 4.5133256370183393e-06 0 -1.3249988165069526e-05 9.0605994064729509e-06 0 -1.3012617457745071e-05 -1.6503098458091866e-05 0 -1.094279522351188e-05 -1.4289903701222744e-05 0 -1.223894377518334e-05 -1.412549990400234e-05 0 -4.9876533968553716e-06 0.00012215893394388255 0 -1.15578151414529e-06 0.00014161772402654539 0 -1.5320384292114741e-05 0.00013904765986690455 0 -3.1853282639090885e-05 -5.6929150514682982e-05 0 -3.4570790158376713e-05 -6.5859540888934723e-05 0 -2.8027206834867462e-05 -6.4517552173872184e-05 0 -4.3368985721450672e-07 -3.4790492750103287e-07 0 -3.6015604480864384e-07 -3.9275396315345044e-07 0 -2.2030115078861628e-07 -1.7565995553934812e-07 0 -8.6724648124643596e-07 7.8888714839983253e-07 0 -4.1239890706158974e-07 5.209684881049205e-07 0 -5.3716213125574516e-07 5.1672742856011052e-07 0 -8.8121552791212564e-10 -3.7924154297088716e-10 0 -6.7655110232688736e-07 -6.2933984719541333e-07 0 -8.97429053293048e-07 -6.6900569199097272e-07 0 -8.6266989197047688e-10 2.5917042294387919e-10 0 -8.6180055513820523e-07 4.5709634073034394e-07 0 -7.6764027100076661e-07 5.5140769004016807e-07 0 -8.0145061274779375e-06 -4.6676532296090962e-06 0 -9.7679442106550599e-06 -6.695226187125405e-06 0 -8.9624919408264078e-06 -6.0447773822377973e-06 0 -1.0348428728037267e-05 -8.0250007137432991e-06 0 -8.9624919408264078e-06 -6.0447773822377973e-06 0 -9.7679442106550599e-06 -6.695226187125405e-06 0 -2.49855198304115e-05 5.6788868062896527e-05 0 -2.1881477041844479e-05 4.0089534557795593e-05 0 -1.3668595510206753e-05 5.2776941241608442e-05 0 -1.0069043439490723e-05 3.5382914201838832e-05 0 -1.3668595510206755e-05 5.2776941241608442e-05 0 -2.1881477041844479e-05 4.0089534557795593e-05 0 -1.0995142220813517e-06 7.7919692405512646e-06 0 3.0870695252377359e-07 5.3087889232485555e-06 0 2.0825984011316118e-06 9.0138052025170027e-06 0 -8.0145061274779375e-06 -4.6676532296090962e-06 0 -6.1560619781481708e-06 -2.3072660726596338e-06 0 -6.1348423901702527e-06 -3.2203259568570542e-06 0 -1.8407273163348801e-07 3.2721306462513252e-07 0 -1.6531116565695979e-07 2.8463073096531515e-07 0 -1.4180611070620228e-07 6.0024577595276428e-07 0 -1.0716995233940302e-05 -1.176914801821357e-05 0 -1.094279522351188e-05 -1.4289903701222746e-05 0 -9.1806852412743321e-06 -1.1780558581900038e-05 0 -3.7997752605535668e-05 9.495534540805291e-05 0 -4.4464965563475278e-05 8.3029860041276512e-05 0 -3.2368433232970385e-05 7.3668067144257493e-05 0 -1.5150725144049569e-05 -1.9250074783035782e-05 0 -1.4934632376592797e-05 -1.7445027971551097e-05 0 -1.6108367304362831e-05 -1.9445938707523155e-05 0 -8.1318237353592885e-06 -1.9881345504892777e-05 0 -9.5555498070347277e-06 -1.875747229864413e-05 0 -9.5378010775745399e-06 -2.1854182348744599e-05 0 -2.4844433386226151e-06 7.3036042559132994e-07 0 -1.558481117031934e-06 9.3944015085918397e-07 0 -2.5833395089641883e-06 7.5797643711190391e-07 0 -2.4685699709060401e-05 2.6791144409437792e-05 0 -1.6090678311912268e-05 1.7001643552818317e-05 0 -1.5383895267997348e-05 2.5707996386039935e-05 0 -4.3842700018774986e-06 -1.3722291093876781e-06 0 -6.6454441481938075e-06 -1.7205405881478906e-06 0 -4.0476203467578505e-06 -7.5872501368646645e-07 0 -9.7189933920837624e-06 1.9287546812040188e-06 0 -6.2668955758242323e-06 1.5163267852498085e-06 0 -5.7681001443925248e-06 5.9265535742976483e-07 0 -5.2823097234941396e-06 -1.0142478209176543e-05 0 -3.8805406702932757e-06 -7.1793471889479702e-06 0 -6.2370773358670217e-06 -6.7570032483920117e-06 0 -1.8899819007194625e-06 5.7179030968566361e-07 0 -3.1242077623404527e-06 5.7123286605370393e-07 0 -1.7359044928253241e-06 7.4407226171338805e-07 0 -2.0998582345900719e-06 -9.3000068717473087e-07 0 -1.5475439398604705e-06 -9.1811033690132221e-07 0 -3.3091595872670166e-06 -8.9553209273532422e-07 0 -4.8210052861795237e-05 3.1030843017430263e-05 0 -3.6213450872359366e-05 2.3591578078495718e-05 0 -3.8112172297191424e-05 3.3301211317489181e-05 0 -2.8093994403714743e-05 -1.5569372365854642e-05 0 -2.3973922271917977e-05 -1.6593644971439577e-05 0 -2.2431455503301503e-05 -1.2052204979290617e-05 0 -7.112501359538505e-06 1.5980889057111543e-05 0 -2.6180849881258961e-07 1.200379656727484e-05 0 -2.822117102342419e-06 2.2109818156243554e-05 0 5.7267674897394565e-06 1.3930888684867423e-05 0 -2.8221171023424195e-06 2.2109818156243554e-05 0 -2.6180849881258961e-07 1.200379656727484e-05 0 -1.2486858482644356e-05 -1.7312354519610106e-05 0 -1.7177303057773523e-05 -1.9278168323473694e-05 0 -1.4729062134380854e-05 -2.3074067581269726e-05 0 -1.8881802529382651e-05 -2.7554233690545028e-05 0 -1.4729062134380854e-05 -2.3074067581269726e-05 0 -1.7177303057773523e-05 -1.9278168323473694e-05 0 -4.2128745463245514e-06 -2.8266826489074329e-06 0 -1.9401425430033391e-06 4.4382312007746402e-07 0 -2.6704560470749836e-06 2.2643523119114043e-06 0 -1.0380690595921163e-05 -2.3757913187496856e-05 0 -1.2479556559011914e-05 -2.3239748710717009e-05 0 -1.0708538652268231e-05 -2.5295826981952621e-05 0 -1.8407273163348801e-07 3.2721306462513252e-07 0 -7.0424001013673118e-07 -4.5957254474176284e-08 0 -4.7699451937600763e-07 -1.6794844437086915e-07 0 -1.4134034251088652e-05 -8.2678338598624227e-06 0 -1.8954077521582857e-05 -1.1809360952707781e-05 0 -1.5502051846868489e-05 -1.1453479757740581e-05 0 -7.6485572829628289e-06 -2.896725121646143e-05 0 -7.9556125227455821e-06 -2.6421775464395683e-05 0 -9.3094253475425389e-06 -2.6109087829417764e-05 0 -3.8301047589562951e-05 4.720788381135972e-05 0 -4.7889173877970143e-05 4.7526253029180892e-05 0 -3.8112172297191424e-05 3.3301211317489181e-05 0 -5.3680511659540347e-05 0.00014051272855136361 0 -3.8442715384523141e-05 0.00012607078335603953 0 -3.8180275673957515e-05 0.00014205941424540541 0 -1.1921390137606799e-05 -6.5039479341207377e-05 0 -1.7471551131015183e-05 -5.8367084846266222e-05 0 -1.8356315623553059e-05 -6.5980764254964735e-05 0 -2.3714805870112855e-06 4.6733525243526242e-07 0 -1.7817926712195306e-06 8.8420646801206673e-07 0 -1.5537443648654528e-06 9.2553594755915125e-07 0 -1.0348428728037267e-05 -8.0250007137432991e-06 0 -9.7679442106550599e-06 -6.695226187125405e-06 0 -1.1596839311239191e-05 -9.2284195374392675e-06 0 -1.5294519350038872e-07 1.0980155289758841e-06 0 -7.7641722656338777e-08 1.637945817418438e-06 0 4.06055452528319e-08 1.2964469384845327e-06 0 1.5780554952005497e-07 1.9447120359042076e-06 0 4.06055452528319e-08 1.2964469384845327e-06 0 -7.7641722656338751e-08 1.6379458174184378e-06 0 -6.9167833026149283e-06 1.1954481131081349e-06 0 -1.0223440574412414e-05 2.4937078376722514e-06 0 -9.0552430041648206e-06 9.1833772640168474e-07 0 -1.8881802529382651e-05 -2.7554233690545028e-05 0 -2.3320430147195691e-05 -3.2315299386893062e-05 0 -2.0643405308238349e-05 -3.6750024052319021e-05 0 -1.0434390183134494e-05 8.7360930919285647e-07 0 -7.9277541708588458e-06 7.8006104661773485e-08 0 -1.2534799341335202e-05 1.6647591020399031e-06 0 -1.0499299097686885e-05 9.4345252957726115e-05 0 -2.4574097347198545e-05 0.0001104722175863313 0 -2.7004324792394701e-05 9.6004029840723802e-05 0 -1.0499299097686885e-05 9.4345252957726115e-05 0 -2.7004324792394701e-05 9.6004029840723802e-05 0 -2.364165057876746e-05 8.1159087721428645e-05 0 -3.7997752605535668e-05 9.495534540805291e-05 0 -2.3641650578767463e-05 8.1159087721428632e-05 0 -2.7004324792394701e-05 9.6004029840723802e-05 0 -2.6498910259278153e-05 -4.384915374916579e-05 0 -2.2465912248931363e-05 -5.136500624662215e-05 0 -1.9479491152724029e-05 -4.3566650948878787e-05 0 -2.6498910259278153e-05 -4.384915374916579e-05 0 -1.9479491152724029e-05 -4.3566650948878787e-05 0 -2.0643405308238349e-05 -3.6750024052319021e-05 0 3.0870695252377359e-07 5.3087889232485555e-06 0 1.2389721414681684e-06 6.5300125979221233e-06 0 2.0825984011316118e-06 9.0138052025170027e-06 0 -4.0998556186427435e-10 -1.9877504166477426e-10 0 -2.1524218842864248e-10 1.8270532950139765e-11 0 -2.2030115078861628e-07 -1.7565995553934812e-07 0 -3.6532498574397163e-10 1.8034640634433069e-10 0 -5.3255967488787853e-10 2.5004184441861465e-10 0 -4.1239890706158974e-07 5.209684881049205e-07 0 -1.938163580558918e-06 8.0032586173844183e-07 0 -1.553744364865453e-06 9.2553594755915125e-07 0 -1.0200353895603488e-06 1.0271028100873548e-06 0 -6.2765453727776853e-06 -8.2992542102347374e-06 0 -6.7093497564840259e-06 -6.7362836064880725e-06 0 -8.2916409294969628e-06 -1.000909606969444e-05 0 -7.9277541708588458e-06 7.8006104661773498e-08 0 -9.0552430041648189e-06 9.1833772640168485e-07 0 -1.2534799341335202e-05 1.6647591020399031e-06 0 -2.3523375068500298e-10 1.3110572166950254e-10 0 -2.1904218429202852e-07 4.0458539899345136e-07 0 -1.4210874755415079e-07 1.4340929927129691e-07 0 -9.7189933920837624e-06 1.9287546812040188e-06 0 -8.0575949980249312e-06 5.6611824015706072e-07 0 -1.1303864049254698e-05 1.5488662798861312e-06 0 -6.6454441481938075e-06 -1.7205405881478906e-06 0 -7.693772344356968e-06 -1.4638315509573229e-06 0 -5.6564225483211591e-06 -8.0123174509370356e-07 0 -2.4576342469048176e-05 -2.2271665372400014e-05 0 -2.3973922271917977e-05 -1.6593644971439573e-05 0 -2.8827557500675616e-05 -2.2675954195399823e-05 0 -4.2403414939644343e-07 7.2629123410123473e-07 0 -4.1071932414974028e-07 6.169563896124051e-07 0 -7.33135480365104e-07 9.1782893105207436e-07 0 -1.3012617457745071e-05 -1.6503098458091866e-05 0 -1.4934632376592797e-05 -1.7445027971551097e-05 0 -1.3823560745913259e-05 -1.8275104996400484e-05 0 -1.6983146287002837e-06 2.2079992519597834e-06 0 -7.1186367409967795e-07 2.3480327702276887e-06 0 -1.7207816607559704e-06 1.5144800645737574e-06 0 -4.5407799182089207e-06 6.7374062849367348e-05 0 -1.8357642815910019e-05 6.84405776852277e-05 0 -1.3668595510206753e-05 5.2776941241608442e-05 0 -1.8407273163348801e-07 3.2721306462513252e-07 0 -2.5834439666095329e-07 -5.1350007730462889e-08 0 -1.6531116565695979e-07 2.8463073096531515e-07 0 -4.4432059883314227e-05 0.00015880380207894962 0 -3.8180275673957515e-05 0.00014205941424540541 0 -2.7027773569452493e-05 0.00015108283969403642 0 -1.6329301448974827e-05 -7.4458192223224396e-05 0 -1.8356315623553059e-05 -6.5980764254964735e-05 0 -2.3289929014975585e-05 -7.0240471612449456e-05 0 -4.1071932414974028e-07 6.169563896124051e-07 0 -8.2229651249881537e-07 8.6821727705350749e-07 0 -7.33135480365104e-07 9.1782893105207436e-07 0 -1.6983146287002837e-06 2.2079992519597834e-06 0 -2.8519251781966178e-06 7.3652471210079779e-07 0 -3.4066306803010483e-06 1.0311688919518212e-06 0 -1.214466544767479e-05 0.00015931612393290293 0 -1.4655285169222989e-05 0.00017658832580490436 0 -2.8139682118598685e-05 0.00017040470847076434 0 -4.4432059883314227e-05 0.00015880380207894962 0 -2.8139682118598682e-05 0.00017040470847076432 0 -4.1937454632613804e-05 0.00017553446835263088 0 -3.0060166886600314e-05 -7.3694045680138711e-05 0 -2.8980113803718785e-05 -8.1555500720279124e-05 0 -2.3054366071126154e-05 -7.9362372215448611e-05 0 -1.6329301448974827e-05 -7.4458192223224396e-05 0 -2.3054366071126154e-05 -7.9362372215448611e-05 0 -1.7392497290617314e-05 -8.2386741932495672e-05 0 -1.3249988165069526e-05 9.0605994064729509e-06 0 -2.1268099309851748e-05 1.5766068207003032e-05 0 -2.0838922578932693e-05 1.0978081925022011e-05 0 -1.8112953038792925e-05 -1.4200403987408784e-05 0 -2.3973922271917977e-05 -1.6593644971439577e-05 0 -2.0827885765914218e-05 -1.8678250398516727e-05 0 -2.4576342469048176e-05 -2.2271665372400014e-05 0 -2.0827885765914218e-05 -1.8678250398516727e-05 0 -2.3973922271917977e-05 -1.6593644971439577e-05 0 -3.8301047589562951e-05 4.720788381135972e-05 0 -3.8112172297191424e-05 3.3301211317489181e-05 0 -3.0144549761102427e-05 3.85625404916591e-05 0 -2.4685699709060401e-05 2.6791144409437792e-05 0 -3.0144549761102427e-05 3.85625404916591e-05 0 -3.8112172297191424e-05 3.3301211317489181e-05 0 -8.6724648124643596e-07 7.8888714839983253e-07 0 -1.2301885378943507e-06 8.1894079157942523e-07 0 -1.558481117031934e-06 9.3944015085918397e-07 0 1.230870289945241e-05 3.5470191372334162e-05 0 1.5139283696285639e-05 5.1681810748044806e-05 0 4.0387977162518221e-07 3.6351369967211365e-05 0 -2.0998582345900719e-06 -9.3000068717473087e-07 0 -3.4629076512903678e-06 -8.8371827657351068e-07 0 -2.3218717863501288e-06 -7.0743699221734858e-07 0 -1.8899819007194625e-06 5.7179030968566361e-07 0 -1.8245037764369686e-06 3.0787725689654247e-07 0 -2.8456511927354839e-06 4.1374251116280217e-07 0 -8.0145061274779375e-06 -4.6676532296090962e-06 0 -7.1221210073676331e-06 -3.5349263918697211e-06 0 -6.1560619781481708e-06 -2.3072660726596338e-06 0 -3.1242077623404527e-06 5.7123286605370393e-07 0 -2.7046657512126045e-06 7.0721132719200976e-07 0 -1.7359044928253241e-06 7.4407226171338805e-07 0 -3.3091595872670166e-06 -8.9553209273532422e-07 0 -1.5475439398604707e-06 -9.1811033690132221e-07 0 -2.3382662382990664e-06 -7.1982642932294213e-07 0 -1.19435257691408e-05 2.147355443647822e-06 0 -1.5699882666948033e-05 3.9955936126632357e-06 0 -1.2534799341335202e-05 1.6647591020399031e-06 0 -1.753391222419835e-05 3.6874813058769697e-06 0 -1.2534799341335202e-05 1.6647591020399031e-06 0 -1.5699882666948033e-05 3.9955936126632357e-06 0 -1.214466544767479e-05 0.00015931612393290293 0 -1.5320384292114741e-05 0.00013904765986690455 0 -1.15578151414529e-06 0.00014161772402654539 0 -3.0060166886600314e-05 -7.3694045680138711e-05 0 -2.8027206834867462e-05 -6.4517552173872184e-05 0 -3.457079015837672e-05 -6.585954088893471e-05 0 -7.6485572829628289e-06 -2.896725121646143e-05 0 -6.047464530951578e-06 -3.0306959886053249e-05 0 -6.4060390876492247e-06 -2.8671502250147881e-05 0 -1.3926133404387055e-05 -2.4414699160403523e-05 0 -1.1666384590497298e-05 -2.5843992740119283e-05 0 -1.4321774466050527e-05 -2.2796997603530949e-05 0 -5.7463322586509527e-06 -7.9293026597418197e-07 0 -4.4454470230632071e-06 -1.2040739263640425e-07 0 -4.7905842422601202e-06 4.0182800342297058e-08 0 -1.7048965539049108e-05 -2.1119386584659096e-05 0 -1.6349183844150463e-05 -2.0558964611132546e-05 0 -1.6108367304362831e-05 -1.9445938707523155e-05 0 -5.6382787421733913e-07 -1.8993298275054222e-05 0 -2.3064824086026635e-06 -1.8837840036320458e-05 0 -3.7144208385317884e-06 -2.3177293716363231e-05 0 -7.5355842494300397e-06 -2.2645520346474477e-05 0 -5.8406093354305885e-06 -2.3101593775703354e-05 0 -6.1639839089108631e-06 -1.9372049025164526e-05 0 -1.8046304070284688e-05 -8.9455588534621912e-06 0 -1.8954077521582857e-05 -1.1809360952707781e-05 0 -1.4134034251088652e-05 -8.2678338598624227e-06 0 -1.1666384590497298e-05 -2.5843992740119283e-05 0 -1.0708538652268231e-05 -2.5295826981952621e-05 0 -1.2479556559011912e-05 -2.3239748710717006e-05 0 -2.0911816724630594e-05 7.704619763445899e-06 0 -1.5699882666948033e-05 3.9955936126632357e-06 0 -1.6453780853591622e-05 6.8880365032213237e-06 0 -1.7817926712195308e-06 8.8420646801206673e-07 0 -1.0688259959448487e-06 1.2273380256922047e-06 0 -1.5537443648654528e-06 9.2553594755915125e-07 0 -1.8112953038792925e-05 -1.4200403987408784e-05 0 -1.7177303057773523e-05 -1.9278168323473694e-05 0 -1.4463382361573705e-05 -1.3943859330622641e-05 0 -1.2486858482644356e-05 -1.7312354519610106e-05 0 -1.4463382361573705e-05 -1.3943859330622641e-05 0 -1.7177303057773523e-05 -1.9278168323473694e-05 0 -6.5057925297515562e-06 -7.847183776461605e-07 0 -5.7463322586509527e-06 -7.9293026597418197e-07 0 -4.7905842422601202e-06 4.0182800342297058e-08 0 -1.8112953038792925e-05 -1.4200403987408784e-05 0 -1.5502051846868489e-05 -1.1453479757740581e-05 0 -1.8954077521582857e-05 -1.1809360952707781e-05 0 -5.6831286987118443e-06 -2.0719920063587315e-07 0 -6.5057925297515562e-06 -7.847183776461605e-07 0 -4.7905842422601202e-06 4.0182800342297058e-08 0 -2.9080925675754017e-06 -4.2746444341724876e-07 0 -2.0658180629306595e-06 4.3408470108728292e-07 0 -4.2574269525477352e-06 2.2895750446186261e-07 0 -1.8112953038792925e-05 -1.4200403987408784e-05 0 -1.8954077521582857e-05 -1.1809360952707781e-05 0 -2.3973922271917977e-05 -1.6593644971439577e-05 0 -2.4685699709060401e-05 2.6791144409437792e-05 0 -3.8112172297191424e-05 3.3301211317489181e-05 0 -2.9334687481246827e-05 2.2740585203704417e-05 0 -1.4953330773608957e-09 -5.5433754084748311e-10 0 -1.0624762910742419e-06 -5.7583390477416187e-07 0 -2.3218717863501288e-06 -7.0743699221734858e-07 0 -1.1810973839456969e-09 2.9171519965246831e-10 0 -1.8245037764369686e-06 3.0787725689654247e-07 0 -9.015261486292296e-07 3.2374796241616099e-07 0 -5.6831286987118443e-06 -2.0719920063587315e-07 0 -4.7905842422601202e-06 4.0182800342297058e-08 0 -4.5075138775023514e-06 2.2931193525022879e-07 0 -6.2055177222532407e-06 2.068911725750857e-07 0 -5.0271469284443311e-06 -5.2035977201871625e-07 0 -4.2574269525477352e-06 2.2895750446186261e-07 0 -1.5270995666533477e-06 -7.5529605837806849e-07 0 -8.799568660231247e-07 -6.4233363557152184e-07 0 -1.4255576217128706e-06 -4.4638401186060003e-07 0 -8.2916409294969628e-06 -1.000909606969444e-05 0 -1.1357358948870489e-05 -1.21448647585959e-05 0 -8.4166211755870746e-06 -1.5132072347850787e-05 0 -1.8407273163348801e-07 3.2721306462513252e-07 0 -1.4180611070620225e-07 6.0024577595276438e-07 0 -6.658333791030648e-08 7.7509542296064602e-07 0 -4.4432059883314227e-05 0.00015880380207894962 0 -5.3680511659540347e-05 0.00014051272855136361 0 -3.8180275673957515e-05 0.00014205941424540541 0 -1.6329301448974827e-05 -7.4458192223224396e-05 0 -1.1921390137606799e-05 -6.5039479341207377e-05 0 -1.8356315623553059e-05 -6.5980764254964735e-05 0 -3.5490939005270967e-06 5.2172090268468397e-07 0 -3.1242077623404527e-06 5.7123286605370393e-07 0 -4.5075138775023514e-06 2.2931193525022879e-07 0 -2.9080925675754017e-06 -4.2746444341724876e-07 0 -5.0271469284443311e-06 -5.2035977201871625e-07 0 -3.3091595872670166e-06 -8.9553209273532422e-07 0 -2.422405708478969e-07 6.2889496980140528e-07 0 -5.5441271869797676e-07 9.4553427065729397e-07 0 -2.8040638869563648e-07 8.8862745591592162e-07 0 -1.1357358948870489e-05 -1.21448647585959e-05 0 -1.2486858482644356e-05 -1.7312354519610106e-05 0 -8.4166211755870746e-06 -1.5132072347850787e-05 0 -7.187948163495976e-05 0.0001051403561234084 0 -6.9076356583679902e-05 8.7959618562610464e-05 0 -5.440482027719557e-05 9.5632287708204478e-05 0 -1.5893578689225373e-06 -3.7536793427263927e-05 0 -8.5565599868111982e-06 -4.2473761179679371e-05 0 -1.6501243876227504e-06 -4.5648918002689355e-05 0 -2.6498910259278153e-05 -4.384915374916579e-05 0 -2.0643405308238349e-05 -3.6750024052319014e-05 0 -2.5776297242235591e-05 -3.7135957925031577e-05 0 -4.4958714851957758e-06 -9.2495957688572048e-07 0 -6.1348423901702527e-06 -3.2203259568570538e-06 0 -6.1560619781481708e-06 -2.3072660726596338e-06 0 -1.0434390183134494e-05 8.7360930919285647e-07 0 -8.0575949980249295e-06 5.6611824015706051e-07 0 -7.5384480750123359e-06 2.4189870334675104e-08 0 -7.371373074523882e-06 -9.5892207749614338e-07 0 -5.5454080888225325e-06 -3.9608183310824352e-07 0 -5.6564225483211591e-06 -8.0123174509370356e-07 0 -8.4561440110298781e-07 3.1164723181779132e-06 0 -1.3316455537916129e-06 1.5202786420824393e-06 0 -7.5735122908246763e-08 2.1544420476737603e-06 0 -2.422405708478969e-07 6.2889496980140528e-07 0 -4.2403414939644343e-07 7.2629123410123473e-07 0 -5.5441271869797687e-07 9.4553427065729397e-07 0 -1.0348428728037267e-05 -8.0250007137432991e-06 0 -1.2033222099434982e-05 -1.0807641877672457e-05 0 -1.0314097083371641e-05 -9.2202802290106402e-06 0 -1.0434390183134494e-05 8.7360930919285647e-07 0 -1.1303864049254698e-05 1.5488662798861312e-06 0 -8.0575949980249312e-06 5.6611824015706072e-07 0 -7.371373074523882e-06 -9.5892207749614338e-07 0 -5.6564225483211583e-06 -8.0123174509370346e-07 0 -7.693772344356968e-06 -1.4638315509573232e-06 0 -1.6983146287002837e-06 2.2079992519597834e-06 0 -1.7207816607559704e-06 1.5144800645737574e-06 0 -2.8519251781966178e-06 7.3652471210079779e-07 0 -2.2458530521789111e-05 -6.1002461582134957e-05 0 -2.2465912248931363e-05 -5.136500624662215e-05 0 -2.6420893184562866e-05 -5.6571480775704436e-05 0 -2.7304913610315403e-05 0.00013166683282555259 0 -2.4574097347198548e-05 0.0001104722175863313 0 -1.7060728909267562e-05 0.0001218406719535862 0 -1.8046304070284688e-05 -8.9455588534621912e-06 0 -1.4134034251088652e-05 -8.267833859862421e-06 0 -1.4373337694144694e-05 -6.1413747425599483e-06 0 -1.1171358945851715e-05 -5.3012828881487722e-06 0 -1.4373337694144694e-05 -6.1413747425599483e-06 0 -1.4134034251088652e-05 -8.2678338598624227e-06 0 -4.7852012332797141e-06 -2.2027763898723589e-06 0 -6.1236710536698356e-06 -3.2013564008358227e-06 0 -5.6353412854814643e-06 -4.242068050115617e-06 0 -7.3974900053024178e-06 -5.3279299882318636e-06 0 -5.6353412854814643e-06 -4.242068050115617e-06 0 -6.1236710536698356e-06 -3.2013564008358227e-06 0 -6.7655110232688736e-07 -6.2933984719541333e-07 0 -8.799568660231247e-07 -6.4233363557152184e-07 0 -1.5475439398604707e-06 -9.1811033690132221e-07 0 -1.5270995666533477e-06 -7.5529605837806849e-07 0 -1.5475439398604707e-06 -9.1811033690132221e-07 0 -8.799568660231247e-07 -6.4233363557152184e-07 0 -2.004321678975821e-06 8.2192263313591868e-07 0 -1.2301885378943507e-06 8.1894079157942523e-07 0 -1.7359044928253241e-06 7.4407226171338805e-07 0 -7.6764027100076661e-07 5.5140769004016807e-07 0 -1.7359044928253241e-06 7.4407226171338805e-07 0 -1.2301885378943507e-06 8.1894079157942523e-07 0 -1.3012617457745071e-05 -1.6503098458091866e-05 0 -1.2516294829481192e-05 -1.8576671740610418e-05 0 -1.1318982638498715e-05 -1.6692128647520542e-05 0 -4.4958714851957758e-06 -9.2495957688572048e-07 0 -3.4066306803010483e-06 1.0311688919518212e-06 0 -2.8519251781966178e-06 7.3652471210079779e-07 0 1.5780554952005497e-07 1.9447120359042076e-06 0 -6.5898422737054793e-08 1.5050105031037457e-06 0 4.06055452528319e-08 1.2964469384845327e-06 0 -1.0499299097686885e-05 9.4345252957726115e-05 0 -1.1234841280214945e-05 0.000111001921653085 0 -2.4574097347198545e-05 0.0001104722175863313 0 -2.6498910259278153e-05 -4.384915374916579e-05 0 -2.8212690581975966e-05 -5.1235356885063907e-05 0 -2.2465912248931363e-05 -5.136500624662215e-05 0 -1.0499299097686885e-05 9.4345252957726115e-05 0 -2.364165057876746e-05 8.1159087721428645e-05 0 -1.1231626743069189e-05 7.8622990600181575e-05 0 -8.4561440110298781e-07 3.1164723181779132e-06 0 -2.7521721047116941e-06 2.4436715176916654e-06 0 -1.3316455537916129e-06 1.5202786420824393e-06 0 -8.4561440110298781e-07 3.1164723181779132e-06 0 -2.1048070388718773e-06 4.8587842645270811e-06 0 -2.7521721047116941e-06 2.4436715176916654e-06 0 -2.49855198304115e-05 5.6788868062896527e-05 0 -1.8357642815910019e-05 6.8440577685227713e-05 0 -3.2368433232970385e-05 7.3668067144257493e-05 0 -2.364165057876746e-05 8.1159087721428645e-05 0 -3.2368433232970385e-05 7.3668067144257493e-05 0 -1.8357642815910019e-05 6.8440577685227713e-05 0 -3.8519143081182417e-06 -2.4571063915625591e-07 0 -2.3218717863501288e-06 -7.0743699221734858e-07 0 -4.1892230135486292e-06 -6.3836018727485996e-07 0 -2.8085219387687375e-06 -1.1668269055293006e-07 0 -3.2111879512080257e-06 1.6125276310518154e-07 0 -1.8245037764369686e-06 3.0787725689654247e-07 0 -1.2486858482644356e-05 -1.7312354519610106e-05 0 -1.4729062134380854e-05 -2.3074067581269726e-05 0 -9.9170201371477477e-06 -2.297155952639099e-05 0 -1.7048965539049108e-05 -2.1119386584659096e-05 0 -1.7274027979719383e-05 -2.2282991515330937e-05 0 -1.6349183844150463e-05 -2.0558964611132546e-05 0 -5.6382787421733913e-07 -1.8993298275054222e-05 0 -3.7144208385317884e-06 -2.3177293716363231e-05 0 -1.1151932597236003e-06 -2.2580692054801246e-05 0 -2.3298956011772272e-06 6.5143143201568441e-07 0 -2.8519251781966178e-06 7.3652471210079779e-07 0 -1.7207816607559704e-06 1.5144800645737574e-06 0 1.5780554952005497e-07 1.9447120359042076e-06 0 3.8658572702404635e-07 3.1427349549328255e-06 0 -7.5735122908246763e-08 2.1544420476737603e-06 0 -1.0380690595921163e-05 -2.3757913187496856e-05 0 -9.5378010775745399e-06 -2.1854182348744599e-05 0 -1.1890245273162814e-05 -2.1631402060486975e-05 0 -1.079449162553607e-05 -2.0252794342158733e-05 0 -1.1890245273162814e-05 -2.1631402060486975e-05 0 -9.5378010775745399e-06 -2.1854182348744599e-05 0 -7.9973409523837762e-06 -1.2951880143532226e-05 0 -7.8347435198873548e-06 -1.6405593806911451e-05 0 -5.5011410571883563e-06 -1.3003769631021092e-05 0 -4.4432059883314227e-05 0.00015880380207894962 0 -6.0094879992599119e-05 0.00015696296027545778 0 -5.3680511659540347e-05 0.00014051272855136361 0 -1.6329301448974827e-05 -7.4458192223224396e-05 0 -1.0020697541183003e-05 -7.3379594156488241e-05 0 -1.1921390137606799e-05 -6.5039479341207377e-05 0 -1.5666846547354106e-05 -2.1282142716896092e-05 0 -1.6688104736477585e-05 -2.1905113657269378e-05 0 -1.4321774466050527e-05 -2.2796997603530949e-05 0 -5.3664111264843427e-06 -2.6476843978385187e-05 0 -6.4060390876492247e-06 -2.8671502250147881e-05 0 -4.338589739868277e-06 -2.921066821209662e-05 0 -1.214466544767479e-05 0.00015931612393290293 0 -2.7027773569452493e-05 0.00015108283969403642 0 -1.5320384292114741e-05 0.00013904765986690455 0 -3.0060166886600314e-05 -7.3694045680138711e-05 0 -2.3289929014975585e-05 -7.0240471612449456e-05 0 -2.8027206834867462e-05 -6.4517552173872184e-05 0 -2.422405708478969e-07 6.2889496980140528e-07 0 -2.8040638869563648e-07 8.8862745591592162e-07 0 -1.4180611070620228e-07 6.0024577595276428e-07 0 -1.5294519350038872e-07 1.0980155289758841e-06 0 -1.4180611070620228e-07 6.0024577595276428e-07 0 -2.8040638869563648e-07 8.8862745591592162e-07 0 -4.9876533968553716e-06 0.00012215893394388255 0 -1.5320384292114741e-05 0.00013904765986690455 0 -1.7060728909267562e-05 0.0001218406719535862 0 -3.1853282639090885e-05 -5.6929150514682982e-05 0 -2.8027206834867462e-05 -6.4517552173872184e-05 0 -2.6420893184562866e-05 -5.6571480775704436e-05 0 -2.0998582345900719e-06 -9.3000068717473087e-07 0 -2.3218717863501292e-06 -7.0743699221734848e-07 0 -1.0624762910742419e-06 -5.7583390477416187e-07 0 -1.8899819007194625e-06 5.7179030968566361e-07 0 -9.015261486292296e-07 3.2374796241616099e-07 0 -1.8245037764369686e-06 3.0787725689654247e-07 0 -1.0069043439490723e-05 3.5382914201838832e-05 0 -1.9549362150686134e-06 5.0363043538344139e-05 0 -1.3668595510206753e-05 5.2776941241608442e-05 0 -3.8519143081182417e-06 -2.4571063915625591e-07 0 -1.8462966604259557e-06 -3.3373539551079008e-07 0 -2.3218717863501288e-06 -7.0743699221734858e-07 0 -2.8085219387687375e-06 -1.1668269055293006e-07 0 -1.8245037764369686e-06 3.0787725689654247e-07 0 -1.3599973738792111e-06 6.2877236496744428e-08 0 -7.4796811525468834e-05 0.00014014888099983422 0 -6.1895934332556734e-05 0.00012758148841352629 0 -5.3680511659540347e-05 0.00014051272855136361 0 -2.650649962910642e-06 -6.3263784778841772e-05 0 -7.5937546255557808e-06 -5.7932761143084026e-05 0 -1.1921390137606799e-05 -6.5039479341207377e-05 0 -7.112501359538505e-06 1.5980889057111543e-05 0 -1.6090678311912268e-05 1.7001643552818317e-05 0 -9.1010493754707663e-06 1.1431184723697213e-05 0 -1.3249988165069526e-05 9.0605994064729509e-06 0 -9.1010493754707663e-06 1.1431184723697215e-05 0 -1.6090678311912268e-05 1.7001643552818317e-05 0 -1.8881802529382651e-05 -2.7554233690545028e-05 0 -1.7177303057773523e-05 -1.9278168323473694e-05 0 -2.1067618671159238e-05 -2.2797861017687295e-05 0 -4.2128745463245514e-06 -2.8266826489074329e-06 0 -3.8805406702932757e-06 -7.1793471889479702e-06 0 -1.9212278903725883e-06 -4.5705433065586469e-06 0 -2.49855198304115e-05 5.6788868062896527e-05 0 -3.0334347116418404e-05 4.8082889949941816e-05 0 -2.1881477041844479e-05 4.0089534557795593e-05 0 -2.4685699709060401e-05 2.6791144409437792e-05 0 -2.1881477041844479e-05 4.0089534557795593e-05 0 -3.0144549761102427e-05 3.85625404916591e-05 0 -1.8112953038792925e-05 -1.4200403987408784e-05 0 -2.0827885765914218e-05 -1.8678250398516727e-05 0 -1.7177303057773523e-05 -1.9278168323473694e-05 0 -1.2486858482644356e-05 -1.7312354519610106e-05 0 -9.9170201371477477e-06 -2.297155952639099e-05 0 -8.4166211755870746e-06 -1.5132072347850787e-05 0 -1.5150725144049569e-05 -1.9250074783035782e-05 0 -1.6108367304362831e-05 -1.9445938707523155e-05 0 -1.6349183844150463e-05 -2.0558964611132546e-05 0 -4.5757604951647723e-06 -2.061816587447595e-05 0 -3.7144208385317884e-06 -2.3177293716363231e-05 0 -2.3064824086026635e-06 -1.8837840036320458e-05 0 -5.1165588440362704e-06 -6.536351613305159e-07 0 -7.1221210073676331e-06 -3.5349263918697211e-06 0 -5.7599774242291268e-06 -1.9640297624672267e-06 0 -8.0145061274779375e-06 -4.6676532296090962e-06 0 -8.9624919408264078e-06 -6.0447773822377973e-06 0 -7.1221210073676331e-06 -3.5349263918697211e-06 0 -3.9055210640026757e-07 4.6467226944370532e-06 0 -5.0515058703951827e-07 3.4619917830270801e-06 0 -1.8976872996292449e-06 3.0086324063344953e-06 0 -8.2916409294969628e-06 -1.000909606969444e-05 0 -6.7093497564840259e-06 -6.7362836064880725e-06 0 -9.0870594174128687e-06 -8.0520245065479667e-06 0 -1.214466544767479e-05 0.00015931612393290293 0 -1.1557815141452889e-06 0.00014161772402654539 0 2.9224136225157412e-06 0.00015789750430944414 0 -3.0060166886600314e-05 -7.3694045680138711e-05 0 -3.457079015837672e-05 -6.585954088893471e-05 0 -3.707084103825485e-05 -7.3170269067506576e-05 0 -1.6983146287002837e-06 2.2079992519597834e-06 0 -1.8976872996292449e-06 3.0086324063344953e-06 0 -5.0515058703951827e-07 3.4619917830270801e-06 0 -2.7146484123477245e-06 -1.2330299160426588e-05 0 -5.5011410571883563e-06 -1.3003769631021092e-05 0 -3.5265799729167861e-06 -1.4698968764872725e-05 0 -1.079449162553607e-05 -2.0252794342158733e-05 0 -9.5378010775745399e-06 -2.1854182348744599e-05 0 -9.5555498070347277e-06 -1.875747229864413e-05 0 2.8750409876169244e-08 3.1095760654867637e-06 0 -7.1186367409967795e-07 2.3480327702276883e-06 0 -5.0515058703951827e-07 3.4619917830270801e-06 0 -4.3368985721450672e-07 -3.4790492750103287e-07 0 -4.7699451937600763e-07 -1.6794844437086913e-07 0 -8.799568660231247e-07 -6.4233363557152184e-07 0 -3.4661623696726432e-05 -2.6655268882173147e-05 0 -3.7422109009566295e-05 -3.3456301349011228e-05 0 -2.9829797167627636e-05 -2.8387535583177947e-05 0 -2.9080925675754017e-06 -4.2746444341724876e-07 0 -2.3382662382990664e-06 -7.1982642932294213e-07 0 -1.4255576217128706e-06 -4.4638401186060003e-07 0 4.06055452528319e-08 1.2964469384845327e-06 0 -6.5898422737054793e-08 1.5050105031037457e-06 0 -1.8382458100632173e-07 7.1837603214061727e-07 0 -1.6983146287002837e-06 2.2079992519597834e-06 0 -3.4066306803010483e-06 1.0311688919518212e-06 0 -1.8976872996292449e-06 3.0086324063344953e-06 0 -6.5155635019470637e-05 7.1430674578357324e-05 0 -6.0342756023181876e-05 5.6218495588030733e-05 0 -4.8952934565510221e-05 6.0909889666191773e-05 0 -4.1071932414974028e-07 6.169563896124051e-07 0 -2.1904218429202852e-07 4.0458539899345136e-07 0 -1.6075001723134287e-07 2.6546266478739195e-07 0 -7.2872744263397189e-07 7.6659892335318585e-07 0 -7.5735122908246763e-08 2.1544420476737603e-06 0 -1.3316455537916129e-06 1.5202786420824393e-06 0 -1.0716995233940302e-05 -1.176914801821357e-05 0 -1.182503931906757e-05 -1.1845289700946489e-05 0 -1.223894377518334e-05 -1.412549990400234e-05 0 -2.6498910259278153e-05 -4.384915374916579e-05 0 -3.1779481865535634e-05 -4.0397766814176514e-05 0 -3.3753286525225631e-05 -4.8837990663816646e-05 0 -2.9080925675754017e-06 -4.2746444341724876e-07 0 -1.4255576217128706e-06 -4.4638401186060003e-07 0 -1.5589215535537943e-06 -6.3844610117766754e-09 0 -2.422405708478969e-07 6.2889496980140528e-07 0 -1.9261670385551989e-07 3.0829936976506611e-07 0 -2.1904218429202852e-07 4.0458539899345136e-07 0 -2.8993214602257502e-06 1.1246992534560683e-06 0 -1.3316455537916129e-06 1.5202786420824393e-06 0 -2.7521721047116941e-06 2.4436715176916654e-06 0 -1.2033222099434982e-05 -1.0807641877672457e-05 0 -1.182503931906757e-05 -1.1845289700946489e-05 0 -1.0314097083371641e-05 -9.2202802290106402e-06 0 -1.5150725144049569e-05 -1.9250074783035782e-05 0 -1.4826861342347971e-05 -2.023633719134319e-05 0 -1.3823560745913259e-05 -1.8275104996400484e-05 0 -1.19435257691408e-05 2.147355443647822e-06 0 -9.0552430041648206e-06 9.1833772640168474e-07 0 -1.0223440574412414e-05 2.4937078376722514e-06 0 1.8431334077832947e-05 0.00013749783324541214 0 -1.15578151414529e-06 0.00014161772402654539 0 6.979170394464058e-06 0.00012764590490795381 0 -4.3547612846628881e-05 -6.5214678445780068e-05 0 -3.457079015837672e-05 -6.585954088893471e-05 0 -3.7662036868093349e-05 -5.9908242318738598e-05 0 -6.658333791030648e-08 7.7509542296064602e-07 0 -1.8382458100632173e-07 7.1837603214061727e-07 0 -1.8407273163348801e-07 3.2721306462513252e-07 0 4.06055452528319e-08 1.2964469384845327e-06 0 -1.8382458100632173e-07 7.1837603214061727e-07 0 -6.658333791030648e-08 7.7509542296064602e-07 0 -4.981537008497247e-05 0.00012092971593376 0 -5.3680511659540347e-05 0.00014051272855136361 0 -6.1895934332556734e-05 0.00012758148841352629 0 -1.2370153353251035e-05 -5.5208388663742362e-05 0 -1.1921390137606801e-05 -6.5039479341207377e-05 0 -7.5937546255557808e-06 -5.7932761143084026e-05 0 -1.5294519350038872e-07 1.0980155289758841e-06 0 -5.4409561046603665e-07 1.3567353655294576e-06 0 -7.7641722656338751e-08 1.6379458174184378e-06 0 -6.0720147428957498e-07 1.7071255372213049e-06 0 -7.7641722656338751e-08 1.6379458174184378e-06 0 -5.4409561046603665e-07 1.3567353655294576e-06 0 -1.5294519350038872e-07 1.0980155289758841e-06 0 -6.658333791030648e-08 7.7509542296064602e-07 0 -1.4180611070620228e-07 6.0024577595276428e-07 0 -7.371373074523882e-06 -9.5892207749614338e-07 0 -7.3997321527858046e-06 -8.3523865043733982e-07 0 -5.6470483445511935e-06 -2.1110265789501314e-07 0 -6.5704393604029398e-06 -2.1428757816020562e-06 0 -8.2564853972415695e-06 -4.1669958055991454e-06 0 -6.1236710536698356e-06 -3.2013564008358227e-06 0 -7.3974900053024178e-06 -5.3279299882318636e-06 0 -6.1236710536698348e-06 -3.2013564008358227e-06 0 -8.2564853972415695e-06 -4.1669958055991454e-06 0 -7.371373074523882e-06 -9.5892207749614338e-07 0 -5.6470483445511935e-06 -2.1110265789501314e-07 0 -5.5454080888225325e-06 -3.9608183310824352e-07 0 -1.0069043439490723e-05 3.5382914201838832e-05 0 4.0387977162518221e-07 3.6351369967211365e-05 0 -1.9549362150686134e-06 5.0363043538344139e-05 0 -2.7304913610315403e-05 0.00013166683282555259 0 -2.702777356945249e-05 0.00015108283969403642 0 -3.8180275673957515e-05 0.00014205941424540541 0 -2.2458530521789111e-05 -6.1002461582134957e-05 0 -2.3289929014975585e-05 -7.0240471612449456e-05 0 -1.8356315623553059e-05 -6.5980764254964735e-05 0 -2.3714805870112855e-06 4.6733525243526242e-07 0 -1.938163580558918e-06 8.0032586173844183e-07 0 -2.7930047494635315e-06 3.2511686012462992e-07 0 -2.3523375068500298e-10 1.3110572166950254e-10 0 -1.6075001723134287e-07 2.6546266478739195e-07 0 -2.1904218429202852e-07 4.0458539899345136e-07 0 -8.4561440110298781e-07 3.1164723181779132e-06 0 3.0870695252377359e-07 5.3087889232485555e-06 0 -2.1048070388718773e-06 4.8587842645270811e-06 0 -5.5740996766236346e-06 -1.6453346494485044e-05 0 -5.5011410571883563e-06 -1.3003769631021092e-05 0 -7.8347435198873548e-06 -1.6405593806911451e-05 0 -7.9973409523837762e-06 -1.2951880143532226e-05 0 -9.1806852412743321e-06 -1.1780558581900038e-05 0 -9.5518412075629142e-06 -1.4449300877068626e-05 0 -5.5441271869797687e-07 9.4553427065729397e-07 0 -1.0200353895603488e-06 1.0271028100873548e-06 0 -5.4454367309654149e-07 1.0771276571295279e-06 0 -2.4576342469048176e-05 -2.2271665372400014e-05 0 -2.9829797167627636e-05 -2.8387535583177947e-05 0 -2.3415742738943488e-05 -2.7590974652680055e-05 0 -2.8060094208287393e-05 -3.2963090510051218e-05 0 -2.3415742738943488e-05 -2.7590974652680055e-05 0 -2.9829797167627636e-05 -2.8387535583177947e-05 0 -2.0988169549741431e-10 -2.7826594802606354e-11 0 -2.3523375068501073e-10 1.3110572166951038e-10 0 -1.4210874755415079e-07 1.4340929927129691e-07 0 -4.3143854116385057e-05 7.1343385082851048e-05 0 -4.8952934565510221e-05 6.0909889666191773e-05 0 -3.6260271901821989e-05 5.92690058790831e-05 0 -3.8301047589562951e-05 4.720788381135972e-05 0 -3.6260271901821989e-05 5.92690058790831e-05 0 -4.8952934565510221e-05 6.0909889666191773e-05 0 -1.5666846547354106e-05 -2.1282142716896092e-05 0 -1.4826861342347971e-05 -2.023633719134319e-05 0 -1.6349183844150463e-05 -2.0558964611132546e-05 0 -5.3664111264843427e-06 -2.6476843978385187e-05 0 -3.7144208385317884e-06 -2.3177293716363231e-05 0 -5.8406093354305885e-06 -2.3101593775703354e-05 0 -5.12652124765989e-06 3.8056114432449735e-06 0 -2.7521721047116941e-06 2.4436715176916654e-06 0 -2.1048070388718773e-06 4.8587842645270811e-06 0 -1.3324695307143819e-05 -2.0292399828052961e-05 0 -1.2049623522029023e-05 -1.9964613381515302e-05 0 -1.2516294829481192e-05 -1.8576671740610418e-05 0 1.3760351567338006e-06 7.5604786071280484e-06 0 1.8012275501104544e-06 9.7186095431307599e-06 0 2.0825984011316118e-06 9.0138052025170027e-06 0 -2.9080925675754017e-06 -4.2746444341724876e-07 0 -1.5589215535537943e-06 -6.3844610117766754e-09 0 -2.0658180629306595e-06 4.3408470108728292e-07 0 -1.3249988165069526e-05 9.0605994064729509e-06 0 -5.7875252700903797e-06 7.1331617553920289e-06 0 -9.1010493754707663e-06 1.1431184723697213e-05 0 1.5139283696285639e-05 5.1681810748044806e-05 0 6.256808048296971e-06 6.2254895909939501e-05 0 -1.9549362150686134e-06 5.0363043538344139e-05 0 -2.3714805870112855e-06 4.6733525243526242e-07 0 -1.5537443648654528e-06 9.2553594755915115e-07 0 -1.938163580558918e-06 8.0032586173844183e-07 0 -2.7304913610315403e-05 0.00013166683282555259 0 -1.5320384292114741e-05 0.00013904765986690455 0 -2.7027773569452493e-05 0.00015108283969403642 0 -2.2458530521789111e-05 -6.1002461582134957e-05 0 -2.8027206834867462e-05 -6.4517552173872184e-05 0 -2.3289929014975585e-05 -7.0240471612449456e-05 0 -1.2355646162729505e-06 9.7745595224485907e-07 0 -1.8119210733595109e-06 8.7575798240756058e-07 0 -1.938163580558918e-06 8.0032586173844183e-07 0 -5.6966425341897338e-06 -3.8652893146205432e-06 0 -7.3746669776433044e-06 -5.4513539713985434e-06 0 -6.1348423901702527e-06 -3.2203259568570542e-06 0 -4.9876533968553716e-06 0.00012215893394388255 0 6.979170394464058e-06 0.00012764590490795381 0 -1.15578151414529e-06 0.00014161772402654539 0 -3.1853282639090885e-05 -5.6929150514682982e-05 0 -3.7662036868093349e-05 -5.9908242318738598e-05 0 -3.457079015837672e-05 -6.585954088893471e-05 0 -1.458689086285238e-05 -4.2912005614307767e-06 0 -1.7695414545950819e-05 -5.987387771503104e-06 0 -1.4400617273057685e-05 -4.1684019980525224e-06 0 -2.8436533414451823e-05 9.8541422517575679e-06 0 -2.2875476554589305e-05 6.3778861595117416e-06 0 -2.1995298312758453e-05 6.4395791560749704e-06 0 -7.112501359538505e-06 1.5980889057111543e-05 0 -8.7725050332712896e-06 2.4185836882500809e-05 0 -1.5383895267997348e-05 2.5707996386039935e-05 0 -5.6831286987118443e-06 -2.0719920063587315e-07 0 -7.360159047452228e-06 -9.5698386614692086e-07 0 -6.5057925297515562e-06 -7.847183776461605e-07 0 -1.7446252221132887e-05 -2.3442722990988096e-05 0 -1.6142172145941249e-05 -2.3137784231765308e-05 0 -1.6688104736477585e-05 -2.1905113657269378e-05 0 -1.7446252221132887e-05 -2.3442722990988096e-05 0 -1.6688104736477585e-05 -2.1905113657269378e-05 0 -1.7513010104668123e-05 -2.2915114154014803e-05 0 -2.104206066171743e-06 -3.0048033117317053e-05 0 -1.8285846974347179e-06 -2.640834755155756e-05 0 -4.338589739868277e-06 -2.921066821209662e-05 0 -2.104206066171743e-06 -3.0048033117317053e-05 0 -4.338589739868277e-06 -2.921066821209662e-05 0 -4.4770410941972289e-06 -3.1380029067473344e-05 0 -1.5666846547354106e-05 -2.1282142716896092e-05 0 -1.3856320788219012e-05 -2.1520816535635619e-05 0 -1.4826861342347971e-05 -2.023633719134319e-05 0 -5.3664111264843427e-06 -2.6476843978385187e-05 0 -5.8406093354305885e-06 -2.3101593775703354e-05 0 -6.9975734569730985e-06 -2.5523874493842424e-05 0 8.1297366341267409e-07 -1.2418524191553899e-05 0 -1.720808406968761e-06 -1.5505862161527078e-05 0 1.5054730147942712e-07 -1.5478634000334725e-05 0 -1.6021194084876396e-05 -1.7201966454989564e-05 0 -1.662059261969771e-05 -1.9463773106734958e-05 0 -1.4934632376592797e-05 -1.7445027971551097e-05 0 5.2170558945736106e-06 1.1973051332231214e-06 0 8.68860813644987e-07 -2.178771020593295e-06 0 3.7379769562483296e-06 -3.663126838839108e-06 0 -1.214466544767479e-05 0.00015931612393290293 0 -6.900916872670754e-07 0.00017353729376980392 0 -1.4655285169222989e-05 0.00017658832580490436 0 -4.4432059883314227e-05 0.00015880380207894962 0 -4.1937454632613804e-05 0.00017553446835263088 0 -5.7094623578395035e-05 0.00017201822506183879 0 -3.0060166886600314e-05 -7.3694045680138711e-05 0 -3.5670282638811697e-05 -7.9904746519691034e-05 0 -2.8980113803718785e-05 -8.1555500720279124e-05 0 -1.6329301448974827e-05 -7.4458192223224396e-05 0 -1.7392497290617314e-05 -8.2386741932495672e-05 0 -1.1627690900164009e-05 -8.1145550212336314e-05 0 -9.6500970113995548e-07 1.1097191699199863e-06 0 -5.4454367309654149e-07 1.0771276571295279e-06 0 -1.0200353895603488e-06 1.0271028100873548e-06 0 -1.214466544767479e-05 0.00015931612393290293 0 2.9224136225157425e-06 0.00015789750430944414 0 -6.9009168726707392e-07 0.00017353729376980392 0 -3.0060166886600314e-05 -7.3694045680138711e-05 0 -3.707084103825485e-05 -7.3170269067506576e-05 0 -3.5670282638811697e-05 -7.9904746519691034e-05 0 -5.1165588440362704e-06 -6.536351613305159e-07 0 -3.785055144600916e-06 1.2700512015743551e-06 0 -3.4066306803010483e-06 1.0311688919518212e-06 0 -4.4432059883314227e-05 0.00015880380207894962 0 -5.7094623578395035e-05 0.00017201822506183879 0 -6.0094879992599119e-05 0.00015696296027545778 0 -1.6329301448974827e-05 -7.4458192223224396e-05 0 -1.1627690900164009e-05 -8.1145550212336314e-05 0 -1.0020697541183003e-05 -7.3379594156488241e-05 0 -1.0913714891584178e-05 -3.1311334256466248e-05 0 -6.3730594317651307e-06 -2.6863673277230849e-05 0 -9.9170201371477477e-06 -2.297155952639099e-05 0 -1.0348428728037267e-05 -8.0250007137432991e-06 0 -1.0314097083371641e-05 -9.2202802290106402e-06 0 -8.9624919408264078e-06 -6.0447773822377973e-06 0 -8.9143853257376731e-06 -7.3705348495848149e-06 0 -8.9624919408264078e-06 -6.0447773822377973e-06 0 -1.0314097083371641e-05 -9.2202802290106402e-06 0 -2.8993214602257502e-06 1.1246992534560683e-06 0 -4.2574269525477352e-06 2.2895750446186261e-07 0 -2.0658180629306595e-06 4.3408470108728292e-07 0 -2.49855198304115e-05 5.6788868062896527e-05 0 -1.3668595510206753e-05 5.2776941241608442e-05 0 -1.8357642815910019e-05 6.8440577685227713e-05 0 -3.7422109009566295e-05 -3.3456301349011228e-05 0 -3.3156759247782923e-05 -3.4916954314093741e-05 0 -2.9829797167627636e-05 -2.8387535583177947e-05 0 -1.0995142220813517e-06 7.7919692405512646e-06 0 -5.7875252700903797e-06 7.1331617553920289e-06 0 -2.1048070388718773e-06 4.8587842645270811e-06 0 -5.12652124765989e-06 3.8056114432449735e-06 0 -2.1048070388718773e-06 4.8587842645270811e-06 0 -5.7875252700903797e-06 7.1331617553920289e-06 0 1.5780554952005497e-07 1.9447120359042076e-06 0 2.9303467116057094e-08 2.3319256210200312e-06 0 3.8658572702404635e-07 3.1427349549328255e-06 0 -9.6949676107419013e-06 -1.6691469003428796e-05 0 -9.5555498070347277e-06 -1.875747229864413e-05 0 -7.8347435198873548e-06 -1.6405593806911451e-05 0 -8.1318237353592885e-06 -1.9881345504892777e-05 0 -7.8347435198873548e-06 -1.6405593806911451e-05 0 -9.5555498070347277e-06 -1.875747229864413e-05 0 -4.8210052861795237e-05 3.1030843017430263e-05 0 -4.1487631943189046e-05 2.1744028027101653e-05 0 -3.6213450872359366e-05 2.3591578078495718e-05 0 -2.456653242712373e-05 -1.1472014557938618e-05 0 -2.8093994403714743e-05 -1.5569372365854642e-05 0 -2.2431455503301503e-05 -1.2052204979290617e-05 0 -5.9489150549087522e-10 -2.5648635709954286e-10 0 -4.0998556186427435e-10 -1.9877504166477426e-10 0 -3.6015604480864384e-07 -3.9275396315345044e-07 0 -5.3255967488787853e-10 2.5004184441861465e-10 0 -6.6789536513954989e-10 2.4320342866933417e-10 0 -5.3716213125574516e-07 5.1672742856011052e-07 0 -8.4561440110298781e-07 3.1164723181779132e-06 0 -7.5735122908246631e-08 2.1544420476737603e-06 0 2.1990125453395853e-07 3.5173227603324932e-06 0 2.8750409876169244e-08 3.1095760654867637e-06 0 3.8658572702404635e-07 3.1427349549328255e-06 0 2.9303467116057094e-08 2.3319256210200312e-06 0 1.5780554952005497e-07 1.9447120359042076e-06 0 -7.5735122908246803e-08 2.1544420476737599e-06 0 -6.5898422737054793e-08 1.5050105031037457e-06 0 -5.3196602563739827e-06 -6.1315879955523153e-07 0 -7.5384480750123359e-06 2.4189870334675104e-08 0 -5.8845838423652677e-06 -1.7698650153722195e-07 0 -4.1941978183542876e-06 1.5211872497797372e-07 0 -4.2809324394739399e-06 -2.3968416019249066e-07 0 -5.5454080888225325e-06 -3.9608183310824352e-07 0 -4.5407799182089207e-06 6.7374062849367348e-05 0 -1.9549362150686134e-06 5.0363043538344139e-05 0 6.256808048296971e-06 6.2254895909939501e-05 0 -5.3196602563739827e-06 -6.1315879955523153e-07 0 -5.8845838423652669e-06 -1.76986501537222e-07 0 -4.1892230135486292e-06 -6.3836018727485996e-07 0 -4.1941978183542876e-06 1.5211872497797372e-07 0 -3.2111879512080257e-06 1.6125276310518154e-07 0 -4.2809324394739399e-06 -2.3968416019249066e-07 0 -1.3012617457745071e-05 -1.6503098458091866e-05 0 -1.3823560745913259e-05 -1.8275104996400484e-05 0 -1.2516294829481192e-05 -1.8576671740610418e-05 0 -1.0069043439490723e-05 3.5382914201838832e-05 0 -2.822117102342419e-06 2.2109818156243554e-05 0 4.0387977162518221e-07 3.6351369967211365e-05 0 -7.2872744263397189e-07 7.6659892335318585e-07 0 -6.5898422737054793e-08 1.5050105031037457e-06 0 -7.5735122908246763e-08 2.1544420476737603e-06 0 -5.5740996766236346e-06 -1.6453346494485044e-05 0 -3.5265799729167861e-06 -1.4698968764872725e-05 0 -5.5011410571883563e-06 -1.3003769631021092e-05 0 -1.2623058784962322e-09 -2.9304678789156631e-10 0 -8.8121552791212564e-10 -3.7924154297088716e-10 0 -8.97429053293048e-07 -6.6900569199097272e-07 0 -8.6266989197047688e-10 2.5917042294387919e-10 0 -1.0920124144948412e-09 1.6470042018277832e-10 0 -8.6180055513820523e-07 4.5709634073034394e-07 0 -9.1135096265500217e-06 -2.2613796509003542e-06 0 -1.1786939877360646e-05 -3.0882258915801798e-06 0 -9.4899505869111405e-06 -1.8997999129586256e-06 0 -1.798711167867265e-05 4.1244063095794601e-06 0 -1.359981011045908e-05 2.7524434249069924e-06 0 -1.4224353784064315e-05 2.2746290261258329e-06 0 -1.1936526952979677e-05 -9.6322007289408376e-06 0 -1.4134034251088652e-05 -8.2678338598624227e-06 0 -1.5502051846868489e-05 -1.1453479757740581e-05 0 -2.4143154830122839e-06 -2.2805597415534529e-05 0 -6.0650493770291687e-06 -2.0127567120649767e-05 0 -6.3730594317651307e-06 -2.6863673277230849e-05 0 -4.4958714851957758e-06 -9.2495957688572048e-07 0 -4.8365828844734895e-06 -2.1027089251234685e-06 0 -6.1348423901702527e-06 -3.2203259568570542e-06 0 -1.3442578334718927e-06 1.3963026663721979e-06 0 -7.1186367409967795e-07 2.3480327702276887e-06 0 -6.0720147428957498e-07 1.7071255372213049e-06 0 -1.7207816607559704e-06 1.5144800645737574e-06 0 -7.1186367409967805e-07 2.3480327702276887e-06 0 -1.3442578334718927e-06 1.3963026663721979e-06 0 7.4379644729631733e-07 4.6624424798266111e-06 0 3.0870695252377359e-07 5.3087889232485555e-06 0 2.1990125453395853e-07 3.5173227603324932e-06 0 -8.4561440110298781e-07 3.1164723181779132e-06 0 2.1990125453395848e-07 3.5173227603324928e-06 0 3.0870695252377359e-07 5.3087889232485555e-06 0 -7.5355842494300397e-06 -2.2645520346474477e-05 0 -8.9322791608543045e-06 -2.4322034790091291e-05 0 -6.9975734569730985e-06 -2.5523874493842424e-05 0 -1.3744135690492013e-05 -1.1711238532542436e-05 0 -1.2033222099434982e-05 -1.0807641877672457e-05 0 -1.1596839311239191e-05 -9.2284195374392675e-06 0 -5.6966425341897338e-06 -3.8652893146205432e-06 0 -6.0763140534297047e-06 -5.8840105158996668e-06 0 -7.3746669776433044e-06 -5.4513539713985434e-06 0 -6.2765453727776853e-06 -8.2992542102347374e-06 0 -7.3746669776433053e-06 -5.4513539713985434e-06 0 -6.0763140534297047e-06 -5.8840105158996668e-06 0 -6.6454441481938075e-06 -1.7205405881478906e-06 0 -9.1135096265500217e-06 -2.2613796509003547e-06 0 -7.693772344356968e-06 -1.4638315509573232e-06 0 -1.359981011045908e-05 2.7524434249069924e-06 0 -9.7189933920837624e-06 1.9287546812040188e-06 0 -1.1303864049254698e-05 1.5488662798861312e-06 0 -9.6036983827329947e-06 -2.7398879766406174e-05 0 -7.6485572829628289e-06 -2.896725121646143e-05 0 -9.3094253475425389e-06 -2.6109087829417764e-05 0 -5.7875252700903797e-06 7.1331617553920289e-06 0 -4.2045858100389046e-06 1.0299394795036653e-05 0 -9.1010493754707663e-06 1.1431184723697213e-05 0 -1.5294519350038872e-07 1.0980155289758841e-06 0 4.0605545252831894e-08 1.2964469384845327e-06 0 -6.658333791030648e-08 7.7509542296064602e-07 0 -2.3218717863501288e-06 -7.0743699221734858e-07 0 -3.4629076512903678e-06 -8.8371827657351078e-07 0 -4.1892230135486292e-06 -6.3836018727485996e-07 0 -1.8245037764369686e-06 3.0787725689654247e-07 0 -3.2111879512080261e-06 1.6125276310518149e-07 0 -2.8456511927354839e-06 4.1374251116280217e-07 0 -1.2355646162729505e-06 9.7745595224485907e-07 0 -1.558481117031934e-06 9.3944015085918397e-07 0 -1.8119210733595111e-06 8.7575798240756058e-07 0 -4.4958714851957758e-06 -9.2495957688572048e-07 0 -4.7845513810082963e-06 -6.8315518558833536e-07 0 -3.4066306803010483e-06 1.0311688919518212e-06 0 -4.5757604951647723e-06 -2.061816587447595e-05 0 -6.1639839089108631e-06 -1.9372049025164526e-05 0 -5.8406093354305885e-06 -2.3101593775703354e-05 0 -2.4844433386226151e-06 7.3036042559132994e-07 0 -1.8119210733595111e-06 8.7575798240756058e-07 0 -1.558481117031934e-06 9.3944015085918397e-07 0 -7.187948163495976e-05 0.0001051403561234084 0 -5.440482027719557e-05 9.5632287708204478e-05 0 -5.9275916552531338e-05 0.00011192385393203928 0 -1.6501243876227504e-06 -4.5648918002689355e-05 0 -8.5565599868111982e-06 -4.2473761179679371e-05 0 -7.6708433999242788e-06 -5.0148672945384877e-05 0 -1.5893578689225373e-06 -3.7536793427263927e-05 0 -7.0736193485742017e-06 -3.4918900187783974e-05 0 -8.5565599868111982e-06 -4.2473761179679371e-05 0 -6.8492900918231351e-06 -4.4965768733703844e-06 0 -5.7599774242291268e-06 -1.9640297624672267e-06 0 -7.1221210073676331e-06 -3.5349263918697211e-06 0 -1.3744135690492013e-05 -1.1711238532542436e-05 0 -1.3497094030094083e-05 -1.3052586366807873e-05 0 -1.2033222099434982e-05 -1.0807641877672457e-05 0 -2.3714805870112855e-06 4.6733525243526242e-07 0 -3.466847326081551e-06 -5.8820998124569676e-07 0 -2.5754684313471892e-06 2.4199003845195342e-07 0 -5.1165588440362704e-06 -6.536351613305159e-07 0 -3.4066306803010483e-06 1.0311688919518212e-06 0 -4.7845513810082963e-06 -6.8315518558833526e-07 0 1.628038528871532e-05 0.00017345252494501193 0 5.8807702843492637e-06 0.00018246223612757519 0 -6.9009168726707392e-07 0.00017353729376980392 0 -4.3902495623973985e-05 -8.0814902125606451e-05 0 -3.9001178259597643e-05 -8.4003128226412034e-05 0 -3.5670282638811697e-05 -7.9904746519691034e-05 0 -4.3873301226985567e-06 -8.1030201482389205e-05 0 -1.1627690900164009e-05 -8.1145550212336314e-05 0 -8.8834881591266785e-06 -8.5390844949482391e-05 0 -7.5340826828838801e-05 0.00017400694373564211 0 -5.7094623578395035e-05 0.00017201822506183879 0 -6.447213154883342e-05 0.00018107550040492515 0 -2.3298956011772272e-06 6.5143143201568441e-07 0 -1.7817926712195308e-06 8.8420646801206673e-07 0 -2.5754684313471892e-06 2.4199003845195342e-07 0 -2.3714805870112855e-06 4.6733525243526242e-07 0 -2.5754684313471892e-06 2.4199003845195342e-07 0 -1.7817926712195308e-06 8.8420646801206673e-07 0 -4.7852012332797141e-06 -2.2027763898723589e-06 0 -3.466847326081551e-06 -5.8820998124569655e-07 0 -4.0591658158749988e-06 -1.0139058810711885e-06 0 -2.0911816724630594e-05 7.704619763445899e-06 0 -2.1995298312758453e-05 6.4395791560749704e-06 0 -1.5699882666948033e-05 3.9955936126632357e-06 0 -1.753391222419835e-05 3.6874813058769697e-06 0 -1.5699882666948033e-05 3.9955936126632349e-06 0 -2.1995298312758453e-05 6.4395791560749704e-06 0 -5.12652124765989e-06 3.8056114432449735e-06 0 -7.7100971864086034e-06 2.8836114475211043e-06 0 -4.8053706134617115e-06 1.6935173400839951e-06 0 -6.5704393604029398e-06 -2.1428757816020562e-06 0 -4.7691175801342365e-06 -7.0995049897754197e-07 0 -5.7463322586509527e-06 -7.9293026597418197e-07 0 -5.6966425341897338e-06 -3.8652893146205432e-06 0 -5.6353412854814643e-06 -4.242068050115617e-06 0 -6.0763140534297047e-06 -5.8840105158996668e-06 0 -4.1941978183542876e-06 1.5211872497797372e-07 0 -3.1242077623404523e-06 5.7123286605370393e-07 0 -2.8456511927354839e-06 4.1374251116280217e-07 0 -1.8899819007194625e-06 5.7179030968566361e-07 0 -2.8456511927354839e-06 4.1374251116280217e-07 0 -3.1242077623404527e-06 5.7123286605370393e-07 0 -2.0998582345900719e-06 -9.3000068717473087e-07 0 -3.3091595872670166e-06 -8.9553209273532422e-07 0 -3.4629076512903678e-06 -8.8371827657351068e-07 0 -5.3196602563739827e-06 -6.1315879955523153e-07 0 -3.4629076512903674e-06 -8.8371827657351068e-07 0 -3.3091595872670166e-06 -8.9553209273532422e-07 0 -2.8060094208287393e-05 -3.2963090510051218e-05 0 -3.1779481865535634e-05 -4.0397766814176514e-05 0 -2.5776297242235591e-05 -3.7135957925031577e-05 0 -2.6498910259278153e-05 -4.384915374916579e-05 0 -2.5776297242235591e-05 -3.7135957925031577e-05 0 -3.1779481865535634e-05 -4.0397766814176514e-05 0 -6.7655110232688736e-07 -6.2933984719541333e-07 0 -3.6015604480864384e-07 -3.9275396315345044e-07 0 -8.799568660231247e-07 -6.4233363557152184e-07 0 -4.3368985721450672e-07 -3.4790492750103287e-07 0 -8.799568660231247e-07 -6.4233363557152184e-07 0 -3.6015604480864384e-07 -3.9275396315345044e-07 0 -8.6724648124643596e-07 7.8888714839983253e-07 0 -5.3716213125574516e-07 5.1672742856011052e-07 0 -1.2301885378943507e-06 8.1894079157942523e-07 0 -7.6764027100076661e-07 5.5140769004016807e-07 0 -1.2301885378943507e-06 8.1894079157942523e-07 0 -5.3716213125574516e-07 5.1672742856011052e-07 0 -2.7304913610315403e-05 0.00013166683282555259 0 -1.7060728909267566e-05 0.0001218406719535862 0 -1.5320384292114741e-05 0.00013904765986690455 0 -2.2458530521789111e-05 -6.1002461582134957e-05 0 -2.6420893184562869e-05 -5.6571480775704436e-05 0 -2.8027206834867462e-05 -6.4517552173872184e-05 0 -3.5490939005270967e-06 5.2172090268468397e-07 0 -2.7046657512126041e-06 7.0721132719200976e-07 0 -3.1242077623404527e-06 5.7123286605370393e-07 0 -2.9080925675754017e-06 -4.2746444341724876e-07 0 -3.3091595872670166e-06 -8.9553209273532422e-07 0 -2.3382662382990664e-06 -7.1982642932294213e-07 0 -6.5704393604029398e-06 -2.1428757816020562e-06 0 -6.1236710536698356e-06 -3.2013564008358227e-06 0 -4.9816382705144099e-06 -1.5814455713872766e-06 0 -4.1941978183542876e-06 1.5211872497797372e-07 0 -4.5075138775023514e-06 2.2931193525022879e-07 0 -3.1242077623404527e-06 5.7123286605370393e-07 0 -5.3196602563739827e-06 -6.1315879955523153e-07 0 -3.3091595872670166e-06 -8.9553209273532422e-07 0 -5.0271469284443311e-06 -5.2035977201871625e-07 0 -6.2765453727776853e-06 -8.2992542102347374e-06 0 -8.659158654481225e-06 -6.2920081578527596e-06 0 -7.3746669776433044e-06 -5.4513539713985434e-06 0 -2.3714805870112855e-06 4.6733525243526242e-07 0 -3.2003968918133081e-06 -1.6706821386382578e-07 0 -3.466847326081551e-06 -5.8820998124569676e-07 0 -1.4953330773608957e-09 -5.5433754084748311e-10 0 -1.2623058784962322e-09 -2.9304678789156631e-10 0 -1.0624762910742419e-06 -5.7583390477416187e-07 0 -1.0920124144948412e-09 1.6470042018277832e-10 0 -1.1810973839456969e-09 2.9171519965246831e-10 0 -9.015261486292296e-07 3.2374796241616099e-07 0 -1.0995142220813517e-06 7.7919692405512646e-06 0 -2.1048070388718773e-06 4.8587842645270811e-06 0 3.0870695252377359e-07 5.3087889232485555e-06 0 -1.0380690595921163e-05 -2.3757913187496856e-05 0 -1.0708538652268231e-05 -2.5295826981952621e-05 0 -9.3094253475425389e-06 -2.6109087829417764e-05 0 -6.5704393604029398e-06 -2.1428757816020562e-06 0 -7.5278768040353379e-06 -1.822473193754135e-06 0 -9.0367188013395282e-06 -3.3195202058729349e-06 0 -9.9170201371477477e-06 -2.297155952639099e-05 0 -6.3730594317651307e-06 -2.6863673277230849e-05 0 -6.0650493770291687e-06 -2.0127567120649767e-05 0 -2.3298956011772272e-06 6.5143143201568441e-07 0 -1.3442578334718927e-06 1.3963026663721979e-06 0 -1.7817926712195308e-06 8.8420646801206673e-07 0 -4.0440264572524898e-06 -1.3617472350205244e-06 0 -3.171661712082806e-06 -3.1199303479215588e-07 0 -3.466847326081551e-06 -5.8820998124569676e-07 0 -3.8519143081182417e-06 -2.4571063915625591e-07 0 -5.7681001443925248e-06 5.9265535742976483e-07 0 -2.754381823504404e-06 2.3600586981747955e-07 0 -2.8085219387687375e-06 -1.1668269055293006e-07 0 -1.9545872016461277e-06 -3.6902620683475178e-07 0 -4.0476203467578505e-06 -7.5872501368646645e-07 0 -7.3974900053024178e-06 -5.3279299882318636e-06 0 -6.7093497564840259e-06 -6.7362836064880733e-06 0 -5.6353412854814643e-06 -4.242068050115617e-06 0 -6.0720147428957498e-07 1.7071255372213049e-06 0 -1.0688259959448487e-06 1.2273380256922047e-06 0 -1.3442578334718927e-06 1.3963026663721979e-06 0 -3.833072498329947e-06 -4.328375234678664e-07 0 -4.7691175801342365e-06 -7.0995049897754207e-07 0 -4.9816382705144099e-06 -1.5814455713872766e-06 0 -1.3940399645704239e-05 -4.5087911177965547e-06 0 -1.4373337694144694e-05 -6.1413747425599483e-06 0 -1.1504901897107167e-05 -4.1052161570668954e-06 0 -6.9076356583679902e-05 8.7959618562610464e-05 0 -5.4951250344740688e-05 8.0340249921651049e-05 0 -5.440482027719557e-05 9.5632287708204478e-05 0 -7.3974900053024178e-06 -5.3279299882318636e-06 0 -8.2564853972415695e-06 -4.1669958055991454e-06 0 -1.0057544353288417e-05 -6.4250408646692571e-06 0 -7.1221210073676331e-06 -3.5349263918697211e-06 0 -8.9624919408264078e-06 -6.0447773822377973e-06 0 -7.9075607076780611e-06 -5.4139844731346656e-06 0 -6.5704393604029398e-06 -2.1428757816020562e-06 0 -9.0367188013395282e-06 -3.3195202058729349e-06 0 -8.2564853972415695e-06 -4.1669958055991454e-06 0 -1.7817926712195308e-06 8.8420646801206673e-07 0 -1.3442578334718927e-06 1.3963026663721979e-06 0 -1.0688259959448487e-06 1.2273380256922047e-06 0 -1.0348428728037267e-05 -8.0250007137432991e-06 0 -1.1596839311239192e-05 -9.2284195374392675e-06 0 -1.2033222099434982e-05 -1.0807641877672457e-05 0 -1.0995142220813517e-06 7.7919692405512646e-06 0 2.0825984011316118e-06 9.0138052025170027e-06 0 -2.6180849881258961e-07 1.200379656727484e-05 0 -6.5704393604029398e-06 -2.1428757816020562e-06 0 -5.7463322586509527e-06 -7.9293026597418207e-07 0 -7.5278768040353379e-06 -1.822473193754135e-06 0 -7.3795395658645855e-05 0.00012264071191400526 0 -7.187948163495976e-05 0.0001051403561234084 0 -5.9275916552531338e-05 0.00011192385393203928 0 -1.6501243876227504e-06 -4.5648918002689355e-05 0 -7.6708433999242788e-06 -5.0148672945384877e-05 0 -1.958793356086919e-06 -5.4217765697869834e-05 0 -1.8192870382933623e-06 -2.9929351934157995e-05 0 -7.0736193485742017e-06 -3.4918900187783974e-05 0 -1.5893578689225373e-06 -3.7536793427263927e-05 0 -1.3249988165069526e-05 9.0605994064729509e-06 0 -2.0838922578932693e-05 1.0978081925022011e-05 0 -1.6453780853591622e-05 6.8880365032213237e-06 0 5.2170558945736106e-06 1.1973051332231214e-06 0 5.6544156968992383e-07 5.0719880991682919e-06 0 8.68860813644987e-07 -2.178771020593295e-06 0 -1.3940399645704239e-05 -4.5087911177965547e-06 0 -1.4400617273057685e-05 -4.1684019980525224e-06 0 -1.6810550829401866e-05 -5.7300039673263811e-06 0 -2.0911816724630594e-05 7.704619763445899e-06 0 -2.6342501185786089e-05 9.5255333080834021e-06 0 -2.1995298312758453e-05 6.4395791560749704e-06 0 -1.3940399645704239e-05 -4.5087911177965547e-06 0 -1.6810550829401866e-05 -5.7300039673263811e-06 0 -1.752958279368317e-05 -6.9628600674363651e-06 0 -2.0911816724630594e-05 7.704619763445899e-06 0 -2.7178547985609685e-05 1.2288529644602077e-05 0 -2.6342501185786089e-05 9.5255333080834021e-06 0 -2.8085219387687375e-06 -1.1668269055293006e-07 0 -1.3599973738792111e-06 6.2877236496744428e-08 0 -1.9545872016461277e-06 -3.6902620683475178e-07 0 -3.8519143081182417e-06 -2.4571063915625591e-07 0 -2.754381823504404e-06 2.3600586981747955e-07 0 -1.8462966604259557e-06 -3.3373539551079008e-07 0 -4.0440264572524898e-06 -1.3617472350205244e-06 0 -4.9295691690302142e-06 -2.7643835581391709e-06 0 -4.8365828844734895e-06 -2.1027089251234685e-06 0 -5.6966425341897338e-06 -3.8652893146205432e-06 0 -4.8365828844734895e-06 -2.1027089251234685e-06 0 -4.9295691690302142e-06 -2.7643835581391709e-06 0 -1.662059261969771e-05 -1.9463773106734958e-05 0 -1.6108367304362831e-05 -1.9445938707523155e-05 0 -1.4934632376592797e-05 -1.7445027971551097e-05 0 1.5054730147942712e-07 -1.5478634000334725e-05 0 -1.7208084069687612e-06 -1.5505862161527078e-05 0 -2.3064824086026635e-06 -1.8837840036320458e-05 0 3.7379769562483296e-06 -3.663126838839108e-06 0 8.6886081364498711e-07 -2.1787710205932946e-06 0 7.2698581986453265e-07 -6.1871612469867934e-06 0 8.1297366341267409e-07 -1.2418524191553899e-05 0 -6.9437442700942711e-07 -1.2236259075433601e-05 0 -1.7208084069687612e-06 -1.5505862161527078e-05 0 -1.6021194084876396e-05 -1.7201966454989564e-05 0 -1.4934632376592797e-05 -1.7445027971551097e-05 0 -1.439523784337013e-05 -1.5302426488460006e-05 0 -6.5704393604029398e-06 -2.1428757816020562e-06 0 -4.9816382705144099e-06 -1.5814455713872764e-06 0 -4.7691175801342365e-06 -7.0995049897754197e-07 0 -4.7852012332797141e-06 -2.2027763898723589e-06 0 -5.6353412854814643e-06 -4.242068050115617e-06 0 -4.9295691690302142e-06 -2.7643835581391709e-06 0 -5.6966425341897338e-06 -3.8652893146205432e-06 0 -4.9295691690302142e-06 -2.7643835581391709e-06 0 -5.6353412854814643e-06 -4.242068050115617e-06 0 -2.3298956011772272e-06 6.5143143201568441e-07 0 -3.5953124130243142e-06 -5.1893618291282378e-07 0 -2.8519251781966178e-06 7.3652471210079779e-07 0 -6.9076356583679902e-05 8.7959618562610464e-05 0 -6.5155635019470637e-05 7.1430674578357324e-05 0 -5.4951250344740688e-05 8.0340249921651049e-05 0 -5.1165588440362704e-06 -6.536351613305159e-07 0 -4.7845513810082963e-06 -6.8315518558833504e-07 0 -6.1560619781481708e-06 -2.3072660726596338e-06 0 -7.112501359538505e-06 1.5980889057111543e-05 0 -4.2045858100389037e-06 1.0299394795036653e-05 0 -2.6180849881258961e-07 1.200379656727484e-05 0 -1.0995142220813517e-06 7.7919692405512646e-06 0 -2.6180849881258961e-07 1.200379656727484e-05 0 -4.2045858100389046e-06 1.0299394795036653e-05 0 -2.4143154830122839e-06 -2.2805597415534529e-05 0 -6.3730594317651307e-06 -2.6863673277230849e-05 0 -1.8192870382933623e-06 -2.9929351934157995e-05 0 -3.473227779032835e-05 1.469533951841319e-05 0 -2.6342501185786089e-05 9.5255333080834021e-06 0 -2.7178547985609685e-05 1.2288529644602077e-05 0 -2.1056987519269567e-05 -8.2840240619028056e-06 0 -1.7529582793683166e-05 -6.9628600674363651e-06 0 -1.6810550829401866e-05 -5.7300039673263811e-06 0 -4.4958714851957758e-06 -9.2495957688572048e-07 0 -6.1560619781481708e-06 -2.3072660726596333e-06 0 -4.7845513810082963e-06 -6.8315518558833526e-07 0 -3.7997752605535668e-05 9.495534540805291e-05 0 -5.440482027719557e-05 9.5632287708204478e-05 0 -4.4464965563475271e-05 8.3029860041276512e-05 0 -3.7997752605535668e-05 9.495534540805291e-05 0 -4.7775593762225235e-05 0.0001067272516003329 0 -5.440482027719557e-05 9.5632287708204478e-05 0 -1.5068595242933016e-05 -4.3037588588986504e-05 0 -1.2123816862490768e-05 -4.8166132586084919e-05 0 -8.5565599868111982e-06 -4.2473761179679371e-05 0 -1.5068595242933016e-05 -4.3037588588986504e-05 0 -8.5565599868111982e-06 -4.2473761179679364e-05 0 -1.1467241688577059e-05 -3.7666326785536343e-05 0 -1.958793356086919e-06 -5.4217765697869834e-05 0 -7.5937546255557808e-06 -5.7932761143084026e-05 0 -2.650649962910642e-06 -6.3263784778841772e-05 0 -7.4796811525468834e-05 0.00014014888099983422 0 -7.3795395658645855e-05 0.00012264071191400526 0 -6.1895934332556734e-05 0.00012758148841352629 0 -2.004321678975821e-06 8.2192263313591868e-07 0 -1.7359044928253241e-06 7.4407226171338805e-07 0 -2.7046657512126045e-06 7.0721132719200976e-07 0 -1.5270995666533477e-06 -7.5529605837806849e-07 0 -2.3382662382990664e-06 -7.1982642932294213e-07 0 -1.5475439398604707e-06 -9.1811033690132221e-07 0 -1.5068595242933016e-05 -4.3037588588986504e-05 0 -1.9479491152724029e-05 -4.3566650948878787e-05 0 -1.6729051833883979e-05 -5.0089373820627232e-05 0 -1.5068595242933016e-05 -4.3037588588986504e-05 0 -1.5563337449610996e-05 -3.6795679403637342e-05 0 -1.9479491152724029e-05 -4.3566650948878787e-05 0 -2.2465912248931363e-05 -5.136500624662215e-05 0 -1.6729051833883979e-05 -5.0089373820627232e-05 0 -1.9479491152724029e-05 -4.3566650948878787e-05 0 -2.0643405308238349e-05 -3.6750024052319021e-05 0 -1.9479491152724029e-05 -4.3566650948878787e-05 0 -1.5563337449610996e-05 -3.6795679403637342e-05 0 -3.7997752605535668e-05 9.495534540805291e-05 0 -2.7004324792394701e-05 9.6004029840723802e-05 0 -3.765294224131157e-05 0.00011062619143022979 0 -2.4574097347198545e-05 0.0001104722175863313 0 -3.765294224131157e-05 0.00011062619143022979 0 -2.7004324792394701e-05 9.6004029840723802e-05 0 -1.0920124144948412e-09 1.6470042018277832e-10 0 -9.015261486292296e-07 3.2374796241616099e-07 0 -8.6180055513820523e-07 4.5709634073034394e-07 0 -1.2623058784962322e-09 -2.9304678789156631e-10 0 -8.97429053293048e-07 -6.6900569199097272e-07 0 -1.0624762910742419e-06 -5.7583390477416187e-07 0 -2.3973922271917977e-05 -1.6593644971439577e-05 0 -1.8954077521582857e-05 -1.1809360952707781e-05 0 -2.2431455503301503e-05 -1.2052204979290617e-05 0 -3.8112172297191424e-05 3.3301211317489181e-05 0 -3.6213450872359366e-05 2.3591578078495718e-05 0 -2.9334687481246827e-05 2.2740585203704417e-05 0 -9.3637192864122836e-06 -1.7625379851912097e-06 0 -1.2001820826407104e-05 -3.0780330393024319e-06 0 -1.0942754492327283e-05 -2.9282045347463388e-06 0 -9.6500970113995548e-07 1.1097191699199863e-06 0 -1.5537443648654528e-06 9.2553594755915125e-07 0 -1.0688259959448487e-06 1.2273380256922047e-06 0 -7.9556125227455821e-06 -2.6421775464395683e-05 0 -6.9975734569730985e-06 -2.5523874493842424e-05 0 -8.9322791608543045e-06 -2.4322034790091291e-05 0 -1.0434390183134494e-05 8.7360930919285647e-07 0 -1.2534799341335202e-05 1.6647591020399029e-06 0 -1.4224353784064315e-05 2.2746290261258329e-06 0 -1.753391222419835e-05 3.6874813058769697e-06 0 -1.4224353784064315e-05 2.2746290261258329e-06 0 -1.2534799341335202e-05 1.6647591020399031e-06 0 -1.8407273163348801e-07 3.2721306462513252e-07 0 -4.7699451937600763e-07 -1.6794844437086915e-07 0 -2.5834439666095329e-07 -5.1350007730462889e-08 0 2.5004661742053838e-06 -6.8509049606158498e-06 0 -5.5546522565977077e-07 -9.5480157440486454e-06 0 1.6204473636999473e-06 -9.5954669203911422e-06 0 -2.1056987519269567e-05 -8.2840240619028056e-06 0 -2.0746024192208845e-05 -9.4402993650830509e-06 0 -1.752958279368317e-05 -6.9628600674363651e-06 0 -3.473227779032835e-05 1.469533951841319e-05 0 -2.7178547985609685e-05 1.2288529644602077e-05 0 -3.3422899792085953e-05 1.7363892482863461e-05 0 -9.6140694114836169e-06 -7.1348462761322451e-06 0 -9.7679442106550582e-06 -6.695226187125405e-06 0 -8.659158654481225e-06 -6.2920081578527596e-06 0 -5.3196602563739827e-06 -6.1315879955523153e-07 0 -5.0271469284443311e-06 -5.2035977201871625e-07 0 -7.9277541708588458e-06 7.8006104661773498e-08 0 -6.2055177222532407e-06 2.068911725750857e-07 0 -7.9277541708588458e-06 7.8006104661773551e-08 0 -5.0271469284443311e-06 -5.2035977201871625e-07 0 -1.0069043439490723e-05 3.5382914201838832e-05 0 -8.7725050332712896e-06 2.4185836882500812e-05 0 -2.822117102342419e-06 2.2109818156243554e-05 0 -1.359981011045908e-05 2.7524434249069924e-06 0 -1.1303864049254698e-05 1.5488662798861312e-06 0 -1.4224353784064315e-05 2.2746290261258329e-06 0 -9.1135096265500217e-06 -2.2613796509003542e-06 0 -9.4899505869111405e-06 -1.8997999129586256e-06 0 -7.693772344356968e-06 -1.4638315509573232e-06 0 -9.6949676107419013e-06 -1.6691469003428796e-05 0 -9.5518412075629142e-06 -1.4449300877068626e-05 0 -1.1318982638498715e-05 -1.6692128647520542e-05 0 -1.094279522351188e-05 -1.4289903701222746e-05 0 -1.1318982638498715e-05 -1.6692128647520542e-05 0 -9.5518412075629142e-06 -1.4449300877068626e-05 0 -2.3298956011772272e-06 6.5143143201568441e-07 0 -1.7207816607559704e-06 1.5144800645737574e-06 0 -1.3442578334718927e-06 1.3963026663721979e-06 0 -5.12652124765989e-06 3.8056114432449735e-06 0 -4.8053706134617115e-06 1.6935173400839949e-06 0 -2.7521721047116941e-06 2.4436715176916654e-06 0 1.5780554952005497e-07 1.9447120359042076e-06 0 -7.7641722656338751e-08 1.6379458174184378e-06 0 2.9303467116057094e-08 2.3319256210200312e-06 0 -7.112501359538505e-06 1.5980889057111543e-05 0 -2.822117102342419e-06 2.2109818156243554e-05 0 -8.7725050332712879e-06 2.4185836882500809e-05 0 -1.3940399645704239e-05 -4.5087911177965547e-06 0 -1.1504901897107167e-05 -4.1052161570668954e-06 0 -1.0942754492327283e-05 -2.9282045347463388e-06 0 -3.833072498329947e-06 -4.328375234678664e-07 0 -2.7930047494635315e-06 3.2511686012462992e-07 0 -3.3947707389558272e-06 2.5456728801349804e-07 0 1.5139283696285639e-05 5.1681810748044806e-05 0 1.7087162771303852e-05 6.7500288878195562e-05 0 6.256808048296971e-06 6.2254895909939501e-05 0 -3.974056761441233e-05 -4.0946685521744084e-05 0 -3.1779481865535634e-05 -4.0397766814176514e-05 0 -3.3156759247782923e-05 -3.4916954314093741e-05 0 -3.473227779032835e-05 1.469533951841319e-05 0 -2.8436533414451823e-05 9.8541422517575679e-06 0 -2.6342501185786089e-05 9.5255333080834021e-06 0 -1.7695414545950819e-05 -5.987387771503104e-06 0 -2.1056987519269567e-05 -8.2840240619028056e-06 0 -1.6810550829401866e-05 -5.7300039673263811e-06 0 -3.4066306803010483e-06 1.0311688919518212e-06 0 -3.785055144600916e-06 1.2700512015743551e-06 0 -1.8976872996292449e-06 3.0086324063344953e-06 0 -5.3196602563739827e-06 -6.1315879955523153e-07 0 -7.9277541708588458e-06 7.8006104661773498e-08 0 -7.5384480750123359e-06 2.4189870334675104e-08 0 -1.0434390183134494e-05 8.7360930919285647e-07 0 -7.5384480750123359e-06 2.4189870334675104e-08 0 -7.9277541708588458e-06 7.8006104661773498e-08 0 7.4379644729631733e-07 4.6624424798266111e-06 0 1.2389721414681686e-06 6.5300125979221233e-06 0 3.0870695252377359e-07 5.3087889232485555e-06 0 -3.3753286525225631e-05 -4.8837990663816646e-05 0 -3.1779481865535634e-05 -4.0397766814176514e-05 0 -3.67156118768105e-05 -4.4834583244618283e-05 0 -1.3148435475512655e-05 -1.3965233409025666e-05 0 -1.223894377518334e-05 -1.412549990400234e-05 0 -1.182503931906757e-05 -1.1845289700946489e-05 0 1.9003201142205082e-05 0.00011902459414670324 0 1.8431334077832947e-05 0.00013749783324541214 0 6.979170394464058e-06 0.00012764590490795381 0 -4.2857730745806971e-05 -5.7064897102345e-05 0 -4.3547612846628888e-05 -6.5214678445780068e-05 0 -3.7662036868093349e-05 -5.9908242318738598e-05 0 -1.3249988165069526e-05 9.0605994064729509e-06 0 -8.5114229385363543e-06 5.485671242812792e-06 0 -5.7875252700903797e-06 7.1331617553920289e-06 0 -7.3974900053024178e-06 -5.3279299882318636e-06 0 -9.0870594174128687e-06 -8.0520245065479667e-06 0 -6.7093497564840259e-06 -6.7362836064880725e-06 0 -1.1171358945851715e-05 -5.3012828881487722e-06 0 -1.0057544353288417e-05 -6.4250408646692571e-06 0 -8.2564853972415695e-06 -4.1669958055991454e-06 0 -7.3795395658645855e-05 0.00012264071191400526 0 -5.9275916552531338e-05 0.00011192385393203928 0 -6.1895934332556734e-05 0.00012758148841352629 0 -1.958793356086919e-06 -5.4217765697869834e-05 0 -7.6708433999242788e-06 -5.0148672945384877e-05 0 -7.5937546255557808e-06 -5.7932761143084026e-05 0 -4.4454470230632071e-06 -1.2040739263640425e-07 0 -3.4921627132249545e-06 4.4001723876592936e-07 0 -4.7905842422601202e-06 4.0182800342297058e-08 0 -1.0995142220813517e-06 7.7919692405512646e-06 0 -4.2045858100389046e-06 1.0299394795036653e-05 0 -5.7875252700903797e-06 7.1331617553920289e-06 0 -1.3940399645704239e-05 -4.5087911177965547e-06 0 -1.2001820826407103e-05 -3.0780330393024315e-06 0 -1.4400617273057685e-05 -4.1684019980525224e-06 0 -1.1888896762740763e-05 -9.0986767847680559e-06 0 -1.3744135690492013e-05 -1.1711238532542436e-05 0 -1.1596839311239191e-05 -9.2284195374392675e-06 0 -5.6831286987118443e-06 -2.0719920063587315e-07 0 -5.6470483445511935e-06 -2.1110265789501322e-07 0 -7.3997321527858046e-06 -8.3523865043733982e-07 0 -3.7422109009566295e-05 -3.3456301349011228e-05 0 -3.974056761441233e-05 -4.0946685521744084e-05 0 -3.3156759247782923e-05 -3.4916954314093741e-05 0 -1.1383472647331007e-05 -2.5795539063392068e-06 0 -9.0330880669127048e-06 -1.5272420969341405e-06 0 -9.4899505869111405e-06 -1.8997999129586256e-06 0 -7.371373074523882e-06 -9.5892207749614338e-07 0 -9.4899505869111405e-06 -1.8997999129586256e-06 0 -9.0330880669127048e-06 -1.5272420969341405e-06 0 -4.3143854116385057e-05 7.1343385082851048e-05 0 -3.2368433232970385e-05 7.3668067144257493e-05 0 -4.4464965563475271e-05 8.3029860041276512e-05 0 -6.7655110232688736e-07 -6.2933984719541333e-07 0 -1.5475439398604707e-06 -9.1811033690132221e-07 0 -8.97429053293048e-07 -6.6900569199097272e-07 0 -2.0998582345900719e-06 -9.3000068717473087e-07 0 -8.97429053293048e-07 -6.6900569199097272e-07 0 -1.5475439398604707e-06 -9.1811033690132221e-07 0 -1.8899819007194625e-06 5.7179030968566361e-07 0 -1.7359044928253241e-06 7.4407226171338805e-07 0 -8.6180055513820523e-07 4.5709634073034394e-07 0 -7.6764027100076661e-07 5.5140769004016807e-07 0 -8.6180055513820523e-07 4.5709634073034394e-07 0 -1.7359044928253241e-06 7.4407226171338805e-07 0 -4.7852012332797141e-06 -2.2027763898723589e-06 0 -4.9816382705144099e-06 -1.5814455713872766e-06 0 -6.1236710536698356e-06 -3.2013564008358227e-06 0 -4.5505439733649129e-06 -5.9200934843705252e-07 0 -5.7599774242291268e-06 -1.9640297624672267e-06 0 -5.559284396553924e-06 -3.6131468059534699e-06 0 -6.8492900918231351e-06 -4.4965768733703844e-06 0 -5.559284396553924e-06 -3.6131468059534699e-06 0 -5.7599774242291268e-06 -1.9640297624672267e-06 0 -1.3744135690492013e-05 -1.1711238532542436e-05 0 -1.5103553925287503e-05 -1.4576868870917638e-05 0 -1.3497094030094083e-05 -1.3052586366807873e-05 0 -6.8492900918231351e-06 -4.4965768733703844e-06 0 -7.1221210073676331e-06 -3.5349263918697211e-06 0 -7.9075607076780611e-06 -5.4139844731346656e-06 0 -1.7208084069687612e-06 -1.5505862161527078e-05 0 -6.9437442700942722e-07 -1.2236259075433601e-05 0 -3.5265799729167861e-06 -1.4698968764872725e-05 0 -1.4934632376592797e-05 -1.7445027971551097e-05 0 -1.3613335963146312e-05 -1.5537672789200745e-05 0 -1.439523784337013e-05 -1.5302426488460006e-05 0 -2.1056987519269567e-05 -8.2840240619028056e-06 0 -2.456653242712373e-05 -1.1472014557938618e-05 0 -2.0746024192208845e-05 -9.4402993650830509e-06 0 -4.1487631943189046e-05 2.1744028027101653e-05 0 -3.473227779032835e-05 1.469533951841319e-05 0 -3.3422899792085953e-05 1.7363892482863461e-05 0 8.68860813644987e-07 -2.178771020593295e-06 0 -1.9212278903725879e-06 -4.5705433065586469e-06 0 7.2698581986453265e-07 -6.1871612469867934e-06 0 -1.7208084069687612e-06 -1.5505862161527078e-05 0 -4.2116922044552403e-06 -1.7916824354849684e-05 0 -2.3064824086026635e-06 -1.8837840036320458e-05 0 -1.1171358945851715e-05 -5.3012828881487722e-06 0 -1.1504901897107167e-05 -4.1052161570668954e-06 0 -1.4373337694144694e-05 -6.1413747425599483e-06 0 -4.1071932414974028e-07 6.169563896124051e-07 0 -1.6075001723134287e-07 2.6546266478739195e-07 0 -2.1584701205083834e-07 3.3489867292777664e-07 0 -2.8993214602257502e-06 1.1246992534560683e-06 0 -4.8053706134617115e-06 1.6935173400839951e-06 0 -4.2574269525477352e-06 2.2895750446186261e-07 0 -7.2872744263397189e-07 7.6659892335318585e-07 0 -2.0658180629306595e-06 4.3408470108728292e-07 0 -1.5589215535537943e-06 -6.3844610117766754e-09 0 -9.0188247452402228e-07 4.8807303014821433e-06 0 -2.6704560470749836e-06 2.2643523119114043e-06 0 -1.9401425430033396e-06 4.4382312007746323e-07 0 -5.6564225483211591e-06 -8.0123174509370356e-07 0 -4.2809324394739399e-06 -2.3968416019249066e-07 0 -4.0476203467578505e-06 -7.5872501368646645e-07 0 -2.8085219387687375e-06 -1.1668269055293006e-07 0 -4.0476203467578505e-06 -7.5872501368646645e-07 0 -4.2809324394739399e-06 -2.3968416019249066e-07 0 -3.8519143081182417e-06 -2.4571063915625591e-07 0 -5.8845838423652677e-06 -1.7698650153722195e-07 0 -5.7681001443925248e-06 5.9265535742976483e-07 0 -8.0575949980249312e-06 5.6611824015706072e-07 0 -5.7681001443925248e-06 5.9265535742976483e-07 0 -5.8845838423652677e-06 -1.7698650153722195e-07 0 -3.1390596531143475e-05 -2.062216653476631e-05 0 -3.4661623696726432e-05 -2.6655268882173147e-05 0 -2.8827557500675616e-05 -2.2675954195399823e-05 0 -1.0069043439490723e-05 3.5382914201838832e-05 0 -1.5383895267997348e-05 2.5707996386039939e-05 0 -8.7725050332712879e-06 2.4185836882500809e-05 0 -1.8192870382933623e-06 -2.9929351934157995e-05 0 -6.3730594317651307e-06 -2.6863673277230849e-05 0 -7.0736193485742017e-06 -3.4918900187783974e-05 0 -7.5355842494300397e-06 -2.2645520346474477e-05 0 -9.5378010775745399e-06 -2.1854182348744599e-05 0 -8.9322791608543045e-06 -2.4322034790091291e-05 0 -3.5490939005270967e-06 5.2172090268468397e-07 0 -4.7905842422601202e-06 4.0182800342297058e-08 0 -3.4921627132249545e-06 4.4001723876592936e-07 0 -4.4958714851957758e-06 -9.2495957688572048e-07 0 -2.8519251781966178e-06 7.3652471210079779e-07 0 -3.5953124130243142e-06 -5.1893618291282378e-07 0 -9.3637192864122836e-06 -1.7625379851912097e-06 0 -7.3997321527858046e-06 -8.3523865043733982e-07 0 -9.0330880669127048e-06 -1.5272420969341405e-06 0 -4.5407799182089207e-06 6.7374062849367348e-05 0 7.5785976920768795e-06 7.2838018672797761e-05 0 1.4891294960178698e-06 8.2356461573826085e-05 0 -3.6532498574397163e-10 1.8034640634433069e-10 0 -4.1239890706158974e-07 5.209684881049205e-07 0 -2.1584701205083834e-07 3.3489867292777664e-07 0 -1.094279522351188e-05 -1.4289903701222746e-05 0 -9.5518412075629142e-06 -1.4449300877068626e-05 0 -9.1806852412743321e-06 -1.1780558581900038e-05 0 8.68860813644987e-07 -2.178771020593295e-06 0 5.6544156968992383e-07 5.0719880991682919e-06 0 -1.9401425430033396e-06 4.4382312007746323e-07 0 -6.0342756023181876e-05 5.6218495588030733e-05 0 -5.4363699359974745e-05 4.2533180575992934e-05 0 -4.7889173877970143e-05 4.7526253029180892e-05 0 -2.1904218429202852e-07 4.0458539899345136e-07 0 -1.9261670385551989e-07 3.0829936976506611e-07 0 -1.4210874755415079e-07 1.4340929927129691e-07 0 -1.8899819007194625e-06 5.7179030968566361e-07 0 -8.6180055513820523e-07 4.5709634073034394e-07 0 -9.015261486292296e-07 3.2374796241616099e-07 0 -2.0998582345900719e-06 -9.3000068717473087e-07 0 -1.0624762910742419e-06 -5.7583390477416187e-07 0 -8.97429053293048e-07 -6.6900569199097272e-07 0 -6.0720147428957498e-07 1.7071255372213049e-06 0 -5.4409561046603665e-07 1.3567353655294576e-06 0 -1.0688259959448487e-06 1.2273380256922047e-06 0 -1.8046304070284688e-05 -8.9455588534621912e-06 0 -1.752958279368317e-05 -6.9628600674363651e-06 0 -2.0746024192208845e-05 -9.4402993650830509e-06 0 -2.7277633101919576e-05 1.6656809218084381e-05 0 -3.3422899792085953e-05 1.7363892482863461e-05 0 -2.7178547985609685e-05 1.2288529644602077e-05 0 -4.9876533968553716e-06 0.00012215893394388255 0 1.5351038325534304e-06 0.00010597578927893149 0 8.2036568558851585e-06 0.00011544287810369063 0 -3.1853282639090885e-05 -5.6929150514682982e-05 0 -3.3753286525225631e-05 -4.8837990663816646e-05 0 -3.7576811400084004e-05 -5.419579054433726e-05 0 2.5004661742053838e-06 -6.8509049606158498e-06 0 7.2698581986453275e-07 -6.1871612469867926e-06 0 -5.5546522565977077e-07 -9.5480157440486454e-06 0 -5.12652124765989e-06 3.8056114432449735e-06 0 -5.7875252700903797e-06 7.133161755392028e-06 0 -8.5114229385363543e-06 5.485671242812792e-06 0 -1.8885149472849856e-06 -7.6782735473677831e-06 0 -5.5546522565977077e-07 -9.5480157440486454e-06 0 7.2698581986453265e-07 -6.1871612469867934e-06 0 -9.6500970113995548e-07 1.1097191699199863e-06 0 -1.0200353895603488e-06 1.0271028100873548e-06 0 -1.5537443648654528e-06 9.2553594755915125e-07 0 -1.8261837005095215e-07 9.8395291389084808e-08 0 -2.2030115078861628e-07 -1.7565995553934812e-07 0 -1.274347347585897e-07 -1.2031202982558059e-08 0 -4.4454470230632071e-06 -1.2040739263640425e-07 0 -3.3947707389558272e-06 2.5456728801349799e-07 0 -3.4921627132249545e-06 4.4001723876592936e-07 0 -2.012706564220959e-06 3.8411307778705505e-06 0 -2.6704560470749836e-06 2.2643523119114043e-06 0 -4.1868335329709503e-07 6.2568959416672898e-06 0 -9.0188247452402228e-07 4.8807303014821433e-06 0 -4.1868335329709509e-07 6.2568959416672898e-06 0 -2.6704560470749836e-06 2.2643523119114043e-06 0 -2.6498910259278153e-05 -4.384915374916579e-05 0 -3.3753286525225631e-05 -4.8837990663816646e-05 0 -2.8212690581975966e-05 -5.1235356885063907e-05 0 -3.1853282639090885e-05 -5.6929150514682982e-05 0 -2.8212690581975966e-05 -5.1235356885063907e-05 0 -3.3753286525225631e-05 -4.8837990663816646e-05 0 -1.0499299097686885e-05 9.4345252957726115e-05 0 1.5351038325534304e-06 0.00010597578927893149 0 -1.1234841280214945e-05 0.000111001921653085 0 -4.9876533968553716e-06 0.00012215893394388255 0 -1.1234841280214945e-05 0.000111001921653085 0 1.5351038325534304e-06 0.00010597578927893149 0 -1.0499299097686885e-05 9.4345252957726115e-05 0 -1.1231626743069189e-05 7.8622990600181575e-05 0 1.4891294960178698e-06 8.2356461573826085e-05 0 -4.5407799182089207e-06 6.7374062849367348e-05 0 1.4891294960178698e-06 8.2356461573826085e-05 0 -1.1231626743069189e-05 7.8622990600181575e-05 0 -2.3523375068500298e-10 1.3110572166950254e-10 0 -2.7328208175391306e-10 1.5541904436763611e-10 0 -1.6075001723134287e-07 2.6546266478739195e-07 0 1.6204473636999473e-06 -9.5954669203911422e-06 0 -5.5546522565977098e-07 -9.5480157440486471e-06 0 -6.9437442700942722e-07 -1.2236259075433601e-05 0 -2.7146484123477245e-06 -1.2330299160426588e-05 0 -6.9437442700942722e-07 -1.2236259075433601e-05 0 -5.5546522565977077e-07 -9.5480157440486454e-06 0 -2.8060094208287393e-05 -3.2963090510051218e-05 0 -2.9829797167627636e-05 -2.8387535583177947e-05 0 -3.3156759247782923e-05 -3.4916954314093741e-05 0 -3.4661623696726432e-05 -2.6655268882173147e-05 0 -2.9829797167627636e-05 -2.8387535583177947e-05 0 -2.8827557500675616e-05 -2.2675954195399823e-05 0 -6.0342756023181876e-05 5.6218495588030733e-05 0 -4.7889173877970143e-05 4.7526253029180892e-05 0 -4.8952934565510221e-05 6.0909889666191773e-05 0 2.8750409876169244e-08 3.1095760654867637e-06 0 3.0640729161638378e-07 4.0690802471501126e-06 0 3.8658572702404635e-07 3.1427349549328255e-06 0 7.4379644729631733e-07 4.6624424798266111e-06 0 3.8658572702404635e-07 3.1427349549328255e-06 0 3.0640729161638378e-07 4.0690802471501126e-06 0 -5.5441271869797687e-07 9.4553427065729397e-07 0 -5.4454367309654149e-07 1.0771276571295279e-06 0 -2.8040638869563648e-07 8.8862745591592162e-07 0 -4.1071932414974028e-07 6.169563896124051e-07 0 -2.1584701205083829e-07 3.3489867292777659e-07 0 -4.1239890706158974e-07 5.209684881049205e-07 0 -1.0434390183134494e-05 8.7360930919285647e-07 0 -1.4224353784064315e-05 2.2746290261258329e-06 0 -1.1303864049254698e-05 1.5488662798861312e-06 0 -7.371373074523882e-06 -9.5892207749614338e-07 0 -7.693772344356968e-06 -1.4638315509573232e-06 0 -9.4899505869111405e-06 -1.8997999129586256e-06 0 -7.371373074523882e-06 -9.5892207749614338e-07 0 -9.0330880669127048e-06 -1.5272420969341403e-06 0 -7.3997321527858046e-06 -8.3523865043733982e-07 0 1.8875798945705903e-05 0.00010131935774821432 0 8.2036568558851585e-06 0.00011544287810369063 0 1.5351038325534304e-06 0.00010597578927893149 0 -4.1589949667276578e-05 -4.8856330404863504e-05 0 -3.7576811400084004e-05 -5.4195790544337266e-05 0 -3.3753286525225631e-05 -4.8837990663816646e-05 0 -2.1524218842864248e-10 1.8270532950139765e-11 0 -1.274347347585897e-07 -1.203120298255808e-08 0 -2.2030115078861628e-07 -1.7565995553934812e-07 0 -7.2872744263397189e-07 7.6659892335318585e-07 0 -1.3316455537916129e-06 1.5202786420824397e-06 0 -2.0658180629306595e-06 4.3408470108728292e-07 0 -1.8881802529382651e-05 -2.7554233690545028e-05 0 -2.1067618671159238e-05 -2.2797861017687295e-05 0 -2.3415742738943488e-05 -2.7590974652680055e-05 0 -6.9167833026149283e-06 1.1954481131081349e-06 0 -4.8053706134617107e-06 1.6935173400839949e-06 0 -7.7100971864086034e-06 2.8836114475211043e-06 0 -7.3974900053024178e-06 -5.3279299882318636e-06 0 -1.0057544353288417e-05 -6.4250408646692571e-06 0 -9.0870594174128687e-06 -8.0520245065479667e-06 0 -7.5735122908246763e-08 2.1544420476737603e-06 0 3.8658572702404635e-07 3.1427349549328255e-06 0 2.1990125453395853e-07 3.5173227603324932e-06 0 -2.49855198304115e-05 5.6788868062896527e-05 0 -3.6260271901821989e-05 5.92690058790831e-05 0 -3.0334347116418404e-05 4.8082889949941816e-05 0 -1.8046304070284688e-05 -8.9455588534621912e-06 0 -2.2431455503301503e-05 -1.2052204979290617e-05 0 -1.8954077521582857e-05 -1.1809360952707781e-05 0 -2.7277633101919576e-05 1.6656809218084381e-05 0 -2.9334687481246827e-05 2.2740585203704417e-05 0 -3.6213450872359366e-05 2.3591578078495718e-05 0 -1.0380690595921163e-05 -2.3757913187496856e-05 0 -9.3094253475425389e-06 -2.6109087829417764e-05 0 -8.9322791608543045e-06 -2.4322034790091291e-05 0 -7.9556125227455821e-06 -2.6421775464395683e-05 0 -8.9322791608543045e-06 -2.4322034790091291e-05 0 -9.3094253475425389e-06 -2.6109087829417764e-05 0 -9.3637192864122836e-06 -1.7625379851912097e-06 0 -7.360159047452228e-06 -9.5698386614692086e-07 0 -7.3997321527858046e-06 -8.3523865043733982e-07 0 -5.6831286987118443e-06 -2.0719920063587315e-07 0 -7.3997321527858046e-06 -8.3523865043733982e-07 0 -7.360159047452228e-06 -9.5698386614692086e-07 0 -3.833072498329947e-06 -4.328375234678664e-07 0 -4.9816382705144099e-06 -1.5814455713872766e-06 0 -4.0591658158749988e-06 -1.0139058810711885e-06 0 -1.1383472647331007e-05 -2.5795539063392068e-06 0 -1.4400617273057685e-05 -4.1684019980525224e-06 0 -1.2001820826407103e-05 -3.0780330393024315e-06 0 -1.19435257691408e-05 2.147355443647822e-06 0 -1.2534799341335202e-05 1.6647591020399031e-06 0 -9.0552430041648206e-06 9.1833772640168474e-07 0 -1.1666384590497298e-05 -2.5843992740119283e-05 0 -9.6036983827329947e-06 -2.7398879766406174e-05 0 -1.0708538652268231e-05 -2.5295826981952621e-05 0 -2.49855198304115e-05 5.6788868062896527e-05 0 -3.2368433232970385e-05 7.3668067144257493e-05 0 -3.6260271901821989e-05 5.92690058790831e-05 0 -2.7328208175391306e-10 1.5541904436763611e-10 0 -3.6532498574397163e-10 1.8034640634433069e-10 0 -2.1584701205083834e-07 3.3489867292777664e-07 0 1.8248281295382063e-05 8.4066837971873129e-05 0 1.4891294960178698e-06 8.2356461573826085e-05 0 7.5785976920768795e-06 7.2838018672797761e-05 0 1.3760351567338006e-06 7.5604786071280484e-06 0 2.0825984011316118e-06 9.0138052025170027e-06 0 1.2389721414681684e-06 6.5300125979221233e-06 0 -2.7277633101919576e-05 1.6656809218084381e-05 0 -2.1268099309851748e-05 1.5766068207003032e-05 0 -2.9334687481246827e-05 2.2740585203704417e-05 0 1.3760351567338006e-06 7.5604786071280484e-06 0 6.8583818416320491e-07 5.6069092770529897e-06 0 -3.5918146955171246e-08 5.7425925913023965e-06 0 1.3760351567338006e-06 7.5604786071280484e-06 0 1.2389721414681682e-06 6.5300125979221224e-06 0 6.8583818416320491e-07 5.6069092770529897e-06 0 -6.5057925297515562e-06 -7.847183776461605e-07 0 -8.4916767990138343e-06 -1.7299921516008074e-06 0 -7.5278768040353379e-06 -1.822473193754135e-06 0 -2.4844433386226151e-06 7.3036042559132994e-07 0 -3.4921627132249545e-06 4.4001723876592936e-07 0 -3.3947707389558272e-06 2.5456728801349804e-07 0 -3.8301047589562951e-05 4.720788381135972e-05 0 -4.8952934565510221e-05 6.0909889666191773e-05 0 -4.7889173877970143e-05 4.7526253029180892e-05 0 -5.6966425341897338e-06 -3.8652893146205432e-06 0 -6.1348423901702519e-06 -3.2203259568570538e-06 0 -4.8365828844734895e-06 -2.1027089251234685e-06 0 -2.012706564220959e-06 3.8411307778705505e-06 0 -4.1868335329709503e-07 6.2568959416672898e-06 0 -3.5918146955171246e-08 5.7425925913023965e-06 0 -1.0716995233940302e-05 -1.176914801821357e-05 0 -9.2839731065919651e-06 -9.4484781069879414e-06 0 -1.0314097083371641e-05 -9.2202802290106402e-06 0 -1.8046304070284688e-05 -8.9455588534621912e-06 0 -2.0746024192208845e-05 -9.4402993650830509e-06 0 -2.2431455503301503e-05 -1.2052204979290617e-05 0 -2.7277633101919576e-05 1.6656809218084381e-05 0 -3.6213450872359366e-05 2.3591578078495718e-05 0 -3.3422899792085953e-05 1.7363892482863461e-05 0 -4.981537008497247e-05 0.00012092971593376 0 -6.1895934332556734e-05 0.00012758148841352629 0 -5.9275916552531338e-05 0.00011192385393203928 0 -1.2370153353251035e-05 -5.5208388663742362e-05 0 -7.5937546255557808e-06 -5.7932761143084026e-05 0 -7.6708433999242788e-06 -5.0148672945384877e-05 0 -1.3148435475512655e-05 -1.3965233409025666e-05 0 -1.182503931906757e-05 -1.1845289700946489e-05 0 -1.3497094030094083e-05 -1.3052586366807873e-05 0 7.4379644729631733e-07 4.6624424798266111e-06 0 2.1990125453395853e-07 3.5173227603324932e-06 0 3.8658572702404635e-07 3.1427349549328255e-06 0 -6.2055177222532407e-06 2.068911725750857e-07 0 -9.0552430041648206e-06 9.1833772640168474e-07 0 -7.9277541708588458e-06 7.8006104661773498e-08 0 -1.3940399645704239e-05 -4.5087911177965547e-06 0 -1.0942754492327283e-05 -2.9282045347463388e-06 0 -1.2001820826407103e-05 -3.0780330393024315e-06 0 -2.0911816724630594e-05 7.704619763445899e-06 0 -1.6453780853591622e-05 6.8880365032213237e-06 0 -2.0838922578932693e-05 1.0978081925022011e-05 0 -5.6353412854814643e-06 -4.242068050115617e-06 0 -6.7093497564840259e-06 -6.7362836064880725e-06 0 -6.0763140534297047e-06 -5.8840105158996668e-06 0 -9.4496787220928619e-06 -2.722198649202418e-06 0 -1.0942754492327281e-05 -2.9282045347463388e-06 0 -1.1504901897107167e-05 -4.1052161570668954e-06 0 -2.012706564220959e-06 3.8411307778705505e-06 0 -1.8976872996292449e-06 3.0086324063344953e-06 0 -3.785055144600916e-06 1.2700512015743551e-06 0 -2.1524218842864248e-10 1.8270532950139765e-11 0 -2.09881695497391e-10 -2.7826594802604153e-11 0 -1.274347347585897e-07 -1.2031202982558059e-08 0 -1.3012617457745071e-05 -1.6503098458091866e-05 0 -1.3613335963146312e-05 -1.5537672789200745e-05 0 -1.4934632376592797e-05 -1.7445027971551097e-05 0 -1.7695414545950819e-05 -5.987387771503104e-06 0 -1.6810550829401866e-05 -5.7300039673263811e-06 0 -1.4400617273057685e-05 -4.1684019980525224e-06 0 -2.8436533414451823e-05 9.8541422517575679e-06 0 -2.1995298312758453e-05 6.4395791560749704e-06 0 -2.6342501185786089e-05 9.5255333080834021e-06 0 -2.4576342469048176e-05 -2.2271665372400014e-05 0 -2.8827557500675616e-05 -2.2675954195399823e-05 0 -2.9829797167627636e-05 -2.8387535583177947e-05 0 -1.1936526952979677e-05 -9.6322007289408376e-06 0 -1.1357358948870489e-05 -1.21448647585959e-05 0 -9.0870594174128687e-06 -8.0520245065479667e-06 0 -8.2916409294969628e-06 -1.000909606969444e-05 0 -9.0870594174128687e-06 -8.0520245065479667e-06 0 -1.1357358948870489e-05 -1.21448647585959e-05 0 -9.4496787220928619e-06 -2.722198649202418e-06 0 -9.0367188013395282e-06 -3.3195202058729349e-06 0 -7.5278768040353379e-06 -1.822473193754135e-06 0 -1.0716995233940302e-05 -1.176914801821357e-05 0 -1.0314097083371641e-05 -9.2202802290106402e-06 0 -1.182503931906757e-05 -1.1845289700946489e-05 0 -2.8060094208287393e-05 -3.2963090510051218e-05 0 -2.3320430147195691e-05 -3.2315299386893062e-05 0 -2.3415742738943488e-05 -2.7590974652680055e-05 0 -9.4496787220928619e-06 -2.722198649202418e-06 0 -7.5278768040353379e-06 -1.822473193754135e-06 0 -8.4916767990138343e-06 -1.7299921516008074e-06 0 -8.9143853257376731e-06 -7.3705348495848149e-06 0 -1.0314097083371641e-05 -9.2202802290106402e-06 0 -9.2839731065919651e-06 -9.4484781069879414e-06 0 -4.3368985721450672e-07 -3.4790492750103287e-07 0 -2.5834439666095329e-07 -5.1350007730462869e-08 0 -4.7699451937600763e-07 -1.6794844437086915e-07 0 -2.456653242712373e-05 -1.1472014557938618e-05 0 -2.2431455503301503e-05 -1.2052204979290617e-05 0 -2.0746024192208845e-05 -9.4402993650830509e-06 0 -4.1487631943189046e-05 2.1744028027101653e-05 0 -3.3422899792085953e-05 1.7363892482863461e-05 0 -3.6213450872359366e-05 2.3591578078495718e-05 0 -4.1589949667276578e-05 -4.8856330404863504e-05 0 -3.3753286525225631e-05 -4.8837990663816646e-05 0 -3.67156118768105e-05 -4.4834583244618283e-05 0 1.8875798945705903e-05 0.00010131935774821432 0 1.5351038325534304e-06 0.00010597578927893149 0 5.7065743097407756e-06 9.3847207725127055e-05 0 1.8248281295382063e-05 8.4066837971873129e-05 0 5.7065743097407756e-06 9.3847207725127055e-05 0 1.4891294960178698e-06 8.2356461573826085e-05 0 -4.1589949667276578e-05 -4.8856330404863504e-05 0 -4.2857730745806971e-05 -5.7064897102345e-05 0 -3.7576811400084004e-05 -5.419579054433726e-05 0 1.8875798945705903e-05 0.00010131935774821432 0 1.9003201142205082e-05 0.00011902459414670324 0 8.2036568558851585e-06 0.00011544287810369063 0 -1.8885149472849856e-06 -7.6782735473677831e-06 0 -1.9212278903725883e-06 -4.5705433065586469e-06 0 -3.8805406702932757e-06 -7.1793471889479702e-06 0 -1.2033222099434982e-05 -1.0807641877672457e-05 0 -1.3497094030094083e-05 -1.3052586366807873e-05 0 -1.182503931906757e-05 -1.1845289700946489e-05 0 -1.7274027979719383e-05 -2.2282991515330937e-05 0 -1.7513010104668123e-05 -2.2915114154014807e-05 0 -1.6868098597627853e-05 -2.1515587386719887e-05 0 -1.1151932597236003e-06 -2.2580692054801246e-05 0 -3.552591719940845e-06 -2.6174727848206439e-05 0 -1.8285846974347179e-06 -2.640834755155756e-05 0 -2.7277633101919576e-05 1.6656809218084381e-05 0 -2.0838922578932693e-05 1.0978081925022011e-05 0 -2.1268099309851748e-05 1.5766068207003032e-05 0 -5.6831286987118443e-06 -2.0719920063587315e-07 0 -4.5075138775023514e-06 2.2931193525022879e-07 0 -5.6470483445511935e-06 -2.1110265789501314e-07 0 -1.5294519350038872e-07 1.0980155289758841e-06 0 -5.4454367309654149e-07 1.0771276571295279e-06 0 -5.4409561046603665e-07 1.3567353655294576e-06 0 -4.3143854116385057e-05 7.1343385082851048e-05 0 -3.6260271901821989e-05 5.92690058790831e-05 0 -3.2368433232970385e-05 7.3668067144257493e-05 0 -1.0913714891584178e-05 -3.1311334256466248e-05 0 -7.0736193485742017e-06 -3.4918900187783974e-05 0 -6.3730594317651307e-06 -2.6863673277230849e-05 0 -1.8261837005095215e-07 9.8395291389084808e-08 0 -1.274347347585897e-07 -1.2031202982558059e-08 0 -1.4210874755415079e-07 1.4340929927129691e-07 0 -1.1171358945851715e-05 -5.3012828881487722e-06 0 -8.2564853972415695e-06 -4.1669958055991454e-06 0 -9.0367188013395282e-06 -3.3195202058729349e-06 0 1.7087162771303852e-05 6.7500288878195562e-05 0 1.8248281295382067e-05 8.4066837971873129e-05 0 7.5785976920768795e-06 7.2838018672797761e-05 0 -1.5270995666533477e-06 -7.5529605837806849e-07 0 -1.4255576217128706e-06 -4.4638401186060003e-07 0 -2.3382662382990664e-06 -7.1982642932294213e-07 0 -1.8885149472849856e-06 -7.6782735473677831e-06 0 -3.8805406702932757e-06 -7.1793471889479702e-06 0 -3.1958400821575247e-06 -1.0075723645882299e-05 0 -5.2823097234941396e-06 -1.0142478209176543e-05 0 -3.1958400821575247e-06 -1.0075723645882299e-05 0 -3.8805406702932757e-06 -7.1793471889479702e-06 0 -1.5666846547354106e-05 -2.1282142716896092e-05 0 -1.6349183844150463e-05 -2.0558964611132546e-05 0 -1.6868098597627853e-05 -2.1515587386719887e-05 0 -1.7274027979719383e-05 -2.2282991515330937e-05 0 -1.6868098597627853e-05 -2.1515587386719887e-05 0 -1.6349183844150463e-05 -2.0558964611132546e-05 0 -1.1151932597236003e-06 -2.2580692054801246e-05 0 -3.714420838531788e-06 -2.3177293716363231e-05 0 -3.552591719940845e-06 -2.6174727848206439e-05 0 -5.3664111264843427e-06 -2.6476843978385187e-05 0 -3.552591719940845e-06 -2.6174727848206439e-05 0 -3.7144208385317884e-06 -2.3177293716363231e-05 0 2.8750409876169244e-08 3.1095760654867637e-06 0 2.9303467116057094e-08 2.3319256210200312e-06 0 -7.1186367409967795e-07 2.3480327702276887e-06 0 8.68860813644987e-07 -2.178771020593295e-06 0 -1.9401425430033396e-06 4.4382312007746323e-07 0 -1.9212278903725883e-06 -4.5705433065586469e-06 0 -4.2128745463245514e-06 -2.8266826489074329e-06 0 -1.9212278903725883e-06 -4.5705433065586469e-06 0 -1.9401425430033396e-06 4.4382312007746323e-07 0 -2.8060094208287393e-05 -3.2963090510051218e-05 0 -3.3156759247782923e-05 -3.4916954314093741e-05 0 -3.1779481865535634e-05 -4.0397766814176514e-05 0 -9.3637192864122836e-06 -1.7625379851912097e-06 0 -1.0942754492327283e-05 -2.9282045347463388e-06 0 -8.4916767990138343e-06 -1.7299921516008074e-06 0 -9.4496787220928619e-06 -2.722198649202418e-06 0 -8.4916767990138343e-06 -1.7299921516008074e-06 0 -1.0942754492327283e-05 -2.9282045347463388e-06 0 -6.2765453727776853e-06 -8.2992542102347374e-06 0 -9.6140694114836169e-06 -7.1348462761322451e-06 0 -8.659158654481225e-06 -6.2920081578527596e-06 0 -1.5150725144049569e-05 -1.9250074783035782e-05 0 -1.6349183844150463e-05 -2.0558964611132546e-05 0 -1.4826861342347971e-05 -2.023633719134319e-05 0 -4.5757604951647723e-06 -2.061816587447595e-05 0 -5.8406093354305885e-06 -2.3101593775703354e-05 0 -3.7144208385317884e-06 -2.3177293716363231e-05 0 -9.6500970113995548e-07 1.1097191699199863e-06 0 -5.4409561046603654e-07 1.3567353655294576e-06 0 -5.4454367309654149e-07 1.0771276571295279e-06 0 -9.6036983827329947e-06 -2.7398879766406174e-05 0 -9.3094253475425389e-06 -2.6109087829417764e-05 0 -1.0708538652268231e-05 -2.5295826981952621e-05 0 -1.2355646162729505e-06 9.7745595224485907e-07 0 -7.33135480365104e-07 9.1782893105207436e-07 0 -8.2229651249881537e-07 8.6821727705350749e-07 0 -8.9143853257376731e-06 -7.3705348495848149e-06 0 -7.9075607076780611e-06 -5.4139844731346648e-06 0 -8.9624919408264078e-06 -6.0447773822377973e-06 0 -1.8261837005095215e-07 9.8395291389084808e-08 0 -1.6531116565695979e-07 2.8463073096531515e-07 0 -2.5834439666095329e-07 -5.1350007730462889e-08 0 -2.364165057876746e-05 8.1159087721428645e-05 0 -1.8357642815910019e-05 6.8440577685227713e-05 0 -1.1231626743069189e-05 7.8622990600181575e-05 0 -2.4574097347198545e-05 0.0001104722175863313 0 -1.1234841280214943e-05 0.000111001921653085 0 -1.7060728909267562e-05 0.0001218406719535862 0 -2.2465912248931363e-05 -5.136500624662215e-05 0 -2.8212690581975966e-05 -5.1235356885063907e-05 0 -2.6420893184562866e-05 -5.6571480775704436e-05 0 5.7267674897394565e-06 1.3930888684867423e-05 0 5.6544156968992383e-07 5.0719880991682919e-06 0 5.2170558945736106e-06 1.1973051332231214e-06 0 -1.8261837005095215e-07 9.8395291389084808e-08 0 -1.4210874755415079e-07 1.4340929927129691e-07 0 -1.9261670385551989e-07 3.0829936976506611e-07 0 -3.974056761441233e-05 -4.0946685521744084e-05 0 -3.67156118768105e-05 -4.4834583244618283e-05 0 -3.1779481865535634e-05 -4.0397766814176514e-05 0 -4.3880554694620551e-05 -8.8140338247092194e-05 0 -3.9001178259597643e-05 -8.4003128226412034e-05 0 -4.3902495623973985e-05 -8.0814902125606451e-05 0 1.5195765003333863e-05 0.0001891057364286814 0 5.8807702843492646e-06 0.00018246223612757519 0 1.628038528871532e-05 0.00017345252494501193 0 1.5195765003333863e-05 0.0001891057364286814 0 1.0184937641390044e-06 0.00019119692339472817 0 5.8807702843492637e-06 0.00018246223612757519 0 -4.9944595263731741e-06 -8.8203552902486282e-05 0 -8.8834881591266785e-06 -8.5390844949482391e-05 0 -1.0855164609650597e-05 -8.9138073794591151e-05 0 -7.531087309615967e-05 0.0001902711563459057 0 -7.5340826828838801e-05 0.00017400694373564211 0 -6.447213154883342e-05 0.00018107550040492515 0 -4.3880554694620551e-05 -8.8140338247092194e-05 0 -3.6588545090044542e-05 -8.8114171973654125e-05 0 -3.9001178259597643e-05 -8.4003128226412034e-05 0 -4.9944595263731741e-06 -8.8203552902486282e-05 0 -4.3873301226985567e-06 -8.1030201482389205e-05 0 -8.8834881591266785e-06 -8.5390844949482391e-05 0 -7.531087309615967e-05 0.0001902711563459057 0 -6.447213154883342e-05 0.00018107550040492515 0 -5.9096091699909044e-05 0.00019023441493691874 0 -2.0988169549741431e-10 -2.7826594802606354e-11 0 -1.4210874755415079e-07 1.4340929927129691e-07 0 -1.274347347585897e-07 -1.2031202982558059e-08 0 -1.0716995233940302e-05 -1.176914801821357e-05 0 -9.1806852412743321e-06 -1.1780558581900038e-05 0 -9.2839731065919651e-06 -9.4484781069879414e-06 0 -9.4496787220928619e-06 -2.722198649202418e-06 0 -1.1504901897107167e-05 -4.1052161570668954e-06 0 -9.0367188013395282e-06 -3.3195202058729349e-06 0 -2.8060094208287393e-05 -3.2963090510051218e-05 0 -2.5776297242235591e-05 -3.7135957925031577e-05 0 -2.3320430147195691e-05 -3.2315299386893062e-05 0 -7.0424001013673118e-07 -4.5957254474176284e-08 0 -1.5589215535537943e-06 -6.3844610117766754e-09 0 -1.4255576217128706e-06 -4.4638401186060003e-07 0 -2.7304913610315403e-05 0.00013166683282555259 0 -3.8180275673957515e-05 0.00014205941424540541 0 -3.8442715384523141e-05 0.00012607078335603953 0 -2.2458530521789111e-05 -6.1002461582134957e-05 0 -1.8356315623553059e-05 -6.5980764254964735e-05 0 -1.7471551131015183e-05 -5.8367084846266222e-05 0 -1.662059261969771e-05 -1.9463773106734958e-05 0 -1.7048965539049108e-05 -2.1119386584659096e-05 0 -1.6108367304362831e-05 -1.9445938707523155e-05 0 1.5054730147942712e-07 -1.5478634000334725e-05 0 -2.3064824086026639e-06 -1.8837840036320458e-05 0 -5.6382787421733913e-07 -1.8993298275054222e-05 0 3.7379769562483296e-06 -3.663126838839108e-06 0 7.2698581986453265e-07 -6.1871612469867934e-06 0 2.5004661742053838e-06 -6.8509049606158498e-06 0 -1.1171358945851715e-05 -5.3012828881487722e-06 0 -9.0367188013395282e-06 -3.3195202058729349e-06 0 -1.1504901897107167e-05 -4.1052161570668954e-06 0 -1.5103553925287503e-05 -1.4576868870917638e-05 0 -1.6021194084876396e-05 -1.7201966454989564e-05 0 -1.439523784337013e-05 -1.5302426488460006e-05 0 1.6204473636999473e-06 -9.5954669203911422e-06 0 -6.9437442700942722e-07 -1.2236259075433601e-05 0 8.1297366341267409e-07 -1.2418524191553899e-05 0 -1.8881802529382651e-05 -2.7554233690545028e-05 0 -1.5033085317695906e-05 -2.9557695677856283e-05 0 -1.4729062134380854e-05 -2.3074067581269726e-05 0 -1.5294519350038872e-07 1.0980155289758841e-06 0 -2.8040638869563648e-07 8.8862745591592162e-07 0 -5.4454367309654149e-07 1.0771276571295279e-06 0 -1.2370153353251035e-05 -5.5208388663742362e-05 0 -1.6729051833883979e-05 -5.0089373820627232e-05 0 -1.7471551131015183e-05 -5.8367084846266222e-05 0 -4.981537008497247e-05 0.00012092971593376 0 -3.765294224131157e-05 0.00011062619143022979 0 -3.8442715384523141e-05 0.00012607078335603953 0 -2.7146484123477245e-06 -1.2330299160426588e-05 0 -5.5546522565977077e-07 -9.5480157440486454e-06 0 -3.1958400821575247e-06 -1.0075723645882299e-05 0 -1.8885149472849856e-06 -7.6782735473677831e-06 0 -3.1958400821575247e-06 -1.0075723645882299e-05 0 -5.5546522565977077e-07 -9.5480157440486454e-06 0 -2.4844433386226151e-06 7.3036042559132994e-07 0 -2.5833395089641883e-06 7.5797643711190391e-07 0 -3.4921627132249545e-06 4.4001723876592936e-07 0 -1.1936526952979677e-05 -9.6322007289408376e-06 0 -9.0870594174128687e-06 -8.0520245065479667e-06 0 -1.0057544353288417e-05 -6.4250408646692571e-06 0 -9.9170201371477477e-06 -2.297155952639099e-05 0 -6.0650493770291687e-06 -2.0127567120649767e-05 0 -8.4166211755870746e-06 -1.5132072347850787e-05 0 -8.0833578082940888e-06 -9.2636289744407299e-06 0 -9.2839731065919651e-06 -9.4484781069879414e-06 0 -9.1806852412743321e-06 -1.1780558581900038e-05 0 -3.7573576413185909e-06 -1.6216642185146703e-05 0 -6.0650493770291687e-06 -2.0127567120649767e-05 0 -2.4143154830122839e-06 -2.2805597415534529e-05 0 -1.7208084069687612e-06 -1.5505862161527078e-05 0 -3.5265799729167861e-06 -1.4698968764872725e-05 0 -4.2116922044552403e-06 -1.7916824354849684e-05 0 -5.5740996766236346e-06 -1.6453346494485044e-05 0 -4.2116922044552403e-06 -1.7916824354849684e-05 0 -3.5265799729167861e-06 -1.4698968764872725e-05 0 -4.1941978183542876e-06 1.5211872497797372e-07 0 -5.5454080888225325e-06 -3.9608183310824352e-07 0 -5.6470483445511935e-06 -2.1110265789501314e-07 0 -4.0440264572524898e-06 -1.3617472350205244e-06 0 -4.8365828844734895e-06 -2.1027089251234685e-06 0 -3.5953124130243142e-06 -5.1893618291282378e-07 0 -4.4958714851957758e-06 -9.2495957688572048e-07 0 -3.5953124130243142e-06 -5.1893618291282378e-07 0 -4.8365828844734895e-06 -2.1027089251234685e-06 0 1.3760351567338006e-06 7.5604786071280484e-06 0 -4.1868335329709503e-07 6.2568959416672898e-06 0 1.8012275501104544e-06 9.7186095431307599e-06 0 -9.0188247452402228e-07 4.8807303014821433e-06 0 1.8012275501104544e-06 9.7186095431307599e-06 0 -4.1868335329709503e-07 6.2568959416672898e-06 0 1.8248281295382063e-05 8.4066837971873129e-05 0 1.8875798945705903e-05 0.00010131935774821432 0 5.7065743097407756e-06 9.3847207725127055e-05 0 -3.9055210640026757e-07 4.6467226944370532e-06 0 3.0640729161638378e-07 4.0690802471501126e-06 0 -5.0515058703951827e-07 3.4619917830270801e-06 0 -3.974056761441233e-05 -4.0946685521744084e-05 0 -4.1589949667276578e-05 -4.8856330404863504e-05 0 -3.67156118768105e-05 -4.4834583244618283e-05 0 -3.5490939005270967e-06 5.2172090268468397e-07 0 -3.4921627132249545e-06 4.4001723876592936e-07 0 -2.5833395089641883e-06 7.5797643711190391e-07 0 -5.3196602563739827e-06 -6.1315879955523153e-07 0 -4.1892230135486292e-06 -6.3836018727485996e-07 0 -3.4629076512903678e-06 -8.8371827657351068e-07 0 -4.1941978183542876e-06 1.5211872497797372e-07 0 -2.8456511927354839e-06 4.1374251116280217e-07 0 -3.2111879512080257e-06 1.6125276310518154e-07 0 -7.2872744263397189e-07 7.6659892335318585e-07 0 -1.8382458100632173e-07 7.1837603214061727e-07 0 -6.5898422737054793e-08 1.5050105031037457e-06 0 -2.2536008042902624e-06 -1.0159276460945189e-06 0 -1.9545872016461277e-06 -3.6902620683475178e-07 0 -9.6229062051601178e-07 -3.0012814318792412e-07 0 -1.4755635740704969e-09 1.7576080707139275e-10 0 -9.6229062051601178e-07 -3.0012814318792407e-07 0 -1.9545872016461277e-06 -3.6902620683475178e-07 0 -3.1440840558656393e-06 1.1935822209294122e-06 0 -1.3442573811709118e-06 2.9664984174377826e-07 0 -2.754381823504404e-06 2.3600586981747955e-07 0 -2.122578572844131e-09 -3.608583626336355e-10 0 -2.754381823504404e-06 2.3600586981747955e-07 0 -1.3442573811709118e-06 2.9664984174377826e-07 0 -1.1936526952979677e-05 -9.6322007289408376e-06 0 -1.5502051846868489e-05 -1.1453479757740581e-05 0 -1.4463382361573705e-05 -1.3943859330622641e-05 0 -1.8261837005095215e-07 9.8395291389084808e-08 0 -1.9261670385551989e-07 3.0829936976506611e-07 0 -1.6531116565695979e-07 2.8463073096531515e-07 0 -4.5407799182089207e-06 6.7374062849367348e-05 0 6.256808048296971e-06 6.2254895909939501e-05 0 7.5785976920768795e-06 7.2838018672797761e-05 0 -7.112501359538505e-06 1.5980889057111543e-05 0 -9.1010493754707663e-06 1.1431184723697211e-05 0 -4.2045858100389046e-06 1.0299394795036653e-05 0 -3.9055210640026757e-07 4.6467226944370532e-06 0 6.8583818416320491e-07 5.6069092770529897e-06 0 3.0640729161638378e-07 4.0690802471501126e-06 0 -1.2486858482644356e-05 -1.7312354519610106e-05 0 -1.1357358948870489e-05 -1.21448647585959e-05 0 -1.4463382361573705e-05 -1.3943859330622641e-05 0 -4.3202054223776135e-05 0.00019021202778506211 0 -5.9096091699909044e-05 0.00019023441493691874 0 -5.1087423764284643e-05 0.00018198056936103807 0 -1.6724403357530537e-05 -8.8754192717802109e-05 0 -1.0855164609650597e-05 -8.9138073794591151e-05 0 -1.388249996876354e-05 -8.5621167023826409e-05 0 1.0184937641390044e-06 0.00019119692339472817 0 -1.3245711746574678e-05 0.00019098225292330244 0 -6.1915661453665633e-06 0.00018342941724041828 0 -3.6588545090044549e-05 -8.8114171973654139e-05 0 -2.9523010186874888e-05 -8.8105346114017788e-05 0 -3.301247790669893e-05 -8.4416984878120423e-05 0 -1.3324695307143819e-05 -2.0292399828052961e-05 0 -1.4826861342347971e-05 -2.023633719134319e-05 0 -1.3856320788219012e-05 -2.1520816535635619e-05 0 -7.5355842494300397e-06 -2.2645520346474477e-05 0 -6.9975734569730985e-06 -2.5523874493842428e-05 0 -5.8406093354305885e-06 -2.3101593775703354e-05 0 -2.527557613587485e-09 -1.0773681682343616e-09 0 -9.6229062051601199e-07 -3.0012814318792417e-07 0 -1.4755635740704969e-09 1.7576080707139275e-10 0 -3.3794219371957083e-09 1.4376152292232004e-09 0 -2.122578572844131e-09 -3.608583626336355e-10 0 -1.3442573811709118e-06 2.9664984174377826e-07 0 -3.3794219371957083e-09 1.4376152292232004e-09 0 -1.3442573811709118e-06 2.9664984174377826e-07 0 -3.1440840558656393e-06 1.1935822209294122e-06 0 -2.527557613587485e-09 -1.0773681682343616e-09 0 -2.2536008042902624e-06 -1.0159276460945189e-06 0 -9.6229062051601178e-07 -3.0012814318792412e-07 0 -1.0913714891584178e-05 -3.1311334256466248e-05 0 -1.5033085317695906e-05 -2.9557695677856279e-05 0 -1.5563337449610996e-05 -3.6795679403637342e-05 0 -4.4454470230632071e-06 -1.2040739263640425e-07 0 -5.7463322586509527e-06 -7.9293026597418197e-07 0 -4.7691175801342365e-06 -7.0995049897754197e-07 0 -8.9143853257376731e-06 -7.3705348495848149e-06 0 -9.2839731065919651e-06 -9.4484781069879414e-06 0 -7.9546929457624995e-06 -7.0814641491798905e-06 0 -8.0833578082940888e-06 -9.2636289744407299e-06 0 -7.9546929457624995e-06 -7.0814641491798905e-06 0 -9.2839731065919651e-06 -9.4484781069879414e-06 0 -2.4844433386226151e-06 7.3036042559132994e-07 0 -3.3947707389558272e-06 2.5456728801349804e-07 0 -2.543216680015593e-06 5.9668372466203352e-07 0 -5.5441271869797687e-07 9.4553427065729397e-07 0 -7.33135480365104e-07 9.1782893105207436e-07 0 -1.0200353895603488e-06 1.0271028100873548e-06 0 -1.2355646162729505e-06 9.7745595224485907e-07 0 -1.0200353895603488e-06 1.0271028100873548e-06 0 -7.33135480365104e-07 9.1782893105207436e-07 0 -9.0188247452402228e-07 4.8807303014821433e-06 0 5.6544156968992394e-07 5.0719880991682919e-06 0 1.8012275501104544e-06 9.7186095431307599e-06 0 5.7267674897394565e-06 1.3930888684867423e-05 0 1.8012275501104548e-06 9.7186095431307616e-06 0 5.6544156968992383e-07 5.0719880991682919e-06 0 -1.8112953038792925e-05 -1.4200403987408784e-05 0 -1.4463382361573705e-05 -1.3943859330622641e-05 0 -1.5502051846868489e-05 -1.1453479757740581e-05 0 -2.7146484123477245e-06 -1.2330299160426588e-05 0 -3.5265799729167861e-06 -1.4698968764872725e-05 0 -6.9437442700942722e-07 -1.2236259075433601e-05 0 -1.3148435475512655e-05 -1.3965233409025666e-05 0 -1.439523784337013e-05 -1.5302426488460006e-05 0 -1.3613335963146312e-05 -1.5537672789200745e-05 0 -9.6500970113995548e-07 1.1097191699199863e-06 0 -1.0688259959448487e-06 1.2273380256922047e-06 0 -5.4409561046603665e-07 1.3567353655294576e-06 0 -4.9876533968553716e-06 0.00012215893394388255 0 8.2036568558851585e-06 0.00011544287810369063 0 6.979170394464058e-06 0.00012764590490795381 0 -3.1853282639090885e-05 -5.6929150514682982e-05 0 -3.7576811400084004e-05 -5.419579054433726e-05 0 -3.7662036868093349e-05 -5.9908242318738598e-05 0 -6.2765453727776853e-06 -8.2992542102347374e-06 0 -6.0763140534297047e-06 -5.8840105158996668e-06 0 -6.7093497564840259e-06 -6.7362836064880725e-06 0 -1.8885149472849856e-06 -7.6782735473677831e-06 0 7.2698581986453265e-07 -6.1871612469867934e-06 0 -1.9212278903725883e-06 -4.5705433065586469e-06 0 -4.981537008497247e-05 0.00012092971593376 0 -5.9275916552531338e-05 0.00011192385393203928 0 -4.7775593762225235e-05 0.0001067272516003329 0 -1.2370153353251035e-05 -5.5208388663742362e-05 0 -7.6708433999242788e-06 -5.0148672945384877e-05 0 -1.2123816862490768e-05 -4.8166132586084919e-05 0 -1.0913714891584178e-05 -3.1311334256466248e-05 0 -1.1467241688577057e-05 -3.7666326785536343e-05 0 -7.0736193485742017e-06 -3.4918900187783974e-05 0 -1.2516294829481192e-05 -1.8576671740610418e-05 0 -1.2049623522029023e-05 -1.9964613381515302e-05 0 -1.1021782185840166e-05 -1.8488236538727082e-05 0 -4.5757604951647723e-06 -2.061816587447595e-05 0 -2.3064824086026635e-06 -1.8837840036320458e-05 0 -4.2116922044552403e-06 -1.7916824354849684e-05 0 -2.8993214602257502e-06 1.1246992534560683e-06 0 -2.0658180629306595e-06 4.3408470108728292e-07 0 -1.3316455537916129e-06 1.5202786420824393e-06 0 -1.0380690595921163e-05 -2.3757913187496856e-05 0 -8.9322791608543045e-06 -2.4322034790091291e-05 0 -9.5378010775745399e-06 -2.1854182348744599e-05 0 -3.5490939005270967e-06 5.2172090268468397e-07 0 -2.5833395089641883e-06 7.5797643711190391e-07 0 -2.7046657512126045e-06 7.0721132719200976e-07 0 -2.004321678975821e-06 8.2192263313591868e-07 0 -2.7046657512126045e-06 7.0721132719200976e-07 0 -2.5833395089641883e-06 7.5797643711190391e-07 0 -2.3298956011772272e-06 6.5143143201568441e-07 0 -3.1716617120828056e-06 -3.1199303479215588e-07 0 -3.5953124130243142e-06 -5.1893618291282378e-07 0 -1.1936526952979677e-05 -9.6322007289408376e-06 0 -1.4463382361573705e-05 -1.3943859330622641e-05 0 -1.1357358948870489e-05 -1.21448647585959e-05 0 -2.4844433386226151e-06 7.3036042559132994e-07 0 -2.543216680015593e-06 5.9668372466203352e-07 0 -1.8119210733595111e-06 8.7575798240756058e-07 0 -1.938163580558918e-06 8.0032586173844183e-07 0 -1.8119210733595111e-06 8.7575798240756058e-07 0 -2.543216680015593e-06 5.9668372466203352e-07 0 -3.3947707389558272e-06 2.5456728801349804e-07 0 -2.7930047494635315e-06 3.2511686012462992e-07 0 -2.543216680015593e-06 5.9668372466203352e-07 0 -1.2479556559011912e-05 -2.3239748710717006e-05 0 -1.3856320788219012e-05 -2.1520816535635619e-05 0 -1.4321774466050527e-05 -2.2796997603530949e-05 0 -1.5666846547354106e-05 -2.1282142716896092e-05 0 -1.4321774466050526e-05 -2.2796997603530949e-05 0 -1.3856320788219012e-05 -2.1520816535635619e-05 0 -5.3664111264843427e-06 -2.6476843978385187e-05 0 -6.9975734569730985e-06 -2.5523874493842424e-05 0 -6.4060390876492247e-06 -2.8671502250147881e-05 0 -7.9556125227455821e-06 -2.6421775464395683e-05 0 -6.4060390876492247e-06 -2.8671502250147881e-05 0 -6.9975734569730985e-06 -2.5523874493842424e-05 0 -9.0188247452402228e-07 4.8807303014821433e-06 0 -1.9401425430033396e-06 4.4382312007746323e-07 0 5.6544156968992383e-07 5.0719880991682919e-06 0 -6.9009168726707392e-07 0.00017353729376980392 0 -6.1915661453665633e-06 0.00018342941724041828 0 -1.4655285169222989e-05 0.00017658832580490436 0 -3.5670282638811697e-05 -7.9904746519691034e-05 0 -3.301247790669893e-05 -8.4416984878120423e-05 0 -2.8980113803718785e-05 -8.1555500720279124e-05 0 -1.1627690900164009e-05 -8.1145550212336314e-05 0 -1.7392497290617314e-05 -8.2386741932495672e-05 0 -1.388249996876354e-05 -8.5621167023826409e-05 0 -5.7094623578395035e-05 0.00017201822506183879 0 -4.1937454632613804e-05 0.00017553446835263088 0 -5.1087423764284643e-05 0.00018198056936103807 0 -4.981537008497247e-05 0.00012092971593376 0 -4.7775593762225235e-05 0.00010672725160033289 0 -3.765294224131157e-05 0.00011062619143022979 0 -1.2370153353251035e-05 -5.5208388663742362e-05 0 -1.2123816862490768e-05 -4.8166132586084919e-05 0 -1.6729051833883979e-05 -5.0089373820627232e-05 0 -1.0913714891584178e-05 -3.1311334256466248e-05 0 -1.5563337449610996e-05 -3.6795679403637342e-05 0 -1.1467241688577059e-05 -3.7666326785536343e-05 0 -4.0440264572524898e-06 -1.3617472350205244e-06 0 -3.5953124130243142e-06 -5.1893618291282378e-07 0 -3.1716617120828056e-06 -3.1199303479215588e-07 0 -1.3245711746574678e-05 0.00019098225292330244 0 -1.4655285169222989e-05 0.00017658832580490436 0 -6.1915661453665633e-06 0.00018342941724041828 0 -2.9523010186874888e-05 -8.8105346114017788e-05 0 -2.8980113803718785e-05 -8.1555500720279124e-05 0 -3.301247790669893e-05 -8.4416984878120423e-05 0 -4.3202054223776135e-05 0.00019021202778506211 0 -5.1087423764284643e-05 0.00018198056936103807 0 -4.1937454632613804e-05 0.00017553446835263088 0 -1.6724403357530537e-05 -8.8754192717802109e-05 0 -1.388249996876354e-05 -8.5621167023826409e-05 0 -1.7392497290617314e-05 -8.2386741932495672e-05 0 -1.079449162553607e-05 -2.0252794342158733e-05 0 -1.1021782185840166e-05 -1.8488236538727082e-05 0 -1.2049623522029023e-05 -1.9964613381515302e-05 0 -3.7573576413185909e-06 -1.6216642185146703e-05 0 -8.4166211755870746e-06 -1.5132072347850787e-05 0 -6.0650493770291687e-06 -2.0127567120649767e-05 0 -1.7513010104668123e-05 -2.2915114154014803e-05 0 -1.6688104736477585e-05 -2.1905113657269378e-05 0 -1.6868098597627853e-05 -2.1515587386719887e-05 0 -1.8285846974347179e-06 -2.640834755155756e-05 0 -3.552591719940845e-06 -2.6174727848206439e-05 0 -4.338589739868277e-06 -2.921066821209662e-05 0 -5.5441271869797687e-07 9.4553427065729397e-07 0 -4.2403414939644343e-07 7.2629123410123473e-07 0 -7.33135480365104e-07 9.1782893105207436e-07 0 -5.440482027719557e-05 9.5632287708204478e-05 0 -5.4951250344740688e-05 8.0340249921651049e-05 0 -4.4464965563475271e-05 8.3029860041276512e-05 0 -4.3143854116385057e-05 7.1343385082851048e-05 0 -4.4464965563475271e-05 8.3029860041276512e-05 0 -5.4951250344740688e-05 8.0340249921651049e-05 0 -9.6949676107419013e-06 -1.6691469003428796e-05 0 -1.1318982638498715e-05 -1.6692128647520542e-05 0 -1.1021782185840166e-05 -1.8488236538727082e-05 0 -2.3714805870112855e-06 4.6733525243526242e-07 0 -2.7930047494635315e-06 3.2511686012462992e-07 0 -3.2003968918133085e-06 -1.6706821386382575e-07 0 -8.9143853257376731e-06 -7.3705348495848149e-06 0 -7.9546929457624995e-06 -7.0814641491798905e-06 0 -7.9075607076780611e-06 -5.4139844731346656e-06 0 -6.8492900918231351e-06 -4.4965768733703844e-06 0 -7.9075607076780611e-06 -5.4139844731346656e-06 0 -7.9546929457624995e-06 -7.0814641491798905e-06 0 -3.7997752605535668e-05 9.495534540805291e-05 0 -3.765294224131157e-05 0.00011062619143022979 0 -4.7775593762225235e-05 0.0001067272516003329 0 -1.5068595242933016e-05 -4.3037588588986504e-05 0 -1.6729051833883979e-05 -5.0089373820627232e-05 0 -1.2123816862490768e-05 -4.8166132586084919e-05 0 -1.5068595242933016e-05 -4.3037588588986504e-05 0 -1.1467241688577059e-05 -3.7666326785536343e-05 0 -1.5563337449610996e-05 -3.6795679403637342e-05 0 -2.8085219387687375e-06 -1.1668269055293006e-07 0 -4.2809324394739399e-06 -2.3968416019249077e-07 0 -3.2111879512080257e-06 1.6125276310518154e-07 0 -3.8519143081182417e-06 -2.4571063915625591e-07 0 -4.1892230135486292e-06 -6.3836018727485996e-07 0 -5.8845838423652677e-06 -1.7698650153722195e-07 0 -8.0575949980249312e-06 5.6611824015706072e-07 0 -5.8845838423652677e-06 -1.7698650153722195e-07 0 -7.5384480750123359e-06 2.4189870334675104e-08 0 -5.6564225483211591e-06 -8.0123174509370356e-07 0 -5.5454080888225325e-06 -3.9608183310824352e-07 0 -4.2809324394739399e-06 -2.3968416019249066e-07 0 -3.466847326081551e-06 -5.8820998124569676e-07 0 -3.1716617120828056e-06 -3.1199303479215588e-07 0 -2.5754684313471892e-06 2.4199003845195342e-07 0 -5.440482027719557e-05 9.5632287708204478e-05 0 -4.7775593762225235e-05 0.0001067272516003329 0 -5.9275916552531338e-05 0.00011192385393203928 0 -8.5565599868111982e-06 -4.2473761179679371e-05 0 -1.2123816862490768e-05 -4.8166132586084919e-05 0 -7.6708433999242788e-06 -5.0148672945384877e-05 0 -8.5565599868111982e-06 -4.2473761179679371e-05 0 -7.0736193485742017e-06 -3.4918900187783974e-05 0 -1.1467241688577059e-05 -3.7666326785536343e-05 0 -1.8881802529382651e-05 -2.7554233690545028e-05 0 -2.3415742738943488e-05 -2.7590974652680055e-05 0 -2.3320430147195691e-05 -3.2315299386893062e-05 0 -1.2516294829481192e-05 -1.8576671740610418e-05 0 -1.1021782185840166e-05 -1.8488236538727082e-05 0 -1.1318982638498715e-05 -1.6692128647520542e-05 0 -2.8993214602257502e-06 1.1246992534560683e-06 0 -2.7521721047116941e-06 2.4436715176916654e-06 0 -4.8053706134617115e-06 1.6935173400839951e-06 0 -4.7852012332797141e-06 -2.2027763898723589e-06 0 -4.0591658158749988e-06 -1.0139058810711885e-06 0 -4.9816382705144099e-06 -1.5814455713872766e-06 0 -4.1941978183542876e-06 1.5211872497797372e-07 0 -5.6470483445511926e-06 -2.1110265789501324e-07 0 -4.5075138775023514e-06 2.2931193525022879e-07 0 -3.8301047589562951e-05 4.720788381135972e-05 0 -3.0334347116418404e-05 4.8082889949941816e-05 0 -3.6260271901821989e-05 5.92690058790831e-05 0 -2.4576342469048176e-05 -2.2271665372400014e-05 0 -2.3415742738943488e-05 -2.7590974652680055e-05 0 -2.1067618671159238e-05 -2.2797861017687295e-05 0 -4.9876533968553716e-06 0.00012215893394388255 0 -1.7060728909267562e-05 0.0001218406719535862 0 -1.1234841280214945e-05 0.000111001921653085 0 -3.1853282639090885e-05 -5.6929150514682982e-05 0 -2.6420893184562866e-05 -5.6571480775704436e-05 0 -2.8212690581975966e-05 -5.1235356885063907e-05 0 -4.5407799182089207e-06 6.7374062849367348e-05 0 -1.1231626743069189e-05 7.8622990600181575e-05 0 -1.8357642815910019e-05 6.8440577685227713e-05 0 -6.5057925297515562e-06 -7.847183776461605e-07 0 -7.360159047452228e-06 -9.5698386614692065e-07 0 -8.4916767990138343e-06 -1.7299921516008074e-06 0 -3.833072498329947e-06 -4.328375234678664e-07 0 -3.2003968918133085e-06 -1.6706821386382575e-07 0 -2.7930047494635315e-06 3.2511686012462992e-07 0 -2.0643405308238349e-05 -3.6750024052319021e-05 0 -2.3320430147195691e-05 -3.2315299386893062e-05 0 -2.5776297242235591e-05 -3.7135957925031577e-05 0 -1.5666846547354106e-05 -2.1282142716896092e-05 0 -1.6868098597627853e-05 -2.1515587386719887e-05 0 -1.6688104736477585e-05 -2.1905113657269378e-05 0 -5.3664111264843427e-06 -2.6476843978385187e-05 0 -4.338589739868277e-06 -2.921066821209662e-05 0 -3.552591719940845e-06 -2.6174727848206439e-05 0 -1.938163580558918e-06 8.0032586173844183e-07 0 -2.543216680015593e-06 5.9668372466203352e-07 0 -2.7930047494635315e-06 3.2511686012462992e-07 0 -5.9096091699909044e-05 0.00019023441493691874 0 -6.447213154883342e-05 0.00018107550040492515 0 -5.1087423764284643e-05 0.00018198056936103807 0 -5.7094623578395035e-05 0.00017201822506183879 0 -5.1087423764284643e-05 0.00018198056936103807 0 -6.447213154883342e-05 0.00018107550040492515 0 -1.1627690900164009e-05 -8.1145550212336314e-05 0 -1.388249996876354e-05 -8.5621167023826409e-05 0 -8.8834881591266785e-06 -8.5390844949482391e-05 0 -1.0855164609650597e-05 -8.9138073794591151e-05 0 -8.8834881591266785e-06 -8.5390844949482391e-05 0 -1.388249996876354e-05 -8.5621167023826409e-05 0 1.0184937641390044e-06 0.00019119692339472817 0 -6.1915661453665633e-06 0.00018342941724041828 0 5.8807702843492637e-06 0.00018246223612757519 0 -3.6588545090044549e-05 -8.8114171973654139e-05 0 -3.301247790669893e-05 -8.4416984878120423e-05 0 -3.9001178259597643e-05 -8.4003128226412034e-05 0 -6.9009168726707392e-07 0.00017353729376980392 0 5.8807702843492637e-06 0.00018246223612757519 0 -6.1915661453665633e-06 0.00018342941724041828 0 -3.5670282638811697e-05 -7.9904746519691034e-05 0 -3.9001178259597643e-05 -8.4003128226412034e-05 0 -3.301247790669893e-05 -8.4416984878120423e-05 0 -9.6949676107419013e-06 -1.6691469003428796e-05 0 -1.1021782185840166e-05 -1.8488236538727082e-05 0 -9.5555498070347277e-06 -1.875747229864413e-05 0 -1.3012617457745071e-05 -1.6503098458091866e-05 0 -1.223894377518334e-05 -1.412549990400234e-05 0 -1.3613335963146312e-05 -1.5537672789200745e-05 0 -1.3148435475512655e-05 -1.3965233409025666e-05 0 -1.3613335963146312e-05 -1.5537672789200745e-05 0 -1.223894377518334e-05 -1.412549990400234e-05 0 -1.079449162553607e-05 -2.0252794342158733e-05 0 -1.2049623522029023e-05 -1.9964613381515302e-05 0 -1.1890245273162814e-05 -2.1631402060486975e-05 0 -1.3324695307143819e-05 -2.0292399828052961e-05 0 -1.1890245273162814e-05 -2.1631402060486975e-05 0 -1.2049623522029023e-05 -1.9964613381515302e-05 0 1.3760351567338006e-06 7.5604786071280484e-06 0 -3.5918146955171246e-08 5.7425925913023965e-06 0 -4.1868335329709503e-07 6.2568959416672898e-06 0 -5.12652124765989e-06 3.8056114432449735e-06 0 -8.5114229385363543e-06 5.485671242812792e-06 0 -7.7100971864086034e-06 2.8836114475211043e-06 0 -1.1489584922291339e-05 4.5133256370183393e-06 0 -7.7100971864086034e-06 2.8836114475211043e-06 0 -8.5114229385363543e-06 5.485671242812792e-06 0 -6.5057925297515562e-06 -7.847183776461605e-07 0 -7.5278768040353379e-06 -1.822473193754135e-06 0 -5.7463322586509527e-06 -7.9293026597418197e-07 0 -3.8301047589562951e-05 4.720788381135972e-05 0 -3.0144549761102427e-05 3.85625404916591e-05 0 -3.0334347116418404e-05 4.8082889949941816e-05 0 -2.1881477041844479e-05 4.0089534557795593e-05 0 -3.0334347116418404e-05 4.8082889949941816e-05 0 -3.0144549761102427e-05 3.85625404916591e-05 0 -3.9055210640026757e-07 4.6467226944370532e-06 0 -3.5918146955171246e-08 5.7425925913023965e-06 0 6.8583818416320491e-07 5.6069092770529897e-06 0 -5.5740996766236346e-06 -1.6453346494485044e-05 0 -6.1639839089108631e-06 -1.9372049025164526e-05 0 -4.2116922044552403e-06 -1.7916824354849684e-05 0 -4.5757604951647723e-06 -2.061816587447595e-05 0 -4.2116922044552403e-06 -1.7916824354849684e-05 0 -6.1639839089108631e-06 -1.9372049025164526e-05 0 7.4379644729631733e-07 4.6624424798266111e-06 0 6.8583818416320491e-07 5.6069092770529897e-06 0 1.2389721414681684e-06 6.5300125979221233e-06 0 -1.7177303057773523e-05 -1.9278168323473694e-05 0 -2.0827885765914218e-05 -1.8678250398516727e-05 0 -2.1067618671159238e-05 -2.2797861017687295e-05 0 -2.4576342469048176e-05 -2.2271665372400014e-05 0 -2.1067618671159238e-05 -2.2797861017687295e-05 0 -2.0827885765914218e-05 -1.8678250398516727e-05 0 2.8750409876169244e-08 3.1095760654867637e-06 0 -5.0515058703951827e-07 3.4619917830270801e-06 0 3.0640729161638378e-07 4.0690802471501126e-06 0 7.4379644729631733e-07 4.6624424798266111e-06 0 3.0640729161638378e-07 4.0690802471501126e-06 0 6.8583818416320491e-07 5.6069092770529897e-06 0 -1.3148435475512655e-05 -1.3965233409025666e-05 0 -1.3497094030094083e-05 -1.3052586366807873e-05 0 -1.439523784337013e-05 -1.5302426488460006e-05 0 -3.833072498329947e-06 -4.328375234678664e-07 0 -4.0591658158749988e-06 -1.0139058810711885e-06 0 -3.2003968918133085e-06 -1.6706821386382575e-07 0 -3.466847326081551e-06 -5.8820998124569676e-07 0 -3.2003968918133085e-06 -1.6706821386382575e-07 0 -4.0591658158749988e-06 -1.0139058810711885e-06 0 -2.3298956011772272e-06 6.5143143201568441e-07 0 -2.5754684313471892e-06 2.4199003845195342e-07 0 -3.1716617120828056e-06 -3.1199303479215588e-07 0 1.9003201142205082e-05 0.00011902459414670324 0 6.9791703944640572e-06 0.00012764590490795381 0 8.2036568558851585e-06 0.00011544287810369063 0 -4.2857730745806971e-05 -5.7064897102345e-05 0 -3.7662036868093342e-05 -5.9908242318738598e-05 0 -3.7576811400084004e-05 -5.419579054433726e-05 0 -9.3637192864122836e-06 -1.7625379851912097e-06 0 -8.4916767990138343e-06 -1.7299921516008074e-06 0 -7.360159047452228e-06 -9.5698386614692086e-07 0 -2.7328208175391306e-10 1.5541904436763611e-10 0 -2.1584701205083837e-07 3.3489867292777664e-07 0 -1.6075001723134287e-07 2.6546266478739195e-07 0 1.7087162771303852e-05 6.7500288878195562e-05 0 7.5785976920768795e-06 7.2838018672797761e-05 0 6.256808048296971e-06 6.2254895909939501e-05 0 -1.079449162553607e-05 -2.0252794342158733e-05 0 -9.5555498070347277e-06 -1.875747229864413e-05 0 -1.1021782185840166e-05 -1.8488236538727082e-05 0 -6.9167833026149283e-06 1.1954481131081349e-06 0 -7.7100971864086034e-06 2.8836114475211039e-06 0 -1.0223440574412414e-05 2.4937078376722514e-06 0 -1.1489584922291339e-05 4.5133256370183393e-06 0 -1.0223440574412412e-05 2.4937078376722514e-06 0 -7.7100971864086034e-06 2.8836114475211043e-06 0 -1.5103553925287503e-05 -1.4576868870917638e-05 0 -1.439523784337013e-05 -1.5302426488460006e-05 0 -1.3497094030094083e-05 -1.3052586366807873e-05 0 
</DataArray>
</PointData>
<CellData Scalars="region_id,cross_section_updated," Vectors="" Tensors="stress,">
<DataArray type="Float64" Name="region_id" format="ascii">
2 2 2 2 2 2 2 2 2 2 3 3 3 3 3 3 3 3 3 3 1 1 1 1 1 1 1 1 1 1 1 1 1 1 1 1 1 1 1 1 1 1 1 1 1 1 1 1 1 1 1 1 1 1 1 1 1 1 1 1 1 1 1 1 1 1 1 1 1 1 1 1 1 1 1 1 1 1 1 1 1 1 1 1 1 1 1 1 1 1 1 1 1 1 1 1 1 1 1 1 1 1 1 1 1 1 1 1 1 1 1 1 1 1 1 1 1 1 1 1 1 1 1 1 1 1 1 1 1 1 1 1 1 1 1 1 1 1 1 1 1 1 1 1 1 1 1 1 1 1 1 1 1 1 1 1 1 1 1 1 1 1 1 1 1 1 1 1 1 1 1 1 1 1 1 1 1 1 1 1 1 1 1 1 1 1 1 1 1 1 1 1 1 1 1 1 1 1 1 1 1 1 1 1 1 1 1 1 1 1 1 1 1 1 1 1 1 1 1 1 1 1 1 1 1 1 1 1 1 1 1 1 1 1 1 1 1 1 1 1 1 1 1 1 1 1 1 1 1 1 1 1 1 1 1 1 1 1 1 1 1 1 1 1 1 1 1 1 1 1 1 1 1 1 1 1 1 1 1 1 1 1 1 1 1 1 1 1 1 1 1 1 1 1 1 1 1 1 1 1 1 1 1 1 1 1 1 1 1 1 1 1 1 1 1 1 1 1 1 1 1 1 1 1 1 1 1 1 1 1 1 1 1 1 1 1 1 1 1 1 1 1 1 1 1 1 1 1 1 1 1 1 1 1 1 1 1 1 1 1 1 1 1 1 1 1 1 1 1 1 1 1 1 1 1 1 1 1 1 1 1 1 1 1 1 1 1 1 1 1 1 1 1 1 1 1 1 1 1 1 1 1 1 1 1 1 1 1 1 1 1 1 1 1 1 1 1 1 1 1 1 1 1 1 1 1 1 1 1 1 1 1 1 1 1 1 1 1 1 1 1 1 1 1 1 1 1 1 1 1 1 1 1 1 1 1 1 1 1 1 1 1 1 1 1 1 1 1 1 1 1 1 1 1 1 1 1 1 1 1 1 1 1 1 1 1 1 1 1 1 1 1 1 1 1 1 1 1 1 1 1 1 1 1 1 1 1 1 1 1 1 1 1 1 1 1 1 1 1 1 1 1 1 1 1 1 1 1 1 1 1 1 1 1 1 1 1 1 1 1 1 1 1 1 1 1 1 1 1 1 1 1 1 1 1 1 1 1 1 1 1 1 1 1 1 1 1 1 1 1 1 1 1 1 1 1 1 1 1 1 1 1 1 1 1 1 1 1 1 1 1 1 1 1 1 1 1 1 1 1 1 1 1 1 1 1 1 1 1 1 1 1 1 1 1 1 1 1 1 1 1 1 1 1 1 1 1 1 1 1 1 1 1 1 1 1 1 1 1 1 1 1 1 1 1 1 1 1 1 1 1 1 1 1 1 1 1 1 1 1 1 1 1 1 1 1 1 1 1 1 1 1 1 1 1 1 1 1 1 1 1 1 1 1 1 1 1 1 1 1 1 1 1 1 1 1 1 1 1 1 1 1 1 1 1 1 1 1 1 1 1 1 1 1 1 1 1 1 1 1 1 1 1 1 1 1 1 1 1 1 1 1 1 1 1 1 1 1 1 1 1 1 1 1 1 1 1 1 1 1 1 1 1 1 1 1 1 1 1 1 1 1 1 1 1 1 1 1 1 1 1 1 1 1 1 1 1 1 1 1 1 1 1 1 1 1 1 1 1 1 1 1 1 1 1 1 1 1 1 1 1 1 1 1 1 1 1 1 1 1 1 1 1 1 1 1 1 1 1 1 1 1 1 1 1 1 1 1 1 1 1 1 1 1 1 1 1 1 1 1 1 1 1 1 1 1 1 1 1 1 1 1 1 1 1 1 1 1 1 1 1 1 1 1 1 1 1 1 1 1 1 1 1 1 1 1 1 1 1 1 1 1 1 1 1 1 1 1 1 1 1 1 1 1 1 1 1 1 1 1 1 1 1 1 1 1 1 1 1 1 1 1 1 1 1 1 1 1 1 1 1 1 1 1 1 1 1 1 1 1 1 1 1 1 1 1 1 1 1 1 1 1 1 1 1 1 1 1 1 1 1 1 1 1 1 1 1 1 1 1 1 1 1 1 1 1 1 1 1 1 1 1 1 1 1 1 1 1 1 1 1 1 1 1 1 1 1 1 1 1 1 1 1 1 1 1 1 1 1 1 1 1 1 1 1 1 1 1 1 1 1 1 1 1 1 1 1 1 1 1 1 1 1 1 1 1 1 1 1 1 1 1 1 1 1 1 1 1 1 1 1 1 1 1 1 1 1 1 1 1 1 1 1 1 
</DataArray>
<DataArray type="Float64" Name="stress" NumberOfComponents="9" format="ascii">
-1.0907874894137005e-05 -2.7914104440250397e-05 0 -2.7914104440250397e-05 -3.6359582980456683e-06 0 0 0 -3.6359582980456683e-06 -1.2281877317201146e-05 -3.3568107519082221e-05 0 -3.3568107519082221e-05 -4.093959105733713e-06 0 0 0 -4.093959105733713e-06 -1.5419948013565892e-05 -3.9307138841441662e-05 0 -3.9307138841441662e-05 -5.1399826711886353e-06 0 0 0 -5.1399826711886353e-06 -1.409893023962723e-05 -4.1784630210627504e-05 0 -4.1784630210627504e-05 -4.6996434132090813e-06 0 0 0 -4.6996434132090813e-06 -1.2322385502370336e-05 -4.2758375895337968e-05 0 -4.2758375895337968e-05 -4.1074618341234274e-06 0 0 0 -4.1074618341234274e-06 -1.1914357321164107e-05 -4.4126565314459053e-05 0 -4.4126565314459053e-05 -3.9714524403880447e-06 0 0 0 -3.9714524403880447e-06 -1.430204318692127e-05 -3.9184433306460912e-05 0 -3.9184433306460912e-05 -4.7673477289737656e-06 0 0 0 -4.7673477289737656e-06 -1.6330603551310033e-05 -4.7193291835727358e-05 0 -4.7193291835727358e-05 -5.4435345171033306e-06 0 0 0 -5.4435345171033306e-06 -8.8755766498281336e-06 -2.7581082429004586e-05 0 -2.7581082429004586e-05 -2.9585255499427248e-06 0 0 0 -2.9585255499427248e-06 -4.3531558782986814e-05 -4.3437167559243564e-05 0 -4.3437167559243564e-05 -1.4510519594328929e-05 0 0 0 -1.4510519594328929e-05 6.5617512344037251e-05 5.8676871056413825e-05 0 5.8676871056413825e-05 2.1872504114679074e-05 0 0 0 2.1872504114679074e-05 8.9155082254272562e-06 2.8640579766794167e-05 0 2.8640579766794167e-05 2.9718360751424233e-06 0 0 0 2.9718360751424233e-06 5.8786025913147512e-06 5.9642184105322644e-05 0 5.9642184105322644e-05 1.9595341971049126e-06 0 0 0 1.9595341971049126e-06 -9.689891715582025e-08 5.0284844128461949e-05 0 5.0284844128461949e-05 -3.2299639051935566e-08 0 0 0 -3.2299639051935566e-08 -5.8190460495200521e-06 5.7659449926239655e-05 0 5.7659449926239655e-05 -1.9396820165066886e-06 0 0 0 -1.9396820165066886e-06 -1.2156275239500012e-05 6.525819331969332e-05 0 6.525819331969332e-05 -4.0520917465000129e-06 0 0 0 -4.0520917465000129e-06 -1.7855159544248578e-05 4.4109034018667244e-05 0 4.4109034018667244e-05 -5.9517198480828459e-06 0 0 0 -5.9517198480828459e-06 -4.1101088624941301e-05 8.4407278941313671e-05 0 8.4407278941313671e-05 -1.3700362874980445e-05 0 0 0 -1.3700362874980445e-05 2.5066343516044135e-05 2.1257152427558209e-05 0 2.1257152427558209e-05 8.3554478386813852e-06 0 0 0 8.3554478386813852e-06 -0.00025425183793295115 8.4440158825939133e-05 0 8.4440158825939133e-05 -8.4750612644317059e-05 0 0 0 -8.4750612644317059e-05 -0.014894820274585326 -0.0049244054377774477 0 -0.0049244054377774477 0.010480287700808888 0 0 0 -0.0011036331434441035 -0.012461090156984177 -0.0049970362603830205 0 -0.0049970362603830205 0.019818262431807857 0 0 0 0.0018392930687059217 -0.027603627712773797 -0.0056840914366845033 0 -0.0056840914366845033 0.017170099256644616 0 0 0 -0.0026083821140322969 -0.026132676039546124 -9.6773852100148772e-05 0 -9.6773852100148772e-05 0.018775407543362783 0 0 0 -0.0018393171240458353 -0.063180291042168671 -0.003651054849535533 0 -0.003651054849535533 0.0014327213323642469 0 0 0 -0.015436892427451103 -0.044079954760106753 0.0012899325426792524 0 0.0012899325426792524 0.00044256719180314156 0 0 0 -0.010909346892075903 -0.066825070392464991 -0.0022475095259242156 0 -0.0022475095259242156 -0.00061527390087647927 0 0 0 -0.016860086073335365 -0.045578441868921252 0.0007199639401844675 0 0.0007199639401844675 -0.00037249696094881525 0 0 0 -0.011487734707467515 -0.059835903187504598 0.0023371933646209667 0 0.0023371933646209667 -0.00031084649052053048 0 0 0 -0.015036687419506275 -0.10443691229983237 -0.0059704139893692696 0 -0.0059704139893692696 -0.00045538484213306085 0 0 0 -0.026223074285491373 0.0011215111678497813 0.0012656897880355786 0 0.0012656897880355786 -0.00805270568124942 0 0 0 -0.0017327986283499101 -0.0011847767610532241 0.0013774642838640034 0 0.0013774642838640034 -0.0069128052274300411 0 0 0 -0.0020243954971208167 -0.017691030232004759 0.0038341868419349764 0 0.0038341868419349764 -0.0032996416382332361 0 0 0 -0.0052476679675594988 -0.016316151505081665 -0.0050641389899552958 0 -0.0050641389899552958 -0.0054413359456591615 0 0 0 -0.0054393718626852073 -0.018513658609815409 0.0044368062948923993 0 0.0044368062948923993 -0.0061715601658163238 0 0 0 -0.0061713046939079327 -0.02772064583091606 -0.0086009876211492753 0 -0.0086009876211492753 0.011255681940744236 0 0 0 -0.0041162409725429422 0.082631882195362397 0.055704377895910102 0 0.055704377895910102 0.10428411450398123 0 0 0 0.046728999174835903 -0.0022130509406457222 -0.0077492409294861453 0 -0.0077492409294861453 -0.014489014890132434 0 0 0 -0.0041755164576945392 0.0014268924028915109 0.0062642500676457491 0 0.0062642500676457491 -0.0069778633037014259 0 0 0 -0.0013877427252024788 -0.002317796427624419 0.010071503568235584 0 0.010071503568235584 -0.018211929795334036 0 0 0 -0.0051324315557395028 0.00091061033419437276 -0.0047238618054760203 0 -0.0047238618054760203 -0.0051180310657548134 0 0 0 -0.0010518551828899714 -0.0050974834535162383 0.01755924114445806 0 0.01755924114445806 -0.0079244184753475277 0 0 0 -0.0032554754822160525 -0.0064772944908286223 -0.01615278275335752 0 -0.01615278275335752 -0.01011479926269554 0 0 0 -0.0041480234383809989 -0.015213583262142349 0.0050050317376492924 0 0.0050050317376492924 -0.0035519684662822229 0 0 0 -0.0046913879321061431 0.089809552019622568 -0.0040989485025206968 0 -0.0040989485025206968 0.061597715527338448 0 0 0 0.037851816886740261 -0.13001199635421998 0.0059975968015246461 0 0.0059975968015246461 0.0037973868233897035 0 0 0 -0.031553652382707603 -0.06983501785082516 -0.002076681878354132 0 -0.002076681878354132 0.001477482602453728 0 0 0 -0.017089383812092837 -0.045717058140900373 -0.010496792587187725 0 -0.010496792587187725 0.0084377760577567518 0 0 0 -0.0093198205207859278 -0.054016762142125807 0.0072816610673276053 0 0.0072816610673276053 0.031063850570454798 0 0 0 -0.0057382278929177799 -0.057085851282838163 -0.014263039975097234 0 -0.014263039975097234 0.0034289984011577623 0 0 0 -0.013414213220420097 -0.017461004147037346 -0.0073966417230386574 0 -0.0073966417230386574 0.027623673192107987 0 0 0 0.0025406672612676602 -0.014876379920299887 -0.01997485122531184 0 -0.01997485122531184 -0.00058026566391100598 0 0 0 -0.0038641613960526677 -0.0166663754165991 0.028147080130877522 0 0.028147080130877522 -0.0039337822964143898 0 0 0 -0.0051500394282533168 -0.01417585072181532 -0.020925063975878067 0 -0.020925063975878067 0.0021670515803573487 0 0 0 -0.0030021997853645344 -0.023707999993518136 0.029560436076260466 0 0.029560436076260466 -0.0033853813042097336 0 0 0 -0.0067733453244319675 -0.039303169316481944 -0.017803188670302582 0 -0.017803188670302582 0.0010473737334423389 0 0 0 -0.0095639488957599082 -0.0077934374881707871 -0.018324174024427427 0 -0.018324174024427427 0.033419690624042139 0 0 0 0.0064065632839678428 -0.062428717778881246 0.0016268916530993438 0 0.0016268916530993438 0.0072258833111570331 0 0 0 -0.013800708616931071 0.15165714671184644 0.05840833464944583 0 0.05840833464944583 0.033727573913909903 0 0 0 0.046346180156439098 0.00043633425381239821 0.0057396565439118419 0 0.0057396565439118419 -0.015840063323906695 0 0 0 -0.0038509322675235602 3.0447610355754939e-05 -0.006982264311625061 0 -0.006982264311625061 -0.010807362073658511 0 0 0 -0.002694228615825689 -0.014610191664187734 -0.0077665547884878524 0 -0.0077665547884878524 0.040528705004112112 0 0 0 0.006479628334981097 -0.00040314517005035633 -0.015229563428075243 0 -0.015229563428075243 0.021288968685014176 0 0 0 0.0052214558787408993 -0.0062101709022905904 0.0036616792362458295 0 0.0036616792362458295 -0.0024389745858890421 0 0 0 -0.0021622863720447416 -0.0093691441455979168 -0.003723373468007204 0 -0.003723373468007204 -0.0075030445107045398 0 0 0 -0.0042180471640756141 -0.012443513769722591 0.0054521935025833076 0 0.0054521935025833076 -0.0048921019285850919 0 0 0 -0.0043339039245769212 -0.034321817616541433 0.029536262516886624 0 0.029536262516886624 0.032512515436911651 0 0 0 -0.00045232554490742469 -0.028486377728128238 0.024060558890008049 0 0.024060558890008049 0.024188184164435148 0 0 0 -0.0010745483909232537 0.074033491366421372 0.073457256787182124 0 0.073457256787182124 0.1203923881090227 0 0 0 0.048606469868861052 -0.0093826932020081577 0.0071902018347520524 0 0.0071902018347520524 0.00066681718448392824 0 0 0 -0.0021789690043809984 -0.0091804459578411941 -0.016559096520275207 0 -0.016559096520275207 0.02114345531911499 0 0 0 0.0029907523403184637 -0.012474354954798733 -0.0083006485631201277 0 -0.0083006485631201277 -0.020025353784995925 0 0 0 -0.0081249271849486715 -0.016891208751168042 -0.0076053592051925139 0 -0.0076053592051925139 0.03164326672503464 0 0 0 0.0036880144934666494 -0.013896419290454966 -0.012007166064721724 0 -0.012007166064721724 0.0069940398811877136 0 0 0 -0.0017255948523168113 -0.0096904705466103885 -0.0032237755177798449 0 -0.0032237755177798449 0.0056372783505124202 0 0 0 -0.0010132980490245025 -0.070349650350728321 0.010055972707173177 0 0.010055972707173177 -0.0008852881492662501 0 0 0 -0.017808734624998712 -0.0066331806279399941 -0.0045399383693886519 0 -0.0045399383693886519 0.00040963134440574756 0 0 0 -0.0015558873208835755 -0.0038522800477098773 0.019475334429481683 0 0.019475334429481683 0.039312786122297272 0 0 0 0.0088651265186465711 -0.0082333645976950341 -0.015846620902971953 0 -0.015846620902971953 0.036182576536558014 0 0 0 0.0069873029847157733 -0.0021347458761598048 0.001998416949649529 0 0.001998416949649529 -0.0002853273762459807 0 0 0 -0.00060501831310166843 -0.013935822071872078 0.00047417849753653152 0 0.00047417849753653152 -0.010589296357797373 0 0 0 -0.0061312796074173559 0.011194512237984067 -0.029412252332667296 0 -0.029412252332667296 0.047753620535215008 0 0 0 0.014737033193299762 -0.011303217013823419 -0.00099587202974781713 0 -0.00099587202974781713 -0.0049792142209443835 0 0 0 -0.0040706078086919506 -0.012635567824045832 -0.0049705441773211338 0 -0.0049705441773211338 0.0010448406204023319 0 0 0 -0.0028976818009108785 -0.021022028508501378 -0.017847887977679149 0 -0.017847887977679149 0.0063735486875775571 0 0 0 -0.0036621199552309691 -0.041148653236098079 -0.000627643720922906 0 -0.000627643720922906 -0.0062458111050361052 0 0 0 -0.011848616085283545 -0.057869239570864907 -0.0017878367350096134 0 -0.0017878367350096134 -0.0086025468886915257 0 0 0 -0.016617946614889106 0.0013693253885400495 0.0020373499399908013 0 0.0020373499399908013 -0.026784410014851372 0 0 0 -0.0063537711565778031 0.0019291830037576063 -0.0032902335997757604 0 -0.0032902335997757604 -0.022249081535649862 0 0 0 -0.0050799746329731055 -0.040733118390449956 -0.0068378860881808529 0 -0.0068378860881808529 -0.010127929398004037 0 0 0 -0.012715261947113501 -0.031919582295650617 0.0030731819013044134 0 0.0030731819013044134 -0.007191167610002467 0 0 0 -0.0097776874764132701 -0.0037620903663397195 -0.00077922974151029478 0 -0.00077922974151029478 -0.0083305803530121167 0 0 0 -0.0030231676798379591 -0.045060831789250126 0.0026187101990718612 0 0.0026187101990718612 0.00033296995672396591 0 0 0 -0.011181965458131538 -0.065590869930955531 -0.0060064118104559312 0 -0.0060064118104559312 0.0010831178531206069 0 0 0 -0.016126938019458713 -0.013580220870047358 -0.0102983936874886 0 -0.0102983936874886 -0.00035261163489830327 0 0 0 -0.0034832081262363979 -0.013775042119314226 -0.011769446268600096 0 -0.011769446268600096 0.0069790171330134654 0 0 0 -0.0016990062465751798 0.0057317761249997268 0.016853287288719709 0 0.016853287288719709 0.043098952256996892 0 0 0 0.012207682095499023 -0.0047001229240951348 -0.0025721314209432578 0 -0.0025721314209432578 -0.0017311755776746873 0 0 0 -0.0016078246254424833 -0.013763510182880717 -0.01018000215799876 0 -0.01018000215799876 -0.00027550411803595187 0 0 0 -0.0035097535752291742 -0.013221010480095045 -0.0072154581200385148 0 -0.0072154581200385148 -0.0087593186473095969 0 0 0 -0.0054950822818511311 -0.034761258506819104 0.032378275435066384 0 0.032378275435066384 0.0014719488331875752 0 0 0 -0.0083223274184078821 -0.04994369057575939 -0.0030123950711207319 0 -0.0030123950711207319 -0.016656441259747811 0 0 0 -0.0166500329588768 -0.036788502796080834 0.00056712187063757274 0 0.00056712187063757274 -0.012268308768487805 0 0 0 -0.012264202891142158 -0.008310145920929211 -0.0041997840921448974 0 -0.0041997840921448974 -0.010347075058410258 0 0 0 -0.0046643052448348682 -0.0079395298032405304 0.021580499900502259 0 0.021580499900502259 -0.014636167186626636 0 0 0 -0.0056439242474670692 -0.0052791814178336227 -0.012824634298240323 0 -0.012824634298240323 -0.0049215325872264959 0 0 0 -0.002550178501264988 -0.013960122896747059 -0.01658253454723041 0 -0.01658253454723041 0.0042446661338908717 0 0 0 -0.0024288641907141157 -0.002618133081087091 0.0025093010687985712 0 0.0025093010687985712 -0.0063541211884203539 0 0 0 -0.0022430635673768616 -0.027055085810526548 -0.01090250888353937 0 -0.01090250888353937 -0.0053218601983162856 0 0 0 -0.008094236502210703 -0.015258133223953169 -0.0081604601170308221 0 -0.0081604601170308221 -0.0041038769372517825 0 0 0 -0.004840502540301217 -0.00031078057040218228 0.003298471909434034 0 0.003298471909434034 -0.0053937499368440951 0 0 0 -0.0014261326268115698 -0.0035982385561606706 0.0039081555471219883 0 0.0039081555471219883 -0.0045776791134733048 0 0 0 -0.0020439794174084954 -0.0045296502906431568 0.0033849975293364543 0 0.0033849975293364543 -0.0046164548781083047 0 0 0 -0.002286526292187866 -0.014546599073443342 -0.0012617375275467413 0 -0.0012617375275467413 0.001248167117043758 0 0 0 -0.0033246079890998786 -0.010439920176416873 -0.015014323899841857 0 -0.015014323899841857 0.016369023238053629 0 0 0 0.0014822757654091856 -0.010958115283062647 -0.0087422494247734739 0 -0.0087422494247734739 -0.0092261342130781632 0 0 0 -0.0050460623740352095 -0.014582938916036049 -0.0079001544559038437 0 -0.0079001544559038437 0.041429633801724923 0 0 0 0.0067116737214222184 -0.0043286837857758886 0.018361211753225692 0 0.018361211753225692 0.065594263944046105 0 0 0 0.01531639503956761 -0.0013232706034475017 -0.0012543863131677657 0 -0.0012543863131677657 -0.00023429569925315086 0 0 0 -0.00038939157567507987 -0.0070393076277370792 -0.0039032452021462959 0 -0.0039032452021462959 -0.0021409412442736642 0 0 0 -0.0022950622180026858 0.0029825422353031428 0.011626898689091947 0 0.011626898689091947 0.068028033908063001 0 0 0 0.017752644035841536 -0.0045361042208757751 0.013643061287026869 0 0.013643061287026869 0.053030152101548267 0 0 0 0.01212351197016813 -0.0092819380829900211 0.0045272664220361719 0 0.0045272664220361719 -0.0032657264882518383 0 0 0 -0.0031369161428104666 -0.01211761298235969 0.0042781492876812679 0 0.0042781492876812679 -0.0037328065749243217 0 0 0 -0.0039626048893210012 0.014354200551226604 0.020474388333325211 0 0.020474388333325211 0.014601581609989367 0 0 0 0.0072389455403040204 -0.0016648564929070409 0.025005791599145732 0 0.025005791599145732 0.0092646658079771349 0 0 0 0.0018999523287674958 -0.013414091951084561 -0.013950354141028479 0 -0.013950354141028479 0.016048928767767867 0 0 0 0.00065870920417082646 -0.00094351117413671304 -0.0049630920429971637 0 -0.0049630920429971637 -0.033753806957075583 0 0 0 -0.0086743295328030878 -0.00067739079096684751 0.0025405205268681924 0 0.0025405205268681924 -0.030508616759237439 0 0 0 -0.0077965018875510717 -0.012933675187566248 0.0079078258682634406 0 0.0079078258682634406 0.034880437596019137 0 0 0 0.005486690602113228 -0.010687341340505085 0.0059372199244498158 0 0.0059372199244498158 -0.0033639548580568501 0 0 0 -0.0035128240496402618 -0.0043445166196123264 -0.011662462746529378 0 -0.011662462746529378 0.037231310037945331 0 0 0 0.0082216983545834177 -0.054143898125610657 0.0021385475387552012 0 0.0021385475387552012 0.00043138382488978888 0 0 0 -0.013428128575180205 -0.089090685457081917 -0.0055097348726165646 0 -0.0055097348726165646 0.00066436711787834501 0 0 0 -0.022106579584800876 -0.0033168242486349767 -0.013539885803094644 0 -0.013539885803094644 0.0065051659245056737 0 0 0 0.00079708541896767598 0.061335133874073564 -0.027641769846104836 0 -0.027641769846104836 0.022777386808838396 0 0 0 0.021028130170727979 -0.0094873868819661672 -0.0089237342274026965 0 -0.0089237342274026965 0.00070343697150720974 0 0 0 -0.0021959874776147498 -0.009877667957828018 -0.012453979208374745 0 -0.012453979208374745 0.0037959789849736358 0 0 0 -0.0015204222432135817 0.00069720172273406633 -0.0055692076966766813 0 -0.0055692076966766813 -0.0086485196057789204 0 0 0 -0.0019878294707613244 -0.0021995267297920673 0.0053338675364995591 0 0.0053338675364995591 -0.0070354905182590244 0 0 0 -0.0023087543120128284 0.0012010306197187681 0.0070862392317301293 0 0.0070862392317301293 -0.0097288111342237471 0 0 0 -0.0021319451286261337 -0.001685965123837727 -0.0039666843638195282 0 -0.0039666843638195282 -0.0055231290753113213 0 0 0 -0.0018022735497872898 -0.027245683410599866 0.011797982893511194 0 0.011797982893511194 0.041390647727805319 0 0 0 0.0035362410793013527 -0.017220656454716113 -0.0098572328952314936 0 -0.0098572328952314936 0.0018505905347400708 0 0 0 -0.0038425164799939932 -0.011741480373744746 -0.008153937948660539 0 -0.008153937948660539 8.4207941495037519e-05 0 0 0 -0.0029143181080624235 -0.011832796612933402 -0.0076158995461597517 0 -0.0076158995461597517 -0.0016411316912985502 0 0 0 -0.0033684820760579949 -0.0014169881659428785 -0.016335304044055081 0 -0.016335304044055081 0.0077594156625602206 0 0 0 0.0015856068741543217 -0.094172418274179354 0.010296251567546211 0 0.010296251567546211 0.0014808734774586219 0 0 0 -0.023172886199180148 -0.029748709288217198 0.0025661965927118724 0 0.0025661965927118724 0.0095578094779482092 0 0 0 -0.0050477249525672438 -0.023049586174063733 -0.0015868609608066311 0 -0.0015868609608066311 0.0087926492935352651 0 0 0 -0.0035642342201321064 -0.010582067728315145 0.0027023277447128513 0 0.0027023277447128513 -0.020886945603388996 0 0 0 -0.0078672533329260802 -0.072990561547834898 0.020360592402579369 0 0.020360592402579369 0.00099718110653146397 0 0 0 -0.01799834511032572 -0.047104721698142081 0.005347734166368287 0 0.005347734166368287 0.0024118826278101135 0 0 0 -0.011173209767582973 -0.048991640384993186 0.00057444507464948086 0 0.00057444507464948086 0.0023249944027261549 0 0 0 -0.011666661495566756 -0.082628404783763154 -0.0036454110092128678 0 -0.0036454110092128678 0.005299872844929332 0 0 0 -0.019332132984708414 -0.077271465516635482 -0.014515903186048618 0 -0.014515903186048618 0.0063152830322205089 0 0 0 -0.017739045621103774 -0.015768220833217952 -0.0077618158538990401 0 -0.0077618158538990401 -0.0022620754265741672 0 0 0 -0.0045075740649480195 -0.054281235042846834 -0.0043310107964470157 0 -0.0043310107964470157 0.00092274199336314644 0 0 0 -0.013339623262370967 0.019975370080308752 0.036319108891020357 0 0.036319108891020357 0.01181036821269954 0 0 0 0.0079464345732521147 -0.01971773104804881 -0.0065127236890774182 0 -0.0065127236890774182 0.02951537213663416 0 0 0 0.0024494102721463458 0.00042587832743125765 0.0098100221260253688 0 0.0098100221260253688 0.0096867922722548155 0 0 0 0.0025281676499215198 -0.022885370368575519 0.021552260700416936 0 0.021552260700416936 -0.0042009665940176966 0 0 0 -0.0067715842406482762 -0.012756525623202675 -0.021211050398710574 0 -0.021211050398710574 0.0032575910967039823 0 0 0 -0.0023747336316247147 -0.010208357621574267 -0.013933552340511218 0 -0.013933552340511218 0.017117670034664138 0 0 0 0.0017273281032724728 -0.0036201574022089733 0.0023314565189930248 0 0.0023314565189930248 -0.020171811712934029 0 0 0 -0.0059479922787857575 -0.013389575896492409 -0.009134908203678252 0 -0.009134908203678252 -0.0041934608728554923 0 0 0 -0.0043957591923369788 -0.014675456480076888 -0.0064214531989703781 0 -0.0064214531989703781 -0.0089611006973814612 0 0 0 -0.0059091392943645873 -0.01634618985732466 0.0058835843476977316 0 0.0058835843476977316 -0.0054035726722527436 0 0 0 -0.0054374406323943521 -0.011500443645511921 -0.017785306447268334 0 -0.017785306447268334 0.0098074787439701716 0 0 0 -0.00042324122538542341 -0.028252764270835264 -0.015528146098782763 0 -0.015528146098782763 -0.0037654827803038672 0 0 0 -0.0080045617627847801 -0.040447048694643467 -0.0097647889289688254 0 -0.0097647889289688254 0.011984313252445589 0 0 0 -0.0071156838605494765 -0.0042743458521478433 -0.0013540423454716211 0 -0.0013540423454716211 -0.0088448209659836019 0 0 0 -0.003279791704532862 -0.003082359851052232 0.00017664348645576129 0 0.00017664348645576129 -0.0064600778947951996 0 0 0 -0.0023856094364618583 -0.0088004836490860102 0.0038997507605336747 0 0.0038997507605336747 -0.0043387675049364393 0 0 0 -0.0032848127885056126 -0.009017155158195695 0.0046057616345225299 0 0.0046057616345225299 -0.0047248620505012237 0 0 0 -0.0034355043021742295 -0.033257745310637618 -0.013954513996920118 0 -0.013954513996920118 0.011247980800103946 0 0 0 -0.0055024411276334145 -0.0044262786346943028 0.0085253834074862818 0 0.0085253834074862818 0.0086302234669322561 0 0 0 0.0010509862080594901 -0.00034932866299031932 -0.0023283761755100748 0 -0.0023283761755100748 -0.0083776459124962899 0 0 0 -0.0021817436438716529 -0.01463933594174659 -0.01408476037887851 0 -0.01408476037887851 -0.0049004319651250322 0 0 0 -0.0048849419767179091 -0.0062643833215443676 0.010528988052982562 0 0.010528988052982562 0.028101645159738682 0 0 0 0.0054593154595485808 -0.016477223096651526 0.0021321944584444764 0 0.0021321944584444764 0.00077658743688821356 0 0 0 -0.0039251589149408303 -0.015034074682411431 0.0029624597406499734 0 0.0029624597406499734 0.0030014373035436338 0 0 0 -0.0030081593447169484 -0.049936359217002048 -0.0030186745001195988 0 -0.0030186745001195988 -0.016632781115370719 0 0 0 -0.016642285083093192 -0.036783939039605466 0.00057187348282924618 0 0.00057187348282924618 -0.012253364816365908 0 0 0 -0.012259325963992844 0.059965205098363811 0.01754819251322759 0 0.01754819251322759 0.017740677506480979 0 0 0 0.019426470651211197 -0.0093133133100686168 0.0039073427884267781 0 0.0039073427884267781 1.5968101809149537e-05 0 0 0 -0.0023243363020648711 -0.024294775701069374 -0.0053668677411202971 0 -0.0053668677411202971 0.03199776860350767 0 0 0 0.0019257482256095915 -0.0076018354708866365 0.00032854351391126135 0 0.00032854351391126135 -0.029414037114957159 0 0 0 -0.009253968146460928 -0.049896153367003052 0.0028972768705260374 0 0.0028972768705260374 0.00073530386380191506 0 0 0 -0.012290212375800292 -0.080462354283445586 -0.0062076812232482667 0 -0.0062076812232482667 0.00081070071233263485 0 0 0 -0.019912913392778231 -0.014789525445251216 -0.0072790750483293087 0 -0.0072790750483293087 -0.0075049091822030067 0 0 0 -0.0055736086568635504 -0.04390853035747494 0.0059591308205168714 0 0.0059591308205168714 0.00032004700393422578 0 0 0 -0.010897120838385179 -0.055002069190272534 -0.018844883004983597 0 -0.018844883004983597 -0.0018001529301239771 0 0 0 -0.014200555530099131 -0.046009206736298991 0.0040605103586520471 0 0.0040605103586520471 -0.0004024010567451608 0 0 0 -0.011602901948261048 -0.023840046835253172 0.0042077880722753277 0 0.0042077880722753277 -0.0017102775696041146 0 0 0 -0.0063875811012143197 -0.017885844666499659 -0.0086163451833375856 0 -0.0086163451833375856 -0.0062662693211894133 0 0 0 -0.0060380284969222698 -0.036011590496216474 -0.016115223864069592 0 -0.016115223864069592 0.0038688079096877298 0 0 0 -0.0080356956466321808 -0.018149503395329322 -0.0073911657167446132 0 -0.0073911657167446132 0.00030417624275891342 0 0 0 -0.0044613317881425918 -0.0088249087113836389 0.028047128516392072 0 0.028047128516392072 0.0026332936926429795 0 0 0 -0.0015479037546850538 -0.016901581368157448 -0.013320281037281501 0 -0.013320281037281501 -0.0043966001927391307 0 0 0 -0.0053245453902240891 -0.0057207598992390016 -0.0015456579636714785 0 -0.0015456579636714785 -0.0059558251865815762 0 0 0 -0.0029191462714551445 -0.011806336238259139 0.0038712857514256434 0 0.0038712857514256434 -0.0043810703259701145 0 0 0 -0.0040468516410573138 -0.021291700127331462 -0.0081859643320085548 0 -0.0081859643320085548 -0.0097092232873023133 0 0 0 -0.0077502308536584455 -0.020663301120099481 0.0058908149812576423 0 0.0058908149812576423 -0.0061351853616057432 0 0 0 -0.0066996216204263069 -0.022825327003092234 -0.0060126990940073434 0 -0.0060126990940073434 0.0081945016185774183 0 0 0 -0.0036577063461287057 -0.024298886534653952 -0.011282965258989142 0 -0.011282965258989142 0.0097672498618271986 0 0 0 -0.0036329091682066883 -0.027365448757848854 0.030683939846067099 0 0.030683939846067099 0.0088388894021016462 0 0 0 -0.0046316398389368851 0.0016778803409260856 0.042097859100960824 0 0.042097859100960824 0.023774951765931029 0 0 0 0.006363208026714251 0.036317330932381868 -0.000498864608460374 0 -0.000498864608460374 0.023083410564205153 0 0 0 0.01485018537414675 -0.025593670807407699 -0.0030722267399466291 0 -0.0030722267399466291 0.026987075493442265 0 0 0 0.00034835117150864431 -0.0019448499464213564 0.0022613014605864321 0 0.0022613014605864321 -0.0067881795842067248 0 0 0 -0.0021832573826570207 -0.01711945918872429 -0.010191334217317626 0 -0.010191334217317626 0.00062816180205249594 0 0 0 -0.0041228243466679693 -0.032780081456446786 0.028394033978262123 0 0.028394033978262123 -2.8522468817904212e-05 0 0 0 -0.0082021509813161031 -0.0096166758396187269 -0.0031088657181815998 0 -0.0031088657181815998 0.01498146303426251 0 0 0 0.0013411967986609041 -0.010315736949561415 -0.0065933447622163743 0 -0.0065933447622163743 -0.012750527806906192 0 0 0 -0.0057665661891169381 -0.014044435656487855 0.0039698454312446394 0 0.0039698454312446394 -0.0027265237783888688 0 0 0 -0.00419273985871918 -0.039236760897532474 0.0027465526037881993 0 0.0027465526037881993 0.025107837949781775 0 0 0 -0.0035322307369376194 -0.048588779648020795 0.0013226572869962842 0 0.0013226572869962842 -0.0010511935794971679 0 0 0 -0.012409993306879495 -0.074353329985530764 -0.002837715444363753 0 -0.002837715444363753 -0.0021257297169020826 0 0 0 -0.019119764925608219 -0.010322574336339277 -0.0085132935777791387 0 -0.0085132935777791387 0.0018132104087453527 0 0 0 -0.0021273409818984707 -0.026406048794130606 0.0037683313591732777 0 0.0037683313591732777 -0.0046951041283440492 0 0 0 -0.0077752882306186613 -0.027621145019603451 -0.0064934929735491025 0 -0.0064934929735491025 -0.0093804037862790946 0 0 0 -0.0092503872014706376 -0.104428084880806 -0.00050691744792000226 0 -0.00050691744792000226 0.0027534982470835412 0 0 0 -0.025418646658430619 -0.058311675013127555 0.00037591723912948349 0 0.00037591723912948349 0.00081498510628846832 0 0 0 -0.014374172476709794 0.0147435749167475 0.010311841417554091 0 0.010311841417554091 0.05738147737274607 0 0 0 0.018031263072373412 0.046995974211443428 -0.0014442390726936288 0 -0.0014442390726936288 0.14694590234577892 0 0 0 0.04848546913930557 -0.01443512575755266 -0.017885890318258019 0 -0.017885890318258019 0.011234075735993332 0 0 0 -0.0008002625053898163 -0.023318593837678092 -0.015299365197757431 0 -0.015299365197757431 0.0091270278322070908 0 0 0 -0.0035478915013677781 -0.0077558313938962684 -0.016100240142516493 0 -0.016100240142516493 0.027408325895178956 0 0 0 0.0049131236253206791 -0.0018586148070515174 -0.00043370137981663115 0 -0.00043370137981663115 -0.029191471744883346 0 0 0 -0.0077625216379837159 -0.0039152771414537437 -0.00070061164095703383 0 -0.00070061164095703383 -0.0089621868820704016 0 0 0 -0.0032193660058810357 -0.03478536162287299 -0.00054973001667689425 0 -0.00054973001667689425 0.0060802405530596959 0 0 0 -0.0071762802674533166 0.0011208516600481055 -0.0027019088789886972 0 -0.0027019088789886972 -0.029996484917614308 0 0 0 -0.0072189083143915367 -0.091347592141627409 0.0077840590272078014 0 0.0077840590272078014 0.00054581029437805045 0 0 0 -0.022700445461812328 -0.018751340784629145 0.021558356879660678 0 0.021558356879660678 -0.006235461780135676 0 0 0 -0.0062467006411912607 -0.01173751696052816 -0.020188628193405833 0 -0.020188628193405833 -4.4200861047727358e-05 0 0 0 -0.0029454294553939997 -0.0086704625256044474 0.0039629525802179662 0 0.0039629525802179662 0.0074474803754693729 0 0 0 -0.00030574553753376929 -0.028837016038004953 -0.0091003621290464062 0 -0.0091003621290464062 0.0084539837860651557 0 0 0 -0.0050957580629849702 -4.0050481060663334e-05 0.0058369185938743871 0 0.0058369185938743871 -0.001632604106798094 0 0 0 -0.00041816364696469106 0.002401610938254712 0.0079051709389431953 0 0.0079051709389431953 0.0024636126934389144 0 0 0 0.0012163059079234092 -0.037802756194432283 -0.014167252434799871 0 -0.014167252434799871 -0.0027630238853194496 0 0 0 -0.010141445019937932 -0.021997587780264033 -0.016342734309491458 0 -0.016342734309491458 0.0025471790697885188 0 0 0 -0.004862602177618941 -0.061437561631046682 -0.011121609190493478 0 -0.011121609190493478 -0.0042060170046997565 0 0 0 -0.016410894658936612 -0.016820355696572808 0.031784256903961694 0 0.031784256903961694 0.00075329803954815588 0 0 0 -0.0040167644142562464 -0.018443297387236525 0.029810298364839949 0 0.029810298364839949 0.00054477974215205727 0 0 0 -0.0044746294112711152 -0.019280620032508522 0.030950865184294907 0 0.030950865184294907 5.985831727794988e-05 0 0 0 -0.0048051904288074487 -0.018127378833676489 -0.019226664663931969 0 -0.019226664663931969 0.0025758799165753743 0 0 0 -0.0038878747292752647 -0.021252732040302934 -0.016825938358322745 0 -0.016825938358322745 0.0014144795820536168 0 0 0 -0.0049595631145623155 0.038236937970332056 0.020901460882435226 0 0.020901460882435226 0.029941767199166969 0 0 0 0.017044676292374758 -0.0052752390962025183 -0.0014045776166931412 0 -0.0014045776166931412 -0.0017630433376593241 0 0 0 -0.0017595706084654608 -0.0097740601800518773 0.0041193903008605202 0 0.0041193903008605202 -0.0032595068960295367 0 0 0 -0.0032583917690203537 -0.0078591536629903386 0.0045385790299846823 0 0.0045385790299846823 0.0010715149772447339 0 0 0 -0.0016969096714364016 0.0014503078329132779 -0.0076431748758823068 0 -0.0076431748758823068 0.040990267709674483 0 0 0 0.010610143885646933 -0.0467443382480556 -0.016588778571084057 0 -0.016588778571084057 -0.0023608767908727124 0 0 0 -0.012276303759732071 -0.0049388302519150808 0.002166927800255054 0 0.002166927800255054 -0.0046311274110328107 0 0 0 -0.0023924894157369724 -0.07553508053786448 -0.0041520152530919521 0 -0.0041520152530919521 -0.0025038072636474067 0 0 0 -0.019509721950377968 -0.048614328843016488 0.0018084543301253395 0 0.0018084543301253395 -0.0009726197891207905 0 0 0 -0.01239673715803433 -0.052755903603353582 -0.003105677778478505 0 -0.003105677778478505 0.00072576762704046338 0 0 0 -0.01300753399407828 -0.0064095526874895243 0.0040243390614908576 0 0.0040243390614908576 -0.0043269127659798512 0 0 0 -0.002684116363367343 -0.014039356052325071 -0.0041361638773978471 0 -0.0041361638773978471 0.0069827114006276864 0 0 0 -0.0017641611629243339 -0.010435971899914699 0.0077661483279404305 0 0.0077661483279404305 0.019241217207793489 0 0 0 0.0022013113269696988 0.0011310164231160685 0.028289583092468706 0 0.028289583092468706 0.0050287415490870707 0 0 0 0.0015399394930507432 -0.00086596509141060761 0.0019663446595302725 0 0.0019663446595302725 -0.0068205234698430518 0 0 0 -0.0019216221403134154 -0.014772378807050845 0.020660175432083983 0 0.020660175432083983 -0.013200713031083389 0 0 0 -0.0069932729595336696 -0.010416853911478174 -0.020251133178685404 0 -0.020251133178685404 -0.0061315351954456254 0 0 0 -0.00413709727673095 -0.0063308258722059255 0.0041863926197687126 0 0.0041863926197687126 -0.0042787372604149582 0 0 0 -0.0026523907831552205 -0.018046135290350384 0.0035847506112206438 0 0.0035847506112206438 0.02558978489403951 0 0 0 0.0018859124009222828 -0.0032729181407826768 0.018690712088420852 0 0.018690712088420852 -0.0094235183391573329 0 0 0 -0.003174109119985058 -0.0054564984650288251 0.01328480092310258 0 0.01328480092310258 -0.015717377104539132 0 0 0 -0.005293468892392128 -0.0041310494913168183 -0.0095641999852666276 0 -0.0095641999852666276 -0.011190435348725769 0 0 0 -0.0038303712100107301 -0.0032003438190507105 -0.014647636308031897 0 -0.014647636308031897 -0.0074748883403992217 0 0 0 -0.0026688080398624692 -0.057403723469804629 -0.004704157932887712 0 -0.004704157932887712 0.012436034055877149 0 0 0 -0.011241922353481856 -0.038488764792569914 -0.0082880345935134603 0 -0.0082880345935134603 0.0042953216605759736 0 0 0 -0.0085483607829985112 -0.04616316774151244 -0.0087625258809632262 0 -0.0087625258809632262 0.0048847805413749779 0 0 0 -0.010319596800034345 -0.076156118538928175 0.02107318108789788 0 0.02107318108789788 0.011535754521685204 0 0 0 -0.016155091004310729 -0.059239314475397931 0.019980806337802859 0 0.019980806337802859 0.010231664229534809 0 0 0 -0.012251912561465794 -0.012847468954961598 0.0036726962022133706 0 0.0036726962022133706 -0.0045941622328768139 0 0 0 -0.0043604077969596026 0.065190005979311849 0.018297334023131592 0 0.018297334023131592 0.014412846940608293 0 0 0 0.019900713229979994 -0.039613604026326972 -0.0070793987045715163 0 -0.0070793987045715163 -0.0098388133420019095 0 0 0 -0.012363104342082218 -0.032131126148103421 0.0033022482834340616 0 0.0033022482834340616 -0.0057254718590407988 0 0 0 -0.0094641495017860552 -0.022422167908031313 -0.0058011538507929811 0 -0.0058011538507929811 0.019584509437390419 0 0 0 -0.00070941461766021747 -0.022186359868459245 0.0050448339661790277 0 0.0050448339661790277 -0.0037525808504664262 0 0 0 -0.0064847351797314165 -0.020108297129052322 -0.0087860279968653386 0 -0.0087860279968653386 -0.010796025191751199 0 0 0 -0.007726080580200881 -0.063338386278780565 -0.014290745934550467 0 -0.014290745934550467 0.00033228128024950093 0 0 0 -0.015751526249632775 -0.063602744869339756 -0.013928328525224094 0 -0.013928328525224094 -0.00088003285338125736 0 0 0 -0.016120694430680253 -0.0077841178373421194 0.026669157079669714 0 0.026669157079669714 0.0023618481141141068 0 0 0 -0.0013555674308070031 -0.0074613184267895427 -0.01131251469458186 0 -0.01131251469458186 -0.00060148141391302978 0 0 0 -0.0020156999601756986 -0.00020195734571303115 -0.0030506042486256324 0 -0.0030506042486256324 -0.028647770733134393 0 0 0 -0.0072124320197119044 0.00015195014496391379 0.0023851085439502706 0 0.0023851085439502706 -0.030440946319040818 0 0 0 -0.0075722490435192469 -0.02211255652686395 0.0035235135553399076 0 0.0035235135553399076 0.0007079294818459923 0 0 0 -0.0053511567612544988 0.00078294466275867503 -0.0024416692789633598 0 -0.0024416692789633598 0.033673037024803065 0 0 0 0.0086139954218904108 0.0055523700917888275 -0.0024283467516682256 0 -0.0024283467516682256 0.057732957179569888 0 0 0 0.015821331817839651 -0.012919997238384221 -0.0099086801028153704 0 -0.0099086801028153704 -0.012577355385647533 0 0 0 -0.0063743381560079386 -0.044620687135439444 -0.0022542584990820035 0 -0.0022542584990820035 0.0047203311513318025 0 0 0 -0.0099750889960268929 -0.00046590074087454747 0.00059501691222788033 0 0.00059501691222788033 -0.031339952034283414 0 0 0 -0.0079514631937895319 -0.063164942530870349 -0.019827198629547828 0 -0.019827198629547828 0.0033885439909129844 0 0 0 -0.014944099634989348 -0.0091537649224706363 0.0040562581255061229 0 0.0040562581255061229 0.0053311726657787467 0 0 0 -0.00095564806417297154 -0.026512875934832286 -0.012491279772916822 0 -0.012491279772916822 0.012964981531686515 0 0 0 -0.0033869736007864082 -0.023998310983385562 -0.010080341007201746 0 -0.010080341007201746 0.011972951191890624 0 0 0 -0.0030063399478737485 -0.02336691202149975 0.0055729947403388731 0 0.0055729947403388731 -0.00062225292527838462 0 0 0 -0.005997291236694526 -0.036849566081790519 -0.0057911793878058088 0 -0.0057911793878058088 0.0071125878669667242 0 0 0 -0.0074342445537059765 -0.02706906031513176 0.0040079585946118518 0 0.0040079585946118518 -0.00038733679691261994 0 0 0 -0.0068640992780110962 -0.016944665714750912 -0.0097556441127026969 0 -0.0097556441127026969 -0.010043801709814292 0 0 0 -0.0067471168561412994 -0.047071701351410172 -0.0019920812571692648 0 -0.0019920812571692648 0.0054186424474916839 0 0 0 -0.010413264725979587 -0.081513617965809776 0.0036833264286365019 0 0.0036833264286365019 0.018675445933034523 0 0 0 -0.015709543008193827 -0.040127657194567519 -0.0077279133870235724 0 -0.0077279133870235724 -0.0088482590704717385 0 0 0 -0.012243979066259812 -0.031512490407917156 0.0038581670918655846 0 0.0038581670918655846 -0.00644957864976335 0 0 0 -0.0094905172644201286 -0.028586592149797817 0.0059969616649591965 0 0.0059969616649591965 -0.0016440482593671614 0 0 0 -0.0075576601022912422 -0.031422496265429915 -0.013535175433025492 0 -0.013535175433025492 -0.0078594619461507184 0 0 0 -0.009820489552895155 -0.0087753335792453719 -0.0036326070286304352 0 -0.0036326070286304352 -0.0098551126354818087 0 0 0 -0.0046576115536817973 0.0018533989472948528 -0.017494938955118236 0 -0.017494938955118236 0.023565681616892792 0 0 0 0.0063547701410469129 0.0012456466148428895 0.0035368616220632053 0 0.0035368616220632053 -0.0062585167032757037 0 0 0 -0.0012532175221082033 -0.0090763338423947015 0.017091896170715937 0 0.017091896170715937 -0.0040810889122848693 0 0 0 -0.0032893556886697262 -0.0086912992917679288 -0.020654069924874452 0 -0.020654069924874452 0.00084666551747991647 0 0 0 -0.0019611584435720308 -0.02738623841981799 0.0054509265496862956 0 0.0054509265496862956 -0.0027529898916010681 0 0 0 -0.0075348070778547627 -0.027543015906573896 -0.011091524414654552 0 -0.011091524414654552 -0.0099752802432107809 0 0 0 -0.0093795740374461659 -0.0019541165804620878 0.0047556632179345387 0 0.0047556632179345387 -0.0030538463805481857 0 0 0 -0.001251990740252569 -0.011483599290062249 -0.013432388199759839 0 -0.013432388199759839 0.017522730715108847 0 0 0 0.0015097828562616461 -0.059960296449705019 0.009332116389012015 0 0.009332116389012015 -0.00048088606596063954 0 0 0 -0.015110295628916415 0.005563033189265626 -0.0096057224781893047 0 -0.0096057224781893047 0.020578156764610722 0 0 0 0.0065352974884690385 -0.025715212110517527 -0.017515431180666841 0 -0.017515431180666841 0.0031643316806581057 0 0 0 -0.0056377201074648831 -0.022069262597902792 -0.0040575990913369383 0 -0.0040575990913369383 0.028736682940959268 0 0 0 0.0016668550857641198 -0.063143062897799668 -0.0089417889182075213 0 -0.0089417889182075213 -0.0017420674922220608 0 0 0 -0.01622128259750542 -0.042939193598916313 0.0033794404712190261 0 0.0033794404712190261 -0.00063178567292779264 0 0 0 -0.010892744817961025 0.0084526564849351955 0.003609202351326459 0 0.003609202351326459 -0.0013054998437549564 0 0 0 0.0017867891602950554 -0.0044987075355928073 0.0037574346043776491 0 0.0037574346043776491 -0.0047769132528651627 0 0 0 -0.0023189051971144927 -0.022976295132399682 -0.011243559206673706 0 -0.011243559206673706 0.0072496353573051897 0 0 0 -0.0039316649437736162 -0.064205759738088786 -0.010086414105375927 0 -0.010086414105375927 -0.00077533263951419518 0 0 0 -0.016245273094400728 -0.044049359546513213 0.0042878690641041549 0 0.0042878690641041549 -0.00022141331464010927 0 0 0 -0.011067693215288325 -0.010854001794648276 0.0058162890726850113 0 0.0058162890726850113 0.028866292843609826 0 0 0 0.0045030727622403849 -0.015427109043193998 -0.01829778047682272 0 -0.01829778047682272 -0.00072350025226475267 0 0 0 -0.00403765232386466 -0.016658045977406832 0.029785177820784769 0 0.029785177820784769 -0.0024001424635686774 0 0 0 -0.0047645471102437664 -0.040947302142090268 0.0038028844749493154 0 0.0038028844749493154 0.0043403095136208512 0 0 0 -0.0091517481571173551 -0.033708431324246252 0.00026172166946809849 0 0.00026172166946809849 0.0048529015690388626 0 0 0 -0.0072138824388018425 -0.0086700004207931735 -0.004009829799736582 0 -0.004009829799736582 0.0095221823998218776 0 0 0 0.00021304549475717645 -0.011446429732447728 -0.0038927667333861111 0 -0.0038927667333861111 0.013369593487332488 0 0 0 0.00048079093872118676 -0.015685575611201045 -0.0063308477225092466 0 -0.0063308477225092466 -0.010506192465480955 0 0 0 -0.0065479420191705004 -0.014023656747361675 -0.0042870825235693808 0 -0.0042870825235693808 -0.0090267981853685789 0 0 0 -0.0057626137331825604 -0.019035305689418303 0.0037949537847640083 0 0.0037949537847640083 -0.0049811834185908861 0 0 0 -0.0060041222770022976 -0.018678172219907314 0.0052444297232431981 0 0.0052444297232431981 -0.0047677829097805581 0 0 0 -0.0058614887824219681 -0.014294549592288985 -0.0047104538128150547 0 -0.0047104538128150547 -0.0027709240028327975 0 0 0 -0.0042663683987804735 -0.015831095777814039 0.0022510374817919726 0 0.0022510374817919726 0.031618876982091426 0 0 0 0.0039469453010693451 0.0039769374640180391 0.0052262764106132623 0 0.0052262764106132623 -0.0018247676036725786 0 0 0 0.00053804246508636251 -0.0086623012161854973 0.030002571040079137 0 0.030002571040079137 0.00096470179636165554 0 0 0 -0.0019243998549560715 -0.023367713973183879 -0.016985541212124894 0 -0.016985541212124894 -0.00039543362373373192 0 0 0 -0.0059407868992293889 -0.0036878654154315349 0.032538158005366191 0 0.032538158005366191 0.0027128751186751288 0 0 0 -0.00024374757418910153 0.0062162755107952588 -0.0053681233514803845 0 -0.0053681233514803845 -0.003327419306459127 0 0 0 0.00072221405108403337 0.0098920644080890269 -0.00041738123305050737 0 -0.00041738123305050737 0.0025572147506133722 0 0 0 0.003112319789675598 -0.030587877454296808 0.029807767540287355 0 0.029807767540287355 0.0020362023164695042 0 0 0 -0.0071379187844567982 -0.018117536984333438 0.033713580819966893 0 0.033713580819966893 0.0026210705250409028 0 0 0 -0.0038741166148231199 -0.045025822373975538 -0.0065653875755189283 0 -0.0065653875755189283 -0.0054110411680041498 0 0 0 -0.012609215885494927 -0.035026939860903397 0.0027292562711839921 0 0.0027292562711839921 -0.0036976456890523857 0 0 0 -0.0096811463874889453 -0.01049178868568551 -0.014334177375499149 0 -0.014334177375499149 0.00944710057913134 0 0 0 -0.00026117202663855643 0.0057022898975767067 -0.0013290798863377347 0 -0.0013290798863377347 0.031510865895627682 0 0 0 0.0093032889483010694 0.0076303843762261514 -0.002117611624645438 0 -0.002117611624645438 0.058178537801079067 0 0 0 0.016452230544326332 -0.015655593023246407 0.0032250054639933676 0 0.0032250054639933676 0.018586466133441119 0 0 0 0.00073271827754867874 0.0068965594381830714 0.0077454062825596153 0 0.0077454062825596153 0.00042458260151353316 0 0 0 0.0018302855099241507 -0.0054661177386852999 -0.0029246673736857132 0 -0.0029246673736857132 -0.020672152911910713 0 0 0 -0.0065345676626489824 -0.01074139800543375 -0.0029189428975595344 0 -0.0029189428975595344 -0.022023654236963175 0 0 0 -0.0081912630605992243 -0.014822483984021168 -0.0074163444218876134 0 -0.0074163444218876134 -0.0026573511729751087 0 0 0 -0.004369958789249076 -0.016821681278577708 0.012801322622692846 0 0.012801322622692846 -0.0063841583522741829 0 0 0 -0.0058014599077131496 -0.0087353622251614763 -0.020684689685145141 0 -0.020684689685145141 0.0004771631977142643 0 0 0 -0.0020645497568618845 -0.0027791555454975969 0.0060274085302286506 0 0.0060274085302286506 -0.016923247203787517 0 0 0 -0.0049256006873212577 -0.0030260865339634402 -0.0099963666319491939 0 -0.0099963666319491939 -0.011947290960446333 0 0 0 -0.0037433443736024641 -0.01037517313061681 0.027340373432791276 0 0.027340373432791276 -0.0079292785858557924 0 0 0 -0.0045761129291182479 -0.011636967389986846 -0.014658840099464832 0 -0.014658840099464832 -0.0081695338232825598 0 0 0 -0.0049516253033173585 -0.0027708271791901697 0.0034667999801201786 0 0.0034667999801201786 -0.0055406159342903973 0 0 0 -0.0020778607783701417 -7.7389826376138282e-05 0.0048532042894353705 0 0.0048532042894353705 -0.0035220993020213011 0 0 0 -0.00089987228209936071 -0.011142683459858915 0.029105957807246341 0 0.029105957807246341 0.0018136102477748217 0 0 0 -0.0023322683030206903 -0.013613209057671605 -0.015152701709474525 0 -0.015152701709474525 -7.0438628565039352e-05 0 0 0 -0.0034209119215592443 -0.032710329070473186 -0.0081261595739477513 0 -0.0081261595739477513 -0.0091224870071672272 0 0 0 -0.010458204019410102 -0.028068727322957066 0.0044266928666340131 0 0.0044266928666340131 -0.0057550786669017147 0 0 0 -0.0084559514974646942 0.0080636745000153831 0.029825321744519795 0 0.029825321744519795 0.010360164144341377 0 0 0 0.0046059596610892317 -0.05380192059797579 -0.0049726118454699285 0 -0.0049726118454699285 -0.0089118092038507485 0 0 0 -0.015678432450456636 -0.039429436696353008 0.0015229440983112793 0 0.0015229440983112793 -0.0058218496794794246 0 0 0 -0.011312821593958111 -0.025778880811953453 0.0098985576352625948 0 0.0098985576352625948 -0.0045961987341831545 0 0 0 -0.0075937698865340408 -0.0027968410843117741 -0.012731225581783467 0 -0.012731225581783467 0.023538780543959081 0 0 0 0.0051854848649118268 -0.014876274038882045 -0.010713819263180754 0 -0.010713819263180754 0.035886105383441495 0 0 0 0.00525245783613984 -0.033355967186935301 -0.0074209067399732404 0 -0.0074209067399732404 0.033872848414072121 0 0 0 0.00012922030678420848 -0.024609590125150405 -0.014491775247858728 0 -0.014491775247858728 0.0050450605226388667 0 0 0 -0.0048911324006278845 -0.0068126545538178193 -0.0099919818742220771 0 -0.0099919818742220771 0.0024649875131345089 0 0 0 -0.0010869167601708224 -0.028018891658265987 0.032782350057748655 0 0.032782350057748655 0.0090029669130941015 0 0 0 -0.0047539811862928882 -0.05560461265694755 0.016283020506868612 0 0.016283020506868612 0.012391361931909817 0 0 0 -0.010803312681259392 -0.036676607493525665 -0.0067105412053903232 0 -0.0067105412053903232 0.0052851318515881873 0 0 0 -0.0078478689104843347 0.0051712381426655268 -0.021947151640264603 0 -0.021947151640264603 0.017535483385638206 0 0 0 0.0056766803820759576 -0.0083028030986650875 0.0019108995966048703 0 0.0019108995966048703 0.011173934602370345 0 0 0 0.00071778287592626222 -0.0088926811356470625 -0.0081608859902509434 0 -0.0081608859902509434 0.01963874119483433 0 0 0 0.0026865150147968031 -0.01933570983407645 -0.0068431344450338751 0 -0.0068431344450338751 0.022906418494915551 0 0 0 0.00089267716520976745 -0.020114229585280412 -0.0064383895947475265 0 -0.0064383895947475265 0.020644611312768665 0 0 0 0.00013259543187205819 -0.0042177446098147948 0.013191325711027605 0 0.013191325711027605 0.042664616720871934 0 0 0 0.0096117180277642753 0.00030363448006447136 -0.010520019162728177 0 -0.010520019162728177 0.022275969167079607 0 0 0 0.0056449009117860299 -0.00624611354307536 0.025763651527188292 0 0.025763651527188292 0.0048334296125625009 0 0 0 -0.0003531709826283258 -0.011898455600829916 -0.0090275104254519678 0 -0.0090275104254519678 -0.0047176213067989803 0 0 0 -0.0041540192269071685 -0.012225004315660003 0.0087405188894399341 0 0.0087405188894399341 0.025324707422336813 0 0 0 0.0032749257766691992 -0.014703859296423682 -0.0045872785497121371 0 -0.0045872785497121371 0.0037064424033892499 0 0 0 -0.0027493542232586207 -0.012074538927986642 -0.0054320392974697151 0 -0.0054320392974697151 -0.016840436950159077 0 0 0 -0.0072287439695364747 -0.0030196638408086745 0.011559307897890177 0 0.011559307897890177 0.015865373563182444 0 0 0 0.0032114274305934426 -0.005161848811863822 -0.0018686037078830861 0 -0.0018686037078830861 -0.0099168796168584202 0 0 0 -0.0037696821071805608 -0.058575069419662978 -0.004437705791016191 0 -0.004437705791016191 0.00094585176229733392 0 0 0 -0.014407304414341349 -0.016709094053121397 -0.006371714271362669 0 -0.006371714271362669 -0.010346303579942911 0 0 0 -0.0067638494082660761 0.0026776988046765594 0.0055315364234940333 0 0.0055315364234940333 -0.0024037988914843208 0 0 0 6.847497829805824e-05 -0.011436711055735523 0.0075599387596762078 0 0.0075599387596762078 0.037714613759598337 0 0 0 0.0065694756759657053 -0.10216684630187889 0.0096317933251611563 0 0.0096317933251611563 0.0015237168589801176 0 0 0 -0.025160782360724609 -0.0056310342169188206 0.0035478885493336726 0 0.0035478885493336726 -0.0048763405034195255 0 0 0 -0.0026268436800845874 0.0019406200837544414 -0.00040703329909409693 0 -0.00040703329909409693 -0.0060806748011753772 0 0 0 -0.0010350136793552348 -0.01932358198091853 -0.010516287626279999 0 -0.010516287626279999 0.0042347154077876439 0 0 0 -0.0037722166432827241 -0.030484209870346446 -0.01340514145085836 0 -0.01340514145085836 0.00088541265864217067 0 0 0 -0.0073996993029261104 -0.0085505598385449706 -0.0067988290577953138 0 -0.0067988290577953138 -0.010056235926007559 0 0 0 -0.0046516989411381354 -0.0025944735346636574 0.0026226209545183684 0 0.0026226209545183684 -0.0054453436312453685 0 0 0 -0.0020099542914772564 -0.00013015465259303728 -0.0036472815042855773 0 -0.0036472815042855773 -0.0044098151552861911 0 0 0 -0.0011349924519698084 -0.019793047920291948 -0.011504094638943203 0 -0.011504094638943203 0.0078587242877978525 0 0 0 -0.0029835809081235204 -0.010024522599122176 0.00016996399827975961 0 0.00016996399827975961 0.0035672745603401723 0 0 0 -0.0016143120096954733 -0.040660351718232672 -0.019315505443897783 0 -0.019315505443897783 -0.0039678474076643433 0 0 0 -0.011157049781474256 0.0067671491846325871 0.013434882485290567 0 0.013434882485290567 0.044109545032606445 0 0 0 0.012719173554309821 -0.017069301692078681 -0.0061112771492026763 0 -0.0061112771492026763 -0.0026634618690581646 0 0 0 -0.0049331908902842392 -0.00064172295277988988 0.0033207808888793193 0 0.0033207808888793193 -0.0056458192743403766 0 0 0 -0.0015718855567800661 0.0014734702341980726 0.00391360220465959 0 0.00391360220465959 -0.0057245201422166016 0 0 0 -0.0010627624770046316 -0.017854647279073932 0.013743476483941419 0 0.013743476483941419 0.00077828363224430319 0 0 0 -0.0042690909117077958 -0.011597133769668977 -0.017600339817281846 0 -0.017600339817281846 0.012252466317126842 0 0 0 0.00016383313686429979 -0.0001040343140337862 0.0075461302813324312 0 0.0075461302813324312 0.0034322582429658043 0 0 0 0.00083205598223300495 -0.0037936465444592012 0.006712170859366505 0 0.006712170859366505 0.0028512045629411828 0 0 0 -0.00023561049537950546 -0.0010076486045091284 0.0041605036900284002 0 0.0041605036900284002 -0.0046829414058446421 0 0 0 -0.0014226475025884422 -0.036650706131147112 0.0046826800018411798 0 0.0046826800018411798 -0.00068484160913654096 0 0 0 -0.0093338869350709161 -0.017820748287222687 0.00092526846180611584 0 0.00092526846180611584 0.0068896407967687506 0 0 0 -0.0027327768726134807 -0.0089794718274502361 -0.0013282870994614331 0 -0.0013282870994614331 0.0084222691205375483 0 0 0 -0.00013930067672816848 -0.040573542809919635 0.0051601153603388888 0 0.0051601153603388888 -0.0015125213389108236 0 0 0 -0.010521516037207605 0.035265959856579807 0.043987424844920742 0 0.043987424844920742 0.031304125585276399 0 0 0 0.016642521360463999 -0.011801487130878474 0.024759317870791137 0 0.024759317870791137 -0.0051999226211325578 0 0 0 -0.004250352438002869 -0.01145958809842984 -0.019350341203696511 0 -0.019350341203696511 -0.0041888428386651633 0 0 0 -0.0039121077342736399 -0.010803569544468095 0.0032879729472424044 0 0.0032879729472424044 0.0038443637606085258 0 0 0 -0.0017398014459648931 -0.0043340564674094646 0.0028846183694362978 0 0.0028846183694362978 -0.0037143412841699691 0 0 0 -0.0020120994378948578 0.014997975312957445 -0.0027336979863589218 0 -0.0027336979863589218 0.0063222242854426292 0 0 0 0.0053300498996000228 -0.013820661997211131 -0.0070581675644715049 0 -0.0070581675644715049 -0.0037093739117952662 0 0 0 -0.0043825089772516201 -0.015532880859016579 -0.0087836514093597162 0 -0.0087836514093597162 -0.0028420856570695319 0 0 0 -0.0045937416290215416 -0.0046772745941307666 0.0050091455175458044 0 0.0050091455175458044 -0.00080155150391472002 0 0 0 -0.0013697065245113728 -0.043146952894103252 -0.0080781968482118716 0 -0.0080781968482118716 0.00089465192530679971 0 0 0 -0.010563075242199099 -0.036893528573706397 -0.012206370310944598 0 -0.012206370310944598 0.0030095194242535372 0 0 0 -0.0084710022873632496 -0.0038210209208070669 0.0012868986518561098 0 0.0012868986518561098 -0.0012770641963537833 0 0 0 -0.0012745212792902125 -0.055103294761026267 0.026771546550564018 0 0.026771546550564018 0.0045543186964340787 0 0 0 -0.012637244016147964 -0.069659251211249107 0.01818389036525983 0 0.01818389036525983 0.00055334647086136002 0 0 0 -0.017276476185096923 -0.0061453762403561318 0.0053149593320761385 0 0.0053149593320761385 0.0028704279486587714 0 0 0 -0.0008187370729243193 -0.006694397330567925 -0.01095551913257381 0 -0.01095551913257381 0.0061318749436936049 0 0 0 -0.00014063059671856615 0.0071139146831355922 -0.01201180177983048 0 -0.01201180177983048 0.00098377108101951882 0 0 0 0.0020244214410387769 -0.013974653560030983 -0.00094856914812591064 0 -0.00094856914812591064 -0.014782178691532255 0 0 0 -0.0071892080628908756 0.022245314613459036 0.023616413227599393 0 0.023616413227599393 0.04899946686096282 0 0 0 0.017811195368605454 -0.0049291742119652289 -0.0049495762368851884 0 -0.0049495762368851884 -0.0081209560461556508 0 0 0 -0.0032625325645302206 -0.012135091266006877 -0.010897834941051759 0 -0.010897834941051759 0.014175845383801441 0 0 0 0.00051018852944865328 0.035213933185545054 0.017686743049325548 0 0.017686743049325548 0.0095952975817198416 0 0 0 0.011202307691816293 -0.010582964103843998 0.0027024454217035154 0 0.0027024454217035154 0.0032074756967337067 0 0 0 -0.001843872101777575 -0.011989373759573096 0.02724258977761207 0 0.02724258977761207 -0.0067436908112852301 0 0 0 -0.0046832661427146371 -0.010438118825608467 -0.016859122667193915 0 -0.016859122667193915 -0.0020844596370687141 0 0 0 -0.0031306446156692536 -0.010245072177020077 0.0033941410369967276 0 0.0033941410369967276 -0.0019720646542481599 0 0 0 -0.0030542842078170596 -0.025147572713776812 -0.0072213771428976418 0 -0.0072213771428976418 0.028954851478711061 0 0 0 0.00095181969123355609 -0.0088326338613480271 0.02253489098758088 0 0.02253489098758088 0.018093093504467861 0 0 0 0.0023151149107798474 -0.01209490103789107 -0.008709541941582577 0 -0.008709541941582577 0.00075238873355543134 0 0 0 -0.0028356280760839514 -0.066079663136137917 0.0017181097723888764 0 0.0017181097723888764 0.00070652631046629055 0 0 0 -0.016343284206417907 -0.11833576057900241 -0.0050660881397554952 0 -0.0050660881397554952 0.00090035729271301101 0 0 0 -0.02935885082157234 -0.0046763263451904402 0.0045766207600285713 0 0.0045766207600285713 0.048366020002978294 0 0 0 0.010922423414446991 -0.029032922215628559 0.0064969611734699917 0 0.0064969611734699917 -0.00031457225870213518 0 0 0 -0.0073368736185826788 0.012148960186995584 -0.0017072699631200117 0 -0.0017072699631200117 0.010555013592426341 0 0 0 0.0056759934448554882 0.011967176692626952 0.0035071527517240575 0 0.0035071527517240575 0.031629025531625832 0 0 0 0.010899050556063217 0.014600739038349853 -0.0056935625319325944 0 -0.0056935625319325944 0.061441984714219022 0 0 0 0.019010680938142233 0.017342458153944723 0.0004071888143708513 0 0.0004071888143708513 0.034196732987908485 0 0 0 0.012884797785463309 -0.010295185139538129 0.0058329119323782541 0 0.0058329119323782541 -0.016162145044329085 0 0 0 -0.006614332545966814 -0.0099823988985214829 -0.012151444767150077 0 -0.012151444767150077 -0.016568771653634018 0 0 0 -0.0066377926380389307 0.0023548887100585669 0.0013779055904037524 0 0.0013779055904037524 0.049459953293903458 0 0 0 0.012953710500990534 -0.0047171402895125891 -0.0061006536882754481 0 -0.0061006536882754481 0.024210085360026279 0 0 0 0.0048732362676284224 -0.024284474164169966 0.0032986834061193154 0 0.0032986834061193154 0.02180762956030842 0 0 0 -0.00061921115096538401 -0.0035846532413927878 0.02029428886311968 0 0.02029428886311968 -0.0080906945333656388 0 0 0 -0.0029188369436896622 -0.0046840751469261477 0.0081348084180374314 0 0.0081348084180374314 -0.0056856974129626536 0 0 0 -0.0025924431399722003 -0.0035964698768179426 -0.0058821600805794017 0 -0.0058821600805794017 -0.004073015664232571 0 0 0 -0.0019173713852627117 -0.0045896017146196399 -0.016463341655654204 0 -0.016463341655654204 -0.0093290888339105926 0 0 0 -0.0034796726371325581 -0.0059473272238965008 0.0046302410072927864 0 0.0046302410072927864 -0.0011389236506593528 0 0 0 -0.0017715627186389669 -0.008403062488096219 0.021995049861587068 0 0.021995049861587068 0.0047222160317250128 0 0 0 -0.00092021161409297503 -0.0030477410772661723 -0.0053415593553707286 0 -0.0053415593553707286 -0.0023832225555432685 0 0 0 -0.001357740908202329 -0.016932644109535166 -0.00021495932398807403 0 -0.00021495932398807403 0.038665927493501187 0 0 0 0.0054333208459915018 -0.0042717627233830324 0.007556387503471429 0 0.007556387503471429 -0.0037843261782390947 0 0 0 -0.0020140222254054763 -0.0079932236989369576 -0.018290867573892311 0 -0.018290867573892311 0.0013846368233410011 0 0 0 -0.0016521467188990169 0.00087094041198959582 -0.012913538394319191 0 -0.012913538394319191 0.011170669196504612 0 0 0 0.0030104024021235243 -0.019696258892016975 -0.011696803190202922 0 -0.011696803190202922 0.0058031880406830827 0 0 0 -0.003473267712833468 -0.018720412300988802 -0.010677181223956202 0 -0.010677181223956202 0.0081421568492906771 0 0 0 -0.002644563862924533 -0.0050807241103364639 -0.0070622200208718417 0 -0.0070622200208718417 -0.0061811791350735931 0 0 0 -0.0028154758113525182 -0.0089194507632729125 0.038554187291122921 0 0.038554187291122921 0.0095723784148851743 0 0 0 0.00016323191290315564 -0.045042268979274283 -0.004240215188232227 0 -0.004240215188232227 -1.0350859725061223e-05 0 0 0 -0.011263154959749735 0.019188985990699653 -0.01243401737072404 0 -0.01243401737072404 0.014956497537971347 0 0 0 0.0085363708821677518 -0.00090150664436278519 -0.0078200946178530878 0 -0.0078200946178530878 0.0085238920140754959 0 0 0 0.001905596342428182 0.0055825924685160115 0.011465298648376161 0 0.011465298648376161 0.0079424116036537901 0 0 0 0.0033812510180424513 -0.013350685597786516 -0.0070455170132831813 0 -0.0070455170132831813 -0.0069597487791231982 0 0 0 -0.0050776085942274563 -0.01409677698010503 -0.0079735406629923844 0 -0.0079735406629923844 -0.01212593382843663 0 0 0 -0.0065556777021353874 -0.14226918874238842 0.0009693935237017002 0 0.0009693935237017002 0.0034273725620271867 0 0 0 -0.034710454045090322 -0.074766648862237883 -0.00038858957487370425 0 -0.00038858957487370425 0.0014576199157199654 0 0 0 -0.018327257236629507 -0.0092553820201531824 -0.003368334041585307 0 -0.003368334041585307 -0.0030863585147803446 0 0 0 -0.0030854351337333821 -0.013879915729903923 0.0044545446424214871 0 0.0044545446424214871 -0.0046264926904319931 0 0 0 -0.0046266021050839793 0.0097983701704985396 0.0029224874572658932 0 0.0029224874572658932 1.5919503018504977e-05 0 0 0 0.0024535724183792629 0.00074638834223848469 0.010356446912352109 0 0.010356446912352109 0.0091373419027779117 0 0 0 0.0024709325612541008 0.0033364509813717472 0.0063895343862395877 0 0.0063895343862395877 0.00019563489082695569 0 0 0 0.00088302146804967313 -0.055369774870125781 -0.0098741977215920651 0 -0.0098741977215920651 -0.0055615719381396358 0 0 0 -0.01523283670206637 -0.040376355893657387 0.0039511094865254063 0 0.0039511094865254063 -0.0024142306707220203 0 0 0 -0.010697646641094847 0.034182749222516295 0.017437726263939579 0 0.017437726263939579 0.012268358821611702 0 0 0 0.011612777011032027 -0.044400465297380655 -0.0093063820824886758 0 -0.0093063820824886758 -0.003044537473897907 0 0 0 -0.011861250692819637 -0.03495529706146272 0.0039469955199308683 0 0.0039469955199308683 -0.0013840190358735596 0 0 0 -0.0090848290243340669 -0.017562032399651956 -0.0029568765484832768 0 -0.0029568765484832768 -0.0059518975444982081 0 0 0 -0.0058784824860374785 0.03044334961112094 0.046232067539538846 0 0.046232067539538846 0.030470950301499822 0 0 0 0.015228574978155163 0.0075599506072827945 0.0047981752153266714 0 0.0047981752153266714 -0.0029032325162340472 0 0 0 0.001164179522762189 -0.01285419029509112 -0.0049769068759722701 0 -0.0049769068759722701 0.0042388433533216419 0 0 0 -0.0021538367354423799 -0.024400615513647226 -0.0060705804337929615 0 -0.0060705804337929615 -0.0081316996831073719 0 0 0 -0.0081330787991886477 -0.023433057528991271 0.0041476067966204726 0 0.0041476067966204726 -0.0078090038162715297 0 0 0 -0.0078105153363157006 -0.057162566657924629 0.0025416170383448593 0 0.0025416170383448593 -0.00038816392139501971 0 0 0 -0.014387682644829902 -0.093854251558871643 -0.006067060161078764 0 -0.006067060161078764 -0.00077545431211486354 0 0 0 -0.023657426467746621 -0.032697959896416953 -0.0025329495828279175 0 -0.0025329495828279175 0.01197811362141496 0 0 0 -0.0051799615687505157 0.013931850706436016 -0.0084695504609216266 0 -0.0084695504609216266 0.013516906232062698 0 0 0 0.0068621892346246993 -0.022134324963012292 -0.0044557228131884771 0 -0.0044557228131884771 0.02769328280280637 0 0 0 0.0013897394599485195 -0.0037597274973967722 0.0090529602094772989 0 0.0090529602094772989 0.015306396267324524 0 0 0 0.0028866671924819374 -0.0098141853340082668 0.0063015554608917678 0 0.0063015554608917678 0.017433772540961394 0 0 0 0.0019048968017382813 0.013559116757637057 0.010523933258633482 0 0.010523933258633482 0.012201024907859615 0 0 0 0.0064400354163741715 0.020764184958017705 0.0078946031959269206 0 0.0078946031959269206 0.0060896747281747494 0 0 0 0.0067134649215481179 -0.010062798149400698 -0.0091852044077357364 0 -0.0091852044077357364 -0.025384153033255474 0 0 0 -0.0088617377956640431 -0.026904415584135546 -0.0091124956727807876 0 -0.0091124956727807876 0.013126518923061478 0 0 0 -0.0034444741652685379 -0.026760214275935012 -0.014943882648229205 0 -0.014943882648229205 0.030545736875283169 0 0 0 0.00094638064983702461 -0.0019767377733742111 -0.025681265373801193 0 -0.025681265373801193 0.04987681941121825 0 0 0 0.011975020409461017 -0.052744516198381629 0.0023851485329594996 0 0.0023851485329594996 -0.00027735797988695521 0 0 0 -0.013255468544567143 -0.083032557912243329 -0.0052088221975851784 0 -0.0052088221975851784 -0.00072540376174338311 0 0 0 -0.02093949041849668 -0.00099939759859645405 -0.0014191960778544843 0 -0.0014191960778544843 -0.03379172346729048 0 0 0 -0.0086977802664717409 0.0017287735383559599 -0.018973469523438195 0 -0.018973469523438195 0.035990359167716535 0 0 0 0.0094297831765181167 0.0016074237542591219 0.006236898939818554 0 0.006236898939818554 -0.0020042803281937697 0 0 0 -9.9214143483661397e-05 -0.042158593424126964 -0.0092872961610039866 0 -0.0092872961610039866 -0.0067963060873524432 0 0 0 -0.012238724877869853 -0.033215640775668395 0.0042911977874238857 0 0.0042911977874238857 -0.0035028492364506877 0 0 0 -0.009179622503029769 -0.011890986337913046 0.0032947862324727373 0 0.0032947862324727373 -0.0022078326603269562 0 0 0 -0.0035247047495600026 -0.021416269550393115 -0.0020275654351034371 0 -0.0020275654351034371 0.030277022552763662 0 0 0 0.0022151882505926351 -0.010399029057193657 -0.0091975345231767869 0 -0.0091975345231767869 0.0016788481030166613 0 0 0 -0.0021800452385442176 -0.013189513882079024 0.0045046067187113938 0 0.0045046067187113938 -0.0012246693062404864 0 0 0 -0.0036035457970798779 -0.041500333436807479 0.0098058224836463648 0 0.0098058224836463648 0.00054692147645885036 0 0 0 -0.010238352990087352 -0.002789139115437933 -0.011927682503703796 0 -0.011927682503703796 0.023165516238038864 0 0 0 0.0050940942806502743 0.0018391570754364706 -0.010060019813621257 0 -0.010060019813621257 0.019574487481986091 0 0 0 0.0053534111393556683 -0.015341402825571018 -0.011900455890117085 0 -0.011900455890117085 0.022854641402111742 0 0 0 0.0018783096441351774 -0.020361410741840127 -0.0085689502164440906 0 -0.0085689502164440906 0.015141571763376521 0 0 0 -0.001304959744615905 -0.011130804490034087 0.00092094246998618659 0 0.00092094246998618659 0.012225423848666081 0 0 0 0.00027365483965799842 -0.020480755329874673 -0.0021564722117236312 0 -0.0021564722117236312 0.02936228773995531 0 0 0 0.0022203831025201515 0.0021569472684352942 0.020270029382094323 0 0.020270029382094323 0.042924696403346285 0 0 0 0.011270410917945339 -2.4900228367596977e-05 -0.00032389949306133037 0 -0.00032389949306133037 0.00042456557292580577 0 0 0 9.9916336139427298e-05 -0.00053163510675863224 -0.015987368202680541 0 -0.015987368202680541 0.021464963879670618 0 0 0 0.0052333321932280241 1.4303743558874427e-05 0.00047154354673617505 0 0.00047154354673617505 0.00048763887055092159 0 0 0 0.00012548565352726859 -0.010499140560489766 0.0029736251287203162 0 0.0029736251287203162 0.013243973050335957 0 0 0 0.0006862081224615459 -0.011930714586990555 0.0013374969018410789 0 0.0013374969018410789 0.0083844229744613891 0 0 0 -0.00088657290313229158 -0.01170115868678588 -0.0039780834729891464 0 -0.0039780834729891464 0.012002774299234558 0 0 0 7.540390311217178e-05 -0.074561409801307738 -0.010137876300618749 0 -0.010137876300618749 0.00054279998595320456 0 0 0 -0.018504652453838612 -0.086744387453958793 -0.014117219648997363 0 -0.014117219648997363 0.00079110106679691761 0 0 0 -0.021488321596790483 -0.0080853265501889919 -0.01525275669149297 0 -0.01525275669149297 -0.0027134424089645809 0 0 0 -0.0026996922397883975 -0.018542704333301286 0.0014386088122830048 0 0.0014386088122830048 0.0029107306011461019 0 0 0 -0.0039079934330388004 -0.0026310700069171987 -0.016832261841710459 0 -0.016832261841710459 0.028105580715769372 0 0 0 0.0063686276772130408 -0.031992676068808922 0.0048137343937119286 0 0.0048137343937119286 -0.003269615889814538 0 0 0 -0.0088155729896558666 -0.026342271503277136 0.0043932687724056851 0 0.0043932687724056851 -0.0042174910185562037 0 0 0 -0.0076399406304583362 -0.027626894809021182 -0.0086471355763729895 0 -0.0086471355763729895 -0.0083182135129229139 0 0 0 -0.0089862770804860215 -0.038767028001254623 -0.01019817527646124 0 -0.01019817527646124 -0.0083842381301682672 0 0 0 -0.011787816532855721 -0.0358329385374484 -0.012007090217549365 0 -0.012007090217549365 0.0011165049291688156 0 0 0 -0.0086791084020699238 -0.027143917981376886 -0.013385955983728142 0 -0.013385955983728142 0.0010803207205556387 0 0 0 -0.006515899315205298 -0.010323511448025596 -0.0033262666328910092 0 -0.0033262666328910092 -0.0079990918592186058 0 0 0 -0.0045806508268110505 -0.0099495063162621366 -0.0038489385169268296 0 -0.0038489385169268296 -0.0091564454049701764 0 0 0 -0.0047764879303080782 -0.014075017717172011 0.0051299776570450355 0 0.0051299776570450355 -0.0044388920130077961 0 0 0 -0.0046284774325449519 -0.01570949992345512 0.0039554856137898557 0 0.0039554856137898557 -0.0055256520467006059 0 0 0 -0.0053087879925389301 -0.012545090504526124 0.029627462163447582 0 0.029627462163447582 -0.0034567421831424028 0 0 0 -0.0040004581719172982 -0.015551365895170255 -0.017304694647180152 0 -0.017304694647180152 -0.0032544130600182797 0 0 0 -0.0047014447387971892 -0.022755627595832342 0.003676116059949875 0 0.003676116059949875 -0.0033558749176135529 0 0 0 -0.0065278756283614747 -0.016093537682008136 -0.0070297548937769466 0 -0.0070297548937769466 -0.008927658790393346 0 0 0 -0.0062552991181003704 -0.012267114993784968 -0.00093423162540717808 0 -0.00093423162540717808 0.00526337185817808 0 0 0 -0.0017509357839017182 -0.028491303310664247 0.0042021210999800499 0 0.0042021210999800499 -0.0023060433741175172 0 0 0 -0.0076993366711954354 -0.029817421486538927 -0.0096218388352297922 0 -0.0096218388352297922 -0.0056680330966728566 0 0 0 -0.0088713636458029443 -0.039844307511245826 -0.0086643951695109037 0 -0.0086643951695109037 0.046396769632884097 0 0 0 0.001638115530409559 -0.01301677601570941 0.00025870228534791064 0 0.00025870228534791064 0.0064236741118118106 0 0 0 -0.0016482754759744025 -0.033066072480226479 -0.0059787555928868218 0 -0.0059787555928868218 -0.011027598362805259 0 0 0 -0.011023417710757934 -0.028056675337872396 0.0033611327795960849 0 0.0033611327795960849 -0.0093549347612528026 0 0 0 -0.009352902524781298 0.022472507146306137 0.0050065850677429224 0 0.0050065850677429224 0.013847794415936671 0 0 0 0.0090800753905607018 -0.0040540534751143387 -0.0018152348578369393 0 -0.0018152348578369393 -0.033086045325884883 0 0 0 -0.0092850247002497777 -0.024421467471720849 0.0033687403347146885 0 0.0033687403347146885 0.0038756895697746666 0 0 0 -0.0051364444754865395 0.010463638359240024 -0.014131575478165626 0 -0.014131575478165626 0.0087048339581476952 0 0 0 0.0047921180793469298 -0.010874271559647968 0.0036334161723784245 0 0.0036334161723784245 0.013277508127215027 0 0 0 0.00060080914189176646 -0.015720531969339237 -0.003022105968461843 0 -0.003022105968461843 0.014545834445927049 0 0 0 -0.00029367438085304946 -0.065022336351776247 -0.0044076721921290363 0 -0.0044076721921290363 -0.0046209022790935743 0 0 0 -0.017410809657717449 -0.045298588024350321 0.0010813074154218828 0 0.0010813074154218828 -0.0031423578346242379 0 0 0 -0.012110236464743638 0.00063730050079313996 -0.0074740722822640472 0 -0.0074740722822640472 0.016530691511633833 0 0 0 0.0042919980031067388 -0.0074677847524561398 0.0060241313899229163 0 0.0060241313899229163 0.0081615684453231058 0 0 0 0.00017344592321674474 -0.013998947774129146 -0.00010232974171787458 0 -0.00010232974171787458 0.0037690682812923418 0 0 0 -0.0025574698732091991 -0.041804124300577013 0.0023882570383095651 0 0.0023882570383095651 0.0020555342297214618 0 0 0 -0.0099371475177138791 -0.058455393381772802 0.010071148091256088 0 0.010071148091256088 0.0007291378338869503 0 0 0 -0.014431563886971366 -0.01831185679376434 0.00087495249210195469 0 0.00087495249210195469 0.011525982477654351 0 0 0 -0.0016964685790274991 -0.018383150194796149 -0.0090489743300539438 0 -0.0090489743300539438 0.010854218486974099 0 0 0 -0.0018822329269555099 -0.017088171296585065 0.0021444814128990311 0 0.0021444814128990311 0.0039759913098732502 0 0 0 -0.0032780449966779597 -0.006659605982564226 0.0058794649719491748 0 0.0058794649719491748 0.010839830853877614 0 0 0 0.0010450562178283456 -0.023469814638064804 -0.011626368534758069 0 -0.011626368534758069 0.0080436061934825304 0 0 0 -0.0038565521111455676 0.037069348321663954 0.0070523852291971695 0 0.0070523852291971695 0.040172831147823135 0 0 0 0.019310544867371777 -0.020263413721385987 0.0046217892497065873 0 0.0046217892497065873 0.0011671027881026419 0 0 0 -0.0047740777333208362 -0.041251339841382295 0.0086589949150041347 0 0.0086589949150041347 -0.0011355220073867578 0 0 0 -0.010596715462192208 0.0018258568131478137 -0.010789087146016119 0 -0.010789087146016119 0.0252323844211505 0 0 0 0.0067645603085745576 0.010674647537400689 -0.0080229115788311711 0 -0.0080229115788311711 0.01730847577246919 0 0 0 0.0069957808274674904 -0.055065890166627648 -0.017316429923108612 0 -0.017316429923108612 0.01462183720201083 0 0 0 -0.010111013241154172 0.0068201105750517119 -0.0059774062134059155 0 -0.0059774062134059155 -0.0072161173993075534 0 0 0 -9.9001706063958639e-05 -0.055588765727886964 0.0045986664930592752 0 0.0045986664930592752 0.0010277467691531816 0 0 0 -0.013640254739683423 -0.095631565841496471 -0.013430054235472534 0 -0.013430054235472534 0.0027906264185916137 0 0 0 -0.023210234855726253 -0.055030069910976198 0.0012999400500957325 0 0.0012999400500957325 -0.00033058591224539163 0 0 0 -0.013840163955805392 -0.096437720764556187 -0.0046028085375721117 0 -0.0046028085375721117 0.00030648002875155456 0 0 0 -0.024032810183951134 -0.03944448896197475 0.0012236944628276469 0 0.0012236944628276469 -0.0049004997529382942 0 0 0 -0.011086247178728262 -0.053952025629453497 -0.0040251002068269343 0 -0.0040251002068269343 -0.0064025129292161814 0 0 0 -0.015088634639667423 -0.017087546607373549 -0.0049777883412557983 0 -0.0049777883412557983 0.019453531497748321 0 0 0 0.00059149622259369906 -0.015387235961029203 -0.0096884773721404686 0 -0.0096884773721404686 0.025410752242995278 0 0 0 0.0025058790704915145 -0.0059469876769568802 -0.001855454454715022 0 -0.001855454454715022 0.028483871768557434 0 0 0 0.0056342210229001904 0.0027718264762965072 -0.0015408038810074687 0 -0.0015408038810074687 0.056300329919198644 0 0 0 0.014768039098873753 -0.002814636683532698 0.0032077361805661619 0 0.0032077361805661619 0.016646196003525515 0 0 0 0.0034578898299982078 8.190817526382288e-05 0.00074494991233020613 0 0.00074494991233020613 0.048521052876053156 0 0 0 0.012150740262829279 -0.01191170313392996 -0.0056914577680439449 0 -0.0056914577680439449 0.024078062105803932 0 0 0 0.0030415897429684896 -0.016677672555381381 0.002384090227854194 0 0.002384090227854194 0.0044346770990290026 0 0 0 -0.0030607488640880978 -0.0078130256277540583 -0.0090221221049849414 0 -0.0090221221049849414 0.020635441224990142 0 0 0 0.0032056038993090313 -0.016873648650215803 -0.010281842547632897 0 -0.010281842547632897 0.01783731679513241 0 0 0 0.00024091703622916572 -0.013005159244531819 0.0017674164590606345 0 0.0017674164590606345 0.025206187290628568 0 0 0 0.0030502570115241876 -0.083717776679545497 0.008879064556875425 0 0.008879064556875425 -0.00022714992750438867 0 0 0 -0.020986231651762388 -0.021001077670028435 -0.0018391187649700949 0 -0.0018391187649700949 0.028501138848317002 0 0 0 0.0018750152945721452 0.012698173156264231 -0.011180042430622886 0 -0.011180042430622886 0.069278726728989048 0 0 0 0.020494224971313313 0.040729894990612137 -0.012535660252820713 0 -0.012535660252820713 0.034513957712319299 0 0 0 0.018810963175732873 0.01740920413057892 -0.0077927249329842463 0 -0.0077927249329842463 0.014145791929725648 0 0 0 0.0078887490150761908 -0.1068929711532571 -0.010253461352713586 0 -0.010253461352713586 0.0029533713649209647 0 0 0 -0.025984899947084028 -0.060013687451265604 0.003909693145678253 0 0.003909693145678253 0.0010532607559802787 0 0 0 -0.014740106673821293 -0.021805998635511206 -0.001769463150971039 0 -0.001769463150971039 0.029613890268232912 0 0 0 0.001951972908180423 -0.047157972207622967 0.022485579447008464 0 0.022485579447008464 -0.0028404043303087434 0 0 0 -0.012499594134482761 -0.034600083494011669 0.02429073290907624 0 0.02429073290907624 0.0013455585742279119 0 0 0 -0.0083136312299458837 -0.010481140203769834 -0.018342022426238502 0 -0.018342022426238502 0.0080598420786013314 0 0 0 -0.00060532453129208408 -0.0055234466105747049 -0.015479636144101805 0 -0.015479636144101805 0.0097124066096676096 0 0 0 0.0010472399997732264 -0.0054460737751843291 -0.013331464624336709 0 -0.013331464624336709 0.027940601511165286 0 0 0 0.0056236319339952601 -0.021171107948894985 0.0074377053342469948 0 0.0074377053342469948 0.00057729163043163112 0 0 0 -0.0051484540796160605 -0.022131483018990487 0.0044392478206430322 0 0.0044392478206430322 -0.0034530951912032457 0 0 0 -0.0063961445525484327 -0.019144217056455231 -0.0057481961209059516 0 -0.0057481961209059516 -0.0082698556131954593 0 0 0 -0.0068535181674126717 -0.014002254341421088 -0.020418818461673038 0 -0.020418818461673038 0.0040214775998537733 0 0 0 -0.0024951941853917185 -0.013524537025858707 -0.017894816540253697 0 -0.017894816540253697 0.0044275498721397799 0 0 0 -0.0022742467884298012 -0.017594402438464142 -0.018627087596202241 0 -0.018627087596202241 0.0018230194563563784 0 0 0 -0.0039428457455269253 -0.017593178660726572 -0.019774360868825613 0 -0.019774360868825613 0.0035569727250335248 0 0 0 -0.0035090514839232201 -0.029079854189716606 0.031735516274656428 0 0.031735516274656428 -0.0029422272815209927 0 0 0 -0.0080055203678093406 -0.019973298537867546 0.028577887457296169 0 0.028577887457296169 -0.0021466156938181056 0 0 0 -0.0055299785579214691 -0.025450062553935868 0.0051849785030379843 0 0.0051849785030379843 -0.006429169780359097 0 0 0 -0.0079698080835737418 -0.029536327936461878 -0.0088482183328901388 0 -0.0088482183328901388 -0.0096094813595827694 0 0 0 -0.0097864523240111627 -0.053527656385685102 -0.0047385191570900875 0 -0.0047385191570900875 0.0038876472918419891 0 0 0 -0.012410002273460771 -0.094215155010280938 0.011250189263302901 0 0.011250189263302901 0.0055747321335292144 0 0 0 -0.022160105719187917 -0.03863303070665218 0.0064253209782847674 0 0.0064253209782847674 0.0008774056090907062 0 0 0 -0.0094389062743903719 -0.0063959570252639887 0.0056565682163353375 0 0.0056565682163353375 0.0040289457547832037 0 0 0 -0.00059175281762019645 -0.0037865201565751849 -0.0077812784905298971 0 -0.0077812784905298971 -0.023483135498709617 0 0 0 -0.0068174139138212075 -0.06123229116016364 -0.01313462936794983 0 -0.01313462936794983 0.00082742878603338926 0 0 0 -0.015101215593532561 -0.083259329879779881 -0.011396972033604048 0 -0.011396972033604048 -0.002431460646337362 0 0 0 -0.021422697631529309 -0.0014420079056520919 -1.5248922679776916e-06 0 -1.5248922679776916e-06 -0.0082433498236165418 0 0 0 -0.0024213394323171589 -0.0080256590444537229 0.004136741782785891 0 0.004136741782785891 0.032244226738986831 0 0 0 0.0060546419236332666 -0.061743000749107595 -0.00022814963942809768 0 -0.00022814963942809768 -0.00030701383094719481 0 0 0 -0.015512503645013657 -0.11323422832711641 -0.00015825789063428353 0 -0.00015825789063428353 -0.00085173605507756628 0 0 0 -0.028521491095548499 -0.031649442594490887 -0.0036551949628284008 0 -0.0036551949628284008 0.0048377077028411292 0 0 0 -0.0067029337229124464 -0.044257239220594199 -0.012738239300126446 0 -0.012738239300126446 -0.0066144246057393222 0 0 0 -0.012717915956583382 -0.030506830229195463 -0.012182912101570301 0 -0.012182912101570301 -0.0047091593558117205 0 0 0 -0.0088039973962517944 0.0064102000483990951 0.039690283331281911 0 0.039690283331281911 0.083412629230467106 0 0 0 0.022455707319716522 -0.076134016515394268 -0.004788130373728685 0 -0.004788130373728685 2.9894404898579002e-05 0 0 0 -0.019026030527623923 -0.04853737168956411 0.0021598145229066376 0 0.0021598145229066376 0.00023148594824413254 0 0 0 -0.012076471435329987 -0.014105101467757675 -0.0079665724727716603 0 -0.0079665724727716603 -0.0064641254052943409 0 0 0 -0.0051423067182630178 -0.015946529491303638 -0.0079155317989659628 0 -0.0079155317989659628 -0.0030597088400287631 0 0 0 -0.0047515595828331036 -0.0087783615460888184 0.0056521694272682037 0 0.0056521694272682037 0.019484317966003376 0 0 0 0.0026764891049786414 -0.007333815193176 -0.0084544262263233638 0 -0.0084544262263233638 -0.0008373770175106876 0 0 0 -0.0020427980526716745 0.0012051882390004915 0.008496799828737106 0 0.008496799828737106 0.0016910424909400666 0 0 0 0.00072405768248513715 0.0039092001318306036 0.0068813115117549728 0 0.0068813115117549728 0.077200652503269351 0 0 0 0.020277463158774989 -0.038614825730392155 0.0061303746906012577 0 0.0061303746906012577 0.0013254359274949591 0 0 0 -0.0093223474507243102 -0.013736810145010494 0.0012393513631197305 0 0.0012393513631197305 0.0032438031164238271 0 0 0 -0.0026232517571466718 0.051160359613344975 0.0087667498642945308 0 0.0087667498642945308 0.028816818038869485 0 0 0 0.019994294413053559 -0.04340357075429619 -0.0050779090637794733 0 -0.0050779090637794733 -0.0011845543284329206 0 0 0 -0.011147031270682348 -0.13450379606050755 -0.0015979134605033779 0 -0.0015979134605033779 -0.00058374812710104695 0 0 0 -0.033771886046902164 -0.071862220559733819 0.00020346015720054881 0 0.00020346015720054881 -0.00044599138617446021 0 0 0 -0.018077052986477056 -0.019408693206029327 0.0015180931919740494 0 0.0015180931919740494 0.032414547257323817 0 0 0 0.00325146351282362 -0.044889590797304958 -0.010267933230175193 0 -0.010267933230175193 -0.0033173161296268568 0 0 0 -0.012051726731732954 -0.055264666843201353 -0.013666855127016412 0 -0.013666855127016412 -0.0019366266387167721 0 0 0 -0.014300323370479514 0.024210972256535849 0.013487709966106116 0 0.013487709966106116 0.014386327706485236 0 0 0 0.0096493249907552633 -0.029784497667509569 -0.0066902850290180144 0 -0.0066902850290180144 -0.00091500994580484551 0 0 0 -0.0076748769033285758 -0.019711859205649281 -0.0096110215244101654 0 -0.0096110215244101654 0.0067661259631320303 0 0 0 -0.0032364333106293178 0.0055665827405193546 0.016155220028514175 0 0.016155220028514175 0.053299240341377008 0 0 0 0.014716455770473758 -0.014367663470806979 -0.004424352782896033 0 -0.004424352782896033 0.0010494640400646738 0 0 0 -0.0033295498576856319 -0.020566902001948974 -0.019275101107418369 0 -0.019275101107418369 0.015222306377477263 0 0 0 -0.001336148906117926 -0.010431860214225784 -0.0033857389549231433 0 -0.0033857389549231433 0.020218540994268147 0 0 0 0.0024466701950105821 -0.018783376676707642 0.00092894673210466502 0 0.00092894673210466502 0.007026840437249271 0 0 0 -0.0029391340598646128 -0.031111814613526634 0.0076372817530216963 0 0.0076372817530216963 -0.00098365440057035514 0 0 0 -0.0080238672535241085 -0.002686330187166075 -0.012275601714836104 0 -0.012275601714836104 0.029640064817642697 0 0 0 0.0067384336576191139 -0.019320543226170977 0.0040498939703229302 0 0.0040498939703229302 -0.0013047835483582693 0 0 0 -0.0051563316936323114 0.012877091910286492 -0.0044599370824316212 0 -0.0044599370824316212 0.02152525202080631 0 0 0 0.008600585982773204 -0.047043930650974203 0.0042721232545431288 0 0.0042721232545431288 -6.1889889801214348e-05 0 0 0 -0.011776455135193833 -0.035194925692827748 -0.010264397058601028 0 -0.010264397058601028 0.013150514297596505 0 0 0 -0.0055111028488077918 -0.035897737604579864 0.0059728861151413792 0 0.0059728861151413792 -0.0014624672750404126 0 0 0 -0.0093400512199050718 -0.049130963289952811 -0.0059637317317565719 0 -0.0059637317317565719 0.00098846083989689859 0 0 0 -0.012035625612513867 -0.050798175666719361 0.0035942488336268424 0 0.0035942488336268424 -0.00057547897602176074 0 0 0 -0.012843413660685268 -0.043102705921947669 0.0043666328324366774 0 0.0043666328324366774 0.0002934754118956856 0 0 0 -0.010702307627513003 -0.05010596358821845 0.028232194875514871 0 0.028232194875514871 0.0015398678851381575 0 0 0 -0.012141523925770226 -0.01997474829341021 -0.0049282996417234874 0 -0.0049282996417234874 -0.0082661445226758015 0 0 0 -0.0070602232040215037 -0.024007730971961828 -0.0088047966031247239 0 -0.0088047966031247239 -0.0094065067866215164 0 0 0 -0.0083535594396458353 -0.023269099428309927 0.0054070080150335981 0 0.0054070080150335981 -0.0050593700013144985 0 0 0 -0.0070821173574061062 -0.02170480018980803 0.0036936349222536566 0 0.0036936349222536566 -0.0057815771678555138 0 0 0 -0.006871594339415886 -0.013301347904265414 -0.002466237898685119 0 -0.002466237898685119 0.009493501069353337 0 0 0 -0.00095196170872801841 -0.0099836392594908376 -0.015211170133449834 0 -0.015211170133449834 0.029697217947466121 0 0 0 0.0049283946719938208 -0.017210328489776182 -0.010253847842707768 0 -0.010253847842707768 0.014668100123625296 0 0 0 -0.00063555709153771613 -0.022863627908981859 -0.0085654050960871919 0 -0.0085654050960871919 0.018411883299965737 0 0 0 -0.0011129361522540238 -0.017334588372133738 -0.0087972015477104301 0 -0.0087972015477104301 0.014190752218209424 0 0 0 -0.00078595903848108217 -0.010431842325962393 -0.0024091313604615965 0 -0.0024091313604615965 0.018558941050454802 0 0 0 0.0020317746811230886 -0.015372683766584239 -0.006010802570066906 0 -0.006010802570066906 0.011169542707256119 0 0 0 -0.0010507852648320437 -0.074769147036621686 0.0018468743733118869 0 0.0018468743733118869 0.00030343299345597652 0 0 0 -0.018616428510791413 -0.14340253250170004 -0.0044713700973631632 0 -0.0044713700973631632 0.0021350682761863693 0 0 0 -0.035316866056378404 -0.0036013675720166088 -0.0037160558512318795 0 -0.0037160558512318795 0.011149216362400322 0 0 0 0.0018869621975959247 -0.0090654442914788191 -0.0042639039645634425 0 -0.0042639039645634425 0.019513882910869418 0 0 0 0.0026121096548476774 -0.034922131128540063 0.0053104074433479448 0 0.0053104074433479448 0.004502657536988891 0 0 0 -0.0076048683978877998 -0.0063314704981076823 0.0032467885476475909 0 0.0032467885476475909 -0.0037926868865533255 0 0 0 -0.0025310393461652524 -0.014680853240374306 -0.009009007600989832 0 -0.009009007600989832 -0.0063262414481372303 0 0 0 -0.0052517736721278841 -0.0065077566676884427 -0.0038688502623899232 0 -0.0038688502623899232 -0.0093821624871714207 0 0 0 -0.0039724797887149624 -0.0049439617642663657 -0.021646680418568976 0 -0.021646680418568976 0.049594232975916266 0 0 0 0.011162567802912474 -0.045488592122779739 0.0026698526134677682 0 0.0026698526134677682 -0.0017155617868172841 0 0 0 -0.011801038477399269 -0.041006082699679501 0.002498837750218268 0 0.002498837750218268 -0.00073435123468699364 0 0 0 -0.010435108483591625 -0.056564141721404747 -0.00634849855045837 0 -0.00634849855045837 -0.00090725538867398973 0 0 0 -0.014367849277519679 -0.067478353345148498 -0.0069479264851064941 0 -0.0069479264851064941 -0.0034314341290058144 0 0 0 -0.017727446868538561 -0.069445459489735128 -0.003618702272032081 0 -0.003618702272032081 0.0010093601275527053 0 0 0 -0.017109024840545606 -0.0037210572829854405 0.037029259023856897 0 0.037029259023856897 0.051120029438203263 0 0 0 0.011849743038804483 0.0073757822562974529 -0.0084689748950035892 0 -0.0084689748950035892 0.017007290171336675 0 0 0 0.0060957681069085667 -0.0065698534915249445 -0.0066888777711099079 0 -0.0066888777711099079 -0.018099264956626858 0 0 0 -0.0061672796120379719 -0.023161194785622972 0.0049940244694009319 0 0.0049940244694009319 -0.0014628740056721531 0 0 0 -0.0061560171978237823 -0.020261918062920117 -0.00048363086739687923 0 -0.00048363086739687923 0.023313544236948824 0 0 0 0.00076290654350717659 -0.038823676455342293 0.0045719159470034819 0 0.0045719159470034819 -0.00054124901317105512 0 0 0 -0.0098412313671283475 0.01198706912557429 0.020049796342453297 0 0.020049796342453297 0.011103288859166893 0 0 0 0.0057725894961852542 -0.0094174096697511381 0.0048179905264707423 0 0.0048179905264707423 -0.0040166346509406103 0 0 0 -0.0033585110801729375 -0.01482400798506095 -0.0099659584100348225 0 -0.0099659584100348225 -0.0021015968872606094 0 0 0 -0.0042314012180804106 0.020624177175156713 -0.030420782904160299 0 -0.030420782904160299 0.037845147787008364 0 0 0 0.014617331240541268 -0.12700467769227997 0.0088472983770095937 0 0.0088472983770095937 0.0016455933710695092 0 0 0 -0.031339771080302503 -0.0028654132771785863 0.0019598791366242478 0 0.0019598791366242478 -0.0048006943265059996 0 0 0 -0.0019165269009211467 -0.027282550027771069 0.0034741971742047479 0 0.0034741971742047479 -0.0064135750987197697 0 0 0 -0.008424031281622708 -0.030483716069932606 -0.0059010205299641714 0 -0.0059010205299641714 -0.0088797392388575286 0 0 0 -0.009840863827197531 -0.0033436107320369349 0.0073191547072529884 0 0.0073191547072529884 0.0066922412501194406 0 0 0 0.00083715762952062296 -0.054873837800132455 0.0040138682259431985 0 0.0040138682259431985 0.0012226561709226536 0 0 0 -0.013412795407302433 -0.09456443994168072 -0.010668987470094357 0 -0.010668987470094357 0.0041945609415648399 0 0 0 -0.022592469750029032 0.0056660482736072826 0.018515116620017924 0 0.018515116620017924 0.024681745633151841 0 0 0 0.0075869484766899475 -0.027206353394948368 -0.0090096622728955134 0 -0.0090096622728955134 -0.0022309521593266712 0 0 0 -0.0073593263885687321 -0.0052928729783155368 0.002406655651553638 0 0.002406655651553638 0.028682731971022779 0 0 0 0.0058474647481768158 0.00026417995927649485 -0.015678117317539438 0 -0.015678117317539438 0.0051009523631611875 0 0 0 0.0013412830806094206 -0.011514383146850805 0.0012265989708974481 0 0.0012265989708974481 0.01021115717538551 0 0 0 -0.00032580649286630819 -0.0072652510068428053 0.0047674537228434392 0 0.0047674537228434392 0.0026601867907518097 0 0 0 -0.0011512660540227487 -0.0037349125081878121 0.00010580442848740413 0 0.00010580442848740413 -0.0065485850960935272 0 0 0 -0.0025708744010703348 -0.018706782682328896 0.0039829997675131772 0 0.0039829997675131772 0.0010120064363342675 0 0 0 -0.0044236940614986557 -0.012011333765473947 -0.0073635195926546604 0 -0.0073635195926546604 0.06285280814080095 0 0 0 0.01271036859383174 -0.012418810231590471 -0.0072089150882527521 0 -0.0072089150882527521 0.058465361110511219 0 0 0 0.011511637719730183 -0.022257007697515208 -0.014221428231611488 0 -0.014221428231611488 -0.00015120117771594277 0 0 0 -0.0056020522188077737 -0.020605800390486984 -0.01403312658885017 0 -0.01403312658885017 7.0437159247482839e-06 0 0 0 -0.0051496891686405033 -0.0050983474963665065 0.024967688296841595 0 0.024967688296841595 0.010611017284552382 0 0 0 0.0013781674470465521 -0.0084951112652208449 0.027486476630949941 0 0.027486476630949941 0.0077004551813280031 0 0 0 -0.00019866402097334923 -0.0040602944008090169 0.026578296345007017 0 0.026578296345007017 0.0052897408050287531 0 0 0 0.00030736160105493404 0.016976787472223864 0.024217662523785821 0 0.024217662523785821 0.0094251158430558313 0 0 0 0.0066004758288198406 -0.0057403531377436222 0.0031634843839125587 0 0.0031634843839125587 -0.0019139697301320978 0 0 0 -0.0019135807169689296 -0.0044892026159974174 0.0010448275464291223 0 0.0010448275464291223 0.037886064868138447 0 0 0 0.0083492155630352574 -0.010010669463722754 0.00017266107205871073 0 0.00017266107205871073 0.017518826877722035 0 0 0 0.0018770393534998375 -0.047308617477342607 -0.0078121115815686093 0 -0.0078121115815686093 0.00046202391899952122 0 0 0 -0.011711648389585827 -0.053055519526379991 -0.0027036341170286193 0 -0.0027036341170286193 -0.00010257333265556445 0 0 0 -0.013289523214758903 -0.091495046622921017 0.0066612529496680173 0 0.0066612529496680173 -0.00046640411413179095 0 0 0 -0.022990362684263188 0.0062886526747420214 0.014213345365435281 0 0.014213345365435281 0.014731580563921244 0 0 0 0.0052550583096658103 0.0077949897081022249 0.015000476031189432 0 0.015000476031189432 0.018128766953111608 0 0 0 0.0064809391653034565 -0.0040683791366198565 0.0043095947551103179 0 0.0043095947551103179 -0.0034882137880204514 0 0 0 -0.0018891482311600757 -0.0068096998355446324 0.003927301847405508 0 0.003927301847405508 -0.0043829565668711008 0 0 0 -0.0027981641006039337 -0.078979192598850709 -0.0091988060634638248 0 -0.0091988060634638248 -0.0035355007172675409 0 0 0 -0.020628673329029582 -0.049408084546432265 0.0034090845082206042 0 0.0034090845082206042 -0.0007605374270555354 0 0 0 -0.012542155493371964 -0.043752161576907742 0.0054341694606734455 0 0.0054341694606734455 -0.0010552731338163146 0 0 0 -0.011201858677681002 0.0059381268645468666 0.019662314949762005 0 0.019662314949762005 0.032632902851169376 0 0 0 0.0096427574289290607 -0.023139292659249189 -0.0068066290402527541 0 -0.0068066290402527541 0.0019848417460694989 0 0 0 -0.0052886127282949502 -0.0062939381182651397 -0.0013527819780184951 0 -0.0013527819780184951 -0.0053829881724650457 0 0 0 -0.0029192315726825459 0.0030332028226307687 -0.00080263606649916969 0 -0.00080263606649916969 -0.0063974559084208106 0 0 0 -0.00084106327144751027 -0.03179645728014896 -0.011775622360851085 0 -0.011775622360851085 0.0036146984935943038 0 0 0 -0.0070454396966386224 -0.023426035089936362 -0.012376169349090485 0 -0.012376169349090485 -0.0033879849180159655 0 0 0 -0.0067035050019880766 -0.010520639818572342 -0.0032861314867580205 0 -0.0032861314867580205 0.012901300896404174 0 0 0 0.000595165269457942 0.0098303842838399248 0.010239209680623265 0 0.010239209680623265 0.0065746550698886214 0 0 0 0.0041012598384321391 -0.04701220148574814 0.026131301919572247 0 0.026131301919572247 0.0035034139888711624 0 0 0 -0.010877196874219175 -0.048591366768747465 0.0016888345881107408 0 0.0016888345881107408 0.0024615477754092729 0 0 0 -0.011532454748334545 -0.083691621505959435 -0.0033274015094936216 0 -0.0033274015094936216 0.0064698529396191029 0 0 0 -0.019305442141585083 -0.0016531717268997437 -0.0031016271905923154 0 -0.0031016271905923154 -0.026688121196197234 0 0 0 -0.007085323230774293 -0.0056810126937290872 -0.0054327238771418873 0 -0.0054327238771418873 -0.034504413033561665 0 0 0 -0.010046356431822695 -0.037730176823657383 0.0060268746624432953 0 0.0060268746624432953 -0.00029640792139414007 0 0 0 -0.0095066461862628876 -0.03162237333940858 0.0050093458787427037 0 0.0050093458787427037 -0.00081545131508839463 0 0 0 -0.0081094561636242506 -0.01324597973196082 0.00038492498602553642 0 0.00038492498602553642 0.0079481983989003052 0 0 0 -0.001324445333265126 -0.050975350770787096 0.0060168991073133362 0 0.0060168991073133362 0.0011931188284769051 0 0 0 -0.012445557985577532 -0.052234072561148794 -0.013477433185165536 0 -0.013477433185165536 -0.0049999514430994138 0 0 0 -0.014308506001062052 -0.00082757064848864312 0.00011198188251787533 0 0.00011198188251787533 -0.033446780110369723 0 0 0 -0.0085685876897145987 -0.035599576041851266 0.033878110560369989 0 0.033878110560369989 0.004720096158908671 0 0 0 -0.0077198699707357044 -0.0072933331316317835 0.0037762857831258332 0 0.0037762857831258332 -0.0024316428275994277 0 0 0 -0.0024312439898078026 0.031903247682158686 0.0097132270959114919 0 0.0097132270959114919 0.031699552616440696 0 0 0 0.015900700074649832 0.024546424744272294 0.02092835495639668 0 0.02092835495639668 0.048858074950787478 0 0 0 0.018351124923764936 -0.078834223246483773 0.004259754944608396 0 0.004259754944608396 0.012601241265381813 0 0 0 -0.016558245495275476 0.011628070710381772 0.023086907760608774 0 0.023086907760608774 0.053873588646583204 0 0 0 0.016375414839241251 0.019329198982096923 0.019111529959148426 0 0.019111529959148426 0.034461002580208955 0 0 0 0.013447550390576476 -0.026580712518531762 0.0056254368518938048 0 0.0056254368518938048 0.00022878091328967787 0 0 0 -0.0065879829013105237 -0.015206073428883287 0.003507040585662485 0 0.003507040585662485 -0.001201853407811673 0 0 0 -0.0041019817091737364 -0.079705094170602619 0.022009552825958456 0 0.022009552825958456 0.0075012007347363685 0 0 0 -0.01805097335896666 -0.021565756619585905 -0.007255188307770756 0 -0.007255188307770756 0.02862141370653111 0 0 0 0.001763914271736302 -0.00097074825410327532 0.016467657622817086 0 0.016467657622817086 0.060003956841976507 0 0 0 0.014758302146968305 -0.018558746943802662 -0.012043309077191679 0 -0.012043309077191679 0.0044037041411003619 0 0 0 -0.0035387607006755611 -0.059348225506372108 -0.00090311779184987229 0 -0.00090311779184987229 0.0013083524033455848 0 0 0 -0.014509968275756673 -0.10623535740553167 0.0025213119979146936 0 0.0025213119979146936 0.0052600311527994936 0 0 0 -0.02524383156318305 -0.034118969726300463 0.015956364291386693 0 0.015956364291386693 -0.0039886644515105818 0 0 0 -0.0095269085444527057 -0.007450223388553584 -0.01685629201378358 0 -0.01685629201378358 0.01159796023044346 0 0 0 0.0010369342104724899 -0.019004634596875666 -0.0091682263910189826 0 -0.0091682263910189826 0.010824032880061063 0 0 0 -0.0020451504292036821 0.014691648419894728 0.011150100016023836 0 0.011150100016023836 0.0076784191549853359 0 0 0 0.0055925168937200169 -0.045746967283271323 -0.013012420353781704 0 -0.013012420353781704 -0.0079893691912605765 0 0 0 -0.013434084118632981 -0.046747821148419438 0.0046004936145830275 0 0.0046004936145830275 0.00079504626209267459 0 0 0 -0.011488193721581687 -0.067324366060713917 -0.0085906741802113523 0 -0.0085906741802113523 0.0028712876221704316 0 0 0 -0.016113269609635845 -0.0085658731522167894 -0.011310529361426278 0 -0.011310529361426278 0.02166680099961385 0 0 0 0.0032752319618492634 -0.035278382573296241 0.0035496356027427331 0 0.0035496356027427331 0.0014989049425891479 0 0 0 -0.0084448694076767767 -0.01158241288557979 0.0055857826542405351 0 0.0055857826542405351 0.05010205238008817 0 0 0 0.0096299098736270933 -0.0044399599084819436 -0.00013994514883833563 0 -0.00013994514883833563 -0.0014790032307685826 0 0 0 -0.0014797407848126316 -0.016153080614857276 -0.0068082733998527378 0 -0.0068082733998527378 0.0052849160259459405 0 0 0 -0.0027170411472278305 -0.05762612127457209 0.001880044167923374 0 0.001880044167923374 0.0014299872520777065 0 0 0 -0.014049033505623584 -0.10088584718914441 -0.0059965198765756927 0 -0.0059965198765756927 0.0031248224514736911 0 0 0 -0.024440256184417711 -0.047712004709092731 -0.0097293071098455142 0 -0.0097293071098455142 0.0035439270367898373 0 0 0 -0.011042019418075758 -0.016512833929749629 -0.0082020906831214782 0 -0.0082020906831214782 0.014948236986172453 0 0 0 -0.00039114923589429751 -0.011071310960463612 -0.0052845218174412747 0 -0.0052845218174412747 0.028174601518086484 0 0 0 0.0042758226394057214 -0.024502980225206226 0.0041823440531380193 0 0.0041823440531380193 0.0016127683308342841 0 0 0 -0.0057225529735929724 -0.01940634771791136 -0.011281038242017899 0 -0.011281038242017899 0.0045218502540678718 0 0 0 -0.003721124365960865 -0.033772858585772732 -0.011534254981362069 0 -0.011534254981362069 0.001341240549838172 0 0 0 -0.0081079045089836946 -0.030964933728490816 0.0044179312745172648 0 0.0044179312745172648 0.0014546005840806765 0 0 0 -0.0073775832861025219 -0.017075299113677653 -0.011889479602477951 0 -0.011889479602477951 0.004697572484068463 0 0 0 -0.003094431657402294 -0.0041167820667883728 -0.00031937700393129347 0 -0.00031937700393129347 -0.0075888580639434898 0 0 0 -0.0029264100326829657 -0.060443759938007408 0.0012763508334299872 0 0.0012763508334299872 0.0010944041775282909 0 0 0 -0.014837338940119793 -0.11035530915449246 -0.0028993587472409266 0 -0.0028993587472409266 0.0015971919505264887 0 0 0 -0.027189529300991472 -0.0338569814383331 -0.005416733436772514 0 -0.005416733436772514 -0.0017567887563114254 0 0 0 -0.0089034425486609892 0.018813106486519265 0.011891995452847803 0 0.011891995452847803 0.039887946866125734 0 0 0 0.014675263338161187 0.013415824926753805 0.017212555444965472 0 0.017212555444965472 0.029059611667854535 0 0 0 0.010618859148652071 -0.027526876001538469 -0.0048219581231326129 0 -0.0048219581231326129 -0.00144263897888397 0 0 0 -0.0072423787451056931 0.020697466363531758 0.010887529200030806 0 0.010887529200030806 0.05393865851464863 0 0 0 0.01865903121954493 -0.0022332620450534885 -0.0078279234031167957 0 -0.0078279234031167957 0.006569068883579221 0 0 0 0.0010839517096314227 -0.024282541153263795 -0.010834988272315396 0 -0.010834988272315396 0.0084935246798610309 0 0 0 -0.0039472541183506737 0.0073496603778615555 0.0013730027844674503 0 0.0013730027844674503 0.037343837130303648 0 0 0 0.011173374377041356 0.0078847808038978728 -0.0040685327919749159 0 -0.0040685327919749159 0.069311394425205175 0 0 0 0.019299043807275734 -0.065218538950992055 -0.012868939215852235 0 -0.012868939215852235 0.013243530958085947 0 0 0 -0.012993751998226555 -0.029089061951814706 0.0046303561429270465 0 0.0046303561429270465 -0.0007590874275583432 0 0 0 -0.0074620373448432619 -0.0034763070795870588 0.0055425332248066114 0 0.0055425332248066114 -0.0013120246351400484 0 0 0 -0.0011970829286817759 -0.050752969817808968 0.023848972282786929 0 0.023848972282786929 -0.0011984903886530507 0 0 0 -0.012987865051615533 0.003290415986234918 -0.013574191352709153 0 -0.013574191352709153 0.0091730086919614706 0 0 0 0.0031158561695491249 -0.0029005916544487054 0.0008977500080254617 0 0.0008977500080254617 -0.0046391942147445079 0 0 0 -0.0018849464672983033 -0.025949788093322192 0.0037187858445244387 0 0.0037187858445244387 0.0062486961967915741 0 0 0 -0.0049252729741326631 0.035369345117974849 0.010776799652674118 0 0.010776799652674118 0.031796449812919292 0 0 0 0.016791448732723646 -0.013157736706282978 -0.0063488415807455029 0 -0.0063488415807455029 -0.0093159673194475635 0 0 0 -0.0056184260064326332 -0.010012656698894559 -0.0037043405252275008 0 -0.0037043405252275008 0.0014293088801383413 0 0 0 -0.0021458369546890586 -0.0067504450833751374 -0.0061144260755796875 0 -0.0061144260755796875 0.0031484107318466605 0 0 0 -0.00090050858788210189 -0.0041913803527263982 0.0043468109871579175 0 0.0043468109871579175 0.0036148595101619385 0 0 0 -0.00014413021064113574 0.0042361692527744105 0.0015611766572470043 0 0.0015611766572470043 0.037263980744058622 0 0 0 0.010375037499208276 0.0080328443098078017 -0.0063411705295280951 0 -0.0063411705295280951 0.064834010948230603 0 0 0 0.018216713814509594 -0.0043082747615826242 -0.009354540235588793 0 -0.009354540235588793 0.013463392389297744 0 0 0 0.0022887794069287384 0.0017864220587045787 0.012230079533919819 0 0.012230079533919819 0.017491478042800747 0 0 0 0.0048194750253763331 -0.00081784830618774479 -0.01010928007555557 0 -0.01010928007555557 -0.0024952511769728569 0 0 0 -0.00082827487079014522 0.0070534324100916656 -0.021064218242885936 0 -0.021064218242885936 0.020695107743087221 0 0 0 0.0069371350382947238 -0.034245512592660829 -0.01064564769410109 0 -0.01064564769410109 0.0020655553441371599 0 0 0 -0.0080449893121309762 -0.038463259365786116 0.0049790552785731563 0 0.0049790552785731563 0.00049336680259101651 0 0 0 -0.009492473140798768 -0.031538290927571822 0.0061210634518358469 0 0.0061210634518358469 0.0011138350706233896 0 0 0 -0.0076061139642371219 -0.062862952790331827 0.0024316488359859556 0 0.0024316488359859556 0.025012680106184404 0 0 0 -0.0094625681710368559 -0.01023232650288719 0.00032965692215267128 0 0.00032965692215267128 -0.00017854944654871474 0 0 0 -0.002602718987359004 -0.0082351413070231583 -0.0079441236270092891 0 -0.0079441236270092891 0.0046315326890943309 0 0 0 -0.00090090215448224154 -0.003481858047870403 0.0062355866923099208 0 0.0062355866923099208 0.0025352561584137644 0 0 0 -0.00023665047236415965 0.00041279867564963935 -0.0005996886445065186 0 -0.0005996886445065186 -0.031166877758803668 0 0 0 -0.0076885197707885489 -0.0092701828466565488 0.0039758258226802613 0 0.0039758258226802613 -0.0031973423119263447 0 0 0 -0.0031168812896457234 -0.017612503439384183 -0.011677829841733073 0 -0.011677829841733073 0.011459683431051693 0 0 0 -0.0015382050020831192 -0.0023258079139101091 0.0009500932312592142 0 0.0009500932312592142 -0.0080742248783083927 0 0 0 -0.0026000081980546252 -0.011746927798172102 0.029139073519919956 0 0.029139073519919956 0.0015237225467013005 0 0 0 -0.0025558013128677004 -0.013693517833927235 0.031066630238994808 0 0.031066630238994808 -0.0005871039223370178 0 0 0 -0.0035701554390659002 -0.016472903895675885 -0.017979956631959171 0 -0.017979956631959171 0.002035772789730439 0 0 0 -0.0036092827764863458 0.015068075005874169 -0.043137659640501667 0 -0.043137659640501667 0.077825767108236715 0 0 0 0.023223460528527716 -0.0034739875384887332 0.001524027792360078 0 0.001524027792360078 -0.0064852357431720905 0 0 0 -0.0024898058204152061 -0.034749700608095957 -0.0068157733609547355 0 -0.0068157733609547355 0.0017815703063253086 0 0 0 -0.0082420325754425927 0.0003577442145282772 3.1721632069325878e-05 0 3.1721632069325878e-05 -0.00033098683503052229 0 0 0 6.6893448743554629e-06 0.00066418821448466225 0.0062049654798905785 0 0.0062049654798905785 0.071408262907868281 0 0 0 0.018018112780588069 0.010493740941264781 7.0620544701416321e-05 0 7.0620544701416321e-05 0.048109902256143255 0 0 0 0.014650910799351899 0.0065215755074127246 -0.0016261286532411878 0 -0.0016261286532411878 0.022110304200657627 0 0 0 0.0071579699270176711 0.00046466589166316297 -7.2912758942546138e-06 0 -7.2912758942546138e-06 -0.00052304121646873369 0 0 0 -1.459383120128166e-05 -0.00032099651893174457 0.00017797329016322472 0 0.00017797329016322472 0.00045121499370211069 0 0 0 3.2554618692730308e-05 0.00044069052742634618 -0.0066473298221799201 0 -0.0066473298221799201 0.040178353417454016 0 0 0 0.010154760986220035 -0.00041015650592135522 -0.00025013651673644333 0 -0.00025013651673644333 0.00064709788974770532 0 0 0 5.9235345956532015e-05 -0.0054150572778830716 0.00061948668641885517 0 0.00061948668641885517 -0.0055184906125376829 0 0 0 -0.0027333869726051891 -0.015811060730986655 -0.011452645019021046 0 -0.011452645019021046 0.0014209927756460849 0 0 0 -0.0035975169888351425 -0.030869818673019734 0.0056184491822093181 0 0.0056184491822093181 0.0032676292699158338 0 0 0 -0.006900547350775995 -0.028127516180623813 -0.014701929563126881 0 -0.014701929563126881 0.0029730712598188269 0 0 0 -0.0062886112302012465 -0.0075277622435443326 -0.0021256153123376878 0 -0.0021256153123376878 -0.0086936169044926816 0 0 0 -0.0040553447870092527 -0.017956835966940088 0.026141356911513647 0 0.026141356911513647 -0.0064390763676973606 0 0 0 -0.0060989780836592233 -0.011989833530137883 -0.020559922704453726 0 -0.020559922704453726 -0.00058426106500908404 0 0 0 -0.003143523648786728 0.00095602283542189914 -0.0035922678778524675 0 -0.0035922678778524675 0.030283935344755042 0 0 0 0.0078099895450442491 0.0034614505417898955 -0.0015271350722895205 0 -0.0015271350722895205 0.056104362869962676 0 0 0 0.014891453352938136 -0.017566518897766059 0.0050103697197388386 0 0.0050103697197388386 0.026501133357450357 0 0 0 0.0022336536149210884 -0.027892549189890578 0.0025734528903496 0 0.0025734528903496 0.0033263294124303289 0 0 0 -0.006141554944365038 -0.012324645249489702 -0.0072090743344866261 0 -0.0072090743344866261 0.021755034465219703 0 0 0 0.0023575973039325071 -0.0028642137759232605 0.0030909674584231328 0 0.0030909674584231328 0.04308567549061576 0 0 0 0.010055365428673108 -0.013635875486997767 -0.015410926923855539 0 -0.015410926923855539 0.004719423404801304 0 0 0 -0.0022291130205491505 -0.0022355740128196799 0.0054057074303032028 0 0.0054057074303032028 -0.0008759792159552908 0 0 0 -0.00077788830719374182 -0.013212152292974289 -0.019736936198533506 0 -0.019736936198533506 0.0049181316356143867 0 0 0 -0.0020735051643399616 -0.023398018307375423 0.023677730443775413 0 0.023677730443775413 -0.0020198453196185184 0 0 0 -0.0063544659067484854 -0.011607801643699567 -0.001253942163495142 0 -0.001253942163495142 0.0089143391236302105 0 0 0 -0.00067336563001733907 -0.0054685545203990021 -0.0011913130544323747 0 -0.0011913130544323747 0.010960891762828384 0 0 0 0.0013730843106073559 -0.018379065906796759 0.004210404565324774 0 0.004210404565324774 -0.001421852298295263 0 0 0 -0.0049502295512730034 -0.019921263774407946 -0.00080878211347728407 0 -0.00080878211347728407 0.018464195669326763 0 0 0 -0.00036426702627030336 0.012078011550292561 -0.012555664332567634 0 -0.012555664332567634 0.011151676052281734 0 0 0 0.0058074219006435945 -0.015064831467455833 -0.011886380854691028 0 -0.011886380854691028 0.0035006487638403506 0 0 0 -0.0028910456759038642 0.032685683679466476 -0.0096088586965167866 0 -0.0096088586965167866 0.012102352906795621 0 0 0 0.01119700914656549 -0.009236316511345502 -0.0035951695013496099 0 -0.0035951695013496099 0.020850390376067562 0 0 0 0.0029035184661805186 -0.015197963039127918 -0.0059234897903563399 0 -0.0059234897903563399 0.0025662410515865375 0 0 0 -0.0031579304968853555 -0.034247962527942981 0.004444811043899319 0 0.004444811043899319 -0.00085474412555290808 0 0 0 -0.0087756766633739717 -0.017214460268970232 -0.0034614292184429237 0 -0.0034614292184429237 0.022440053160015419 0 0 0 0.001306398222761301 -0.017147998990328876 -0.0026202138896146343 0 -0.0026202138896146343 0.027859727512192588 0 0 0 0.0026779321304659237 0.024837520986218178 0.034275003139891611 0 0.034275003139891611 0.09142940555178683 0 0 0 0.029066731634501256 -0.00481653110738995 -0.0060836967610425757 0 -0.0060836967610425757 0.10426309478994147 0 0 0 0.024861640920637897 0.026368097486767161 0.011591190250794071 0 0.011591190250794071 0.038943162839575773 0 0 0 0.01632781508158565 -0.0019965327300130592 0.013817340926954427 0 0.013817340926954427 0.023435958522603259 0 0 0 0.0053598564481475569 -0.039241627386290223 -0.0054642691537693444 0 -0.0054642691537693444 0.00063556922412955075 0 0 0 -0.0096515145405403624 -0.018572949196322974 0.0042657984403366381 0 0.0042657984403366381 -0.0023346381764807016 0 0 0 -0.0052268968432009196 -0.042887050069260461 -0.0074620639935291935 0 -0.0074620639935291935 -0.0067924248654573083 0 0 0 -0.012419868733679444 -0.03439456658615006 0.0032435319807752163 0 0.0032435319807752163 -0.0037716586389005624 0 0 0 -0.009541556306262652 0.0031083778750240565 0.0020864132650413869 0 0.0020864132650413869 -0.0074292658942531984 0 0 0 -0.0010802220048072861 -0.047223120480725356 -0.0023770027018111279 0 -0.0023770027018111279 -0.0003881897356042013 0 0 0 -0.011902827554082394 -0.042174627556222005 -0.002510664710709425 0 -0.002510664710709425 -0.0088015477892010689 0 0 0 -0.012744043836355766 -0.066124061115799188 0.001520100017604821 0 0.001520100017604821 0.00025649710606411719 0 0 0 -0.016466891002433766 -0.059261107671503152 0.00158362395027494 0 0.00158362395027494 -0.011838770128888168 0 0 0 -0.017774969450097836 -0.02431807013679909 -0.0073435404351890887 0 -0.0073435404351890887 0.011101372538314253 0 0 0 -0.0033041743996212389 -0.0013472329640774076 0.0020233398654773528 0 0.0020233398654773528 -0.0055714176698478477 0 0 0 -0.0017296626584813132 0.02760007365736572 0.017520732687494212 0 0.017520732687494212 0.010938056631142778 0 0 0 0.0096345325721270969 -0.0035427390556578703 -0.0023030207669645086 0 -0.0023030207669645086 0.035065962167275921 0 0 0 0.0078808057779045093 0.0047280087247310171 0.018610958488558642 0 0.018610958488558642 0.03596909563204452 0 0 0 0.010174276089193884 -0.012299846443858564 -0.014181161672948219 0 -0.014181161672948219 0.01567832312637174 0 0 0 0.00084461917062828018 -0.0027057672793606349 0.0014189010866707541 0 0.0014189010866707541 -0.00042432985351326244 0 0 0 -0.00078252428321864086 0.0012675813154571119 -0.0049098471469690708 0 -0.0049098471469690708 -0.0077669358663267395 0 0 0 -0.0016248386377174624 0.0019306289840788468 0.0053718533090525433 0 0.0053718533090525433 -0.0039360937290676638 0 0 0 -0.00050136618624714883 -0.0019555972539237929 -0.0010766493500142804 0 -0.0010766493500142804 -0.0004635807457319128 0 0 0 -0.00060479449991400979 -0.0064165718604163487 0.0032060330424201755 0 0.0032060330424201755 -0.0073455169137444931 0 0 0 -0.0034405221935402582 -0.0062242693951266304 -0.0099700520727938613 0 -0.0099700520727938613 -0.01035163297283459 0 0 0 -0.0041439755919903121 -0.044712673195956412 -0.0046436530166843494 0 -0.0046436530166843494 -0.014877490980512394 0 0 0 -0.014897541044117205 -0.06246250218947276 0.0045865777577335978 0 0.0045865777577335978 -0.020782466626531469 0 0 0 -0.020811242204001056 -0.070173624959157271 0.0050109215083747639 0 0.0050109215083747639 -0.0095157783068876081 0 0 0 -0.019922350816511218 -0.050374717153201604 -0.0048534693369599174 0 -0.0048534693369599174 -0.0070554636720084503 0 0 0 -0.014357545206302509 -0.013031305223931949 -0.017853985600527533 0 -0.017853985600527533 0.0067686200425307042 0 0 0 -0.0015656712953503182 -0.018608751404158824 0.0044198757557795312 0 0.0044198757557795312 0.0007499463484512206 0 0 0 -0.0044647012639269052 -0.016253302695237032 -0.011977611135254165 0 -0.011977611135254165 0.0077926823644549337 0 0 0 -0.0021151550826955245 -0.014571724894041502 -0.011650232542300853 0 -0.011650232542300853 0.0036273842019138858 0 0 0 -0.0027360851730319075 -0.014423526857953499 0.0037261601885293098 0 0.0037261601885293098 0.00118624973356651 0 0 0 -0.0033093192810967481 -0.0065885429943397054 0.0040831316774956996 0 0.0040831316774956996 -0.002598160461421457 0 0 0 -0.0022966758639402889 -0.0065024641970682024 0.0046448845188879467 0 0.0046448845188879467 -0.0022995446247927355 0 0 0 -0.0022005022054652325 -0.015951373387046608 -0.018226556731518434 0 -0.018226556731518434 0.065070512548460066 0 0 0 0.012279784790353375 0.015949424782386815 -0.00086592493759934941 0 -0.00086592493759934941 0.18671907530859735 0 0 0 0.050667125022746048 -0.032167924902749459 -0.0040245453504212103 0 -0.0040245453504212103 0.0080864441541695087 0 0 0 -0.0060203701871450292 -0.0086807012843305303 -0.0018653820376563074 0 -0.0018653820376563074 0.019498233362057638 0 0 0 0.0027043830194317664 -0.016713220612073809 -0.0078263304429823655 0 -0.0078263304429823655 0.013528066206139333 0 0 0 -0.00079628860148361902 -0.0062149261948981661 0.0052237167599247835 0 0.0052237167599247835 0.0029927681875249329 0 0 0 -0.00080553950184331091 -0.0033194065635916425 0.022379560862089587 0 0.022379560862089587 0.018750701781048873 0 0 0 0.0038578238043643909 -0.019778117306141429 -0.0090922738078923482 0 -0.0090922738078923482 -0.00090521847412794454 0 0 0 -0.0051708339450673435 0.012339705420414682 -0.014700394740576488 0 -0.014700394740576488 0.028999167460652647 0 0 0 0.010334718220266832 -0.0033622214370724809 -0.0018727657879012566 0 -0.0018727657879012566 0.0074081263448770862 0 0 0 0.0010114762269511565 -0.029093251984250168 0.01863223775300904 0 0.01863223775300904 0.0013048535548945139 0 0 0 -0.006947099607338858 -0.010178313548154683 -0.017138126206364512 0 -0.017138126206364512 0.011889502873057234 0 0 0 0.00042779733122555452 -0.0036136769533002266 -0.013783836353654499 0 -0.013783836353654499 0.012108069418200973 0 0 0 0.0021235981162252004 -0.011111790638832053 -0.002670253630904576 0 -0.002670253630904576 -0.0082819721909220823 0 0 0 -0.0048484407074385061 -0.0081005647108029905 -0.0056892692599229411 0 -0.0056892692599229411 0.022289948697853196 0 0 0 0.0035473459967625548 -0.0060117780466722847 -0.0065238693623743751 0 -0.0065238693623743751 -0.0076925981207652747 0 0 0 -0.0034260940418593903 -0.010171106358808399 -0.0055128683550972613 0 -0.0055128683550972613 -0.030552086026930214 0 0 0 -0.010180798096434643 -0.021695132997898579 0.0049500541574139315 0 0.0049500541574139315 -0.0027614838783462858 0 0 0 -0.0061141542190612189 -0.018195018469699044 0.0048810299497526024 0 0.0048810299497526024 -0.0031260746614357824 0 0 0 -0.005330273282783707 -0.016740772640732718 -0.00018409363527757249 0 -0.00018409363527757249 0.015940601020411359 0 0 0 -0.00020004290508033283 -0.020964974035631162 -0.0056307474815015177 0 -0.0056307474815015177 0.019117799995154172 0 0 0 -0.00046179351011924052 -0.013085511542833543 0.0033286517736723876 0 0.0033286517736723876 -0.0022767057705892456 0 0 0 -0.0038405543283556972 -0.011216661494051896 0.0043487344795596194 0 0.0043487344795596194 0.0016510503139864491 0 0 0 -0.0023914027950163634 -0.012835480006750697 0.0036056900701813954 0 0.0036056900701813954 0.0010793463090308514 0 0 0 -0.0029390334244299571 -0.0065838733378292824 0.0048960722173656546 0 0.0048960722173656546 -0.028099294223315419 0 0 0 -0.0086707918902861891 -0.0023609539653212663 0.005566449013004196 0 0.005566449013004196 -0.014198873095250197 0 0 0 -0.0041399567651428382 -0.0026842445073861423 -0.010167302082087798 0 -0.010167302082087798 -0.015017220295016342 0 0 0 -0.0044253662006006403 -0.0064652265223488492 -0.0094489452217729752 0 -0.0094489452217729752 -0.0272813926162081 0 0 0 -0.0084366547846392581 0.00093273284593167055 -0.017652870401655286 0 -0.017652870401655286 0.064605216966638457 0 0 0 0.016384487453142534 -0.0011877754242894945 0.01525490275290653 0 0.01525490275290653 -0.0045882545491080506 0 0 0 -0.0014440074933490532 -0.00092634509269906573 -0.0028232947743522807 0 -0.0028232947743522807 -0.0049802792483983893 0 0 0 -0.0014766560852743638 -0.0012357492814834559 -0.012337696487820127 0 -0.012337696487820127 -0.0060402071193316198 0 0 0 -0.0018189891002036718 -0.0012154072625483181 0.0038731549154240597 0 0.0038731549154240597 -0.0070373464741113612 0 0 0 -0.0020631884341648643 -0.03152176580474686 0.024645955299543457 0 0.024645955299543457 -0.0023399565947972434 0 0 0 -0.0084654305998859147 -0.011988871549278968 -0.020017947581887113 0 -0.020017947581887113 0.0051769231841169994 0 0 0 -0.0017029870912904643 -0.0056552508688974545 -0.016410045159140796 0 -0.016410045159140796 0.0070767689432122971 0 0 0 0.00035537951857866901 -0.014018326002454269 -0.0016793010721906833 0 -0.0016793010721906833 0.022631417350857632 0 0 0 0.0021532728371008404 -0.00087316422696837037 0.0093979092091405481 0 0.0093979092091405481 -0.017793332396431438 0 0 0 -0.0046666241558503962 0.0001640093052472924 -0.0013151372735424049 0 -0.0013151372735424049 -0.0018055479012297759 0 0 0 -0.00041038464899556537 0.00017648659186342286 0.0016982813825712206 0 0.0016982813825712206 -0.0024383764864897017 0 0 0 -0.00056547247365656972 -0.00134807005516413 -0.0076629739797275942 0 -0.0076629739797275942 -0.016469733949827425 0 0 0 -0.0044544510012478611 -0.013992269407686886 -0.0043000731110893753 0 -0.0043000731110893753 -0.017228512627170289 0 0 0 -0.0078051955087143077 0.016529605051373013 -0.015806349011424164 0 -0.015806349011424164 0.0038437901051880385 0 0 0 0.0050933487891402993 0.0098017576476278762 0.00059300360306624444 0 0.00059300360306624444 0.032430056962348658 0 0 0 0.010557953652494137 0.014839635671638457 -0.0034962626841583688 0 -0.0034962626841583688 0.062611879323996145 0 0 0 0.019362878748908602 -0.0039636559323197335 0.0045807275493731673 0 0.0045807275493731673 -0.0034612021095629525 0 0 0 -0.0018562145104706711 -0.050811592971016339 0.023116740753651166 0 0.023116740753651166 0.0014864492182331546 0 0 0 -0.012331285938195768 -0.051768317539828135 0.019829368942861431 0 0.019829368942861431 -0.0010562874526347521 0 0 0 -0.013206151248115638 -0.014031157816096087 -0.0057403223097453049 0 -0.0057403223097453049 -0.0062663183388230459 0 0 0 -0.0050743690387297837 -0.012163300819779774 0.00070302451243681695 0 0.00070302451243681695 0.00715229789563325 0 0 0 -0.0012527507310366311 -0.017710769169555697 -0.011345177877483487 0 -0.011345177877483487 0.0071690788642337563 0 0 0 -0.0026354225763304878 -0.014307743531054325 -0.013401425120098051 0 -0.013401425120098051 0.014054620760322663 0 0 0 -6.3280692682911657e-05 -0.031475192802020935 0.024232733255608707 0 0.024232733255608707 -0.0027066447666008742 0 0 0 -0.0085454593921554522 -0.011598578537913351 -0.017762761991720333 0 -0.017762761991720333 0.0068693475350007915 0 0 0 -0.0011823077507282509 -0.012683599825611291 -0.018454950858233954 0 -0.018454950858233954 0.0061627659266068058 0 0 0 -0.0016302084747510937 -0.041998437873519603 0.0026508346674146577 0 0.0026508346674146577 -0.0037094860851214365 0 0 0 -0.011426980989660265 -0.058762431603638067 -0.007287141643372845 0 -0.007287141643372845 -0.0067484610461533753 0 0 0 -0.016377723162447864 -0.053478837952528301 -0.0092965791165251395 0 -0.0092965791165251395 -0.00024758316738553903 0 0 0 -0.01343160527997846 -0.039621081365715065 0.0037220316595646418 0 0.0037220316595646418 -0.00027928682183653254 0 0 0 -0.0099750920468879047 -0.014360208409553859 -5.7942232943305333e-05 0 -5.7942232943305333e-05 0.010554791421947023 0 0 0 -0.0009513542469017026 -0.047582792165719701 0.019001701579419272 0 0.019001701579419272 -0.0027887901690224481 0 0 0 -0.012592895583685482 -0.0042843800836496748 -0.015608590047027471 0 -0.015608590047027471 0.011200228571883297 0 0 0 0.0017289621220583085 -0.0043615843375037766 -0.015862551521311857 0 -0.015862551521311857 0.0094974702009971157 0 0 0 0.0012839714658733348 -0.028634420436110142 -0.016407250951839758 0 -0.016407250951839758 0.0057941678584425282 0 0 0 -0.0057100631444169103 -0.015403290442303447 -0.0050148142842046939 0 -0.0050148142842046939 -0.010563920517676323 0 0 0 -0.0064918027399949348 -0.0012490974860626253 -0.010795482997956293 0 -0.010795482997956293 -0.0045918549770233921 0 0 0 -0.0014602381157715061 -0.012058721730941694 -0.0024054027492899461 0 -0.0024054027492899461 0.0069901889063758368 0 0 0 -0.0012671332061414617 -0.034465259840124093 0.0053755548183294236 0 0.0053755548183294236 -0.0022609050477303281 0 0 0 -0.0091815412219636051 -0.052705205413042161 0.030351755940698277 0 0.030351755940698277 0.0097669652942046215 0 0 0 -0.010734560029709378 -0.033130992111251034 -0.013650595773876895 0 -0.013650595773876895 0.0060061669760881342 0 0 0 -0.0067812062837906972 -0.0071946920817835824 0.027632400511422572 0 0.027632400511422572 0.0029868926332832502 0 0 0 -0.00105194986212509 -0.021892349092817266 -0.014835731934147001 0 -0.014835731934147001 -0.0028023062954828301 0 0 0 -0.0061736638470751073 -0.0020892032007890915 0.032367905826679033 0 0.032367905826679033 0.0034447225602054488 0 0 0 0.00033887983985414483 -0.032061097149483873 0.0046677448788827527 0 0.0046677448788827527 0.00010215932463542368 0 0 0 -0.0079897344562121116 -0.013292001140723091 0.001681898249000661 0 0.001681898249000661 0.0048278377648182788 0 0 0 -0.0021160408439762058 -0.028142337843817866 -0.014640713010952155 0 -0.014640713010952155 0.0022491210584152377 0 0 0 -0.0064733041963507265 -0.0028982312171964928 0.0075964761052844387 0 0.0075964761052844387 0.0046292133443341377 0 0 0 0.00043274553178442553 -0.0040439316618269272 -0.011499019927480758 0 -0.011499019927480758 0.014018454013775439 0 0 0 0.0024936305879871279 -0.012140751681413844 0.0024411659940986297 0 0.0024411659940986297 0.00051281460485479071 0 0 0 -0.0029069842691397565 0.00094441397491862311 0.00050703898899318034 0 0.00050703898899318034 -0.00062398690012344105 0 0 0 8.0106768698628983e-05 -0.0043482267972712041 0.0024144216456014611 0 0.0024144216456014611 -0.0020392667963502475 0 0 0 -0.0015968733984055294 -0.00058577765010758842 -0.011950104755850122 0 -0.011950104755850122 -0.0046375879481064253 0 0 0 -0.0013058413995533646 -0.00014446677522561568 -0.0055772126864315208 0 -0.0055772126864315208 -0.0033920513917999884 0 0 0 -0.00088412954175642877 -0.00038256983239737252 0.0065381821023582365 0 0.0065381821023582365 0.0035385773691674061 0 0 0 0.00078900188419250838 0.00066473562953150989 -0.0003735343801924973 0 -0.0003735343801924973 -0.00040248747599136436 0 0 0 6.5562038385258425e-05 0.0011975129358900993 0.013753997257469175 0 0.013753997257469175 0.0028138167798017477 0 0 0 0.0010028324289228507 -0.003221242871451202 -0.0017503113073955578 0 -0.0017503113073955578 -0.0014457038937427669 0 0 0 -0.0011667366912982979 -0.01485037419777463 -0.0065817626154773268 0 -0.0065817626154773268 -0.011862064964249797 0 0 0 -0.0066781097905061204 -0.016253297319338667 -0.0070722080105674887 0 -0.0070722080105674887 0.0060623598415957547 0 0 0 -0.002547734369435728 -0.019306455210808371 -0.0076900256917377188 0 -0.0076900256917377188 0.0052500779204314729 0 0 0 -0.0035140943225942523 -0.0094124720769202582 -0.0019528659695723094 0 -0.0019528659695723094 -0.015331522601777905 0 0 0 -0.0061859986696745136 -0.0097324061307359488 -0.00099955662040454585 0 -0.00099955662040454585 -0.01447067778315142 0 0 0 -0.0060507709784718422 -0.0042729963024004209 0.01713579077698469 0 0.01713579077698469 0.049936542840203275 0 0 0 0.011415886634450704 -0.018805173363635408 -0.012810534286068941 0 -0.012810534286068941 0.0033942996852252341 0 0 0 -0.0038527184196025313 -0.01986465946585975 -0.018127283830801755 0 -0.018127283830801755 0.0011690787052714008 0 0 0 -0.0046738951901470795 -0.025494945834800942 0.0034351404929298447 0 0.0034351404929298447 0.0016914114295930247 0 0 0 -0.0059508836013019827 -0.059648449141663284 0.018868997574725488 0 0.018868997574725488 0.0025508005121666066 0 0 0 -0.014274412157374183 -0.048078678721655776 0.028183147090157734 0 0.028183147090157734 0.022892241923755718 0 0 0 -0.0062966091994750006 0.00023632797352306917 0.016106363292628732 0 0.016106363292628732 0.032712240864941233 0 0 0 0.0082371422096160704 -0.012764336999543491 -0.006502791997067419 0 -0.006502791997067419 0.0032926014232343981 0 0 0 -0.0023679338940772732 -0.014653096635050378 -0.0084048724288583211 0 -0.0084048724288583211 0.00020736406212917835 0 0 0 -0.003611433143230286 0.016113878298744201 0.020175007877797566 0 0.020175007877797566 0.033361728535891727 0 0 0 0.01236890170865898 -0.032553906547772141 -0.012433458245323992 0 -0.012433458245323992 0.01067988942971676 0 0 0 -0.0054685042795138555 -0.038618147178349424 -0.0079912089478015036 0 -0.0079912089478015036 0.0010014001964117059 0 0 0 -0.0094041867454843636 0.00099344317608982685 0.013857940117717391 0 0.013857940117717391 0.024039948261895816 0 0 0 0.006258347859496409 0.0091979505820911165 0.016452392252986565 0 0.016452392252986565 0.018497280176132773 0 0 0 0.0069238076895559737 -0.01957729395851171 -0.0091882352147452939 0 -0.0091882352147452939 0.011221879793512191 0 0 0 -0.0020888535412498521 -0.012693649074965684 -0.00062895822154725601 0 -0.00062895822154725601 0.005536984108637448 0 0 0 -0.0017891662415820552 -0.012179294606676218 0.00010938504491428587 0 0.00010938504491428587 0.010345060807347369 0 0 0 -0.00045855844983221268 -0.011850263922584137 0.00069761313015825324 0 0.00069761313015825324 0.017891351927576078 0 0 0 0.0015102720012479913 0.010965861541552435 0.01426255766624096 0 0.01426255766624096 0.056556943119906666 0 0 0 0.016880701165364886 -0.02091005460027856 -0.0041344694316847175 0 -0.0041344694316847175 0.0001527916589647571 0 0 0 -0.0051893157353286035 -0.032052674303695974 0.0058770760303867731 0 0.0058770760303867731 0.00017134357375517967 0 0 0 -0.0079703326824852039 -0.0068982384518948654 0.003888882148879765 0 0.003888882148879765 -0.003888445788372271 0 0 0 -0.0026966710600667835 0.033101978007428923 0.01111126882035296 0 0.01111126882035296 0.031039881980677642 0 0 0 0.016035464997026627 -0.012271491676161844 -0.004781589736613634 0 -0.004781589736613634 -0.0110546970573977 0 0 0 -0.0058315471833899069 -0.023819874895373058 -0.017430636415456988 0 -0.017430636415456988 -0.0019991873026754675 0 0 0 -0.0064547655495121314 -0.039321331938940239 -0.014894612393215758 0 -0.014894612393215758 -0.00077343565149200211 0 0 0 -0.010023691897608048 -0.016184138845810256 -0.0065733982482426567 0 -0.0065733982482426567 0.02174318176278639 0 0 0 0.0013897607292440578 
</DataArray>
<DataArray type="Float64" Name="cross_section_updated" format="ascii">
0.0010045408979545074 0.0010113943582698904 0.001015962517016191 0.0010205890189789808 0.001025703438052023 0.0010316004720694173 0.0010384491953926587 0.0010458725311541877 0.0010538578757212835 0.0010614379586199364 0.0020171364431195555 0.0020448089119129973 0.0020648480657128477 0.0020840067493655377 0.0021037000934160163 0.0021241205550434029 0.0021454971798337522 0.0021670630400328077 0.0021887479105208592 0.0022095073210212841 1 1 1 1 1 1 1 1 1 1 1 1 1 1 1 1 1 1 1 1 1 1 1 1 1 1 1 1 1 1 1 1 1 1 1 1 1 1 1 1 1 1 1 1 1 1 1 1 1 1 1 1 1 1 1 1 1 1 1 1 1 1 1 1 1 1 1 1 1 1 1 1 1 1 1 1 1 1 1 1 1 1 1 1 1 1 1 1 1 1 1 1 1 1 1 1 1 1 1 1 1 1 1 1 1 1 1 1 1 1 1 1 1 1 1 1 1 1 1 1 1 1 1 1 1 1 1 1 1 1 1 1 1 1 1 1 1 1 1 1 1 1 1 1 1 1 1 1 1 1 1 1 1 1 1 1 1 1 1 1 1 1 1 1 1 1 1 1 1 1 1 1 1 1 1 1 1 1 1 1 1 1 1 1 1 1 1 1 1 1 1 1 1 1 1 1 1 1 1 1 1 1 1 1 1 1 1 1 1 1 1 1 1 1 1 1 1 1 1 1 1 1 1 1 1 1 1 1 1 1 1 1 1 1 1 1 1 1 1 1 1 1 1 1 1 1 1 1 1 1 1 1 1 1 1 1 1 1 1 1 1 1 1 1 1 1 1 1 1 1 1 1 1 1 1 1 1 1 1 1 1 1 1 1 1 1 1 1 1 1 1 1 1 1 1 1 1 1 1 1 1 1 1 1 1 1 1 1 1 1 1 1 1 1 1 1 1 1 1 1 1 1 1 1 1 1 1 1 1 1 1 1 1 1 1 1 1 1 1 1 1 1 1 1 1 1 1 1 1 1 1 1 1 1 1 1 1 1 1 1 1 1 1 1 1 1 1 1 1 1 1 1 1 1 1 1 1 1 1 1 1 1 1 1 1 1 1 1 1 1 1 1 1 1 1 1 1 1 1 1 1 1 1 1 1 1 1 1 1 1 1 1 1 1 1 1 1 1 1 1 1 1 1 1 1 1 1 1 1 1 1 1 1 1 1 1 1 1 1 1 1 1 1 1 1 1 1 1 1 1 1 1 1 1 1 1 1 1 1 1 1 1 1 1 1 1 1 1 1 1 1 1 1 1 1 1 1 1 1 1 1 1 1 1 1 1 1 1 1 1 1 1 1 1 1 1 1 1 1 1 1 1 1 1 1 1 1 1 1 1 1 1 1 1 1 1 1 1 1 1 1 1 1 1 1 1 1 1 1 1 1 1 1 1 1 1 1 1 1 1 1 1 1 1 1 1 1 1 1 1 1 1 1 1 1 1 1 1 1 1 1 1 1 1 1 1 1 1 1 1 1 1 1 1 1 1 1 1 1 1 1 1 1 1 1 1 1 1 1 1 1 1 1 1 1 1 1 1 1 1 1 1 1 1 1 1 1 1 1 1 1 1 1 1 1 1 1 1 1 1 1 1 1 1 1 1 1 1 1 1 1 1 1 1 1 1 1 1 1 1 1 1 1 1 1 1 1 1 1 1 1 1 1 1 1 1 1 1 1 1 1 1 1 1 1 1 1 1 1 1 1 1 1 1 1 1 1 1 1 1 1 1 1 1 1 1 1 1 1 1 1 1 1 1 1 1 1 1 1 1 1 1 1 1 1 1 1 1 1 1 1 1 1 1 1 1 1 1 1 1 1 1 1 1 1 1 1 1 1 1 1 1 1 1 1 1 1 1 1 1 1 1 1 1 1 1 1 1 1 1 1 1 1 1 1 1 1 1 1 1 1 1 1 1 1 1 1 1 1 1 1 1 1 1 1 1 1 1 1 1 1 1 1 1 1 1 1 1 1 1 1 1 1 1 1 1 1 1 1 1 1 1 1 1 1 1 1 1 1 1 1 1 1 1 1 1 1 1 1 1 1 1 1 1 1 1 1 1 1 1 1 1 1 1 1 1 1 1 1 1 1 1 1 1 1 1 1 1 1 1 1 1 1 1 1 1 1 1 1 1 1 1 1 1 1 1 1 1 1 1 1 1 1 1 1 1 1 1 1 1 1 1 1 1 1 1 1 1 1 1 1 1 1 1 1 1 1 1 1 1 1 1 1 1 1 1 1 1 1 1 1 1 1 1 1 1 1 1 1 1 1 1 1 1 1 1 1 1 1 1 1 1 1 1 1 1 1 1 1 1 1 1 1 1 1 1 1 1 1 1 1 1 1 1 1 1 1 1 1 1 1 1 1 1 1 1 1 1 1 1 1 1 1 1 1 1 1 1 1 1 1 1 1 1 1 1 1 1 1 1 1 1 1 1 1 1 1 1 1 1 1 1 1 1 1 1 1 1 1 1 1 1 1 1 1 1 1 1 1 1 1 1 1 1 1 1 1 1 1 1 1 1 1 1 
</DataArray>
</CellData>
</Piece>
</UnstructuredGrid>
</VTKFile>
