<?xml version="1.0"?>
<VTKFile type="UnstructuredGrid" version="0.1" byte_order="LittleEndian">
<UnstructuredGrid>
<Piece NumberOfPoints="3142" NumberOfCells="1054">
<Points>
<DataArray type="Float64" NumberOfComponents="3" format="ascii">
0.5 0.29999999999999999 0 0.54999999999999993 0.29999999999999999 0 0.54999999999999993 0.29999999999999999 0 0.59999999999999976 0.29999999999999999 0 0.59999999999999976 0.29999999999999999 0 0.6499999999999998 0.29999999999999999 0 0.6499999999999998 0.29999999999999999 0 0.69999999999999984 0.29999999999999999 0 0.69999999999999984 0.29999999999999999 0 0.74999999999999989 0.29999999999999999 0 0.74999999999999989 0.29999999999999999 0 0.79999999999999982 0.29999999999999999 0 0.79999999999999982 0.29999999999999999 0 0.84999999999999987 0.29999999999999999 0 0.84999999999999987 0.29999999999999999 0 0.89999999999999991 0.29999999999999999 0 0.89999999999999991 0.29999999999999999 0 0.94999999999999996 0.29999999999999999 0 0.94999999999999996 0.29999999999999999 0 1 0.29999999999999999 0 0.5 0.69999999999999996 0 0.54999999999999993 0.69999999999999996 0 0.54999999999999993 0.69999999999999996 0 0.59999999999999976 0.69999999999999996 0 0.59999999999999976 0.69999999999999996 0 0.6499999999999998 0.69999999999999996 0 0.6499999999999998 0.69999999999999996 0 0.69999999999999984 0.69999999999999996 0 0.69999999999999984 0.69999999999999996 0 0.74999999999999989 0.69999999999999996 0 0.74999999999999989 0.69999999999999996 0 0.79999999999999982 0.69999999999999996 0 0.79999999999999982 0.69999999999999996 0 0.84999999999999987 0.69999999999999996 0 0.84999999999999987 0.69999999999999996 0 0.89999999999999991 0.69999999999999996 0 0.89999999999999991 0.69999999999999996 0 0.94999999999999996 0.69999999999999996 0 0.94999999999999996 0.69999999999999996 0 1 0.69999999999999996 0 0.40076539126862748 0.34589349467022118 0 0.33277555741076909 0.36432196682010132 0 0.36575549820117997 0.31677992835137742 0 0.38083244760691543 0.38531983672244652 0 0.33277555741076909 0.36432196682010132 0 0.40076539126862748 0.34589349467022118 0 0.56836770495988642 0.3523062350852913 0 0.52289427570932567 0.3932284363388488 0 0.52752007115234678 0.33170632466418198 0 0.52752007115234678 0.33170632466418198 0 0.52289427570932567 0.3932284363388488 0 0.49077833859261139 0.35229981449445641 0 0.10000000000041601 1 0 0.053064897599294662 0.95186845269532028 0 0.10266856499240549 0.95548163909968886 0 0.099999999999814668 0 0 0.10266856499169109 0.044518360900210059 0 0.053064897599215843 0.048131547304697528 0 0.050000000000207989 1 0 0.053064897599294662 0.95186845269532028 0 0.10000000000041601 1 0 0.049999999999899652 0 0 0.099999999999814668 0 0 0.053064897599215843 0.048131547304697528 0 0.24999999999941211 0 0 0.29999999999926641 0 0 0.27499999999933927 0.060310814194988557 0 0.30000000000124832 1 0 0.25000000000104028 1 0 0.27609987656793722 0.94991445621608572 0 0.15720202157091859 0.60665697304410315 0 0.19914261668318661 0.62286739485272158 0 0.16500388252850301 0.66612077714085194 0 0.2236846579037573 0.67380363126050236 0 0.16500388252850301 0.66612077714085194 0 0.19914261668318661 0.62286739485272158 0 0.1247745017231483 0.27198077544791172 0 0.168349569971391 0.28054490850913671 0 0.14223753364722069 0.3341983344262433 0 0 0.75000000000034661 0 0 0.7000000000006934 0 0.049706944316475897 0.72477277076253799 0 0 0.30000000000124832 0 0 0.25000000000104028 0 0.049706944316556423 0.27522722923869108 0 0.59999999999999976 0.29999999999999999 0 0.61959173890754571 0.33832250091341232 0 0.56836770495988642 0.3523062350852913 0 0.5 0.69999999999999996 0 0.43323420005758778 0.6913544522562407 0 0.47913475093885149 0.66010775372412711 0 1 0.14999999999961891 0 0.95391631417672862 0.19584263333809451 0 0.93677536231883773 0.14999999999999089 0 1 0.84999999999982645 0 0.95391631417670719 0.89584263333814784 0 0.93677536231884972 0.85000000000000286 0 1 0.84999999999982645 0 0.93677536231884972 0.85000000000000286 0 0.95386563387742829 0.80414874155775029 0 1 0.14999999999961891 0 0.93677536231883773 0.14999999999999089 0 0.95386563387744361 0.1041487415577465 0 0.90416666666660628 0.9041666666666166 0 0.88088768115933802 0.84674609810493673 0 0.93677536231884972 0.85000000000000286 0 0.90416666666668166 0.20416666666667119 0 0.88088768115941807 0.14674609810479519 0 0.93677536231883773 0.14999999999999089 0 0.1247745017231483 0.27198077544791172 0 0.14223753364722069 0.3341983344262433 0 0.093851963071650835 0.30582068233324772 0 0.5 0.69999999999999996 0 0.45582236402875981 0.73896743678908217 0 0.43323420005758778 0.6913544522562407 0 0.55000000000173355 1 0 0.50000000000205869 1 0 0.52122150208832174 0.94089974453840242 0 0.49999999999869432 0 0 0.5499999999988151 0 0 0.52375890611712683 0.059318771819432882 0 0.54999999999999993 0.29999999999999999 0 0.59999999999999976 0.29999999999999999 0 0.56836770495988642 0.3523062350852913 0 0.50202631463681879 0.87892870825713787 0 0.44003836461056539 0.88093474584252718 0 0.45677673713123867 0.84253684404072415 0 0.33403534827021109 0.84402799729020661 0 0.35864759629805099 0.87963482415279515 0 0.30864387279288652 0.89906554525974958 0 0.53245488764484505 0.55078124999999989 0 0.47793794143994173 0.52940715638744962 0 0.53330375813596242 0.50827942741749099 0 0.82709327591102189 0.14937141670914489 0 0.81283102246527783 0.1881007222486438 0 0.77144070960558853 0.14311854477243749 0 0.82709327591091286 0.84937141670920724 0 0.81159157511211755 0.88795995483179491 0 0.76901770135486491 0.84293557325473656 0 0.77144070960558853 0.14311854477243749 0 0.81283102246527783 0.1881007222486438 0 0.76587607630038135 0.18880039518954719 0 0.76901770135486491 0.84293557325473656 0 0.81159157511211755 0.88795995483179491 0 0.76891166905518427 0.88835469571185499 0 0.33403534827021109 0.84402799729020661 0 0.30864387279288652 0.89906554525974958 0 0.29209212897034281 0.84715728365233667 0 0.57412547362576272 0.58273804879550706 0 0.5166924242153631 0.59825134841919447 0 0.53245488764484505 0.55078124999999989 0 0.50202631463681879 0.87892870825713787 0 0.47401147028110507 0.91529957330468115 0 0.44003836461056539 0.88093474584252718 0 0.5 0.69999999999999996 0 0.54999999999999993 0.69999999999999996 0 0.55363780716230748 0.74348740161571747 0 1 0.34999999999993492 0 0.95871855522754235 0.40006508612975411 0 0.95780851984364423 0.34215720972155339 0 1 0.64999999999986979 0 0.9578014258160763 0.65787212321113708 0 0.95867599106212187 0.60011091146651041 0 0.46666084890304671 0.57634471035397938 0 0.47793794143994173 0.52940715638744962 0 0.53245488764484505 0.55078124999999989 0 0.94999999999999996 0.29999999999999999 0 0.89898474358614167 0.25391965591104898 0 0.94399509803921056 0.24399509803922639 0 0.94999999999979179 1 0 0.89898474358632463 0.95391965591118966 0 0.94399509803919068 0.9439950980391687 0 0 0.65000000000104008 0 0.050069554451969707 0.61308520079857043 0 0.046634677244967337 0.671418230738282 0 0 0.35000000000145642 0 0.046389130980076937 0.32668781832131749 0 0.050583896093752537 0.38543522283434112 0 0.50202631463681879 0.87892870825713787 0 0.50627822638148745 0.8263979829520941 0 0.55899371797446828 0.85003102233514438 0 0.54782696902220018 0.79245182748204157 0 0.55899371797446828 0.85003102233514438 0 0.50627822638148745 0.8263979829520941 0 0.50945740445113552 0.75476055527778108 0 0.5 0.69999999999999996 0 0.55363780716230748 0.74348740161571747 0 0.84999999999965292 1 0 0.85170973911348691 0.93569607295217616 0 0.89898474358632463 0.95391965591118966 0 0.84999999999999987 0.29999999999999999 0 0.8517097391133297 0.2356960729520409 0 0.89898474358614167 0.25391965591104898 0 0.86956835336234861 0.571283299838105 0 0.82862096804812391 0.55037090955459045 0 0.86907294890112186 0.52008116128001669 0 0.49102375406324739 0.49123754822244059 0 0.53330375813596242 0.50827942741749099 0 0.47793794143994173 0.52940715638744962 0 0.57611405284611883 0.50165903596042916 0 0.61547661924074692 0.48539576058873962 0 0.62042975506801734 0.54295974692364424 0 0.71406021706547751 0.63292083137662503 0 0.67529834988829951 0.61613270668143583 0 0.71809016091162536 0.58185040402320831 0 0.65000000000104008 1 0 0.62065498684670595 0.95224934003983619 0 0.68015064798562208 0.95924320340003011 0 0.84999999999960507 0 0 0.899991664607802 0.045289349238254978 0 0.85491058998398861 0.060047533455626502 0 0.84999999999999987 0.69999999999999996 0 0.89999166460796554 0.74528934923809909 0 0.85491058998424563 0.76004753345552634 0 0.89999999999999991 0.29999999999999999 0 0.89898474358614167 0.25391965591104898 0 0.94999999999999996 0.29999999999999999 0 0.94999999999979179 1 0 0.89999999999958358 1 0 0.89898474358632463 0.95391965591118966 0 0.86411095495256451 0.42388805655111889 0 0.81308179852519835 0.39754945808726527 0 0.86844634540301924 0.38530937474099819 0 0.5 0.29999999999999999 0 0.49695729691142171 0.25014895411178018 0 0.54248833945060504 0.2520322959927106 0 0.86411095495256451 0.42388805655111889 0 0.81973119833356312 0.43505687159469048 0 0.81308179852519835 0.39754945808726527 0 0.67323294229744413 0.57556450033612505 0 0.71809016091162536 0.58185040402320831 0 0.67529834988829951 0.61613270668143583 0 0.6236733212988993 0.14864538214901801 0 0.68391457121233579 0.14440470121196541 0 0.64011864159029941 0.18789607982138171 0 0 0.050000000000207989 0 0.053064897599215843 0.048131547304697528 0 0.044310582753132287 0.101412518374475 0 0 0.94999999999979179 0 0.0443105827531413 0.89858748162559932 0 0.053064897599294662 0.95186845269532028 0 1 0.34999999999993492 0 1 0.39999999999978308 0 0.95871855522754235 0.40006508612975411 0 1 0.59999999999973963 0 1 0.64999999999986979 0 0.95867599106212187 0.60011091146651041 0 0 0.84999999999965292 0 0.065374659239661639 0.8551091961254178 0 0.0443105827531413 0.89858748162559932 0 0 0.15000000000062411 0 0.044310582753132287 0.101412518374475 0 0.065374659239632718 0.1448908038746782 0 0.16500388252850301 0.66612077714085194 0 0.1020579365089687 0.69352219419301997 0 0.1241190223511371 0.64391885572885044 0 0.14999999999970359 0 0 0.14618258501891079 0.062070108745602003 0 0.10266856499169109 0.044518360900210059 0 0.15000000000062411 1 0 0.10266856499240549 0.95548163909968886 0 0.14617343800780541 0.93808063414349496 0 0.7152569930854884 0.5237994455134295 0 0.67569444444444449 0.53500863336860327 0 0.69385896817107129 0.48377516041410151 0 0.6541250972820879 0.49999999999999989 0 0.62042975506801734 0.54295974692364424 0 0.61547661924074692 0.48539576058873962 0 0.94999999999999996 0.69999999999999996 0 0.94399509803918602 0.75600490196082126 0 0.89999166460796554 0.74528934923809909 0 0.94999999999986839 0 0 0.94399509803922566 0.056004901960802607 0 0.899991664607802 0.045289349238254978 0 0.6541250972820879 0.49999999999999989 0 0.69385896817107129 0.48377516041410151 0 0.67569444444444449 0.53500863336860327 0 0.82862096804812391 0.55037090955459045 0 0.81723410853263523 0.59419663659258926 0 0.77151014687832564 0.54436834383023036 0 0.7250000000005199 0.89375000000045834 0 0.66412543161245952 0.88015090885499059 0 0.68697391633157634 0.84450604838764298 0 0 0.94999999999979179 0 0 0.89999999999958358 0 0.0443105827531413 0.89858748162559932 0 0 0.10000000000041601 0 0 0.050000000000207989 0 0.044310582753132287 0.101412518374475 0 0.16500388252850301 0.66612077714085194 0 0.15332765547575641 0.71200081858233666 0 0.1020579365089687 0.69352219419301997 0 0.90299850604011456 0.79563452813489832 0 0.93677536231884972 0.85000000000000286 0 0.88088768115933802 0.84674609810493673 0 0.90299850604006393 0.09563452813493091 0 0.93677536231883773 0.14999999999999089 0 0.88088768115941807 0.14674609810479519 0 0.68391457121233579 0.14440470121196541 0 0.6865991819015953 0.189116534044597 0 0.64011864159029941 0.18789607982138171 0 0.085622222639554768 0.53333248912060549 0 0.1216098864341134 0.50637075089503902 0 0.1154888278694548 0.56733818459978413 0 0.21858834311891909 0.81980263716112767 0 0.22556077506376701 0.77837424984191617 0 0.26104540868854792 0.81401944968719064 0 0.81723410853263523 0.59419663659258926 0 0.77293540622714185 0.59448302402785813 0 0.77151014687832564 0.54436834383023036 0 0.1154888278694548 0.56733818459978413 0 0.1216098864341134 0.50637075089503902 0 0.14934928745814749 0.55042914607228977 0 0.1216098864341134 0.50637075089503902 0 0.068743045408989428 0.48853989837882689 0 0.113541300460994 0.46208784312094731 0 0.078358742472063481 0.43365249433908948 0 0.113541300460994 0.46208784312094731 0 0.068743045408989428 0.48853989837882689 0 0.83573492347052902 0.36590755630746369 0 0.81308179852519835 0.39754945808726527 0 0.78145581580700685 0.34881365920033602 0 0.57611405284611883 0.50165903596042916 0 0.62042975506801734 0.54295974692364424 0 0.57435499076887508 0.54267261987897775 0 0.86956835336234861 0.571283299838105 0 0.81723410853263523 0.59419663659258926 0 0.82862096804812391 0.55037090955459045 0 0.46666084890304671 0.57634471035397938 0 0.53245488764484505 0.55078124999999989 0 0.5166924242153631 0.59825134841919447 0 0.89999999999999991 0.69999999999999996 0 0.94999999999999996 0.69999999999999996 0 0.89999166460796554 0.74528934923809909 0 0.89999999999973679 0 0 0.94999999999986839 0 0 0.899991664607802 0.045289349238254978 0 0.84999999999960507 0 0 0.89999999999973679 0 0 0.899991664607802 0.045289349238254978 0 0.84999999999999987 0.69999999999999996 0 0.89999999999999991 0.69999999999999996 0 0.89999166460796554 0.74528934923809909 0 0.43545892161006339 0.61093128915313821 0 0.4089290844030305 0.58728915500154233 0 0.46666084890304671 0.57634471035397938 0 0.1650278706801647 0.38791388161335733 0 0.1117088112799664 0.38831403004970022 0 0.14223753364722069 0.3341983344262433 0 0.087545339447545459 0.35122518864182262 0 0.14223753364722069 0.3341983344262433 0 0.1117088112799664 0.38831403004970022 0 0.6916490518212759 0.75387992374886192 0 0.72501250972655151 0.74067302935308721 0 0.72500000000000064 0.7952620967744265 0 0.72501250972655151 0.74067302935308721 0 0.75841349681148107 0.75422312624214749 0 0.72500000000000064 0.7952620967744265 0 0.57412547362576272 0.58273804879550706 0 0.53245488764484505 0.55078124999999989 0 0.57435499076887508 0.54267261987897775 0 1 0.54999999999963112 0 0.95867599106212187 0.60011091146651041 0 0.93732437411268477 0.55911392101136159 0 1 0.44999999999963131 0 0.93814194660195893 0.44426664081746747 0 0.95871855522754235 0.40006508612975411 0 0.4089290844030305 0.58728915500154233 0 0.42644501560315817 0.54603747078095544 0 0.46666084890304671 0.57634471035397938 0 0.89999999999958358 1 0 0.84999999999965292 1 0 0.89898474358632463 0.95391965591118966 0 0.84999999999999987 0.29999999999999999 0 0.89898474358614167 0.25391965591104898 0 0.89999999999999991 0.29999999999999999 0 0.29999999999926641 0 0 0.32541448401678508 0.046215317981507749 0 0.27499999999933927 0.060310814194988557 0 0.30000000000124832 1 0 0.27609987656793722 0.94991445621608572 0 0.32544832635163229 0.95485394099568932 0 0.57412547362576272 0.58273804879550706 0 0.62042975506801734 0.54295974692364424 0 0.63065402604362242 0.59661356661633302 0 0.5 0.29999999999999999 0 0.54248833945060504 0.2520322959927106 0 0.54999999999999993 0.29999999999999999 0 0.67323294229744413 0.57556450033612505 0 0.62042975506801734 0.54295974692364424 0 0.67569444444444449 0.53500863336860327 0 0.6541250972820879 0.49999999999999989 0 0.67569444444444449 0.53500863336860327 0 0.62042975506801734 0.54295974692364424 0 1 0.14999999999961891 0 1 0.19999999999974799 0 0.95391631417672862 0.19584263333809451 0 1 0.84999999999982645 0 1 0.8999999999998336 0 0.95391631417670719 0.89584263333814784 0 1 0.7999999999998193 0 1 0.84999999999982645 0 0.95386563387742829 0.80414874155775029 0 1 0.099999999999753911 0 1 0.14999999999961891 0 0.95386563387744361 0.1041487415577465 0 0.4656888918609538 0.78493261229743638 0 0.50627822638148745 0.8263979829520941 0 0.45677673713123867 0.84253684404072415 0 0.6879972333610942 0.43038561374960838 0 0.72622533758026719 0.40265885511101601 0 0.73483647259922602 0.44789725365921768 0 0.67323294229744413 0.57556450033612505 0 0.67569444444444449 0.53500863336860327 0 0.71809016091162536 0.58185040402320831 0 0.7152569930854884 0.5237994455134295 0 0.71809016091162536 0.58185040402320831 0 0.67569444444444449 0.53500863336860327 0 0.65394964615507722 0.22666784374016369 0 0.59814117807200873 0.23398510860739519 0 0.64011864159029941 0.18789607982138171 0 0.55000000000173355 1 0 0.52122150208832174 0.94089974453840242 0 0.57382506491224949 0.9629411906298494 0 0.39801143831225599 0.16651381068160659 0 0.44288491854585582 0.14116182884956319 0 0.42905200079338551 0.19982395548231649 0 0.47357141910802508 0.1873585799078378 0 0.42905200079338551 0.19982395548231649 0 0.44288491854585582 0.14116182884956319 0 0.90594285160987287 0.4141265964174129 0 0.88594198078881503 0.46167788676578442 0 0.86411095495256451 0.42388805655111889 0 0.65507451745379841 0.92229208810758578 0 0.68015064798562208 0.95924320340003011 0 0.62065498684670595 0.95224934003983619 0 0.35312867752657662 0.084946736076730367 0 0.39591832466117061 0.056982757562006353 0 0.39823268594401579 0.1116623613130045 0 0.43698630808430822 0.080423614171545449 0 0.39823268594401579 0.1116623613130045 0 0.39591832466117061 0.056982757562006353 0 0.4367309254023824 0.92065556789053882 0 0.39641108128798319 0.94356127926187128 0 0.39767323751400468 0.89584229130535065 0 0.35752321586431363 0.9185439911803448 0 0.39767323751400468 0.89584229130535065 0 0.39641108128798319 0.94356127926187128 0 0.77354604466818633 0.40378688774472771 0 0.77972660463949339 0.45529290596363098 0 0.73483647259922602 0.44789725365921768 0 0.5499999999988151 0 0 0.57396793757665954 0.037011367187645222 0 0.52375890611712683 0.059318771819432882 0 0.64753070846764316 0.77332939069435502 0 0.60294066490120068 0.80851322453934582 0 0.59636844454254345 0.75937156204589151 0 0.49102375406324739 0.49123754822244059 0 0.48858720058566618 0.43964267759203868 0 0.53823865529665704 0.45873898050322898 0 0.28307294598219601 0.50789252727458634 0 0.29110487519241501 0.56588143995431495 0 0.25115337790845271 0.54719303014923271 0 0.79680861578988083 0.92656778056766709 0 0.81159157511211755 0.88795995483179491 0 0.85170973911348691 0.93569607295217616 0 0.79680861578956375 0.22656778056752541 0 0.81283102246527783 0.1881007222486438 0 0.8517097391133297 0.2356960729520409 0 0.57412547362576272 0.58273804879550706 0 0.57435499076887508 0.54267261987897775 0 0.62042975506801734 0.54295974692364424 0 0.93814194660195893 0.44426664081746747 0 0.88594198078881503 0.46167788676578442 0 0.90594285160987287 0.4141265964174129 0 0.7152569930854884 0.5237994455134295 0 0.73947346780852752 0.49062440112282169 0 0.77151014687832564 0.54436834383023036 0 0 0.7000000000006934 0 0.046634677244967337 0.671418230738282 0 0.049706944316475897 0.72477277076253799 0 0 0.30000000000124832 0 0.049706944316556423 0.27522722923869108 0 0.046389130980076937 0.32668781832131749 0 0.59814117807200873 0.23398510860739519 0 0.59443395090188023 0.18455690917515069 0 0.64011864159029941 0.18789607982138171 0 0.21858834311891909 0.81980263716112767 0 0.26104540868854792 0.81401944968719064 0 0.2401283238295133 0.85648409884788523 0 0.39536230704883951 0.84069429572832477 0 0.45677673713123867 0.84253684404072415 0 0.44003836461056539 0.88093474584252718 0 0.086179601630648681 0.64647209519980475 0 0.050069554451969707 0.61308520079857043 0 0.1024350934457823 0.60772393977513839 0 0.077693244765132896 0.56932317963405099 0 0.1024350934457823 0.60772393977513839 0 0.050069554451969707 0.61308520079857043 0 0.078358742472063481 0.43365249433908948 0 0.050583896093752537 0.38543522283434112 0 0.1117088112799664 0.38831403004970022 0 0.087545339447545459 0.35122518864182262 0 0.1117088112799664 0.38831403004970022 0 0.050583896093752537 0.38543522283434112 0 0.33403534827021109 0.84402799729020661 0 0.35642984951668422 0.80994399665655703 0 0.39536230704883951 0.84069429572832477 0 0.28307294598219601 0.50789252727458634 0 0.33190227185843768 0.52715113583864037 0 0.29110487519241501 0.56588143995431495 0 0.2236846579037573 0.67380363126050236 0 0.19068556247388771 0.71028988922845504 0 0.16500388252850301 0.66612077714085194 0 0.26104540868854792 0.81401944968719064 0 0.22556077506376701 0.77837424984191617 0 0.2792923945214143 0.77665808831789485 0 0.38244435121258652 0.51653317813019495 0 0.37272913873093971 0.56192925302619479 0 0.33190227185843768 0.52715113583864037 0 0.25195515620380449 0.25883339815888678 0 0.29132859388405002 0.27203693976649962 0 0.24432083401701241 0.3006253385567515 0 0.29348325746214782 0.31350119524708198 0 0.24432083401701241 0.3006253385567515 0 0.29132859388405002 0.27203693976649962 0 0 0.89999999999958358 0 0 0.84999999999965292 0 0.0443105827531413 0.89858748162559932 0 0 0.15000000000062411 0 0 0.10000000000041601 0 0.044310582753132287 0.101412518374475 0 0.59999999999999976 0.69999999999999996 0 0.59636844454254345 0.75937156204589151 0 0.55363780716230748 0.74348740161571747 0 0.1650278706801647 0.38791388161335733 0 0.22033343844674469 0.36963382230740238 0 0.191953871957803 0.42546416763755879 0 0.52289427570932567 0.3932284363388488 0 0.46655310992796922 0.39650496622958609 0 0.49077833859261139 0.35229981449445641 0 0.91696753777131557 0.497780560203536 0 0.88594198078881503 0.46167788676578442 0 0.93814194660195893 0.44426664081746747 0 0.24999999999941211 0 0 0.27499999999933927 0.060310814194988557 0 0.22668068146512929 0.045875643423131329 0 0.25000000000104028 1 0 0.22850979588452081 0.95594428570238643 0 0.27609987656793722 0.94991445621608572 0 0.77846603114747959 0.49850927265137401 0 0.77151014687832564 0.54436834383023036 0 0.73947346780852752 0.49062440112282169 0 0.27499999999933927 0.060310814194988557 0 0.27474541102162192 0.11822029332053539 0 0.24218496799700481 0.089025544070598317 0 0.27270076654418179 0.87751467830216623 0 0.29209212897034281 0.84715728365233667 0 0.30864387279288652 0.89906554525974958 0 0.3096713403101819 0.085471541595262421 0 0.27474541102162192 0.11822029332053539 0 0.27499999999933927 0.060310814194988557 0 0.17933913398461551 0.2350063570234002 0 0.18124454140915969 0.18790916706335251 0 0.224700362040408 0.22206622194729711 0 0.18269480424590959 0.75905448272264375 0 0.22556077506376701 0.77837424984191617 0 0.17777405986036951 0.81832336108265358 0 0.35864759629805099 0.87963482415279515 0 0.33403534827021109 0.84402799729020661 0 0.39536230704883951 0.84069429572832477 0 0.77354604466818633 0.40378688774472771 0 0.73483647259922602 0.44789725365921768 0 0.72622533758026719 0.40265885511101601 0 0.80185942888539485 0.77452061303608133 0 0.85491058998424563 0.76004753345552634 0 0.84725310900444062 0.80779732082917555 0 0.80185942888501827 0.074520613036224564 0 0.85491058998398861 0.060047533455626502 0 0.84725310900442086 0.10779732082922661 0 0.086179601630648681 0.64647209519980475 0 0.046634677244967337 0.671418230738282 0 0.050069554451969707 0.61308520079857043 0 0.087545339447545459 0.35122518864182262 0 0.050583896093752537 0.38543522283434112 0 0.046389130980076937 0.32668781832131749 0 0 0.75000000000034661 0 0.049706944316475897 0.72477277076253799 0 0.04408157711937423 0.7728941757575627 0 0 0.25000000000104028 0 0.044081577119474857 0.2271058242433576 0 0.049706944316556423 0.27522722923869108 0 0.52289427570932567 0.3932284363388488 0 0.56836770495988642 0.3523062350852913 0 0.57744073070774993 0.41535148636609359 0 0.6084546825910605 0.37989672713932537 0 0.57744073070774993 0.41535148636609359 0 0.56836770495988642 0.3523062350852913 0 0.61343887413683884 0.856862479058357 0 0.55899371797446828 0.85003102233514438 0 0.60294066490120068 0.80851322453934582 0 0.54782696902220018 0.79245182748204157 0 0.60294066490120068 0.80851322453934582 0 0.55899371797446828 0.85003102233514438 0 0.40326160981139969 0.73346192995102844 0 0.36622285152418499 0.69092437780804039 0 0.43323420005758778 0.6913544522562407 0 0.52289427570932567 0.3932284363388488 0 0.48858720058566618 0.43964267759203868 0 0.46655310992796922 0.39650496622958609 0 0.15720202157091859 0.60665697304410315 0 0.1154888278694548 0.56733818459978413 0 0.14934928745814749 0.55042914607228977 0 0.6879972333610942 0.43038561374960838 0 0.73483647259922602 0.44789725365921768 0 0.69385896817107129 0.48377516041410151 0 0.7250000000005199 0.89375000000045834 0 0.68987011941058407 0.92105047536677087 0 0.66412543161245952 0.88015090885499059 0 0.83573492347052902 0.36590755630746369 0 0.78145581580700685 0.34881365920033602 0 0.82500000000000062 0.33010209762754811 0 0.82862096804812391 0.55037090955459045 0 0.81441713509985358 0.51161854125224959 0 0.86907294890112186 0.52008116128001669 0 0.19670163708476801 0.31472518408333222 0 0.14223753364722069 0.3341983344262433 0 0.168349569971391 0.28054490850913671 0 0.50202631463681879 0.87892870825713787 0 0.45677673713123867 0.84253684404072415 0 0.50627822638148745 0.8263979829520941 0 0.099999999999814668 0 0 0.14999999999970359 0 0 0.10266856499169109 0.044518360900210059 0 0.15000000000062411 1 0 0.10000000000041601 1 0 0.10266856499240549 0.95548163909968886 0 0.67323294229744413 0.57556450033612505 0 0.63065402604362242 0.59661356661633302 0 0.62042975506801734 0.54295974692364424 0 0.083105206071467416 0.20007701332709979 0 0.13737030665753211 0.20313708640667491 0 0.095326043202144745 0.24554465089224409 0 0.083105206071452636 0.79992298667296435 0 0.090953281884486245 0.7564451946902494 0 0.1382744753146134 0.79650574229207483 0 0.50000000000205869 1 0 0.47135117303824892 0.95556877749289892 0 0.52122150208832174 0.94089974453840242 0 0.49999999999869432 0 0 0.52375890611712683 0.059318771819432882 0 0.47040171442036788 0.044141676406503738 0 0.4656888918609538 0.78493261229743638 0 0.45582236402875981 0.73896743678908217 0 0.50945740445113552 0.75476055527778108 0 0.5 0.69999999999999996 0 0.50945740445113552 0.75476055527778108 0 0.45582236402875981 0.73896743678908217 0 0.55306006949600994 0.20198184231352201 0 0.56202748619534593 0.15054058349222879 0 0.59443395090188023 0.18455690917515069 0 0.6236733212988993 0.14864538214901801 0 0.59443395090188023 0.18455690917515069 0 0.56202748619534593 0.15054058349222879 0 0.57412547362576272 0.58273804879550706 0 0.5498280205245758 0.6290146943450976 0 0.5166924242153631 0.59825134841919447 0 0.91696753777131557 0.497780560203536 0 0.93814194660195893 0.44426664081746747 0 0.96228564064454991 0.48206450662049471 0 0.15720202157091859 0.60665697304410315 0 0.16500388252850301 0.66612077714085194 0 0.1241190223511371 0.64391885572885044 0 0.44288491854585582 0.14116182884956319 0 0.47881186583059909 0.093591717165689425 0 0.48466639505193998 0.1421439844745814 0 1 0.54999999999963112 0 0.93732437411268477 0.55911392101136159 0 0.95631871884947484 0.51827533208233789 0 0.57724883562309992 0.92155686857100794 0 0.57382506491224949 0.9629411906298494 0 0.52122150208832174 0.94089974453840242 0 0.85170973911348691 0.93569607295217616 0 0.81159157511211755 0.88795995483179491 0 0.85600844944837662 0.88483418979512773 0 0.8517097391133297 0.2356960729520409 0 0.81283102246527783 0.1881007222486438 0 0.85600844944842547 0.1848341897950983 0 0.27866744612395528 0.38416094670951489 0 0.29124338931648802 0.43334555462578611 0 0.24049127783545701 0.41270748208749802 0 0.6084546825910605 0.37989672713932537 0 0.56836770495988642 0.3523062350852913 0 0.61959173890754571 0.33832250091341232 0 0.20050006573841939 0.53248514016039872 0 0.25115337790845271 0.54719303014923271 0 0.22549374774072969 0.58452645269293457 0 0.26573297623774761 0.59828298563722948 0 0.22549374774072969 0.58452645269293457 0 0.25115337790845271 0.54719303014923271 0 0.26104540868854792 0.81401944968719064 0 0.29209212897034281 0.84715728365233667 0 0.2401283238295133 0.85648409884788523 0 0.6236733212988993 0.14864538214901801 0 0.65290632656860115 0.11434202593454081 0 0.68391457121233579 0.14440470121196541 0 0.19901705110390991 0.9175543425573498 0 0.19741632902693801 0.86755867406447229 0 0.24536017905392571 0.90704567837671446 0 0.72500000000000064 0.7952620967744265 0 0.76901770135486491 0.84293557325473656 0 0.72863726579783861 0.85390518901155588 0 0.72500000000000064 0.7952620967744265 0 0.72863726579783861 0.85390518901155588 0 0.68697391633157634 0.84450604838764298 0 0.7250000000005199 0.89375000000045834 0 0.68697391633157634 0.84450604838764298 0 0.72863726579783861 0.85390518901155588 0 0.72525833953073282 0.1032114801687094 0 0.77144070960558853 0.14311854477243749 0 0.72634814642510737 0.16106886917518889 0 0.72525833953073282 0.1032114801687094 0 0.72634814642510737 0.16106886917518889 0 0.68391457121233579 0.14440470121196541 0 0.36622285152418499 0.69092437780804039 0 0.3977710372045391 0.65868194622830212 0 0.43323420005758778 0.6913544522562407 0 0 0.65000000000104008 0 0 0.60000000000138687 0 0.050069554451969707 0.61308520079857043 0 0 0.40000000000166441 0 0 0.35000000000145642 0 0.050583896093752537 0.38543522283434112 0 0.22033343844674469 0.36963382230740238 0 0.24049127783545701 0.41270748208749802 0 0.191953871957803 0.42546416763755879 0 0.5 0.29999999999999999 0 0.4604742573284204 0.27846934318264788 0 0.49695729691142171 0.25014895411178018 0 0.19741632902693801 0.86755867406447229 0 0.2401283238295133 0.85648409884788523 0 0.24536017905392571 0.90704567837671446 0 0 0.50000000000205869 0 0.068743045408989428 0.48853989837882689 0 0.044576108720083309 0.53509043209532614 0 0.15000000000062411 1 0 0.14617343800780541 0.93808063414349496 0 0.18474005699953849 0.96231585248064622 0 0.14999999999970359 0 0 0.184418230509967 0.038773194583122873 0 0.14618258501891079 0.062070108745602003 0 0.57667858002728545 0.078486105337742612 0 0.52375890611712683 0.059318771819432882 0 0.57396793757665954 0.037011367187645222 0 0.113541300460994 0.46208784312094731 0 0.078358742472063481 0.43365249433908948 0 0.13773355295499351 0.42497777642586831 0 0.77354604466818633 0.40378688774472771 0 0.78145581580700685 0.34881365920033602 0 0.81308179852519835 0.39754945808726527 0 0.38244435121258652 0.51653317813019495 0 0.33190227185843768 0.52715113583864037 0 0.35024835142131061 0.48654922671676981 0 0.64753070846764316 0.77332939069435502 0 0.65005442820240822 0.82644988530054031 0 0.60294066490120068 0.80851322453934582 0 0.15720202157091859 0.60665697304410315 0 0.1024350934457823 0.60772393977513839 0 0.1154888278694548 0.56733818459978413 0 0.90416666666660628 0.9041666666666166 0 0.85600844944837662 0.88483418979512773 0 0.88088768115933802 0.84674609810493673 0 0.90416666666668166 0.20416666666667119 0 0.85600844944842547 0.1848341897950983 0 0.88088768115941807 0.14674609810479519 0 0.078358742472063481 0.43365249433908948 0 0.1117088112799664 0.38831403004970022 0 0.13773355295499351 0.42497777642586831 0 0.38244435121258652 0.51653317813019495 0 0.3908716102680424 0.47010282357248828 0 0.43507373378304309 0.49699695397193322 0 0.90299850604011456 0.79563452813489832 0 0.95386563387742829 0.80414874155775029 0 0.93677536231884972 0.85000000000000286 0 0.90416666666660628 0.9041666666666166 0 0.93677536231884972 0.85000000000000286 0 0.95391631417670719 0.89584263333814784 0 0.90299850604006393 0.09563452813493091 0 0.95386563387744361 0.1041487415577465 0 0.93677536231883773 0.14999999999999089 0 0.90416666666668166 0.20416666666667119 0 0.93677536231883773 0.14999999999999089 0 0.95391631417672862 0.19584263333809451 0 0.39536230704883951 0.84069429572832477 0 0.44003836461056539 0.88093474584252718 0 0.39767323751400468 0.89584229130535065 0 0.51076801031701946 0.1202837388510348 0 0.52375890611712683 0.059318771819432882 0 0.54979595918804436 0.1060565713905809 0 0.57667858002728545 0.078486105337742612 0 0.54979595918804436 0.1060565713905809 0 0.52375890611712683 0.059318771819432882 0 0.57724883562309992 0.92155686857100794 0 0.52122150208832174 0.94089974453840242 0 0.54783390826260769 0.89287767010860219 0 0.50202631463681879 0.87892870825713787 0 0.54783390826260769 0.89287767010860219 0 0.52122150208832174 0.94089974453840242 0 0.087545339447545459 0.35122518864182262 0 0.093851963071650835 0.30582068233324772 0 0.14223753364722069 0.3341983344262433 0 0.54999999999999993 0.69999999999999996 0 0.59999999999999976 0.69999999999999996 0 0.55363780716230748 0.74348740161571747 0 0.083105206071452636 0.79992298667296435 0 0.1074251789111534 0.83564394292147814 0 0.065374659239661639 0.8551091961254178 0 0.083105206071467416 0.20007701332709979 0 0.065374659239632718 0.1448908038746782 0 0.106902708054812 0.16453234188234539 0 0.52289427570932567 0.3932284363388488 0 0.53823865529665704 0.45873898050322898 0 0.48858720058566618 0.43964267759203868 0 0.13737030665753211 0.20313708640667491 0 0.14377654328998779 0.2442024734791064 0 0.095326043202144745 0.24554465089224409 0 0.1382744753146134 0.79650574229207483 0 0.090953281884486245 0.7564451946902494 0 0.14335651144331049 0.75565258250209677 0 0.27270076654418179 0.87751467830216623 0 0.30864387279288652 0.89906554525974958 0 0.24536017905392571 0.90704567837671446 0 0.27609987656793722 0.94991445621608572 0 0.24536017905392571 0.90704567837671446 0 0.30864387279288652 0.89906554525974958 0 0.90299850604011456 0.79563452813489832 0 0.84725310900444062 0.80779732082917555 0 0.85491058998424563 0.76004753345552634 0 0.90299850604006393 0.09563452813493091 0 0.84725310900442086 0.10779732082922661 0 0.85491058998398861 0.060047533455626502 0 1 0.54999999999963112 0 1 0.59999999999973963 0 0.95867599106212187 0.60011091146651041 0 1 0.39999999999978308 0 1 0.44999999999963131 0 0.95871855522754235 0.40006508612975411 0 0.28040350263641872 0.23054717217092141 0 0.25195515620380449 0.25883339815888678 0 0.224700362040408 0.22206622194729711 0 0.84999999999999987 0.29999999999999999 0 0.87430060258887643 0.34056085888204451 0 0.82500000000000062 0.33010209762754811 0 0.84999999999999987 0.69999999999999996 0 0.82457059160610424 0.66831947184359608 0 0.87712158428786946 0.65709029563313581 0 0.86956835336234861 0.571283299838105 0 0.87159648282691515 0.61285406320581504 0 0.81723410853263523 0.59419663659258926 0 0.43698630808430822 0.080423614171545449 0 0.47881186583059909 0.093591717165689425 0 0.44288491854585582 0.14116182884956319 0 1 0.44999999999963131 0 0.96228564064454991 0.48206450662049471 0 0.93814194660195893 0.44426664081746747 0 0.35752321586431363 0.9185439911803448 0 0.30864387279288652 0.89906554525974958 0 0.35864759629805099 0.87963482415279515 0 0.29124338931648802 0.43334555462578611 0 0.25982634974572738 0.46097799597715272 0 0.24049127783545701 0.41270748208749802 0 0.51076801031701946 0.1202837388510348 0 0.56202748619534593 0.15054058349222879 0 0.51729576145820033 0.1683240575987815 0 0.55306006949600994 0.20198184231352201 0 0.51729576145820033 0.1683240575987815 0 0.56202748619534593 0.15054058349222879 0 0.26429849586623999 0.19346700179430079 0 0.28040350263641872 0.23054717217092141 0 0.224700362040408 0.22206622194729711 0 0.51076801031701946 0.1202837388510348 0 0.48466639505193998 0.1421439844745814 0 0.47881186583059909 0.093591717165689425 0 0.2185883431182947 0.18019736283949719 0 0.26429849586623999 0.19346700179430079 0 0.224700362040408 0.22206622194729711 0 0.18269480424590959 0.75905448272264375 0 0.2248999640082178 0.72584299459689172 0 0.22556077506376701 0.77837424984191617 0 0.51076801031701946 0.1202837388510348 0 0.47881186583059909 0.093591717165689425 0 0.52375890611712683 0.059318771819432882 0 0.50202631463681879 0.87892870825713787 0 0.52122150208832174 0.94089974453840242 0 0.47401147028110507 0.91529957330468115 0 0 0.84999999999965292 0 0.038512288486097702 0.8155852717111195 0 0.065374659239661639 0.8551091961254178 0 0 0.15000000000062411 0 0.065374659239632718 0.1448908038746782 0 0.038512288486115001 0.1844147282893184 0 0.2185883431182947 0.18019736283949719 0 0.224700362040408 0.22206622194729711 0 0.18124454140915969 0.18790916706335251 0 0.21858834311891909 0.81980263716112767 0 0.17777405986036951 0.81832336108265358 0 0.22556077506376701 0.77837424984191617 0 0.1215415378367805 0.72939333680004137 0 0.1020579365089687 0.69352219419301997 0 0.15332765547575641 0.71200081858233666 0 0.49695729691142171 0.25014895411178018 0 0.50760557329222289 0.20700468884612061 0 0.54248833945060504 0.2520322959927106 0 0.15720202157091859 0.60665697304410315 0 0.14934928745814749 0.55042914607228977 0 0.18381867841758909 0.57774125163628387 0 0.90416666666660628 0.9041666666666166 0 0.85170973911348691 0.93569607295217616 0 0.85600844944837662 0.88483418979512773 0 0.90416666666668166 0.20416666666667119 0 0.8517097391133297 0.2356960729520409 0 0.85600844944842547 0.1848341897950983 0 0.17933913398461551 0.2350063570234002 0 0.13737030665753211 0.20313708640667491 0 0.18124454140915969 0.18790916706335251 0 0.18269480424590959 0.75905448272264375 0 0.17777405986036951 0.81832336108265358 0 0.1382744753146134 0.79650574229207483 0 0.1216098864341134 0.50637075089503902 0 0.15801167086041079 0.46008690540259539 0 0.16618607197337229 0.50652878253548905 0 0.50760557329222289 0.20700468884612061 0 0.55306006949600994 0.20198184231352201 0 0.54248833945060504 0.2520322959927106 0 0.75000000000034661 1 0 0.7000000000006934 1 0 0.7250000000005199 0.94981617647078953 0 0.69999999999999984 0.29999999999999999 0 0.72500000000000064 0.2498161764706 0 0.74999999999999989 0.29999999999999999 0 0.72525833953073282 0.1032114801687094 0 0.68391457121233579 0.14440470121196541 0 0.68330259535470161 0.10038702501083881 0 0.43249999999999988 0.43937499999999979 0 0.46655310992796922 0.39650496622958609 0 0.48858720058566618 0.43964267759203868 0 0.19901705110390991 0.9175543425573498 0 0.14617343800780541 0.93808063414349496 0 0.16206583317966519 0.89685560785156404 0 0.19922788606653311 0.085920220746880993 0 0.16141998738593399 0.10404039647458049 0 0.14618258501891079 0.062070108745602003 0 0.31378396441836959 0.70157213313026345 0 0.26439878998046262 0.7048065392091396 0 0.27820712747429932 0.65530134213254643 0 0.1216098864341134 0.50637075089503902 0 0.113541300460994 0.46208784312094731 0 0.15801167086041079 0.46008690540259539 0 0.6084546825910605 0.37989672713932537 0 0.65481233915350323 0.35652751921065562 0 0.63912439215427275 0.41063340167983359 0 0.19901705110390991 0.9175543425573498 0 0.18474005699953849 0.96231585248064622 0 0.14617343800780541 0.93808063414349496 0 0.19922788606653311 0.085920220746880993 0 0.14618258501891079 0.062070108745602003 0 0.184418230509967 0.038773194583122873 0 0.38244435121258652 0.51653317813019495 0 0.35024835142131061 0.48654922671676981 0 0.3908716102680424 0.47010282357248828 0 0.82709327591102189 0.14937141670914489 0 0.77144070960558853 0.14311854477243749 0 0.80076557130237269 0.1154587552654202 0 0.82709327591091286 0.84937141670920724 0 0.76901770135486491 0.84293557325473656 0 0.80041942726660109 0.81543261647703358 0 0.43698630808430822 0.080423614171545449 0 0.44288491854585582 0.14116182884956319 0 0.39823268594401579 0.1116623613130045 0 0.39801143831225599 0.16651381068160659 0 0.39823268594401579 0.1116623613130045 0 0.44288491854585582 0.14116182884956319 0 0.36575549820117997 0.31677992835137742 0 0.3786248352540974 0.27082301512024259 0 0.41914690343363781 0.30688979866601612 0 0.42377727103934271 0.25099357235810238 0 0.41914690343363781 0.30688979866601612 0 0.3786248352540974 0.27082301512024259 0 0.049706944316475897 0.72477277076253799 0 0.1020579365089687 0.69352219419301997 0 0.090953281884486245 0.7564451946902494 0 0.1215415378367805 0.72939333680004137 0 0.090953281884486245 0.7564451946902494 0 0.1020579365089687 0.69352219419301997 0 0.1247745017231483 0.27198077544791172 0 0.093851963071650835 0.30582068233324772 0 0.095326043202144745 0.24554465089224409 0 0.049706944316556423 0.27522722923869108 0 0.095326043202144745 0.24554465089224409 0 0.093851963071650835 0.30582068233324772 0 0.77354604466818633 0.40378688774472771 0 0.81973119833356312 0.43505687159469048 0 0.77972660463949339 0.45529290596363098 0 0.43249999999999988 0.43937499999999979 0 0.43507373378304309 0.49699695397193322 0 0.3908716102680424 0.47010282357248828 0 0.26573297623774761 0.59828298563722948 0 0.2459498854893499 0.63248470766216769 0 0.22549374774072969 0.58452645269293457 0 0.72500000000000064 0.7952620967744265 0 0.77094201086366854 0.79647480515688507 0 0.76901770135486491 0.84293557325473656 0 0.72525833953073282 0.1032114801687094 0 0.76878382444651716 0.097147941686331368 0 0.77144070960558853 0.14311854477243749 0 0.72500000000000064 0.7952620967744265 0 0.68697391633157634 0.84450604838764298 0 0.68024162096458085 0.79868546898116533 0 0.31378396441836959 0.70157213313026345 0 0.29904318922293632 0.74132814928635593 0 0.26439878998046262 0.7048065392091396 0 0.31378396441836959 0.70157213313026345 0 0.35415581127540569 0.73730480045900215 0 0.29904318922293632 0.74132814928635593 0 0.61343887413683884 0.856862479058357 0 0.65005442820240822 0.82644988530054031 0 0.66412543161245952 0.88015090885499059 0 0.68697391633157634 0.84450604838764298 0 0.66412543161245952 0.88015090885499059 0 0.65005442820240822 0.82644988530054031 0 0.083411279318375747 0.91030024466934134 0 0.065374659239661639 0.8551091961254178 0 0.10562472963403439 0.87143394428979881 0 0.083411279318303222 0.089699755330707398 0 0.1053400320299198 0.12877248826361379 0 0.065374659239632718 0.1448908038746782 0 0.55306006949600994 0.20198184231352201 0 0.59443395090188023 0.18455690917515069 0 0.59814117807200873 0.23398510860739519 0 0.84999999999999987 0.29999999999999999 0 0.89999999999999991 0.29999999999999999 0 0.87430060258887643 0.34056085888204451 0 0.84999999999999987 0.69999999999999996 0 0.87712158428786946 0.65709029563313581 0 0.89999999999999991 0.69999999999999996 0 0.34258405725730701 0.4444034294386992 0 0.3908716102680424 0.47010282357248828 0 0.35024835142131061 0.48654922671676981 0 0.26573297623774761 0.59828298563722948 0 0.31502927232353312 0.6134992213375432 0 0.27820712747429932 0.65530134213254643 0 0.91696753777131557 0.497780560203536 0 0.86907294890112186 0.52008116128001669 0 0.88594198078881503 0.46167788676578442 0 0.84723782639812573 0.48638347960178252 0 0.88594198078881503 0.46167788676578442 0 0.86907294890112186 0.52008116128001669 0 0.7152569930854884 0.5237994455134295 0 0.77151014687832564 0.54436834383023036 0 0.71809016091162536 0.58185040402320831 0 0.90416666666660628 0.9041666666666166 0 0.89898474358632463 0.95391965591118966 0 0.85170973911348691 0.93569607295217616 0 0.90416666666668166 0.20416666666667119 0 0.89898474358614167 0.25391965591104898 0 0.8517097391133297 0.2356960729520409 0 0.91750694127107502 0.36982372220068471 0 0.95780851984364423 0.34215720972155339 0 0.95871855522754235 0.40006508612975411 0 0.91750694127105259 0.63017627779935648 0 0.95867599106212187 0.60011091146651041 0 0.9578014258160763 0.65787212321113708 0 0.90299850604011456 0.79563452813489832 0 0.88088768115933802 0.84674609810493673 0 0.84725310900444062 0.80779732082917555 0 0.90299850604006393 0.09563452813493091 0 0.88088768115941807 0.14674609810479519 0 0.84725310900442086 0.10779732082922661 0 0.1216098864341134 0.50637075089503902 0 0.16618607197337229 0.50652878253548905 0 0.14934928745814749 0.55042914607228977 0 0.20050006573841939 0.53248514016039872 0 0.14934928745814749 0.55042914607228977 0 0.16618607197337229 0.50652878253548905 0 0.80185942888539485 0.77452061303608133 0 0.84725310900444062 0.80779732082917555 0 0.80041942726660109 0.81543261647703358 0 0.80185942888501827 0.074520613036224564 0 0.84725310900442086 0.10779732082922661 0 0.80076557130237269 0.1154587552654202 0 0.083105206071452636 0.79992298667296435 0 0.065374659239661639 0.8551091961254178 0 0.038512288486097702 0.8155852717111195 0 0.083105206071467416 0.20007701332709979 0 0.038512288486115001 0.1844147282893184 0 0.065374659239632718 0.1448908038746782 0 0.54782696902220018 0.79245182748204157 0 0.59636844454254345 0.75937156204589151 0 0.60294066490120068 0.80851322453934582 0 0.083411279318375747 0.91030024466934134 0 0.0443105827531413 0.89858748162559932 0 0.065374659239661639 0.8551091961254178 0 0.083411279318303222 0.089699755330707398 0 0.065374659239632718 0.1448908038746782 0 0.044310582753132287 0.101412518374475 0 0.84999999999965292 1 0 0.81486180804382891 0.96321394949790495 0 0.85170973911348691 0.93569607295217616 0 0.84999999999999987 0.29999999999999999 0 0.81486180804364938 0.26321394949780091 0 0.8517097391133297 0.2356960729520409 0 0.4656888918609538 0.78493261229743638 0 0.45677673713123867 0.84253684404072415 0 0.42609163930740518 0.80361684430568059 0 0.39536230704883951 0.84069429572832477 0 0.42609163930740518 0.80361684430568059 0 0.45677673713123867 0.84253684404072415 0 0.6236733212988993 0.14864538214901801 0 0.56202748619534593 0.15054058349222879 0 0.58516465772821369 0.11653801664834119 0 0.57412547362576272 0.58273804879550706 0 0.63065402604362242 0.59661356661633302 0 0.5991018319127801 0.62925360607495295 0 0.61343887413683884 0.856862479058357 0 0.5832743223239254 0.88483152652961872 0 0.55899371797446828 0.85003102233514438 0 0.50202631463681879 0.87892870825713787 0 0.55899371797446828 0.85003102233514438 0 0.54783390826260769 0.89287767010860219 0 0.51076801031701946 0.1202837388510348 0 0.54979595918804436 0.1060565713905809 0 0.56202748619534593 0.15054058349222879 0 0.55306006949600994 0.20198184231352201 0 0.59814117807200873 0.23398510860739519 0 0.54248833945060504 0.2520322959927106 0 0.83573492347052902 0.36590755630746369 0 0.82500000000000062 0.33010209762754811 0 0.87430060258887643 0.34056085888204451 0 0.83758014339878906 0.63222013025741819 0 0.87712158428786946 0.65709029563313581 0 0.82457059160610424 0.66831947184359608 0 0.49102375406324739 0.49123754822244059 0 0.53823865529665704 0.45873898050322898 0 0.53330375813596242 0.50827942741749099 0 0.52289427570932567 0.3932284363388488 0 0.57744073070774993 0.41535148636609359 0 0.53823865529665704 0.45873898050322898 0 0.4089290844030305 0.58728915500154233 0 0.37272913873093971 0.56192925302619479 0 0.42644501560315817 0.54603747078095544 0 0.49695729691142171 0.25014895411178018 0 0.4604742573284204 0.27846934318264788 0 0.46429753744194407 0.22870891180733599 0 0.90299850604011456 0.79563452813489832 0 0.85491058998424563 0.76004753345552634 0 0.89999166460796554 0.74528934923809909 0 0.90299850604006393 0.09563452813493091 0 0.85491058998398861 0.060047533455626502 0 0.899991664607802 0.045289349238254978 0 0.38244435121258652 0.51653317813019495 0 0.42644501560315817 0.54603747078095544 0 0.37272913873093971 0.56192925302619479 0 0.71406021706547751 0.63292083137662503 0 0.71809016091162536 0.58185040402320831 0 0.74994237037456724 0.62775548192980357 0 0.84723782639812573 0.48638347960178252 0 0.86907294890112186 0.52008116128001669 0 0.81441713509985358 0.51161854125224959 0 0.33122374654748771 0.57588941099433744 0 0.33190227185843768 0.52715113583864037 0 0.37272913873093971 0.56192925302619479 0 0.086179601630648681 0.64647209519980475 0 0.1241190223511371 0.64391885572885044 0 0.1020579365089687 0.69352219419301997 0 0.59999999999894682 0 0 0.64999999999907843 0 0 0.61940220174112337 0.047251958781050582 0 0.18269480424590959 0.75905448272264375 0 0.14335651144331049 0.75565258250209677 0 0.15332765547575641 0.71200081858233666 0 0.22549374774072969 0.58452645269293457 0 0.2459498854893499 0.63248470766216769 0 0.19914261668318661 0.62286739485272158 0 0.38244435121258652 0.51653317813019495 0 0.43507373378304309 0.49699695397193322 0 0.42644501560315817 0.54603747078095544 0 0.65000000000104008 1 0 0.60000000000138687 1 0 0.62065498684670595 0.95224934003983619 0 0.078358742472063481 0.43365249433908948 0 0.068743045408989428 0.48853989837882689 0 0.033550201249889847 0.46247875832467239 0 0.2236846579037573 0.67380363126050236 0 0.27820712747429932 0.65530134213254643 0 0.26439878998046262 0.7048065392091396 0 0.6879972333610942 0.43038561374960838 0 0.68128176404677243 0.38629093627004979 0 0.72622533758026719 0.40265885511101601 0 0.72525833953073282 0.1032114801687094 0 0.7010294155333181 0.056779085686491267 0 0.7527966693318906 0.053051678021508272 0 0.18269480424590959 0.75905448272264375 0 0.15332765547575641 0.71200081858233666 0 0.19068556247388771 0.71028988922845504 0 0.1216098864341134 0.50637075089503902 0 0.085622222639554768 0.53333248912060549 0 0.068743045408989428 0.48853989837882689 0 0.25676291524611189 0.7436741304886243 0 0.26439878998046262 0.7048065392091396 0 0.29904318922293632 0.74132814928635593 0 0.65481233915350323 0.35652751921065562 0 0.68128176404677243 0.38629093627004979 0 0.63912439215427275 0.41063340167983359 0 0.83573492347052902 0.36590755630746369 0 0.86844634540301924 0.38530937474099819 0 0.81308179852519835 0.39754945808726527 0 0.27270076654418179 0.87751467830216623 0 0.2401283238295133 0.85648409884788523 0 0.29209212897034281 0.84715728365233667 0 0.84999999999999987 0.69999999999999996 0 0.85491058998424563 0.76004753345552634 0 0.81864958914779962 0.73589050177899629 0 0.84999999999960507 0 0 0.85491058998398861 0.060047533455626502 0 0.81864958914740749 0.035890501779055867 0 0.18381867841758909 0.57774125163628387 0 0.19914261668318661 0.62286739485272158 0 0.15720202157091859 0.60665697304410315 0 0.22549374774072969 0.58452645269293457 0 0.19914261668318661 0.62286739485272158 0 0.18381867841758909 0.57774125163628387 0 0.79680861578988083 0.92656778056766709 0 0.85170973911348691 0.93569607295217616 0 0.81486180804382891 0.96321394949790495 0 0.79680861578956375 0.22656778056752541 0 0.8517097391133297 0.2356960729520409 0 0.81486180804364938 0.26321394949780091 0 0.20050006573841939 0.53248514016039872 0 0.23975172658309729 0.49475499200540818 0 0.25115337790845271 0.54719303014923271 0 0.28307294598219601 0.50789252727458634 0 0.25115337790845271 0.54719303014923271 0 0.23975172658309729 0.49475499200540818 0 0.20050006573841939 0.53248514016039872 0 0.18381867841758909 0.57774125163628387 0 0.14934928745814749 0.55042914607228977 0 0.19922788606653311 0.085920220746880993 0 0.22985637510995899 0.1298347970200906 0 0.18652628422869419 0.14162325200928061 0 0.33758650185219202 0.23837101504325639 0 0.38831533174504851 0.2189834941785925 0 0.3786248352540974 0.27082301512024259 0 0.42377727103934271 0.25099357235810238 0 0.3786248352540974 0.27082301512024259 0 0.38831533174504851 0.2189834941785925 0 0.19922788606653311 0.085920220746880993 0 0.18652628422869419 0.14162325200928061 0 0.16141998738593399 0.10404039647458049 0 0.54782696902220018 0.79245182748204157 0 0.55363780716230748 0.74348740161571747 0 0.59636844454254345 0.75937156204589151 0 0.82709327591091286 0.84937141670920724 0 0.88088768115933802 0.84674609810493673 0 0.85600844944837662 0.88483418979512773 0 0.82709327591102189 0.14937141670914489 0 0.88088768115941807 0.14674609810479519 0 0.85600844944842547 0.1848341897950983 0 0.27866744612395528 0.38416094670951489 0 0.22033343844674469 0.36963382230740238 0 0.25966125648670141 0.34351016742083729 0 0 0.50000000000205869 0 0.033550201249889847 0.46247875832467239 0 0.068743045408989428 0.48853989837882689 0 0.31378396441836959 0.70157213313026345 0 0.36622285152418499 0.69092437780804039 0 0.35415581127540569 0.73730480045900215 0 0.77293540622714185 0.59448302402785813 0 0.71809016091162536 0.58185040402320831 0 0.77151014687832564 0.54436834383023036 0 0.7152569930854884 0.5237994455134295 0 0.69385896817107129 0.48377516041410151 0 0.73947346780852752 0.49062440112282169 0 0.15801167086041079 0.46008690540259539 0 0.191953871957803 0.42546416763755879 0 0.19604738184454831 0.47787523520405789 0 0.57667858002728545 0.078486105337742612 0 0.61940220174112337 0.047251958781050582 0 0.61956000905586006 0.1043312481793135 0 0.65408113592120842 0.073941773121567966 0 0.61956000905586006 0.1043312481793135 0 0.61940220174112337 0.047251958781050582 0 0 0.55000000000173355 0 0 0.50000000000205869 0 0.044576108720083309 0.53509043209532614 0 0.65507451745379841 0.92229208810758578 0 0.62065498684670595 0.95224934003983619 0 0.61885627562261258 0.90282959257498208 0 0.57724883562309992 0.92155686857100794 0 0.61885627562261258 0.90282959257498208 0 0.62065498684670595 0.95224934003983619 0 0.91750694127107502 0.36982372220068471 0 0.86844634540301924 0.38530937474099819 0 0.87430060258887643 0.34056085888204451 0 0.91750694127105259 0.63017627779935648 0 0.87712158428786946 0.65709029563313581 0 0.87159648282691515 0.61285406320581504 0 0.33123028043633618 0.77629643437932982 0 0.29904318922293632 0.74132814928635593 0 0.35415581127540569 0.73730480045900215 0 0.86411095495256451 0.42388805655111889 0 0.84925632466077294 0.45359738909549091 0 0.81973119833356312 0.43505687159469048 0 0.43846182030517877 0.64845797726506715 0 0.47913475093885149 0.66010775372412711 0 0.43323420005758778 0.6913544522562407 0 0.18269480424590959 0.75905448272264375 0 0.19068556247388771 0.71028988922845504 0 0.2248999640082178 0.72584299459689172 0 0.39536230704883951 0.84069429572832477 0 0.38586766253264881 0.78219501014812498 0 0.42609163930740518 0.80361684430568059 0 0.59999999999999976 0.69999999999999996 0 0.63221990677827677 0.73442891067859706 0 0.59636844454254345 0.75937156204589151 0 0.27866744612395528 0.38416094670951489 0 0.24049127783545701 0.41270748208749802 0 0.22033343844674469 0.36963382230740238 0 0.82709327591091286 0.84937141670920724 0 0.84725310900444062 0.80779732082917555 0 0.88088768115933802 0.84674609810493673 0 0.82709327591102189 0.14937141670914489 0 0.84725310900442086 0.10779732082922661 0 0.88088768115941807 0.14674609810479519 0 0.1650278706801647 0.38791388161335733 0 0.18434624290945251 0.35208838264196463 0 0.22033343844674469 0.36963382230740238 0 0.4409427642593301 0.35743108089689513 0 0.49077833859261139 0.35229981449445641 0 0.46655310992796922 0.39650496622958609 0 0.80185942888539485 0.77452061303608133 0 0.81864958914779962 0.73589050177899629 0 0.85491058998424563 0.76004753345552634 0 0.80185942888501827 0.074520613036224564 0 0.81864958914740749 0.035890501779055867 0 0.85491058998398861 0.060047533455626502 0 0.29999999999926641 0 0 0.34999999999912063 0 0 0.32541448401678508 0.046215317981507749 0 0.35000000000145642 1 0 0.30000000000124832 1 0 0.32544832635163229 0.95485394099568932 0 0.4656888918609538 0.78493261229743638 0 0.50731287292894423 0.78963574450233831 0 0.50627822638148745 0.8263979829520941 0 0.2185883431182947 0.18019736283949719 0 0.25557216766470708 0.15874861286892261 0 0.26429849586623999 0.19346700179430079 0 1 0.29999999999999999 0 1 0.34999999999993492 0 0.95780851984364423 0.34215720972155339 0 1 0.29999999999999999 0 0.95780851984364423 0.34215720972155339 0 0.94999999999999996 0.29999999999999999 0 1 0.69999999999999996 0 0.94999999999999996 0.69999999999999996 0 0.9578014258160763 0.65787212321113708 0 1 0.69999999999999996 0 0.9578014258160763 0.65787212321113708 0 1 0.64999999999986979 0 0.91750694127107502 0.36982372220068471 0 0.90594285160987287 0.4141265964174129 0 0.86844634540301924 0.38530937474099819 0 0.91750694127105259 0.63017627779935648 0 0.87159648282691515 0.61285406320581504 0 0.91143117093204207 0.58709913730335972 0 0.74999999999999989 0.69999999999999996 0 0.7750489929959945 0.66593931409600093 0 0.79999999999999982 0.69999999999999996 0 0.74999999999999989 0.29999999999999999 0 0.79999999999999982 0.29999999999999999 0 0.78145581580700685 0.34881365920033602 0 0.54999999999999993 0.69999999999999996 0 0.57484956128872922 0.66573805030881994 0 0.59999999999999976 0.69999999999999996 0 0.90299850604011456 0.79563452813489832 0 0.94399509803918602 0.75600490196082126 0 0.95386563387742829 0.80414874155775029 0 0.90416666666660628 0.9041666666666166 0 0.95391631417670719 0.89584263333814784 0 0.94399509803919068 0.9439950980391687 0 0.90299850604006393 0.09563452813493091 0 0.94399509803922566 0.056004901960802607 0 0.95386563387744361 0.1041487415577465 0 0.90416666666668166 0.20416666666667119 0 0.95391631417672862 0.19584263333809451 0 0.94399509803921056 0.24399509803922639 0 0.22278230690790279 0.44824268025881547 0 0.19604738184454831 0.47787523520405789 0 0.191953871957803 0.42546416763755879 0 0.90299850604011456 0.79563452813489832 0 0.89999166460796554 0.74528934923809909 0 0.94399509803918602 0.75600490196082126 0 0.90299850604006393 0.09563452813493091 0 0.899991664607802 0.045289349238254978 0 0.94399509803922566 0.056004901960802607 0 0.49102375406324739 0.49123754822244059 0 0.47793794143994173 0.52940715638744962 0 0.43507373378304309 0.49699695397193322 0 0.90416666666660628 0.9041666666666166 0 0.94399509803919068 0.9439950980391687 0 0.89898474358632463 0.95391965591118966 0 0.90416666666668166 0.20416666666667119 0 0.94399509803921056 0.24399509803922639 0 0.89898474358614167 0.25391965591104898 0 0.65394964615507722 0.22666784374016369 0 0.62657463266645097 0.26524202571255862 0 0.59814117807200873 0.23398510860739519 0 0.6084546825910605 0.37989672713932537 0 0.63912439215427275 0.41063340167983359 0 0.57744073070774993 0.41535148636609359 0 0.61209567303293111 0.44669033081290321 0 0.57744073070774993 0.41535148636609359 0 0.63912439215427275 0.41063340167983359 0 0.25676291524611189 0.7436741304886243 0 0.22556077506376701 0.77837424984191617 0 0.2248999640082178 0.72584299459689172 0 0.61343887413683884 0.856862479058357 0 0.60294066490120068 0.80851322453934582 0 0.65005442820240822 0.82644988530054031 0 0.64999999999907843 0 0 0.66369801598854572 0.036327466368102787 0 0.61940220174112337 0.047251958781050582 0 0.40326160981139969 0.73346192995102844 0 0.38586766253264881 0.78219501014812498 0 0.35415581127540569 0.73730480045900215 0 0.33123028043633618 0.77629643437932982 0 0.35415581127540569 0.73730480045900215 0 0.38586766253264881 0.78219501014812498 0 0.26573297623774761 0.59828298563722948 0 0.29110487519241501 0.56588143995431495 0 0.31502927232353312 0.6134992213375432 0 0.77846603114747959 0.49850927265137401 0 0.81441713509985358 0.51161854125224959 0 0.77151014687832564 0.54436834383023036 0 0.82862096804812391 0.55037090955459045 0 0.77151014687832564 0.54436834383023036 0 0.81441713509985358 0.51161854125224959 0 0.50000000000205869 1 0 0.45000000000187229 1 0 0.47135117303824892 0.95556877749289892 0 0.44999999999882923 0 0 0.49999999999869432 0 0 0.47040171442036788 0.044141676406503738 0 0 0.7000000000006934 0 0 0.65000000000104008 0 0.046634677244967337 0.671418230738282 0 0 0.35000000000145642 0 0 0.30000000000124832 0 0.046389130980076937 0.32668781832131749 0 0.31378396441836959 0.70157213313026345 0 0.27820712747429932 0.65530134213254643 0 0.32263089806001177 0.66003674931826484 0 0.33122374654748771 0.57588941099433744 0 0.31502927232353312 0.6134992213375432 0 0.29110487519241501 0.56588143995431495 0 0.26573297623774761 0.59828298563722948 0 0.27820712747429932 0.65530134213254643 0 0.2459498854893499 0.63248470766216769 0 0.14474682429600511 0.85524784522713515 0 0.16206583317966519 0.89685560785156404 0 0.1241151115713819 0.9045666525468371 0 0.14332333627550789 0.14578431753966009 0 0.12372429750337779 0.095814237875728972 0 0.16141998738593399 0.10404039647458049 0 0.64753070846764316 0.77332939069435502 0 0.59636844454254345 0.75937156204589151 0 0.63221990677827677 0.73442891067859706 0 0.14474682429600511 0.85524784522713515 0 0.1241151115713819 0.9045666525468371 0 0.10562472963403439 0.87143394428979881 0 0.14332333627550789 0.14578431753966009 0 0.1053400320299198 0.12877248826361379 0 0.12372429750337779 0.095814237875728972 0 0.77354604466818633 0.40378688774472771 0 0.81308179852519835 0.39754945808726527 0 0.81973119833356312 0.43505687159469048 0 0.54782696902220018 0.79245182748204157 0 0.50945740445113552 0.75476055527778108 0 0.55363780716230748 0.74348740161571747 0 0.2236846579037573 0.67380363126050236 0 0.2459498854893499 0.63248470766216769 0 0.27820712747429932 0.65530134213254643 0 0.77293540622714185 0.59448302402785813 0 0.74994237037456724 0.62775548192980357 0 0.71809016091162536 0.58185040402320831 0 0 0.79999999999999982 0 0 0.75000000000034661 0 0.04408157711937423 0.7728941757575627 0 0 0.25000000000104028 0 0 0.20000000000083221 0 0.044081577119474857 0.2271058242433576 0 0.19999999999955789 0 0 0.24999999999941211 0 0 0.22668068146512929 0.045875643423131329 0 0.25000000000104028 1 0 0.20000000000083221 1 0 0.22850979588452081 0.95594428570238643 0 0.47357141910802508 0.1873585799078378 0 0.44288491854585582 0.14116182884956319 0 0.48466639505193998 0.1421439844745814 0 0.59999999999999976 0.29999999999999999 0 0.5794309697024993 0.27124795968204829 0 0.62657463266645097 0.26524202571255862 0 0.43249999999999988 0.43937499999999979 0 0.42161023666869668 0.39493916313643851 0 0.46655310992796922 0.39650496622958609 0 0.31068898841644388 0.47541502461811092 0 0.33190227185843768 0.52715113583864037 0 0.28307294598219601 0.50789252727458634 0 0.35024835142131061 0.48654922671676981 0 0.33190227185843768 0.52715113583864037 0 0.31068898841644388 0.47541502461811092 0 0.35864735590330371 0.63903383440414463 0 0.36622285152418499 0.69092437780804039 0 0.32263089806001177 0.66003674931826484 0 0.31378396441836959 0.70157213313026345 0 0.32263089806001177 0.66003674931826484 0 0.36622285152418499 0.69092437780804039 0 0.86956835336234861 0.571283299838105 0 0.90900154012161016 0.53607784105648792 0 0.91143117093204207 0.58709913730335972 0 0.6499999999999998 0.29999999999999999 0 0.65481233915350323 0.35652751921065562 0 0.61959173890754571 0.33832250091341232 0 0.4409427642593301 0.35743108089689513 0 0.46226845272279993 0.31901800744800313 0 0.49077833859261139 0.35229981449445641 0 0.5 0.29999999999999999 0 0.49077833859261139 0.35229981449445641 0 0.46226845272279993 0.31901800744800313 0 0.14999999999970359 0 0 0.19999999999955789 0 0 0.184418230509967 0.038773194583122873 0 0.20000000000083221 1 0 0.15000000000062411 1 0 0.18474005699953849 0.96231585248064622 0 1 0.49999999999950101 0 1 0.54999999999963112 0 0.95631871884947484 0.51827533208233789 0 0.38586766253264881 0.78219501014812498 0 0.42676259796334498 0.76772545931379299 0 0.42609163930740518 0.80361684430568059 0 0.20050006573841939 0.53248514016039872 0 0.22549374774072969 0.58452645269293457 0 0.18381867841758909 0.57774125163628387 0 0.065374659239661639 0.8551091961254178 0 0.1074251789111534 0.83564394292147814 0 0.10562472963403439 0.87143394428979881 0 0.065374659239632718 0.1448908038746782 0 0.1053400320299198 0.12877248826361379 0 0.106902708054812 0.16453234188234539 0 0.1650278706801647 0.38791388161335733 0 0.14223753364722069 0.3341983344262433 0 0.18434624290945251 0.35208838264196463 0 0.43249999999999988 0.43937499999999979 0 0.46111841286828259 0.46690301029591341 0 0.43507373378304309 0.49699695397193322 0 0.83758014339878906 0.63222013025741819 0 0.81723410853263523 0.59419663659258926 0 0.87159648282691515 0.61285406320581504 0 0.19670163708476801 0.31472518408333222 0 0.18434624290945251 0.35208838264196463 0 0.14223753364722069 0.3341983344262433 0 0.75000000000034661 1 0 0.7250000000005199 0.94981617647078953 0 0.770759834363826 0.95919399014344442 0 0.74999999999999989 0.29999999999999999 0 0.72500000000000064 0.2498161764706 0 0.77075983436335049 0.25919399014334171 0 0.69999999999999984 0.29999999999999999 0 0.67933712972090698 0.25920070958121938 0 0.72500000000000064 0.2498161764706 0 0.57611405284611883 0.50165903596042916 0 0.53330375813596242 0.50827942741749099 0 0.53823865529665704 0.45873898050322898 0 0.6499999999999998 0.29999999999999999 0 0.68887083591306764 0.33632058575757479 0 0.65481233915350323 0.35652751921065562 0 0.27866744612395528 0.38416094670951489 0 0.33277555741076909 0.36432196682010132 0 0.31778888742534622 0.40581751814196781 0 0.49102375406324739 0.49123754822244059 0 0.43507373378304309 0.49699695397193322 0 0.46111841286828259 0.46690301029591341 0 0.94999999999999996 0.69999999999999996 0 0.97166519676947294 0.73337114490064459 0 0.94399509803918602 0.75600490196082126 0 0.94999999999986839 0 0 0.97166519676946894 0.033371144900598393 0 0.94399509803922566 0.056004901960802607 0 0.94999999999999996 0.29999999999999999 0 0.94399509803921056 0.24399509803922639 0 0.97166519676951801 0.26662885509932011 0 0.94999999999979179 1 0 0.94399509803919068 0.9439950980391687 0 0.97166519676946206 0.96662885509935492 0 0.34258405725730701 0.4444034294386992 0 0.29124338931648802 0.43334555462578611 0 0.31778888742534622 0.40581751814196781 0 0.27866744612395528 0.38416094670951489 0 0.31778888742534622 0.40581751814196781 0 0.29124338931648802 0.43334555462578611 0 0.36575549820117997 0.31677992835137742 0 0.33277555741076909 0.36432196682010132 0 0.32752639306529541 0.32610012995269699 0 0.35752321586431363 0.9185439911803448 0 0.32544832635163229 0.95485394099568932 0 0.30864387279288652 0.89906554525974958 0 0.27609987656793722 0.94991445621608572 0 0.30864387279288652 0.89906554525974958 0 0.32544832635163229 0.95485394099568932 0 0.33123028043633618 0.77629643437932982 0 0.30857225866488791 0.81101973481716805 0 0.2792923945214143 0.77665808831789485 0 0.33758650185219202 0.23837101504325639 0 0.29132859388405002 0.27203693976649962 0 0.28040350263641872 0.23054717217092141 0 0.4409427642593301 0.35743108089689513 0 0.41914690343363781 0.30688979866601612 0 0.46226845272279993 0.31901800744800313 0 0.14332333627550789 0.14578431753966009 0 0.13737030665753211 0.20313708640667491 0 0.106902708054812 0.16453234188234539 0 0.083105206071467416 0.20007701332709979 0 0.106902708054812 0.16453234188234539 0 0.13737030665753211 0.20313708640667491 0 0.083105206071452636 0.79992298667296435 0 0.1382744753146134 0.79650574229207483 0 0.1074251789111534 0.83564394292147814 0 0.14474682429600511 0.85524784522713515 0 0.1074251789111534 0.83564394292147814 0 0.1382744753146134 0.79650574229207483 0 0.65408113592120842 0.073941773121567966 0 0.7010294155333181 0.056779085686491267 0 0.68330259535470161 0.10038702501083881 0 0.72525833953073282 0.1032114801687094 0 0.68330259535470161 0.10038702501083881 0 0.7010294155333181 0.056779085686491267 0 0.049706944316475897 0.72477277076253799 0 0.046634677244967337 0.671418230738282 0 0.1020579365089687 0.69352219419301997 0 0.086179601630648681 0.64647209519980475 0 0.1020579365089687 0.69352219419301997 0 0.046634677244967337 0.671418230738282 0 0.087545339447545459 0.35122518864182262 0 0.046389130980076937 0.32668781832131749 0 0.093851963071650835 0.30582068233324772 0 0.049706944316556423 0.27522722923869108 0 0.093851963071650835 0.30582068233324772 0 0.046389130980076937 0.32668781832131749 0 0.82709327591091286 0.84937141670920724 0 0.80041942726660109 0.81543261647703358 0 0.84725310900444062 0.80779732082917555 0 0.82709327591102189 0.14937141670914489 0 0.80076557130237269 0.1154587552654202 0 0.84725310900442086 0.10779732082922661 0 0.17933913398461551 0.2350063570234002 0 0.14377654328998779 0.2442024734791064 0 0.13737030665753211 0.20313708640667491 0 0.18269480424590959 0.75905448272264375 0 0.1382744753146134 0.79650574229207483 0 0.14335651144331049 0.75565258250209677 0 0.33758650185219202 0.23837101504325639 0 0.3786248352540974 0.27082301512024259 0 0.33402499257867951 0.28911035184473982 0 0.14332333627550789 0.14578431753966009 0 0.18124454140915969 0.18790916706335251 0 0.13737030665753211 0.20313708640667491 0 0.14474682429600511 0.85524784522713515 0 0.1382744753146134 0.79650574229207483 0 0.17777405986036951 0.81832336108265358 0 0.5 0.29999999999999999 0 0.52752007115234678 0.33170632466418198 0 0.49077833859261139 0.35229981449445641 0 0.27866744612395528 0.38416094670951489 0 0.29644548887253103 0.34914008784168082 0 0.33277555741076909 0.36432196682010132 0 0 0.84999999999965292 0 0 0.79999999999999982 0 0.038512288486097702 0.8155852717111195 0 0 0.20000000000083221 0 0 0.15000000000062411 0 0.038512288486115001 0.1844147282893184 0 0.40326160981139969 0.73346192995102844 0 0.35415581127540569 0.73730480045900215 0 0.36622285152418499 0.69092437780804039 0 0.91696753777131557 0.497780560203536 0 0.96228564064454991 0.48206450662049471 0 0.95631871884947484 0.51827533208233789 0 0.33758650185219202 0.23837101504325639 0 0.31255190597181792 0.19850845631528771 0 0.3572130504031617 0.1874703368446563 0 0.59814117807200873 0.23398510860739519 0 0.62657463266645097 0.26524202571255862 0 0.5794309697024993 0.27124795968204829 0 0.34258405725730701 0.4444034294386992 0 0.31068898841644388 0.47541502461811092 0 0.29124338931648802 0.43334555462578611 0 0.38083244760691543 0.38531983672244652 0 0.35221190152536241 0.40457127605439203 0 0.33277555741076909 0.36432196682010132 0 0.083411279318375747 0.91030024466934134 0 0.10266856499240549 0.95548163909968886 0 0.053064897599294662 0.95186845269532028 0 0.083411279318303222 0.089699755330707398 0 0.053064897599215843 0.048131547304697528 0 0.10266856499169109 0.044518360900210059 0 0.42377727103934271 0.25099357235810238 0 0.4604742573284204 0.27846934318264788 0 0.41914690343363781 0.30688979866601612 0 0.28307294598219601 0.50789252727458634 0 0.25982634974572738 0.46097799597715272 0 0.31068898841644388 0.47541502461811092 0 0.29348325746214782 0.31350119524708198 0 0.29132859388405002 0.27203693976649962 0 0.33402499257867951 0.28911035184473982 0 0.35312867752657662 0.084946736076730367 0 0.39823268594401579 0.1116623613130045 0 0.36246644853392812 0.1399454205365751 0 0.7000000000006934 1 0 0.68015064798562208 0.95924320340003011 0 0.7250000000005199 0.94981617647078953 0 0.42377727103934271 0.25099357235810238 0 0.38831533174504851 0.2189834941785925 0 0.42905200079338551 0.19982395548231649 0 0.53823865529665704 0.45873898050322898 0 0.57744073070774993 0.41535148636609359 0 0.57975577671020095 0.46172033326338591 0 0.33758650185219202 0.23837101504325639 0 0.3572130504031617 0.1874703368446563 0 0.38831533174504851 0.2189834941785925 0 0.29124338931648802 0.43334555462578611 0 0.31068898841644388 0.47541502461811092 0 0.25982634974572738 0.46097799597715272 0 0.6084546825910605 0.37989672713932537 0 0.61959173890754571 0.33832250091341232 0 0.65481233915350323 0.35652751921065562 0 0.40326160981139969 0.73346192995102844 0 0.43323420005758778 0.6913544522562407 0 0.45582236402875981 0.73896743678908217 0 0.33758650185219202 0.23837101504325639 0 0.28040350263641872 0.23054717217092141 0 0.31255190597181792 0.19850845631528771 0 0.79999999999999982 1 0 0.75000000000034661 1 0 0.770759834363826 0.95919399014344442 0 0.74999999999999989 0.29999999999999999 0 0.77075983436335049 0.25919399014334171 0 0.79999999999999982 0.29999999999999999 0 0.6499999999999998 0.29999999999999999 0 0.67933712972090698 0.25920070958121938 0 0.69999999999999984 0.29999999999999999 0 0.39536230704883951 0.84069429572832477 0 0.39767323751400468 0.89584229130535065 0 0.35864759629805099 0.87963482415279515 0 0.54999999999999993 0.69999999999999996 0 0.52584555706968406 0.66664215091846768 0 0.57484956128872922 0.66573805030881994 0 0.35312867752657662 0.084946736076730367 0 0.32541448401678508 0.046215317981507749 0 0.3615861437013822 0.03582617922508851 0 0.35752321586431363 0.9185439911803448 0 0.36184234618600131 0.96443954459096326 0 0.32544832635163229 0.95485394099568932 0 0.35312867752657662 0.084946736076730367 0 0.3615861437013822 0.03582617922508851 0 0.39591832466117061 0.056982757562006353 0 0.35752321586431363 0.9185439911803448 0 0.39641108128798319 0.94356127926187128 0 0.36184234618600131 0.96443954459096326 0 0.083411279318303222 0.089699755330707398 0 0.044310582753132287 0.101412518374475 0 0.053064897599215843 0.048131547304697528 0 0.083411279318375747 0.91030024466934134 0 0.053064897599294662 0.95186845269532028 0 0.0443105827531413 0.89858748162559932 0 0.38083244760691543 0.38531983672244652 0 0.40076539126862748 0.34589349467022118 0 0.42161023666869668 0.39493916313643851 0 0.4409427642593301 0.35743108089689513 0 0.42161023666869668 0.39493916313643851 0 0.40076539126862748 0.34589349467022118 0 0.79999999999999982 0.29999999999999999 0 0.82500000000000062 0.33010209762754811 0 0.78145581580700685 0.34881365920033602 0 0.79999999999999982 0.69999999999999996 0 0.7750489929959945 0.66593931409600093 0 0.82457059160610424 0.66831947184359608 0 0.59999999999999976 0.69999999999999996 0 0.57484956128872922 0.66573805030881994 0 0.62460753523532009 0.66851202781000296 0 0.74999999999999989 0.69999999999999996 0 0.72500000000000064 0.67022701834392062 0 0.7750489929959945 0.66593931409600093 0 0.74999999999999989 0.29999999999999999 0 0.78145581580700685 0.34881365920033602 0 0.73090396928863699 0.33699297293167962 0 0.33758650185219202 0.23837101504325639 0 0.33402499257867951 0.28911035184473982 0 0.29132859388405002 0.27203693976649962 0 0.36575549820117997 0.31677992835137742 0 0.41914690343363781 0.30688979866601612 0 0.40076539126862748 0.34589349467022118 0 0.4409427642593301 0.35743108089689513 0 0.40076539126862748 0.34589349467022118 0 0.41914690343363781 0.30688979866601612 0 0.34258405725730701 0.4444034294386992 0 0.38707855792647411 0.42299362914874578 0 0.3908716102680424 0.47010282357248828 0 0.7000000000006934 1 0 0.65000000000104008 1 0 0.68015064798562208 0.95924320340003011 0 0.49102375406324739 0.49123754822244059 0 0.46111841286828259 0.46690301029591341 0 0.48858720058566618 0.43964267759203868 0 0.4656888918609538 0.78493261229743638 0 0.42676259796334498 0.76772545931379299 0 0.45582236402875981 0.73896743678908217 0 0.40326160981139969 0.73346192995102844 0 0.45582236402875981 0.73896743678908217 0 0.42676259796334498 0.76772545931379299 0 0.59999999999999976 0.29999999999999999 0 0.62657463266645097 0.26524202571255862 0 0.6499999999999998 0.29999999999999999 0 0.40000000000166441 1 0 0.36184234618600131 0.96443954459096326 0 0.39641108128798319 0.94356127926187128 0 0.3999999999989749 0 0 0.39591832466117061 0.056982757562006353 0 0.3615861437013822 0.03582617922508851 0 0.43249999999999988 0.43937499999999979 0 0.48858720058566618 0.43964267759203868 0 0.46111841286828259 0.46690301029591341 0 0.7250000000005199 0.89375000000045834 0 0.7250000000005199 0.94981617647078953 0 0.68987011941058407 0.92105047536677087 0 0.7250000000005199 0.89375000000045834 0 0.75729602384198635 0.92353652857884294 0 0.7250000000005199 0.94981617647078953 0 0.72500000000001008 0.19776155966387679 0 0.75668890529066124 0.2244279804069782 0 0.72500000000000064 0.2498161764706 0 0.72500000000001008 0.19776155966387679 0 0.72500000000000064 0.2498161764706 0 0.69397719155551807 0.2245125647000914 0 0.79999999999999982 0.29999999999999999 0 0.81486180804364938 0.26321394949780091 0 0.84999999999999987 0.29999999999999999 0 0.84999999999965292 1 0 0.79999999999999982 1 0 0.81486180804382891 0.96321394949790495 0 0.1247745017231483 0.27198077544791172 0 0.095326043202144745 0.24554465089224409 0 0.14377654328998779 0.2442024734791064 0 0.1215415378367805 0.72939333680004137 0 0.14335651144331049 0.75565258250209677 0 0.090953281884486245 0.7564451946902494 0 0.72500000000001008 0.19776155966387679 0 0.72634814642510737 0.16106886917518889 0 0.76587607630038135 0.18880039518954719 0 0.72500000000001008 0.19776155966387679 0 0.6865991819015953 0.189116534044597 0 0.72634814642510737 0.16106886917518889 0 0.77144070960558853 0.14311854477243749 0 0.76587607630038135 0.18880039518954719 0 0.72634814642510737 0.16106886917518889 0 0.68391457121233579 0.14440470121196541 0 0.72634814642510737 0.16106886917518889 0 0.6865991819015953 0.189116534044597 0 0.7250000000005199 0.89375000000045834 0 0.72863726579783861 0.85390518901155588 0 0.76891166905518427 0.88835469571185499 0 0.76901770135486491 0.84293557325473656 0 0.76891166905518427 0.88835469571185499 0 0.72863726579783861 0.85390518901155588 0 0 0.20000000000083221 0 0.038512288486115001 0.1844147282893184 0 0.044081577119474857 0.2271058242433576 0 0 0.79999999999999982 0 0.04408157711937423 0.7728941757575627 0 0.038512288486097702 0.8155852717111195 0 0.52375890611712683 0.059318771819432882 0 0.47881186583059909 0.093591717165689425 0 0.47040171442036788 0.044141676406503738 0 0.52122150208832174 0.94089974453840242 0 0.47135117303824892 0.95556877749289892 0 0.47401147028110507 0.91529957330468115 0 0.27474541102162192 0.11822029332053539 0 0.3096713403101819 0.085471541595262421 0 0.32215584939770009 0.1218492143506909 0 0.22278230690790279 0.44824268025881547 0 0.24049127783545701 0.41270748208749802 0 0.25982634974572738 0.46097799597715272 0 0.93732437411268477 0.55911392101136159 0 0.91143117093204207 0.58709913730335972 0 0.90900154012161016 0.53607784105648792 0 0.19901705110390991 0.9175543425573498 0 0.24536017905392571 0.90704567837671446 0 0.22850979588452081 0.95594428570238643 0 0.27609987656793722 0.94991445621608572 0 0.22850979588452081 0.95594428570238643 0 0.24536017905392571 0.90704567837671446 0 0.15720202157091859 0.60665697304410315 0 0.1241190223511371 0.64391885572885044 0 0.1024350934457823 0.60772393977513839 0 0.6499999999999998 0.69999999999999996 0 0.675261390228442 0.65996937624687813 0 0.69999999999999984 0.69999999999999996 0 0.3999999999989749 0 0 0.4320097814748517 0.037406712692169303 0 0.39591832466117061 0.056982757562006353 0 0.40000000000166441 1 0 0.39641108128798319 0.94356127926187128 0 0.4308986359464303 0.96395712492906194 0 0.54999999999999993 0.29999999999999999 0 0.56836770495988642 0.3523062350852913 0 0.52752007115234678 0.33170632466418198 0 0.14474682429600511 0.85524784522713515 0 0.17777405986036951 0.81832336108265358 0 0.19741632902693801 0.86755867406447229 0 0.21858834311891909 0.81980263716112767 0 0.19741632902693801 0.86755867406447229 0 0.17777405986036951 0.81832336108265358 0 0.54782696902220018 0.79245182748204157 0 0.50731287292894423 0.78963574450233831 0 0.50945740445113552 0.75476055527778108 0 0.20000000000083221 1 0 0.18474005699953849 0.96231585248064622 0 0.22850979588452081 0.95594428570238643 0 0.19999999999955789 0 0 0.22668068146512929 0.045875643423131329 0 0.184418230509967 0.038773194583122873 0 0.77846603114747959 0.49850927265137401 0 0.73947346780852752 0.49062440112282169 0 0.77972660463949339 0.45529290596363098 0 0.73483647259922602 0.44789725365921768 0 0.77972660463949339 0.45529290596363098 0 0.73947346780852752 0.49062440112282169 0 0.34258405725730701 0.4444034294386992 0 0.35024835142131061 0.48654922671676981 0 0.31068898841644388 0.47541502461811092 0 0.33123028043633618 0.77629643437932982 0 0.2792923945214143 0.77665808831789485 0 0.29904318922293632 0.74132814928635593 0 0.26573297623774761 0.59828298563722948 0 0.25115337790845271 0.54719303014923271 0 0.29110487519241501 0.56588143995431495 0 0.4656888918609538 0.78493261229743638 0 0.50945740445113552 0.75476055527778108 0 0.50731287292894423 0.78963574450233831 0 0.35312867752657662 0.084946736076730367 0 0.36246644853392812 0.1399454205365751 0 0.32215584939770009 0.1218492143506909 0 0.29348325746214782 0.31350119524708198 0 0.25966125648670141 0.34351016742083729 0 0.24432083401701241 0.3006253385567515 0 0.59999999999999976 0.69999999999999996 0 0.6499999999999998 0.69999999999999996 0 0.63221990677827677 0.73442891067859706 0 0.69999999999921003 0 0 0.7010294155333181 0.056779085686491267 0 0.66369801598854572 0.036327466368102787 0 0.40000000000166441 1 0 0.35000000000145642 1 0 0.36184234618600131 0.96443954459096326 0 0.34999999999912063 0 0 0.3999999999989749 0 0 0.3615861437013822 0.03582617922508851 0 0.43507373378304309 0.49699695397193322 0 0.47793794143994173 0.52940715638744962 0 0.42644501560315817 0.54603747078095544 0 0.14474682429600511 0.85524784522713515 0 0.19741632902693801 0.86755867406447229 0 0.16206583317966519 0.89685560785156404 0 0.19901705110390991 0.9175543425573498 0 0.16206583317966519 0.89685560785156404 0 0.19741632902693801 0.86755867406447229 0 0.35864735590330371 0.63903383440414463 0 0.3977710372045391 0.65868194622830212 0 0.36622285152418499 0.69092437780804039 0 0.7527966693318906 0.053051678021508272 0 0.7010294155333181 0.056779085686491267 0 0.72683645290270404 0.027797073151180601 0 0.71508799138962864 0.36622814920737751 0 0.72622533758026719 0.40265885511101601 0 0.68128176404677243 0.38629093627004979 0 0.79999999999999982 0.69999999999999996 0 0.84999999999999987 0.69999999999999996 0 0.81864958914779962 0.73589050177899629 0 0.79999999999947335 0 0 0.84999999999960507 0 0 0.81864958914740749 0.035890501779055867 0 0.39536230704883951 0.84069429572832477 0 0.35642984951668422 0.80994399665655703 0 0.38586766253264881 0.78219501014812498 0 0.42377727103934271 0.25099357235810238 0 0.46429753744194407 0.22870891180733599 0 0.4604742573284204 0.27846934318264788 0 0.39801143831225599 0.16651381068160659 0 0.42905200079338551 0.19982395548231649 0 0.38831533174504851 0.2189834941785925 0 0.79999999999999982 1 0 0.770759834363826 0.95919399014344442 0 0.81486180804382891 0.96321394949790495 0 0.79999999999999982 0.29999999999999999 0 0.77075983436335049 0.25919399014334171 0 0.81486180804364938 0.26321394949780091 0 0.25195515620380449 0.25883339815888678 0 0.21049769590865089 0.26857363548218488 0 0.224700362040408 0.22206622194729711 0 0.40326160981139969 0.73346192995102844 0 0.42676259796334498 0.76772545931379299 0 0.38586766253264881 0.78219501014812498 0 0.35312867752657662 0.084946736076730367 0 0.3096713403101819 0.085471541595262421 0 0.32541448401678508 0.046215317981507749 0 0.59999999999999976 0.29999999999999999 0 0.6499999999999998 0.29999999999999999 0 0.61959173890754571 0.33832250091341232 0 0.2185883431182947 0.18019736283949719 0 0.18652628422869419 0.14162325200928061 0 0.22985637510995899 0.1298347970200906 0 0.64999999999907843 0 0 0.69999999999921003 0 0 0.66369801598854572 0.036327466368102787 0 0.27499999999933927 0.060310814194988557 0 0.24218496799700481 0.089025544070598317 0 0.22668068146512929 0.045875643423131329 0 0.19922788606653311 0.085920220746880993 0 0.22668068146512929 0.045875643423131329 0 0.24218496799700481 0.089025544070598317 0 0.65507451745379841 0.92229208810758578 0 0.66412543161245952 0.88015090885499059 0 0.68987011941058407 0.92105047536677087 0 0.049706944316475897 0.72477277076253799 0 0.090953281884486245 0.7564451946902494 0 0.04408157711937423 0.7728941757575627 0 0.083105206071452636 0.79992298667296435 0 0.04408157711937423 0.7728941757575627 0 0.090953281884486245 0.7564451946902494 0 0.083105206071467416 0.20007701332709979 0 0.095326043202144745 0.24554465089224409 0 0.044081577119474857 0.2271058242433576 0 0.049706944316556423 0.27522722923869108 0 0.044081577119474857 0.2271058242433576 0 0.095326043202144745 0.24554465089224409 0 0.36575549820117997 0.31677992835137742 0 0.33402499257867951 0.28911035184473982 0 0.3786248352540974 0.27082301512024259 0 0.53245488764484505 0.55078124999999989 0 0.53330375813596242 0.50827942741749099 0 0.57435499076887508 0.54267261987897775 0 0.57611405284611883 0.50165903596042916 0 0.57435499076887508 0.54267261987897775 0 0.53330375813596242 0.50827942741749099 0 0.6499999999999998 0.29999999999999999 0 0.69999999999999984 0.29999999999999999 0 0.68887083591306764 0.33632058575757479 0 0.57611405284611883 0.50165903596042916 0 0.53823865529665704 0.45873898050322898 0 0.57975577671020095 0.46172033326338591 0 0.7750489929959945 0.66593931409600093 0 0.72500000000000064 0.67022701834392062 0 0.74994237037456724 0.62775548192980357 0 0.78145581580700685 0.34881365920033602 0 0.74764719760526988 0.3719647154012321 0 0.73090396928863699 0.33699297293167962 0 0.3999999999989749 0 0 0.44999999999882923 0 0 0.4320097814748517 0.037406712692169303 0 0.45000000000187229 1 0 0.40000000000166441 1 0 0.4308986359464303 0.96395712492906194 0 0.57484956128872922 0.66573805030881994 0 0.5991018319127801 0.62925360607495295 0 0.62460753523532009 0.66851202781000296 0 0.7750489929959945 0.66593931409600093 0 0.79884539758237771 0.62875045078114233 0 0.82457059160610424 0.66831947184359608 0 0.39801143831225599 0.16651381068160659 0 0.36246644853392812 0.1399454205365751 0 0.39823268594401579 0.1116623613130045 0 0.078358742472063481 0.43365249433908948 0 0.033550201249889847 0.46247875832467239 0 0.035463093262830522 0.42673416072819947 0 0.25676291524611189 0.7436741304886243 0 0.2792923945214143 0.77665808831789485 0 0.22556077506376701 0.77837424984191617 0 0.2236846579037573 0.67380363126050236 0 0.2248999640082178 0.72584299459689172 0 0.19068556247388771 0.71028988922845504 0 0.50715858906372158 0.63295939104129484 0 0.5166924242153631 0.59825134841919447 0 0.5498280205245758 0.6290146943450976 0 0.14618258501891079 0.062070108745602003 0 0.12372429750337779 0.095814237875728972 0 0.10266856499169109 0.044518360900210059 0 0.083411279318303222 0.089699755330707398 0 0.10266856499169109 0.044518360900210059 0 0.12372429750337779 0.095814237875728972 0 0.083411279318375747 0.91030024466934134 0 0.1241151115713819 0.9045666525468371 0 0.10266856499240549 0.95548163909968886 0 0.14617343800780541 0.93808063414349496 0 0.10266856499240549 0.95548163909968886 0 0.1241151115713819 0.9045666525468371 0 0.5499999999988151 0 0 0.59999999999894682 0 0 0.57396793757665954 0.037011367187645222 0 0.54782696902220018 0.79245182748204157 0 0.50627822638148745 0.8263979829520941 0 0.50731287292894423 0.78963574450233831 0 0.6499999999999998 0.29999999999999999 0 0.62657463266645097 0.26524202571255862 0 0.67933712972090698 0.25920070958121938 0 0.86956835336234861 0.571283299838105 0 0.86907294890112186 0.52008116128001669 0 0.90900154012161016 0.53607784105648792 0 0.17933913398461551 0.2350063570234002 0 0.224700362040408 0.22206622194729711 0 0.21049769590865089 0.26857363548218488 0 0.43249999999999988 0.43937499999999979 0 0.3908716102680424 0.47010282357248828 0 0.38707855792647411 0.42299362914874578 0 0.27474541102162192 0.11822029332053539 0 0.22985637510995899 0.1298347970200906 0 0.24218496799700481 0.089025544070598317 0 0.64753070846764316 0.77332939069435502 0 0.66427993341343905 0.73232764502436276 0 0.6916490518212759 0.75387992374886192 0 0 0.40000000000166441 0 0.050583896093752537 0.38543522283434112 0 0.035463093262830522 0.42673416072819947 0 0.73483647259922602 0.44789725365921768 0 0.73947346780852752 0.49062440112282169 0 0.69385896817107129 0.48377516041410151 0 0.57484956128872922 0.66573805030881994 0 0.52584555706968406 0.66664215091846768 0 0.5498280205245758 0.6290146943450976 0 0.60000000000138687 1 0 0.55000000000173355 1 0 0.57382506491224949 0.9629411906298494 0 0.068743045408989428 0.48853989837882689 0 0.085622222639554768 0.53333248912060549 0 0.044576108720083309 0.53509043209532614 0 0.083105206071467416 0.20007701332709979 0 0.044081577119474857 0.2271058242433576 0 0.038512288486115001 0.1844147282893184 0 0.083105206071452636 0.79992298667296435 0 0.038512288486097702 0.8155852717111195 0 0.04408157711937423 0.7728941757575627 0 0.28307294598219601 0.50789252727458634 0 0.23975172658309729 0.49475499200540818 0 0.25982634974572738 0.46097799597715272 0 0.43698630808430822 0.080423614171545449 0 0.39591832466117061 0.056982757562006353 0 0.4320097814748517 0.037406712692169303 0 0.4367309254023824 0.92065556789053882 0 0.4308986359464303 0.96395712492906194 0 0.39641108128798319 0.94356127926187128 0 0.80185942888539485 0.77452061303608133 0 0.75841349681148107 0.75422312624214749 0 0.78578450296893509 0.73292684821144505 0 0.80185942888501827 0.074520613036224564 0 0.7527966693318906 0.053051678021508272 0 0.78393852574753176 0.032039079577822822 0 0.6499999999999998 0.69999999999999996 0 0.62460753523532009 0.66851202781000296 0 0.675261390228442 0.65996937624687813 0 0.33123028043633618 0.77629643437932982 0 0.38586766253264881 0.78219501014812498 0 0.35642984951668422 0.80994399665655703 0 0.6405463747586706 0.63290524857395714 0 0.675261390228442 0.65996937624687813 0 0.62460753523532009 0.66851202781000296 0 0.22278230690790279 0.44824268025881547 0 0.191953871957803 0.42546416763755879 0 0.24049127783545701 0.41270748208749802 0 0.077693244765132896 0.56932317963405099 0 0.050069554451969707 0.61308520079857043 0 0.034381862692950467 0.57372682250960894 0 0.25195515620380449 0.25883339815888678 0 0.24432083401701241 0.3006253385567515 0 0.21049769590865089 0.26857363548218488 0 0.46666084890304671 0.57634471035397938 0 0.5166924242153631 0.59825134841919447 0 0.47095389620662098 0.61892551373708504 0 0.50715858906372158 0.63295939104129484 0 0.47095389620662098 0.61892551373708504 0 0.5166924242153631 0.59825134841919447 0 0.72525833953073282 0.1032114801687094 0 0.7527966693318906 0.053051678021508272 0 0.76878382444651716 0.097147941686331368 0 0.80185942888501827 0.074520613036224564 0 0.76878382444651716 0.097147941686331368 0 0.7527966693318906 0.053051678021508272 0 0.72500000000000064 0.7952620967744265 0 0.75841349681148107 0.75422312624214749 0 0.77094201086366854 0.79647480515688507 0 0.80185942888539485 0.77452061303608133 0 0.77094201086366854 0.79647480515688507 0 0.75841349681148107 0.75422312624214749 0 0.72500000000000064 0.7952620967744265 0 0.68024162096458085 0.79868546898116533 0 0.6916490518212759 0.75387992374886192 0 0.64753070846764316 0.77332939069435502 0 0.6916490518212759 0.75387992374886192 0 0.68024162096458085 0.79868546898116533 0 0 0.50000000000205869 0 0 0.45000000000187229 0 0.033550201249889847 0.46247875832467239 0 0.69999999999999984 0.69999999999999996 0 0.675261390228442 0.65996937624687813 0 0.72500000000000064 0.67022701834392062 0 0.71406021706547751 0.63292083137662503 0 0.72500000000000064 0.67022701834392062 0 0.675261390228442 0.65996937624687813 0 0.65408113592120842 0.073941773121567966 0 0.61940220174112337 0.047251958781050582 0 0.66369801598854572 0.036327466368102787 0 0.59999999999894682 0 0 0.61940220174112337 0.047251958781050582 0 0.57396793757665954 0.037011367187645222 0 0.60000000000138687 1 0 0.57382506491224949 0.9629411906298494 0 0.62065498684670595 0.95224934003983619 0 0.33122374654748771 0.57588941099433744 0 0.35765792684946668 0.6000687869219653 0 0.31502927232353312 0.6134992213375432 0 0.35864735590330371 0.63903383440414463 0 0.31502927232353312 0.6134992213375432 0 0.35765792684946668 0.6000687869219653 0 0.15801167086041079 0.46008690540259539 0 0.19604738184454831 0.47787523520405789 0 0.16618607197337229 0.50652878253548905 0 0.078358742472063481 0.43365249433908948 0 0.035463093262830522 0.42673416072819947 0 0.050583896093752537 0.38543522283434112 0 0.19901705110390991 0.9175543425573498 0 0.22850979588452081 0.95594428570238643 0 0.18474005699953849 0.96231585248064622 0 0.19922788606653311 0.085920220746880993 0 0.184418230509967 0.038773194583122873 0 0.22668068146512929 0.045875643423131329 0 0.19922788606653311 0.085920220746880993 0 0.24218496799700481 0.089025544070598317 0 0.22985637510995899 0.1298347970200906 0 0.74999999999999989 0.69999999999999996 0 0.78578450296893509 0.73292684821144505 0 0.75841349681148107 0.75422312624214749 0 0.74999999999934175 0 0 0.78393852574753176 0.032039079577822822 0 0.7527966693318906 0.053051678021508272 0 0 0.60000000000138687 0 0.034381862692950467 0.57372682250960894 0 0.050069554451969707 0.61308520079857043 0 0.2236846579037573 0.67380363126050236 0 0.26439878998046262 0.7048065392091396 0 0.2248999640082178 0.72584299459689172 0 0.6236733212988993 0.14864538214901801 0 0.58516465772821369 0.11653801664834119 0 0.61956000905586006 0.1043312481793135 0 0.26104540868854792 0.81401944968719064 0 0.2792923945214143 0.77665808831789485 0 0.30857225866488791 0.81101973481716805 0 0.42377727103934271 0.25099357235810238 0 0.42905200079338551 0.19982395548231649 0 0.46429753744194407 0.22870891180733599 0 0.27820712747429932 0.65530134213254643 0 0.31502927232353312 0.6134992213375432 0 0.32263089806001177 0.66003674931826484 0 0.61343887413683884 0.856862479058357 0 0.61885627562261258 0.90282959257498208 0 0.5832743223239254 0.88483152652961872 0 0.43698630808430822 0.080423614171545449 0 0.47040171442036788 0.044141676406503738 0 0.47881186583059909 0.093591717165689425 0 0.4367309254023824 0.92065556789053882 0 0.47401147028110507 0.91529957330468115 0 0.47135117303824892 0.95556877749289892 0 0.91696753777131557 0.497780560203536 0 0.95631871884947484 0.51827533208233789 0 0.90900154012161016 0.53607784105648792 0 0.93732437411268477 0.55911392101136159 0 0.90900154012161016 0.53607784105648792 0 0.95631871884947484 0.51827533208233789 0 0.27474541102162192 0.11822029332053539 0 0.25557216766470708 0.15874861286892261 0 0.22985637510995899 0.1298347970200906 0 0.2185883431182947 0.18019736283949719 0 0.22985637510995899 0.1298347970200906 0 0.25557216766470708 0.15874861286892261 0 0.29348325746214782 0.31350119524708198 0 0.33402499257867951 0.28911035184473982 0 0.32752639306529541 0.32610012995269699 0 0.27499999999933927 0.060310814194988557 0 0.32541448401678508 0.046215317981507749 0 0.3096713403101819 0.085471541595262421 0 0.27270076654418179 0.87751467830216623 0 0.24536017905392571 0.90704567837671446 0 0.2401283238295133 0.85648409884788523 0 1 0.44999999999963131 0 1 0.49999999999950101 0 0.96228564064454991 0.48206450662049471 0 0.61343887413683884 0.856862479058357 0 0.66412543161245952 0.88015090885499059 0 0.61885627562261258 0.90282959257498208 0 0 0.45000000000187229 0 0 0.40000000000166441 0 0.035463093262830522 0.42673416072819947 0 0.69999999999999984 0.69999999999999996 0 0.6916490518212759 0.75387992374886192 0 0.66427993341343905 0.73232764502436276 0 0.43846182030517877 0.64845797726506715 0 0.43323420005758778 0.6913544522562407 0 0.3977710372045391 0.65868194622830212 0 0.4367309254023824 0.92065556789053882 0 0.44003836461056539 0.88093474584252718 0 0.47401147028110507 0.91529957330468115 0 0.43846182030517877 0.64845797726506715 0 0.39743091024207589 0.6239520004230239 0 0.43545892161006339 0.61093128915313821 0 0.43846182030517877 0.64845797726506715 0 0.3977710372045391 0.65868194622830212 0 0.39743091024207589 0.6239520004230239 0 0.26429849586623999 0.19346700179430079 0 0.29336099386129338 0.15892013001050981 0 0.31255190597181792 0.19850845631528771 0 0.19670163708476801 0.31472518408333222 0 0.21049769590865089 0.26857363548218488 0 0.24432083401701241 0.3006253385567515 0 0.57724883562309992 0.92155686857100794 0 0.62065498684670595 0.95224934003983619 0 0.57382506491224949 0.9629411906298494 0 0.4409427642593301 0.35743108089689513 0 0.46655310992796922 0.39650496622958609 0 0.42161023666869668 0.39493916313643851 0 0.46666084890304671 0.57634471035397938 0 0.47095389620662098 0.61892551373708504 0 0.43545892161006339 0.61093128915313821 0 0.6879972333610942 0.43038561374960838 0 0.65178832218679827 0.45929119821019959 0 0.63912439215427275 0.41063340167983359 0 0.43698630808430822 0.080423614171545449 0 0.4320097814748517 0.037406712692169303 0 0.47040171442036788 0.044141676406503738 0 0.4367309254023824 0.92065556789053882 0 0.47135117303824892 0.95556877749289892 0 0.4308986359464303 0.96395712492906194 0 0.79680861578988083 0.92656778056766709 0 0.81486180804382891 0.96321394949790495 0 0.770759834363826 0.95919399014344442 0 0.79680861578956375 0.22656778056752541 0 0.81486180804364938 0.26321394949780091 0 0.77075983436335049 0.25919399014334171 0 0.71508799138962864 0.36622814920737751 0 0.68128176404677243 0.38629093627004979 0 0.68887083591306764 0.33632058575757479 0 0.35864735590330371 0.63903383440414463 0 0.32263089806001177 0.66003674931826484 0 0.31502927232353312 0.6134992213375432 0 0.21858834311891909 0.81980263716112767 0 0.2401283238295133 0.85648409884788523 0 0.19741632902693801 0.86755867406447229 0 0.35312867752657662 0.084946736076730367 0 0.32215584939770009 0.1218492143506909 0 0.3096713403101819 0.085471541595262421 0 0.35752321586431363 0.9185439911803448 0 0.35864759629805099 0.87963482415279515 0 0.39767323751400468 0.89584229130535065 0 0.41914690343363781 0.30688979866601612 0 0.4604742573284204 0.27846934318264788 0 0.46226845272279993 0.31901800744800313 0 0.33084213324567391 0.16272720141332131 0 0.32215584939770009 0.1218492143506909 0 0.36246644853392812 0.1399454205365751 0 0.46666084890304671 0.57634471035397938 0 0.42644501560315817 0.54603747078095544 0 0.47793794143994173 0.52940715638744962 0 0 0.60000000000138687 0 0 0.55000000000173355 0 0.034381862692950467 0.57372682250960894 0 0.77354604466818633 0.40378688774472771 0 0.74764719760526988 0.3719647154012321 0 0.78145581580700685 0.34881365920033602 0 0.34999999999912063 0 0 0.3615861437013822 0.03582617922508851 0 0.32541448401678508 0.046215317981507749 0 0.35000000000145642 1 0 0.32544832635163229 0.95485394099568932 0 0.36184234618600131 0.96443954459096326 0 0.57667858002728545 0.078486105337742612 0 0.57396793757665954 0.037011367187645222 0 0.61940220174112337 0.047251958781050582 0 0.47357141910802508 0.1873585799078378 0 0.50760557329222289 0.20700468884612061 0 0.46429753744194407 0.22870891180733599 0 0.49695729691142171 0.25014895411178018 0 0.46429753744194407 0.22870891180733599 0 0.50760557329222289 0.20700468884612061 0 0.33084213324567391 0.16272720141332131 0 0.3572130504031617 0.1874703368446563 0 0.31255190597181792 0.19850845631528771 0 0.6879972333610942 0.43038561374960838 0 0.63912439215427275 0.41063340167983359 0 0.68128176404677243 0.38629093627004979 0 0.65408113592120842 0.073941773121567966 0 0.65290632656860115 0.11434202593454081 0 0.61956000905586006 0.1043312481793135 0 0.33084213324567391 0.16272720141332131 0 0.31255190597181792 0.19850845631528771 0 0.29336099386129338 0.15892013001050981 0 0.61209567303293111 0.44669033081290321 0 0.63912439215427275 0.41063340167983359 0 0.65178832218679827 0.45929119821019959 0 0.086179601630648681 0.64647209519980475 0 0.1024350934457823 0.60772393977513839 0 0.1241190223511371 0.64391885572885044 0 0.44999999999882923 0 0 0.47040171442036788 0.044141676406503738 0 0.4320097814748517 0.037406712692169303 0 0.45000000000187229 1 0 0.4308986359464303 0.96395712492906194 0 0.47135117303824892 0.95556877749289892 0 0.74999999999934175 0 0 0.7527966693318906 0.053051678021508272 0 0.72683645290270404 0.027797073151180601 0 0.74999999999999989 0.69999999999999996 0 0.75841349681148107 0.75422312624214749 0 0.72501250972655151 0.74067302935308721 0 0.69999999999999984 0.69999999999999996 0 0.72501250972655151 0.74067302935308721 0 0.6916490518212759 0.75387992374886192 0 0.74999999999934175 0 0 0.79999999999947335 0 0 0.78393852574753176 0.032039079577822822 0 0.74999999999999989 0.69999999999999996 0 0.79999999999999982 0.69999999999999996 0 0.78578450296893509 0.73292684821144505 0 0.6405463747586706 0.63290524857395714 0 0.5991018319127801 0.62925360607495295 0 0.63065402604362242 0.59661356661633302 0 0.65481233915350323 0.35652751921065562 0 0.68887083591306764 0.33632058575757479 0 0.68128176404677243 0.38629093627004979 0 0.89999999999999991 0.29999999999999999 0 0.94999999999999996 0.29999999999999999 0 0.92012390126144183 0.33123581297173937 0 0.89999999999999991 0.69999999999999996 0 0.92057473616084773 0.66770436535372446 0 0.94999999999999996 0.69999999999999996 0 0.4367309254023824 0.92065556789053882 0 0.39767323751400468 0.89584229130535065 0 0.44003836461056539 0.88093474584252718 0 0.2185883431182947 0.18019736283949719 0 0.18124454140915969 0.18790916706335251 0 0.18652628422869419 0.14162325200928061 0 0.20050006573841939 0.53248514016039872 0 0.19604738184454831 0.47787523520405789 0 0.23975172658309729 0.49475499200540818 0 0.65507451745379841 0.92229208810758578 0 0.61885627562261258 0.90282959257498208 0 0.66412543161245952 0.88015090885499059 0 0.65394964615507722 0.22666784374016369 0 0.67933712972090698 0.25920070958121938 0 0.62657463266645097 0.26524202571255862 0 0.077693244765132896 0.56932317963405099 0 0.034381862692950467 0.57372682250960894 0 0.044576108720083309 0.53509043209532614 0 0.39801143831225599 0.16651381068160659 0 0.38831533174504851 0.2189834941785925 0 0.3572130504031617 0.1874703368446563 0 0.6499999999999998 0.69999999999999996 0 0.69999999999999984 0.69999999999999996 0 0.66427993341343905 0.73232764502436276 0 0.1215415378367805 0.72939333680004137 0 0.15332765547575641 0.71200081858233666 0 0.14335651144331049 0.75565258250209677 0 0.6405463747586706 0.63290524857395714 0 0.63065402604362242 0.59661356661633302 0 0.67529834988829951 0.61613270668143583 0 0.67323294229744413 0.57556450033612505 0 0.67529834988829951 0.61613270668143583 0 0.63065402604362242 0.59661356661633302 0 0.91750694127107502 0.36982372220068471 0 0.87430060258887643 0.34056085888204451 0 0.92012390126144183 0.33123581297173937 0 0.89999999999999991 0.29999999999999999 0 0.92012390126144183 0.33123581297173937 0 0.87430060258887643 0.34056085888204451 0 0.89999999999999991 0.69999999999999996 0 0.87712158428786946 0.65709029563313581 0 0.92057473616084773 0.66770436535372446 0 0.91750694127105259 0.63017627779935648 0 0.92057473616084773 0.66770436535372446 0 0.87712158428786946 0.65709029563313581 0 0.33122374654748771 0.57588941099433744 0 0.29110487519241501 0.56588143995431495 0 0.33190227185843768 0.52715113583864037 0 0.57484956128872922 0.66573805030881994 0 0.5498280205245758 0.6290146943450976 0 0.5991018319127801 0.62925360607495295 0 0.57412547362576272 0.58273804879550706 0 0.5991018319127801 0.62925360607495295 0 0.5498280205245758 0.6290146943450976 0 0.65408113592120842 0.073941773121567966 0 0.66369801598854572 0.036327466368102787 0 0.7010294155333181 0.056779085686491267 0 0.27474541102162192 0.11822029332053539 0 0.32215584939770009 0.1218492143506909 0 0.29336099386129338 0.15892013001050981 0 0.33084213324567391 0.16272720141332131 0 0.29336099386129338 0.15892013001050981 0 0.32215584939770009 0.1218492143506909 0 0.5 0.29999999999999999 0 0.54999999999999993 0.29999999999999999 0 0.52752007115234678 0.33170632466418198 0 0.83573492347052902 0.36590755630746369 0 0.87430060258887643 0.34056085888204451 0 0.86844634540301924 0.38530937474099819 0 0.83758014339878906 0.63222013025741819 0 0.87159648282691515 0.61285406320581504 0 0.87712158428786946 0.65709029563313581 0 0.22278230690790279 0.44824268025881547 0 0.23975172658309729 0.49475499200540818 0 0.19604738184454831 0.47787523520405789 0 1 0.49999999999950101 0 0.95631871884947484 0.51827533208233789 0 0.96228564064454991 0.48206450662049471 0 0.1650278706801647 0.38791388161335733 0 0.13773355295499351 0.42497777642586831 0 0.1117088112799664 0.38831403004970022 0 0.61209567303293111 0.44669033081290321 0 0.57975577671020095 0.46172033326338591 0 0.57744073070774993 0.41535148636609359 0 0.077693244765132896 0.56932317963405099 0 0.1154888278694548 0.56733818459978413 0 0.1024350934457823 0.60772393977513839 0 0.68697391633157634 0.84450604838764298 0 0.65005442820240822 0.82644988530054031 0 0.68024162096458085 0.79868546898116533 0 0.76901770135486491 0.84293557325473656 0 0.77094201086366854 0.79647480515688507 0 0.80041942726660109 0.81543261647703358 0 0.77144070960558853 0.14311854477243749 0 0.76878382444651716 0.097147941686331368 0 0.80076557130237269 0.1154587552654202 0 0.5 0.69999999999999996 0 0.52584555706968406 0.66664215091846768 0 0.54999999999999993 0.69999999999999996 0 0.077693244765132896 0.56932317963405099 0 0.044576108720083309 0.53509043209532614 0 0.085622222639554768 0.53333248912060549 0 0.69999999999921003 0 0 0.72683645290270404 0.027797073151180601 0 0.7010294155333181 0.056779085686491267 0 1 0 0 0.97166519676946894 0.033371144900598393 0 0.94999999999986839 0 0 1 0.69999999999999996 0 0.97166519676947294 0.73337114490064459 0 0.94999999999999996 0.69999999999999996 0 1 0.69999999999999996 0 1 0.74999999999993494 0 0.97166519676947294 0.73337114490064459 0 1 0.29999999999999999 0 0.97166519676951801 0.26662885509932011 0 1 0.24999999999987299 0 1 1 0 0.94999999999979179 1 0 0.97166519676946206 0.96662885509935492 0 1 0 0 1 0.049999999999896842 0 0.97166519676946894 0.033371144900598393 0 1 0.29999999999999999 0 0.94999999999999996 0.29999999999999999 0 0.97166519676951801 0.26662885509932011 0 1 1 0 0.97166519676946206 0.96662885509935492 0 1 0.94999999999997109 0 0 0.55000000000173355 0 0.044576108720083309 0.53509043209532614 0 0.034381862692950467 0.57372682250960894 0 0.6879972333610942 0.43038561374960838 0 0.69385896817107129 0.48377516041410151 0 0.65178832218679827 0.45929119821019959 0 0.33084213324567391 0.16272720141332131 0 0.36246644853392812 0.1399454205365751 0 0.3572130504031617 0.1874703368446563 0 0.65408113592120842 0.073941773121567966 0 0.68330259535470161 0.10038702501083881 0 0.65290632656860115 0.11434202593454081 0 0.16500388252850301 0.66612077714085194 0 0.19068556247388771 0.71028988922845504 0 0.15332765547575641 0.71200081858233666 0 0.82709327591091286 0.84937141670920724 0 0.85600844944837662 0.88483418979512773 0 0.81159157511211755 0.88795995483179491 0 0.82709327591102189 0.14937141670914489 0 0.85600844944842547 0.1848341897950983 0 0.81283102246527783 0.1881007222486438 0 0.79999999999999982 0.29999999999999999 0 0.84999999999999987 0.29999999999999999 0 0.82500000000000062 0.33010209762754811 0 0.79999999999999982 0.69999999999999996 0 0.82457059160610424 0.66831947184359608 0 0.84999999999999987 0.69999999999999996 0 0.59999999999999976 0.69999999999999996 0 0.62460753523532009 0.66851202781000296 0 0.6499999999999998 0.69999999999999996 0 0.39801143831225599 0.16651381068160659 0 0.3572130504031617 0.1874703368446563 0 0.36246644853392812 0.1399454205365751 0 0.69999999999999984 0.29999999999999999 0 0.74999999999999989 0.29999999999999999 0 0.73090396928863699 0.33699297293167962 0 0.69999999999999984 0.69999999999999996 0 0.72500000000000064 0.67022701834392062 0 0.74999999999999989 0.69999999999999996 0 0.6236733212988993 0.14864538214901801 0 0.64011864159029941 0.18789607982138171 0 0.59443395090188023 0.18455690917515069 0 0.20050006573841939 0.53248514016039872 0 0.16618607197337229 0.50652878253548905 0 0.19604738184454831 0.47787523520405789 0 0.79680861578956375 0.22656778056752541 0 0.76587607630038135 0.18880039518954719 0 0.81283102246527783 0.1881007222486438 0 0.79680861578988083 0.92656778056766709 0 0.76891166905518427 0.88835469571185499 0 0.81159157511211755 0.88795995483179491 0 0.71406021706547751 0.63292083137662503 0 0.675261390228442 0.65996937624687813 0 0.67529834988829951 0.61613270668143583 0 0.6405463747586706 0.63290524857395714 0 0.67529834988829951 0.61613270668143583 0 0.675261390228442 0.65996937624687813 0 0.19670163708476801 0.31472518408333222 0 0.168349569971391 0.28054490850913671 0 0.21049769590865089 0.26857363548218488 0 0.47357141910802508 0.1873585799078378 0 0.46429753744194407 0.22870891180733599 0 0.42905200079338551 0.19982395548231649 0 0.59814117807200873 0.23398510860739519 0 0.5794309697024993 0.27124795968204829 0 0.54248833945060504 0.2520322959927106 0 0.6541250972820879 0.49999999999999989 0 0.65178832218679827 0.45929119821019959 0 0.69385896817107129 0.48377516041410151 0 0.54999999999999993 0.29999999999999999 0 0.5794309697024993 0.27124795968204829 0 0.59999999999999976 0.29999999999999999 0 0.7750489929959945 0.66593931409600093 0 0.74994237037456724 0.62775548192980357 0 0.79884539758237771 0.62875045078114233 0 0.77293540622714185 0.59448302402785813 0 0.79884539758237771 0.62875045078114233 0 0.74994237037456724 0.62775548192980357 0 0.14332333627550789 0.14578431753966009 0 0.16141998738593399 0.10404039647458049 0 0.18652628422869419 0.14162325200928061 0 0.38083244760691543 0.38531983672244652 0 0.42161023666869668 0.39493916313643851 0 0.38707855792647411 0.42299362914874578 0 0.43249999999999988 0.43937499999999979 0 0.38707855792647411 0.42299362914874578 0 0.42161023666869668 0.39493916313643851 0 0.43846182030517877 0.64845797726506715 0 0.47095389620662098 0.61892551373708504 0 0.47913475093885149 0.66010775372412711 0 0.50715858906372158 0.63295939104129484 0 0.47913475093885149 0.66010775372412711 0 0.47095389620662098 0.61892551373708504 0 0.69999999999999984 0.69999999999999996 0 0.74999999999999989 0.69999999999999996 0 0.72501250972655151 0.74067302935308721 0 0.4089290844030305 0.58728915500154233 0 0.35765792684946668 0.6000687869219653 0 0.37272913873093971 0.56192925302619479 0 0.69999999999921003 0 0 0.74999999999934175 0 0 0.72683645290270404 0.027797073151180601 0 0.17933913398461551 0.2350063570234002 0 0.21049769590865089 0.26857363548218488 0 0.168349569971391 0.28054490850913671 0 0.14474682429600511 0.85524784522713515 0 0.10562472963403439 0.87143394428979881 0 0.1074251789111534 0.83564394292147814 0 0.14332333627550789 0.14578431753966009 0 0.106902708054812 0.16453234188234539 0 0.1053400320299198 0.12877248826361379 0 0.2236846579037573 0.67380363126050236 0 0.19914261668318661 0.62286739485272158 0 0.2459498854893499 0.63248470766216769 0 0.049999999999899652 0 0 0.053064897599215843 0.048131547304697528 0 0.02576622439977887 0.024532886826226379 0 0 0.050000000000207989 0 0.02576622439977887 0.024532886826226379 0 0.053064897599215843 0.048131547304697528 0 0.050000000000207989 1 0 0.025766224399875661 0.97546711317377799 0 0.053064897599294662 0.95186845269532028 0 0 0.94999999999979179 0 0.053064897599294662 0.95186845269532028 0 0.025766224399875661 0.97546711317377799 0 0.47357141910802508 0.1873585799078378 0 0.48466639505193998 0.1421439844745814 0 0.51729576145820033 0.1683240575987815 0 0.077693244765132896 0.56932317963405099 0 0.085622222639554768 0.53333248912060549 0 0.1154888278694548 0.56733818459978413 0 0.64753070846764316 0.77332939069435502 0 0.63221990677827677 0.73442891067859706 0 0.66427993341343905 0.73232764502436276 0 0.4656888918609538 0.78493261229743638 0 0.42609163930740518 0.80361684430568059 0 0.42676259796334498 0.76772545931379299 0 0.4089290844030305 0.58728915500154233 0 0.39743091024207589 0.6239520004230239 0 0.35765792684946668 0.6000687869219653 0 0.55306006949600994 0.20198184231352201 0 0.50760557329222289 0.20700468884612061 0 0.51729576145820033 0.1683240575987815 0 1 0.8999999999998336 0 1 0.94999999999997109 0 0.97435614836744289 0.92499999999990257 0 1 0.19999999999974799 0 1 0.24999999999987299 0 0.97435614836740092 0.22499999999981049 0 1 0.74999999999993494 0 1 0.7999999999998193 0 0.97435614836745565 0.77499999999987745 0 1 0.049999999999896842 0 1 0.099999999999753911 0 0.97435614836748241 0.074999999999825387 0 0.86411095495256451 0.42388805655111889 0 0.86844634540301924 0.38530937474099819 0 0.90594285160987287 0.4141265964174129 0 0.86956835336234861 0.571283299838105 0 0.91143117093204207 0.58709913730335972 0 0.87159648282691515 0.61285406320581504 0 0 0 0 0.02576622439977887 0.024532886826226379 0 0 0.050000000000207989 0 0 1 0 0 0.94999999999979179 0 0.025766224399875661 0.97546711317377799 0 0 1 0 0.025766224399875661 0.97546711317377799 0 0.050000000000207989 1 0 0 0 0 0.049999999999899652 0 0 0.02576622439977887 0.024532886826226379 0 0.65394964615507722 0.22666784374016369 0 0.64011864159029941 0.18789607982138171 0 0.6865991819015953 0.189116534044597 0 0.25195515620380449 0.25883339815888678 0 0.28040350263641872 0.23054717217092141 0 0.29132859388405002 0.27203693976649962 0 0.61209567303293111 0.44669033081290321 0 0.65178832218679827 0.45929119821019959 0 0.61547661924074692 0.48539576058873962 0 0.6541250972820879 0.49999999999999989 0 0.61547661924074692 0.48539576058873962 0 0.65178832218679827 0.45929119821019959 0 0.19670163708476801 0.31472518408333222 0 0.24432083401701241 0.3006253385567515 0 0.22615676742807109 0.33458786033114157 0 0.15801167086041079 0.46008690540259539 0 0.13773355295499351 0.42497777642586831 0 0.191953871957803 0.42546416763755879 0 0.1650278706801647 0.38791388161335733 0 0.191953871957803 0.42546416763755879 0 0.13773355295499351 0.42497777642586831 0 0.50715858906372158 0.63295939104129484 0 0.52584555706968406 0.66664215091846768 0 0.47913475093885149 0.66010775372412711 0 0.5 0.69999999999999996 0 0.47913475093885149 0.66010775372412711 0 0.52584555706968406 0.66664215091846768 0 0.51076801031701946 0.1202837388510348 0 0.51729576145820033 0.1683240575987815 0 0.48466639505193998 0.1421439844745814 0 0.71406021706547751 0.63292083137662503 0 0.74994237037456724 0.62775548192980357 0 0.72500000000000064 0.67022701834392062 0 0.71508799138962864 0.36622814920737751 0 0.73090396928863699 0.33699297293167962 0 0.74764719760526988 0.3719647154012321 0 0.22278230690790279 0.44824268025881547 0 0.25982634974572738 0.46097799597715272 0 0.23975172658309729 0.49475499200540818 0 0.80185942888539485 0.77452061303608133 0 0.78578450296893509 0.73292684821144505 0 0.81864958914779962 0.73589050177899629 0 0.80185942888501827 0.074520613036224564 0 0.78393852574753176 0.032039079577822822 0 0.81864958914740749 0.035890501779055867 0 0.5 0.29999999999999999 0 0.46226845272279993 0.31901800744800313 0 0.4604742573284204 0.27846934318264788 0 0.6405463747586706 0.63290524857395714 0 0.62460753523532009 0.66851202781000296 0 0.5991018319127801 0.62925360607495295 0 0.79680861578988083 0.92656778056766709 0 0.770759834363826 0.95919399014344442 0 0.75729602384198635 0.92353652857884294 0 0.79680861578956375 0.22656778056752541 0 0.77075983436335049 0.25919399014334171 0 0.75668890529066124 0.2244279804069782 0 0.65394964615507722 0.22666784374016369 0 0.69397719155551807 0.2245125647000914 0 0.67933712972090698 0.25920070958121938 0 0.81973119833356312 0.43505687159469048 0 0.84925632466077294 0.45359738909549091 0 0.81400510706333218 0.47357325943904899 0 0.83758014339878906 0.63222013025741819 0 0.82457059160610424 0.66831947184359608 0 0.79884539758237771 0.62875045078114233 0 0.25676291524611189 0.7436741304886243 0 0.2248999640082178 0.72584299459689172 0 0.26439878998046262 0.7048065392091396 0 0.91696753777131557 0.497780560203536 0 0.90900154012161016 0.53607784105648792 0 0.86907294890112186 0.52008116128001669 0 0.17933913398461551 0.2350063570234002 0 0.168349569971391 0.28054490850913671 0 0.14377654328998779 0.2442024734791064 0 0.1247745017231483 0.27198077544791172 0 0.14377654328998779 0.2442024734791064 0 0.168349569971391 0.28054490850913671 0 0.34258405725730701 0.4444034294386992 0 0.35221190152536241 0.40457127605439203 0 0.38707855792647411 0.42299362914874578 0 0.47357141910802508 0.1873585799078378 0 0.51729576145820033 0.1683240575987815 0 0.50760557329222289 0.20700468884612061 0 0.19670163708476801 0.31472518408333222 0 0.22615676742807109 0.33458786033114157 0 0.18434624290945251 0.35208838264196463 0 0.22033343844674469 0.36963382230740238 0 0.18434624290945251 0.35208838264196463 0 0.22615676742807109 0.33458786033114157 0 0.24432083401701241 0.3006253385567515 0 0.25966125648670141 0.34351016742083729 0 0.22615676742807109 0.33458786033114157 0 0.93814194660195893 0.44426664081746747 0 0.90594285160987287 0.4141265964174129 0 0.95871855522754235 0.40006508612975411 0 0.91750694127107502 0.36982372220068471 0 0.95871855522754235 0.40006508612975411 0 0.90594285160987287 0.4141265964174129 0 0.91750694127105259 0.63017627779935648 0 0.91143117093204207 0.58709913730335972 0 0.95867599106212187 0.60011091146651041 0 0.93732437411268477 0.55911392101136159 0 0.95867599106212187 0.60011091146651041 0 0.91143117093204207 0.58709913730335972 0 0.50715858906372158 0.63295939104129484 0 0.5498280205245758 0.6290146943450976 0 0.52584555706968406 0.66664215091846768 0 0.94399509803918602 0.75600490196082126 0 0.97435614836745565 0.77499999999987745 0 0.95386563387742829 0.80414874155775029 0 0.94399509803922566 0.056004901960802607 0 0.97435614836748241 0.074999999999825387 0 0.95386563387744361 0.1041487415577465 0 0.94399509803921056 0.24399509803922639 0 0.95391631417672862 0.19584263333809451 0 0.97435614836740092 0.22499999999981049 0 0.94399509803919068 0.9439950980391687 0 0.95391631417670719 0.89584263333814784 0 0.97435614836744289 0.92499999999990257 0 0.79680861578988083 0.92656778056766709 0 0.75729602384198635 0.92353652857884294 0 0.76891166905518427 0.88835469571185499 0 0.79680861578956375 0.22656778056752541 0 0.75668890529066124 0.2244279804069782 0 0.76587607630038135 0.18880039518954719 0 0.65394964615507722 0.22666784374016369 0 0.6865991819015953 0.189116534044597 0 0.69397719155551807 0.2245125647000914 0 0.38083244760691543 0.38531983672244652 0 0.38707855792647411 0.42299362914874578 0 0.35221190152536241 0.40457127605439203 0 1 0.7999999999998193 0 0.95386563387742829 0.80414874155775029 0 0.97435614836745565 0.77499999999987745 0 1 0.099999999999753911 0 0.95386563387744361 0.1041487415577465 0 0.97435614836748241 0.074999999999825387 0 1 0.8999999999998336 0 0.97435614836744289 0.92499999999990257 0 0.95391631417670719 0.89584263333814784 0 1 0.19999999999974799 0 0.97435614836740092 0.22499999999981049 0 0.95391631417672862 0.19584263333809451 0 0.84723782639812573 0.48638347960178252 0 0.81400510706333218 0.47357325943904899 0 0.84925632466077294 0.45359738909549091 0 0.54999999999999993 0.29999999999999999 0 0.54248833945060504 0.2520322959927106 0 0.5794309697024993 0.27124795968204829 0 0.94999999999999996 0.29999999999999999 0 0.95780851984364423 0.34215720972155339 0 0.92012390126144183 0.33123581297173937 0 0.94999999999999996 0.69999999999999996 0 0.92057473616084773 0.66770436535372446 0 0.9578014258160763 0.65787212321113708 0 0.15801167086041079 0.46008690540259539 0 0.113541300460994 0.46208784312094731 0 0.13773355295499351 0.42497777642586831 0 0.7250000000005199 0.94981617647078953 0 0.68015064798562208 0.95924320340003011 0 0.68987011941058407 0.92105047536677087 0 0.65507451745379841 0.92229208810758578 0 0.68987011941058407 0.92105047536677087 0 0.68015064798562208 0.95924320340003011 0 0.77846603114747959 0.49850927265137401 0 0.77972660463949339 0.45529290596363098 0 0.81400510706333218 0.47357325943904899 0 0.27866744612395528 0.38416094670951489 0 0.25966125648670141 0.34351016742083729 0 0.29644548887253103 0.34914008784168082 0 0.61209567303293111 0.44669033081290321 0 0.61547661924074692 0.48539576058873962 0 0.57975577671020095 0.46172033326338591 0 0.57611405284611883 0.50165903596042916 0 0.57975577671020095 0.46172033326338591 0 0.61547661924074692 0.48539576058873962 0 0.7250000000005199 0.89375000000045834 0 0.76891166905518427 0.88835469571185499 0 0.75729602384198635 0.92353652857884294 0 0.72500000000001008 0.19776155966387679 0 0.76587607630038135 0.18880039518954719 0 0.75668890529066124 0.2244279804069782 0 0.72500000000001008 0.19776155966387679 0 0.69397719155551807 0.2245125647000914 0 0.6865991819015953 0.189116534044597 0 0.083411279318303222 0.089699755330707398 0 0.12372429750337779 0.095814237875728972 0 0.1053400320299198 0.12877248826361379 0 0.083411279318375747 0.91030024466934134 0 0.10562472963403439 0.87143394428979881 0 0.1241151115713819 0.9045666525468371 0 0.14617343800780541 0.93808063414349496 0 0.1241151115713819 0.9045666525468371 0 0.16206583317966519 0.89685560785156404 0 0.14618258501891079 0.062070108745602003 0 0.16141998738593399 0.10404039647458049 0 0.12372429750337779 0.095814237875728972 0 0.33277555741076909 0.36432196682010132 0 0.35221190152536241 0.40457127605439203 0 0.31778888742534622 0.40581751814196781 0 0.7250000000005199 0.94981617647078953 0 0.75729602384198635 0.92353652857884294 0 0.770759834363826 0.95919399014344442 0 0.72500000000000064 0.2498161764706 0 0.75668890529066124 0.2244279804069782 0 0.77075983436335049 0.25919399014334171 0 0.72500000000000064 0.2498161764706 0 0.67933712972090698 0.25920070958121938 0 0.69397719155551807 0.2245125647000914 0 0.6236733212988993 0.14864538214901801 0 0.61956000905586006 0.1043312481793135 0 0.65290632656860115 0.11434202593454081 0 0.81973119833356312 0.43505687159469048 0 0.81400510706333218 0.47357325943904899 0 0.77972660463949339 0.45529290596363098 0 0.25676291524611189 0.7436741304886243 0 0.29904318922293632 0.74132814928635593 0 0.2792923945214143 0.77665808831789485 0 0.36575549820117997 0.31677992835137742 0 0.32752639306529541 0.32610012995269699 0 0.33402499257867951 0.28911035184473982 0 0.14332333627550789 0.14578431753966009 0 0.18652628422869419 0.14162325200928061 0 0.18124454140915969 0.18790916706335251 0 0.57724883562309992 0.92155686857100794 0 0.5832743223239254 0.88483152652961872 0 0.61885627562261258 0.90282959257498208 0 0.57667858002728545 0.078486105337742612 0 0.61956000905586006 0.1043312481793135 0 0.58516465772821369 0.11653801664834119 0 0.80185942888539485 0.77452061303608133 0 0.80041942726660109 0.81543261647703358 0 0.77094201086366854 0.79647480515688507 0 0.80185942888501827 0.074520613036224564 0 0.80076557130237269 0.1154587552654202 0 0.76878382444651716 0.097147941686331368 0 0.64753070846764316 0.77332939069435502 0 0.68024162096458085 0.79868546898116533 0 0.65005442820240822 0.82644988530054031 0 0.26429849586623999 0.19346700179430079 0 0.25557216766470708 0.15874861286892261 0 0.29336099386129338 0.15892013001050981 0 0.29348325746214782 0.31350119524708198 0 0.29644548887253103 0.34914008784168082 0 0.25966125648670141 0.34351016742083729 0 0.68391457121233579 0.14440470121196541 0 0.65290632656860115 0.11434202593454081 0 0.68330259535470161 0.10038702501083881 0 0.91750694127107502 0.36982372220068471 0 0.92012390126144183 0.33123581297173937 0 0.95780851984364423 0.34215720972155339 0 0.91750694127105259 0.63017627779935648 0 0.9578014258160763 0.65787212321113708 0 0.92057473616084773 0.66770436535372446 0 0.22033343844674469 0.36963382230740238 0 0.22615676742807109 0.33458786033114157 0 0.25966125648670141 0.34351016742083729 0 1 0.94999999999997109 0 0.97166519676946206 0.96662885509935492 0 0.97435614836744289 0.92499999999990257 0 0.94399509803919068 0.9439950980391687 0 0.97435614836744289 0.92499999999990257 0 0.97166519676946206 0.96662885509935492 0 0.94399509803921056 0.24399509803922639 0 0.97435614836740092 0.22499999999981049 0 0.97166519676951801 0.26662885509932011 0 1 0.24999999999987299 0 0.97166519676951801 0.26662885509932011 0 0.97435614836740092 0.22499999999981049 0 1 0.74999999999993494 0 0.97435614836745565 0.77499999999987745 0 0.97166519676947294 0.73337114490064459 0 1 0.049999999999896842 0 0.97435614836748241 0.074999999999825387 0 0.97166519676946894 0.033371144900598393 0 0.94399509803918602 0.75600490196082126 0 0.97166519676947294 0.73337114490064459 0 0.97435614836745565 0.77499999999987745 0 0.94399509803922566 0.056004901960802607 0 0.97166519676946894 0.033371144900598393 0 0.97435614836748241 0.074999999999825387 0 0.77846603114747959 0.49850927265137401 0 0.81400510706333218 0.47357325943904899 0 0.81441713509985358 0.51161854125224959 0 0.77354604466818633 0.40378688774472771 0 0.72622533758026719 0.40265885511101601 0 0.74764719760526988 0.3719647154012321 0 0.71508799138962864 0.36622814920737751 0 0.74764719760526988 0.3719647154012321 0 0.72622533758026719 0.40265885511101601 0 0.84723782639812573 0.48638347960178252 0 0.84925632466077294 0.45359738909549091 0 0.88594198078881503 0.46167788676578442 0 0.86411095495256451 0.42388805655111889 0 0.88594198078881503 0.46167788676578442 0 0.84925632466077294 0.45359738909549091 0 0.43846182030517877 0.64845797726506715 0 0.43545892161006339 0.61093128915313821 0 0.47095389620662098 0.61892551373708504 0 0.33123028043633618 0.77629643437932982 0 0.35642984951668422 0.80994399665655703 0 0.30857225866488791 0.81101973481716805 0 0.33403534827021109 0.84402799729020661 0 0.30857225866488791 0.81101973481716805 0 0.35642984951668422 0.80994399665655703 0 0.26429849586623999 0.19346700179430079 0 0.31255190597181792 0.19850845631528771 0 0.28040350263641872 0.23054717217092141 0 0.57724883562309992 0.92155686857100794 0 0.54783390826260769 0.89287767010860219 0 0.5832743223239254 0.88483152652961872 0 0.55899371797446828 0.85003102233514438 0 0.5832743223239254 0.88483152652961872 0 0.54783390826260769 0.89287767010860219 0 0.4089290844030305 0.58728915500154233 0 0.43545892161006339 0.61093128915313821 0 0.39743091024207589 0.6239520004230239 0 0.77293540622714185 0.59448302402785813 0 0.81723410853263523 0.59419663659258926 0 0.79884539758237771 0.62875045078114233 0 0.83758014339878906 0.63222013025741819 0 0.79884539758237771 0.62875045078114233 0 0.81723410853263523 0.59419663659258926 0 0.35864735590330371 0.63903383440414463 0 0.39743091024207589 0.6239520004230239 0 0.3977710372045391 0.65868194622830212 0 0.56202748619534593 0.15054058349222879 0 0.54979595918804436 0.1060565713905809 0 0.58516465772821369 0.11653801664834119 0 0.57667858002728545 0.078486105337742612 0 0.58516465772821369 0.11653801664834119 0 0.54979595918804436 0.1060565713905809 0 0.33122374654748771 0.57588941099433744 0 0.37272913873093971 0.56192925302619479 0 0.35765792684946668 0.6000687869219653 0 0.35864735590330371 0.63903383440414463 0 0.35765792684946668 0.6000687869219653 0 0.39743091024207589 0.6239520004230239 0 0.71508799138962864 0.36622814920737751 0 0.68887083591306764 0.33632058575757479 0 0.73090396928863699 0.33699297293167962 0 0.29348325746214782 0.31350119524708198 0 0.32752639306529541 0.32610012995269699 0 0.29644548887253103 0.34914008784168082 0 0.33277555741076909 0.36432196682010132 0 0.29644548887253103 0.34914008784168082 0 0.32752639306529541 0.32610012995269699 0 0.34258405725730701 0.4444034294386992 0 0.31778888742534622 0.40581751814196781 0 0.35221190152536241 0.40457127605439203 0 0.79999999999999982 0.69999999999999996 0 0.81864958914779962 0.73589050177899629 0 0.78578450296893509 0.73292684821144505 0 0.79999999999947335 0 0 0.81864958914740749 0.035890501779055867 0 0.78393852574753176 0.032039079577822822 0 0.27474541102162192 0.11822029332053539 0 0.29336099386129338 0.15892013001050981 0 0.25557216766470708 0.15874861286892261 0 0 0.45000000000187229 0 0.035463093262830522 0.42673416072819947 0 0.033550201249889847 0.46247875832467239 0 0.6499999999999998 0.69999999999999996 0 0.66427993341343905 0.73232764502436276 0 0.63221990677827677 0.73442891067859706 0 0.84723782639812573 0.48638347960178252 0 0.81441713509985358 0.51161854125224959 0 0.81400510706333218 0.47357325943904899 0 0.26104540868854792 0.81401944968719064 0 0.30857225866488791 0.81101973481716805 0 0.29209212897034281 0.84715728365233667 0 0.33403534827021109 0.84402799729020661 0 0.29209212897034281 0.84715728365233667 0 0.30857225866488791 0.81101973481716805 0 0.69999999999999984 0.29999999999999999 0 0.73090396928863699 0.33699297293167962 0 0.68887083591306764 0.33632058575757479 0 
</DataArray>
</Points>
<Cells>
<DataArray type="UInt32" Name="connectivity" format="ascii">
0 1 2 3 4 5 6 7 8 9 10 11 12 13 14 15 16 17 18 19 20 21 22 23 24 25 26 27 28 29 30 31 32 33 34 35 36 37 38 39 40 41 42 43 44 45 46 47 48 49 50 51 52 53 54 55 56 57 58 59 60 61 62 63 64 65 66 67 68 69 70 71 72 73 74 75 76 77 78 79 80 81 82 83 84 85 86 87 88 89 90 91 92 93 94 95 96 97 98 99 100 101 102 103 104 105 106 107 108 109 110 111 112 113 114 115 116 117 118 119 120 121 122 123 124 125 126 127 128 129 130 131 132 133 134 135 136 137 138 139 140 141 142 143 144 145 146 147 148 149 150 151 152 153 154 155 156 157 158 159 160 161 162 163 164 165 166 167 168 169 170 171 172 173 174 175 176 177 178 179 180 181 182 183 184 185 186 187 188 189 190 191 192 193 194 195 196 197 198 199 200 201 202 203 204 205 206 207 208 209 210 211 212 213 214 215 216 217 218 219 220 221 222 223 224 225 226 227 228 229 230 231 232 233 234 235 236 237 238 239 240 241 242 243 244 245 246 247 248 249 250 251 252 253 254 255 256 257 258 259 260 261 262 263 264 265 266 267 268 269 270 271 272 273 274 275 276 277 278 279 280 281 282 283 284 285 286 287 288 289 290 291 292 293 294 295 296 297 298 299 300 301 302 303 304 305 306 307 308 309 310 311 312 313 314 315 316 317 318 319 320 321 322 323 324 325 326 327 328 329 330 331 332 333 334 335 336 337 338 339 340 341 342 343 344 345 346 347 348 349 350 351 352 353 354 355 356 357 358 359 360 361 362 363 364 365 366 367 368 369 370 371 372 373 374 375 376 377 378 379 380 381 382 383 384 385 386 387 388 389 390 391 392 393 394 395 396 397 398 399 400 401 402 403 404 405 406 407 408 409 410 411 412 413 414 415 416 417 418 419 420 421 422 423 424 425 426 427 428 429 430 431 432 433 434 435 436 437 438 439 440 441 442 443 444 445 446 447 448 449 450 451 452 453 454 455 456 457 458 459 460 461 462 463 464 465 466 467 468 469 470 471 472 473 474 475 476 477 478 479 480 481 482 483 484 485 486 487 488 489 490 491 492 493 494 495 496 497 498 499 500 501 502 503 504 505 506 507 508 509 510 511 512 513 514 515 516 517 518 519 520 521 522 523 524 525 526 527 528 529 530 531 532 533 534 535 536 537 538 539 540 541 542 543 544 545 546 547 548 549 550 551 552 553 554 555 556 557 558 559 560 561 562 563 564 565 566 567 568 569 570 571 572 573 574 575 576 577 578 579 580 581 582 583 584 585 586 587 588 589 590 591 592 593 594 595 596 597 598 599 600 601 602 603 604 605 606 607 608 609 610 611 612 613 614 615 616 617 618 619 620 621 622 623 624 625 626 627 628 629 630 631 632 633 634 635 636 637 638 639 640 641 642 643 644 645 646 647 648 649 650 651 652 653 654 655 656 657 658 659 660 661 662 663 664 665 666 667 668 669 670 671 672 673 674 675 676 677 678 679 680 681 682 683 684 685 686 687 688 689 690 691 692 693 694 695 696 697 698 699 700 701 702 703 704 705 706 707 708 709 710 711 712 713 714 715 716 717 718 719 720 721 722 723 724 725 726 727 728 729 730 731 732 733 734 735 736 737 738 739 740 741 742 743 744 745 746 747 748 749 750 751 752 753 754 755 756 757 758 759 760 761 762 763 764 765 766 767 768 769 770 771 772 773 774 775 776 777 778 779 780 781 782 783 784 785 786 787 788 789 790 791 792 793 794 795 796 797 798 799 800 801 802 803 804 805 806 807 808 809 810 811 812 813 814 815 816 817 818 819 820 821 822 823 824 825 826 827 828 829 830 831 832 833 834 835 836 837 838 839 840 841 842 843 844 845 846 847 848 849 850 851 852 853 854 855 856 857 858 859 860 861 862 863 864 865 866 867 868 869 870 871 872 873 874 875 876 877 878 879 880 881 882 883 884 885 886 887 888 889 890 891 892 893 894 895 896 897 898 899 900 901 902 903 904 905 906 907 908 909 910 911 912 913 914 915 916 917 918 919 920 921 922 923 924 925 926 927 928 929 930 931 932 933 934 935 936 937 938 939 940 941 942 943 944 945 946 947 948 949 950 951 952 953 954 955 956 957 958 959 960 961 962 963 964 965 966 967 968 969 970 971 972 973 974 975 976 977 978 979 980 981 982 983 984 985 986 987 988 989 990 991 992 993 994 995 996 997 998 999 1000 1001 1002 1003 1004 1005 1006 1007 1008 1009 1010 1011 1012 1013 1014 1015 1016 1017 1018 1019 1020 1021 1022 1023 1024 1025 1026 1027 1028 1029 1030 1031 1032 1033 1034 1035 1036 1037 1038 1039 1040 1041 1042 1043 1044 1045 1046 1047 1048 1049 1050 1051 1052 1053 1054 1055 1056 1057 1058 1059 1060 1061 1062 1063 1064 1065 1066 1067 1068 1069 1070 1071 1072 1073 1074 1075 1076 1077 1078 1079 1080 1081 1082 1083 1084 1085 1086 1087 1088 1089 1090 1091 1092 1093 1094 1095 1096 1097 1098 1099 1100 1101 1102 1103 1104 1105 1106 1107 1108 1109 1110 1111 1112 1113 1114 1115 1116 1117 1118 1119 1120 1121 1122 1123 1124 1125 1126 1127 1128 1129 1130 1131 1132 1133 1134 1135 1136 1137 1138 1139 1140 1141 1142 1143 1144 1145 1146 1147 1148 1149 1150 1151 1152 1153 1154 1155 1156 1157 1158 1159 1160 1161 1162 1163 1164 1165 1166 1167 1168 1169 1170 1171 1172 1173 1174 1175 1176 1177 1178 1179 1180 1181 1182 1183 1184 1185 1186 1187 1188 1189 1190 1191 1192 1193 1194 1195 1196 1197 1198 1199 1200 1201 1202 1203 1204 1205 1206 1207 1208 1209 1210 1211 1212 1213 1214 1215 1216 1217 1218 1219 1220 1221 1222 1223 1224 1225 1226 1227 1228 1229 1230 1231 1232 1233 1234 1235 1236 1237 1238 1239 1240 1241 1242 1243 1244 1245 1246 1247 1248 1249 1250 1251 1252 1253 1254 1255 1256 1257 1258 1259 1260 1261 1262 1263 1264 1265 1266 1267 1268 1269 1270 1271 1272 1273 1274 1275 1276 1277 1278 1279 1280 1281 1282 1283 1284 1285 1286 1287 1288 1289 1290 1291 1292 1293 1294 1295 1296 1297 1298 1299 1300 1301 1302 1303 1304 1305 1306 1307 1308 1309 1310 1311 1312 1313 1314 1315 1316 1317 1318 1319 1320 1321 1322 1323 1324 1325 1326 1327 1328 1329 1330 1331 1332 1333 1334 1335 1336 1337 1338 1339 1340 1341 1342 1343 1344 1345 1346 1347 1348 1349 1350 1351 1352 1353 1354 1355 1356 1357 1358 1359 1360 1361 1362 1363 1364 1365 1366 1367 1368 1369 1370 1371 1372 1373 1374 1375 1376 1377 1378 1379 1380 1381 1382 1383 1384 1385 1386 1387 1388 1389 1390 1391 1392 1393 1394 1395 1396 1397 1398 1399 1400 1401 1402 1403 1404 1405 1406 1407 1408 1409 1410 1411 1412 1413 1414 1415 1416 1417 1418 1419 1420 1421 1422 1423 1424 1425 1426 1427 1428 1429 1430 1431 1432 1433 1434 1435 1436 1437 1438 1439 1440 1441 1442 1443 1444 1445 1446 1447 1448 1449 1450 1451 1452 1453 1454 1455 1456 1457 1458 1459 1460 1461 1462 1463 1464 1465 1466 1467 1468 1469 1470 1471 1472 1473 1474 1475 1476 1477 1478 1479 1480 1481 1482 1483 1484 1485 1486 1487 1488 1489 1490 1491 1492 1493 1494 1495 1496 1497 1498 1499 1500 1501 1502 1503 1504 1505 1506 1507 1508 1509 1510 1511 1512 1513 1514 1515 1516 1517 1518 1519 1520 1521 1522 1523 1524 1525 1526 1527 1528 1529 1530 1531 1532 1533 1534 1535 1536 1537 1538 1539 1540 1541 1542 1543 1544 1545 1546 1547 1548 1549 1550 1551 1552 1553 1554 1555 1556 1557 1558 1559 1560 1561 1562 1563 1564 1565 1566 1567 1568 1569 1570 1571 1572 1573 1574 1575 1576 1577 1578 1579 1580 1581 1582 1583 1584 1585 1586 1587 1588 1589 1590 1591 1592 1593 1594 1595 1596 1597 1598 1599 1600 1601 1602 1603 1604 1605 1606 1607 1608 1609 1610 1611 1612 1613 1614 1615 1616 1617 1618 1619 1620 1621 1622 1623 1624 1625 1626 1627 1628 1629 1630 1631 1632 1633 1634 1635 1636 1637 1638 1639 1640 1641 1642 1643 1644 1645 1646 1647 1648 1649 1650 1651 1652 1653 1654 1655 1656 1657 1658 1659 1660 1661 1662 1663 1664 1665 1666 1667 1668 1669 1670 1671 1672 1673 1674 1675 1676 1677 1678 1679 1680 1681 1682 1683 1684 1685 1686 1687 1688 1689 1690 1691 1692 1693 1694 1695 1696 1697 1698 1699 1700 1701 1702 1703 1704 1705 1706 1707 1708 1709 1710 1711 1712 1713 1714 1715 1716 1717 1718 1719 1720 1721 1722 1723 1724 1725 1726 1727 1728 1729 1730 1731 1732 1733 1734 1735 1736 1737 1738 1739 1740 1741 1742 1743 1744 1745 1746 1747 1748 1749 1750 1751 1752 1753 1754 1755 1756 1757 1758 1759 1760 1761 1762 1763 1764 1765 1766 1767 1768 1769 1770 1771 1772 1773 1774 1775 1776 1777 1778 1779 1780 1781 1782 1783 1784 1785 1786 1787 1788 1789 1790 1791 1792 1793 1794 1795 1796 1797 1798 1799 1800 1801 1802 1803 1804 1805 1806 1807 1808 1809 1810 1811 1812 1813 1814 1815 1816 1817 1818 1819 1820 1821 1822 1823 1824 1825 1826 1827 1828 1829 1830 1831 1832 1833 1834 1835 1836 1837 1838 1839 1840 1841 1842 1843 1844 1845 1846 1847 1848 1849 1850 1851 1852 1853 1854 1855 1856 1857 1858 1859 1860 1861 1862 1863 1864 1865 1866 1867 1868 1869 1870 1871 1872 1873 1874 1875 1876 1877 1878 1879 1880 1881 1882 1883 1884 1885 1886 1887 1888 1889 1890 1891 1892 1893 1894 1895 1896 1897 1898 1899 1900 1901 1902 1903 1904 1905 1906 1907 1908 1909 1910 1911 1912 1913 1914 1915 1916 1917 1918 1919 1920 1921 1922 1923 1924 1925 1926 1927 1928 1929 1930 1931 1932 1933 1934 1935 1936 1937 1938 1939 1940 1941 1942 1943 1944 1945 1946 1947 1948 1949 1950 1951 1952 1953 1954 1955 1956 1957 1958 1959 1960 1961 1962 1963 1964 1965 1966 1967 1968 1969 1970 1971 1972 1973 1974 1975 1976 1977 1978 1979 1980 1981 1982 1983 1984 1985 1986 1987 1988 1989 1990 1991 1992 1993 1994 1995 1996 1997 1998 1999 2000 2001 2002 2003 2004 2005 2006 2007 2008 2009 2010 2011 2012 2013 2014 2015 2016 2017 2018 2019 2020 2021 2022 2023 2024 2025 2026 2027 2028 2029 2030 2031 2032 2033 2034 2035 2036 2037 2038 2039 2040 2041 2042 2043 2044 2045 2046 2047 2048 2049 2050 2051 2052 2053 2054 2055 2056 2057 2058 2059 2060 2061 2062 2063 2064 2065 2066 2067 2068 2069 2070 2071 2072 2073 2074 2075 2076 2077 2078 2079 2080 2081 2082 2083 2084 2085 2086 2087 2088 2089 2090 2091 2092 2093 2094 2095 2096 2097 2098 2099 2100 2101 2102 2103 2104 2105 2106 2107 2108 2109 2110 2111 2112 2113 2114 2115 2116 2117 2118 2119 2120 2121 2122 2123 2124 2125 2126 2127 2128 2129 2130 2131 2132 2133 2134 2135 2136 2137 2138 2139 2140 2141 2142 2143 2144 2145 2146 2147 2148 2149 2150 2151 2152 2153 2154 2155 2156 2157 2158 2159 2160 2161 2162 2163 2164 2165 2166 2167 2168 2169 2170 2171 2172 2173 2174 2175 2176 2177 2178 2179 2180 2181 2182 2183 2184 2185 2186 2187 2188 2189 2190 2191 2192 2193 2194 2195 2196 2197 2198 2199 2200 2201 2202 2203 2204 2205 2206 2207 2208 2209 2210 2211 2212 2213 2214 2215 2216 2217 2218 2219 2220 2221 2222 2223 2224 2225 2226 2227 2228 2229 2230 2231 2232 2233 2234 2235 2236 2237 2238 2239 2240 2241 2242 2243 2244 2245 2246 2247 2248 2249 2250 2251 2252 2253 2254 2255 2256 2257 2258 2259 2260 2261 2262 2263 2264 2265 2266 2267 2268 2269 2270 2271 2272 2273 2274 2275 2276 2277 2278 2279 2280 2281 2282 2283 2284 2285 2286 2287 2288 2289 2290 2291 2292 2293 2294 2295 2296 2297 2298 2299 2300 2301 2302 2303 2304 2305 2306 2307 2308 2309 2310 2311 2312 2313 2314 2315 2316 2317 2318 2319 2320 2321 2322 2323 2324 2325 2326 2327 2328 2329 2330 2331 2332 2333 2334 2335 2336 2337 2338 2339 2340 2341 2342 2343 2344 2345 2346 2347 2348 2349 2350 2351 2352 2353 2354 2355 2356 2357 2358 2359 2360 2361 2362 2363 2364 2365 2366 2367 2368 2369 2370 2371 2372 2373 2374 2375 2376 2377 2378 2379 2380 2381 2382 2383 2384 2385 2386 2387 2388 2389 2390 2391 2392 2393 2394 2395 2396 2397 2398 2399 2400 2401 2402 2403 2404 2405 2406 2407 2408 2409 2410 2411 2412 2413 2414 2415 2416 2417 2418 2419 2420 2421 2422 2423 2424 2425 2426 2427 2428 2429 2430 2431 2432 2433 2434 2435 2436 2437 2438 2439 2440 2441 2442 2443 2444 2445 2446 2447 2448 2449 2450 2451 2452 2453 2454 2455 2456 2457 2458 2459 2460 2461 2462 2463 2464 2465 2466 2467 2468 2469 2470 2471 2472 2473 2474 2475 2476 2477 2478 2479 2480 2481 2482 2483 2484 2485 2486 2487 2488 2489 2490 2491 2492 2493 2494 2495 2496 2497 2498 2499 2500 2501 2502 2503 2504 2505 2506 2507 2508 2509 2510 2511 2512 2513 2514 2515 2516 2517 2518 2519 2520 2521 2522 2523 2524 2525 2526 2527 2528 2529 2530 2531 2532 2533 2534 2535 2536 2537 2538 2539 2540 2541 2542 2543 2544 2545 2546 2547 2548 2549 2550 2551 2552 2553 2554 2555 2556 2557 2558 2559 2560 2561 2562 2563 2564 2565 2566 2567 2568 2569 2570 2571 2572 2573 2574 2575 2576 2577 2578 2579 2580 2581 2582 2583 2584 2585 2586 2587 2588 2589 2590 2591 2592 2593 2594 2595 2596 2597 2598 2599 2600 2601 2602 2603 2604 2605 2606 2607 2608 2609 2610 2611 2612 2613 2614 2615 2616 2617 2618 2619 2620 2621 2622 2623 2624 2625 2626 2627 2628 2629 2630 2631 2632 2633 2634 2635 2636 2637 2638 2639 2640 2641 2642 2643 2644 2645 2646 2647 2648 2649 2650 2651 2652 2653 2654 2655 2656 2657 2658 2659 2660 2661 2662 2663 2664 2665 2666 2667 2668 2669 2670 2671 2672 2673 2674 2675 2676 2677 2678 2679 2680 2681 2682 2683 2684 2685 2686 2687 2688 2689 2690 2691 2692 2693 2694 2695 2696 2697 2698 2699 2700 2701 2702 2703 2704 2705 2706 2707 2708 2709 2710 2711 2712 2713 2714 2715 2716 2717 2718 2719 2720 2721 2722 2723 2724 2725 2726 2727 2728 2729 2730 2731 2732 2733 2734 2735 2736 2737 2738 2739 2740 2741 2742 2743 2744 2745 2746 2747 2748 2749 2750 2751 2752 2753 2754 2755 2756 2757 2758 2759 2760 2761 2762 2763 2764 2765 2766 2767 2768 2769 2770 2771 2772 2773 2774 2775 2776 2777 2778 2779 2780 2781 2782 2783 2784 2785 2786 2787 2788 2789 2790 2791 2792 2793 2794 2795 2796 2797 2798 2799 2800 2801 2802 2803 2804 2805 2806 2807 2808 2809 2810 2811 2812 2813 2814 2815 2816 2817 2818 2819 2820 2821 2822 2823 2824 2825 2826 2827 2828 2829 2830 2831 2832 2833 2834 2835 2836 2837 2838 2839 2840 2841 2842 2843 2844 2845 2846 2847 2848 2849 2850 2851 2852 2853 2854 2855 2856 2857 2858 2859 2860 2861 2862 2863 2864 2865 2866 2867 2868 2869 2870 2871 2872 2873 2874 2875 2876 2877 2878 2879 2880 2881 2882 2883 2884 2885 2886 2887 2888 2889 2890 2891 2892 2893 2894 2895 2896 2897 2898 2899 2900 2901 2902 2903 2904 2905 2906 2907 2908 2909 2910 2911 2912 2913 2914 2915 2916 2917 2918 2919 2920 2921 2922 2923 2924 2925 2926 2927 2928 2929 2930 2931 2932 2933 2934 2935 2936 2937 2938 2939 2940 2941 2942 2943 2944 2945 2946 2947 2948 2949 2950 2951 2952 2953 2954 2955 2956 2957 2958 2959 2960 2961 2962 2963 2964 2965 2966 2967 2968 2969 2970 2971 2972 2973 2974 2975 2976 2977 2978 2979 2980 2981 2982 2983 2984 2985 2986 2987 2988 2989 2990 2991 2992 2993 2994 2995 2996 2997 2998 2999 3000 3001 3002 3003 3004 3005 3006 3007 3008 3009 3010 3011 3012 3013 3014 3015 3016 3017 3018 3019 3020 3021 3022 3023 3024 3025 3026 3027 3028 3029 3030 3031 3032 3033 3034 3035 3036 3037 3038 3039 3040 3041 3042 3043 3044 3045 3046 3047 3048 3049 3050 3051 3052 3053 3054 3055 3056 3057 3058 3059 3060 3061 3062 3063 3064 3065 3066 3067 3068 3069 3070 3071 3072 3073 3074 3075 3076 3077 3078 3079 3080 3081 3082 3083 3084 3085 3086 3087 3088 3089 3090 3091 3092 3093 3094 3095 3096 3097 3098 3099 3100 3101 3102 3103 3104 3105 3106 3107 3108 3109 3110 3111 3112 3113 3114 3115 3116 3117 3118 3119 3120 3121 3122 3123 3124 3125 3126 3127 3128 3129 3130 3131 3132 3133 3134 3135 3136 3137 3138 3139 3140 3141 
</DataArray>
<DataArray type="UInt32" Name="offsets" format="ascii">
2 4 6 8 10 12 14 16 18 20 22 24 26 28 30 32 34 36 38 40 43 46 49 52 55 58 61 64 67 70 73 76 79 82 85 88 91 94 97 100 103 106 109 112 115 118 121 124 127 130 133 136 139 142 145 148 151 154 157 160 163 166 169 172 175 178 181 184 187 190 193 196 199 202 205 208 211 214 217 220 223 226 229 232 235 238 241 244 247 250 253 256 259 262 265 268 271 274 277 280 283 286 289 292 295 298 301 304 307 310 313 316 319 322 325 328 331 334 337 340 343 346 349 352 355 358 361 364 367 370 373 376 379 382 385 388 391 394 397 400 403 406 409 412 415 418 421 424 427 430 433 436 439 442 445 448 451 454 457 460 463 466 469 472 475 478 481 484 487 490 493 496 499 502 505 508 511 514 517 520 523 526 529 532 535 538 541 544 547 550 553 556 559 562 565 568 571 574 577 580 583 586 589 592 595 598 601 604 607 610 613 616 619 622 625 628 631 634 637 640 643 646 649 652 655 658 661 664 667 670 673 676 679 682 685 688 691 694 697 700 703 706 709 712 715 718 721 724 727 730 733 736 739 742 745 748 751 754 757 760 763 766 769 772 775 778 781 784 787 790 793 796 799 802 805 808 811 814 817 820 823 826 829 832 835 838 841 844 847 850 853 856 859 862 865 868 871 874 877 880 883 886 889 892 895 898 901 904 907 910 913 916 919 922 925 928 931 934 937 940 943 946 949 952 955 958 961 964 967 970 973 976 979 982 985 988 991 994 997 1000 1003 1006 1009 1012 1015 1018 1021 1024 1027 1030 1033 1036 1039 1042 1045 1048 1051 1054 1057 1060 1063 1066 1069 1072 1075 1078 1081 1084 1087 1090 1093 1096 1099 1102 1105 1108 1111 1114 1117 1120 1123 1126 1129 1132 1135 1138 1141 1144 1147 1150 1153 1156 1159 1162 1165 1168 1171 1174 1177 1180 1183 1186 1189 1192 1195 1198 1201 1204 1207 1210 1213 1216 1219 1222 1225 1228 1231 1234 1237 1240 1243 1246 1249 1252 1255 1258 1261 1264 1267 1270 1273 1276 1279 1282 1285 1288 1291 1294 1297 1300 1303 1306 1309 1312 1315 1318 1321 1324 1327 1330 1333 1336 1339 1342 1345 1348 1351 1354 1357 1360 1363 1366 1369 1372 1375 1378 1381 1384 1387 1390 1393 1396 1399 1402 1405 1408 1411 1414 1417 1420 1423 1426 1429 1432 1435 1438 1441 1444 1447 1450 1453 1456 1459 1462 1465 1468 1471 1474 1477 1480 1483 1486 1489 1492 1495 1498 1501 1504 1507 1510 1513 1516 1519 1522 1525 1528 1531 1534 1537 1540 1543 1546 1549 1552 1555 1558 1561 1564 1567 1570 1573 1576 1579 1582 1585 1588 1591 1594 1597 1600 1603 1606 1609 1612 1615 1618 1621 1624 1627 1630 1633 1636 1639 1642 1645 1648 1651 1654 1657 1660 1663 1666 1669 1672 1675 1678 1681 1684 1687 1690 1693 1696 1699 1702 1705 1708 1711 1714 1717 1720 1723 1726 1729 1732 1735 1738 1741 1744 1747 1750 1753 1756 1759 1762 1765 1768 1771 1774 1777 1780 1783 1786 1789 1792 1795 1798 1801 1804 1807 1810 1813 1816 1819 1822 1825 1828 1831 1834 1837 1840 1843 1846 1849 1852 1855 1858 1861 1864 1867 1870 1873 1876 1879 1882 1885 1888 1891 1894 1897 1900 1903 1906 1909 1912 1915 1918 1921 1924 1927 1930 1933 1936 1939 1942 1945 1948 1951 1954 1957 1960 1963 1966 1969 1972 1975 1978 1981 1984 1987 1990 1993 1996 1999 2002 2005 2008 2011 2014 2017 2020 2023 2026 2029 2032 2035 2038 2041 2044 2047 2050 2053 2056 2059 2062 2065 2068 2071 2074 2077 2080 2083 2086 2089 2092 2095 2098 2101 2104 2107 2110 2113 2116 2119 2122 2125 2128 2131 2134 2137 2140 2143 2146 2149 2152 2155 2158 2161 2164 2167 2170 2173 2176 2179 2182 2185 2188 2191 2194 2197 2200 2203 2206 2209 2212 2215 2218 2221 2224 2227 2230 2233 2236 2239 2242 2245 2248 2251 2254 2257 2260 2263 2266 2269 2272 2275 2278 2281 2284 2287 2290 2293 2296 2299 2302 2305 2308 2311 2314 2317 2320 2323 2326 2329 2332 2335 2338 2341 2344 2347 2350 2353 2356 2359 2362 2365 2368 2371 2374 2377 2380 2383 2386 2389 2392 2395 2398 2401 2404 2407 2410 2413 2416 2419 2422 2425 2428 2431 2434 2437 2440 2443 2446 2449 2452 2455 2458 2461 2464 2467 2470 2473 2476 2479 2482 2485 2488 2491 2494 2497 2500 2503 2506 2509 2512 2515 2518 2521 2524 2527 2530 2533 2536 2539 2542 2545 2548 2551 2554 2557 2560 2563 2566 2569 2572 2575 2578 2581 2584 2587 2590 2593 2596 2599 2602 2605 2608 2611 2614 2617 2620 2623 2626 2629 2632 2635 2638 2641 2644 2647 2650 2653 2656 2659 2662 2665 2668 2671 2674 2677 2680 2683 2686 2689 2692 2695 2698 2701 2704 2707 2710 2713 2716 2719 2722 2725 2728 2731 2734 2737 2740 2743 2746 2749 2752 2755 2758 2761 2764 2767 2770 2773 2776 2779 2782 2785 2788 2791 2794 2797 2800 2803 2806 2809 2812 2815 2818 2821 2824 2827 2830 2833 2836 2839 2842 2845 2848 2851 2854 2857 2860 2863 2866 2869 2872 2875 2878 2881 2884 2887 2890 2893 2896 2899 2902 2905 2908 2911 2914 2917 2920 2923 2926 2929 2932 2935 2938 2941 2944 2947 2950 2953 2956 2959 2962 2965 2968 2971 2974 2977 2980 2983 2986 2989 2992 2995 2998 3001 3004 3007 3010 3013 3016 3019 3022 3025 3028 3031 3034 3037 3040 3043 3046 3049 3052 3055 3058 3061 3064 3067 3070 3073 3076 3079 3082 3085 3088 3091 3094 3097 3100 3103 3106 3109 3112 3115 3118 3121 3124 3127 3130 3133 3136 3139 3142 
</DataArray>
<DataArray type="UInt32" Name="types" format="ascii">
3 3 3 3 3 3 3 3 3 3 3 3 3 3 3 3 3 3 3 3 5 5 5 5 5 5 5 5 5 5 5 5 5 5 5 5 5 5 5 5 5 5 5 5 5 5 5 5 5 5 5 5 5 5 5 5 5 5 5 5 5 5 5 5 5 5 5 5 5 5 5 5 5 5 5 5 5 5 5 5 5 5 5 5 5 5 5 5 5 5 5 5 5 5 5 5 5 5 5 5 5 5 5 5 5 5 5 5 5 5 5 5 5 5 5 5 5 5 5 5 5 5 5 5 5 5 5 5 5 5 5 5 5 5 5 5 5 5 5 5 5 5 5 5 5 5 5 5 5 5 5 5 5 5 5 5 5 5 5 5 5 5 5 5 5 5 5 5 5 5 5 5 5 5 5 5 5 5 5 5 5 5 5 5 5 5 5 5 5 5 5 5 5 5 5 5 5 5 5 5 5 5 5 5 5 5 5 5 5 5 5 5 5 5 5 5 5 5 5 5 5 5 5 5 5 5 5 5 5 5 5 5 5 5 5 5 5 5 5 5 5 5 5 5 5 5 5 5 5 5 5 5 5 5 5 5 5 5 5 5 5 5 5 5 5 5 5 5 5 5 5 5 5 5 5 5 5 5 5 5 5 5 5 5 5 5 5 5 5 5 5 5 5 5 5 5 5 5 5 5 5 5 5 5 5 5 5 5 5 5 5 5 5 5 5 5 5 5 5 5 5 5 5 5 5 5 5 5 5 5 5 5 5 5 5 5 5 5 5 5 5 5 5 5 5 5 5 5 5 5 5 5 5 5 5 5 5 5 5 5 5 5 5 5 5 5 5 5 5 5 5 5 5 5 5 5 5 5 5 5 5 5 5 5 5 5 5 5 5 5 5 5 5 5 5 5 5 5 5 5 5 5 5 5 5 5 5 5 5 5 5 5 5 5 5 5 5 5 5 5 5 5 5 5 5 5 5 5 5 5 5 5 5 5 5 5 5 5 5 5 5 5 5 5 5 5 5 5 5 5 5 5 5 5 5 5 5 5 5 5 5 5 5 5 5 5 5 5 5 5 5 5 5 5 5 5 5 5 5 5 5 5 5 5 5 5 5 5 5 5 5 5 5 5 5 5 5 5 5 5 5 5 5 5 5 5 5 5 5 5 5 5 5 5 5 5 5 5 5 5 5 5 5 5 5 5 5 5 5 5 5 5 5 5 5 5 5 5 5 5 5 5 5 5 5 5 5 5 5 5 5 5 5 5 5 5 5 5 5 5 5 5 5 5 5 5 5 5 5 5 5 5 5 5 5 5 5 5 5 5 5 5 5 5 5 5 5 5 5 5 5 5 5 5 5 5 5 5 5 5 5 5 5 5 5 5 5 5 5 5 5 5 5 5 5 5 5 5 5 5 5 5 5 5 5 5 5 5 5 5 5 5 5 5 5 5 5 5 5 5 5 5 5 5 5 5 5 5 5 5 5 5 5 5 5 5 5 5 5 5 5 5 5 5 5 5 5 5 5 5 5 5 5 5 5 5 5 5 5 5 5 5 5 5 5 5 5 5 5 5 5 5 5 5 5 5 5 5 5 5 5 5 5 5 5 5 5 5 5 5 5 5 5 5 5 5 5 5 5 5 5 5 5 5 5 5 5 5 5 5 5 5 5 5 5 5 5 5 5 5 5 5 5 5 5 5 5 5 5 5 5 5 5 5 5 5 5 5 5 5 5 5 5 5 5 5 5 5 5 5 5 5 5 5 5 5 5 5 5 5 5 5 5 5 5 5 5 5 5 5 5 5 5 5 5 5 5 5 5 5 5 5 5 5 5 5 5 5 5 5 5 5 5 5 5 5 5 5 5 5 5 5 5 5 5 5 5 5 5 5 5 5 5 5 5 5 5 5 5 5 5 5 5 5 5 5 5 5 5 5 5 5 5 5 5 5 5 5 5 5 5 5 5 5 5 5 5 5 5 5 5 5 5 5 5 5 5 5 5 5 5 5 5 5 5 5 5 5 5 5 5 5 5 5 5 5 5 5 5 5 5 5 5 5 5 5 5 5 5 5 5 5 5 5 5 5 5 5 5 5 5 5 5 5 5 5 5 5 5 5 5 5 5 5 5 5 5 5 5 5 5 5 5 5 5 5 5 5 5 5 5 5 5 5 5 5 5 5 5 5 5 5 5 5 5 5 5 5 5 5 5 5 5 5 5 5 5 5 5 5 5 5 5 5 5 5 5 5 5 5 5 5 5 5 5 5 5 5 5 5 5 5 5 5 5 5 5 5 5 5 5 5 5 5 5 5 5 5 5 5 5 5 5 5 5 5 5 5 5 5 5 5 5 5 5 5 5 5 5 5 5 5 5 5 5 5 5 5 5 5 5 5 5 5 
</DataArray>
</Cells>
<PointData Scalars="" Vectors="displacement," Tensors="">
<DataArray type="Float64" Name="displacement" NumberOfComponents="3" format="ascii">
-1.8782509603491964e-05 -1.8016036007529686e-05 0 -2.0250531117733894e-05 -2.4399932116046933e-05 0 -2.0250531117733894e-05 -2.4399932116046933e-05 0 -2.1984564871098506e-05 -3.1697524873847556e-05 0 -2.1984564871098506e-05 -3.1697524873847556e-05 0 -2.3957586104931767e-05 -4.0094324639229032e-05 0 -2.3957586104931767e-05 -4.0094324639229032e-05 0 -2.5788501510035504e-05 -4.8776237685904116e-05 0 -2.5788501510035504e-05 -4.8776237685904116e-05 0 -2.7427167233108445e-05 -5.7438727063610551e-05 0 -2.7427167233108445e-05 -5.7438727063610551e-05 0 -2.9012018702276638e-05 -6.5979430845561837e-05 0 -2.9012018702276638e-05 -6.5979430845561837e-05 0 -3.0676346604174333e-05 -7.4011241030339737e-05 0 -3.0676346604174333e-05 -7.4011241030339737e-05 0 -3.2403342281342437e-05 -8.19277448532324e-05 0 -3.2403342281342437e-05 -8.19277448532324e-05 0 -3.3523972159962805e-05 -8.8335645144555508e-05 0 -3.3523972159962805e-05 -8.8335645144555508e-05 0 -3.7037047453479641e-05 -9.5327889616583826e-05 0 1.490748634819534e-06 2.4399081451257233e-05 0 5.4286292504490655e-06 3.7535878180107252e-05 0 5.4286292504490655e-06 3.7535878180107252e-05 0 4.4809696279949478e-06 4.4016557972057718e-05 0 4.4809696279949478e-06 4.4016557972057718e-05 0 3.26585041803497e-06 5.6405377444158298e-05 0 3.26585041803497e-06 5.6405377444158298e-05 0 1.6754758126771844e-06 6.7321674981444247e-05 0 1.6754758126771844e-06 6.7321674981444247e-05 0 -2.3302816722061977e-07 7.9407559754191112e-05 0 -2.3302816722061977e-07 7.9407559754191112e-05 0 -2.4573410869866713e-06 9.1615138266817385e-05 0 -2.4573410869866713e-06 9.1615138266817385e-05 0 -4.8261417835361785e-06 0.00010262087662255299 0 -4.8261417835361785e-06 0.00010262087662255299 0 -8.5937520486667364e-06 0.00011566903844189823 0 -8.5937520486667364e-06 0.00011566903844189823 0 -7.645348857460979e-06 0.00012445867988030698 0 -7.645348857460979e-06 0.00012445867988030698 0 -2.5508708138068377e-05 0.00013725820644991672 0 -1.542847687342952e-05 -7.5127454541501442e-06 0 -1.1662049690458418e-05 -3.1348136105292457e-06 0 -1.4333202063089205e-05 -6.6128539955676052e-06 0 -1.374475380739946e-05 -4.541173940947213e-06 0 -1.1662049690458418e-05 -3.1348136105292457e-06 0 -1.542847687342952e-05 -7.5127454541501442e-06 0 -2.6866280548316241e-05 -1.3707713836287003e-05 0 -2.3539116794952097e-05 -1.030070278253872e-05 0 -2.4202032692801933e-05 -1.3569302574505962e-05 0 -2.4202032692801933e-05 -1.3569302574505962e-05 0 -2.35391167949521e-05 -1.030070278253872e-05 0 -2.1525792292265213e-05 -1.2277830370391375e-05 0 -1.3823182628294745e-05 4.5450217411670837e-06 0 -6.0124479359440184e-06 1.2284893763352268e-06 0 -1.2511336788470448e-05 2.6397580650247723e-06 0 -1.0034871506462912e-05 -4.2382198074176549e-06 0 -9.0128840687938045e-06 -2.9564085085392586e-06 0 -4.3776892081901812e-06 -1.4735372473363933e-06 0 -7.119728469036998e-06 3.2500766802749834e-06 0 -6.0124479359440184e-06 1.2284893763352268e-06 0 -1.3823182628294745e-05 4.5450217411670837e-06 0 -5.3215819524416656e-06 -2.8710915880322346e-06 0 -1.0034871506462912e-05 -4.2382198074176549e-06 0 -4.3776892081901812e-06 -1.4735372473363933e-06 0 -2.5263491736684932e-05 -9.002919553975521e-06 0 -3.0793049848816611e-05 -1.161034639473598e-05 0 -2.4380758043792366e-05 -8.1046491963058751e-06 0 -4.7058655829515405e-05 1.5603010424279691e-05 0 -3.7547188122250977e-05 1.0990478435136338e-05 0 -3.6681999581290959e-05 1.0244730100399204e-05 0 -2.9695492676609294e-06 8.3426778807222146e-07 0 -3.7846133270467252e-06 1.7444045621737051e-06 0 -4.0530611868195177e-06 5.6153189049304655e-07 0 -5.2627793490181419e-06 2.3366511594523926e-06 0 -4.0530611868195186e-06 5.6153189049304655e-07 0 -3.7846133270467252e-06 1.7444045621737051e-06 0 -5.2933004113540417e-06 3.2422411910235862e-07 0 -6.9933294833734127e-06 -1.3978641648010016e-07 0 -4.8350537137733205e-06 5.9974315919367442e-07 0 -2.3299283169938201e-09 -5.687325659326567e-10 0 -1.8083135230105821e-09 -3.8788891736330238e-10 0 -1.9842120264581536e-06 -8.4579652044515435e-07 0 -1.8452329720768917e-09 2.8855277427189495e-10 0 -2.175352507995177e-09 2.9356637821189918e-10 0 -2.0283134365455893e-06 5.2444216070332063e-07 0 -3.0480571126791401e-05 -1.8042003226133029e-05 0 -3.0508864260993101e-05 -1.7925773994439773e-05 0 -2.6866280548316241e-05 -1.3707713836287003e-05 0 6.1263394149165583e-08 2.738378298539619e-05 0 -5.0719032488166054e-06 1.8183225449040308e-05 0 -6.8429787547305178e-06 1.8628475971477911e-05 0 -4.9529902109824415e-05 -0.00014894970500178449 0 -4.13815406060929e-05 -0.00013958658603388285 0 -4.9507554978062182e-05 -0.00013593537831167732 0 -6.157719003048211e-05 0.00031990739717022403 0 -8.2842686831946247e-05 0.00029795798768664423 0 -6.14563347323198e-05 0.00028951809670509906 0 -6.157719003048211e-05 0.00031990739717022403 0 -6.14563347323198e-05 0.00028951809670509906 0 -4.1062278734506831e-05 0.00029750080760849399 0 -4.9529902109824415e-05 -0.00014894970500178449 0 -4.9507554978062182e-05 -0.00013593537831167732 0 -5.8334643358308313e-05 -0.00013948760374448677 0 -8.6550600932557069e-05 0.00027258069113532879 0 -5.9346209987259247e-05 0.00026021220382592891 0 -6.14563347323198e-05 0.00028951809670509906 0 -3.94502945614255e-05 -0.0001280989806178643 0 -4.9619346183028709e-05 -0.00012255576707028584 0 -4.9507554978062182e-05 -0.00013593537831167732 0 -5.2933004113540417e-06 3.2422411910235862e-07 0 -4.8350537137733205e-06 5.9974315919367442e-07 0 -3.4899761346084785e-06 6.66235037617074e-07 0 6.1263394149165583e-08 2.738378298539619e-05 0 -9.6866138217080973e-06 2.476676183687681e-05 0 -5.0719032488166054e-06 1.8183225449040308e-05 0 -0.00010404975680773822 8.2599264767386536e-05 0 -9.3495421454492492e-05 6.1952993490006116e-05 0 -7.5664672536932109e-05 6.6219405767320972e-05 0 -5.5908027055781044e-05 -3.317821452463452e-05 0 -6.168340607521146e-05 -4.2250190605053134e-05 0 -4.8706599067898652e-05 -3.5072079100905295e-05 0 -2.576289988303218e-05 -1.4916027473235605e-05 0 -3.0480571126791401e-05 -1.8042003226133029e-05 0 -2.6866280548316241e-05 -1.3707713836287003e-05 0 -5.2569154110711454e-05 5.4224881095412791e-05 0 -4.5695058131296179e-05 3.3662284642562122e-05 0 -3.7148116727030762e-05 3.5743429995150048e-05 0 -2.6605104180835169e-05 1.1682300262760688e-05 0 -3.585337325220111e-05 1.6591198774266707e-05 0 -3.367479043310525e-05 1.0888931357567537e-05 0 -1.8871336019759905e-05 -2.4643493873391464e-06 0 -1.6314277864546252e-05 1.193240717312803e-06 0 -2.0625121377136393e-05 -5.0906152458874577e-06 0 -4.8114961178009303e-05 -0.00010864900945184783 0 -4.0442030661286935e-05 -0.00010438976122580717 0 -4.7807142757416963e-05 -9.3762324606470651e-05 0 -5.9422046620435595e-05 0.00023045684123515673 0 -7.6982320230091199e-05 0.00022195328173670124 0 -5.4723491079299801e-05 0.00019720124396812924 0 -4.7807142757416963e-05 -9.3762324606470651e-05 0 -4.0442030661286935e-05 -0.00010438976122580717 0 -3.8930830312048841e-05 -9.1547415892581207e-05 0 -5.4723491079299801e-05 0.00019720124396812924 0 -7.6982320230091199e-05 0.00022195328173670124 0 -7.5624130007394572e-05 0.000197563878911932 0 -2.6605104180835169e-05 1.1682300262760688e-05 0 -3.367479043310525e-05 1.0888931357567537e-05 0 -2.3565045581234739e-05 7.5821593356963208e-06 0 -1.9196400726205803e-05 -6.7777456006976517e-06 0 -1.5655836455153224e-05 3.2402957637354047e-06 0 -1.8871336019759905e-05 -2.4643493873391464e-06 0 -5.2569154110711454e-05 5.4224881095412791e-05 0 -6.0125959295872492e-05 4.683224451303478e-05 0 -4.5695058131296179e-05 3.3662284642562122e-05 0 6.1263394149165583e-08 2.738378298539619e-05 0 1.0797104531307841e-05 6.8368216874099781e-05 0 -1.1005411006972541e-05 7.0807366278202038e-05 0 -4.1841879460978538e-05 -4.2933855283800546e-05 0 -3.7813377596057942e-05 -4.0053162314254964e-05 0 -4.2195330386035192e-05 -4.0662491862759768e-05 0 -2.6862696751881642e-05 -4.3665549716067781e-05 0 -2.5938243467958306e-05 -4.1494692250720667e-05 0 -2.7227428271456017e-05 -4.3912513237862463e-05 0 -1.3244139480822846e-05 6.4100833193903678e-06 0 -1.6314277864546252e-05 1.193240717312803e-06 0 -1.8871336019759905e-05 -2.4643493873391464e-06 0 -2.3084997343936687e-05 -0.00013463775601503801 0 -3.0272957463514181e-05 -0.00012538872241590941 0 -3.3089271094201166e-05 -0.00013655975901616824 0 -0.00013441497255550923 0.00029593282951707617 0 -0.00011097578591358162 0.00026985033738594424 0 -0.00010626303433155345 0.00029288008864149679 0 -1.4722386239160034e-09 -2.9716125638693078e-10 0 -1.1645353711645322e-06 -2.3380643963301837e-07 0 -1.368855118514056e-06 -5.3402915922221601e-07 0 -1.6097028404087835e-09 3.0487967474658219e-10 0 -1.5904639367618281e-06 5.4923389450860146e-07 0 -1.4468163898890487e-06 5.9720406972506149e-07 0 -5.2569154110711454e-05 5.4224881095412791e-05 0 -3.7007936849843545e-05 5.1909712104431121e-05 0 -4.87098726564392e-05 7.8424496477814975e-05 0 -2.8891776880794824e-05 6.9570079317545831e-05 0 -4.87098726564392e-05 7.8424496477814975e-05 0 -3.7007936849843545e-05 5.1909712104431121e-05 0 -1.5703009769395225e-05 4.4156209306227741e-05 0 6.1263394149165649e-08 2.738378298539619e-05 0 -1.1005411006972541e-05 7.0807366278202038e-05 0 -0.00013413593301980187 0.00024387783183301963 0 -0.00010107200036302855 0.00024451740806185766 0 -0.00011097578591358162 0.00026985033738594424 0 -1.8947058551975304e-05 -0.00010982115761477998 0 -3.2480293451670957e-05 -0.00011378728146098288 0 -3.0272957463514181e-05 -0.00012538872241590939 0 -2.7289579175603309e-05 -3.76869605589917e-05 0 -2.7608780099862648e-05 -3.4326467723385802e-05 0 -2.9740723353959464e-05 -3.7108366632128483e-05 0 -1.8630300820308296e-05 -2.6171252146006261e-06 0 -2.0625121377136393e-05 -5.0906152458874577e-06 0 -1.6314277864546252e-05 1.193240717312803e-06 0 -2.3071488834197825e-05 -9.7577524252590427e-06 0 -2.5236851033431203e-05 -1.4298986500373604e-05 0 -2.2845380032868353e-05 -1.3968006920973793e-05 0 -1.8621369602692077e-05 -2.2909680488172085e-05 0 -1.8749482696805862e-05 -1.9643774795821263e-05 0 -2.2740067137324992e-05 -2.4443165381584434e-05 0 -0.00012130039847419217 0.00013278579814498658 0 -9.4225285078911798e-05 0.00011503205333496217 0 -0.00010390401237913136 0.00014798796531976429 0 -8.0368460822350819e-05 -0.00011521289408316622 0 -7.0438847564084243e-05 -0.00012720438397740758 0 -6.666700079704558e-05 -0.00011621501200622101 0 1.0779352035273163e-05 0.00023520702357331401 0 -1.3625113992651672e-05 0.00026723217963163618 0 -1.8960505288413979e-05 0.00024370984270885495 0 -2.097355252672896e-05 -0.00012209679010191155 0 -3.0272957463514181e-05 -0.00012538872241590939 0 -2.3084997343936687e-05 -0.00013463775601503801 0 -0.00013441497255550923 0.00029593282951707617 0 -0.00013446999359495855 0.00027031038200635629 0 -0.00011097578591358162 0.00026985033738594424 0 -3.5446919644385376e-05 -3.542593394810146e-05 0 -3.6013159419514443e-05 -3.2447548914359702e-05 0 -3.8017879891676994e-05 -3.5812119770790401e-05 0 -1.8982183387855295e-05 -1.8187968857572973e-05 0 -2.2306084126919735e-05 -2.2023241794862977e-05 0 -2.3243828312982285e-05 -3.1827292385592509e-05 0 -3.5446919644385376e-05 -3.542593394810146e-05 0 -3.3894305801558329e-05 -3.2709862789793665e-05 0 -3.6013159419514443e-05 -3.2447548914359702e-05 0 -2.1929677115851547e-05 -1.9850448387189779e-05 0 -2.2740067137324992e-05 -2.4443165381584434e-05 0 -1.8749482696805862e-05 -1.9643774795821263e-05 0 -4.1115110147268227e-05 -5.448370040903026e-05 0 -4.4405784037021707e-05 -7.0106717529061364e-05 0 -3.5106916166252128e-05 -5.7865777981756893e-05 0 -3.2834196121867946e-09 2.7245991499442614e-10 0 -4.3776892081901812e-06 -1.4735372473363933e-06 0 -3.0503694759420175e-06 -4.5417065407744066e-07 0 -4.5921908070751433e-09 -6.2187124595936481e-10 0 -4.0719225532604024e-06 -8.0193756768438492e-08 0 -6.0124479359440184e-06 1.2284893763352268e-06 0 -4.1841879460978538e-05 -4.2933855283800546e-05 0 -3.7709119457934851e-05 -4.3025056381536005e-05 0 -3.7813377596057942e-05 -4.0053162314254964e-05 0 -2.7445583258555015e-05 -4.4976066117928831e-05 0 -2.6862696751881642e-05 -4.3665549716067781e-05 0 -2.7227428271456017e-05 -4.3912513237862463e-05 0 -3.4316792639962149e-09 -8.8169639534168394e-10 0 -5.2498749617512687e-06 -6.0298235163409482e-07 0 -4.0719225532604015e-06 -8.019375676843881e-08 0 -2.7294266822692292e-09 3.6711757356141326e-10 0 -3.0503694759420175e-06 -4.5417065407744066e-07 0 -4.1370472722746351e-06 -2.2626655662967249e-07 0 -4.0530611868195177e-06 5.6153189049304655e-07 0 -3.220259262802668e-06 -6.6506442589179696e-07 0 -2.8855767652460214e-06 5.9167335767903474e-08 0 -1.4822208132218725e-05 -5.5066870909017154e-06 0 -1.2435323935489422e-05 -3.5132002067398043e-06 0 -9.0128840687938045e-06 -2.9564085085392586e-06 0 -2.0979302627645654e-05 5.9167579588477555e-06 0 -1.2511336788470448e-05 2.6397580650247727e-06 0 -1.7340122942496956e-05 3.0339164548395211e-06 0 -2.6355221588272444e-05 -2.4259771404888527e-05 0 -2.4658794346106436e-05 -2.0277289643874771e-05 0 -2.7894598227403599e-05 -2.2201131105310425e-05 0 -2.5901142751702354e-05 -1.8103488219995887e-05 0 -2.2845380032868353e-05 -1.3968006920973793e-05 0 -2.5236851033431203e-05 -1.4298986500373604e-05 0 5.0910630178206913e-06 0.00028763849325556589 0 -1.989286883752526e-05 0.00029073933089016502 0 -1.3625113992651672e-05 0.00026723217963163618 0 -8.0630195850565954e-05 -0.00013855393207726181 0 -6.8316674988577023e-05 -0.00013719865794385331 0 -7.0438847564084243e-05 -0.00012720438397740758 0 -2.5901142751702354e-05 -1.8103488219995887e-05 0 -2.7894598227403599e-05 -2.2201131105310425e-05 0 -2.4658794346106436e-05 -2.0277289643874771e-05 0 -2.7608780099862648e-05 -3.4326467723385802e-05 0 -2.49501944232563e-05 -3.3256080016040561e-05 0 -2.6604914983197442e-05 -2.9566529928625684e-05 0 -7.6094427736272109e-05 0.00017229548542321016 0 -6.6778139574739234e-05 0.0001369901052995206 0 -5.2667773393137525e-05 0.00014953145190753597 0 -4.5921908070751433e-09 -6.2187124595936481e-10 0 -4.8784404556282822e-09 3.2874303390094665e-10 0 -4.0719225532604015e-06 -8.019375676843881e-08 0 -3.654059042961156e-09 -4.1479673055008195e-10 0 -3.2834196121867946e-09 2.7245991499442614e-10 0 -3.0503694759420175e-06 -4.5417065407744066e-07 0 -4.0530611868195177e-06 5.6153189049304655e-07 0 -5.1283342417478654e-06 4.6112258391139115e-08 0 -3.220259262802668e-06 -6.6506442589179696e-07 0 -3.6565016097659026e-05 0.00027150084903043964 0 -6.14563347323198e-05 0.00028951809670509906 0 -5.9346209987259247e-05 0.00026021220382592891 0 -5.9842223581274053e-05 -0.00012794061169456216 0 -4.9507554978062182e-05 -0.00013593537831167732 0 -4.9619346183028709e-05 -0.00012255576707028584 0 -4.4405784037021707e-05 -7.0106717529061364e-05 0 -3.6383336154083079e-05 -7.0081171719868965e-05 0 -3.5106916166252128e-05 -5.7865777981756893e-05 0 -1.6753626239449893e-06 4.3882067535720308e-07 0 -2.3630455384243799e-06 8.4975723671011567e-07 0 -2.1570996016930947e-06 5.0753491284659601e-07 0 -1.4960917037292056e-05 2.4689188263597274e-06 0 -1.1587067923944087e-05 2.2666090310216335e-06 0 -1.7043080432319977e-05 4.6310121231882296e-06 0 -2.49501944232563e-05 -3.3256080016040561e-05 0 -2.3577641039308632e-05 -2.9299332178324911e-05 0 -2.6604914983197442e-05 -2.9566529928625684e-05 0 -2.1570996016930947e-06 5.0753491284659601e-07 0 -2.3630455384243799e-06 8.4975723671011567e-07 0 -2.7155111276967798e-06 9.9691768898921858e-07 0 -2.3630455384243799e-06 8.4975723671011567e-07 0 -1.431902723765938e-06 5.1424636202534336e-07 0 -2.5118204227602671e-06 8.6741868006275587e-07 0 -1.8936016297502336e-06 7.2033028911528487e-07 0 -2.5118204227602671e-06 8.6741868006275587e-07 0 -1.431902723765938e-06 5.1424636202534336e-07 0 -3.8410048290112841e-05 -3.4408370230073995e-05 0 -3.6013159419514443e-05 -3.2447548914359702e-05 0 -3.7726258125154136e-05 -3.1511326265152926e-05 0 -2.3071488834197825e-05 -9.7577524252590427e-06 0 -2.284538003286835e-05 -1.3968006920973791e-05 0 -2.1152664653534305e-05 -8.2030499760553588e-06 0 -2.7289579175603309e-05 -3.76869605589917e-05 0 -2.49501944232563e-05 -3.3256080016040561e-05 0 -2.7608780099862648e-05 -3.4326467723385802e-05 0 -1.3244139480822846e-05 6.4100833193903678e-06 0 -1.8871336019759905e-05 -2.4643493873391456e-06 0 -1.5655836455153224e-05 3.2402957637354047e-06 0 8.0525367484710294e-06 0.00026114997960788761 0 5.0910630178206913e-06 0.00028763849325556589 0 -1.3625113992651672e-05 0.00026723217963163618 0 -8.0650109465971927e-05 -0.0001271705695152111 0 -8.0630195850565954e-05 -0.00013855393207726181 0 -7.0438847564084243e-05 -0.00012720438397740758 0 -8.0368460822350819e-05 -0.00011521289408316622 0 -8.0650109465971927e-05 -0.0001271705695152111 0 -7.0438847564084243e-05 -0.00012720438397740758 0 1.0779352035273163e-05 0.00023520702357331401 0 8.0525367484710294e-06 0.00026114997960788761 0 -1.3625113992651672e-05 0.00026723217963163618 0 -9.0519851401373182e-06 1.0619743985143618e-05 0 -8.9589378364399611e-06 8.4172954707660021e-06 0 -1.3244139480822846e-05 6.4100833193903678e-06 0 -4.719871769300921e-06 7.5618482799674642e-07 0 -3.1143583353844572e-06 8.6204095488142627e-07 0 -4.8350537137733205e-06 5.9974315919367442e-07 0 -2.7834831515648809e-06 7.6993693685172739e-07 0 -4.8350537137733205e-06 5.9974315919367442e-07 0 -3.1143583353844572e-06 8.6204095488142627e-07 0 -1.1708639020464614e-05 0.00015081858100502165 0 -5.6118085683526774e-06 0.00016919420981849776 0 -3.1715363200690576e-05 0.00017100443088901093 0 -5.6118085683526774e-06 0.00016919420981849776 0 -1.3004415294406082e-05 0.00018881854318053318 0 -3.1715363200690576e-05 0.00017100443088901093 0 -1.9196400726205803e-05 -6.7777456006976517e-06 0 -1.8871336019759902e-05 -2.4643493873391469e-06 0 -2.1152664653534305e-05 -8.2030499760553588e-06 0 -2.8338404024412971e-05 -4.5297022065217326e-05 0 -2.7227428271456017e-05 -4.3912513237862463e-05 0 -2.8373665637731506e-05 -4.2408112907313108e-05 0 -3.365938942134759e-05 -4.3597603525281173e-05 0 -3.4493653233091923e-05 -3.9664214577702623e-05 0 -3.7813377596057942e-05 -4.0053162314254964e-05 0 -8.9589378364399611e-06 8.4172954707660021e-06 0 -1.191422888022281e-05 4.7989324310881807e-06 0 -1.3244139480822846e-05 6.4100833193903678e-06 0 -0.00013446999359495855 0.00027031038200635629 0 -0.00013413593301980187 0.00024387783183301963 0 -0.00011097578591358162 0.00026985033738594424 0 -1.8947058551975304e-05 -0.00010982115761477998 0 -3.0272957463514181e-05 -0.00012538872241590939 0 -2.097355252672896e-05 -0.00012209679010191155 0 -3.0793049848816611e-05 -1.161034639473598e-05 0 -3.0389920866157088e-05 -1.1475021009781728e-05 0 -2.4380758043792366e-05 -8.1046491963058751e-06 0 -4.7058655829515405e-05 1.5603010424279691e-05 0 -3.6681999581290959e-05 1.0244730100399204e-05 0 -4.5428862162439517e-05 1.5810779629959948e-05 0 -1.9196400726205803e-05 -6.7777456006976517e-06 0 -2.2845380032868353e-05 -1.3968006920973793e-05 0 -1.9297278672884117e-05 -1.4799225328219133e-05 0 -1.8982183387855295e-05 -1.8187968857572973e-05 0 -2.3243828312982285e-05 -3.1827292385592509e-05 0 -1.4943551771087287e-05 -3.3539415231438851e-05 0 -2.1929677115851547e-05 -1.9850448387189779e-05 0 -2.2845380032868353e-05 -1.3968006920973793e-05 0 -2.4658794346106436e-05 -2.0277289643874771e-05 0 -2.5901142751702354e-05 -1.8103488219995887e-05 0 -2.4658794346106436e-05 -2.0277289643874771e-05 0 -2.2845380032868353e-05 -1.3968006920973793e-05 0 -4.9529902109824415e-05 -0.00014894970500178449 0 -4.0792739502047121e-05 -0.00014848267833965977 0 -4.13815406060929e-05 -0.00013958658603388285 0 -6.157719003048211e-05 0.00031990739717022403 0 -8.4991001271792201e-05 0.00032030092449028585 0 -8.2842686831946247e-05 0.00029795798768664423 0 -3.9584114268211537e-05 0.00031875209512026572 0 -6.157719003048211e-05 0.00031990739717022403 0 -4.1062278734506831e-05 0.00029750080760849399 0 -5.9255967725586711e-05 -0.00014907948935114838 0 -4.9529902109824415e-05 -0.00014894970500178449 0 -5.8334643358308313e-05 -0.00013948760374448677 0 -2.1965303192953624e-05 3.3173237153903438e-05 0 -3.7007936849843545e-05 5.1909712104431121e-05 0 -3.7148116727030762e-05 3.5743429995150048e-05 0 -3.0130911820329126e-05 -2.1974250343720533e-05 0 -3.2855491715933185e-05 -2.5788514481542954e-05 0 -3.0881886567450697e-05 -2.6077085465493611e-05 0 -2.1929677115851547e-05 -1.9850448387189779e-05 0 -2.4658794346106436e-05 -2.0277289643874771e-05 0 -2.2740067137324992e-05 -2.4443165381584434e-05 0 -2.6355221588272444e-05 -2.4259771404888527e-05 0 -2.2740067137324992e-05 -2.4443165381584434e-05 0 -2.4658794346106436e-05 -2.0277289643874771e-05 0 -2.8603948080089114e-05 -6.071996500874474e-05 0 -2.634554918396584e-05 -4.6226534278839521e-05 0 -3.5106916166252128e-05 -5.7865777981756893e-05 0 -0.00010404975680773822 8.2599264767386536e-05 0 -7.5664672536932109e-05 6.6219405767320972e-05 0 -9.2577614193202067e-05 9.1617763965602423e-05 0 -2.5437752454220043e-05 -1.3584571236446509e-05 0 -3.1143040671857846e-05 -1.9433893822484348e-05 0 -2.406428589978674e-05 -1.5601756828290991e-05 0 -2.7942053817358059e-05 -2.1815172181567934e-05 0 -2.406428589978674e-05 -1.5601756828290991e-05 0 -3.1143040671857846e-05 -1.9433893822484348e-05 0 -3.6563275638178035e-05 -3.7503127507947461e-05 0 -3.324138765022466e-05 -3.7096329105173999e-05 0 -3.5446919644385376e-05 -3.542593394810146e-05 0 -8.4479048302313919e-05 0.00013291087019843962 0 -0.00010390401237913136 0.00014798796531976429 0 -9.4225285078911798e-05 0.00011503205333496217 0 -2.9724985078151715e-05 -1.2193936472208673e-05 0 -3.6548639334996778e-05 -1.7042698718421934e-05 0 -3.0979816788039022e-05 -1.5392118506078585e-05 0 -3.7806338396898499e-05 -2.0847672565895648e-05 0 -3.0979816788039022e-05 -1.5392118506078585e-05 0 -3.6548639334996778e-05 -1.7042698718421934e-05 0 -5.6100993399660466e-05 3.5455212339514466e-05 0 -5.54770457722635e-05 2.716993563141876e-05 0 -4.4233739832281722e-05 2.4566743909176347e-05 0 -4.3782573132302849e-05 1.831593269147459e-05 0 -4.4233739832281722e-05 2.4566743909176347e-05 0 -5.54770457722635e-05 2.716993563141876e-05 0 -3.4426662498724796e-05 -2.9583950702345852e-05 0 -3.1776133015319342e-05 -2.9828464085324762e-05 0 -3.0881886567450697e-05 -2.6077085465493611e-05 0 -6.168340607521146e-05 -4.2250190605053134e-05 0 -5.7200122329020246e-05 -4.5947825647900281e-05 0 -4.8706599067898652e-05 -3.5072079100905295e-05 0 -2.0927296133901131e-05 0.00012602347492173866 0 -3.5584666682260392e-05 0.00010091122463598292 0 -1.5847355628363068e-05 9.6276864289989673e-05 0 -1.8630300820308296e-05 -2.6171252146006261e-06 0 -2.0027601118204292e-05 -5.8846450490744082e-06 0 -2.2690754157404587e-05 -8.019271613722596e-06 0 -6.1592369300023465e-06 2.4899645936162127e-06 0 -5.3258177549508272e-06 4.2001714545676138e-06 0 -4.6137711401130371e-06 2.7870328858040286e-06 0 -9.5046592857738119e-05 0.00021392049049667863 0 -7.6982320230091199e-05 0.00022195328173670124 0 -0.00010107200036302855 0.00024451740806185766 0 -3.2579686658986447e-05 -9.9162179598151289e-05 0 -4.0442030661286935e-05 -0.00010438976122580717 0 -3.2480293451670957e-05 -0.00011378728146098288 0 -1.9196400726205803e-05 -6.7777456006976517e-06 0 -2.1152664653534301e-05 -8.2030499760553588e-06 0 -2.2845380032868353e-05 -1.3968006920973793e-05 0 -3.4493653233091923e-05 -3.9664214577702623e-05 0 -3.324138765022466e-05 -3.7096329105173999e-05 0 -3.6563275638178035e-05 -3.7503127507947461e-05 0 -2.6355221588272444e-05 -2.4259771404888527e-05 0 -2.8821014191696711e-05 -2.6470889865387637e-05 0 -2.6604914983197442e-05 -2.9566529928625684e-05 0 -1.8083135230105821e-09 -3.8788891736330238e-10 0 -1.368855118514056e-06 -5.3402915922221601e-07 0 -1.9842120264581536e-06 -8.4579652044515435e-07 0 -1.8452329720768917e-09 2.8855277427189495e-10 0 -2.0283134365455893e-06 5.2444216070332063e-07 0 -1.5904639367618281e-06 5.4923389450860146e-07 0 -2.634554918396584e-05 -4.6226534278839521e-05 0 -3.4148491502235097e-05 -4.6535045778278765e-05 0 -3.5106916166252128e-05 -5.7865777981756893e-05 0 -1.4960917037292056e-05 2.4689188263597274e-06 0 -1.7043080432319977e-05 4.6310121231882296e-06 0 -2.050803748192018e-05 4.2425854842693278e-06 0 -3.0945397088094925e-05 2.0593312986677629e-05 0 -3.7148116727030755e-05 3.5743429995150048e-05 0 -4.5695058131296179e-05 3.3662284642562122e-05 0 -2.1462461189291787e-06 -3.6507275320253797e-07 0 -1.1645353711645322e-06 -2.3380643963301837e-07 0 -2.1139580613382899e-06 6.4808654273518913e-08 0 -1.540493699391019e-06 1.7482973377926724e-07 0 -2.1139580613382899e-06 6.4808654273518913e-08 0 -1.1645353711645322e-06 -2.3380643963301837e-07 0 -1.8936016297502336e-06 7.2033028911528487e-07 0 -1.4468163898890487e-06 5.9720406972506149e-07 0 -3.1143583353844572e-06 8.6204095488142627e-07 0 -2.7834831515648809e-06 7.6993693685172739e-07 0 -3.1143583353844572e-06 8.6204095488142627e-07 0 -1.4468163898890487e-06 5.9720406972506149e-07 0 -2.6605104180835169e-05 1.1682300262760688e-05 0 -2.1814773704889597e-05 1.3322747230330976e-05 0 -3.0945397088094925e-05 2.0593312986677629e-05 0 -6.1592369300023465e-06 2.4899645936162127e-06 0 -7.484146852539334e-06 3.7319362784599011e-06 0 -5.3258177549508272e-06 4.2001714545676138e-06 0 -5.2627793490181419e-06 2.3366511594523926e-06 0 -6.0800703251035551e-06 1.0630569075702026e-06 0 -4.0530611868195177e-06 5.6153189049304655e-07 0 -1.7043080432319977e-05 4.6310121231882296e-06 0 -1.1587067923944087e-05 2.2666090310216335e-06 0 -1.3654447534320356e-05 5.3554515460194538e-06 0 -1.0381134757645924e-05 3.1999592555211463e-06 0 -8.1888723785078708e-06 6.0509086279081693e-06 0 -7.484146852539334e-06 3.7319362784599007e-06 0 -1.1578510478565557e-05 -2.5141058502718752e-06 0 -1.2825740452155875e-05 -3.7958372888740168e-06 0 -9.6918012040838798e-06 -1.5386458949049406e-06 0 -1.1353862742611606e-05 -3.028188000836272e-06 0 -9.6918012040838798e-06 -1.5386458949049406e-06 0 -1.2825740452155875e-05 -3.7958372888740168e-06 0 -4.8784404556282061e-09 3.2874303390094825e-10 0 -3.4316792639962149e-09 -8.8169639534168394e-10 0 -4.0719225532604015e-06 -8.019375676843881e-08 0 -2.7294266822692292e-09 3.6711757356141326e-10 0 -3.654059042961156e-09 -4.1479673055008195e-10 0 -3.0503694759420175e-06 -4.5417065407744066e-07 0 1.3979029870679517e-05 9.7854938164450005e-05 0 -1.5847355628363068e-05 9.6276864289989673e-05 0 -1.1005411006972541e-05 7.0807366278202038e-05 0 -4.719871769300921e-06 7.5618482799674642e-07 0 -6.8921801260941621e-06 1.7066962846564384e-08 0 -4.8880652878057907e-06 9.1553823501646511e-07 0 -2.3539116794952097e-05 -1.030070278253872e-05 0 -1.9235439629284848e-05 -7.9009928174205137e-06 0 -2.1525792292265213e-05 -1.2277830370391375e-05 0 -3.1179775300540877e-05 -3.977592355995983e-05 0 -3.324138765022466e-05 -3.7096329105173999e-05 0 -3.4493653233091923e-05 -3.9664214577702623e-05 0 -2.5263491736684932e-05 -9.002919553975521e-06 0 -2.4380758043792366e-05 -8.1046491963058751e-06 0 -2.0518621888802179e-05 -6.462377019202545e-06 0 -3.7547188122250977e-05 1.0990478435136338e-05 0 -3.0027618862455875e-05 7.1773234310000397e-06 0 -3.6681999581290959e-05 1.0244730100399204e-05 0 -2.9328150127022075e-05 -2.9902302043849803e-05 0 -2.6604914983197442e-05 -2.9566529928625684e-05 0 -2.8821014191696711e-05 -2.6470889865387637e-05 0 -2.4380758043792366e-05 -8.1046491963058751e-06 0 -2.0580216428650642e-05 -6.3940163566952901e-06 0 -1.9660691089788279e-05 -5.7777221454720717e-06 0 -2.6308605403359947e-05 6.9853438844356335e-06 0 -2.3565045581234739e-05 7.5821593356963208e-06 0 -3.367479043310525e-05 1.0888931357567537e-05 0 -2.5796445975183824e-05 -9.2238413162477182e-06 0 -2.0580216428650642e-05 -6.3940163566952901e-06 0 -2.4380758043792366e-05 -8.1046491963058751e-06 0 -8.8251637028099927e-06 -8.4465314653814831e-07 0 -1.0542814936798177e-05 -1.574648389106054e-06 0 -1.1705190584739909e-05 -2.18652173759901e-06 0 -8.3386518012778889e-06 5.87300243365379e-07 0 -1.1587067923944087e-05 2.2666090310216335e-06 0 -1.2074868210154405e-05 7.5288593459285248e-07 0 -3.585337325220111e-05 1.6591198774266707e-05 0 -2.6605104180835169e-05 1.1682300262760688e-05 0 -3.0945397088094925e-05 2.0593312986677629e-05 0 -3.4426662498724796e-05 -2.9583950702345852e-05 0 -3.0881886567450697e-05 -2.6077085465493611e-05 0 -3.2855491715933185e-05 -2.5788514481542954e-05 0 -2.4059825910381208e-05 0.00021453962798876036 0 -1.8960505288413979e-05 0.00024370984270885495 0 -4.08265074380682e-05 0.0002411927969174862 0 -6.2450365324749835e-05 -0.00010253874011670048 0 -6.6667000797045566e-05 -0.00011621501200622101 0 -5.6651698917433663e-05 -0.00011412755882498958 0 -2.1462461189291787e-06 -3.6507275320253797e-07 0 -1.368855118514056e-06 -5.3402915922221601e-07 0 -1.1645353711645322e-06 -2.3380643963301837e-07 0 -2.7834831515648809e-06 7.6993693685172739e-07 0 -1.4468163898890484e-06 5.9720406972506149e-07 0 -1.5904639367618281e-06 5.4923389450860146e-07 0 -2.3299283169938201e-09 -5.687325659326567e-10 0 -1.9842120264581536e-06 -8.4579652044515435e-07 0 -2.2978176158984575e-06 -8.7902433340434138e-07 0 -2.175352507995177e-09 2.9356637821189918e-10 0 -2.1123178350860862e-06 3.646214436110053e-07 0 -2.0283134365455893e-06 5.2444216070332063e-07 0 -2.3539116794952097e-05 -1.030070278253872e-05 0 -2.6866280548316241e-05 -1.3707713836287003e-05 0 -2.6069277727203632e-05 -1.2394376696001678e-05 0 -2.8535623542394754e-05 -1.574407132614546e-05 0 -2.6069277727203632e-05 -1.2394376696001678e-05 0 -2.6866280548316241e-05 -1.3707713836287003e-05 0 -5.4362217099128299e-05 0.00010802364242381979 0 -4.87098726564392e-05 7.8424496477814975e-05 0 -3.5584666682260392e-05 0.00010091122463598292 0 -2.8891776880794824e-05 6.9570079317545831e-05 0 -3.5584666682260399e-05 0.00010091122463598292 0 -4.87098726564392e-05 7.8424496477814975e-05 0 -9.9185148968627029e-06 1.6708749405477357e-05 0 -6.6157490606074807e-06 1.1326948461741113e-05 0 -5.0719032488166054e-06 1.8183225449040308e-05 0 -2.3539116794952097e-05 -1.030070278253872e-05 0 -2.0027601118204292e-05 -5.8846450490744082e-06 0 -1.9235439629284848e-05 -7.9009928174205137e-06 0 -2.9695492676609294e-06 8.3426778807222146e-07 0 -2.1570996016930947e-06 5.0753491284659601e-07 0 -2.7155111276967798e-06 9.9691768898921858e-07 0 -3.0130911820329126e-05 -2.1974250343720533e-05 0 -3.0881886567450697e-05 -2.6077085465493611e-05 0 -2.7894598227403599e-05 -2.2201131105310425e-05 0 -7.6094427736272109e-05 0.00017229548542321016 0 -8.6615525572763041e-05 0.00015254485154962149 0 -6.6778139574739234e-05 0.0001369901052995206 0 -3.8410048290112841e-05 -3.4408370230073995e-05 0 -3.7726258125154136e-05 -3.1511326265152926e-05 0 -4.0088886217980246e-05 -3.5198273696384767e-05 0 -2.7608780099862648e-05 -3.4326467723385802e-05 0 -2.938342677551194e-05 -3.2903325898645513e-05 0 -2.9740723353959464e-05 -3.7108366632128483e-05 0 -7.3254422671571317e-06 -2.5797753168811477e-07 0 -4.8350537137733205e-06 5.9974315919367442e-07 0 -6.9933294833734127e-06 -1.3978641648010016e-07 0 -5.2569154110711454e-05 5.4224881095412791e-05 0 -3.7148116727030762e-05 3.5743429995150048e-05 0 -3.7007936849843545e-05 5.1909712104431121e-05 0 -1.0034871506462912e-05 -4.2382198074176549e-06 0 -1.4822208132218725e-05 -5.5066870909017154e-06 0 -9.0128840687938045e-06 -2.9564085085392586e-06 0 -2.0979302627645654e-05 5.9167579588477555e-06 0 -1.3823182628294745e-05 4.5450217411670837e-06 0 -1.2511336788470448e-05 2.6397580650247723e-06 0 -2.1929677115851547e-05 -1.9850448387189779e-05 0 -1.9297278672884117e-05 -1.4799225328219133e-05 0 -2.2845380032868353e-05 -1.3968006920973793e-05 0 -4.475209704920533e-06 1.2530655677589198e-07 0 -7.4365076202385287e-06 -4.508205523473238e-07 0 -4.375322822892452e-06 3.9427578749900312e-07 0 -5.1133106399504726e-06 -9.6810969513141865e-07 0 -4.2370262721822348e-06 -1.0182221825825349e-06 0 -8.242150251585518e-06 -4.2014628209440719e-07 0 -9.3495421454492492e-05 6.1952993490006116e-05 0 -7.2150787868244582e-05 4.8407680786999575e-05 0 -7.5664672536932109e-05 6.6219405767320972e-05 0 -5.5908027055781044e-05 -3.317821452463452e-05 0 -4.8706599067898652e-05 -3.5072079100905295e-05 0 -4.5755479761462665e-05 -2.6720219606735552e-05 0 -2.1965303192953624e-05 3.3173237153903438e-05 0 -9.6866138217080973e-06 2.476676183687681e-05 0 -1.5703009769395225e-05 4.4156209306227741e-05 0 6.1263394149165583e-08 2.738378298539619e-05 0 -1.5703009769395225e-05 4.4156209306227741e-05 0 -9.6866138217080973e-06 2.476676183687681e-05 0 -3.003587940247355e-05 -3.6097993663971746e-05 0 -3.7761008319850159e-05 -3.9835210108655179e-05 0 -3.4148491502235097e-05 -4.6535045778278765e-05 0 -4.1115110147268227e-05 -5.448370040903026e-05 0 -3.4148491502235097e-05 -4.6535045778278765e-05 0 -3.7761008319850159e-05 -3.9835210108655179e-05 0 -1.9196400726205803e-05 -6.7777456006976517e-06 0 -1.5142348212974554e-05 -2.4782826090007807e-07 0 -1.5655836455153224e-05 3.2402957637354047e-06 0 -3.1179775300540877e-05 -3.977592355995983e-05 0 -3.4493653233091923e-05 -3.9664214577702623e-05 0 -3.1916708176182081e-05 -4.2049643425683051e-05 0 -2.9695492676609294e-06 8.3426778807222146e-07 0 -4.0530611868195177e-06 5.6153189049304655e-07 0 -2.8855767652460214e-06 5.9167335767903474e-08 0 -3.1143040671857846e-05 -1.9433893822484348e-05 0 -3.978495568635637e-05 -2.6241381002846882e-05 0 -3.4025674277639847e-05 -2.5434090335784271e-05 0 -2.8338404024412971e-05 -4.5297022065217326e-05 0 -2.8373665637731506e-05 -4.2408112907313108e-05 0 -2.9968841884969776e-05 -4.2608588569056701e-05 0 -7.6266475023925486e-05 9.1133659838539489e-05 0 -9.2577614193202067e-05 9.1617763965602423e-05 0 -7.5664672536932109e-05 6.6219405767320972e-05 0 -0.00010107200036302855 0.00024451740806185766 0 -7.6982320230091199e-05 0.00022195328173670124 0 -7.6652189924729437e-05 0.00024674126238082077 0 -3.2480293451670957e-05 -0.00011378728146098288 0 -4.0442030661286935e-05 -0.00010438976122580717 0 -4.2121734689689286e-05 -0.0001158787082132486 0 -8.775910513857944e-06 -7.9647730891584069e-07 0 -8.1702479168967418e-06 2.9818150689398848e-07 0 -6.6980004888117754e-06 4.3016637250218123e-07 0 -2.8535623542394754e-05 -1.574407132614546e-05 0 -2.6866280548316241e-05 -1.3707713836287003e-05 0 -3.0508864260993101e-05 -1.7925773994439773e-05 0 -3.6929336143886662e-06 1.7419563903873204e-06 0 -4.6137711401130371e-06 2.7870328858040286e-06 0 -3.9051373194664293e-06 2.5094792539053794e-06 0 -4.5714352441775867e-06 3.8396060867213747e-06 0 -3.9051373194664293e-06 2.5094792539053794e-06 0 -4.6137711401130371e-06 2.7870328858040286e-06 0 -1.7043080432319977e-05 4.6310121231882296e-06 0 -2.3565045581234739e-05 7.5821593356963208e-06 0 -2.050803748192018e-05 4.2425854842693278e-06 0 -4.1115110147268227e-05 -5.448370040903026e-05 0 -4.8452545427195084e-05 -6.2630429106886175e-05 0 -4.4405784037021707e-05 -7.0106717529061364e-05 0 -2.2456818226466555e-05 4.0905174385427109e-06 0 -1.772684362131049e-05 2.3375350691363021e-06 0 -2.6986383228964312e-05 5.9847044570050018e-06 0 -3.1715363200690576e-05 0.00017100443088901093 0 -5.4723491079299801e-05 0.00019720124396812924 0 -5.8369788610033934e-05 0.00017394808814802376 0 -3.1715363200690576e-05 0.00017100443088901093 0 -5.8369788610033934e-05 0.00017394808814802376 0 -5.2667773393137525e-05 0.00014953145190753597 0 -7.6094427736272109e-05 0.00017229548542321016 0 -5.2667773393137525e-05 0.00014953145190753594 0 -5.8369788610033934e-05 0.00017394808814802376 0 -5.3881967536120058e-05 -8.1792178160339501e-05 0 -4.7807142757416963e-05 -9.3762324606470651e-05 0 -4.2873382649582953e-05 -8.1255467817577625e-05 0 -5.3881967536120058e-05 -8.1792178160339501e-05 0 -4.2873382649582953e-05 -8.1255467817577625e-05 0 -4.4405784037021707e-05 -7.0106717529061364e-05 0 -6.6157490606074807e-06 1.1326948461741113e-05 0 -5.7717105619123204e-06 1.3027944706660436e-05 0 -5.0719032488166054e-06 1.8183225449040308e-05 0 -1.4722386239160034e-09 -2.9716125638693078e-10 0 -1.1320648850057142e-09 2.0830538837876935e-11 0 -1.1645353711645322e-06 -2.3380643963301837e-07 0 -1.3502551995649325e-09 2.287814657117473e-10 0 -1.6097028404087835e-09 3.0487967474658219e-10 0 -1.4468163898890487e-06 5.9720406972506149e-07 0 -6.8921801260941621e-06 1.7066962846564384e-08 0 -6.6980004888117754e-06 4.3016637250218113e-07 0 -4.8880652878057907e-06 9.1553823501646511e-07 0 -1.8982183387855295e-05 -1.8187968857572973e-05 0 -1.905620124235582e-05 -1.5550107054171428e-05 0 -2.2306084126919735e-05 -2.2023241794862977e-05 0 -1.772684362131049e-05 2.3375350691363021e-06 0 -2.0508037481920177e-05 4.2425854842693278e-06 0 -2.6986383228964312e-05 5.9847044570050018e-06 0 -1.12784453716441e-09 1.7514047633066115e-10 0 -1.431902723765938e-06 5.1424636202534336e-07 0 -9.2115756936048388e-07 1.8860268164179011e-07 0 -2.0979302627645654e-05 5.9167579588477555e-06 0 -1.7340122942496956e-05 3.0339164548395211e-06 0 -2.4087667984581543e-05 5.408511198603495e-06 0 -1.4822208132218725e-05 -5.5066870909017154e-06 0 -1.681168032522534e-05 -5.2625158282285975e-06 0 -1.243532393548942e-05 -3.5132002067398043e-06 0 -5.0046090990427095e-05 -4.524320265893749e-05 0 -4.8706599067898652e-05 -3.5072079100905289e-05 0 -5.7200122329020246e-05 -4.5947825647900281e-05 0 -2.5118204227602671e-06 8.6741868006275587e-07 0 -1.8936016297502336e-06 7.2033028911528487e-07 0 -3.4279133292038459e-06 9.5985726276637666e-07 0 -3.4426662498724796e-05 -2.9583950702345852e-05 0 -3.7726258125154136e-05 -3.1511326265152926e-05 0 -3.6013159419514443e-05 -3.2447548914359702e-05 0 -1.0381134757645924e-05 3.1999592555211463e-06 0 -7.484146852539334e-06 3.7319362784599007e-06 0 -9.549209300919474e-06 1.730551957540912e-06 0 -2.0927296133901131e-05 0.00012602347492173866 0 -4.376229779674756e-05 0.00012807370680600465 0 -3.5584666682260392e-05 0.00010091122463598292 0 -2.9695492676609294e-06 8.3426778807222146e-07 0 -2.1139580613382899e-06 6.4808654273518913e-08 0 -2.1570996016930947e-06 5.0753491284659601e-07 0 -8.6550600932557069e-05 0.00027258069113532879 0 -7.6652189924729437e-05 0.00024674126238082077 0 -5.9346209987259247e-05 0.00026021220382592891 0 -3.94502945614255e-05 -0.0001280989806178643 0 -4.2121734689689286e-05 -0.0001158787082132486 0 -4.9619346183028709e-05 -0.00012255576707028584 0 -1.8936016297502336e-06 7.2033028911528487e-07 0 -3.1143583353844572e-06 8.6204095488142627e-07 0 -3.4279133292038459e-06 9.5985726276637666e-07 0 -1.0381134757645924e-05 3.1999592555211463e-06 0 -1.237726146438134e-05 2.4597124374645377e-08 0 -1.4501194242339212e-05 6.7374685223809707e-07 0 -3.6565016097659026e-05 0.00027150084903043964 0 -4.1062278734506831e-05 0.00029750080760849399 0 -6.14563347323198e-05 0.00028951809670509906 0 -8.6550600932557069e-05 0.00027258069113532879 0 -6.1456334732319786e-05 0.00028951809670509901 0 -8.2842686831946247e-05 0.00029795798768664423 0 -5.9842223581274053e-05 -0.00012794061169456216 0 -5.8334643358308313e-05 -0.00013948760374448677 0 -4.9507554978062182e-05 -0.00013593537831167732 0 -3.94502945614255e-05 -0.0001280989806178643 0 -4.9507554978062182e-05 -0.00013593537831167732 0 -4.13815406060929e-05 -0.00013958658603388285 0 -3.0945397088094925e-05 2.0593312986677629e-05 0 -4.5695058131296179e-05 3.3662284642562122e-05 0 -4.4233739832281722e-05 2.4566743909176347e-05 0 -3.8703990043344045e-05 -3.0609940335775091e-05 0 -4.8706599067898652e-05 -3.5072079100905295e-05 0 -4.3611037472020664e-05 -3.8804476105261793e-05 0 -5.0046090990427095e-05 -4.524320265893749e-05 0 -4.3611037472020664e-05 -3.8804476105261793e-05 0 -4.8706599067898652e-05 -3.5072079100905295e-05 0 -7.6266475023925486e-05 9.1133659838539489e-05 0 -7.5664672536932109e-05 6.6219405767320972e-05 0 -6.2335201019838435e-05 7.571160624105663e-05 0 -5.2569154110711454e-05 5.4224881095412791e-05 0 -6.2335201019838435e-05 7.571160624105663e-05 0 -7.5664672536932109e-05 6.6219405767320972e-05 0 -2.7834831515648809e-06 7.6993693685172739e-07 0 -3.4899761346084785e-06 6.66235037617074e-07 0 -4.8350537137733205e-06 5.9974315919367442e-07 0 1.0797104531307841e-05 6.8368216874099781e-05 0 1.3979029870679517e-05 9.7854938164450005e-05 0 -1.1005411006972541e-05 7.0807366278202038e-05 0 -5.1133106399504726e-06 -9.6810969513141865e-07 0 -8.0105918888199789e-06 -5.2927616951131336e-07 0 -5.2498749617512687e-06 -6.0298235163409471e-07 0 -4.475209704920533e-06 1.2530655677589198e-07 0 -4.1370472722746351e-06 -2.2626655662967249e-07 0 -6.5269255665909409e-06 -5.0033167873069248e-07 0 -2.3539116794952097e-05 -1.030070278253872e-05 0 -2.2690754157404587e-05 -8.019271613722596e-06 0 -2.0027601118204292e-05 -5.8846450490744082e-06 0 -7.4365076202385287e-06 -4.508205523473238e-07 0 -6.8024293563225947e-06 -1.4219521898867693e-07 0 -4.375322822892452e-06 3.9427578749900312e-07 0 -8.242150251585518e-06 -4.2014628209440719e-07 0 -4.2370262721822348e-06 -1.0182221825825349e-06 0 -6.5897112854792156e-06 -2.6675823426693046e-07 0 -2.6308605403359947e-05 6.9853438844356335e-06 0 -3.367479043310525e-05 1.0888931357567537e-05 0 -2.6986383228964312e-05 5.9847044570050018e-06 0 -3.6681999581290959e-05 1.0244730100399204e-05 0 -2.6986383228964312e-05 5.9847044570050018e-06 0 -3.367479043310525e-05 1.0888931357567537e-05 0 -3.6565016097659026e-05 0.00027150084903043964 0 -4.08265074380682e-05 0.0002411927969174862 0 -1.8960505288413979e-05 0.00024370984270885495 0 -5.9842223581274053e-05 -0.00012794061169456216 0 -5.6651698917433663e-05 -0.00011412755882498958 0 -6.666700079704558e-05 -0.00011621501200622101 0 -2.8338404024412971e-05 -4.5297022065217326e-05 0 -2.7445583258555015e-05 -4.4976066117928831e-05 0 -2.7227428271456017e-05 -4.3912513237862463e-05 0 -3.7709119457934851e-05 -4.3025056381536005e-05 0 -3.365938942134759e-05 -4.3597603525281173e-05 0 -3.7813377596057942e-05 -4.0053162314254964e-05 0 -1.4271112460646006e-05 -4.1211138173672293e-06 0 -1.1578510478565557e-05 -2.5141058502718752e-06 0 -1.1705190584739909e-05 -2.18652173759901e-06 0 -4.2073473709241547e-05 -3.852060650391237e-05 0 -4.0815058589194539e-05 -3.7243962823684451e-05 0 -4.0088886217980246e-05 -3.5198273696384767e-05 0 -1.9217879900045375e-05 -2.8643794116067826e-05 0 -2.0465616538589379e-05 -3.0246035655734504e-05 0 -2.3348609798254356e-05 -3.5635865051523821e-05 0 -2.7289579175603309e-05 -3.76869605589917e-05 0 -2.5455914331996617e-05 -3.7367111377531916e-05 0 -2.49501944232563e-05 -3.3256080016040561e-05 0 -3.7806338396898499e-05 -2.0847672565895648e-05 0 -3.978495568635637e-05 -2.6241381002846882e-05 0 -3.1143040671857846e-05 -1.9433893822484348e-05 0 -3.365938942134759e-05 -4.3597603525281173e-05 0 -3.1916708176182081e-05 -4.2049643425683051e-05 0 -3.4493653233091923e-05 -3.9664214577702623e-05 0 -4.3782573132302849e-05 1.831593269147459e-05 0 -3.367479043310525e-05 1.0888931357567537e-05 0 -3.585337325220111e-05 1.6591198774266707e-05 0 -8.1702479168967418e-06 2.9818150689398843e-07 0 -6.3624406465249136e-06 1.271745855261145e-06 0 -6.6980004888117754e-06 4.3016637250218123e-07 0 -3.8703990043344045e-05 -3.0609940335775091e-05 0 -3.7761008319850159e-05 -3.9835210108655179e-05 0 -3.2768642917535191e-05 -3.0002272052275661e-05 0 -3.003587940247355e-05 -3.6097993663971746e-05 0 -3.2768642917535191e-05 -3.0002272052275661e-05 0 -3.7761008319850159e-05 -3.9835210108655179e-05 0 -1.5319950733185308e-05 -4.1705343458218063e-06 0 -1.4271112460646006e-05 -4.1211138173672293e-06 0 -1.1705190584739909e-05 -2.18652173759901e-06 0 -3.8703990043344045e-05 -3.0609940335775091e-05 0 -3.4025674277639847e-05 -2.5434090335784271e-05 0 -3.978495568635637e-05 -2.6241381002846882e-05 0 -1.318319241797857e-05 -2.7638637580855765e-06 0 -1.5319950733185308e-05 -4.1705343458218063e-06 0 -1.1705190584739909e-05 -2.18652173759901e-06 0 -8.3386518012778889e-06 5.87300243365379e-07 0 -7.6698940136909403e-06 2.2019643604989428e-06 0 -1.1587067923944087e-05 2.2666090310216335e-06 0 -3.8703990043344045e-05 -3.0609940335775091e-05 0 -3.978495568635637e-05 -2.6241381002846882e-05 0 -4.8706599067898652e-05 -3.5072079100905295e-05 0 -5.2569154110711454e-05 5.4224881095412791e-05 0 -7.5664672536932109e-05 6.6219405767320972e-05 0 -6.0125959295872492e-05 4.683224451303478e-05 0 -3.4316792639962149e-09 -8.8169639534168394e-10 0 -2.5171914696199473e-06 -6.9634054438298448e-07 0 -5.2498749617512687e-06 -6.0298235163409471e-07 0 -2.7294266822692292e-09 3.6711757356141326e-10 0 -4.1370472722746351e-06 -2.2626655662967249e-07 0 -2.1120057090445261e-06 1.5237425795485192e-07 0 -1.318319241797857e-05 -2.7638637580855765e-06 0 -1.1705190584739909e-05 -2.18652173759901e-06 0 -1.0542814936798177e-05 -1.574648389106054e-06 0 -1.4960917037292056e-05 2.4689188263597274e-06 0 -1.2074868210154405e-05 7.5288593459285248e-07 0 -1.1587067923944087e-05 2.2666090310216335e-06 0 -4.7290618376572431e-06 -6.0700713963015803e-07 0 -3.220259262802668e-06 -6.6506442589179696e-07 0 -5.1283342417478654e-06 4.6112258391139115e-08 0 -2.2306084126919735e-05 -2.2023241794862977e-05 0 -2.7561518961789133e-05 -2.6445404435281948e-05 0 -2.3243828312982285e-05 -3.1827292385592509e-05 0 -2.9695492676609294e-06 8.3426778807222146e-07 0 -2.7155111276967798e-06 9.969176889892188e-07 0 -3.2546732477504835e-06 1.4865746847607478e-06 0 -8.6550600932557069e-05 0.00027258069113532879 0 -0.00010107200036302855 0.00024451740806185766 0 -7.6652189924729437e-05 0.00024674126238082077 0 -3.94502945614255e-05 -0.0001280989806178643 0 -3.2480293451670957e-05 -0.00011378728146098288 0 -4.2121734689689286e-05 -0.0001158787082132486 0 -8.8251637028099927e-06 -8.4465314653814831e-07 0 -7.4365076202385287e-06 -4.508205523473238e-07 0 -1.0542814936798177e-05 -1.574648389106054e-06 0 -8.3386518012778889e-06 5.87300243365379e-07 0 -1.2074868210154405e-05 7.5288593459285248e-07 0 -8.242150251585518e-06 -4.2014628209440719e-07 0 -2.3630455384243799e-06 8.4975723671011567e-07 0 -3.5087831094813987e-06 1.0988714095717783e-06 0 -3.2346166173953327e-06 1.236326267532259e-06 0 -2.7561518961789133e-05 -2.6445404435281948e-05 0 -3.003587940247355e-05 -3.6097993663971746e-05 0 -2.3243828312982285e-05 -3.1827292385592509e-05 0 -0.00013081233360327454 0.00018851075720610784 0 -0.00012700111095494457 0.0001604690681039356 0 -0.00010271251876680476 0.00017328393812452483 0 -1.4225833602773864e-05 -7.0336939466543092e-05 0 -2.5779699837097414e-05 -7.8949073563250888e-05 0 -1.537020214606024e-05 -8.3289313580229581e-05 0 -5.3881967536120058e-05 -8.1792178160339501e-05 0 -4.4405784037021707e-05 -7.010671752906135e-05 0 -5.2553372541666878e-05 -7.0742238779759116e-05 0 -1.5982557446425758e-05 -3.3817974715666568e-06 0 -1.9235439629284848e-05 -7.9009928174205137e-06 0 -2.0027601118204292e-05 -5.8846450490744082e-06 0 -2.2456818226466555e-05 4.0905174385427109e-06 0 -1.7340122942496952e-05 3.0339164548395207e-06 0 -1.6485477986456715e-05 2.0141353469228115e-06 0 -1.6127699548001008e-05 -4.3142801487724118e-06 0 -1.2261233253655037e-05 -2.799209470603157e-06 0 -1.243532393548942e-05 -3.5132002067398043e-06 0 -7.4210867120891003e-06 7.3023947936931523e-06 0 -7.1911621040256029e-06 4.1962228159675954e-06 0 -5.272725139175502e-06 4.8687482688823888e-06 0 -2.3630455384243799e-06 8.4975723671011567e-07 0 -2.5118204227602671e-06 8.6741868006275587e-07 0 -3.5087831094813987e-06 1.0988714095717783e-06 0 -2.8535623542394754e-05 -1.574407132614546e-05 0 -3.1738954758817721e-05 -2.0457123055982244e-05 0 -2.8955293337184593e-05 -1.7723136257878898e-05 0 -2.2456818226466555e-05 4.0905174385427109e-06 0 -2.4087667984581543e-05 5.408511198603495e-06 0 -1.7340122942496956e-05 3.0339164548395211e-06 0 -1.6127699548001008e-05 -4.3142801487724118e-06 0 -1.2435323935489418e-05 -3.5132002067398039e-06 0 -1.681168032522534e-05 -5.2625158282285984e-06 0 -1.0381134757645924e-05 3.1999592555211463e-06 0 -9.549209300919474e-06 1.730551957540912e-06 0 -1.237726146438134e-05 2.4597124374645377e-08 0 -4.8114961178009303e-05 -0.00010864900945184783 0 -4.7807142757416963e-05 -9.3762324606470651e-05 0 -5.4053138569683518e-05 -0.00010192605518420557 0 -5.9422046620435595e-05 0.00023045684123515673 0 -5.4723491079299808e-05 0.00019720124396812924 0 -4.3055722864803911e-05 0.00021478504035121973 0 -3.7806338396898499e-05 -2.0847672565895648e-05 0 -3.1143040671857846e-05 -1.9433893822484348e-05 0 -3.0979816788039022e-05 -1.5392118506078585e-05 0 -2.5437752454220043e-05 -1.3584571236446509e-05 0 -3.0979816788039022e-05 -1.5392118506078581e-05 0 -3.1143040671857846e-05 -1.9433893822484348e-05 0 -1.4333202063089205e-05 -6.6128539955676052e-06 0 -1.6661132248524996e-05 -8.8717895211462961e-06 0 -1.6692272904516258e-05 -1.0617174913262283e-05 0 -1.9536532685547609e-05 -1.312908474900222e-05 0 -1.6692272904516258e-05 -1.0617174913262283e-05 0 -1.6661132248524996e-05 -8.8717895211462961e-06 0 -1.9842120264581536e-06 -8.4579652044515435e-07 0 -3.220259262802668e-06 -6.6506442589179696e-07 0 -4.2370262721822348e-06 -1.0182221825825349e-06 0 -4.7290618376572431e-06 -6.0700713963015803e-07 0 -4.2370262721822348e-06 -1.0182221825825349e-06 0 -3.220259262802668e-06 -6.6506442589179696e-07 0 -5.2933004113540417e-06 3.2422411910235862e-07 0 -3.4899761346084785e-06 6.66235037617074e-07 0 -4.375322822892452e-06 3.9427578749900312e-07 0 -2.0283134365455893e-06 5.2444216070332063e-07 0 -4.375322822892452e-06 3.9427578749900312e-07 0 -3.4899761346084785e-06 6.66235037617074e-07 0 -3.4426662498724796e-05 -2.9583950702345852e-05 0 -3.3894305801558329e-05 -3.2709862789793665e-05 0 -3.1776133015319342e-05 -2.9828464085324762e-05 0 -1.5982557446425758e-05 -3.3817974715666568e-06 0 -1.4501194242339212e-05 6.7374685223809707e-07 0 -1.237726146438134e-05 2.4597124374645377e-08 0 -4.5714352441775867e-06 3.8396060867213747e-06 0 -4.5478677417632045e-06 3.3555927791838844e-06 0 -3.9051373194664293e-06 2.5094792539053794e-06 0 -3.1715363200690576e-05 0.00017100443088901093 0 -3.3487836146470746e-05 0.00019752192489931361 0 -5.4723491079299801e-05 0.00019720124396812924 0 -5.3881967536120058e-05 -8.1792178160339501e-05 0 -5.6723868965939676e-05 -9.3595238510121742e-05 0 -4.7807142757416963e-05 -9.3762324606470651e-05 0 -3.1715363200690576e-05 0.00017100443088901093 0 -5.2667773393137525e-05 0.00014953145190753597 0 -3.237514334677301e-05 0.00014509981470165644 0 -7.4210867120891003e-06 7.3023947936931523e-06 0 -1.0447032850557381e-05 6.486151915575841e-06 0 -7.1911621040256029e-06 4.1962228159675954e-06 0 -7.4210867120891003e-06 7.3023947936931523e-06 0 -1.0543536306108275e-05 1.1170165550375685e-05 0 -1.0447032850557381e-05 6.486151915575841e-06 0 -5.4362217099128299e-05 0.00010802364242381979 0 -4.3762297796747553e-05 0.00012807370680600465 0 -6.6778139574739234e-05 0.0001369901052995206 0 -5.2667773393137525e-05 0.00014953145190753597 0 -6.6778139574739234e-05 0.0001369901052995206 0 -4.3762297796747553e-05 0.00012807370680600465 0 -8.4271486742575898e-06 6.1619632730016173e-07 0 -5.2498749617512687e-06 -6.029823516340946e-07 0 -9.3506658921047522e-06 3.1910165743770514e-08 0 -6.2477198853374176e-06 -1.3362821855465703e-06 0 -7.2083432822932472e-06 -1.0241917631662645e-06 0 -4.1370472722746351e-06 -2.2626655662967249e-07 0 -3.003587940247355e-05 -3.6097993663971746e-05 0 -3.4148491502235097e-05 -4.6535045778278765e-05 0 -2.634554918396584e-05 -4.6226534278839521e-05 0 -4.2073473709241547e-05 -3.852060650391237e-05 0 -4.3051705263116636e-05 -4.1066156349520593e-05 0 -4.0815058589194539e-05 -3.7243962823684451e-05 0 -1.9217879900045375e-05 -2.8643794116067826e-05 0 -2.3348609798254356e-05 -3.5635865051523821e-05 0 -2.1331356141366258e-05 -3.2211862405847873e-05 0 -1.0260496373674424e-05 -2.2180261071233952e-07 0 -1.237726146438134e-05 2.4597124374645377e-08 0 -9.549209300919474e-06 1.730551957540912e-06 0 -4.5714352441775867e-06 3.8396060867213747e-06 0 -5.2909259003203809e-06 6.2172533715499795e-06 0 -5.272725139175502e-06 4.8687482688823888e-06 0 -3.1179775300540877e-05 -3.977592355995983e-05 0 -2.9740723353959464e-05 -3.7108366632128483e-05 0 -3.324138765022466e-05 -3.7096329105173999e-05 0 -3.1393360055858178e-05 -3.5030501784531788e-05 0 -3.324138765022466e-05 -3.7096329105173999e-05 0 -2.9740723353959464e-05 -3.7108366632128483e-05 0 -2.6355221588272444e-05 -2.4259771404888527e-05 0 -2.6604914983197442e-05 -2.9566529928625684e-05 0 -2.2740067137324992e-05 -2.4443165381584434e-05 0 -8.6550600932557069e-05 0.00027258069113532879 0 -0.00011097578591358162 0.00026985033738594424 0 -0.00010107200036302855 0.00024451740806185766 0 -3.94502945614255e-05 -0.0001280989806178643 0 -3.0272957463514181e-05 -0.00012538872241590939 0 -3.2480293451670957e-05 -0.00011378728146098288 0 -3.9819836415333362e-05 -3.8176406274240793e-05 0 -4.2195330386035192e-05 -4.0662491862759768e-05 0 -3.7813377596057942e-05 -4.0053162314254964e-05 0 -2.5813324029188614e-05 -4.0466612889110816e-05 0 -2.7227428271456017e-05 -4.3912513237862463e-05 0 -2.5938243467958306e-05 -4.1494692250720667e-05 0 -3.6565016097659026e-05 0.00027150084903043964 0 -5.9346209987259247e-05 0.00026021220382592891 0 -4.08265074380682e-05 0.0002411927969174862 0 -5.9842223581274053e-05 -0.00012794061169456216 0 -4.9619346183028709e-05 -0.00012255576707028584 0 -5.6651698917433663e-05 -0.00011412755882498958 0 -2.3630455384243799e-06 8.4975723671011567e-07 0 -3.2346166173953327e-06 1.236326267532259e-06 0 -2.7155111276967798e-06 9.9691768898921858e-07 0 -3.6929336143886662e-06 1.7419563903873204e-06 0 -2.7155111276967798e-06 9.9691768898921858e-07 0 -3.2346166173953327e-06 1.236326267532259e-06 0 -2.4059825910381208e-05 0.00021453962798876036 0 -4.08265074380682e-05 0.0002411927969174862 0 -4.3055722864803911e-05 0.00021478504035121973 0 -6.2450365324749835e-05 -0.00010253874011670048 0 -5.6651698917433663e-05 -0.00011412755882498958 0 -5.4053138569683518e-05 -0.00010192605518420557 0 -5.1133106399504726e-06 -9.6810969513141865e-07 0 -5.2498749617512696e-06 -6.029823516340946e-07 0 -2.5171914696199473e-06 -6.9634054438298448e-07 0 -4.475209704920533e-06 1.2530655677589198e-07 0 -2.1120057090445261e-06 1.5237425795485192e-07 0 -4.1370472722746351e-06 -2.2626655662967249e-07 0 -2.8891776880794824e-05 6.9570079317545831e-05 0 -1.5847355628363068e-05 9.6276864289989673e-05 0 -3.5584666682260392e-05 0.00010091122463598292 0 -8.4271486742575898e-06 6.1619632730016173e-07 0 -4.0719225532604015e-06 -8.019375676843881e-08 0 -5.2498749617512687e-06 -6.0298235163409471e-07 0 -6.2477198853374176e-06 -1.3362821855465703e-06 0 -4.1370472722746351e-06 -2.2626655662967249e-07 0 -3.0503694759420175e-06 -4.5417065407744066e-07 0 -0.00013413593301980187 0.00024387783183301963 0 -0.00011414449941788566 0.00022433819576815622 0 -0.00010107200036302855 0.00024451740806185766 0 -1.8947058551975304e-05 -0.00010982115761477998 0 -2.5620754804114667e-05 -0.00010270628596709073 0 -3.2480293451670957e-05 -0.00011378728146098288 0 -2.1965303192953624e-05 3.3173237153903438e-05 0 -3.7148116727030762e-05 3.5743429995150048e-05 0 -2.4429397862945991e-05 2.476547515786275e-05 0 -3.0945397088094925e-05 2.0593312986677629e-05 0 -2.4429397862945991e-05 2.476547515786275e-05 0 -3.7148116727030762e-05 3.5743429995150048e-05 0 -4.1115110147268227e-05 -5.448370040903026e-05 0 -3.7761008319850159e-05 -3.9835210108655179e-05 0 -4.4318408878128205e-05 -4.6139550478895025e-05 0 -1.9196400726205803e-05 -6.7777456006976517e-06 0 -1.9297278672884117e-05 -1.4799225328219133e-05 0 -1.5707877567326198e-05 -9.9526494722805374e-06 0 -5.4362217099128299e-05 0.00010802364242381979 0 -6.2982486264835975e-05 9.2682313432815189e-05 0 -4.87098726564392e-05 7.8424496477814975e-05 0 -5.2569154110711454e-05 5.4224881095412791e-05 0 -4.87098726564392e-05 7.8424496477814975e-05 0 -6.2335201019838435e-05 7.571160624105663e-05 0 -3.8703990043344045e-05 -3.0609940335775091e-05 0 -4.3611037472020664e-05 -3.8804476105261793e-05 0 -3.7761008319850159e-05 -3.9835210108655179e-05 0 -3.003587940247355e-05 -3.6097993663971746e-05 0 -2.634554918396584e-05 -4.6226534278839521e-05 0 -2.3243828312982285e-05 -3.1827292385592509e-05 0 -3.8410048290112841e-05 -3.4408370230073995e-05 0 -4.0088886217980246e-05 -3.5198273696384767e-05 0 -4.0815058589194539e-05 -3.7243962823684451e-05 0 -2.3418361236156461e-05 -3.3816050482580555e-05 0 -2.3348609798254356e-05 -3.5635865051523821e-05 0 -2.0465616538589379e-05 -3.0246035655734504e-05 0 -1.8630300820308296e-05 -2.6171252146006261e-06 0 -2.2690754157404587e-05 -8.019271613722596e-06 0 -2.0625121377136393e-05 -5.0906152458874577e-06 0 -2.3539116794952097e-05 -1.030070278253872e-05 0 -2.6069277727203632e-05 -1.2394376696001678e-05 0 -2.2690754157404587e-05 -8.019271613722596e-06 0 -8.9589378364399611e-06 8.4172954707660021e-06 0 -8.1888723785078708e-06 6.0509086279081693e-06 0 -1.1914228880222812e-05 4.7989324310881807e-06 0 -2.2306084126919735e-05 -2.2023241794862977e-05 0 -1.905620124235582e-05 -1.5550107054171428e-05 0 -2.305171873042386e-05 -1.8520779789664923e-05 0 -3.6565016097659026e-05 0.00027150084903043964 0 -1.8960505288413979e-05 0.00024370984270885495 0 -1.3625113992651672e-05 0.00026723217963163618 0 -5.9842223581274053e-05 -0.00012794061169456216 0 -6.666700079704558e-05 -0.00011621501200622101 0 -7.0438847564084243e-05 -0.00012720438397740758 0 -1.0381134757645924e-05 3.1999592555211463e-06 0 -1.1914228880222812e-05 4.7989324310881807e-06 0 -8.1888723785078708e-06 6.0509086279081693e-06 0 -1.8621369602692077e-05 -2.2909680488172085e-05 0 -2.2740067137324992e-05 -2.4443165381584434e-05 0 -2.039499237932757e-05 -2.6403015995785633e-05 0 -3.1393360055858178e-05 -3.5030501784531788e-05 0 -2.9740723353959464e-05 -3.7108366632128483e-05 0 -2.938342677551194e-05 -3.2903325898645513e-05 0 -6.2757711036479777e-06 5.6827870690155376e-06 0 -7.4841468525393332e-06 3.7319362784599007e-06 0 -8.1888723785078708e-06 6.0509086279081693e-06 0 -2.1462461189291787e-06 -3.6507275320253797e-07 0 -2.8855767652460214e-06 5.9167335767903481e-08 0 -3.220259262802668e-06 -6.6506442589179696e-07 0 -6.7170452773965763e-05 -5.2871583642115414e-05 0 -7.1634627109830779e-05 -6.4496482409963688e-05 0 -5.8951188119882422e-05 -5.5924091701574748e-05 0 -8.3386518012778889e-06 5.87300243365379e-07 0 -6.5897112854792156e-06 -2.6675823426693046e-07 0 -5.1283342417478654e-06 4.6112258391139115e-08 0 -3.9051373194664293e-06 2.5094792539053794e-06 0 -4.5478677417632045e-06 3.3555927791838844e-06 0 -3.7846133270467252e-06 1.7444045621737051e-06 0 -1.0381134757645924e-05 3.1999592555211463e-06 0 -1.4501194242339212e-05 6.7374685223809707e-07 0 -1.1914228880222812e-05 4.7989324310881807e-06 0 -0.00012130039847419217 0.00013278579814498658 0 -0.00011381436682902465 0.00010671142672758483 0 -9.4225285078911798e-05 0.00011503205333496217 0 -1.8936016297502336e-06 7.2033028911528487e-07 0 -1.431902723765938e-06 5.1424636202534336e-07 0 -7.7144165422318656e-07 3.3377570946068196e-07 0 -5.2627793490181419e-06 2.3366511594523926e-06 0 -5.272725139175502e-06 4.8687482688823888e-06 0 -7.1911621040256029e-06 4.1962228159675954e-06 0 -3.0130911820329126e-05 -2.1974250343720533e-05 0 -3.1763906822791446e-05 -2.2083293669333136e-05 0 -3.2855491715933185e-05 -2.5788514481542954e-05 0 -5.3881967536120058e-05 -8.1792178160339501e-05 0 -6.2225201986285372e-05 -7.6146826959456491e-05 0 -6.5402018639044567e-05 -8.9808971930876321e-05 0 -8.3386518012778889e-06 5.87300243365379e-07 0 -5.1283342417478654e-06 4.6112258391139115e-08 0 -6.0800703251035543e-06 1.0630569075702024e-06 0 -2.3630455384243799e-06 8.4975723671011567e-07 0 -1.6753626239449893e-06 4.3882067535720308e-07 0 -1.431902723765938e-06 5.1424636202534336e-07 0 -9.8054039787942594e-06 3.825739199652229e-06 0 -7.1911621040256029e-06 4.1962228159675954e-06 0 -1.0447032850557381e-05 6.486151915575841e-06 0 -3.1738954758817721e-05 -2.0457123055982244e-05 0 -3.1763906822791446e-05 -2.2083293669333136e-05 0 -2.8955293337184593e-05 -1.7723136257878898e-05 0 -3.8410048290112841e-05 -3.4408370230073995e-05 0 -3.8017879891676994e-05 -3.5812119770790401e-05 0 -3.6013159419514443e-05 -3.2447548914359702e-05 0 -2.6308605403359947e-05 6.9853438844356335e-06 0 -2.050803748192018e-05 4.2425854842693278e-06 0 -2.3565045581234739e-05 7.5821593356963208e-06 0 1.0779352035273163e-05 0.00023520702357331401 0 -1.8960505288413979e-05 0.00024370984270885495 0 -5.7884068282197654e-06 0.0002217085510786373 0 -8.0368460822350819e-05 -0.00011521289408316622 0 -6.666700079704558e-05 -0.00011621501200622101 0 -7.1439676575042009e-05 -0.00010712061216238463 0 -3.2546732477504835e-06 1.4865746847607478e-06 0 -3.7846133270467252e-06 1.7444045621737051e-06 0 -2.9695492676609294e-06 8.3426778807222146e-07 0 -3.9051373194664293e-06 2.5094792539053794e-06 0 -3.7846133270467252e-06 1.7444045621737051e-06 0 -3.2546732477504835e-06 1.4865746847607478e-06 0 -9.5046592857738119e-05 0.00021392049049667863 0 -0.00010107200036302855 0.00024451740806185766 0 -0.00011414449941788566 0.00022433819576815622 0 -3.2579686658986447e-05 -9.9162179598151289e-05 0 -3.2480293451670957e-05 -0.0001137872814609829 0 -2.5620754804114667e-05 -0.00010270628596709073 0 -3.6929336143886662e-06 1.7419563903873204e-06 0 -5.112109270224981e-06 1.8433812552847344e-06 0 -4.6137711401130371e-06 2.7870328858040286e-06 0 -6.1592369300023465e-06 2.4899645936162127e-06 0 -4.6137711401130371e-06 2.7870328858040286e-06 0 -5.112109270224981e-06 1.8433812552847344e-06 0 -3.6929336143886662e-06 1.7419563903873204e-06 0 -3.2546732477504835e-06 1.4865746847607478e-06 0 -2.7155111276967798e-06 9.9691768898921858e-07 0 -1.6127699548001008e-05 -4.3142801487724118e-06 0 -1.6455800322448834e-05 -4.2325689234519767e-06 0 -1.2695396977764871e-05 -2.6017190641739595e-06 0 -1.6648561372076483e-05 -6.9451159992198549e-06 0 -2.0347633950795112e-05 -1.1089540486765122e-05 0 -1.6661132248524996e-05 -8.8717895211462961e-06 0 -1.9536532685547609e-05 -1.312908474900222e-05 0 -1.6661132248524996e-05 -8.8717895211462961e-06 0 -2.0347633950795112e-05 -1.1089540486765122e-05 0 -1.6127699548001008e-05 -4.3142801487724118e-06 0 -1.2695396977764871e-05 -2.6017190641739595e-06 0 -1.2261233253655037e-05 -2.799209470603157e-06 0 -2.8891776880794824e-05 6.9570079317545831e-05 0 -1.1005411006972541e-05 7.0807366278202038e-05 0 -1.5847355628363068e-05 9.6276864289989673e-05 0 -5.9422046620435595e-05 0.00023045684123515673 0 -5.9346209987259241e-05 0.00026021220382592891 0 -7.6652189924729437e-05 0.00024674126238082077 0 -4.8114961178009303e-05 -0.00010864900945184783 0 -4.9619346183028709e-05 -0.00012255576707028584 0 -4.2121734689689286e-05 -0.0001158787082132486 0 -8.775910513857944e-06 -7.9647730891584069e-07 0 -6.8921801260941621e-06 1.7066962846564211e-08 0 -9.0240938294833984e-06 -1.2367990380622487e-06 0 -1.12784453716441e-09 1.7514047633066115e-10 0 -7.7144165422318656e-07 3.3377570946068196e-07 0 -1.431902723765938e-06 5.1424636202534336e-07 0 -7.4210867120891003e-06 7.3023947936931523e-06 0 -6.6157490606074807e-06 1.1326948461741113e-05 0 -1.0543536306108275e-05 1.1170165550375685e-05 0 -2.3577641039308632e-05 -2.9299332178324911e-05 0 -2.2740067137324992e-05 -2.4443165381584434e-05 0 -2.6604914983197442e-05 -2.9566529928625684e-05 0 -2.6355221588272444e-05 -2.4259771404888527e-05 0 -2.7894598227403599e-05 -2.2201131105310425e-05 0 -2.8821014191696711e-05 -2.6470889865387637e-05 0 -3.5087831094813987e-06 1.0988714095717783e-06 0 -4.8880652878057907e-06 9.1553823501646511e-07 0 -4.2240872007127673e-06 1.3229531337288028e-06 0 -5.0046090990427095e-05 -4.524320265893749e-05 0 -5.8951188119882422e-05 -5.5924091701574748e-05 0 -4.8388575695515522e-05 -5.4546363177328735e-05 0 -5.6131643543957302e-05 -6.375076324529454e-05 0 -4.8388575695515522e-05 -5.4546363177328735e-05 0 -5.8951188119882422e-05 -5.5924091701574748e-05 0 -1.1085239048975214e-09 -4.6232436331717005e-11 0 -1.1278445371644603e-09 1.7514047633067144e-10 0 -9.2115756936048388e-07 1.8860268164179011e-07 0 -8.4479048302313919e-05 0.00013291087019843962 0 -9.4225285078911798e-05 0.00011503205333496217 0 -7.3002394663543521e-05 0.00011225967347627228 0 -7.6266475023925486e-05 9.1133659838539489e-05 0 -7.3002394663543521e-05 0.00011225967347627228 0 -9.4225285078911798e-05 0.00011503205333496217 0 -3.9819836415333362e-05 -3.8176406274240793e-05 0 -3.8017879891676994e-05 -3.5812119770790401e-05 0 -4.0815058589194539e-05 -3.7243962823684451e-05 0 -2.5813324029188614e-05 -4.0466612889110816e-05 0 -2.3348609798254356e-05 -3.5635865051523821e-05 0 -2.5455914331996617e-05 -3.7367111377531916e-05 0 -1.5326961891175765e-05 9.6201072696473877e-06 0 -1.0447032850557381e-05 6.486151915575841e-06 0 -1.0543536306108275e-05 1.1170165550375685e-05 0 -3.5446919644385376e-05 -3.542593394810146e-05 0 -3.3306518882129913e-05 -3.4728283257396356e-05 0 -3.3894305801558329e-05 -3.2709862789793665e-05 0 -6.5925138120884401e-06 1.4607114240387099e-05 0 -6.8429787547305178e-06 1.8628475971477911e-05 0 -5.0719032488166054e-06 1.8183225449040308e-05 0 -8.3386518012778889e-06 5.87300243365379e-07 0 -6.0800703251035543e-06 1.0630569075702024e-06 0 -7.6698940136909403e-06 2.2019643604989428e-06 0 -3.0945397088094925e-05 2.0593312986677629e-05 0 -1.7713804215392351e-05 1.620506362268563e-05 0 -2.4429397862945991e-05 2.476547515786275e-05 0 1.3979029870679517e-05 9.7854938164450005e-05 0 -2.4048837462325971e-06 0.0001167433666767686 0 -1.5847355628363068e-05 9.6276864289989673e-05 0 -8.775910513857944e-06 -7.9647730891584069e-07 0 -6.6980004888117754e-06 4.3016637250218113e-07 0 -6.8921801260941621e-06 1.7066962846564384e-08 0 -5.9422046620435595e-05 0.00023045684123515673 0 -4.08265074380682e-05 0.0002411927969174862 0 -5.9346209987259247e-05 0.00026021220382592891 0 -4.8114961178009303e-05 -0.00010864900945184783 0 -5.6651698917433663e-05 -0.00011412755882498958 0 -4.9619346183028709e-05 -0.00012255576707028584 0 -4.719871769300921e-06 7.5618482799674642e-07 0 -6.0071795570415107e-06 2.7216489427429943e-07 0 -6.8921801260941621e-06 1.7066962846564384e-08 0 -1.7639996338735048e-05 -9.4776238014618464e-06 0 -2.1525792292265213e-05 -1.2277830370391375e-05 0 -1.9235439629284848e-05 -7.9009928174205137e-06 0 -2.4059825910381208e-05 0.00021453962798876036 0 -5.7884068282197654e-06 0.0002217085510786373 0 -1.8960505288413979e-05 0.00024370984270885495 0 -6.2450365324749835e-05 -0.00010253874011670048 0 -7.1439676575042009e-05 -0.00010712061216238463 0 -6.666700079704558e-05 -0.00011621501200622101 0 -3.0793049848816611e-05 -1.161034639473598e-05 0 -3.6780883035528694e-05 -1.5063637192379424e-05 0 -3.0389920866157088e-05 -1.1475021009781728e-05 0 -5.7648406371716775e-05 2.2412468345434251e-05 0 -4.7058655829515405e-05 1.5603010424279691e-05 0 -4.5428862162439517e-05 1.5810779629959948e-05 0 -2.1965303192953624e-05 3.3173237153903438e-05 0 -2.5780675784413974e-05 4.8584054676655687e-05 0 -3.7007936849843545e-05 5.1909712104431121e-05 0 -1.318319241797857e-05 -2.7638637580855765e-06 0 -1.6710775123491665e-05 -4.5706434148431519e-06 0 -1.5319950733185308e-05 -4.1705343458218063e-06 0 -4.4851167861673781e-05 -4.5229157797512101e-05 0 -4.1841879460978538e-05 -4.2933855283800546e-05 0 -4.2195330386035192e-05 -4.0662491862759768e-05 0 -4.4851167861673781e-05 -4.5229157797512101e-05 0 -4.2195330386035192e-05 -4.0662491862759768e-05 0 -4.407482673224384e-05 -4.3165720408954426e-05 0 -2.5493089252555174e-05 -3.8573159762726918e-05 0 -2.3632425318457601e-05 -3.5585588862749082e-05 0 -2.5938243467958306e-05 -4.1494692250720667e-05 0 -2.5493089252555174e-05 -3.8573159762726918e-05 0 -2.5938243467958306e-05 -4.1494692250720667e-05 0 -2.6862696751881642e-05 -4.3665549716067781e-05 0 -3.9819836415333362e-05 -3.8176406274240793e-05 0 -3.6563275638178035e-05 -3.7503127507947461e-05 0 -3.8017879891676994e-05 -3.5812119770790401e-05 0 -2.5813324029188614e-05 -4.0466612889110816e-05 0 -2.5455914331996617e-05 -3.7367111377531916e-05 0 -2.7189806938722778e-05 -4.0829808655684269e-05 0 -1.4514342882532246e-05 -2.1150568545793018e-05 0 -1.8513440155540271e-05 -2.63858006790487e-05 0 -1.6860147258351141e-05 -2.4822896827464123e-05 0 -3.9308994370942382e-05 -3.1576898380140974e-05 0 -4.0827198667740035e-05 -3.5440379945790405e-05 0 -3.7726258125154136e-05 -3.1511326265152926e-05 0 -1.6288116177925049e-06 1.7378045168254277e-06 0 -1.0397424654785657e-05 -5.14876902597265e-06 0 -5.5360060249827885e-06 -7.5991764867512747e-06 0 -3.6565016097659026e-05 0.00027150084903043964 0 -1.9892868837525263e-05 0.00029073933089016508 0 -4.1062278734506831e-05 0.00029750080760849399 0 -8.6550600932557069e-05 0.00027258069113532879 0 -8.2842686831946247e-05 0.00029795798768664423 0 -0.00010626303433155345 0.00029288008864149679 0 -5.9842223581274053e-05 -0.00012794061169456216 0 -6.8316674988577023e-05 -0.00013719865794385331 0 -5.8334643358308313e-05 -0.00013948760374448677 0 -3.94502945614255e-05 -0.0001280989806178643 0 -4.13815406060929e-05 -0.00013958658603388283 0 -3.3089271094201166e-05 -0.00013655975901616824 0 -5.4155937419376074e-06 1.0893037102402531e-06 0 -4.2240872007127673e-06 1.3229531337288028e-06 0 -4.8880652878057907e-06 9.1553823501646511e-07 0 -3.6565016097659026e-05 0.00027150084903043964 0 -1.362511399265167e-05 0.00026723217963163618 0 -1.989286883752526e-05 0.00029073933089016508 0 -5.9842223581274053e-05 -0.00012794061169456216 0 -7.0438847564084243e-05 -0.00012720438397740758 0 -6.8316674988577023e-05 -0.00013719865794385331 0 -1.8630300820308296e-05 -2.6171252146006261e-06 0 -1.6314277864546252e-05 1.193240717312803e-06 0 -1.4501194242339212e-05 6.7374685223809707e-07 0 -8.6550600932557069e-05 0.00027258069113532879 0 -0.00010626303433155345 0.00029288008864149679 0 -0.00011097578591358162 0.00026985033738594424 0 -3.94502945614255e-05 -0.0001280989806178643 0 -3.3089271094201166e-05 -0.00013655975901616824 0 -3.0272957463514181e-05 -0.00012538872241590939 0 -2.8603948080089114e-05 -6.071996500874474e-05 0 -2.0756675935145803e-05 -5.284646871724062e-05 0 -2.634554918396584e-05 -4.6226534278839521e-05 0 -2.8535623542394754e-05 -1.574407132614546e-05 0 -2.8955293337184593e-05 -1.7723136257878898e-05 0 -2.6069277727203632e-05 -1.2394376696001678e-05 0 -2.6554214770012e-05 -1.466878556400168e-05 0 -2.6069277727203632e-05 -1.2394376696001678e-05 0 -2.8955293337184593e-05 -1.7723136257878898e-05 0 -9.8054039787942594e-06 3.825739199652229e-06 0 -1.1587067923944087e-05 2.2666090310216335e-06 0 -7.6698940136909403e-06 2.2019643604989428e-06 0 -5.4362217099128299e-05 0.00010802364242381979 0 -3.5584666682260392e-05 0.00010091122463598292 0 -4.3762297796747553e-05 0.00012807370680600465 0 -7.1634627109830779e-05 -6.4496482409963688e-05 0 -6.4480636276634725e-05 -6.7014242703416195e-05 0 -5.8951188119882422e-05 -5.5924091701574748e-05 0 -9.9185148968627029e-06 1.6708749405477357e-05 0 -1.7713804215392351e-05 1.620506362268563e-05 0 -1.0543536306108275e-05 1.1170165550375685e-05 0 -1.5326961891175765e-05 9.6201072696473877e-06 0 -1.0543536306108275e-05 1.1170165550375685e-05 0 -1.7713804215392351e-05 1.620506362268563e-05 0 -4.5714352441775867e-06 3.8396060867213747e-06 0 -5.3258177549508272e-06 4.2001714545676138e-06 0 -5.2909259003203809e-06 6.2172533715499795e-06 0 -2.9328150127022075e-05 -2.9902302043849803e-05 0 -2.938342677551194e-05 -3.2903325898645513e-05 0 -2.6604914983197442e-05 -2.9566529928625684e-05 0 -2.7608780099862648e-05 -3.4326467723385802e-05 0 -2.6604914983197442e-05 -2.9566529928625684e-05 0 -2.938342677551194e-05 -3.2903325898645513e-05 0 -9.3495421454492492e-05 6.1952993490006116e-05 0 -8.1624243075545765e-05 4.4908470215914529e-05 0 -7.2150787868244582e-05 4.8407680786999575e-05 0 -4.95770174700475e-05 -2.5609113838468527e-05 0 -5.5908027055781044e-05 -3.317821452463452e-05 0 -4.5755479761462665e-05 -2.6720219606735552e-05 0 -1.8083135230105821e-09 -3.8788891736330238e-10 0 -1.4722386239160034e-09 -2.9716125638693078e-10 0 -1.368855118514056e-06 -5.3402915922221601e-07 0 -1.6097028404087835e-09 3.0487967474658219e-10 0 -1.8452329720768917e-09 2.8855277427189495e-10 0 -1.5904639367618281e-06 5.4923389450860146e-07 0 -7.4210867120891003e-06 7.3023947936931523e-06 0 -5.2727251391755012e-06 4.8687482688823888e-06 0 -5.7691053226518156e-06 7.5059128157558355e-06 0 -6.2757711036479777e-06 5.6827870690155376e-06 0 -5.2909259003203809e-06 6.2172533715499795e-06 0 -5.3258177549508272e-06 4.2001714545676138e-06 0 -4.5714352441775867e-06 3.8396060867213747e-06 0 -5.272725139175502e-06 4.8687482688823879e-06 0 -4.5478677417632045e-06 3.3555927791838844e-06 0 -1.2050917450486421e-05 4.4734152161209078e-07 0 -1.6485477986456715e-05 2.0141353469228115e-06 0 -1.2838575495683113e-05 1.2455853058161333e-06 0 -9.4742571777184161e-06 -1.4511018936067032e-06 0 -9.4767612137575738e-06 -2.0909758660199962e-06 0 -1.2261233253655037e-05 -2.799209470603157e-06 0 -2.0927296133901131e-05 0.00012602347492173866 0 -1.5847355628363068e-05 9.6276864289989673e-05 0 -2.4048837462325971e-06 0.0001167433666767686 0 -1.2050917450486421e-05 4.4734152161209078e-07 0 -1.2838575495683111e-05 1.2455853058161331e-06 0 -9.3506658921047522e-06 3.1910165743770514e-08 0 -9.4742571777184161e-06 -1.4511018936067032e-06 0 -7.2083432822932472e-06 -1.0241917631662645e-06 0 -9.4767612137575738e-06 -2.0909758660199962e-06 0 -3.4426662498724796e-05 -2.9583950702345852e-05 0 -3.6013159419514443e-05 -3.2447548914359702e-05 0 -3.3894305801558329e-05 -3.2709862789793665e-05 0 -2.8891776880794824e-05 6.9570079317545831e-05 0 -1.5703009769395225e-05 4.4156209306227741e-05 0 -1.1005411006972541e-05 7.0807366278202038e-05 0 -5.2627793490181419e-06 2.3366511594523926e-06 0 -4.5478677417632045e-06 3.3555927791838844e-06 0 -5.272725139175502e-06 4.8687482688823888e-06 0 -2.3577641039308632e-05 -2.9299332178324911e-05 0 -2.039499237932757e-05 -2.6403015995785633e-05 0 -2.2740067137324992e-05 -2.4443165381584434e-05 0 -3.0406483543730497e-09 -3.7737269660647664e-10 0 -2.3299283169938201e-09 -5.687325659326567e-10 0 -2.2978176158984575e-06 -8.7902433340434138e-07 0 -2.175352507995177e-09 2.9356637821189918e-10 0 -2.595012164693117e-09 1.0397315179611725e-10 0 -2.1123178350860862e-06 3.646214436110053e-07 0 -1.9898758083243696e-05 -7.0262547470067604e-06 0 -2.5263491736684932e-05 -9.002919553975521e-06 0 -2.0518621888802179e-05 -6.462377019202545e-06 0 -3.7547188122250977e-05 1.0990478435136338e-05 0 -2.8846052610553105e-05 7.9649508093143337e-06 0 -3.0027618862455875e-05 7.1773234310000397e-06 0 -2.7942053817358059e-05 -2.1815172181567934e-05 0 -3.1143040671857846e-05 -1.9433893822484348e-05 0 -3.4025674277639847e-05 -2.5434090335784271e-05 0 -1.3497647162187829e-05 -4.5439952006031065e-05 0 -1.9537905473317452e-05 -4.0898652897350862e-05 0 -2.0756675935145799e-05 -5.284646871724062e-05 0 -1.5982557446425758e-05 -3.3817974715666568e-06 0 -1.603130692081382e-05 -5.8990740179659251e-06 0 -1.9235439629284848e-05 -7.9009928174205137e-06 0 -7.9616863316370061e-06 1.5362603534749592e-06 0 -7.484146852539334e-06 3.7319362784599007e-06 0 -6.1592369300023465e-06 2.4899645936162127e-06 0 -9.549209300919474e-06 1.730551957540912e-06 0 -7.484146852539334e-06 3.7319362784599007e-06 0 -7.9616863316370061e-06 1.5362603534749592e-06 0 -5.7099988650395183e-06 9.3380355646233756e-06 0 -6.6157490606074807e-06 1.1326948461741113e-05 0 -5.7691053226518156e-06 7.5059128157558355e-06 0 -7.4210867120891003e-06 7.3023947936931523e-06 0 -5.7691053226518156e-06 7.5059128157558346e-06 0 -6.6157490606074807e-06 1.1326948461741113e-05 0 -2.7289579175603309e-05 -3.76869605589917e-05 0 -2.9252698913083943e-05 -4.0175335191518978e-05 0 -2.7189806938722778e-05 -4.0829808655684269e-05 0 -3.4353415861920876e-05 -2.2397773817153549e-05 0 -3.1738954758817715e-05 -2.0457123055982244e-05 0 -3.0508864260993101e-05 -1.7925773994439773e-05 0 -1.7639996338735048e-05 -9.4776238014618464e-06 0 -1.8290245574356212e-05 -1.3552829844510076e-05 0 -2.1525792292265213e-05 -1.2277830370391375e-05 0 -1.8982183387855295e-05 -1.8187968857572973e-05 0 -2.1525792292265213e-05 -1.2277830370391375e-05 0 -1.8290245574356212e-05 -1.3552829844510076e-05 0 -1.4822208132218725e-05 -5.5066870909017154e-06 0 -1.9898758083243696e-05 -7.0262547470067604e-06 0 -1.681168032522534e-05 -5.2625158282285984e-06 0 -2.8846052610553105e-05 7.9649508093143337e-06 0 -2.0979302627645654e-05 5.9167579588477555e-06 0 -2.4087667984581543e-05 5.408511198603495e-06 0 -3.0626829643375797e-05 -4.4527638902351057e-05 0 -2.8338404024412971e-05 -4.5297022065217326e-05 0 -2.9968841884969776e-05 -4.2608588569056701e-05 0 -1.7713804215392351e-05 1.620506362268563e-05 0 -1.5894039911979335e-05 2.2081587463610595e-05 0 -2.4429397862945991e-05 2.476547515786275e-05 0 -3.6929336143886662e-06 1.7419563903873204e-06 0 -3.9051373194664293e-06 2.5094792539053794e-06 0 -3.2546732477504835e-06 1.4865746847607478e-06 0 -5.2498749617512687e-06 -6.0298235163409471e-07 0 -8.0105918888199789e-06 -5.2927616951131346e-07 0 -9.3506658921047522e-06 3.1910165743770514e-08 0 -4.1370472722746351e-06 -2.2626655662967249e-07 0 -7.2083432822932481e-06 -1.0241917631662647e-06 0 -6.5269255665909409e-06 -5.0033167873069248e-07 0 -4.719871769300921e-06 7.5618482799674642e-07 0 -4.8350537137733205e-06 5.9974315919367442e-07 0 -6.0071795570415115e-06 2.7216489427429943e-07 0 -1.5982557446425758e-05 -3.3817974715666568e-06 0 -1.7287093576061083e-05 -2.7494461244602259e-06 0 -1.4501194242339212e-05 6.7374685223809707e-07 0 -2.3418361236156461e-05 -3.3816050482580555e-05 0 -2.49501944232563e-05 -3.3256080016040561e-05 0 -2.5455914331996617e-05 -3.7367111377531916e-05 0 -7.3254422671571317e-06 -2.5797753168811477e-07 0 -6.0071795570415115e-06 2.7216489427429943e-07 0 -4.8350537137733205e-06 5.9974315919367442e-07 0 -0.00013081233360327454 0.00018851075720610784 0 -0.00010271251876680476 0.00017328393812452483 0 -0.00011027369454979189 0.00019956913520156481 0 -1.537020214606024e-05 -8.3289313580229581e-05 0 -2.5779699837097414e-05 -7.8949073563250888e-05 0 -2.508409915156859e-05 -9.0927970757169018e-05 0 -1.4225833602773864e-05 -7.0336939466543092e-05 0 -2.2712892359854096e-05 -6.6533290884918659e-05 0 -2.5779699837097414e-05 -7.8949073563250888e-05 0 -2.3071488834197825e-05 -9.7577524252590427e-06 0 -2.0625121377136393e-05 -5.0906152458874577e-06 0 -2.2690754157404587e-05 -8.019271613722596e-06 0 -3.4353415861920876e-05 -2.2397773817153549e-05 0 -3.4489464056694359e-05 -2.4324185949137621e-05 0 -3.1738954758817721e-05 -2.0457123055982244e-05 0 -8.775910513857944e-06 -7.9647730891584069e-07 0 -1.1662049690458418e-05 -3.1348136105292457e-06 0 -9.9950392992918329e-06 -1.2136938590916451e-06 0 -1.8630300820308296e-05 -2.6171252146006261e-06 0 -1.4501194242339212e-05 6.7374685223809707e-07 0 -1.7287093576061083e-05 -2.7494461244602259e-06 0 5.0910630178206913e-06 0.00028763849325556589 0 -1.0719512681518976e-05 0.00030230707614966229 0 -1.989286883752526e-05 0.00029073933089016508 0 -8.0630195850565954e-05 -0.00013855393207726181 0 -7.3294452926660227e-05 -0.00014327426209327103 0 -6.8316674988577023e-05 -0.00013719865794385331 0 -2.3084997343936687e-05 -0.00013463775601503801 0 -3.3089271094201166e-05 -0.00013655975901616821 0 -2.960618316575185e-05 -0.00014155544741431534 0 -0.00013441497255550923 0.00029593282951707617 0 -0.00010626303433155345 0.00029288008864149679 0 -0.0001176368606154122 0.00030675351849719353 0 -1.0260496373674424e-05 -2.2180261071233952e-07 0 -8.1702479168967418e-06 2.9818150689398843e-07 0 -9.9950392992918329e-06 -1.2136938590916451e-06 0 -8.775910513857944e-06 -7.9647730891584069e-07 0 -9.9950392992918329e-06 -1.2136938590916451e-06 0 -8.1702479168967418e-06 2.9818150689398843e-07 0 -1.4333202063089205e-05 -6.6128539955676052e-06 0 -1.1662049690458416e-05 -3.1348136105292453e-06 0 -1.2412527471961387e-05 -4.1843050559440378e-06 0 -4.3782573132302849e-05 1.831593269147459e-05 0 -4.5428862162439517e-05 1.5810779629959948e-05 0 -3.367479043310525e-05 1.0888931357567537e-05 0 -3.6681999581290959e-05 1.0244730100399204e-05 0 -3.367479043310525e-05 1.0888931357567537e-05 0 -4.5428862162439517e-05 1.5810779629959948e-05 0 -1.5326961891175765e-05 9.6201072696473877e-06 0 -1.9403965092207438e-05 8.1303350503641028e-06 0 -1.3654447534320356e-05 5.3554515460194538e-06 0 -1.6648561372076483e-05 -6.9451159992198549e-06 0 -1.2825740452155875e-05 -3.7958372888740168e-06 0 -1.4271112460646006e-05 -4.1211138173672293e-06 0 -1.7639996338735048e-05 -9.4776238014618464e-06 0 -1.6692272904516258e-05 -1.0617174913262283e-05 0 -1.8290245574356212e-05 -1.3552829844510076e-05 0 -9.4742571777184161e-06 -1.4511018936067032e-06 0 -7.4365076202385278e-06 -4.5082055234732374e-07 0 -6.5269255665909409e-06 -5.0033167873069248e-07 0 -4.475209704920533e-06 1.2530655677589198e-07 0 -6.5269255665909409e-06 -5.0033167873069248e-07 0 -7.4365076202385287e-06 -4.508205523473238e-07 0 -5.1133106399504726e-06 -9.6810969513141865e-07 0 -8.242150251585518e-06 -4.2014628209440719e-07 0 -8.0105918888199789e-06 -5.2927616951131336e-07 0 -1.2050917450486421e-05 4.4734152161209078e-07 0 -8.0105918888199789e-06 -5.2927616951131357e-07 0 -8.242150251585518e-06 -4.2014628209440719e-07 0 -5.6131643543957302e-05 -6.375076324529454e-05 0 -6.2225201986285372e-05 -7.6146826959456491e-05 0 -5.2553372541666878e-05 -7.0742238779759116e-05 0 -5.3881967536120058e-05 -8.1792178160339501e-05 0 -5.2553372541666878e-05 -7.0742238779759116e-05 0 -6.2225201986285372e-05 -7.6146826959456491e-05 0 -1.9842120264581536e-06 -8.4579652044515435e-07 0 -1.368855118514056e-06 -5.3402915922221601e-07 0 -3.220259262802668e-06 -6.6506442589179696e-07 0 -2.1462461189291787e-06 -3.6507275320253797e-07 0 -3.220259262802668e-06 -6.6506442589179696e-07 0 -1.368855118514056e-06 -5.3402915922221601e-07 0 -2.7834831515648809e-06 7.6993693685172739e-07 0 -1.5904639367618281e-06 5.4923389450860146e-07 0 -3.4899761346084785e-06 6.66235037617074e-07 0 -2.0283134365455893e-06 5.2444216070332063e-07 0 -3.4899761346084785e-06 6.66235037617074e-07 0 -1.5904639367618281e-06 5.4923389450860146e-07 0 -5.9422046620435595e-05 0.00023045684123515673 0 -4.3055722864803917e-05 0.00021478504035121973 0 -4.08265074380682e-05 0.0002411927969174862 0 -4.8114961178009303e-05 -0.00010864900945184783 0 -5.4053138569683525e-05 -0.00010192605518420557 0 -5.6651698917433663e-05 -0.00011412755882498958 0 -8.8251637028099927e-06 -8.4465314653814831e-07 0 -6.8024293563225947e-06 -1.4219521898867682e-07 0 -7.4365076202385287e-06 -4.508205523473238e-07 0 -8.3386518012778889e-06 5.87300243365379e-07 0 -8.242150251585518e-06 -4.2014628209440719e-07 0 -6.5897112854792156e-06 -2.6675823426693046e-07 0 -1.6648561372076483e-05 -6.9451159992198549e-06 0 -1.6661132248524996e-05 -8.8717895211462961e-06 0 -1.3982905789035947e-05 -5.5353568834740597e-06 0 -9.4742571777184161e-06 -1.4511018936067032e-06 0 -1.0542814936798177e-05 -1.574648389106054e-06 0 -7.4365076202385287e-06 -4.508205523473238e-07 0 -1.2050917450486421e-05 4.4734152161209078e-07 0 -8.242150251585518e-06 -4.2014628209440719e-07 0 -1.2074868210154405e-05 7.5288593459285248e-07 0 -1.8982183387855295e-05 -1.8187968857572973e-05 0 -2.4202032692801933e-05 -1.3569302574505962e-05 0 -2.1525792292265213e-05 -1.2277830370391375e-05 0 -8.775910513857944e-06 -7.9647730891584069e-07 0 -1.04363260276833e-05 -2.3056776052786495e-06 0 -1.1662049690458418e-05 -3.1348136105292457e-06 0 -3.4316792639962149e-09 -8.8169639534168394e-10 0 -3.0406483543730497e-09 -3.7737269660647664e-10 0 -2.5171914696199473e-06 -6.9634054438298448e-07 0 -2.595012164693117e-09 1.0397315179611725e-10 0 -2.7294266822692292e-09 3.6711757356141326e-10 0 -2.1120057090445261e-06 1.5237425795485192e-07 0 -9.9185148968627029e-06 1.6708749405477357e-05 0 -1.0543536306108275e-05 1.1170165550375685e-05 0 -6.6157490606074807e-06 1.1326948461741113e-05 0 -3.1179775300540877e-05 -3.977592355995983e-05 0 -3.1916708176182081e-05 -4.2049643425683051e-05 0 -2.9968841884969776e-05 -4.2608588569056701e-05 0 -1.6648561372076483e-05 -6.9451159992198549e-06 0 -1.7849356168723957e-05 -6.4309726981267676e-06 0 -2.1151975929763795e-05 -9.556682892240873e-06 0 -2.634554918396584e-05 -4.6226534278839521e-05 0 -2.0756675935145799e-05 -5.284646871724062e-05 0 -1.9537905473317452e-05 -4.0898652897350862e-05 0 -1.0260496373674424e-05 -2.2180261071233952e-07 0 -7.9616863316370061e-06 1.5362603534749592e-06 0 -8.1702479168967418e-06 2.9818150689398843e-07 0 -1.374475380739946e-05 -4.541173940947213e-06 0 -1.1740172781648787e-05 -2.3622235291109691e-06 0 -1.1662049690458418e-05 -3.1348136105292457e-06 0 -8.4271486742575898e-06 6.1619632730016173e-07 0 -1.2511336788470448e-05 2.6397580650247723e-06 0 -6.0124479359440184e-06 1.2284893763352268e-06 0 -6.2477198853374176e-06 -1.3362821855465703e-06 0 -4.3776892081901812e-06 -1.4735372473363933e-06 0 -9.0128840687938045e-06 -2.9564085085392586e-06 0 -1.9536532685547609e-05 -1.312908474900222e-05 0 -1.9056201242355823e-05 -1.5550107054171428e-05 0 -1.6692272904516258e-05 -1.0617174913262283e-05 0 -6.1592369300023465e-06 2.4899645936162127e-06 0 -6.3624406465249136e-06 1.271745855261145e-06 0 -7.9616863316370061e-06 1.5362603534749592e-06 0 -1.1353862742611606e-05 -3.028188000836272e-06 0 -1.2825740452155877e-05 -3.7958372888740172e-06 0 -1.3982905789035947e-05 -5.5353568834740597e-06 0 -2.9724985078151715e-05 -1.2193936472208673e-05 0 -3.0979816788039022e-05 -1.5392118506078585e-05 0 -2.5503807252061092e-05 -1.1295485105290066e-05 0 -0.00012700111095494457 0.0001604690681039356 0 -0.00010390401237913136 0.00014798796531976429 0 -0.00010271251876680476 0.00017328393812452483 0 -1.9536532685547609e-05 -1.312908474900222e-05 0 -2.0347633950795112e-05 -1.1089540486765122e-05 0 -2.406428589978674e-05 -1.5601756828290991e-05 0 -2.2690754157404587e-05 -8.019271613722596e-06 0 -2.6069277727203628e-05 -1.2394376696001678e-05 0 -2.458613352915813e-05 -1.1315166849496924e-05 0 -1.6648561372076483e-05 -6.9451159992198549e-06 0 -2.1151975929763795e-05 -9.556682892240873e-06 0 -2.0347633950795112e-05 -1.1089540486765122e-05 0 -8.1702479168967418e-06 2.9818150689398843e-07 0 -7.9616863316370061e-06 1.5362603534749592e-06 0 -6.3624406465249136e-06 1.271745855261145e-06 0 -2.8535623542394754e-05 -1.574407132614546e-05 0 -3.0508864260993101e-05 -1.7925773994439773e-05 0 -3.1738954758817721e-05 -2.0457123055982244e-05 0 -9.9185148968627029e-06 1.6708749405477357e-05 0 -5.0719032488166054e-06 1.8183225449040308e-05 0 -9.6866138217080973e-06 2.476676183687681e-05 0 -1.6648561372076483e-05 -6.9451159992198549e-06 0 -1.4271112460646006e-05 -4.1211138173672293e-06 0 -1.7849356168723957e-05 -6.4309726981267676e-06 0 -0.00013314070400475173 0.00021644653590974217 0 -0.00013081233360327454 0.00018851075720610784 0 -0.00011027369454979189 0.00019956913520156481 0 -1.537020214606024e-05 -8.3289313580229581e-05 0 -2.508409915156859e-05 -9.0927970757169018e-05 0 -1.6915484591666141e-05 -9.6466764704216746e-05 0 -1.3526647435778318e-05 -5.7728274923863331e-05 0 -2.2712892359854096e-05 -6.6533290884918659e-05 0 -1.4225833602773864e-05 -7.0336939466543092e-05 0 -3.0945397088094925e-05 2.0593312986677629e-05 0 -4.4233739832281722e-05 2.4566743909176347e-05 0 -3.585337325220111e-05 1.6591198774266707e-05 0 -1.6288116177925049e-06 1.7378045168254277e-06 0 -1.0299491953846577e-05 9.2679659783978718e-06 0 -1.0397424654785657e-05 -5.14876902597265e-06 0 -2.9724985078151715e-05 -1.2193936472208673e-05 0 -3.0389920866157088e-05 -1.1475021009781728e-05 0 -3.5069338053598988e-05 -1.4610416594950188e-05 0 -4.3782573132302849e-05 1.831593269147459e-05 0 -5.3719914701379539e-05 2.1851423923951069e-05 0 -4.5428862162439517e-05 1.5810779629959948e-05 0 -2.9724985078151715e-05 -1.2193936472208673e-05 0 -3.5069338053598988e-05 -1.4610416594950188e-05 0 -3.6548639334996778e-05 -1.7042698718421934e-05 0 -4.3782573132302849e-05 1.831593269147459e-05 0 -5.54770457722635e-05 2.716993563141876e-05 0 -5.3719914701379539e-05 2.1851423923951069e-05 0 -6.2477198853374176e-06 -1.3362821855465703e-06 0 -3.0503694759420175e-06 -4.5417065407744066e-07 0 -4.3776892081901812e-06 -1.4735372473363933e-06 0 -8.4271486742575898e-06 6.1619632730016173e-07 0 -6.0124479359440184e-06 1.2284893763352268e-06 0 -4.0719225532604015e-06 -8.019375676843881e-08 0 -1.374475380739946e-05 -4.541173940947213e-06 0 -1.542847687342952e-05 -7.5127454541501442e-06 0 -1.603130692081382e-05 -5.8990740179659251e-06 0 -1.7639996338735048e-05 -9.4776238014618464e-06 0 -1.603130692081382e-05 -5.8990740179659251e-06 0 -1.542847687342952e-05 -7.5127454541501442e-06 0 -4.0827198667740035e-05 -3.5440379945790405e-05 0 -4.0088886217980246e-05 -3.5198273696384767e-05 0 -3.7726258125154136e-05 -3.1511326265152926e-05 0 -1.6860147258351141e-05 -2.4822896827464123e-05 0 -1.8513440155540271e-05 -2.63858006790487e-05 0 -2.0465616538589379e-05 -3.0246035655734504e-05 0 -5.5360060249827885e-06 -7.5991764867512747e-06 0 -1.0397424654785657e-05 -5.1487690259726491e-06 0 -1.1484274118909216e-05 -1.2551623714198562e-05 0 -1.4514342882532246e-05 -2.1150568545793018e-05 0 -1.5925765209704484e-05 -2.1952047131741377e-05 0 -1.8513440155540271e-05 -2.63858006790487e-05 0 -3.9308994370942382e-05 -3.1576898380140974e-05 0 -3.7726258125154136e-05 -3.1511326265152926e-05 0 -3.6407664631796063e-05 -2.8058277937796128e-05 0 -1.6648561372076483e-05 -6.9451159992198549e-06 0 -1.3982905789035947e-05 -5.5353568834740597e-06 0 -1.2825740452155875e-05 -3.7958372888740168e-06 0 -1.4333202063089205e-05 -6.6128539955676052e-06 0 -1.6692272904516258e-05 -1.0617174913262283e-05 0 -1.542847687342952e-05 -7.5127454541501442e-06 0 -1.7639996338735048e-05 -9.4776238014618464e-06 0 -1.542847687342952e-05 -7.5127454541501442e-06 0 -1.6692272904516258e-05 -1.0617174913262283e-05 0 -1.0260496373674424e-05 -2.2180261071233952e-07 0 -1.3321316119875439e-05 -2.6856296415533654e-06 0 -1.237726146438134e-05 2.4597124374645377e-08 0 -0.00012700111095494457 0.0001604690681039356 0 -0.00012130039847419217 0.00013278579814498658 0 -0.00010390401237913136 0.00014798796531976429 0 -1.8630300820308296e-05 -2.6171252146006261e-06 0 -1.7287093576061083e-05 -2.7494461244602255e-06 0 -2.0027601118204292e-05 -5.8846450490744082e-06 0 -2.1965303192953624e-05 3.3173237153903438e-05 0 -1.5894039911979331e-05 2.2081587463610595e-05 0 -9.6866138217080973e-06 2.476676183687681e-05 0 -9.9185148968627029e-06 1.6708749405477357e-05 0 -9.6866138217080973e-06 2.476676183687681e-05 0 -1.5894039911979335e-05 2.2081587463610595e-05 0 -1.3497647162187829e-05 -4.5439952006031065e-05 0 -2.0756675935145799e-05 -5.284646871724062e-05 0 -1.3526647435778318e-05 -5.7728274923863331e-05 0 -6.934444043837031e-05 3.1708314862382676e-05 0 -5.3719914701379539e-05 2.1851423923951069e-05 0 -5.54770457722635e-05 2.716993563141876e-05 0 -4.3105783781803018e-05 -1.9572427363923369e-05 0 -3.6548639334996771e-05 -1.7042698718421931e-05 0 -3.5069338053598988e-05 -1.4610416594950188e-05 0 -1.5982557446425758e-05 -3.3817974715666568e-06 0 -2.0027601118204289e-05 -5.8846450490744074e-06 0 -1.7287093576061083e-05 -2.7494461244602259e-06 0 -7.6094427736272109e-05 0.00017229548542321016 0 -0.00010271251876680476 0.00017328393812452483 0 -8.6615525572763028e-05 0.00015254485154962146 0 -7.6094427736272109e-05 0.00017229548542321016 0 -9.1867848001574878e-05 0.00019130019715241051 0 -0.00010271251876680476 0.00017328393812452483 0 -3.5977618661663414e-05 -8.0254572081707467e-05 0 -3.1745534433516181e-05 -8.8237142032997697e-05 0 -2.5779699837097414e-05 -7.8949073563250888e-05 0 -3.5977618661663414e-05 -8.0254572081707467e-05 0 -2.5779699837097414e-05 -7.8949073563250874e-05 0 -2.9964057151963097e-05 -7.1342862797595829e-05 0 -1.6915484591666141e-05 -9.6466764704216746e-05 0 -2.5620754804114667e-05 -0.00010270628596709073 0 -1.8947058551975304e-05 -0.00010982115761477998 0 -0.00013413593301980187 0.00024387783183301963 0 -0.00013314070400475173 0.00021644653590974217 0 -0.00011414449941788566 0.00022433819576815622 0 -5.2933004113540417e-06 3.2422411910235862e-07 0 -4.375322822892452e-06 3.9427578749900312e-07 0 -6.8024293563225947e-06 -1.4219521898867693e-07 0 -4.7290618376572431e-06 -6.0700713963015803e-07 0 -6.5897112854792156e-06 -2.6675823426693046e-07 0 -4.2370262721822348e-06 -1.0182221825825349e-06 0 -3.5977618661663414e-05 -8.0254572081707467e-05 0 -4.2873382649582953e-05 -8.1255467817577625e-05 0 -3.8930830312048841e-05 -9.1547415892581207e-05 0 -3.5977618661663414e-05 -8.0254572081707467e-05 0 -3.6383336154083079e-05 -7.0081171719868965e-05 0 -4.2873382649582953e-05 -8.1255467817577625e-05 0 -4.7807142757416963e-05 -9.3762324606470651e-05 0 -3.8930830312048841e-05 -9.1547415892581207e-05 0 -4.2873382649582953e-05 -8.1255467817577625e-05 0 -4.4405784037021707e-05 -7.0106717529061364e-05 0 -4.2873382649582953e-05 -8.1255467817577625e-05 0 -3.6383336154083079e-05 -7.0081171719868965e-05 0 -7.6094427736272109e-05 0.00017229548542321016 0 -5.8369788610033934e-05 0.00017394808814802376 0 -7.5624130007394572e-05 0.000197563878911932 0 -5.4723491079299801e-05 0.00019720124396812924 0 -7.5624130007394572e-05 0.000197563878911932 0 -5.8369788610033934e-05 0.00017394808814802376 0 -2.595012164693117e-09 1.0397315179611725e-10 0 -2.1120057090445261e-06 1.5237425795485192e-07 0 -2.1123178350860862e-06 3.646214436110053e-07 0 -3.0406483543730497e-09 -3.7737269660647664e-10 0 -2.2978176158984575e-06 -8.7902433340434138e-07 0 -2.5171914696199473e-06 -6.9634054438298448e-07 0 -4.8706599067898652e-05 -3.5072079100905295e-05 0 -3.978495568635637e-05 -2.6241381002846882e-05 0 -4.5755479761462665e-05 -2.6720219606735552e-05 0 -7.5664672536932109e-05 6.6219405767320972e-05 0 -7.2150787868244582e-05 4.8407680786999575e-05 0 -6.0125959295872492e-05 4.683224451303478e-05 0 -2.0580216428650642e-05 -6.3940163566952901e-06 0 -2.5796445975183827e-05 -9.2238413162477182e-06 0 -2.4000391853842709e-05 -8.912855722022935e-06 0 -5.4155937419376074e-06 1.0893037102402531e-06 0 -6.6980004888117754e-06 4.3016637250218123e-07 0 -6.3624406465249136e-06 1.271745855261145e-06 0 -2.8373665637731506e-05 -4.2408112907313108e-05 0 -2.7189806938722778e-05 -4.0829808655684269e-05 0 -2.9252698913083943e-05 -4.0175335191518978e-05 0 -2.2456818226466555e-05 4.0905174385427109e-06 0 -2.6986383228964312e-05 5.9847044570050018e-06 0 -3.0027618862455875e-05 7.1773234310000397e-06 0 -3.6681999581290959e-05 1.0244730100399204e-05 0 -3.0027618862455875e-05 7.1773234310000397e-06 0 -2.6986383228964312e-05 5.9847044570050018e-06 0 -2.9695492676609294e-06 8.3426778807222146e-07 0 -2.8855767652460214e-06 5.9167335767903474e-08 0 -2.1139580613382899e-06 6.4808654273518913e-08 0 -9.050182842602439e-06 -1.3172645148629391e-05 0 -1.4608249503073787e-05 -1.8272487628535052e-05 0 -1.1857657876618472e-05 -1.7351713055866811e-05 0 -4.3105783781803018e-05 -1.9572427363923369e-05 0 -4.25713207552434e-05 -2.1802082319707592e-05 0 -3.6548639334996778e-05 -1.7042698718421934e-05 0 -6.934444043837031e-05 3.1708314862382676e-05 0 -5.54770457722635e-05 2.716993563141876e-05 0 -6.6977365535733578e-05 3.6788804480976031e-05 0 -2.576289988303218e-05 -1.4916027473235605e-05 0 -2.6866280548316241e-05 -1.3707713836287003e-05 0 -2.4202032692801933e-05 -1.3569302574505962e-05 0 -1.2050917450486421e-05 4.4734152161209078e-07 0 -1.2074868210154405e-05 7.5288593459285248e-07 0 -1.772684362131049e-05 2.3375350691363021e-06 0 -1.4960917037292056e-05 2.4689188263597274e-06 0 -1.772684362131049e-05 2.3375350691363021e-06 0 -1.2074868210154405e-05 7.5288593459285248e-07 0 -2.8891776880794824e-05 6.9570079317545831e-05 0 -2.5780675784413977e-05 4.8584054676655694e-05 0 -1.5703009769395225e-05 4.4156209306227741e-05 0 -2.8846052610553105e-05 7.9649508093143337e-06 0 -2.4087667984581543e-05 5.408511198603495e-06 0 -3.0027618862455875e-05 7.1773234310000397e-06 0 -1.9898758083243696e-05 -7.0262547470067604e-06 0 -2.0518621888802179e-05 -6.462377019202545e-06 0 -1.681168032522534e-05 -5.2625158282285984e-06 0 -2.9328150127022075e-05 -2.9902302043849803e-05 0 -2.8821014191696711e-05 -2.6470889865387637e-05 0 -3.1776133015319342e-05 -2.9828464085324762e-05 0 -3.0881886567450697e-05 -2.6077085465493611e-05 0 -3.1776133015319342e-05 -2.9828464085324762e-05 0 -2.8821014191696711e-05 -2.6470889865387637e-05 0 -1.0260496373674424e-05 -2.2180261071233952e-07 0 -9.549209300919474e-06 1.730551957540912e-06 0 -7.9616863316370061e-06 1.5362603534749592e-06 0 -1.5326961891175765e-05 9.6201072696473877e-06 0 -1.3654447534320358e-05 5.355451546019453e-06 0 -1.0447032850557381e-05 6.486151915575841e-06 0 -4.5714352441775867e-06 3.8396060867213747e-06 0 -4.6137711401130371e-06 2.7870328858040286e-06 0 -5.3258177549508272e-06 4.2001714545676138e-06 0 -2.1965303192953624e-05 3.3173237153903438e-05 0 -1.5703009769395225e-05 4.4156209306227741e-05 0 -2.5780675784413974e-05 4.8584054676655687e-05 0 -2.9724985078151715e-05 -1.2193936472208673e-05 0 -2.5503807252061092e-05 -1.1295485105290066e-05 0 -2.4000391853842709e-05 -8.912855722022935e-06 0 -1.1353862742611606e-05 -3.028188000836272e-06 0 -9.0240938294833984e-06 -1.2367990380622487e-06 0 -9.6918012040838798e-06 -1.5386458949049406e-06 0 1.3979029870679517e-05 9.7854938164450005e-05 0 1.5410334817575828e-05 0.00012500610136067754 0 -2.4048837462325971e-06 0.0001167433666767686 0 -7.5176943663607501e-05 -7.6986551338426287e-05 0 -6.2225201986285372e-05 -7.6146826959456491e-05 0 -6.4480636276634725e-05 -6.7014242703416195e-05 0 -6.934444043837031e-05 3.1708314862382676e-05 0 -5.7648406371716775e-05 2.2412468345434251e-05 0 -5.3719914701379539e-05 2.1851423923951069e-05 0 -3.6780883035528694e-05 -1.5063637192379424e-05 0 -4.3105783781803018e-05 -1.9572427363923369e-05 0 -3.5069338053598988e-05 -1.4610416594950188e-05 0 -1.4501194242339212e-05 6.7374685223809707e-07 0 -1.6314277864546252e-05 1.193240717312803e-06 0 -1.1914228880222812e-05 4.7989324310881807e-06 0 -1.2050917450486421e-05 4.4734152161209078e-07 0 -1.772684362131049e-05 2.3375350691363021e-06 0 -1.6485477986456715e-05 2.0141353469228115e-06 0 -2.2456818226466555e-05 4.0905174385427109e-06 0 -1.6485477986456715e-05 2.0141353469228115e-06 0 -1.772684362131049e-05 2.3375350691363021e-06 0 -5.7099988650395183e-06 9.3380355646233756e-06 0 -5.7717105619123204e-06 1.3027944706660436e-05 0 -6.6157490606074807e-06 1.1326948461741113e-05 0 -6.5402018639044567e-05 -8.9808971930876321e-05 0 -6.2225201986285372e-05 -7.6146826959456491e-05 0 -7.0168250629398376e-05 -8.3342475153565544e-05 0 -3.4222305771027156e-05 -2.564067848002897e-05 0 -3.2855491715933185e-05 -2.5788514481542954e-05 0 -3.1763906822791446e-05 -2.2083293669333136e-05 0 1.3155508015394493e-05 0.00020746871471768343 0 1.0779352035273163e-05 0.00023520702357331401 0 -5.7884068282197654e-06 0.0002217085510786373 0 -7.9554917476956148e-05 -0.00010268098279916558 0 -8.0368460822350819e-05 -0.00011521289408316622 0 -7.1439676575042009e-05 -0.00010712061216238463 0 -3.0945397088094925e-05 2.0593312986677629e-05 0 -2.1814773704889597e-05 1.3322747230330976e-05 0 -1.7713804215392351e-05 1.620506362268563e-05 0 -1.9536532685547609e-05 -1.312908474900222e-05 0 -2.305171873042386e-05 -1.8520779789664923e-05 0 -1.905620124235582e-05 -1.5550107054171428e-05 0 -2.5437752454220043e-05 -1.3584571236446509e-05 0 -2.406428589978674e-05 -1.5601756828290991e-05 0 -2.0347633950795112e-05 -1.1089540486765122e-05 0 -0.00013314070400475173 0.00021644653590974217 0 -0.00011027369454979189 0.00019956913520156481 0 -0.00011414449941788566 0.00022433819576815622 0 -1.6915484591666141e-05 -9.6466764704216746e-05 0 -2.508409915156859e-05 -9.0927970757169018e-05 0 -2.5620754804114667e-05 -0.00010270628596709073 0 -1.1578510478565557e-05 -2.5141058502718752e-06 0 -9.2467745011056435e-06 -1.1171887142639103e-06 0 -1.1705190584739909e-05 -2.18652173759901e-06 0 -9.9185148968627029e-06 1.6708749405477357e-05 0 -1.5894039911979335e-05 2.2081587463610595e-05 0 -1.7713804215392351e-05 1.620506362268563e-05 0 -2.9724985078151715e-05 -1.2193936472208673e-05 0 -2.5796445975183824e-05 -9.2238413162477182e-06 0 -3.0389920866157088e-05 -1.1475021009781728e-05 0 -3.0480571126791401e-05 -1.8042003226133029e-05 0 -3.4353415861920876e-05 -2.2397773817153549e-05 0 -3.0508864260993101e-05 -1.7925773994439773e-05 0 -1.318319241797857e-05 -2.7638637580855765e-06 0 -1.2695396977764871e-05 -2.6017190641739595e-06 0 -1.6455800322448834e-05 -4.2325689234519767e-06 0 -7.1634627109830779e-05 -6.4496482409963688e-05 0 -7.5176943663607501e-05 -7.6986551338426287e-05 0 -6.4480636276634725e-05 -6.7014242703416195e-05 0 -2.4380758043792366e-05 -8.1046491963058751e-06 0 -1.9660691089788279e-05 -5.7777221454720717e-06 0 -2.0518621888802179e-05 -6.462377019202545e-06 0 -1.6127699548001008e-05 -4.3142801487724118e-06 0 -2.0518621888802179e-05 -6.462377019202545e-06 0 -1.9660691089788279e-05 -5.7777221454720717e-06 0 -8.4479048302313919e-05 0.00013291087019843962 0 -6.6778139574739234e-05 0.0001369901052995206 0 -8.6615525572763028e-05 0.00015254485154962146 0 -1.9842120264581536e-06 -8.4579652044515435e-07 0 -4.2370262721822348e-06 -1.0182221825825349e-06 0 -2.2978176158984575e-06 -8.7902433340434138e-07 0 -5.1133106399504726e-06 -9.6810969513141865e-07 0 -2.2978176158984575e-06 -8.7902433340434138e-07 0 -4.2370262721822348e-06 -1.0182221825825349e-06 0 -4.475209704920533e-06 1.2530655677589198e-07 0 -4.375322822892452e-06 3.9427578749900312e-07 0 -2.1123178350860862e-06 3.646214436110053e-07 0 -2.0283134365455893e-06 5.2444216070332063e-07 0 -2.1123178350860862e-06 3.646214436110053e-07 0 -4.375322822892452e-06 3.9427578749900312e-07 0 -1.4333202063089205e-05 -6.6128539955676052e-06 0 -1.3982905789035946e-05 -5.5353568834740589e-06 0 -1.6661132248524996e-05 -8.8717895211462961e-06 0 -1.8871336019759905e-05 -2.4643493873391464e-06 0 -2.0625121377136393e-05 -5.0906152458874577e-06 0 -2.1152664653534305e-05 -8.2030499760553588e-06 0 -2.3071488834197825e-05 -9.7577524252590427e-06 0 -2.1152664653534305e-05 -8.2030499760553588e-06 0 -2.0625121377136393e-05 -5.0906152458874577e-06 0 -3.4353415861920876e-05 -2.2397773817153549e-05 0 -3.7240914456559164e-05 -2.7197256014759428e-05 0 -3.4489464056694359e-05 -2.4324185949137621e-05 0 -2.3071488834197825e-05 -9.7577524252590427e-06 0 -2.2690754157404587e-05 -8.019271613722596e-06 0 -2.458613352915813e-05 -1.1315166849496924e-05 0 -1.8513440155540271e-05 -2.63858006790487e-05 0 -1.5925765209704484e-05 -2.1952047131741377e-05 0 -2.039499237932757e-05 -2.6403015995785633e-05 0 -3.7726258125154136e-05 -3.1511326265152926e-05 0 -3.5259459614839774e-05 -2.817571208454153e-05 0 -3.6407664631796063e-05 -2.8058277937796128e-05 0 -4.3105783781803018e-05 -1.9572427363923369e-05 0 -4.95770174700475e-05 -2.5609113838468527e-05 0 -4.25713207552434e-05 -2.1802082319707592e-05 0 -8.1624243075545765e-05 4.4908470215914529e-05 0 -6.934444043837031e-05 3.1708314862382676e-05 0 -6.6977365535733578e-05 3.6788804480976031e-05 0 -1.0397424654785657e-05 -5.14876902597265e-06 0 -1.5707877567326195e-05 -9.9526494722805374e-06 0 -1.1484274118909216e-05 -1.2551623714198562e-05 0 -1.8513440155540271e-05 -2.63858006790487e-05 0 -2.2203281887086329e-05 -3.0634486875631776e-05 0 -2.0465616538589379e-05 -3.0246035655734504e-05 0 -2.5437752454220043e-05 -1.3584571236446509e-05 0 -2.5503807252061092e-05 -1.1295485105290066e-05 0 -3.0979816788039022e-05 -1.5392118506078585e-05 0 -1.8936016297502336e-06 7.2033028911528487e-07 0 -7.7144165422318656e-07 3.3377570946068196e-07 0 -8.9390183807264655e-07 4.0418263626122882e-07 0 -9.8054039787942594e-06 3.825739199652229e-06 0 -1.3654447534320356e-05 5.3554515460194538e-06 0 -1.1587067923944087e-05 2.2666090310216335e-06 0 -5.2627793490181419e-06 2.3366511594523926e-06 0 -7.6698940136909403e-06 2.2019643604989428e-06 0 -6.0800703251035543e-06 1.0630569075702024e-06 0 -1.2463132124891547e-05 8.6452633580172171e-06 0 -1.5655836455153224e-05 3.2402957637354047e-06 0 -1.5142348212974554e-05 -2.4782826090007966e-07 0 -1.243532393548942e-05 -3.5132002067398043e-06 0 -9.4767612137575738e-06 -2.0909758660199962e-06 0 -9.0128840687938045e-06 -2.9564085085392586e-06 0 -6.2477198853374176e-06 -1.3362821855465703e-06 0 -9.0128840687938045e-06 -2.9564085085392586e-06 0 -9.4767612137575738e-06 -2.0909758660199962e-06 0 -8.4271486742575898e-06 6.1619632730016173e-07 0 -1.2838575495683113e-05 1.2455853058161333e-06 0 -1.2511336788470448e-05 2.6397580650247723e-06 0 -1.7340122942496956e-05 3.0339164548395211e-06 0 -1.2511336788470448e-05 2.6397580650247723e-06 0 -1.2838575495683113e-05 1.2455853058161333e-06 0 -6.168340607521146e-05 -4.2250190605053134e-05 0 -6.7170452773965763e-05 -5.2871583642115414e-05 0 -5.7200122329020246e-05 -4.5947825647900281e-05 0 -2.8891776880794824e-05 6.9570079317545831e-05 0 -3.7007936849843545e-05 5.1909712104431127e-05 0 -2.5780675784413974e-05 4.8584054676655687e-05 0 -1.3526647435778318e-05 -5.7728274923863331e-05 0 -2.0756675935145799e-05 -5.284646871724062e-05 0 -2.2712892359854096e-05 -6.6533290884918659e-05 0 -2.7289579175603309e-05 -3.76869605589917e-05 0 -2.9740723353959464e-05 -3.7108366632128483e-05 0 -2.9252698913083943e-05 -4.0175335191518978e-05 0 -8.8251637028099927e-06 -8.4465314653814831e-07 0 -1.1705190584739909e-05 -2.18652173759901e-06 0 -9.2467745011056435e-06 -1.1171887142639103e-06 0 -1.5982557446425758e-05 -3.3817974715666568e-06 0 -1.237726146438134e-05 2.4597124374645377e-08 0 -1.3321316119875439e-05 -2.6856296415533654e-06 0 -2.0580216428650642e-05 -6.3940163566952901e-06 0 -1.6455800322448834e-05 -4.2325689234519767e-06 0 -1.9660691089788279e-05 -5.7777221454720717e-06 0 -2.0927296133901131e-05 0.00012602347492173866 0 -9.8957749224501731e-07 0.00013460908798988721 0 -1.1708639020464614e-05 0.00015081858100502165 0 -1.3502551995649325e-09 2.287814657117473e-10 0 -1.4468163898890487e-06 5.9720406972506149e-07 0 -8.9390183807264655e-07 4.0418263626122882e-07 0 -3.0881886567450697e-05 -2.6077085465493611e-05 0 -2.8821014191696711e-05 -2.6470889865387637e-05 0 -2.7894598227403599e-05 -2.2201131105310425e-05 0 -1.0397424654785657e-05 -5.14876902597265e-06 0 -1.0299491953846577e-05 9.2679659783978718e-06 0 -1.5142348212974554e-05 -2.4782826090007966e-07 0 -0.00011381436682902465 0.00010671142672758483 0 -0.00010404975680773822 8.2599264767386536e-05 0 -9.2577614193202067e-05 9.1617763965602423e-05 0 -1.431902723765938e-06 5.1424636202534336e-07 0 -1.6753626239449893e-06 4.3882067535720308e-07 0 -9.2115756936048388e-07 1.8860268164179011e-07 0 -4.475209704920533e-06 1.2530655677589198e-07 0 -2.1123178350860862e-06 3.646214436110053e-07 0 -2.1120057090445261e-06 1.5237425795485192e-07 0 -5.1133106399504726e-06 -9.6810969513141865e-07 0 -2.5171914696199473e-06 -6.9634054438298448e-07 0 -2.2978176158984575e-06 -8.7902433340434138e-07 0 -6.1592369300023465e-06 2.4899645936162127e-06 0 -5.112109270224981e-06 1.8433812552847344e-06 0 -6.3624406465249136e-06 1.271745855261145e-06 0 -3.7806338396898499e-05 -2.0847672565895648e-05 0 -3.6548639334996778e-05 -1.7042698718421934e-05 0 -4.25713207552434e-05 -2.1802082319707592e-05 0 -5.6100993399660466e-05 3.5455212339514466e-05 0 -6.6977365535733578e-05 3.6788804480976031e-05 0 -5.54770457722635e-05 2.716993563141876e-05 0 -2.4059825910381208e-05 0.00021453962798876036 0 -1.3004415294406082e-05 0.00018881854318053318 0 -3.1491692561259103e-06 0.00020296439956287815 0 -6.2450365324749835e-05 -0.00010253874011670048 0 -6.5402018639044567e-05 -8.9808971930876308e-05 0 -7.1376678705671121e-05 -9.8244164907147647e-05 0 -9.050182842602439e-06 -1.3172645148629391e-05 0 -1.1484274118909216e-05 -1.255162371419856e-05 0 -1.4608249503073787e-05 -1.8272487628535052e-05 0 -1.5326961891175765e-05 9.6201072696473877e-06 0 -1.7713804215392348e-05 1.620506362268563e-05 0 -2.1814773704889597e-05 1.3322747230330976e-05 0 -1.6184494384076584e-05 -1.5506601708682195e-05 0 -1.4608249503073787e-05 -1.8272487628535052e-05 0 -1.1484274118909216e-05 -1.2551623714198562e-05 0 -5.4155937419376074e-06 1.0893037102402531e-06 0 -4.8880652878057907e-06 9.1553823501646511e-07 0 -6.6980004888117754e-06 4.3016637250218123e-07 0 -1.540493699391019e-06 1.7482973377926724e-07 0 -1.1645353711645322e-06 -2.3380643963301837e-07 0 -7.4780054933192483e-07 -2.0362618805751012e-08 0 -1.1578510478565557e-05 -2.5141058502718752e-06 0 -9.6918012040838798e-06 -1.5386458949049408e-06 0 -9.2467745011056435e-06 -1.1171887142639103e-06 0 -1.3244139480822846e-05 6.4100833193903678e-06 0 -1.5655836455153224e-05 3.2402957637354047e-06 0 -1.0657630472949066e-05 1.1428810066165252e-05 0 -1.2463132124891547e-05 8.6452633580172171e-06 0 -1.0657630472949066e-05 1.1428810066165252e-05 0 -1.5655836455153224e-05 3.2402957637354047e-06 0 -5.3881967536120058e-05 -8.1792178160339501e-05 0 -6.5402018639044567e-05 -8.9808971930876321e-05 0 -5.6723868965939676e-05 -9.3595238510121742e-05 0 -6.2450365324749835e-05 -0.00010253874011670048 0 -5.6723868965939676e-05 -9.3595238510121742e-05 0 -6.5402018639044567e-05 -8.9808971930876321e-05 0 -3.1715363200690576e-05 0.00017100443088901093 0 -1.3004415294406082e-05 0.00018881854318053318 0 -3.3487836146470746e-05 0.00019752192489931361 0 -2.4059825910381208e-05 0.00021453962798876036 0 -3.3487836146470746e-05 0.00019752192489931361 0 -1.3004415294406082e-05 0.00018881854318053318 0 -3.1715363200690576e-05 0.00017100443088901093 0 -3.237514334677301e-05 0.00014509981470165644 0 -1.1708639020464614e-05 0.00015081858100502165 0 -2.0927296133901131e-05 0.00012602347492173866 0 -1.1708639020464614e-05 0.00015081858100502165 0 -3.237514334677301e-05 0.00014509981470165644 0 -1.12784453716441e-09 1.7514047633066115e-10 0 -1.1927436667502038e-09 1.9845589929268297e-10 0 -7.7144165422318656e-07 3.3377570946068196e-07 0 -1.1857657876618472e-05 -1.7351713055866811e-05 0 -1.4608249503073787e-05 -1.8272487628535055e-05 0 -1.5925765209704484e-05 -2.1952047131741377e-05 0 -1.8621369602692077e-05 -2.2909680488172085e-05 0 -1.5925765209704484e-05 -2.1952047131741377e-05 0 -1.4608249503073787e-05 -1.8272487628535052e-05 0 -5.6131643543957302e-05 -6.375076324529454e-05 0 -5.8951188119882422e-05 -5.5924091701574748e-05 0 -6.4480636276634725e-05 -6.7014242703416195e-05 0 -6.7170452773965763e-05 -5.2871583642115414e-05 0 -5.8951188119882422e-05 -5.5924091701574748e-05 0 -5.7200122329020246e-05 -4.5947825647900281e-05 0 -0.00011381436682902465 0.00010671142672758483 0 -9.2577614193202067e-05 9.1617763965602423e-05 0 -9.4225285078911798e-05 0.00011503205333496217 0 -6.2757711036479777e-06 5.6827870690155376e-06 0 -6.4548991587766931e-06 7.7043579635316762e-06 0 -5.2909259003203809e-06 6.2172533715499795e-06 0 -5.7099988650395183e-06 9.3380355646233756e-06 0 -5.2909259003203809e-06 6.2172533715499795e-06 0 -6.4548991587766931e-06 7.7043579635316762e-06 0 -3.5087831094813987e-06 1.0988714095717783e-06 0 -4.2240872007127673e-06 1.3229531337288028e-06 0 -3.2346166173953327e-06 1.236326267532259e-06 0 -1.8936016297502336e-06 7.2033028911528487e-07 0 -8.9390183807264634e-07 4.0418263626122882e-07 0 -1.4468163898890487e-06 5.9720406972506149e-07 0 -2.2456818226466555e-05 4.0905174385427109e-06 0 -3.0027618862455875e-05 7.1773234310000397e-06 0 -2.4087667984581543e-05 5.408511198603495e-06 0 -1.6127699548001008e-05 -4.3142801487724118e-06 0 -1.681168032522534e-05 -5.2625158282285984e-06 0 -2.0518621888802179e-05 -6.462377019202545e-06 0 -1.6127699548001008e-05 -4.3142801487724118e-06 0 -1.9660691089788279e-05 -5.7777221454720717e-06 0 -1.6455800322448834e-05 -4.2325689234519767e-06 0 1.4674766374635633e-05 0.00018004325461272219 0 -3.1491692561259103e-06 0.00020296439956287815 0 -1.3004415294406082e-05 0.00018881854318053318 0 -7.7850113582479259e-05 -8.9769657935273077e-05 0 -7.1376678705671121e-05 -9.824416490714766e-05 0 -6.5402018639044567e-05 -8.9808971930876321e-05 0 -1.1320648850057142e-09 2.0830538837876935e-11 0 -7.4780054933192483e-07 -2.0362618805751039e-08 0 -1.1645353711645322e-06 -2.3380643963301837e-07 0 -5.2627793490181419e-06 2.3366511594523926e-06 0 -7.1911621040256029e-06 4.1962228159675962e-06 0 -7.6698940136909403e-06 2.2019643604989428e-06 0 -4.1115110147268227e-05 -5.448370040903026e-05 0 -4.4318408878128205e-05 -4.6139550478895025e-05 0 -4.8388575695515522e-05 -5.4546363177328735e-05 0 -1.7043080432319977e-05 4.6310121231882296e-06 0 -1.3654447534320356e-05 5.355451546019453e-06 0 -1.9403965092207438e-05 8.1303350503641028e-06 0 -1.9536532685547609e-05 -1.312908474900222e-05 0 -2.406428589978674e-05 -1.5601756828290991e-05 0 -2.305171873042386e-05 -1.8520779789664923e-05 0 -5.272725139175502e-06 4.8687482688823888e-06 0 -5.2909259003203809e-06 6.2172533715499795e-06 0 -5.7691053226518156e-06 7.5059128157558355e-06 0 -5.4362217099128299e-05 0.00010802364242381979 0 -7.3002394663543521e-05 0.00011225967347627228 0 -6.2982486264835975e-05 9.2682313432815189e-05 0 -3.7806338396898499e-05 -2.0847672565895648e-05 0 -4.5755479761462665e-05 -2.6720219606735552e-05 0 -3.978495568635637e-05 -2.6241381002846882e-05 0 -5.6100993399660466e-05 3.5455212339514466e-05 0 -6.0125959295872492e-05 4.683224451303478e-05 0 -7.2150787868244582e-05 4.8407680786999575e-05 0 -3.1179775300540877e-05 -3.977592355995983e-05 0 -2.9968841884969776e-05 -4.2608588569056701e-05 0 -2.9252698913083943e-05 -4.0175335191518978e-05 0 -2.8373665637731506e-05 -4.2408112907313108e-05 0 -2.9252698913083943e-05 -4.0175335191518978e-05 0 -2.9968841884969776e-05 -4.2608588569056701e-05 0 -2.0580216428650642e-05 -6.3940163566952901e-06 0 -1.6710775123491665e-05 -4.5706434148431519e-06 0 -1.6455800322448834e-05 -4.2325689234519767e-06 0 -1.318319241797857e-05 -2.7638637580855765e-06 0 -1.6455800322448834e-05 -4.2325689234519767e-06 0 -1.6710775123491665e-05 -4.5706434148431519e-06 0 -1.1353862742611606e-05 -3.028188000836272e-06 0 -1.3982905789035947e-05 -5.5353568834740597e-06 0 -1.2412527471961387e-05 -4.1843050559440378e-06 0 -2.4380758043792366e-05 -8.1046491963058751e-06 0 -3.0389920866157088e-05 -1.1475021009781728e-05 0 -2.5796445975183824e-05 -9.2238413162477182e-06 0 -2.6308605403359947e-05 6.9853438844356335e-06 0 -2.6986383228964312e-05 5.9847044570050018e-06 0 -2.050803748192018e-05 4.2425854842693278e-06 0 -3.365938942134759e-05 -4.3597603525281173e-05 0 -3.0626829643375797e-05 -4.4527638902351057e-05 0 -3.1916708176182081e-05 -4.2049643425683051e-05 0 -5.4362217099128299e-05 0.00010802364242381979 0 -6.6778139574739234e-05 0.0001369901052995206 0 -7.3002394663543521e-05 0.00011225967347627228 0 -1.1927436667502038e-09 1.9845589929268297e-10 0 -1.3502551995649325e-09 2.287814657117473e-10 0 -8.9390183807264655e-07 4.0418263626122882e-07 0 1.5456404619847649e-05 0.00015245300885172785 0 -1.1708639020464614e-05 0.00015081858100502165 0 -9.8957749224501731e-07 0.00013460908798988721 0 -6.5925138120884401e-06 1.4607114240387099e-05 0 -5.0719032488166054e-06 1.8183225449040308e-05 0 -5.7717105619123204e-06 1.3027944706660436e-05 0 -5.6100993399660466e-05 3.5455212339514466e-05 0 -4.5695058131296179e-05 3.3662284642562122e-05 0 -6.0125959295872492e-05 4.683224451303478e-05 0 -6.5925138120884401e-06 1.4607114240387099e-05 0 -6.7904767777686913e-06 1.0758742405638245e-05 0 -9.0519851401373182e-06 1.0619743985143618e-05 0 -6.5925138120884401e-06 1.4607114240387099e-05 0 -5.7717105619123204e-06 1.3027944706660435e-05 0 -6.7904767777686913e-06 1.0758742405638245e-05 0 -1.5319950733185308e-05 -4.1705343458218063e-06 0 -1.9247767857213509e-05 -6.3147806303904503e-06 0 -1.7849356168723957e-05 -6.4309726981267676e-06 0 -7.3254422671571317e-06 -2.5797753168811477e-07 0 -9.2467745011056435e-06 -1.1171887142639103e-06 0 -9.6918012040838798e-06 -1.5386458949049406e-06 0 -7.6266475023925486e-05 9.1133659838539489e-05 0 -9.4225285078911798e-05 0.00011503205333496217 0 -9.2577614193202067e-05 9.1617763965602423e-05 0 -1.7639996338735048e-05 -9.4776238014618464e-06 0 -1.9235439629284848e-05 -7.9009928174205137e-06 0 -1.603130692081382e-05 -5.8990740179659251e-06 0 -1.3244139480822846e-05 6.4100833193903678e-06 0 -1.0657630472949066e-05 1.1428810066165252e-05 0 -9.0519851401373182e-06 1.0619743985143618e-05 0 -3.0130911820329126e-05 -2.1974250343720533e-05 0 -2.7617919519524599e-05 -1.8230476827373955e-05 0 -2.8955293337184593e-05 -1.7723136257878898e-05 0 -3.7806338396898499e-05 -2.0847672565895648e-05 0 -4.25713207552434e-05 -2.1802082319707592e-05 0 -4.5755479761462665e-05 -2.6720219606735552e-05 0 -5.6100993399660466e-05 3.5455212339514466e-05 0 -7.2150787868244582e-05 4.8407680786999575e-05 0 -6.6977365535733578e-05 3.6788804480976031e-05 0 -9.5046592857738119e-05 0.00021392049049667863 0 -0.00011414449941788566 0.00022433819576815622 0 -0.00011027369454979189 0.00019956913520156481 0 -3.2579686658986447e-05 -9.9162179598151289e-05 0 -2.5620754804114667e-05 -0.00010270628596709073 0 -2.508409915156859e-05 -9.0927970757169018e-05 0 -3.4222305771027156e-05 -2.564067848002897e-05 0 -3.1763906822791446e-05 -2.2083293669333136e-05 0 -3.4489464056694359e-05 -2.4324185949137621e-05 0 -5.7099988650395183e-06 9.3380355646233756e-06 0 -5.7691053226518156e-06 7.5059128157558355e-06 0 -5.2909259003203809e-06 6.2172533715499795e-06 0 -1.4960917037292056e-05 2.4689188263597274e-06 0 -2.050803748192018e-05 4.2425854842693278e-06 0 -1.772684362131049e-05 2.3375350691363021e-06 0 -2.9724985078151715e-05 -1.2193936472208673e-05 0 -2.4000391853842709e-05 -8.912855722022935e-06 0 -2.5796445975183824e-05 -9.2238413162477182e-06 0 -4.3782573132302849e-05 1.831593269147459e-05 0 -3.585337325220111e-05 1.6591198774266704e-05 0 -4.4233739832281722e-05 2.4566743909176347e-05 0 -1.6692272904516258e-05 -1.0617174913262283e-05 0 -1.905620124235582e-05 -1.5550107054171428e-05 0 -1.8290245574356212e-05 -1.3552829844510076e-05 0 -2.1467627132088315e-05 -8.4112911471479195e-06 0 -2.4000391853842709e-05 -8.9128557220229333e-06 0 -2.5503807252061092e-05 -1.1295485105290066e-05 0 -1.3244139480822846e-05 6.4100833193903678e-06 0 -1.1914228880222812e-05 4.7989324310881807e-06 0 -1.6314277864546252e-05 1.193240717312803e-06 0 -1.1320648850057142e-09 2.0830538837876935e-11 0 -1.1085239048973845e-09 -4.6232436331713283e-11 0 -7.4780054933192483e-07 -2.0362618805751012e-08 0 -3.4426662498724796e-05 -2.9583950702345852e-05 0 -3.5259459614839774e-05 -2.817571208454153e-05 0 -3.7726258125154136e-05 -3.1511326265152926e-05 0 -3.6780883035528694e-05 -1.5063637192379424e-05 0 -3.5069338053598988e-05 -1.4610416594950188e-05 0 -3.0389920866157088e-05 -1.1475021009781728e-05 0 -5.7648406371716775e-05 2.2412468345434251e-05 0 -4.5428862162439517e-05 1.5810779629959948e-05 0 -5.3719914701379539e-05 2.1851423923951069e-05 0 -5.0046090990427095e-05 -4.524320265893749e-05 0 -5.7200122329020246e-05 -4.5947825647900281e-05 0 -5.8951188119882422e-05 -5.5924091701574748e-05 0 -2.7942053817358059e-05 -2.1815172181567934e-05 0 -2.7561518961789133e-05 -2.6445404435281948e-05 0 -2.305171873042386e-05 -1.8520779789664923e-05 0 -2.2306084126919735e-05 -2.2023241794862977e-05 0 -2.305171873042386e-05 -1.8520779789664923e-05 0 -2.7561518961789133e-05 -2.6445404435281948e-05 0 -2.1467627132088315e-05 -8.4112911471479195e-06 0 -2.1151975929763795e-05 -9.556682892240873e-06 0 -1.7849356168723957e-05 -6.4309726981267676e-06 0 -3.0130911820329126e-05 -2.1974250343720533e-05 0 -2.8955293337184593e-05 -1.7723136257878898e-05 0 -3.1763906822791446e-05 -2.2083293669333136e-05 0 -5.6131643543957302e-05 -6.375076324529454e-05 0 -4.8452545427195084e-05 -6.2630429106886175e-05 0 -4.8388575695515522e-05 -5.4546363177328735e-05 0 -2.1467627132088315e-05 -8.4112911471479195e-06 0 -1.7849356168723957e-05 -6.4309726981267676e-06 0 -1.9247767857213509e-05 -6.3147806303904503e-06 0 -2.6554214770012e-05 -1.466878556400168e-05 0 -2.8955293337184593e-05 -1.7723136257878898e-05 0 -2.7617919519524599e-05 -1.8230476827373955e-05 0 -2.1462461189291787e-06 -3.6507275320253797e-07 0 -2.1139580613382904e-06 6.4808654273518953e-08 0 -2.8855767652460214e-06 5.9167335767903474e-08 0 -4.95770174700475e-05 -2.5609113838468527e-05 0 -4.5755479761462665e-05 -2.6720219606735552e-05 0 -4.25713207552434e-05 -2.1802082319707592e-05 0 -8.1624243075545765e-05 4.4908470215914529e-05 0 -6.6977365535733578e-05 3.6788804480976031e-05 0 -7.2150787868244582e-05 4.8407680786999575e-05 0 -7.7850113582479259e-05 -8.9769657935273077e-05 0 -6.5402018639044567e-05 -8.9808971930876321e-05 0 -7.0168250629398376e-05 -8.3342475153565544e-05 0 1.4674766374635633e-05 0.00018004325461272219 0 -1.3004415294406082e-05 0.00018881854318053318 0 -5.6118085683526774e-06 0.00016919420981849776 0 1.5456404619847649e-05 0.00015245300885172785 0 -5.6118085683526774e-06 0.00016919420981849776 0 -1.1708639020464614e-05 0.00015081858100502165 0 -7.7850113582479259e-05 -8.9769657935273077e-05 0 -7.9554917476956148e-05 -0.00010268098279916558 0 -7.1376678705671121e-05 -9.8244164907147647e-05 0 1.4674766374635633e-05 0.00018004325461272219 0 1.3155508015394493e-05 0.00020746871471768343 0 -3.1491692561259103e-06 0.00020296439956287815 0 -1.6184494384076584e-05 -1.5506601708682195e-05 0 -1.5707877567326198e-05 -9.9526494722805374e-06 0 -1.9297278672884117e-05 -1.4799225328219133e-05 0 -3.1738954758817721e-05 -2.0457123055982244e-05 0 -3.4489464056694359e-05 -2.4324185949137621e-05 0 -3.1763906822791446e-05 -2.2083293669333136e-05 0 -4.3051705263116636e-05 -4.1066156349520593e-05 0 -4.407482673224384e-05 -4.3165720408954426e-05 0 -4.2201133085952907e-05 -3.9675437030222641e-05 0 -2.1331356141366258e-05 -3.2211862405847873e-05 0 -2.4309228497581222e-05 -3.7963955794504438e-05 0 -2.3632425318457601e-05 -3.5585588862749082e-05 0 -5.6100993399660466e-05 3.5455212339514466e-05 0 -4.4233739832281722e-05 2.4566743909176347e-05 0 -4.5695058131296179e-05 3.3662284642562122e-05 0 -1.318319241797857e-05 -2.7638637580855765e-06 0 -1.0542814936798177e-05 -1.574648389106054e-06 0 -1.2695396977764871e-05 -2.6017190641739595e-06 0 -3.6929336143886662e-06 1.7419563903873204e-06 0 -4.2240872007127673e-06 1.3229531337288028e-06 0 -5.112109270224981e-06 1.8433812552847344e-06 0 -8.4479048302313919e-05 0.00013291087019843962 0 -7.3002394663543521e-05 0.00011225967347627228 0 -6.6778139574739234e-05 0.0001369901052995206 0 -2.8603948080089114e-05 -6.071996500874474e-05 0 -2.2712892359854096e-05 -6.6533290884918659e-05 0 -2.0756675935145799e-05 -5.284646871724062e-05 0 -1.540493699391019e-06 1.7482973377926724e-07 0 -7.4780054933192483e-07 -2.0362618805751012e-08 0 -9.2115756936048388e-07 1.8860268164179011e-07 0 -2.5437752454220043e-05 -1.3584571236446509e-05 0 -2.0347633950795112e-05 -1.1089540486765122e-05 0 -2.1151975929763795e-05 -9.556682892240873e-06 0 1.5410334817575828e-05 0.00012500610136067754 0 1.5456404619847649e-05 0.00015245300885172782 0 -9.8957749224501731e-07 0.00013460908798988721 0 -4.7290618376572431e-06 -6.0700713963015803e-07 0 -5.1283342417478654e-06 4.6112258391139115e-08 0 -6.5897112854792156e-06 -2.6675823426693046e-07 0 -1.6184494384076584e-05 -1.5506601708682195e-05 0 -1.9297278672884117e-05 -1.4799225328219133e-05 0 -1.8749482696805862e-05 -1.9643774795821263e-05 0 -2.1929677115851547e-05 -1.9850448387189779e-05 0 -1.8749482696805862e-05 -1.9643774795821263e-05 0 -1.9297278672884117e-05 -1.4799225328219133e-05 0 -3.9819836415333362e-05 -3.8176406274240793e-05 0 -4.0815058589194539e-05 -3.7243962823684451e-05 0 -4.2201133085952907e-05 -3.9675437030222641e-05 0 -4.3051705263116636e-05 -4.1066156349520593e-05 0 -4.2201133085952907e-05 -3.9675437030222641e-05 0 -4.0815058589194539e-05 -3.7243962823684451e-05 0 -2.1331356141366258e-05 -3.2211862405847873e-05 0 -2.3348609798254356e-05 -3.5635865051523814e-05 0 -2.4309228497581222e-05 -3.7963955794504438e-05 0 -2.5813324029188614e-05 -4.0466612889110816e-05 0 -2.4309228497581222e-05 -3.7963955794504438e-05 0 -2.3348609798254356e-05 -3.5635865051523821e-05 0 -6.2757711036479777e-06 5.6827870690155376e-06 0 -5.3258177549508272e-06 4.2001714545676138e-06 0 -7.484146852539334e-06 3.7319362784599007e-06 0 -1.0397424654785657e-05 -5.14876902597265e-06 0 -1.5142348212974554e-05 -2.4782826090007966e-07 0 -1.5707877567326198e-05 -9.9526494722805374e-06 0 -1.9196400726205803e-05 -6.7777456006976517e-06 0 -1.5707877567326198e-05 -9.9526494722805374e-06 0 -1.5142348212974554e-05 -2.4782826090007966e-07 0 -5.6131643543957302e-05 -6.375076324529454e-05 0 -6.4480636276634725e-05 -6.7014242703416195e-05 0 -6.2225201986285372e-05 -7.6146826959456491e-05 0 -2.0580216428650642e-05 -6.3940163566952901e-06 0 -2.4000391853842709e-05 -8.912855722022935e-06 0 -1.9247767857213509e-05 -6.3147806303904503e-06 0 -2.1467627132088315e-05 -8.4112911471479195e-06 0 -1.9247767857213509e-05 -6.3147806303904503e-06 0 -2.4000391853842709e-05 -8.912855722022935e-06 0 -1.8982183387855295e-05 -1.8187968857572973e-05 0 -2.576289988303218e-05 -1.4916027473235605e-05 0 -2.4202032692801933e-05 -1.3569302574505962e-05 0 -3.8410048290112841e-05 -3.4408370230073995e-05 0 -4.0815058589194539e-05 -3.7243962823684451e-05 0 -3.8017879891676994e-05 -3.5812119770790401e-05 0 -2.3418361236156461e-05 -3.3816050482580555e-05 0 -2.5455914331996617e-05 -3.7367111377531916e-05 0 -2.3348609798254356e-05 -3.5635865051523821e-05 0 -5.4155937419376074e-06 1.0893037102402531e-06 0 -5.1121092702249801e-06 1.8433812552847347e-06 0 -4.2240872007127673e-06 1.3229531337288028e-06 0 -3.0626829643375797e-05 -4.4527638902351057e-05 0 -2.9968841884969776e-05 -4.2608588569056701e-05 0 -3.1916708176182081e-05 -4.2049643425683051e-05 0 -4.719871769300921e-06 7.5618482799674642e-07 0 -3.4279133292038459e-06 9.5985726276637666e-07 0 -3.1143583353844572e-06 8.6204095488142627e-07 0 -2.6554214770012e-05 -1.466878556400168e-05 0 -2.458613352915813e-05 -1.1315166849496922e-05 0 -2.6069277727203632e-05 -1.2394376696001678e-05 0 -1.540493699391019e-06 1.7482973377926724e-07 0 -2.1570996016930947e-06 5.0753491284659601e-07 0 -2.1139580613382899e-06 6.4808654273518913e-08 0 -5.2667773393137525e-05 0.00014953145190753597 0 -4.3762297796747553e-05 0.00012807370680600465 0 -3.237514334677301e-05 0.00014509981470165644 0 -5.4723491079299801e-05 0.00019720124396812924 0 -3.348783614647074e-05 0.00019752192489931361 0 -4.3055722864803911e-05 0.00021478504035121973 0 -4.7807142757416963e-05 -9.3762324606470651e-05 0 -5.6723868965939676e-05 -9.3595238510121742e-05 0 -5.4053138569683518e-05 -0.00010192605518420557 0 6.1263394149165583e-08 2.738378298539619e-05 0 -1.0299491953846577e-05 9.2679659783978718e-06 0 -1.6288116177925049e-06 1.7378045168254277e-06 0 -1.540493699391019e-06 1.7482973377926724e-07 0 -9.2115756936048388e-07 1.8860268164179011e-07 0 -1.6753626239449893e-06 4.3882067535720308e-07 0 -7.5176943663607501e-05 -7.6986551338426287e-05 0 -7.0168250629398376e-05 -8.3342475153565544e-05 0 -6.2225201986285372e-05 -7.6146826959456491e-05 0 -8.0561690228601451e-05 -0.00014941874451999187 0 -7.3294452926660241e-05 -0.00014327426209327103 0 -8.0630195850565954e-05 -0.00013855393207726181 0 2.2047086906286626e-06 0.00031017548679893508 0 -1.0719512681518975e-05 0.00030230707614966229 0 5.0910630178206913e-06 0.00028763849325556589 0 2.2047086906286626e-06 0.00031017548679893508 0 -1.8542791026672949e-05 0.00031618563141130076 0 -1.0719512681518976e-05 0.00030230707614966229 0 -2.4779101557408856e-05 -0.00014423377092805575 0 -2.960618316575185e-05 -0.00014155544741431534 0 -3.2710021996667241e-05 -0.00014733197720483458 0 -0.00013431160244459369 0.00032087139362838626 0 -0.00013441497255550923 0.00029593282951707617 0 -0.0001176368606154122 0.00030675351849719353 0 -8.0561690228601451e-05 -0.00014941874451999187 0 -6.9709080680548498e-05 -0.00014933847332933593 0 -7.3294452926660241e-05 -0.00014327426209327103 0 -2.4779101557408856e-05 -0.00014423377092805575 0 -2.3084997343936687e-05 -0.00013463775601503801 0 -2.960618316575185e-05 -0.00014155544741431534 0 -0.00013431160244459369 0.00032087139362838626 0 -0.0001176368606154122 0.00030675351849719353 0 -0.00010937574780794739 0.00032074980591176668 0 -1.1085239048975214e-09 -4.6232436331717005e-11 0 -9.2115756936048388e-07 1.8860268164179011e-07 0 -7.4780054933192483e-07 -2.0362618805751012e-08 0 -3.0130911820329126e-05 -2.1974250343720533e-05 0 -2.7894598227403599e-05 -2.2201131105310425e-05 0 -2.7617919519524599e-05 -1.8230476827373955e-05 0 -2.1467627132088315e-05 -8.4112911471479195e-06 0 -2.5503807252061092e-05 -1.1295485105290066e-05 0 -2.1151975929763795e-05 -9.556682892240873e-06 0 -5.6131643543957302e-05 -6.375076324529454e-05 0 -5.2553372541666878e-05 -7.0742238779759116e-05 0 -4.8452545427195084e-05 -6.2630429106886175e-05 0 -4.0530611868195177e-06 5.6153189049304655e-07 0 -6.0800703251035543e-06 1.0630569075702024e-06 0 -5.1283342417478654e-06 4.6112258391139115e-08 0 -5.9422046620435595e-05 0.00023045684123515673 0 -7.6652189924729437e-05 0.00024674126238082077 0 -7.6982320230091199e-05 0.00022195328173670124 0 -4.8114961178009303e-05 -0.00010864900945184783 0 -4.2121734689689286e-05 -0.0001158787082132486 0 -4.0442030661286935e-05 -0.00010438976122580717 0 -4.0827198667740035e-05 -3.5440379945790405e-05 0 -4.2073473709241547e-05 -3.852060650391237e-05 0 -4.0088886217980246e-05 -3.5198273696384767e-05 0 -1.6860147258351141e-05 -2.4822896827464123e-05 0 -2.0465616538589379e-05 -3.0246035655734504e-05 0 -1.9217879900045375e-05 -2.8643794116067826e-05 0 -5.5360060249827885e-06 -7.5991764867512747e-06 0 -1.1484274118909216e-05 -1.2551623714198562e-05 0 -9.050182842602439e-06 -1.3172645148629391e-05 0 -2.5437752454220043e-05 -1.3584571236446509e-05 0 -2.1151975929763795e-05 -9.556682892240873e-06 0 -2.5503807252061092e-05 -1.1295485105290066e-05 0 -3.7240914456559164e-05 -2.7197256014759428e-05 0 -3.9308994370942382e-05 -3.1576898380140974e-05 0 -3.6407664631796063e-05 -2.8058277937796128e-05 0 -1.1857657876618472e-05 -1.7351713055866811e-05 0 -1.5925765209704484e-05 -2.1952047131741377e-05 0 -1.4514342882532246e-05 -2.1150568545793018e-05 0 -4.1115110147268227e-05 -5.448370040903026e-05 0 -3.5106916166252128e-05 -5.78657779817569e-05 0 -3.4148491502235097e-05 -4.6535045778278765e-05 0 -3.6929336143886662e-06 1.7419563903873204e-06 0 -3.2346166173953327e-06 1.2363262675322588e-06 0 -4.2240872007127673e-06 1.3229531337288028e-06 0 -3.2579686658986447e-05 -9.9162179598151289e-05 0 -3.8930830312048841e-05 -9.1547415892581207e-05 0 -4.0442030661286935e-05 -0.00010438976122580717 0 -9.5046592857738119e-05 0.00021392049049667863 0 -7.5624130007394572e-05 0.000197563878911932 0 -7.6982320230091199e-05 0.00022195328173670124 0 -1.8621369602692077e-05 -2.2909680488172085e-05 0 -1.4608249503073787e-05 -1.8272487628535052e-05 0 -1.8749482696805862e-05 -1.9643774795821263e-05 0 -1.6184494384076584e-05 -1.5506601708682195e-05 0 -1.8749482696805862e-05 -1.9643774795821263e-05 0 -1.4608249503073787e-05 -1.8272487628535052e-05 0 -7.3254422671571317e-06 -2.5797753168811477e-07 0 -6.9933294833734127e-06 -1.3978641648010016e-07 0 -9.2467745011056435e-06 -1.1171887142639103e-06 0 -2.7942053817358059e-05 -2.1815172181567934e-05 0 -2.3051718730423857e-05 -1.8520779789664923e-05 0 -2.406428589978674e-05 -1.5601756828290991e-05 0 -2.634554918396584e-05 -4.6226534278839521e-05 0 -1.9537905473317452e-05 -4.0898652897350862e-05 0 -2.3243828312982285e-05 -3.1827292385592509e-05 0 -2.5901142751702354e-05 -1.8103488219995887e-05 0 -2.7617919519524599e-05 -1.8230476827373955e-05 0 -2.7894598227403599e-05 -2.2201131105310425e-05 0 -1.4943551771087287e-05 -3.3539415231438851e-05 0 -1.9537905473317452e-05 -4.0898652897350862e-05 0 -1.3497647162187829e-05 -4.5439952006031065e-05 0 -1.8513440155540271e-05 -2.63858006790487e-05 0 -2.039499237932757e-05 -2.6403015995785633e-05 0 -2.2203281887086329e-05 -3.0634486875631776e-05 0 -2.3577641039308632e-05 -2.9299332178324911e-05 0 -2.2203281887086329e-05 -3.0634486875631776e-05 0 -2.039499237932757e-05 -2.6403015995785633e-05 0 -9.4742571777184161e-06 -1.4511018936067032e-06 0 -1.2261233253655037e-05 -2.799209470603157e-06 0 -1.2695396977764871e-05 -2.6017190641739595e-06 0 -1.374475380739946e-05 -4.541173940947213e-06 0 -1.603130692081382e-05 -5.8990740179659251e-06 0 -1.3321316119875439e-05 -2.6856296415533654e-06 0 -1.5982557446425758e-05 -3.3817974715666568e-06 0 -1.3321316119875439e-05 -2.6856296415533654e-06 0 -1.603130692081382e-05 -5.8990740179659251e-06 0 -6.5925138120884401e-06 1.4607114240387099e-05 0 -1.0657630472949066e-05 1.1428810066165252e-05 0 -6.8429787547305178e-06 1.8628475971477911e-05 0 -1.2463132124891547e-05 8.6452633580172171e-06 0 -6.8429787547305178e-06 1.8628475971477911e-05 0 -1.0657630472949066e-05 1.1428810066165252e-05 0 1.5456404619847649e-05 0.00015245300885172785 0 1.4674766374635633e-05 0.00018004325461272219 0 -5.6118085683526774e-06 0.00016919420981849776 0 -8.9589378364399611e-06 8.4172954707660021e-06 0 -6.4548991587766931e-06 7.7043579635316762e-06 0 -8.1888723785078708e-06 6.0509086279081693e-06 0 -7.5176943663607501e-05 -7.6986551338426287e-05 0 -7.7850113582479259e-05 -8.9769657935273077e-05 0 -7.0168250629398376e-05 -8.3342475153565544e-05 0 -8.8251637028099927e-06 -8.4465314653814831e-07 0 -9.2467745011056435e-06 -1.1171887142639103e-06 0 -6.9933294833734127e-06 -1.3978641648010016e-07 0 -1.2050917450486421e-05 4.4734152161209078e-07 0 -9.3506658921047522e-06 3.1910165743770514e-08 0 -8.0105918888199789e-06 -5.2927616951131336e-07 0 -9.4742571777184161e-06 -1.4511018936067032e-06 0 -6.5269255665909409e-06 -5.0033167873069248e-07 0 -7.2083432822932472e-06 -1.0241917631662645e-06 0 -5.2627793490181419e-06 2.3366511594523926e-06 0 -3.7846133270467252e-06 1.7444045621737051e-06 0 -4.5478677417632045e-06 3.3555927791838844e-06 0 -5.3215819524416656e-06 -2.8710915880322346e-06 0 -4.3776892081901812e-06 -1.4735372473363933e-06 0 -2.2247455248993766e-06 -9.4794208828359188e-07 0 -3.2834196121867946e-09 2.7245991499442614e-10 0 -2.2247455248993766e-06 -9.4794208828359188e-07 0 -4.3776892081901812e-06 -1.4735372473363933e-06 0 -7.119728469036998e-06 3.2500766802749834e-06 0 -3.0012984079795311e-06 9.5423728511822859e-07 0 -6.0124479359440184e-06 1.2284893763352268e-06 0 -4.5921908070751433e-09 -6.2187124595936481e-10 0 -6.0124479359440184e-06 1.2284893763352268e-06 0 -3.0012984079795311e-06 9.5423728511822859e-07 0 -2.7942053817358059e-05 -2.1815172181567934e-05 0 -3.4025674277639847e-05 -2.5434090335784271e-05 0 -3.2768642917535191e-05 -3.0002272052275661e-05 0 -1.540493699391019e-06 1.7482973377926724e-07 0 -1.6753626239449893e-06 4.3882067535720308e-07 0 -2.1570996016930947e-06 5.0753491284659601e-07 0 -2.0927296133901131e-05 0.00012602347492173866 0 -2.4048837462325971e-06 0.0001167433666767686 0 -9.8957749224501731e-07 0.00013460908798988721 0 -2.1965303192953624e-05 3.3173237153903438e-05 0 -2.4429397862945988e-05 2.4765475157862747e-05 0 -1.5894039911979335e-05 2.2081587463610595e-05 0 -8.9589378364399611e-06 8.4172954707660021e-06 0 -6.7904767777686913e-06 1.0758742405638245e-05 0 -6.4548991587766931e-06 7.7043579635316762e-06 0 -3.003587940247355e-05 -3.6097993663971746e-05 0 -2.7561518961789133e-05 -2.6445404435281948e-05 0 -3.2768642917535191e-05 -3.0002272052275661e-05 0 -8.4991001271792201e-05 0.00032030092449028585 0 -0.00010937574780794739 0.00032074980591176668 0 -9.7020909693070915e-05 0.00030799934805339447 0 -4.0792739502047121e-05 -0.00014848267833965977 0 -3.2710021996667241e-05 -0.00014733197720483458 0 -3.6583383996717635e-05 -0.00014337176947716335 0 -1.8542791026672949e-05 0.00031618563141130076 0 -3.9584114268211537e-05 0.00031875209512026572 0 -2.8663861654203178e-05 0.00030628926173405799 0 -6.9709080680548498e-05 -0.00014933847332933593 0 -5.9255967725586711e-05 -0.00014907948935114838 0 -6.4372901734803675e-05 -0.00014380728183760466 0 -3.5446919644385376e-05 -3.542593394810146e-05 0 -3.8017879891676994e-05 -3.5812119770790401e-05 0 -3.6563275638178035e-05 -3.7503127507947461e-05 0 -2.7289579175603309e-05 -3.76869605589917e-05 0 -2.7189806938722778e-05 -4.0829808655684269e-05 0 -2.5455914331996617e-05 -3.7367111377531916e-05 0 -6.2058766414665325e-09 -2.6529562471044079e-09 0 -2.2247455248993771e-06 -9.4794208828359209e-07 0 -3.2834196121867946e-09 2.7245991499442614e-10 0 -7.9480709153821255e-09 3.3893108039298495e-09 0 -4.5921908070751433e-09 -6.2187124595936481e-10 0 -3.0012984079795311e-06 9.5423728511822859e-07 0 -7.9480709153821255e-09 3.3893108039298495e-09 0 -3.0012984079795311e-06 9.5423728511822859e-07 0 -7.119728469036998e-06 3.2500766802749834e-06 0 -6.2058766414665325e-09 -2.6529562471044079e-09 0 -5.3215819524416656e-06 -2.8710915880322346e-06 0 -2.2247455248993766e-06 -9.4794208828359188e-07 0 -2.8603948080089114e-05 -6.071996500874474e-05 0 -3.5106916166252128e-05 -5.7865777981756893e-05 0 -3.6383336154083079e-05 -7.0081171719868965e-05 0 -1.1578510478565557e-05 -2.5141058502718752e-06 0 -1.4271112460646006e-05 -4.1211138173672293e-06 0 -1.2825740452155875e-05 -3.7958372888740168e-06 0 -2.6554214770012e-05 -1.466878556400168e-05 0 -2.7617919519524599e-05 -1.8230476827373955e-05 0 -2.5236851033431203e-05 -1.4298986500373604e-05 0 -2.5901142751702354e-05 -1.8103488219995887e-05 0 -2.5236851033431203e-05 -1.4298986500373604e-05 0 -2.7617919519524599e-05 -1.8230476827373955e-05 0 -7.3254422671571317e-06 -2.5797753168811477e-07 0 -9.6918012040838798e-06 -1.5386458949049406e-06 0 -7.9716997647222267e-06 -5.9533604853249758e-07 0 -3.5087831094813987e-06 1.0988714095717783e-06 0 -3.4279133292038459e-06 9.5985726276637666e-07 0 -4.8880652878057907e-06 9.1553823501646511e-07 0 -4.719871769300921e-06 7.5618482799674642e-07 0 -4.8880652878057907e-06 9.1553823501646511e-07 0 -3.4279133292038459e-06 9.5985726276637666e-07 0 -1.2463132124891547e-05 8.6452633580172171e-06 0 -1.0299491953846577e-05 9.2679659783978718e-06 0 -6.8429787547305178e-06 1.8628475971477911e-05 0 6.1263394149165583e-08 2.738378298539619e-05 0 -6.842978754730517e-06 1.8628475971477914e-05 0 -1.0299491953846577e-05 9.2679659783978718e-06 0 -3.8703990043344045e-05 -3.0609940335775091e-05 0 -3.2768642917535191e-05 -3.0002272052275661e-05 0 -3.4025674277639847e-05 -2.5434090335784271e-05 0 -1.8621369602692077e-05 -2.2909680488172085e-05 0 -2.039499237932757e-05 -2.6403015995785633e-05 0 -1.5925765209704484e-05 -2.1952047131741377e-05 0 -3.4222305771027156e-05 -2.564067848002897e-05 0 -3.6407664631796063e-05 -2.8058277937796128e-05 0 -3.5259459614839774e-05 -2.817571208454153e-05 0 -5.4155937419376074e-06 1.0893037102402531e-06 0 -6.3624406465249136e-06 1.271745855261145e-06 0 -5.112109270224981e-06 1.8433812552847344e-06 0 -2.4059825910381208e-05 0.00021453962798876036 0 -3.1491692561259103e-06 0.00020296439956287815 0 -5.7884068282197654e-06 0.0002217085510786373 0 -6.2450365324749835e-05 -0.00010253874011670048 0 -7.1376678705671121e-05 -9.8244164907147647e-05 0 -7.1439676575042009e-05 -0.00010712061216238463 0 -1.8982183387855295e-05 -1.8187968857572973e-05 0 -1.8290245574356212e-05 -1.3552829844510076e-05 0 -1.905620124235582e-05 -1.5550107054171428e-05 0 -1.6184494384076584e-05 -1.5506601708682195e-05 0 -1.1484274118909216e-05 -1.2551623714198562e-05 0 -1.5707877567326198e-05 -9.9526494722805374e-06 0 -9.5046592857738119e-05 0.00021392049049667863 0 -0.00011027369454979189 0.00019956913520156481 0 -9.1867848001574878e-05 0.00019130019715241051 0 -3.2579686658986447e-05 -9.9162179598151289e-05 0 -2.508409915156859e-05 -9.0927970757169018e-05 0 -3.1745534433516181e-05 -8.8237142032997697e-05 0 -2.8603948080089114e-05 -6.071996500874474e-05 0 -2.9964057151963097e-05 -7.1342862797595829e-05 0 -2.2712892359854096e-05 -6.6533290884918659e-05 0 -3.3894305801558329e-05 -3.2709862789793665e-05 0 -3.3306518882129913e-05 -3.4728283257396356e-05 0 -3.1527252878135571e-05 -3.2520027898154714e-05 0 -2.3418361236156461e-05 -3.3816050482580555e-05 0 -2.0465616538589379e-05 -3.0246035655734504e-05 0 -2.2203281887086329e-05 -3.0634486875631776e-05 0 -9.8054039787942594e-06 3.825739199652229e-06 0 -7.6698940136909403e-06 2.2019643604989428e-06 0 -7.1911621040256029e-06 4.1962228159675954e-06 0 -3.1179775300540877e-05 -3.977592355995983e-05 0 -2.9252698913083943e-05 -4.0175335191518978e-05 0 -2.9740723353959464e-05 -3.7108366632128483e-05 0 -8.8251637028099927e-06 -8.4465314653814831e-07 0 -6.9933294833734127e-06 -1.3978641648010016e-07 0 -6.8024293563225947e-06 -1.4219521898867693e-07 0 -5.2933004113540417e-06 3.2422411910235862e-07 0 -6.8024293563225947e-06 -1.4219521898867693e-07 0 -6.9933294833734127e-06 -1.3978641648010016e-07 0 -1.0260496373674424e-05 -2.2180261071233952e-07 0 -1.1740172781648787e-05 -2.3622235291109687e-06 0 -1.3321316119875439e-05 -2.6856296415533654e-06 0 -2.7942053817358059e-05 -2.1815172181567934e-05 0 -3.2768642917535191e-05 -3.0002272052275661e-05 0 -2.7561518961789133e-05 -2.6445404435281948e-05 0 -7.3254422671571317e-06 -2.5797753168811477e-07 0 -7.9716997647222267e-06 -5.9533604853249758e-07 0 -6.0071795570415115e-06 2.7216489427429943e-07 0 -6.8921801260941621e-06 1.7066962846564384e-08 0 -6.0071795570415115e-06 2.7216489427429943e-07 0 -7.9716997647222267e-06 -5.9533604853249758e-07 0 -9.6918012040838798e-06 -1.5386458949049406e-06 0 -9.0240938294833984e-06 -1.2367990380622487e-06 0 -7.9716997647222267e-06 -5.9533604853249758e-07 0 -3.4493653233091923e-05 -3.9664214577702623e-05 0 -3.6563275638178035e-05 -3.7503127507947461e-05 0 -3.7813377596057942e-05 -4.0053162314254964e-05 0 -3.9819836415333362e-05 -3.8176406274240793e-05 0 -3.7813377596057942e-05 -4.0053162314254964e-05 0 -3.6563275638178035e-05 -3.7503127507947461e-05 0 -2.5813324029188614e-05 -4.0466612889110816e-05 0 -2.7189806938722778e-05 -4.0829808655684269e-05 0 -2.7227428271456017e-05 -4.3912513237862463e-05 0 -2.8373665637731506e-05 -4.2408112907313108e-05 0 -2.7227428271456017e-05 -4.3912513237862463e-05 0 -2.7189806938722778e-05 -4.0829808655684269e-05 0 -1.2463132124891547e-05 8.6452633580172171e-06 0 -1.5142348212974554e-05 -2.4782826090007971e-07 0 -1.0299491953846577e-05 9.2679659783978718e-06 0 -1.989286883752526e-05 0.00029073933089016508 0 -2.8663861654203178e-05 0.00030628926173405799 0 -4.1062278734506831e-05 0.00029750080760849399 0 -6.8316674988577023e-05 -0.00013719865794385331 0 -6.4372901734803675e-05 -0.00014380728183760466 0 -5.8334643358308313e-05 -0.00013948760374448677 0 -3.3089271094201166e-05 -0.00013655975901616824 0 -4.13815406060929e-05 -0.00013958658603388285 0 -3.6583383996717635e-05 -0.00014337176947716335 0 -0.00010626303433155345 0.00029288008864149679 0 -8.2842686831946247e-05 0.00029795798768664423 0 -9.7020909693070915e-05 0.00030799934805339447 0 -9.5046592857738119e-05 0.00021392049049667863 0 -9.1867848001574878e-05 0.00019130019715241051 0 -7.5624130007394572e-05 0.000197563878911932 0 -3.2579686658986447e-05 -9.9162179598151289e-05 0 -3.1745534433516181e-05 -8.8237142032997697e-05 0 -3.8930830312048841e-05 -9.1547415892581207e-05 0 -2.8603948080089114e-05 -6.071996500874474e-05 0 -3.6383336154083079e-05 -7.0081171719868965e-05 0 -2.9964057151963097e-05 -7.1342862797595829e-05 0 -1.374475380739946e-05 -4.541173940947213e-06 0 -1.3321316119875439e-05 -2.6856296415533654e-06 0 -1.1740172781648787e-05 -2.3622235291109687e-06 0 -3.9584114268211537e-05 0.00031875209512026572 0 -4.1062278734506831e-05 0.00029750080760849399 0 -2.8663861654203178e-05 0.00030628926173405799 0 -5.9255967725586711e-05 -0.00014907948935114838 0 -5.8334643358308313e-05 -0.00013948760374448677 0 -6.4372901734803675e-05 -0.00014380728183760466 0 -8.4991001271792201e-05 0.00032030092449028585 0 -9.7020909693070915e-05 0.00030799934805339447 0 -8.2842686831946247e-05 0.00029795798768664423 0 -4.0792739502047121e-05 -0.00014848267833965977 0 -3.6583383996717635e-05 -0.00014337176947716335 0 -4.13815406060929e-05 -0.00013958658603388285 0 -3.1393360055858178e-05 -3.5030501784531788e-05 0 -3.1527252878135571e-05 -3.2520027898154714e-05 0 -3.3306518882129913e-05 -3.4728283257396356e-05 0 -1.4943551771087287e-05 -3.3539415231438851e-05 0 -2.3243828312982285e-05 -3.1827292385592509e-05 0 -1.9537905473317452e-05 -4.0898652897350862e-05 0 -4.407482673224384e-05 -4.3165720408954426e-05 0 -4.2195330386035192e-05 -4.0662491862759768e-05 0 -4.2201133085952907e-05 -3.9675437030222641e-05 0 -2.3632425318457601e-05 -3.5585588862749082e-05 0 -2.4309228497581222e-05 -3.7963955794504438e-05 0 -2.5938243467958306e-05 -4.1494692250720667e-05 0 -3.5087831094813987e-06 1.0988714095717783e-06 0 -2.5118204227602671e-06 8.6741868006275587e-07 0 -3.4279133292038459e-06 9.5985726276637666e-07 0 -0.00010271251876680476 0.00017328393812452483 0 -0.00010390401237913136 0.00014798796531976429 0 -8.6615525572763028e-05 0.00015254485154962146 0 -8.4479048302313919e-05 0.00013291087019843962 0 -8.6615525572763028e-05 0.00015254485154962146 0 -0.00010390401237913136 0.00014798796531976429 0 -2.9328150127022075e-05 -2.9902302043849803e-05 0 -3.1776133015319342e-05 -2.9828464085324762e-05 0 -3.1527252878135571e-05 -3.2520027898154714e-05 0 -8.775910513857944e-06 -7.9647730891584069e-07 0 -9.0240938294833984e-06 -1.2367990380622487e-06 0 -1.04363260276833e-05 -2.3056776052786495e-06 0 -2.6554214770012e-05 -1.466878556400168e-05 0 -2.5236851033431203e-05 -1.4298986500373604e-05 0 -2.458613352915813e-05 -1.1315166849496924e-05 0 -2.3071488834197825e-05 -9.7577524252590427e-06 0 -2.458613352915813e-05 -1.1315166849496924e-05 0 -2.5236851033431203e-05 -1.4298986500373604e-05 0 -7.6094427736272109e-05 0.00017229548542321016 0 -7.5624130007394572e-05 0.000197563878911932 0 -9.1867848001574878e-05 0.00019130019715241051 0 -3.5977618661663414e-05 -8.0254572081707467e-05 0 -3.8930830312048841e-05 -9.1547415892581207e-05 0 -3.1745534433516181e-05 -8.8237142032997697e-05 0 -3.5977618661663414e-05 -8.0254572081707467e-05 0 -2.9964057151963097e-05 -7.1342862797595829e-05 0 -3.6383336154083079e-05 -7.0081171719868965e-05 0 -6.2477198853374176e-06 -1.3362821855465703e-06 0 -9.4767612137575738e-06 -2.0909758660199966e-06 0 -7.2083432822932472e-06 -1.0241917631662645e-06 0 -8.4271486742575898e-06 6.1619632730016173e-07 0 -9.3506658921047522e-06 3.1910165743770514e-08 0 -1.2838575495683113e-05 1.2455853058161333e-06 0 -1.7340122942496956e-05 3.0339164548395211e-06 0 -1.2838575495683113e-05 1.2455853058161333e-06 0 -1.6485477986456715e-05 2.0141353469228115e-06 0 -1.243532393548942e-05 -3.5132002067398043e-06 0 -1.2261233253655037e-05 -2.799209470603157e-06 0 -9.4767612137575738e-06 -2.0909758660199962e-06 0 -1.1662049690458418e-05 -3.1348136105292457e-06 0 -1.1740172781648787e-05 -2.3622235291109687e-06 0 -9.9950392992918329e-06 -1.2136938590916451e-06 0 -0.00010271251876680476 0.00017328393812452483 0 -9.1867848001574878e-05 0.00019130019715241051 0 -0.00011027369454979189 0.00019956913520156481 0 -2.5779699837097414e-05 -7.8949073563250888e-05 0 -3.1745534433516181e-05 -8.8237142032997697e-05 0 -2.508409915156859e-05 -9.0927970757169018e-05 0 -2.5779699837097414e-05 -7.8949073563250888e-05 0 -2.2712892359854096e-05 -6.6533290884918659e-05 0 -2.9964057151963097e-05 -7.1342862797595829e-05 0 -4.1115110147268227e-05 -5.448370040903026e-05 0 -4.8388575695515522e-05 -5.4546363177328735e-05 0 -4.8452545427195084e-05 -6.2630429106886175e-05 0 -3.3894305801558329e-05 -3.2709862789793665e-05 0 -3.1527252878135571e-05 -3.2520027898154714e-05 0 -3.1776133015319342e-05 -2.9828464085324762e-05 0 -9.8054039787942594e-06 3.825739199652229e-06 0 -1.0447032850557381e-05 6.486151915575841e-06 0 -1.3654447534320356e-05 5.3554515460194538e-06 0 -1.4333202063089205e-05 -6.6128539955676052e-06 0 -1.2412527471961387e-05 -4.1843050559440378e-06 0 -1.3982905789035947e-05 -5.5353568834740597e-06 0 -9.4742571777184161e-06 -1.4511018936067032e-06 0 -1.2695396977764871e-05 -2.6017190641739599e-06 0 -1.0542814936798177e-05 -1.574648389106054e-06 0 -7.6266475023925486e-05 9.1133659838539489e-05 0 -6.2982486264835975e-05 9.2682313432815189e-05 0 -7.3002394663543521e-05 0.00011225967347627228 0 -5.0046090990427095e-05 -4.524320265893749e-05 0 -4.8388575695515522e-05 -5.4546363177328735e-05 0 -4.4318408878128205e-05 -4.6139550478895025e-05 0 -2.4059825910381208e-05 0.00021453962798876036 0 -4.3055722864803911e-05 0.00021478504035121973 0 -3.3487836146470746e-05 0.00019752192489931361 0 -6.2450365324749835e-05 -0.00010253874011670048 0 -5.4053138569683518e-05 -0.00010192605518420557 0 -5.6723868965939676e-05 -9.3595238510121742e-05 0 -2.0927296133901131e-05 0.00012602347492173866 0 -3.237514334677301e-05 0.00014509981470165644 0 -4.3762297796747553e-05 0.00012807370680600465 0 -1.5319950733185308e-05 -4.1705343458218063e-06 0 -1.6710775123491665e-05 -4.5706434148431511e-06 0 -1.9247767857213509e-05 -6.3147806303904503e-06 0 -1.1353862742611606e-05 -3.028188000836272e-06 0 -1.04363260276833e-05 -2.3056776052786495e-06 0 -9.0240938294833984e-06 -1.2367990380622487e-06 0 -4.4405784037021707e-05 -7.0106717529061364e-05 0 -4.8452545427195084e-05 -6.2630429106886175e-05 0 -5.2553372541666878e-05 -7.0742238779759116e-05 0 -3.9819836415333362e-05 -3.8176406274240793e-05 0 -4.2201133085952907e-05 -3.9675437030222641e-05 0 -4.2195330386035192e-05 -4.0662491862759768e-05 0 -2.5813324029188614e-05 -4.0466612889110816e-05 0 -2.5938243467958306e-05 -4.1494692250720667e-05 0 -2.4309228497581222e-05 -3.7963955794504438e-05 0 -6.8921801260941621e-06 1.7066962846564384e-08 0 -7.9716997647222267e-06 -5.9533604853249758e-07 0 -9.0240938294833984e-06 -1.2367990380622487e-06 0 -0.00010937574780794739 0.00032074980591176668 0 -0.0001176368606154122 0.00030675351849719353 0 -9.7020909693070915e-05 0.00030799934805339447 0 -0.00010626303433155345 0.00029288008864149679 0 -9.7020909693070915e-05 0.00030799934805339447 0 -0.0001176368606154122 0.00030675351849719353 0 -3.3089271094201166e-05 -0.00013655975901616824 0 -3.6583383996717635e-05 -0.00014337176947716335 0 -2.960618316575185e-05 -0.00014155544741431534 0 -3.2710021996667241e-05 -0.00014733197720483458 0 -2.960618316575185e-05 -0.00014155544741431534 0 -3.6583383996717635e-05 -0.00014337176947716335 0 -1.8542791026672949e-05 0.00031618563141130076 0 -2.8663861654203178e-05 0.00030628926173405799 0 -1.0719512681518976e-05 0.00030230707614966229 0 -6.9709080680548498e-05 -0.00014933847332933593 0 -6.4372901734803675e-05 -0.00014380728183760466 0 -7.3294452926660241e-05 -0.00014327426209327103 0 -1.989286883752526e-05 0.00029073933089016508 0 -1.0719512681518976e-05 0.00030230707614966229 0 -2.8663861654203178e-05 0.00030628926173405799 0 -6.8316674988577023e-05 -0.00013719865794385331 0 -7.3294452926660241e-05 -0.00014327426209327103 0 -6.4372901734803675e-05 -0.00014380728183760466 0 -2.9328150127022075e-05 -2.9902302043849803e-05 0 -3.1527252878135571e-05 -3.2520027898154714e-05 0 -2.938342677551194e-05 -3.2903325898645513e-05 0 -3.4426662498724796e-05 -2.9583950702345852e-05 0 -3.2855491715933185e-05 -2.5788514481542954e-05 0 -3.5259459614839774e-05 -2.817571208454153e-05 0 -3.4222305771027156e-05 -2.564067848002897e-05 0 -3.5259459614839774e-05 -2.817571208454153e-05 0 -3.2855491715933185e-05 -2.5788514481542954e-05 0 -3.1393360055858178e-05 -3.5030501784531788e-05 0 -3.3306518882129913e-05 -3.4728283257396356e-05 0 -3.324138765022466e-05 -3.7096329105173999e-05 0 -3.5446919644385376e-05 -3.542593394810146e-05 0 -3.324138765022466e-05 -3.7096329105173999e-05 0 -3.3306518882129913e-05 -3.4728283257396356e-05 0 -6.5925138120884401e-06 1.4607114240387099e-05 0 -9.0519851401373182e-06 1.0619743985143618e-05 0 -1.0657630472949066e-05 1.1428810066165252e-05 0 -1.5326961891175765e-05 9.6201072696473877e-06 0 -2.1814773704889597e-05 1.3322747230330976e-05 0 -1.9403965092207438e-05 8.1303350503641028e-06 0 -2.6605104180835169e-05 1.1682300262760688e-05 0 -1.9403965092207438e-05 8.1303350503641028e-06 0 -2.1814773704889597e-05 1.3322747230330976e-05 0 -1.5319950733185308e-05 -4.1705343458218063e-06 0 -1.7849356168723957e-05 -6.4309726981267676e-06 0 -1.4271112460646006e-05 -4.1211138173672293e-06 0 -7.6266475023925486e-05 9.1133659838539489e-05 0 -6.2335201019838435e-05 7.571160624105663e-05 0 -6.2982486264835975e-05 9.2682313432815189e-05 0 -4.87098726564392e-05 7.8424496477814975e-05 0 -6.2982486264835975e-05 9.2682313432815189e-05 0 -6.2335201019838435e-05 7.571160624105663e-05 0 -8.9589378364399611e-06 8.4172954707660021e-06 0 -9.0519851401373182e-06 1.0619743985143618e-05 0 -6.7904767777686913e-06 1.0758742405638245e-05 0 -2.3577641039308632e-05 -2.9299332178324911e-05 0 -2.49501944232563e-05 -3.3256080016040561e-05 0 -2.2203281887086329e-05 -3.0634486875631776e-05 0 -2.3418361236156461e-05 -3.3816050482580555e-05 0 -2.2203281887086329e-05 -3.0634486875631776e-05 0 -2.49501944232563e-05 -3.3256080016040561e-05 0 -5.7099988650395183e-06 9.3380355646233756e-06 0 -6.7904767777686913e-06 1.0758742405638245e-05 0 -5.7717105619123204e-06 1.3027944706660436e-05 0 -3.7761008319850159e-05 -3.9835210108655179e-05 0 -4.3611037472020664e-05 -3.8804476105261793e-05 0 -4.4318408878128205e-05 -4.6139550478895025e-05 0 -5.0046090990427095e-05 -4.524320265893749e-05 0 -4.4318408878128205e-05 -4.6139550478895025e-05 0 -4.3611037472020664e-05 -3.8804476105261793e-05 0 -6.2757711036479777e-06 5.6827870690155376e-06 0 -8.1888723785078708e-06 6.0509086279081693e-06 0 -6.4548991587766931e-06 7.7043579635316762e-06 0 -5.7099988650395183e-06 9.3380355646233756e-06 0 -6.4548991587766931e-06 7.7043579635316762e-06 0 -6.7904767777686913e-06 1.0758742405638245e-05 0 -3.4222305771027156e-05 -2.564067848002897e-05 0 -3.4489464056694359e-05 -2.4324185949137621e-05 0 -3.6407664631796063e-05 -2.8058277937796128e-05 0 -1.1353862742611606e-05 -3.028188000836272e-06 0 -1.2412527471961387e-05 -4.1843050559440378e-06 0 -1.04363260276833e-05 -2.3056776052786495e-06 0 -1.1662049690458418e-05 -3.1348136105292457e-06 0 -1.04363260276833e-05 -2.3056776052786495e-06 0 -1.2412527471961387e-05 -4.1843050559440378e-06 0 -1.0260496373674424e-05 -2.2180261071233952e-07 0 -9.9950392992918329e-06 -1.2136938590916451e-06 0 -1.1740172781648787e-05 -2.3622235291109687e-06 0 1.3155508015394493e-05 0.00020746871471768343 0 -5.7884068282197654e-06 0.0002217085510786373 0 -3.1491692561259103e-06 0.00020296439956287815 0 -7.9554917476956148e-05 -0.00010268098279916558 0 -7.1439676575041995e-05 -0.00010712061216238463 0 -7.1376678705671121e-05 -9.8244164907147647e-05 0 -2.0580216428650642e-05 -6.3940163566952901e-06 0 -1.9247767857213509e-05 -6.3147806303904503e-06 0 -1.6710775123491665e-05 -4.5706434148431519e-06 0 -1.1927436667502038e-09 1.9845589929268297e-10 0 -8.9390183807264666e-07 4.0418263626122887e-07 0 -7.7144165422318656e-07 3.3377570946068196e-07 0 1.5410334817575828e-05 0.00012500610136067754 0 -9.8957749224501731e-07 0.00013460908798988721 0 -2.4048837462325971e-06 0.0001167433666767686 0 -3.1393360055858178e-05 -3.5030501784531788e-05 0 -2.938342677551194e-05 -3.2903325898645513e-05 0 -3.1527252878135571e-05 -3.2520027898154714e-05 0 -1.7043080432319977e-05 4.6310121231882296e-06 0 -1.9403965092207438e-05 8.1303350503641028e-06 0 -2.3565045581234739e-05 7.5821593356963208e-06 0 -2.6605104180835169e-05 1.1682300262760688e-05 0 -2.3565045581234739e-05 7.5821593356963208e-06 0 -1.9403965092207438e-05 8.1303350503641028e-06 0 -3.7240914456559164e-05 -2.7197256014759428e-05 0 -3.6407664631796063e-05 -2.8058277937796128e-05 0 -3.4489464056694359e-05 -2.4324185949137621e-05 0 
</DataArray>
</PointData>
<CellData Scalars="region_id,cross_section_updated," Vectors="" Tensors="stress,">
<DataArray type="Float64" Name="region_id" format="ascii">
2 2 2 2 2 2 2 2 2 2 3 3 3 3 3 3 3 3 3 3 1 1 1 1 1 1 1 1 1 1 1 1 1 1 1 1 1 1 1 1 1 1 1 1 1 1 1 1 1 1 1 1 1 1 1 1 1 1 1 1 1 1 1 1 1 1 1 1 1 1 1 1 1 1 1 1 1 1 1 1 1 1 1 1 1 1 1 1 1 1 1 1 1 1 1 1 1 1 1 1 1 1 1 1 1 1 1 1 1 1 1 1 1 1 1 1 1 1 1 1 1 1 1 1 1 1 1 1 1 1 1 1 1 1 1 1 1 1 1 1 1 1 1 1 1 1 1 1 1 1 1 1 1 1 1 1 1 1 1 1 1 1 1 1 1 1 1 1 1 1 1 1 1 1 1 1 1 1 1 1 1 1 1 1 1 1 1 1 1 1 1 1 1 1 1 1 1 1 1 1 1 1 1 1 1 1 1 1 1 1 1 1 1 1 1 1 1 1 1 1 1 1 1 1 1 1 1 1 1 1 1 1 1 1 1 1 1 1 1 1 1 1 1 1 1 1 1 1 1 1 1 1 1 1 1 1 1 1 1 1 1 1 1 1 1 1 1 1 1 1 1 1 1 1 1 1 1 1 1 1 1 1 1 1 1 1 1 1 1 1 1 1 1 1 1 1 1 1 1 1 1 1 1 1 1 1 1 1 1 1 1 1 1 1 1 1 1 1 1 1 1 1 1 1 1 1 1 1 1 1 1 1 1 1 1 1 1 1 1 1 1 1 1 1 1 1 1 1 1 1 1 1 1 1 1 1 1 1 1 1 1 1 1 1 1 1 1 1 1 1 1 1 1 1 1 1 1 1 1 1 1 1 1 1 1 1 1 1 1 1 1 1 1 1 1 1 1 1 1 1 1 1 1 1 1 1 1 1 1 1 1 1 1 1 1 1 1 1 1 1 1 1 1 1 1 1 1 1 1 1 1 1 1 1 1 1 1 1 1 1 1 1 1 1 1 1 1 1 1 1 1 1 1 1 1 1 1 1 1 1 1 1 1 1 1 1 1 1 1 1 1 1 1 1 1 1 1 1 1 1 1 1 1 1 1 1 1 1 1 1 1 1 1 1 1 1 1 1 1 1 1 1 1 1 1 1 1 1 1 1 1 1 1 1 1 1 1 1 1 1 1 1 1 1 1 1 1 1 1 1 1 1 1 1 1 1 1 1 1 1 1 1 1 1 1 1 1 1 1 1 1 1 1 1 1 1 1 1 1 1 1 1 1 1 1 1 1 1 1 1 1 1 1 1 1 1 1 1 1 1 1 1 1 1 1 1 1 1 1 1 1 1 1 1 1 1 1 1 1 1 1 1 1 1 1 1 1 1 1 1 1 1 1 1 1 1 1 1 1 1 1 1 1 1 1 1 1 1 1 1 1 1 1 1 1 1 1 1 1 1 1 1 1 1 1 1 1 1 1 1 1 1 1 1 1 1 1 1 1 1 1 1 1 1 1 1 1 1 1 1 1 1 1 1 1 1 1 1 1 1 1 1 1 1 1 1 1 1 1 1 1 1 1 1 1 1 1 1 1 1 1 1 1 1 1 1 1 1 1 1 1 1 1 1 1 1 1 1 1 1 1 1 1 1 1 1 1 1 1 1 1 1 1 1 1 1 1 1 1 1 1 1 1 1 1 1 1 1 1 1 1 1 1 1 1 1 1 1 1 1 1 1 1 1 1 1 1 1 1 1 1 1 1 1 1 1 1 1 1 1 1 1 1 1 1 1 1 1 1 1 1 1 1 1 1 1 1 1 1 1 1 1 1 1 1 1 1 1 1 1 1 1 1 1 1 1 1 1 1 1 1 1 1 1 1 1 1 1 1 1 1 1 1 1 1 1 1 1 1 1 1 1 1 1 1 1 1 1 1 1 1 1 1 1 1 1 1 1 1 1 1 1 1 1 1 1 1 1 1 1 1 1 1 1 1 1 1 1 1 1 1 1 1 1 1 1 1 1 1 1 1 1 1 1 1 1 1 1 1 1 1 1 1 1 1 1 1 1 1 1 1 1 1 1 1 1 1 1 1 1 1 1 1 1 1 1 1 1 1 1 1 1 1 1 1 1 1 1 1 1 1 1 1 1 1 1 1 1 1 1 1 1 1 1 1 1 1 1 1 1 1 1 1 1 1 1 1 1 1 1 1 1 1 1 1 1 1 1 1 1 1 1 1 1 1 1 1 1 1 1 1 1 1 1 1 1 1 1 1 1 1 1 1 1 1 1 1 1 1 1 1 1 1 1 1 1 1 1 1 1 1 1 1 1 1 1 1 1 1 1 1 1 1 1 1 1 1 1 1 1 1 1 1 1 1 1 1 1 1 1 1 1 1 1 
</DataArray>
<DataArray type="Float64" Name="stress" NumberOfComponents="9" format="ascii">
-3.5232516341806392e-05 -5.107116886813806e-05 0 -5.107116886813806e-05 -1.1744172113935437e-05 0 0 0 -1.1744172113935437e-05 -4.1616810080750868e-05 -5.8380742062405196e-05 0 -5.8380742062405196e-05 -1.3872270026916956e-05 0 0 0 -1.3872270026916956e-05 -4.7352509611998288e-05 -6.7174398123051756e-05 0 -6.7174398123051756e-05 -1.5784169870666087e-05 0 0 0 -1.5784169870666087e-05 -4.3941969722489623e-05 -6.9455304373400621e-05 0 -6.9455304373400621e-05 -1.4647323240829865e-05 0 0 0 -1.4647323240829865e-05 -3.9327977353750582e-05 -6.9299915021651373e-05 0 -6.9299915021651373e-05 -1.3109325784583527e-05 0 0 0 -1.3109325784583527e-05 -3.8036435260036753e-05 -6.8325630255610444e-05 0 -6.8325630255610444e-05 -1.2678811753345548e-05 0 0 0 -1.2678811753345548e-05 -3.9943869645544671e-05 -6.4254481478223094e-05 0 -6.4254481478223094e-05 -1.3314623215181557e-05 0 0 0 -1.3314623215181557e-05 -4.1447896252034514e-05 -6.3332030583141308e-05 0 -6.3332030583141308e-05 -1.3815965417344838e-05 0 0 0 -1.3815965417344838e-05 -2.6895117086888774e-05 -5.1263202330584755e-05 0 -5.1263202330584755e-05 -8.9650390289629429e-06 0 0 0 -8.9650390289629429e-06 -8.4313807044403993e-05 -5.5937955776226545e-05 0 -5.5937955776226545e-05 -2.8104602348134628e-05 0 0 0 -2.8104602348134628e-05 9.4509134775108892e-05 0.00010509437383080035 0 0.00010509437383080035 3.15030449250363e-05 0 0 0 3.15030449250363e-05 -2.2743830938898901e-05 5.1845438335603887e-05 0 5.1845438335603887e-05 -7.5812769796329693e-06 0 0 0 -7.5812769796329693e-06 -2.9162861039039428e-05 9.9110555776804588e-05 0 9.9110555776804588e-05 -9.7209536796798117e-06 0 0 0 -9.7209536796798117e-06 -3.8168990528586824e-05 8.7330380298287537e-05 0 8.7330380298287537e-05 -1.2722996842862273e-05 0 0 0 -1.2722996842862273e-05 -4.5804095517547265e-05 9.6687078181974815e-05 0 9.6687078181974815e-05 -1.5268031839182421e-05 0 0 0 -1.5268031839182421e-05 -5.3383510074385317e-05 9.7660628101010395e-05 0 9.7660628101010395e-05 -1.7794503358128439e-05 0 0 0 -1.7794503358128439e-05 -5.6851216717188122e-05 8.8045906845884763e-05 0 8.8045906845884763e-05 -1.8950405572396041e-05 0 0 0 -1.8950405572396041e-05 -9.04226463631333e-05 0.00010438529455476179 0 0.00010438529455476179 -3.0140882121044429e-05 0 0 0 -3.0140882121044429e-05 2.2761676588938163e-05 7.0317131507269997e-05 0 7.0317131507269997e-05 7.5872255296460453e-06 0 0 0 7.5872255296460453e-06 -0.00042872062273457718 0.00010239621255687796 0 0.00010239621255687796 -0.00014290687424485906 0 0 0 -0.00014290687424485906 -0.045329123300408433 -0.013205211570777153 0 -0.013205211570777153 0.022315582712671728 0 0 0 -0.0057533851469341729 -0.041090540227614651 -0.013564295419330283 0 -0.013564295419330283 0.039225520710983425 0 0 0 -0.00046625487915780833 -0.061315117827963006 -0.0093690728179041532 0 -0.0093690728179041532 0.033900202905608301 0 0 0 -0.0068537287305886485 -0.062603685331462142 -3.0534837890949795e-05 0 -3.0534837890949795e-05 0.035353121202758589 0 0 0 -0.0068126410321758344 -0.13624784402953488 -0.0047741710888744605 0 -0.0047741710888744605 0.0018472201699451657 0 0 0 -0.033600155964897419 -0.097467399566176824 0.00030299954808168938 0 0.00030299954808168938 -7.1431989729334351e-06 0 0 0 -0.02436863569128743 -0.14342271080410093 -0.0022574329758161676 0 -0.0022574329758161676 -0.0012470662215920162 0 0 0 -0.036167444256423251 -0.10080805065661262 -0.00069170591755171487 0 -0.00069170591755171487 -0.00077362051196534776 0 0 0 -0.025395417792144499 -0.11810515624813463 0.0033320195805838643 0 0.0033320195805838643 -0.00042374956694532506 0 0 0 -0.029632226453769995 -0.20309048376437711 -0.009661292694206694 0 -0.009661292694206694 -0.00053751803074084115 0 0 0 -0.05090700044877948 -0.018795940528222258 0.0032874236651246652 0 0.0032874236651246652 -0.01461827332544911 0 0 0 -0.0083535534634178454 -0.022796173320892114 0.0041160575271337865 0 0.0041160575271337865 -0.010955000135413187 0 0 0 -0.0084377933640763202 -0.048248316327396908 0.0028773832099360189 0 0.0028773832099360189 -0.0077092724734573233 0 0 0 -0.013989397200213553 -0.047853399106769903 -0.0068065949395551195 0 -0.0068065949395551195 -0.015954991033426135 0 0 0 -0.01595209753504901 -0.04891806567461162 0.0042205717192309918 0 0.0042205717192309918 -0.016306128848421263 0 0 0 -0.016306048630758223 -0.059253107686277132 -0.016111950842734771 0 -0.016111950842734771 0.022492641728968532 0 0 0 -0.0091901164893271464 0.13335731268514209 0.10393667662651061 0 0.10393667662651061 0.21309825558240147 0 0 0 0.086613892066885884 -0.0014962396435679315 -0.011380637535011728 0 -0.011380637535011728 -0.003357659520152545 0 0 0 -0.0012134747909301469 -0.00054008888001533251 0.0059416243520111767 0 0.0059416243520111767 0.0044966043862881833 0 0 0 0.00098912887656865678 -0.00027137050412040509 0.014062491522744369 0 0.014062491522744369 0.0053027595137935535 0 0 0 0.0012578472524182871 -0.00012475553611035473 -0.005383465097151644 0 -0.005383465097151644 0.00075679280193874376 0 0 0 0.00015800931645704175 -0.011348578571100609 0.021861095083977045 0 0.021861095083977045 -0.00070726551594280096 0 0 0 -0.0030139610217611024 -0.010001231680455691 -0.02355372933934996 0 -0.02355372933934996 -0.0027664542357779265 0 0 0 -0.0031919214790583905 -0.043832354749484492 0.0053610858120038815 0 0.0053610858120038815 -0.0084639721603610579 0 0 0 -0.013074081727461384 0.1454117187378679 -0.0057521742542467891 0 -0.0057521742542467891 0.1313159551012163 0 0 0 0.06918191845977105 -0.22287111402027829 0.014170309135274062 0 0.014170309135274062 0.0068641205512847137 0 0 0 -0.054001748367248359 -0.12231111921762843 -0.0055092700670140099 0 -0.0055092700670140099 0.0026908995897684251 0 0 0 -0.029905054906965017 -0.095202138741611902 -0.020192508544770709 0 -0.020192508544770709 0.016324543375755562 0 0 0 -0.019719398841464092 -0.10706600289308554 0.023952166777182524 0 0.023952166777182524 0.06212127841153503 0 0 0 -0.011236181120387656 -0.11806774377645465 -0.01955188528753371 0 -0.01955188528753371 0.01028549105959059 0 0 0 -0.02694556317921596 -0.051117287612374981 -0.020237617102885262 0 -0.020237617102885262 0.046941888347520166 0 0 0 -0.0010438498162136864 -0.0276183393512488 -0.032176459368893795 0 -0.032176459368893795 0.0025415737732196186 0 0 0 -0.006269191394507212 -0.031308104186146379 0.04192617705399404 0 0.04192617705399404 -0.00056178179905241876 0 0 0 -0.0079674714962997273 -0.029131585800706294 -0.033017658026349039 0 -0.033017658026349039 0.006499480192530438 0 0 0 -0.0056580264020438253 -0.039568094734236725 0.044511437466781212 0 0.044511437466781212 -0.003249676810459512 0 0 0 -0.010704442886174226 -0.089275966278530489 -0.027014500600734612 0 -0.027014500600734612 0.0041374887472748617 0 0 0 -0.021284619382813945 -0.029790600958360849 -0.04161319057985851 0 -0.04161319057985851 0.063016625455364961 0 0 0 0.0083065061242510313 -0.12331477529680082 0.013108323700258995 0 0.013108323700258995 0.016054648578234465 0 0 0 -0.026815031679641638 0.25266821335358619 0.12014989455312051 0 0.12014989455312051 0.070910807282602573 0 0 0 0.080894755159047205 -0.0022859488747878909 0.0079226806224914625 0 0.0079226806224914625 0.011399857854689444 0 0 0 0.0022784772449753188 -0.0048740646769696028 -0.008683561313374194 0 -0.008683561313374194 0.042318086107518638 0 0 0 0.009361005357637231 -0.044825567105358316 -0.020664122463873107 0 -0.020664122463873107 0.077692600479328147 0 0 0 0.0082167583434924456 -0.0033680264454600817 -0.021601360191615848 0 -0.021601360191615848 0.06236772915758193 0 0 0 0.014749925678030351 -0.0073262383141101672 0.003820767183182916 0 0.003820767183182916 -0.0028085139180351604 0 0 0 -0.0025336880580364429 -0.034646250221771813 -0.0055734263068267708 0 -0.0055734263068267708 -0.017593931770037631 0 0 0 -0.013060045497952363 -0.038264459308804191 0.0066162947901710276 0 0.0066162947901710276 -0.012784039829059084 0 0 0 -0.012762124784465815 -0.070540988524063958 0.065241478761948413 0 0.065241478761948413 0.063756360958791863 0 0 0 -0.0016961568913179959 -0.064313455330692923 0.058222329994822852 0 0.058222329994822852 0.044254251158637736 0 0 0 -0.005014801043013814 0.11521202837940279 0.14372546314335527 0 0.14372546314335527 0.24488376799685874 0 0 0 0.0900239490940654 -0.011702576848605997 0.0078970065877372875 0 0.0078970065877372875 0.000640964822240353 0 0 0 -0.0027654030065912411 -0.019066346857390677 -0.022758752329439913 0 -0.022758752329439913 0.051877467426646603 0 0 0 0.0082027801423139521 -0.024306702041062944 -0.01145697702586887 0 -0.01145697702586887 -0.019364433487762289 0 0 0 -0.010917783882206267 -0.047494753234544107 -0.019061295773576847 0 -0.019061295773576847 0.0589264856468329 0 0 0 0.0028579331030722053 -0.037800494174631716 -0.025770139419489843 0 -0.025770139419489843 0.0035476908693321541 0 0 0 -0.0085632008263248349 -0.027652431281592116 -0.0063247757122753823 0 -0.0063247757122753823 0.014895280343784068 0 0 0 -0.0031892877344520121 -0.11067006057545348 0.018616513617957686 0 0.018616513617957686 -0.00079957280733866654 0 0 0 -0.027867408345697675 -0.0092184946452251726 -0.0055370939604777458 0 -0.0055370939604777458 0.00029959824362801868 0 0 0 -0.0022297241003991219 -0.012632576634120429 0.024614664092990068 0 0.024614664092990068 0.098564353519275727 0 0 0 0.021482944221288713 -0.019888636092644237 -0.01923216884637724 0 -0.01923216884637724 0.075466560023361495 0 0 0 0.013894480982679095 0.00079774441666824458 0.001028630019446833 0 0.001028630019446833 -0.0011281132747358313 0 0 0 -8.2592214516896689e-05 -0.025123147266646884 0.0016468092000715695 0 0.0016468092000715695 -0.004894865926321712 0 0 0 -0.0075045032982420934 0.0080267288061769831 -0.060382575781741776 0 -0.060382575781741776 0.099001234923832171 0 0 0 0.026756990932502264 -0.022380380875508421 -0.00010222498140827208 0 -0.00010222498140827208 -0.0035225853968443577 0 0 0 -0.0064757415680882224 -0.030959315859558661 -0.0095835961966694305 0 -0.0095835961966694305 0.00075347598033337349 0 0 0 -0.0075514599698063012 -0.042372352832077076 -0.034753914970078355 0 -0.034753914970078355 0.0091810451711968888 0 0 0 -0.0082978269152199635 -0.092577597476925344 -0.0063297526302448044 0 -0.0063297526302448044 -0.015228983296201225 0 0 0 -0.026951645193281647 -0.12675249673710345 0.0018020552444578952 0 0.0018020552444578952 -0.019982022990867487 0 0 0 -0.036683629931992749 0.0024574263372977015 0.0042645144141112423 0 0.0042645144141112423 -0.001126481305930046 0 0 0 0.00033273625784199719 0.0041867167076667378 -0.0056035387155196625 0 -0.0056035387155196625 0.029353255475518703 0 0 0 0.0083849930457962629 -0.092322730602858102 -0.0084545909949496189 0 -0.0084545909949496189 -0.02300224183025925 0 0 0 -0.02883124310827934 -0.072710858057829744 0.00099731028063777165 0 0.00099731028063777165 -0.017123554768678911 0 0 0 -0.022458603206627164 -0.02700252193688572 0.00024765424506342017 0 0.00024765424506342017 -0.016849906660785362 0 0 0 -0.010963107149417773 -0.098031147665426879 0.0030707153082626497 0 0.0030707153082626497 -6.7608049598980556e-05 0 0 0 -0.024524688928756463 -0.13955366121508297 -0.0094587005528444616 0 -0.0094587005528444616 0.0013632014844458668 0 0 0 -0.034547614932659267 -0.032502778881889072 -0.018706523552526527 0 -0.018706523552526527 -0.0086274762591628251 0 0 0 -0.010282563785262988 -0.034911084508934889 -0.023809243435460981 0 -0.023809243435460981 0.004040713379019345 0 0 0 -0.0077175927824789242 0.0043785316167095356 0.023137479933573957 0 0.023137479933573957 0.11855777516998189 0 0 0 0.030734076696673052 -0.0062734877259039562 -0.0031114474058160368 0 -0.0031114474058160368 -0.0022505750512176736 0 0 0 -0.0021310156942802999 -0.033747235942666404 -0.019841980892825656 0 -0.019841980892825656 -0.010017632500763041 0 0 0 -0.010941217110857354 -0.026901902839769579 -0.011609758845855578 0 -0.011609758845855578 -0.006092470199772243 0 0 0 -0.0082485932598854589 -0.060847528204740264 0.057596231764044492 0 0.057596231764044492 -0.0016953275197790774 0 0 0 -0.015635713931129835 -0.11014931211240081 -0.00072484424479459561 0 -0.00072484424479459561 -0.036736717142103879 0 0 0 -0.036721507313626174 -0.082515041107645556 -0.0040989296810399548 0 -0.0040989296810399548 -0.02751967517765341 0 0 0 -0.027508679071324739 -0.034445332342545001 -0.0054913961063968487 0 -0.0054913961063968487 -0.019008853728045904 0 0 0 -0.013363546517647722 -0.011486034100930853 0.029333931136007685 0 0.029333931136007685 0.0023930399403711 0 0 0 -0.0022732485401404379 -0.010591120257479214 -0.017424894117223366 0 -0.017424894117223366 -0.0016682799754641486 0 0 0 -0.0030648500582358684 -0.032117413053977764 -0.032750497904958875 0 -0.032750497904958875 0.0067627092141512996 0 0 0 -0.0063386759599565329 -0.023443826688680121 0.0037513294976688708 0 0.0037513294976688708 -0.012966685925997205 0 0 0 -0.0091026281536693288 -0.068346667949267109 -0.015598568943147824 0 -0.015598568943147824 -0.0080946326087919518 0 0 0 -0.019110325139514751 -0.033557273847091063 -0.011196797247951154 0 -0.011196797247951154 -0.0027905279346533973 0 0 0 -0.0090869504454361427 -0.020456073616355198 0.0056311570426494061 0 0.0056311570426494061 -0.011492645225831627 0 0 0 -0.007987179710546707 -0.024631090819299858 0.0055616593614992793 0 0.0055616593614992793 -0.0099778287154206786 0 0 0 -0.0086522298836801334 -0.026676135687396269 0.0043969076888497136 0 0.0043969076888497136 -0.011715936547237626 0 0 0 -0.0095980180586584737 -0.027941187527202815 -0.0020097744832106579 0 -0.0020097744832106579 0.011365859544309187 0 0 0 -0.0041438319957234071 -0.031411379026444787 -0.032050885557623116 0 -0.032050885557623116 0.024230208373075213 0 0 0 -0.0017952926633423572 -0.023468653986479016 -0.011248934197929633 0 -0.011248934197929633 -0.0049030582484430596 0 0 0 -0.0070929280587305743 -0.046954139032067174 -0.022435340576381101 0 -0.022435340576381101 0.076671053544639267 0 0 0 0.0074292286281430267 -0.0173177777922362 0.020444599047550582 0 0.020444599047550582 0.13758098538491215 0 0 0 0.030065801898169209 0.00016251346778961562 -0.00087999877739952637 0 -0.00087999877739952637 -0.00078693098260984584 0 0 0 -0.00015610437870505756 -0.0070758263556685019 -0.005474945751602657 0 -0.005474945751602657 -0.0032019658753021929 0 0 0 -0.0025694480577427292 -0.01168677840804877 0.01608048364913417 0 0.01608048364913417 0.13945584313119053 0 0 0 0.031942266180785328 -0.030590242037374378 0.020531855011760372 0 0.020531855011760372 0.10605657798381059 0 0 0 0.018866583986609058 -0.03450265405723002 0.0051661281075797965 0 0.0051661281075797965 -0.007508537225534925 0 0 0 -0.010502797820691233 -0.038693842119385112 0.0043825978008765528 0 0.0043825978008765528 -0.0088978486656944994 0 0 0 -0.011897922696269901 0.0054571640894158779 0.034305856820708858 0 0.034305856820708858 0.037328502601602143 0 0 0 0.010696416672754561 -0.019487986318064143 0.038336952843474048 0 0.038336952843474048 0.029015917025042359 0 0 0 0.0023819826767446095 -0.0401258632402514 -0.032661086796966887 0 -0.032661086796966887 0.023775046839662944 0 0 0 -0.0040877041001470965 0.00044436163387695515 -0.0088360213529058429 0 -0.0088360213529058429 -0.0124346348508243 0 0 0 -0.0029975683042368084 -0.00046960306897775306 0.0065109320440981944 0 0.0065109320440981944 -0.021427170055828393 0 0 0 -0.0054741932812016336 -0.047409517551914901 0.0095632907562144195 0 0.0095632907562144195 0.06882379869720591 0 0 0 0.0053535702863227626 -0.0086830017960894956 0.00757803025466259 0 0.00757803025466259 -0.0046691285782101133 0 0 0 -0.0033380325935747912 -0.017896583139552114 -0.017124474744606433 0 -0.017124474744606433 0.076005864965577707 0 0 0 0.014527320456506398 -0.10767557866532226 0.0028551944145583166 0 0.0028551944145583166 0.00080394177165638014 0 0 0 -0.026717909223416412 -0.17490126954312837 -0.0086182111160982566 0 -0.0086182111160982566 0.0012482442596124799 0 0 0 -0.043413256320878973 -0.01783490422635417 -0.03005756636463431 0 -0.03005756636463431 0.006977869576802409 0 0 0 -0.0027142586623879056 0.1018819445150673 -0.058655571821639857 0 -0.058655571821639857 0.047173410072049116 0 0 0 0.037263838646779096 -0.026551541472407181 -0.019106588483067108 0 -0.019106588483067108 -0.0049813772296268821 0 0 0 -0.0078832296755085018 -0.02751225944791473 -0.024762847232618596 0 -0.024762847232618596 -0.0010918323586256162 0 0 0 -0.0071510229516350693 0.00015132642815533169 -0.0076566028039686262 0 -0.0076566028039686262 0.010013677601352628 0 0 0 0.0025412510073771566 -0.0020992386433356103 0.0063390904609410548 0 0.0063390904609410548 0.007695503280205962 0 0 0 0.0013990661592173659 0.00022422078861650263 0.0091421333410734995 0 0.0091421333410734995 0.024721183995312757 0 0 0 0.0062363511959824258 -0.0019349286861109047 -0.0052628821608387 0 -0.0052628821608387 0.0021237565577333006 0 0 0 4.7206967905709962e-05 -0.064937220752703223 0.032855440444918449 0 0.032855440444918449 0.085233048410010115 0 0 0 0.0050739569143266328 -0.037352733835320978 -0.016593037460561955 0 -0.016593037460561955 -0.00062863346492281202 0 0 0 -0.00949534182506101 -0.031007027424227444 -0.014938467234063002 0 -0.014938467234063002 -0.0057764881466479678 0 0 0 -0.009195878892718853 -0.029177330271897513 -0.014673001802660235 0 -0.014673001802660235 -0.0078807312632646238 0 0 0 -0.0092645153837905333 -0.013909700619184062 -0.033318195485972327 0 -0.033318195485972327 0.014752249444339061 0 0 0 0.00021063720628877736 -0.16019309150739014 0.021593485633200293 0 0.021593485633200293 0.0029461611424448364 0 0 0 -0.039311732591236215 -0.065674975480358361 -0.0012716680844588601 0 -0.0012716680844588601 0.020672557155245852 0 0 0 -0.011250604581278092 -0.054618794389818121 -0.009055851481614377 0 -0.009055851481614377 0.018813892415848854 0 0 0 -0.0089512254934922819 -0.019287696451749853 0.0048676550316724132 0 0.0048676550316724132 -0.021013897886563326 0 0 0 -0.01007539858457826 -0.1175921684353054 0.039408677310964535 0 0.039408677310964535 -0.00196519893564151 0 0 0 -0.029889341842736616 -0.094877039047877559 0.0058406528989644602 0 0.0058406528989644602 0.0046847206132670793 0 0 0 -0.022548079608652627 -0.095162879085721061 -0.0027625946214405589 0 -0.0027625946214405589 0.0055615158762192807 0 0 0 -0.022400340802375421 -0.15756594474169378 0.00018513220749966086 0 0.00018513220749966086 0.012441003469653822 0 0 0 -0.03628123531801003 -0.15215802863256894 -0.020052116035927103 0 -0.020052116035927103 0.012812557362282706 0 0 0 -0.034836367817571601 -0.032611154866356615 -0.011807376985134094 0 -0.011807376985134094 -0.005124123975592601 0 0 0 -0.0094338197104872797 -0.094949043582418652 -0.0094171480014422215 0 -0.0094171480014422215 0.0017880957393926478 0 0 0 -0.023290236960756577 0.019676313098975884 0.069465325870356476 0 0.069465325870356476 0.024877562145835697 0 0 0 0.011138468811202951 -0.051657544878879913 -0.015372968016740686 0 -0.015372968016740686 0.05378852261772827 0 0 0 0.00053274443471209914 -0.020976844043893314 0.016431115146901702 0 0.016431115146901702 0.021057343074401255 0 0 0 2.0124757626987025e-05 -0.034045199456656849 0.030832483476048278 0 0.030832483476048278 -0.0060004262101203132 0 0 0 -0.010011406416694291 -0.026777494562678916 -0.031363751191317957 0 -0.031363751191317957 0.015953985906588475 0 0 0 -0.002705877164022652 -0.030507120919046223 -0.030689787491191986 0 -0.030689787491191986 0.027011127900958342 0 0 0 -0.00087399825452199827 -0.0066076949544995878 0.0062481053004249248 0 0.0062481053004249248 -0.017260854942730219 0 0 0 -0.0059671374743074379 -0.03064496633554635 -0.015035323348469465 0 -0.015035323348469465 -0.012077621879159506 0 0 0 -0.010680647053676481 -0.044173918196920854 -0.009608773853440682 0 -0.009608773853440682 -0.020066158647994312 0 0 0 -0.016060019211228793 -0.044808617057282521 0.0068872877724748547 0 0.0068872877724748547 -0.013656008999010724 0 0 0 -0.014616156514073313 -0.029244053133974851 -0.035811873436047859 0 -0.035811873436047859 0.016898000493753035 0 0 0 -0.0030865131600554541 -0.070545745059030551 -0.024043066406300204 0 -0.024043066406300204 -0.0052931516333230844 0 0 0 -0.018959724173088395 -0.09066351527201244 -0.0072266508442542128 0 -0.0072266508442542128 0.025936015572399995 0 0 0 -0.016181874924903139 -0.026477179194636734 -0.00161861339771024 0 -0.00161861339771024 -0.018524363394498922 0 0 0 -0.011250385647283916 -0.024585446633982586 0.00080948885556553695 0 0.00080948885556553695 -0.014738692450990914 0 0 0 -0.0098310347712433754 -0.033087930918339829 0.0043833665598875318 0 0.0043833665598875318 -0.010965966222259477 0 0 0 -0.011013474285149826 -0.033393284384412837 0.0053927389239288026 0 0.0053927389239288026 -0.011504625549162137 0 0 0 -0.011224477483393744 -0.07794322857428819 -0.018400548124175964 0 -0.018400548124175964 0.026385661403334593 0 0 0 -0.012889391792738389 -0.030649001198308296 0.013511462058769458 0 0.013511462058769458 0.019084618287845093 0 0 0 -0.0028910957276157903 -0.021671548410113872 -0.0022261332276658575 0 -0.0022261332276658575 -0.014421544847733921 0 0 0 -0.0090232733144619496 -0.046904813961344285 -0.02138277250367214 0 -0.02138277250367214 -0.0062231984811207397 0 0 0 -0.013282003110616253 -0.033912774525599182 0.016205906535514795 0 0.016205906535514795 0.056321916789474055 0 0 0 0.0056022855659687044 -0.046380353808090309 -0.00038506618152464155 0 -0.00038506618152464155 0.0020227489103364846 0 0 0 -0.011089401224438456 -0.044293049216227995 0.00085448376507778201 0 0.00085448376507778201 0.0069584433952537411 0 0 0 -0.0093336514552435634 -0.11013334954729684 -0.00073815721656672107 0 -0.00073815721656672107 -0.036685293807941735 0 0 0 -0.036704660838809647 -0.082504278706137898 -0.0040889421767454507 0 -0.0040889421767454507 -0.027484745396891653 0 0 0 -0.027497256025757384 0.090021755437326767 0.03779226038912642 0 0.03779226038912642 0.040310137922391104 0 0 0 0.032582973339929384 -0.035068280790709255 0.0037911915024418036 0 0.0037911915024418036 0.00023332034947970426 0 0 0 -0.0087087401103073843 -0.059681321099374768 -0.011107376339894634 0 -0.011107376339894634 0.063478485005568297 0 0 0 0.00094929097654841699 -0.014541586417520652 0.0011721978766830454 0 0.0011721978766830454 -0.031331680507607595 0 0 0 -0.011468316731281986 -0.10222892945231424 0.0042600643369028537 0 0.0042600643369028537 0.0012079843001936569 0 0 0 -0.025255236288030145 -0.16170471578161888 -0.010191988360798737 0 -0.010191988360798737 0.0014629899193399909 0 0 0 -0.040060431465569743 -0.031462313600416396 -0.012447156934422277 0 -0.012447156934422277 -0.016724131924048216 0 0 0 -0.012046611381116172 -0.092356113088710529 0.008004780793035654 0 0.008004780793035654 0.00051159067562610067 0 0 0 -0.022961130603271054 -0.11642683541607168 -0.029180885703891421 0 -0.029180885703891421 -0.00046616624379022809 0 0 0 -0.02922325041496552 -0.0940904129470293 0.0046781444871990888 0 0.0046781444871990888 -0.00010547967758822718 0 0 0 -0.023548973156154389 -0.058660322468795961 0.0035374106665764446 0 0.0035374106665764446 -0.004118804916879288 0 0 0 -0.015694781846418829 -0.052461492468086006 -0.01211214209949751 0 -0.01211214209949751 -0.011270361796008805 0 0 0 -0.015932963566023715 -0.083752585722634637 -0.022365837843439929 0 -0.022365837843439929 0.010558862679173608 0 0 0 -0.018298430760865292 -0.037706814130847172 -0.012097982775597454 0 -0.012097982775597454 -0.0030447027047588726 0 0 0 -0.010187879208901546 -0.021316877890071417 0.038883377470007585 0 0.038883377470007585 0.032453976134716456 0 0 0 0.0027842745611614816 -0.026941976755008312 -0.020441701638519327 0 -0.020441701638519327 -0.0063315455056804915 0 0 0 -0.0083183805651723119 -0.029287555784661856 -0.001509838033653335 0 -0.001509838033653335 -0.015185416912118506 0 0 0 -0.011118243174195091 -0.037977768407757795 0.0039233093351681916 0 0.0039233093351681916 -0.012176135820222762 0 0 0 -0.012538476056995138 -0.056221442246399064 -0.01213285313523076 0 -0.01213285313523076 -0.021777499533691975 0 0 0 -0.019499735445022762 -0.052241155509439759 0.0065357151302582973 0 0.0065357151302582973 -0.015045458807398054 0 0 0 -0.01682165357920945 -0.054451271656347194 -0.011688239984755752 0 -0.011688239984755752 0.011704722761656378 0 0 0 -0.010686637223672718 -0.054559994744976081 -0.020645533993537149 0 -0.020645533993537149 0.015131914315558881 0 0 0 -0.0098570201073543001 -0.056005331467714803 0.065530064051225329 0 0.065530064051225329 0.013197728546618048 0 0 0 -0.010701900730274216 -0.0084399095784986056 0.086153966962674272 0 0.086153966962674272 0.046358359398418258 0 0 0 0.0094796124549799687 0.043459064129945713 0.0015282378618463599 0 0.0015282378618463599 0.054635900245947111 0 0 0 0.024523741093973234 -0.063654806046133522 -0.0074665719444942172 0 -0.0074665719444942172 0.049738206055178799 0 0 0 -0.0034791499977386911 -0.022866957374411218 0.0040359532214964012 0 0.0040359532214964012 -0.01251937794780706 0 0 0 -0.0088465838305545712 -0.037420705820091243 -0.017668524192629403 0 -0.017668524192629403 -0.006503092190100479 0 0 0 -0.010980949502547965 -0.055303290208983169 0.049484410679766055 0 0.049484410679766055 0.00049086771924811146 0 0 0 -0.013703105622433709 -0.019447672151231721 -0.004265090675310057 0 -0.004265090675310057 0.038350994647526671 0 0 0 0.0047258306240736681 -0.020952227429708509 -0.0097789663310017261 0 -0.0097789663310017261 -0.016623965919941863 0 0 0 -0.0093940483374126693 -0.042571510873663287 0.0034636843048755682 0 0.0034636843048755682 -0.0062885149475566896 0 0 0 -0.012215006455304996 -0.086579249506878564 0.018466962224934991 0 0.018466962224934991 0.04838579267702392 0 0 0 -0.0095483642074636332 -0.10277064565282711 0.0013306161936237359 0 0.0013306161936237359 -0.0019223929094287079 0 0 0 -0.026173259640563953 -0.1539701696007951 -0.0042447951494516464 0 -0.0042447951494516464 -0.0039188288458335135 0 0 0 -0.039472249611657143 -0.02934863021055667 -0.017685908603008428 0 -0.017685908603008428 -0.0028476527186902523 0 0 0 -0.0080490707323117305 -0.06308223127573491 0.0024020167832413341 0 0.0024020167832413341 -0.011529597182095118 0 0 0 -0.018652957114457514 -0.069149185710680044 -0.008247484024656887 0 -0.008247484024656887 -0.019872363206452845 0 0 0 -0.022255387229283219 -0.18853506900501588 0.003990535076757451 0 0.003990535076757451 0.0040122450320014824 0 0 0 -0.046130705993253585 -0.10778149845788056 -0.0017565169747093545 0 -0.0017565169747093545 0.001110464075451012 0 0 0 -0.026667758595607396 0.0020259478421711247 0.027584567718945685 0 0.027584567718945685 0.12056171314256289 0 0 0 0.030646915246183501 0.068117746780103822 0.0011866395781392203 0 0.0011866395781392203 0.29675169794919209 0 0 0 0.091217361182323986 -0.034443948048259634 -0.038342552140168906 0 -0.038342552140168906 0.021528908770135413 0 0 0 -0.003228759819531038 -0.048194351491742088 -0.033283115008399033 0 -0.033283115008399033 0.014421673048623074 0 0 0 -0.0084431696107797605 -0.030030743363257055 -0.03779091133140456 0 -0.03779091133140456 0.051542814526522547 0 0 0 0.0053780177908163765 -0.0029196279278208281 0.0021302639470189288 0 0.0021302639470189288 -0.028097581462581567 0 0 0 -0.0077543023476006334 -0.026780221196787711 0.00013057601102627308 0 0.00013057601102627308 -0.016045942549203135 0 0 0 -0.010706540936497711 -0.072766495976389983 -0.0068435201942726454 0 -0.0068435201942726454 0.012054259849602067 0 0 0 -0.015178059031696972 0.000943155860726963 -0.0025985502789385162 0 -0.0025985502789385162 -0.018595766583130224 0 0 0 -0.0044131526806007737 -0.16139117017632443 0.022108308343426808 0 0.022108308343426808 -0.00055731148442275669 0 0 0 -0.040487120415186879 -0.030429667245743142 0.030383477582069496 0 0.030383477582069496 -0.0064479928548770715 0 0 0 -0.0092194150251552198 -0.022163027361604137 -0.030878525014115699 0 -0.030878525014115699 0.012613036722054716 0 0 0 -0.0023874976598872166 -0.03532357407795713 0.0036071835888168446 0 0.0036071835888168446 0.015511676318709266 0 0 0 -0.0049529744398119756 -0.062163241032280991 -0.017092289131318064 0 -0.017092289131318064 0.014285130474459784 0 0 0 -0.011969527639455274 -0.021449667252602139 0.0097625345233768781 0 0.0097625345233768781 -0.0011512173691833605 0 0 0 -0.0056502211554463749 -0.017444185658800848 0.013991447924907247 0 0.013991447924907247 0.0073871283411403449 0 0 0 -0.0025142643294151258 -0.086844197015402858 -0.021039654574825345 0 -0.021039654574825345 -0.0026092949472209803 0 0 0 -0.022363372990655959 -0.043497334634966245 -0.032031613245440571 0 -0.032031613245440571 0.0042046022172124164 0 0 0 -0.009823183104438471 -0.12859607057384229 -0.016938823132497609 0 -0.016938823132497609 -0.0071205578255786823 0 0 0 -0.033929157099855244 -0.033454032559983915 0.050889769414207864 0 0.050889769414207864 0.0040376736373342048 0 0 0 -0.0073540897306623165 -0.036151969540314743 0.052206858251970356 0 0.052206858251970356 0.0029294768945020699 0 0 0 -0.0083056231614535569 -0.038209396822355135 0.05411267147296428 0 0.05411267147296428 -0.00017207554466747155 0 0 0 -0.0095953680917555406 -0.034347907821873025 -0.03229184244000971 0 -0.03229184244000971 0.0039031082388267802 0 0 0 -0.0076111998957615334 -0.040943226626559887 -0.030943428438208409 0 -0.030943428438208409 0.0016390106244783265 0 0 0 -0.0098260540005203623 0.046498162243560417 0.039360177933705873 0 0.039360177933705873 0.065696859524231543 0 0 0 0.028048755441948001 -0.027883302072008967 -0.0018700761367264143 0 -0.0018700761367264143 -0.0093012178489678323 0 0 0 -0.0092961299802441985 -0.034289558519454998 0.0047225749280635949 0 0.0047225749280635949 -0.011431476268277736 0 0 0 -0.011430258696933185 -0.033497388516586714 0.0051575086464435409 0 0.0051575086464435409 0.0023887615815133528 0 0 0 -0.0077771567337683468 -0.0092413726172328459 -0.017412399030074757 0 -0.017412399030074757 0.086299830577277692 0 0 0 0.019264614490011239 -0.10329653655016921 -0.026432456310956511 0 -0.026432456310956511 -0.0034343122808021265 0 0 0 -0.026682712207742841 -0.026302845527499775 0.0028368957528308908 0 0.0028368957528308908 -0.012402957278330282 0 0 0 -0.0096764507014575132 -0.15453035842465207 -0.0065114147784600743 0 -0.0065114147784600743 -0.004064448328609643 0 0 0 -0.039648701688315427 -0.10130769019082386 0.0021747166865028651 0 0.0021747166865028651 -0.0012958919105677535 0 0 0 -0.025650895525347925 -0.095792414621015287 -0.0099176237238767784 0 -0.0099176237238767784 0.00035416231084028915 0 0 0 -0.023859563077543777 -0.029428724679840756 0.0050887048924203211 0 0.0050887048924203211 -0.0096457532925565397 0 0 0 -0.009768619493099321 -0.027560607957866669 -0.0051780173915494943 0 -0.0051780173915494943 0.017704801493977906 0 0 0 -0.0024639516159722166 -0.042145977520429458 0.010956833833257674 0 0.010956833833257674 0.038439913638653019 0 0 0 -0.00092651597044411324 -0.0075533497173916053 0.057117237257597542 0 0.057117237257597542 0.0096547346531608985 0 0 0 0.00052534623394231983 -0.021425312292852997 0.0039668998150674114 0 0.0039668998150674114 -0.01403445829359902 0 0 0 -0.0088649426466130068 -0.023013467340728955 0.028491522279115999 0 0.028491522279115999 -0.010376204584941817 0 0 0 -0.008347417981417582 -0.019361823266014877 -0.028851705203949862 0 -0.028851705203949862 0.0016197846241818858 0 0 0 -0.0044355096604584698 -0.029525048104400913 0.0051515035347659268 0 0.0051515035347659268 -0.010030718884173194 0 0 0 -0.0098889417471435294 -0.054598285872573121 0.0026460717839067657 0 0.0026460717839067657 0.050055350305471022 0 0 0 -0.0011357338917755155 -0.0095904227092997729 0.023544910014495546 0 0.023544910014495546 0.013285892216871709 0 0 0 0.00092386737689320597 -0.0064753528160652607 0.017512280316952733 0 0.017512280316952733 -0.0088090792068786783 0 0 0 -0.0038211080057359847 -0.0056086959629704225 -0.013707940196339224 0 -0.013707940196339224 -0.009037002800605709 0 0 0 -0.0036614246908941439 -0.0078262959067552096 -0.019748821770260605 0 -0.019748821770260605 0.0041091100227217403 0 0 0 -0.00092929647100836732 -0.11620375901544108 0.00021083462846679946 0 0.00021083462846679946 0.027545425233571508 0 0 0 -0.022164583445467401 -0.073429254252220175 -0.019951868616460255 0 -0.019951868616460255 0.008426849761063282 0 0 0 -0.016250601122789241 -0.083779225830946435 -0.020119444386860863 0 -0.020119444386860863 0.008439157005048048 0 0 0 -0.018835017206474569 -0.13401759430404114 0.045959902832771127 0 0.045959902832771127 0.019650180545642382 0 0 0 -0.028591853439599912 -0.11079961001289484 0.045702909495584504 0 0.045702909495584504 0.019905513128218866 0 0 0 -0.022723524221169078 -0.040198029134339237 0.0033232716605808331 0 0.0033232716605808331 -0.011334899055934463 0 0 0 -0.012883232047568423 0.079068685415358386 0.033223393750047542 0 0.033223393750047542 0.033562834526286833 0 0 0 0.028157879985411305 -0.0907880253014198 -0.0088113831639856574 0 -0.0088113831639856574 -0.021266703324429176 0 0 0 -0.028013682156462244 -0.073326611515397586 0.0012967337288871308 0 0.0012967337288871308 -0.013762219212680457 0 0 0 -0.021772207682019512 -0.057569157458170497 -0.013571848217693611 0 -0.013571848217693611 0.03343984337602441 0 0 0 -0.0060323285205365219 -0.055662522649145882 0.0049351243287027481 0 0.0049351243287027481 -0.0087376204593796365 0 0 0 -0.016100035777131382 -0.055501840933443368 -0.012723917881190296 0 -0.012723917881190296 -0.020606713000035127 0 0 0 -0.019027138483369621 -0.13037586306231225 -0.02154686181788109 0 -0.02154686181788109 0.0022674098432756973 0 0 0 -0.032027113304759096 -0.1316276464600796 -0.022140617146786612 0 -0.022140617146786612 -0.0010261683245631759 0 0 0 -0.033163453696160694 -0.01489152123604276 0.035861338162096412 0 0.035861338162096412 0.033144073899130433 0 0 0 0.0045631381657722514 -0.012614311979749715 -0.015619682192239331 0 -0.015619682192239331 0.0001939220893221183 0 0 0 -0.0031050974726070102 -0.0037098025948368238 -0.0031453120678011093 0 -0.0031453120678011093 0.0056104593438608061 0 0 0 0.00047516418725596776 -0.0013964838389630141 0.003594203392756623 0 0.003594203392756623 -0.012679833679588581 0 0 0 -0.0035190793796378572 -0.055428185484177439 0.0019018957522757961 0 0.0019018957522757961 0.001766142966557499 0 0 0 -0.013415510629404994 -0.003482315598200697 -0.0038131820832750796 0 -0.0038131820832750796 0.06767876771945891 0 0 0 0.01604911303031456 -0.002196791943778087 -0.0028462297887413002 0 -0.0028462297887413002 0.12027412321377462 0 0 0 0.029519332817499078 -0.02519811786689713 -0.013709571107707152 0 -0.013709571107707152 0.0039498313006735009 0 0 0 -0.0053120716415558395 -0.086540255309864977 -0.0090718232414141453 0 -0.0090718232414141453 0.010544651296940044 0 0 0 -0.018998901003231233 -0.00042095721957607912 0.00077564218820966313 0 0.00077564218820966313 -0.025642935316038784 0 0 0 -0.0065159731339037852 -0.12971628458135262 -0.029849065491180868 0 -0.029849065491180868 0.0081355430051078814 0 0 0 -0.030395185394061192 -0.036807337421134893 0.004243594851096804 0 0.004243594851096804 0.011273726974408737 0 0 0 -0.0063834026116815299 -0.055007588625519466 -0.028871151768834757 0 -0.028871151768834757 0.024692727550281512 0 0 0 -0.0075787152688095438 -0.052168050324053528 -0.025881454830914252 0 -0.025881454830914252 0.021956514431679897 0 0 0 -0.0075528839730933939 -0.057693182619115102 0.0057221613510566281 0 0.0057221613510566281 -0.00047933610381852357 0 0 0 -0.014543129680733402 -0.072346171431822814 -0.016035787852549416 0 -0.016035787852549416 0.015159096542481709 0 0 0 -0.01429676872233529 -0.063782648715218548 0.0030692577626119325 0 0.0030692577626119325 -0.00089750726315167284 0 0 0 -0.016170038994592566 -0.050598926935354754 -0.014077411118307797 0 -0.014077411118307797 -0.016074849154771524 0 0 0 -0.016668444022531568 -0.090184672079115152 -0.009018907767828932 0 -0.009018907767828932 0.009836331620742822 0 0 0 -0.020087085114593034 -0.15133686420183914 0.016811543998011214 0 0.016811543998011214 0.034616619458485931 0 0 0 -0.029180061185838241 -0.091214489765522697 -0.010134923291687678 0 -0.010134923291687678 -0.020692544595179933 0 0 0 -0.027976758590175649 -0.072019220583232096 0.0023388892767813069 0 0.0023388892767813069 -0.015868655161426399 0 0 0 -0.021971968936164623 -0.066711310136943272 0.0064552983255610503 0 0.0064552983255610503 -0.0031454036152655821 0 0 0 -0.017464178438052202 -0.076064297499602945 -0.020463584122400801 0 -0.020463584122400801 -0.012675251133250486 0 0 0 -0.022184887158213349 -0.035852829630188002 -0.0042572091201636946 0 -0.0042572091201636946 -0.019797083165517242 0 0 0 -0.013912478198926314 -0.010908523325205643 -0.040719826574099782 0 -0.040719826574099782 0.048475155253949576 0 0 0 0.0093916579821859414 -0.018468650847292847 0.006370618162476506 0 0.006370618162476506 -0.012005207075911621 0 0 0 -0.0076184644808011109 -0.014229268506081194 0.021902224386340929 0 0.021902224386340929 -0.003067032910884393 0 0 0 -0.0043240753542415078 -0.016326398112093798 -0.029406280873791824 0 -0.029406280873791824 0.014854037376833773 0 0 0 -0.00036809018381511738 -0.064896384838614013 0.0054245355487410434 0 0.0054245355487410434 -0.0059847107209145822 0 0 0 -0.017720273889882138 -0.069370095064203913 -0.016422961116751577 0 -0.016422961116751577 -0.017759325970292034 0 0 0 -0.021782355258623994 -0.022928969090212952 0.007207106875434478 0 0.007207106875434478 -0.0061131700055313577 0 0 0 -0.0072605347739360775 -0.031883137227336156 -0.032241406712166458 0 -0.032241406712166458 0.033575783054768493 0 0 0 0.00042316145685805662 -0.081856887229522002 0.015547480426978424 0 0.015547480426978424 -0.0016524121937555591 0 0 0 -0.02087732485581939 -0.010439860574602167 -0.016087344738070497 0 -0.016087344738070497 0.041920005046521602 0 0 0 0.0078700361179798173 -0.04575585705872498 -0.031551491105526241 0 -0.031551491105526241 0.0040722723567720998 0 0 0 -0.010420896175488359 -0.058768641701137117 -0.010574868777557461 0 -0.010574868777557461 0.054762893065379625 0 0 0 -0.0010014371589393764 -0.13275727429233738 -0.013386478225508305 0 -0.013386478225508305 -0.0035493953233987768 0 0 0 -0.034076667403934037 -0.091745833225792481 0.0031878230442082666 0 0.0031878230442082666 -0.001907004192811354 0 0 0 -0.023413209354650962 -0.0071802045059856379 0.0089459355854325275 0 0.0089459355854325275 0.0019077695546912132 0 0 0 -0.0013181087378236131 -0.027038091882647899 0.0050113705145088359 0 0.0050113705145088359 -0.0104379698976091 0 0 0 -0.0093690154450642507 -0.05080263206502969 -0.020979084588486865 0 -0.020979084588486865 0.0093653495927107921 0 0 0 -0.010359320618079731 -0.13565298133987724 -0.016384150895041437 0 -0.016384150895041437 -0.0016036992062551346 0 0 0 -0.034314170136533102 -0.094803860154170638 0.0056954847853894243 0 0.0056954847853894243 -0.0007278526595601853 0 0 0 -0.023882928203432692 -0.041387682202164745 0.006928916188438005 0 0.006928916188438005 0.056163692468666149 0 0 0 0.0036940025666253331 -0.02900702907177366 -0.028845454312324603 0 -0.028845454312324603 0.0013416462289197462 0 0 0 -0.006916345710713534 -0.030967385058005004 0.045047178340173077 0 0.045047178340173077 0.003367884188026693 0 0 0 -0.0068998752174942446 -0.083915627395539399 0.001780547180087938 0 0.001780547180087938 0.0085781075144999858 0 0 0 -0.01883437997025985 -0.071261869072084219 -0.0044938286822095996 0 -0.0044938286822095996 0.010914613250501004 0 0 0 -0.015086813955395802 -0.032169784971484885 -0.011649339121060948 0 -0.011649339121060948 0.020947555019091027 0 0 0 -0.0028055574880984681 -0.036062968066707418 -0.012013959404042748 0 -0.012013959404042748 0.029077575560807482 0 0 0 -0.0017463481264750093 -0.046844365119993472 -0.0090420878095339406 0 -0.0090420878095339406 -0.021580045102795167 0 0 0 -0.01710610255569716 -0.044728949456419261 -0.0049852028419215743 0 -0.0049852028419215743 -0.019004831666864279 0 0 0 -0.015933445280820878 -0.050342970973333241 0.0029342667133139596 0 0.0029342667133139596 -0.012132407386033019 0 0 0 -0.015618844589841566 -0.049276342975084243 0.0054923578463608033 0 0.0054923578463608033 -0.011610573587964924 0 0 0 -0.015221729140762291 -0.028983187543524247 -0.0062652509100342701 0 -0.0062652509100342701 -0.0057434479192630672 0 0 0 -0.0086816588656968841 -0.049896385911660117 -0.00011610733896029574 0 -0.00011610733896029574 0.059819921532841339 0 0 0 0.0024808839052953115 -0.015166372734085248 0.0096864683294542071 0 0.0096864683294542071 -0.00063083085466975053 0 0 0 -0.0039493008971887532 -0.024989907130469335 0.04743325282347112 0 0.04743325282347112 0.0097878639738357975 0 0 0 -0.003800510789158551 -0.040782124053971747 -0.029340859446267131 0 -0.029340859446267131 -0.00085600126331675241 0 0 0 -0.010409531329322208 -0.018083357941750311 0.055823004692848732 0 0.055823004692848732 0.0062931408442326031 0 0 0 -0.002947554274379538 -0.010713059672252175 -0.0066769356277477862 0 -0.0066769356277477862 -0.00052133280457015291 0 0 0 -0.0028085981192055853 -0.0044981580799892465 0.002766426323843392 0 0.002766426323843392 0.010539897046012547 0 0 0 0.0015104347415058131 -0.058119841311147113 0.059474773412407589 0 0.059474773412407589 0.00038728310995939097 0 0 0 -0.014433139550297014 -0.037189458682880261 0.061758915226585831 0 0.061758915226585831 0.004423424040035151 0 0 0 -0.0081915086607114995 -0.10083144452649144 -0.0080505402184877471 0 -0.0080505402184877471 -0.012786011555188529 0 0 0 -0.028404364020419987 -0.078640255463240424 0.00058720751444886693 0 0.00058720751444886693 -0.009519865634998315 0 0 0 -0.022040030274559686 -0.028532513433832007 -0.032692770566264379 0 -0.032692770566264379 0.016506604371798073 0 0 0 -0.0030064772655085115 0.0013129590114418499 -0.0032656736150696889 0 -0.0032656736150696889 0.06654569648233144 0 0 0 0.016964663873443253 -0.003585956227208642 -0.00072507320040021694 0 -0.00072507320040021694 0.12450461076291036 0 0 0 0.030229663633925402 -0.050070187980787592 0.0023458821197402963 0 0.0023458821197402963 0.036920917682610188 0 0 0 -0.0032873175745443406 -0.010680840024145197 0.014393663713114659 0 0.014393663713114659 0.0050161486438710101 0 0 0 -0.0014161728450685501 -0.010493287619936176 -0.0020941727467932436 0 -0.0020941727467932436 -0.023577805765293891 0 0 0 -0.0085177733463074889 -0.021619478759680011 -0.0036085589422631126 0 -0.0036085589422631126 -0.027637641770839827 0 0 0 -0.012314280132629973 -0.032656465102237492 -0.012498954949922605 0 -0.012498954949922605 -0.009316239662167547 0 0 0 -0.010493176191101294 -0.023002575665124841 0.017024181317518261 0 0.017024181317518261 -0.0067101629769451554 0 0 0 -0.0074281846605175061 -0.017045943412518666 -0.029642287410165835 0 -0.029642287410165835 0.023969968924180907 0 0 0 0.0017310063779156504 -0.003757595726700147 0.0087590404274639488 0 0.0087590404274639488 0.010874579555523289 0 0 0 0.0017792459572057995 -0.0054830511890033851 -0.012673308712734255 0 -0.012673308712734255 0.041954111855097787 0 0 0 0.0091177651665236281 -0.021232874914239308 0.036595523446027789 0 0.036595523446027789 0.009807621398861599 0 0 0 -0.0028563133788445105 -0.018825624370857108 -0.021885602082617361 0 -0.021885602082617361 -0.0084404056945053263 0 0 0 -0.0068165075163407751 -0.024331096665577208 0.0051998395278424767 0 0.0051998395278424767 -0.010376625231045555 0 0 0 -0.0086769304741556915 -0.02068211159524707 0.007925728992653468 0 0.007925728992653468 -0.0067304102195527363 0 0 0 -0.006853130453699955 -0.023514596928100762 0.041117823109167562 0 0.041117823109167562 0.019889025176873076 0 0 0 -0.00090639293780636621 -0.023433547873147664 -0.022649927047342588 0 -0.022649927047342588 0.00070956470242311553 0 0 0 -0.0056809957926812205 -0.077823490029409206 -0.011249399646033357 0 -0.011249399646033357 -0.020340377457550369 0 0 0 -0.024540966871739886 -0.065811625714657013 0.0036315367435176345 0 0.0036315367435176345 -0.014042986884569647 0 0 0 -0.019963653149806665 0.0021150889173268128 0.064839325989586083 0 0.064839325989586083 0.020964418438240706 0 0 0 0.005769876838891963 -0.11801297087176629 -0.0044228608400292569 0 -0.0044228608400292569 -0.020100005919206368 0 0 0 -0.034528244197743148 -0.087887589862474996 -0.0022240013794507206 0 -0.0022240013794507206 -0.014232356478421634 0 0 0 -0.025529986585224155 -0.033891301673488083 0.014470410898853814 0 0.014470410898853814 -0.0062751500789612891 0 0 0 -0.010041612938112454 -0.01358416966672249 -0.020059872110164689 0 -0.020059872110164689 0.053892816296337909 0 0 0 0.01007716165740391 -0.04701111693570826 -0.0088708652824660006 0 -0.0088708652824660006 0.07347048260254202 0 0 0 0.0066148414167083378 -0.076205321690201583 -0.0036622658599710645 0 -0.0036622658599710645 0.070272812644845861 0 0 0 -0.0014831272613389512 -0.049730319466136597 -0.031088794920466668 0 -0.031088794920466668 0.0092609011261308716 0 0 0 -0.010117354585001403 -0.024252996577506541 -0.022664084170787968 0 -0.022664084170787968 0.0016691835266630095 0 0 0 -0.0056459532627108899 -0.055533234752054295 0.067751792393880628 0 0.067751792393880628 0.017017136344248396 0 0 0 -0.0096290246019514747 -0.10756060168475745 0.042550727283680922 0 0.042550727283680922 0.022312855209392524 0 0 0 -0.021311936618841232 -0.072280196233325877 -0.019025818949348822 0 -0.019025818949348822 0.0094143776393731393 0 0 0 -0.015716454648488143 -0.0019337568770116942 -0.046003421707884129 0 -0.046003421707884129 0.034484695402389187 0 0 0 0.0081377346313444288 -0.01688500785305562 0.0021911952337441143 0 0.0021911952337441143 0.033672896689262377 0 0 0 0.0041969722090516443 -0.021762397435731218 -0.0084108256849741714 0 -0.0084108256849741714 0.064318282463636689 0 0 0 0.010638971256976437 -0.053328404070425245 -0.017433915558825831 0 -0.017433915558825831 0.036871112437303455 0 0 0 -0.0041143229082804683 -0.049103711264577993 -0.012682012305198692 0 -0.012682012305198692 0.035274984975171481 0 0 0 -0.0034571815723516419 -0.030493380067612298 0.020510659523220193 0 0.020510659523220193 0.084766414229895282 0 0 0 0.013568258540570734 -0.014539524859725095 -0.024516387717966284 0 -0.024516387717966284 0.047408254345873979 0 0 0 0.0082171823715371795 -0.015231170125186821 0.034059945140136216 0 0.034059945140136216 0.051026096211704619 0 0 0 0.0089487315216292274 -0.01740175878783945 -0.012978229147882159 0 -0.012978229147882159 -0.0058681809916043548 0 0 0 -0.0058174849448608956 -0.045857016076737742 0.01226541587288426 0 0.01226541587288426 0.050550632185794364 0 0 0 0.0011734040272641522 -0.036864516703290162 -0.0065893916152833243 0 -0.0065893916152833243 0.011819881107509103 0 0 0 -0.0062611588989452995 -0.024098349523104107 -0.0062735672881580884 0 -0.0062735672881580884 -0.022033939564239935 0 0 0 -0.011533072271835948 -0.029381879386438166 0.018680931135477023 0 0.018680931135477023 0.033234782813562715 0 0 0 0.00096322585678113666 -0.028637487960588327 -0.00215020549227292 0 -0.00215020549227292 -0.02013174177274767 0 0 0 -0.012192307433333997 -0.094793905932113287 -0.0087566644794262061 0 -0.0087566644794262061 0.0013254396982689265 0 0 0 -0.023367116558461021 -0.049776633000473296 -0.0083562018086963605 0 -0.0083562018086963605 -0.018901973736672871 0 0 0 -0.017169651684286538 -0.016527519526410923 0.01067569683059753 0 0.01067569683059753 -0.0020480406752895995 0 0 0 -0.0046438900504251306 -0.04298175875985074 0.0095014685183038832 0 0.0095014685183038832 0.07203013687904132 0 0 0 0.00726209452979764 -0.15913570822382006 0.018595005081363001 0 0.018595005081363001 0.0016989006225847092 0 0 0 -0.039359201900308949 -0.027562049388862926 0.0046143509647588368 0 0.0046143509647588368 -0.011884189104072919 0 0 0 -0.0098615596232339599 -0.017951309015519792 0.0013379031483392537 0 0.0013379031483392537 -0.0067274398553620607 0 0 0 -0.0061696872177204598 -0.041627676992952244 -0.018044609810833584 0 -0.018044609810833584 0.0030958537889741039 0 0 0 -0.0096329558009945679 -0.049791880662233001 -0.023501541914262902 0 -0.023501541914262902 -1.3526398537244688e-05 0 0 0 -0.012451351765192575 -0.035501472546898664 -0.0095580429595076479 0 -0.0095580429595076479 -0.017525111946770665 0 0 0 -0.013256646123417341 -0.023560327093545899 0.0037191289456039675 0 0.0037191289456039675 -0.012833452607281731 0 0 0 -0.0090984449252069083 -0.0217947926389301 -0.0031734772608978043 0 -0.0031734772608978043 -0.004213127799759811 0 0 0 -0.0065019801096724873 -0.043336430349537394 -0.020234595891281584 0 -0.020234595891281584 0.011872286505083152 0 0 0 -0.0078660359611135849 -0.018973265096186409 0.0013098598829285046 0 0.0013098598829285046 0.017071024415817315 0 0 0 -0.00047556017009225959 -0.09205852541590262 -0.030367751845030669 0 -0.030367751845030669 -0.0049127598750685619 0 0 0 -0.024242821322742795 -0.0033602064834337975 0.019818976010550937 0 0.019818976010550937 0.10264805918016107 0 0 0 0.024821963174181644 -0.024262490881822973 -0.0094223946440306072 0 -0.0094223946440306072 -0.0037762538298228843 0 0 0 -0.0070096861779114228 -0.021336395656304002 0.0066063151793992018 0 0.0066063151793992018 -0.0091448594985943047 0 0 0 -0.0076203137887245719 -0.018506960845681934 0.0072704305404842889 0 0.0072704305404842889 -0.0091287584014390667 0 0 0 -0.0069089298117802483 -0.025955807067953085 0.01872000067471763 0 0.01872000067471763 0.0026502288870471347 0 0 0 -0.0058263945452265986 -0.023861565538886298 -0.026710432403272394 0 -0.026710432403272394 0.032154315457086025 0 0 0 0.0020731874795498761 -0.021051645461368625 0.012323122677403552 0 0.012323122677403552 0.008364033267107239 0 0 0 -0.0031719030485653464 -0.028438935464982246 0.010374882958028669 0 0.010374882958028669 0.0073647185832421136 0 0 0 -0.005268554220435033 -0.021779670439777857 0.0069951134553911543 0 0.0069951134553911543 -0.0075957812414507719 0 0 0 -0.0073438629203071669 -0.080131616426531299 0.0053543360880050142 0 0.0053543360880050142 -0.0015073653591298267 0 0 0 -0.020409745446415283 -0.047261170380618257 -0.0033879124329574857 0 -0.0033879124329574857 0.01584696704598168 0 0 0 -0.0078535508336591286 -0.031462121185955635 -0.0070986248624215625 0 -0.0070986248624215625 0.018745255400274774 0 0 0 -0.0031792164464202188 -0.088287088249484599 0.0058204175126484424 0 0.0058204175126484424 -0.0035538769290349159 0 0 0 -0.022960241294629865 0.043250330435524537 0.086848865170650935 0 0.086848865170650935 0.060865495762054078 0 0 0 0.02602895654939455 -0.022586379256741118 0.034055342847637948 0 0.034055342847637948 0.00087569490209560286 0 0 0 -0.005427671088662045 -0.02009419669304191 -0.02949184974780978 0 -0.02949184974780978 0.00039954613236403702 0 0 0 -0.0049236626401694128 -0.038066382705063295 0.0020641764936555587 0 0.0020641764936555587 0.0082595384048850251 0 0 0 -0.007451711075044571 -0.025560956985134522 0.0037208117464044995 0 0.0037208117464044995 -0.011283423852712958 0 0 0 -0.0092110952094618705 0.0046764515479553459 -0.0019550941994112975 0 -0.0019550941994112975 0.020238930210603634 0 0 0 0.0062288454396397519 -0.032092560497682637 -0.011648260453045282 0 -0.011648260453045282 -0.0022690953559856286 0 0 0 -0.0085904139634170595 -0.034638831188971736 -0.015901723091860526 0 -0.015901723091860526 -0.013159459528071404 0 0 0 -0.011949572679260806 -0.027766002360146307 0.006805962703332941 0 0.006805962703332941 -0.0011587190973535375 0 0 0 -0.0072311803643749662 -0.077689870256207605 -0.018652604845717458 0 -0.018652604845717458 0.00053344931565790787 0 0 0 -0.019289105235137438 -0.063570380042993258 -0.023826400177549945 0 -0.023826400177549945 0.0052779942459995066 0 0 0 -0.014573096449248479 -0.024769566395523853 0.0016923875392089542 0 0.0016923875392089542 -0.0082612447539781135 0 0 0 -0.0082577027873754899 -0.090969530093892081 0.049828088283247918 0 0.049828088283247918 0.0081310306765285389 0 0 0 -0.020709624854340802 -0.12078174023309596 0.039630356153017687 0 0.039630356153017687 -0.00078104774231402274 0 0 0 -0.030390696993852662 -0.010557220513161103 0.0081828663239678495 0 0.0081828663239678495 0.02506714630897755 0 0 0 0.0036274814489541396 -0.012470770256881814 -0.014133380095226189 0 -0.014133380095226189 0.049092318341768637 0 0 0 0.0091553870212217059 -0.0091542900728629889 -0.017394636114132028 0 -0.017394636114132028 0.0083355046676511224 0 0 0 -0.00020469635130296315 -0.026392448801287605 -0.00033794297809625062 0 -0.00033794297809625062 -0.017482582258435575 0 0 0 -0.010968757764930837 0.017965308009718378 0.042396310963865119 0 0.042396310963865119 0.10433177187300352 0 0 0 0.030574269970680468 -0.029982040725291807 -0.0060337073022125078 0 -0.0060337073022125078 -0.014264289178913916 0 0 0 -0.01106158247605144 -0.043355740540760301 -0.011479190666854266 0 -0.011479190666854266 0.032803354350040032 0 0 0 -0.0026380965476800466 0.035369047782670804 0.030474228514537738 0 0.030474228514537738 0.02107941004305891 0 0 0 0.014112114456432456 -0.038090062046801737 0.0014876379858897086 0 0.0014876379858897086 0.0067628942067375648 0 0 0 -0.0078317919600160383 -0.021006434632654947 0.038480825135035479 0 0.038480825135035479 0.003905606881345669 0 0 0 -0.0042752069378274582 -0.019425075060674202 -0.02470815523524017 0 -0.02470815523524017 0.00053864907647760418 0 0 0 -0.004721606496048858 -0.036945011531469694 0.0028493827240556979 0 0.0028493827240556979 -0.0041323055981617165 0 0 0 -0.010269329282407853 -0.063458025632118942 -0.015648002318271053 0 -0.015648002318271053 0.055966188784212056 0 0 0 -0.0018729592119767213 -0.020575277494113808 0.030866521430354066 0 0.030866521430354066 0.057773927344124676 0 0 0 0.0092996624625026891 -0.018802692710154778 -0.012379919283025509 0 -0.012379919283025509 0.0016728440251152499 0 0 0 -0.0042824621712598265 -0.12734461270986053 0.002205192255192545 0 0.002205192255192545 0.0011874858211090022 0 0 0 -0.031539281722187895 -0.22528755587159241 -0.0077191095720800995 0 -0.0077191095720800995 0.0018813670832911189 0 0 0 -0.055851547197075246 -0.028143110000848459 0.020748229767891646 0 0.020748229767891646 0.097887507425366893 0 0 0 0.017436099356129664 -0.067253831998637936 0.0076330739971241408 0 0.0076330739971241408 -0.00025780425824242781 0 0 0 -0.016877909064220105 0.014989982903505587 -0.00087286161711019883 0 -0.00087286161711019883 0.053963114593745282 0 0 0 0.017238274374312662 0.0081767634931182442 0.0024760898122973551 0 0.0024760898122973551 0.07421612276287104 0 0 0 0.020598221563997321 0.007024402194127588 -0.0047635807659531793 0 -0.0047635807659531793 0.14015569836462749 0 0 0 0.036795025139688797 0.020582450793621421 -0.0020208205908466281 0 -0.0020208205908466281 0.11549846926886298 0 0 0 0.0340202300156211 -0.016548943874361843 0.0089472977701036682 0 0.0089472977701036682 -0.0024728598400135804 0 0 0 -0.0047554509285938629 -0.017562790057548794 -0.015902736306828286 0 -0.015902736306828286 0.0143724581468474 0 0 0 -0.00079758297767534847 -0.016423776562070974 0.0037844936364658244 0 0.0037844936364658244 0.10086015036619628 0 0 0 0.021109093451031374 -0.015982370961968806 -0.010111514928605347 0 -0.010111514928605347 0.049217962109143421 0 0 0 0.0083088977867936675 -0.067549103727296972 0.0050050652090404615 0 0.0050050652090404615 0.04741313087828794 0 0 0 -0.0050339932122522718 -0.0036399818733703349 0.027355501000768223 0 0.027355501000768223 0.038164085043050022 0 0 0 0.0086310257924200329 -0.008658893073227425 0.0088792259112435157 0 0.0088792259112435157 -0.0032783078547629074 0 0 0 -0.002984300231997139 -0.006711904680836045 -0.0073662859553519366 0 -0.0073662859553519366 -0.0033455545810716636 0 0 0 -0.0025143648154768439 -0.0061037746181440422 -0.023274515008325641 0 -0.023274515008325641 0.014849833481436647 0 0 0 0.0021865147158230958 -0.030599432603768247 0.0058996838980665918 0 0.0058996838980665918 -0.0018986587469815887 0 0 0 -0.0081245228376874649 -0.016867202291203948 0.026959740920289743 0 0.026959740920289743 0.051618108509172089 0 0 0 0.0086877265544924864 -0.0041166242175783574 -0.0064801359415174176 0 -0.0064801359415174176 -0.002518129135571423 0 0 0 -0.0016586883382872508 -0.050999521667606046 -0.0054590257347890744 0 -0.0054590257347890744 0.07108188446583838 0 0 0 0.0050205906995580965 -0.0050024127329448831 0.0079957709936633314 0 0.0079957709936633314 -0.0034009685247315957 0 0 0 -0.0021008453144188977 -0.015176577999225005 -0.023841824478304519 0 -0.023841824478304519 0.026191874742407695 0 0 0 0.002753824185795839 -0.0095133645303814296 -0.025678274742146845 0 -0.025678274742146845 0.020129396858719173 0 0 0 0.0026540080820844358 -0.045221633152373181 -0.021659587981803577 0 -0.021659587981803577 0.0065430138015319383 0 0 0 -0.0096696548377103453 -0.044609970088037867 -0.020533440395098648 0 -0.020533440395098648 0.0077057340404104169 0 0 0 -0.0092260590119068314 -0.030327789190822695 -0.0094476267990762763 0 -0.0094476267990762763 -0.0094759691727822754 0 0 0 -0.0099509395909012626 -0.024079507789952659 0.074058162008921125 0 0.074058162008921125 0.017463567792410983 0 0 0 -0.0016539849993853495 -0.074542827466150763 -0.0085849563394908013 0 -0.0085849563394908013 -0.00035402643154680558 0 0 0 -0.018724213474424489 0.012571861986618693 -0.017873637743098025 0 -0.017873637743098025 0.037023747033928453 0 0 0 0.01239890225513679 -0.022648363102286684 -0.0088579621555765486 0 -0.0088579621555765486 0.023651888140638927 0 0 0 0.00025088125958805385 -0.012468561952339925 0.020462303745127156 0 0.020462303745127156 0.018728236418662655 0 0 0 0.0015649186165806704 -0.028394537629626626 -0.010232272853313892 0 -0.010232272853313892 -0.014861964760247037 0 0 0 -0.010814125597468471 -0.03051452662905596 -0.011336158313555465 0 -0.011336158313555465 -0.017022611600826298 0 0 0 -0.011884284557470592 -0.25088535279599761 0.0054326953587258012 0 0.0054326953587258012 0.0070993578617650765 0 0 0 -0.060946498733558119 -0.13402604474876284 -0.002514169702552119 0 -0.002514169702552119 0.0031064792417510034 0 0 0 -0.032729891376752945 -0.035182414591989286 -0.0045803390942769431 0 -0.0045803390942769431 -0.011729407054097273 0 0 0 -0.011727955411521641 -0.041097714141043212 0.0047352053061365668 0 0.0047352053061365668 -0.013698889739804276 0 0 0 -0.013699150970211868 -0.0051071886460416563 0.0069358330678332414 0 0.0069358330678332414 0.0063749818189849927 0 0 0 0.00031694829323584278 -0.021855818384137235 0.017843605843939452 0 0.017843605843939452 0.021729898741969705 0 0 0 -3.1479910541885869e-05 -0.015866175290546312 0.01266312026991924 0 0.01266312026991924 0.0045378501127277121 0 0 0 -0.0028320812944546605 -0.11950380047941617 -0.014264871325656016 0 -0.014264871325656016 -0.011090381444757475 0 0 0 -0.032648545481043435 -0.088126907672574875 0.0032542762412196835 0 0.0032542762412196835 -0.0058422799149123808 0 0 0 -0.023492296896871823 0.045506323149729466 0.035520162665814592 0 0.035520162665814592 0.026785055091863796 0 0 0 0.018072844560398593 -0.09977181876653235 -0.013316539099805274 0 -0.013316539099805274 -0.0066492196652716447 0 0 0 -0.026605259607950994 -0.078521624378107807 0.0031411432690887295 0 0.0031411432690887295 -0.0039002170808550701 0 0 0 -0.020605460364740719 -0.03416443281739262 -0.0038632891271557571 0 -0.0038632891271557571 -0.0053210293500121075 0 0 0 -0.0098713655418511959 0.03534055557302973 0.10069411452802357 0 0.10069411452802357 0.062730607305805597 0 0 0 0.024517790719708832 -0.0087118019678154961 0.010119353645326748 0 0.010119353645326748 -0.0024273402263986221 0 0 0 -0.0027847855485535374 -0.02969393750769303 -0.0081066363578895517 0 -0.0081066363578895517 0.013898772730036146 0 0 0 -0.0039487911944141862 -0.062477964926118644 -0.0079776620713000422 0 -0.0079776620713000422 -0.02082190596482723 0 0 0 -0.020824967722736464 -0.05743609230217777 0.0033100873233050166 0 0.0033100873233050166 -0.019141319445229066 0 0 0 -0.019144352936851707 -0.11464020990927926 0.0037424285349559653 0 0.0037424285349559653 -0.00057767590659760226 0 0 0 -0.028804471453969215 -0.18601276912443454 -0.010114012223739172 0 -0.010114012223739172 -0.0011656346269573459 0 0 0 -0.046794600937847999 -0.068273636087361311 -0.011084228426343296 0 -0.011084228426343296 0.024753920122438822 0 0 0 -0.010879928991230692 0.0095651039327401821 -0.016489376912248332 0 -0.016489376912248332 0.026022707105378906 0 0 0 0.0088969527595296749 -0.059076060127902064 -0.011275689103133535 0 -0.011275689103133535 0.052998888024276866 0 0 0 -0.0015192930259063098 -0.028778418309364277 0.013862719755890842 0 0.013862719755890842 0.031139200841193773 0 0 0 0.00059019563295737744 -0.039682823955197802 0.0084337987731833413 0 0.0084337987731833413 0.035519177689355058 0 0 0 -0.0010409115664606885 0.0019497579373134628 0.020467862198605427 0 0.020467862198605427 0.031026650374611262 0 0 0 0.0082441020779811976 0.013918923705504519 0.016410064416190293 0 0.016410064416190293 0.017401900591572907 0 0 0 0.0078302060742693642 -0.019522525399103818 -0.012183272362215947 0 -0.012183272362215947 -0.016557536932108152 0 0 0 -0.0090200155828029649 -0.056923187573859335 -0.016900526640634045 0 -0.016900526640634045 0.026157917356682353 0 0 0 -0.007691317554294308 -0.065247003713522753 -0.030387181330860449 0 -0.030387181330860449 0.06298219241158956 0 0 0 -0.00056620282548329459 -0.016336773931872682 -0.051696587580627923 0 -0.051696587580627923 0.10149246649489313 0 0 0 0.021288923140755096 -0.10852709761897275 0.0033701147454029065 0 0.0033701147454029065 -0.00068209599037361013 0 0 0 -0.027302298402336611 -0.16830177745557742 -0.0086378333826101182 0 -0.0086378333826101182 -0.00143333346275068 0 0 0 -0.042433777729582012 -0.0012528188606847649 -0.0018409508780929951 0 -0.0018409508780929951 -0.016831113761332485 0 0 0 -0.0045209831555043404 -0.01669785226720244 -0.026907040528938997 0 -0.026907040528938997 0.07761287871115885 0 0 0 0.015228756610989103 -0.018169533371346632 0.01109210275401973 0 0.01109210275401973 -0.0026309838417210331 0 0 0 -0.0052001293032669189 -0.095498177886369981 -0.012996366389380308 0 -0.012996366389380308 -0.014612358906983085 0 0 0 -0.027527634198338268 -0.0754578794875225 0.0032846728600533738 0 0.0032846728600533738 -0.0088827162377917573 0 0 0 -0.021085148931328557 -0.039049837049023761 0.002409379602657052 0 0.002409379602657052 -0.0049321125628933706 0 0 0 -0.010995487402979282 -0.05915881446522437 -0.0074646990263701057 0 -0.0074646990263701057 0.057624747426733479 0 0 0 -0.00038351675962269155 -0.021387640238637207 -0.012398567789539239 0 -0.012398567789539239 0.02650075979445099 0 0 0 0.0012782798889535152 -0.040985923532405627 0.0043034121310447032 0 0.0043034121310447032 -0.0027975272079896491 0 0 0 -0.010945862685098826 -0.059779072419926194 0.015419118551194932 0 0.015419118551194932 0.00058323066521381861 0 0 0 -0.014798960438677899 -0.016929057316715457 -0.019689639115519464 0 -0.019689639115519464 0.04653457657818838 0 0 0 0.0074013798153682586 -0.010417352782023825 -0.017762071307649396 0 -0.017762071307649396 0.039496664121154823 0 0 0 0.0072698278347828049 -0.042182714864870338 -0.025949117559820156 0 -0.025949117559820156 0.038218256889873459 0 0 0 -0.00099111449374922334 -0.044152103373388166 -0.015248543178376289 0 -0.015248543178376289 0.029956528888066658 0 0 0 -0.0035488936213304012 -0.039255330683985887 -0.0024584776979064294 0 -0.0024584776979064294 0.024646260791651928 0 0 0 -0.003652267473083495 -0.057070375737265082 -0.0080820978990193623 0 -0.0080820978990193623 0.054568837484116881 0 0 0 -0.00062538456328706249 2.3105715151183759e-05 0.023147352135676424 0 0.023147352135676424 0.11715347927515651 0 0 0 0.029294146247576647 0.00022096866256371417 0.00034987861983659663 0 0.00034987861983659663 0.00084110052218244746 0 0 0 0.00026551729618617959 -0.003087475751435087 -0.019064660070115202 0 -0.019064660070115202 0.061730277854009197 0 0 0 0.0146607005256435 0.00049326172640051791 -0.00078744314021506057 0 -0.00078744314021506057 0.0010404318980414828 0 0 0 0.0003834234061103059 -0.039684643834730596 0.0016796026498514249 0 0.0016796026498514249 0.026653536562371124 0 0 0 -0.0032577768180898706 -0.041448879473231968 -0.0012594830506502794 0 -0.0012594830506502794 0.017225988221925968 0 0 0 -0.0060557228128265113 -0.038773959348276772 -0.011726325148323745 0 -0.011726325148323745 0.024419363879525008 0 0 0 -0.0035886488671879324 -0.14820417741904612 -0.014370042641209259 0 -0.014370042641209259 0.0020610483953257819 0 0 0 -0.036535782255930085 -0.1708410457241738 -0.02199936939189194 0 -0.02199936939189194 0.0027174032583851537 0 0 0 -0.042030910616447162 -0.035514848060647489 -0.022749379601851548 0 -0.022749379601851548 -0.00039895152883555329 0 0 0 -0.0089784498973707605 -0.049040256335526396 -0.0019392030130622913 0 -0.0019392030130622913 0.0067178983706272649 0 0 0 -0.010580589491224791 -0.019776547959999703 -0.035138197795665876 0 -0.035138197795665876 0.056416338520139858 0 0 0 0.0091599476400350335 -0.073179779942703485 0.0042270662898060496 0 0.0042270662898060496 -0.007792999687498533 0 0 0 -0.020243194907550513 -0.062822013596447748 0.0036914065915482929 0 0.0036914065915482929 -0.010154976179556359 0 0 0 -0.018244247444001029 -0.068967342389952571 -0.012206451034766766 0 -0.012206451034766766 -0.017336561922949682 0 0 0 -0.021575976078225558 -0.089462795952291618 -0.014647839148697982 0 -0.014647839148697982 -0.016365358139973394 0 0 0 -0.026457038523066266 -0.060859128702072995 -0.023350236024127169 0 -0.023350236024127169 0.00051564715830654251 0 0 0 -0.015085870385941669 -0.047857619029150755 -0.024449596779663116 0 -0.024449596779663116 0.0015672421373591483 0 0 0 -0.011572594222947985 -0.037715088216944394 -0.0039481342591529307 0 -0.0039481342591529307 -0.018802438369220392 0 0 0 -0.014129381646541197 -0.036274682007658807 -0.0052576536947892992 0 -0.0052576536947892992 -0.01896693190080765 0 0 0 -0.013810403477116618 -0.041286805826142074 0.0057385840330913549 0 0.0057385840330913549 -0.010778618765793125 0 0 0 -0.013016356147983802 -0.044542661971545841 0.0035424484902476464 0 0.0035424484902476464 -0.014144209880306065 0 0 0 -0.014671717962962981 -0.02639899301823645 0.042372436275817771 0 0.042372436275817771 0.0087912910077694306 0 0 0 -0.0044019255026164217 -0.026809540449289626 -0.027179377470591515 0 -0.027179377470591515 -0.0037154281091873465 0 0 0 -0.0076312421396191876 -0.056927197902524082 0.0025008893892501829 0 0.0025008893892501829 -0.0081106680314585091 0 0 0 -0.01625946648349565 -0.049047229569564962 -0.0094754817848563856 0 -0.0094754817848563856 -0.017461240370306004 0 0 0 -0.016627117484967733 -0.038299270387398256 -0.0062167240251623235 0 -0.0062167240251623235 0.011981459266491606 0 0 0 -0.0065794527802266675 -0.066650410883490427 0.00357681767455258 0 0.00357681767455258 -0.0058599301879700043 0 0 0 -0.01812758526786511 -0.073326061522949834 -0.013888111024933484 0 -0.013888111024933484 -0.011385420195185883 0 0 0 -0.021177870429533938 -0.085883502248832427 -0.014776257811954074 0 -0.014776257811954074 0.09779383268935074 0 0 0 0.0029775826101295783 -0.042617536069256688 -0.003480063584518852 0 -0.003480063584518852 0.013521514333891094 0 0 0 -0.0072740054338413986 -0.078338375143160013 -0.0072299745199938207 0 -0.0072299745199938207 -0.02612355061995977 0 0 0 -0.02611548144077995 -0.065727686741773941 0.0015817475352082745 0 0.0015817475352082745 -0.021914842661588947 0 0 0 -0.02191063235084072 0.018074722854304628 0.012718746553656506 0 0.012718746553656506 0.034295977523695953 0 0 0 0.013092675094500128 -0.0070096836154251996 -0.0018720690445179489 0 -0.0018720690445179489 -0.029152625829070855 0 0 0 -0.0090405773611239026 -0.058328159878989878 0.0011736876932312706 0 0.0011736876932312706 0.0092324525237166277 0 0 0 -0.012273926838818283 0.003416313506558355 -0.02799355734287029 0 -0.02799355734287029 0.019061944789376617 0 0 0 0.0056195645739838263 -0.040527694047361583 0.0032471123715267437 0 0.0032471123715267437 0.026898497199826871 0 0 0 -0.0034072992118836837 -0.047727938444081991 -0.0094623296819935712 0 -0.0094623296819935712 0.029145880404921075 0 0 0 -0.0046455145097902308 -0.14061944851825714 -0.0038659670829692318 0 -0.0038659670829692318 -0.010918357455711044 0 0 0 -0.037884451493492038 -0.1006625093104758 -0.0024393931828296175 0 -0.0024393931828296175 -0.0081063674620418941 0 0 0 -0.027192219193129412 -0.013391059139148828 -0.017947251879053105 0 -0.017947251879053105 0.035182580694166993 0 0 0 0.0054478803887545585 -0.034735803550653137 0.0082580549863599736 0 0.0082580549863599736 0.017453897358281529 0 0 0 -0.0043204765480929158 -0.042180517014335464 -0.0045909663272893642 0 -0.0045909663272893642 0.0084128103140893896 0 0 0 -0.0084419266750615351 -0.085150509087234205 0.00039635712725760025 0 0.00039635712725760025 0.0052666714450246843 0 0 0 -0.01997095941055238 -0.089301779870646358 0.017687468965196462 0 0.017687468965196462 0.00075563962125135831 0 0 0 -0.022136535062349028 -0.047062643477404922 -0.0037655949656203447 0 -0.0037655949656203447 0.025683560532474947 0 0 0 -0.0053447707362324903 -0.046812484302884053 -0.018784410794384962 0 -0.018784410794384962 0.013554208165758586 0 0 0 -0.0083145690342813633 -0.045745332277597223 -0.00081199890128658136 0 -0.00081199890128658136 0.0095289200428096688 0 0 0 -0.0090541030586968885 -0.032929682447673247 0.0075222311615855599 0 0.0075222311615855599 0.02220397708042797 0 0 0 -0.0026814263418113169 -0.050998738643886578 -0.021393314059358987 0 -0.021393314059358987 0.014129254477993014 0 0 0 -0.0092173710414733892 0.045977910442606088 0.016757008987725197 0 0.016757008987725197 0.088891475221898442 0 0 0 0.033717346416126129 -0.052063999610761816 0.0037692842219594451 0 0.0037692842219594451 0.0037870077004953651 0 0 0 -0.01206924797756663 -0.050582995717090018 0.012680313477425011 0 0.012680313477425011 -0.0027332814556970675 0 0 0 -0.013329069293196882 -0.015840661946046886 -0.01648858255662744 0 -0.01648858255662744 0.051376090680637532 0 0 0 0.0088838571836475921 -0.0029863514858303741 -0.014828578589471619 0 -0.014828578589471619 0.035788860230224095 0 0 0 0.0082006271860984303 -0.1141961228284309 -0.023413576938476621 0 -0.023413576938476621 0.030852944290989465 0 0 0 -0.020835794634360263 -0.0017054766635711156 -0.014598370382504632 0 -0.014598370382504632 -0.013949175545178452 0 0 0 -0.0039136630521874084 -0.10944514139958178 0.0058809360905756614 0 0.0058809360905756614 0.0019751078762298424 0 0 0 -0.026867508380837943 -0.18496172989705612 -0.020258984469525787 0 -0.020258984469525787 0.0055187894478385194 0 0 0 -0.044860735112304442 -0.106104636772218 7.9909978394021586e-05 0 7.9909978394021586e-05 0.00030963509161265057 0 0 0 -0.026448750420151337 -0.18252480578942512 -0.0042991103914970796 0 -0.0042991103914970796 0.0022948008095921013 0 0 0 -0.045057501244958248 -0.0872983606906889 -0.0022519639045708588 0 -0.0022519639045708588 -0.011794181046723133 0 0 0 -0.024773135434353014 -0.11770909608127551 -0.0032255539089359633 0 -0.0032255539089359633 -0.01496370750430067 0 0 0 -0.033168200896394044 -0.050000084756586301 -0.013124106462575523 0 -0.013124106462575523 0.039117235394952932 0 0 0 -0.0027207123404083405 -0.045950747782091655 -0.021527524426944042 0 -0.021527524426944042 0.049909454014838983 0 0 0 0.00098967655818682498 -0.015562979144016664 -0.003427435034401044 0 -0.003427435034401044 0.056414826937997598 0 0 0 0.010212961948495247 -0.0092342504514015267 -0.0011355217845729904 0 -0.0011355217845729904 0.11078490665030166 0 0 0 0.025387664049724978 -0.021506872873065588 0.0054776014939676293 0 0.0054776014939676293 0.034751513060410882 0 0 0 0.0033111600468363339 -0.015530222975753433 0.0016935023876072375 0 0.0016935023876072375 0.095631373446791679 0 0 0 0.020025287617759541 -0.026202983826497495 -0.0091313211062056809 0 -0.0091313211062056809 0.04823482788564748 0 0 0 0.0055079610147875102 -0.0464585633499442 -0.00047392913914371532 0 -0.00047392913914371532 0.010374188602139825 0 0 0 -0.0090210936869510767 -0.030809348327367703 -0.021333052136754592 0 -0.021333052136754592 0.041442251372266758 0 0 0 0.0026582257612247639 -0.048091743407810653 -0.023006611968350608 0 -0.023006611968350608 0.037094813352487932 0 0 0 -0.0027492325138306628 -0.044459767216260847 -0.00081355538966723108 0 -0.00081355538966723108 0.048835724374867551 0 0 0 0.0010939892896516821 -0.1221819613375148 0.016994843588686977 0 0.016994843588686977 -0.0017002852418626091 0 0 0 -0.030970561644844352 -0.057296278111605925 -0.0074482790003667296 0 -0.0074482790003667296 0.050921412195562746 0 0 0 -0.0015937164790107775 0.0035667446923110802 -0.013061845847815889 0 -0.013061845847815889 0.14464038167648963 0 0 0 0.037051781592200184 0.051584123582077313 -0.017471936654960416 0 -0.017471936654960416 0.076560071330794566 0 0 0 0.032036048728217942 0.0093778067281007904 -0.014945967666993409 0 -0.014945967666993409 0.029989437694093679 0 0 0 0.0098418111055487145 -0.20302495983840221 -0.015429557449047615 0 -0.015429557449047615 0.0048762602154516221 0 0 0 -0.049537174905737585 -0.11595278426357244 0.0052801766005062811 0 0.0052801766005062811 0.001517315982054096 0 0 0 -0.028608867070379546 -0.058819977908369132 -0.006892555603863224 0 -0.006892555603863224 0.054749476162776298 0 0 0 -0.0010176254363981965 -0.076300278544866762 0.040462548153363587 0 0.040462548153363587 -0.0066279785045022521 0 0 0 -0.020732064262341865 -0.053583577798827386 0.038972557493952564 0 0.038972557493952564 0.00094425507751028093 0 0 0 -0.013159830680329332 -0.027536560117438436 -0.030840268983208574 0 -0.030840268983208574 0.017572505842939012 0 0 0 -0.0024910135686250223 -0.019862017233191392 -0.027891633783100334 0 -0.027891633783100334 0.020130686804355504 0 0 0 6.7167392791083055e-05 -0.02407327913272006 -0.018742914220965634 0 -0.018742914220965634 0.057800896061625862 0 0 0 0.0084319042322265059 -0.021037533873718761 0.0096749511614654254 0 0.0096749511614654254 0.00058205534249378132 0 0 0 -0.005113869632806356 -0.055675951340069606 0.0038540260917910517 0 0.0038540260917910517 -0.0085378473445113286 0 0 0 -0.016053449671145231 -0.054063998877201355 -0.0075149896689177586 0 -0.0075149896689177586 -0.016921277305675626 0 0 0 -0.017746319045719251 -0.030653437314823118 -0.034280843139959272 0 -0.034280843139959272 0.0081995465410788504 0 0 0 -0.0056134726934360946 -0.030819402749663327 -0.032827074049683602 0 -0.032827074049683602 0.0082869247150600955 0 0 0 -0.0056331195086508634 -0.034259153202963716 -0.032403043255869846 0 -0.032403043255869846 0.0050588982577760566 0 0 0 -0.0073000637362969079 -0.035518420228751957 -0.035108332858258429 0 -0.035108332858258429 0.0060179270111400118 0 0 0 -0.0073751233044029307 -0.04886241677514222 0.051164531132668056 0 0.051164531132668056 -0.0043636146980340351 0 0 0 -0.01330650786829421 -0.037945094578940915 0.04725361693809127 0 0.04725361693809127 -0.0026916133903175637 0 0 0 -0.010159176992314509 -0.060741350882217389 0.004978688512232857 0 0.004978688512232857 -0.015732497389560056 0 0 0 -0.019118462067944358 -0.071309385434376954 -0.012712057948405409 0 -0.012712057948405409 -0.021822757186384396 0 0 0 -0.02328303565519034 -0.097791407146321785 -0.012247117934214097 0 -0.012247117934214097 0.0080962218124287499 0 0 0 -0.022423796333473273 -0.16813401272513795 0.026679466977118899 0 0.026679466977118899 0.012179898052710358 0 0 0 -0.038988528668106814 -0.082558479545892002 0.0083585488177079087 0 0.0083585488177079087 0.0018186629828163825 0 0 0 -0.020184954140768915 -0.031723724179391254 0.0074782288877027498 0 0.0074782288877027498 0.0085519802260223526 0 0 0 -0.0057929359883422205 -0.0060834560400137017 -0.012252979496684635 0 -0.012252979496684635 -0.012096098157707957 0 0 0 -0.0045448885494304703 -0.12889345468082619 -0.021466198977009902 0 -0.021466198977009902 0.0015535691510377703 0 0 0 -0.031834971382447091 -0.16584986402217136 -0.017915801293826351 0 -0.017915801293826351 -0.0033065439341296576 0 0 0 -0.042289101989075276 -0.022412833777119168 0.00082533964240609947 0 0.00082533964240609947 -0.016509836673429361 0 0 0 -0.0097306676126371304 -0.037517651027837592 0.0079323101921371653 0 0.0079323101921371653 0.067125449093513201 0 0 0 0.0074019495164188709 -0.115871171356042 -0.0019439500022361 0 -0.0019439500022361 0.00016187871231870821 0 0 0 -0.028927323160930857 -0.20855521363161661 0.0028472147415035121 0 0.0028472147415035121 -5.0672569196552608e-05 0 0 0 -0.052151471550203221 -0.067792166011110516 -0.0064304604160106416 0 -0.0064304604160106416 0.0088885526118657465 0 0 0 -0.014725903349811255 -0.099225099049825266 -0.019161924845860778 0 -0.019161924845860778 -0.012055951243657104 0 0 0 -0.027820262573370613 -0.074777944894195827 -0.018550855118009357 0 -0.018550855118009357 -0.0082458263956693163 0 0 0 -0.020755942822466303 -0.0045009199570605896 0.085826124832610678 0 0.085826124832610678 0.1671812234606902 0 0 0 0.040670075875907541 -0.15517164284727805 -0.0079432362133606688 0 -0.0079432362133606688 0.00012545365055487145 0 0 0 -0.038761547299180771 -0.10086745240970901 0.003122917402842651 0 0.003122917402842651 0.00042899638541042673 0 0 0 -0.02510961400607465 -0.030880503980076857 -0.012482680624593484 0 -0.012482680624593484 -0.01482726817893254 0 0 0 -0.01142694303975228 -0.034109512203599757 -0.012892229495293298 0 -0.012892229495293298 -0.01152997713378523 0 0 0 -0.01140987233434626 -0.037608938958589848 0.0067654204051138186 0 0.0067654204051138186 0.038537185000564272 0 0 0 0.00023206151049360484 -0.033973873173322823 -0.01080166266482783 0 -0.01080166266482783 0.0035589192880096931 0 0 0 -0.0076037384713282669 -0.020368064342607448 0.014609782014465889 0 0.014609782014465889 0.0061463866002305703 0 0 0 -0.0035554194355942193 -0.010848021018396881 0.024348040954866146 0 0.024348040954866146 0.15499313070603149 0 0 0 0.036036277421908625 -0.081785818426005463 0.0072062073937666921 0 0.0072062073937666921 0.0031881046919129893 0 0 0 -0.019649428433523183 -0.042272084947246262 -0.0019766487748732204 0 -0.0019766487748732204 0.006948846026060114 0 0 0 -0.008830809730296537 0.050526905379774778 0.016142893475912773 0 0.016142893475912773 0.059977199537961212 0 0 0 0.027626026229433887 -0.070469897358282935 -0.01039338900532627 0 -0.01039338900532627 -0.0027779920057142415 0 0 0 -0.018311972340999266 -0.24962830814061046 -0.00098278434643400692 0 -0.00098278434643400692 -0.0003387441591190532 0 0 0 -0.062491763074932372 -0.13507230199008863 -0.00059716481897675346 0 -0.00059716481897675346 -0.00042325820752942001 0 0 0 -0.033873890049404498 -0.05659229156616654 -0.0021796185136374602 0 -0.0021796185136374602 0.062333803928709353 0 0 0 0.0014353780906356875 -0.10007283595838379 -0.015348219864350712 0 -0.015348219864350712 -0.0065131430653585787 0 0 0 -0.026646494755935588 -0.11915745052799666 -0.021539105986845969 0 -0.021539105986845969 -0.0035900516598890431 0 0 0 -0.030686875546971415 0.019910177626558001 0.02496654791672432 0 0.02496654791672432 0.03490686473607843 0 0 0 0.013704260590659101 -0.047708321453221458 -0.01137497856900542 0 -0.01137497856900542 -0.00077063696217427591 0 0 0 -0.012119739603848823 -0.041729774197286185 -0.016213311741815728 0 -0.016213311741815728 0.011471106339472431 0 0 0 -0.0075646669644534592 -0.013632695900738234 0.020654024733245051 0 0.020654024733245051 0.11117589502555081 0 0 0 0.024385799781202699 -0.016909634442907828 -0.0064289521876183739 0 -0.0064289521876183739 0.0013378707763984643 0 0 0 -0.0038929409166272855 -0.056400196786271395 -0.027813540896408612 0 -0.027813540896408612 0.035895641614260732 0 0 0 -0.0051261387930026797 -0.032701845455189366 -0.01110923192789294 0 -0.01110923192789294 0.044202050002602522 0 0 0 0.0028750511368532405 -0.048076511251907109 -0.0036140394362705608 0 -0.0036140394362705608 0.015612847341507585 0 0 0 -0.0081159159775998774 -0.04233034667164981 0.011315217941085365 0 0.011315217941085365 -0.0013796975096003194 0 0 0 -0.010927511045312865 -0.015238426459950105 -0.019598671180698801 0 -0.019598671180698801 0.058415286985120662 0 0 0 0.010794215131292528 -0.051180670170217435 0.0031851238432910644 0 0.0031851238432910644 -0.0024633277484283414 0 0 0 -0.013410999479661446 0.0021324642260811821 -0.0018473974332436915 0 -0.0018473974332436915 0.050708669708984022 0 0 0 0.013210283483766266 -0.09527078645913957 0.0052681220320935666 0 0.0052681220320935666 0.00033126813361206153 0 0 0 -0.023734879581381832 -0.07392058399392723 -0.019302063086514651 0 -0.019302063086514651 0.026100311066504456 0 0 0 -0.011955068231855603 -0.079468069230273428 0.0067552142738692769 0 0.0067552142738692769 -0.0029309501579097563 0 0 0 -0.020599754847045793 -0.075061443315453391 -0.010462674825342577 0 -0.010462674825342577 0.0015239294947533288 0 0 0 -0.018384378455175043 -0.10285186673466921 0.0044246020631891758 0 0.0044246020631891758 -0.00073120217758332329 0 0 0 -0.025895767228063138 -0.091553290097839468 0.0058394958745058775 0 0.0058394958745058775 0.00026338329329460286 0 0 0 -0.022822476701136206 -0.082542799069432404 0.051428696382543659 0 0.051428696382543659 -0.0012956528360672515 0 0 0 -0.020959612976374831 -0.05506577816427833 -0.0060754393025409872 0 -0.0060754393025409872 -0.019509450155019835 0 0 0 -0.018643807079824541 -0.061803294891901797 -0.01289190815741488 0 -0.01289190815741488 -0.019898984820145602 0 0 0 -0.020425569928011846 -0.057166441579595426 0.0055427023328573233 0 0.0055427023328573233 -0.012253561129212406 0 0 0 -0.01735500067720196 -0.054748366104417738 0.0026271943467474062 0 0.0026271943467474062 -0.014626614725058324 0 0 0 -0.017343745207369012 -0.040505117968664954 -0.0094060115839903549 0 -0.0094060115839903549 0.020485875591951919 0 0 0 -0.0050048105941782536 -0.032255764426231438 -0.034062468003356661 0 -0.034062468003356661 0.052485961977990686 0 0 0 0.0050575493879398328 -0.046909812285441659 -0.023686196077132363 0 -0.023686196077132363 0.020046700245113954 0 0 0 -0.0067157780100819322 -0.04942379379460049 -0.015172206941185151 0 -0.015172206941185151 0.036528528673048677 0 0 0 -0.0032238162803879256 -0.045053981646016997 -0.019244068417416244 0 -0.019244068417416244 0.018635186528741021 0 0 0 -0.0066046987793190459 -0.031711551352062051 -0.0019985642573866445 0 -0.0019985642573866445 0.048703279717015158 0 0 0 0.0042479320912383045 -0.032403067592552015 -0.010000083112376768 0 -0.010000083112376768 0.024446307933019051 0 0 0 -0.0019891899148831993 -0.13782605838170781 0.0017223285174984961 0 0.0017223285174984961 0.00068078090372969413 0 0 0 -0.034286319369494611 -0.26056875007327251 -0.0048855916015030105 0 -0.0048855916015030105 0.0042011185561432463 0 0 0 -0.064091907879282428 -0.022023478086958023 -0.0096748024465398846 0 -0.0096748024465398846 0.026367227866600201 0 0 0 0.001085937444910548 -0.02646651088679855 -0.0036660787405502215 0 -0.0036660787405502215 0.057787643403488742 0 0 0 0.007830283129172555 -0.075091831660908923 0.0047912153943205776 0 0.0047912153943205776 0.009737886865064993 0 0 0 -0.016338486198960986 -0.029009267131529886 0.0039128736815174977 0 0.0039128736815174977 -0.011335701128727258 0 0 0 -0.010086242065064286 -0.046778634890149023 -0.0123097833176582 0 -0.0123097833176582 -0.008169039564508096 0 0 0 -0.013736918613664283 -0.032215884482538253 -0.0043285909737716538 0 -0.0043285909737716538 -0.014367069086479983 0 0 0 -0.011645738392254565 -0.026423449497949981 -0.048955946601239357 0 -0.048955946601239357 0.098971206156537594 0 0 0 0.018136939164646919 -0.097257971935786391 0.0017451245841475053 0 0.0017451245841475053 -0.0041382251307619036 0 0 0 -0.025349049266637079 -0.090270959108796872 0.0010902105945142064 0 0.0010902105945142064 -0.0021584024763362276 0 0 0 -0.023107340396283267 -0.12268940092704465 -0.0084640576966430875 0 -0.0084640576966430875 -0.0024606289285424993 0 0 0 -0.031287507463896802 -0.14146216605019662 -0.0097718106060957974 0 -0.0097718106060957974 -0.0071326572129082541 0 0 0 -0.037148705815776194 -0.11662539555134926 -0.0080915460326569707 0 -0.0080915460326569707 0.001294802065302747 0 0 0 -0.028832648371511616 -0.024609836515957384 0.081497334119213172 0 0.081497334119213172 0.10362328630972328 0 0 0 0.019753362448441392 -0.0020052561570459981 -0.015777628854102055 0 -0.015777628854102055 0.033372337231631244 0 0 0 0.007841770268646242 -0.012619637810635461 -0.0098503695058844709 0 -0.0098503695058844709 -0.015511171713367565 0 0 0 -0.0070327023810007839 -0.057521218174775679 0.0045783836561234248 0 0.0045783836561234248 -0.0028633444348623339 0 0 0 -0.015096140652409488 -0.057133987757995386 -0.004662727985204191 0 -0.004662727985204191 0.04551242295748819 0 0 0 -0.0029053912001268042 -0.083036904702606953 0.0053900339166810321 0 0.0053900339166810321 -0.00069938526023771708 0 0 0 -0.020934072490711178 0.0019215354513795191 0.033561533834224999 0 0.033561533834224999 0.026902022869758291 0 0 0 0.0072058895802843415 -0.033318481020218255 0.0059834429274344056 0 0.0059834429274344056 -0.011526833085882792 0 0 0 -0.011211328526525262 -0.033227299990594782 -0.016990435365734968 0 -0.016990435365734968 -0.010054475363803078 0 0 0 -0.010820443838599446 0.026921897898826187 -0.065610568013625539 0 -0.065610568013625539 0.079547885395694573 0 0 0 0.026617445823630188 -0.20767976445844039 0.018849696849736031 0 0.018849696849736031 0.0018957479913441766 0 0 0 -0.051446004116773913 -0.023541321218053225 0.0029573582460215709 0 0.0029573582460215709 -0.012026114524719991 0 0 0 -0.0088918589356933031 -0.064527243005445836 0.0019086496993653938 0 0.0019086496993653938 -0.015862760397377558 0 0 0 -0.02009750085070584 -0.074025809421921884 -0.0072627726611071419 0 -0.0072627726611071419 -0.020780383994080085 0 0 0 -0.023701548354000495 -0.027247713329033023 0.010995987676082676 0 0.010995987676082676 0.014229710092920775 0 0 0 -0.0032545008090280603 -0.1064900058376366 0.003853860641473833 0 0.003853860641473833 0.0020839560586526362 0 0 0 -0.026101512444746067 -0.18020114973174381 -0.01311413040628806 0 -0.01311413040628806 0.0074744830505374255 0 0 0 -0.043181666670301627 -0.0045313529659720686 0.028125525319754319 0 0.028125525319754319 0.062910293361283287 0 0 0 0.014594735098827805 -0.042675101406791205 -0.014951726841056945 0 -0.014951726841056945 -0.0032884578088019367 0 0 0 -0.011490889803898341 -0.026251351491373323 0.0037922422847115334 0 0.0037922422847115334 0.058249166994569529 0 0 0 0.0079994538757990202 -0.021248588743400576 -0.022394065953350417 0 -0.022394065953350417 0.015872165846996467 0 0 0 -0.0013441057241010412 -0.037122309494890732 0.00235892635783988 0 0.00235892635783988 0.025046210286185977 0 0 0 -0.0030190248021761956 -0.032150452202103906 0.0056984547981280432 0 0.0056984547981280432 0.0059337680813164994 0 0 0 -0.0065541710301968547 -0.025124069867865927 0.0002545318318590762 0 0.0002545318318590762 -0.015775461125567759 0 0 0 -0.010224882748358423 -0.050038184828317046 0.0027832813556105413 0 0.0027832813556105413 0.0024739561095228502 0 0 0 -0.011891057179698551 -0.041910180945841966 -0.02065567877971565 0 -0.02065567877971565 0.12468553089163731 0 0 0 0.02069383748644886 -0.044093226940128183 -0.021313889838272936 0 -0.021313889838272936 0.11506708172057953 0 0 0 0.017743463695112843 -0.038525491195763928 -0.023861017892108038 0 -0.023861017892108038 -0.00019881205085803266 0 0 0 -0.0096810758116555595 -0.033119089992786566 -0.022296337571357405 0 -0.022296337571357405 -0.00063935432218564792 0 0 0 -0.0084396110787431367 -0.01713923289028596 0.039671332751235244 0 0.039671332751235244 0.031741205867946043 0 0 0 0.0036504932444152427 -0.02483005546876349 0.040139670384073289 0 0.040139670384073289 0.029415319087045866 0 0 0 0.001146315904570816 -0.017091290329385833 0.045488886911767404 0 0.045488886911767404 0.015752850284528108 0 0 0 -0.00033461001121448675 0.014549013700476898 0.044019140491569297 0 0.044019140491569297 0.023416409667071925 0 0 0 0.0094913558418872057 -0.027550487114324007 0.0039776407611292293 0 0.0039776407611292293 -0.0091839931004645218 0 0 0 -0.0091836200536971318 -0.02441512046844721 0.0029157925020813491 0 0.0029157925020813491 0.075869145914625014 0 0 0 0.012863506361544416 -0.032700687331366586 0.00032020251503889208 0 0.00032020251503889208 0.042872327677811045 0 0 0 0.0025429100866111373 -0.080053389141853559 -0.016615777620753336 0 -0.016615777620753336 -0.00078415843709556121 0 0 0 -0.020209386894737502 -0.091544713773022895 -0.0067197185245674307 0 -0.0067197185245674307 -0.00047063989139783935 0 0 0 -0.023003838416105232 -0.15290778906467212 0.015421292395521813 0 0.015421292395521813 -0.0012342010620400856 0 0 0 -0.038535497531678065 -0.012926738021219096 0.024893409302790027 0 0.024893409302790027 0.031765878521795674 0 0 0 0.0047097851251441461 -0.0090495993428836158 0.026946374877415025 0 0.026946374877415025 0.040413002324101721 0 0 0 0.0078408507453045367 -0.027363807679841298 0.0059805977674203909 0 0.0059805977674203909 -0.0068863533532013618 0 0 0 -0.0085625402582606668 -0.029599835060054088 0.0049022192527372489 0 0.0049022192527372489 -0.011856140226204785 0 0 0 -0.010363993821564717 -0.15969640578107655 -0.014690700413571074 0 -0.014690700413571074 -0.0058766862383564517 0 0 0 -0.041393273004858254 -0.10195030061960626 0.0043448002101482003 0 0.0043448002101482003 -0.001292029437153959 0 0 0 -0.025810582514190068 -0.092458597868633349 0.0066086660810791165 0 0.0066086660810791165 -0.0020390849581161802 0 0 0 -0.023624420706687368 -0.010598464896429016 0.027268250499277835 0 0.027268250499277835 0.074173630953255909 0 0 0 0.015893791514206779 -0.0336270305532963 -0.010277976780786235 0 -0.010277976780786235 0.0027352925534973593 0 0 0 -0.0077229344999497629 -0.029008748769241279 -0.0020448225235642865 0 -0.0020448225235642865 -0.013910454135199792 0 0 0 -0.010729800726110269 -0.016321758175902052 0.0010161359623662661 0 0.0010161359623662661 -0.0094096437809724973 0 0 0 -0.0064328504892186486 -0.060468620127439365 -0.026641196115737897 0 -0.026641196115737897 0.0047319433870847138 0 0 0 -0.013934169185088607 -0.061755051469399226 -0.017563440477119246 0 -0.017563440477119246 -0.0023488390536452464 0 0 0 -0.016025972630761123 -0.033777501910741511 -0.011424984318409964 0 -0.011424984318409964 0.027873047306339806 0 0 0 -0.0014761136511004663 -0.0049833074056166021 0.0195248090074931 0 0.0195248090074931 0.017872654407310035 0 0 0 0.0032223367504233547 -0.08598405265206796 0.055835831609835518 0 0.055835831609835518 0.0023156925884899038 0 0 0 -0.020917090015894674 -0.094813361101347082 -0.0013616196603583042 0 -0.0013616196603583042 0.0040266273080772352 0 0 0 -0.022696683448317434 -0.15883205203786593 0.0020396086809375269 0 0.0020396086809375269 0.010897346471190783 0 0 0 -0.036983676391668829 -0.004224600573074111 -0.0035486923935253711 0 -0.0035486923935253711 -0.025855524690145737 0 0 0 -0.0075200313158049759 -0.0098547257450676828 -0.0085120235429812785 0 -0.0085120235429812785 -0.027861769120108848 0 0 0 -0.0094291237162940633 -0.081732855623135203 0.0070637557781699362 0 0.0070637557781699362 -0.00024841102320338065 0 0 0 -0.020495316661584662 -0.071178267097455422 0.005377819552837039 0 0.005377819552837039 -0.0013785590593235128 0 0 0 -0.018139206539194735 -0.041265016056911144 -0.0039386569714279333 0 -0.0039386569714279333 0.016850895765636642 0 0 0 -0.006103530072818622 -0.10312403083507322 0.0082855677527307707 0 0.0082855677527307707 0.0023095511884199671 0 0 0 -0.025203619911663269 -0.11158469786361909 -0.020464088885269807 0 -0.020464088885269807 -0.0077706375116267795 0 0 0 -0.029838833843811464 -0.0010108141393085869 0.0015170707115612636 0 0.0015170707115612636 -0.020177692757312113 0 0 0 -0.0052971267241551613 -0.063906299185459758 0.064491791472526094 0 0.064491791472526094 0.0066680763478443872 0 0 0 -0.014309555709403954 -0.030205249089333149 0.0045577725924313608 0 0.0045577725924313608 -0.010069063308527984 0 0 0 -0.010068578099465281 0.027658400918884607 0.018274626076788758 0 0.018274626076788758 0.067645836801747183 0 0 0 0.02382605943015792 0.022406363918033665 0.038270123155631497 0 0.038270123155631497 0.10440562231754456 0 0 0 0.031702996558894553 -0.14827622742047053 0.016473718820705363 0 0.016473718820705363 0.026738145988739997 0 0 0 -0.030384520357932703 -0.0017677132831185466 0.040110658929319254 0 0.040110658929319254 0.11002979092574705 0 0 0 0.027065519410657074 0.010595762767730096 0.033819767502892645 0 0.033819767502892645 0.072650817618367447 0 0 0 0.020811645096524375 -0.062592395797563455 0.005981408887760914 0 0.005981408887760914 0.0013530964244061194 0 0 0 -0.01530982484328932 -0.044552251192651438 0.0023673964711206554 0 0.0023673964711206554 -0.0024721386283370339 0 0 0 -0.011756097455247111 -0.1314632044940639 0.043056250892554049 0 0.043056250892554049 0.013868205727441296 0 0 0 -0.029398749691655679 -0.057336198500634268 -0.016395484833005312 0 -0.016395484833005312 0.056803230903926583 0 0 0 -0.0001332418991769127 -0.025042347609993316 0.025193144881705334 0 0.025193144881705334 0.1177865514466344 0 0 0 0.023186050959160261 -0.04169673794720502 -0.021914434117805179 0 -0.021914434117805179 0.00065845307459588831 0 0 0 -0.010259571218152297 -0.1102796284479938 -0.0047486234471503241 0 -0.0047486234471503241 0.0035317976632704695 0 0 0 -0.026686957696180874 -0.19358137665406105 0.010372098213638714 0 0.010372098213638714 0.011718438398272801 0 0 0 -0.045465734563947091 -0.047409145157814025 0.02421293698135818 0 0.02421293698135818 -0.0073167124481963164 0 0 0 -0.013681464401502419 -0.022438235932534467 -0.02611876042097383 0 -0.02611876042097383 0.031448998091624158 0 0 0 0.0022526905397725061 -0.040528381554850723 -0.015437711910541968 0 -0.015437711910541968 0.02032770727128308 0 0 0 -0.0050501685708919664 0.0023114744549765781 0.020624864442622216 0 0.020624864442622216 0.019646221521254226 0 0 0 0.0054894239940577114 -0.10095443119112207 -0.019387321399695477 0 -0.019387321399695477 -0.013135654080539329 0 0 0 -0.028522521317915352 -0.094570748059834717 0.0048419607588690849 0 0.0048419607588690849 0.0024733901900939048 0 0 0 -0.023024339467435179 -0.13442137650315716 -0.0095001209844539081 0 -0.0095001209844539081 0.0081392026693996138 0 0 0 -0.031570543458439349 -0.030314135645543777 -0.024870615060559265 0 -0.024870615060559265 0.046351097484244264 0 0 0 0.0040092404596751285 -0.075392556487939882 0.002329984655837905 0 0.002329984655837905 0.0041468883406074741 0 0 0 -0.017811417036833095 -0.042781130145831001 0.0046624043478470057 0 0.0046624043478470057 0.09481181971855443 0 0 0 0.013007672393180856 -0.026060210502566853 -0.00023692023939917361 0 -0.00023692023939917361 -0.0086853061573853238 0 0 0 -0.0086863791649880451 -0.033156073534926528 -0.011150619128304534 0 -0.011150619128304534 0.013635774822290836 0 0 0 -0.0048800746781589577 -0.11208984766917801 0.0024021396012555429 0 0.0024021396012555429 0.0023437731465163619 0 0 0 -0.027436518630665423 -0.19310192466096962 -0.0090158176818482261 0 -0.0090158176818482261 0.0053095106626822597 0 0 0 -0.046948103499571875 -0.081568506103905952 -0.019647387273775796 0 -0.019647387273775796 0.0067395411399466254 0 0 0 -0.01870724124098979 -0.043243466494233426 -0.021696164574390747 0 -0.021696164574390747 0.03201070604097328 0 0 0 -0.0028081901133149845 -0.032830256137287794 -0.016206747281849038 0 -0.016206747281849038 0.05884712043999174 0 0 0 0.0065042160756760281 -0.05828219967415052 0.0032110240494730644 0 0.0032110240494730644 0.0044657469108048131 0 0 0 -0.013454113190836392 -0.043197248201979371 -0.020154683825640771 0 -0.020154683825640771 0.0034689048756014751 0 0 0 -0.0099320858315944671 -0.061962844577705137 -0.024082888894048304 0 -0.024082888894048304 0.0012148130102591845 0 0 0 -0.015187007891861625 -0.069107467842417239 0.003532917333643866 0 0.003532917333643866 0.0040921218973071077 0 0 0 -0.016253836486277526 -0.040831580773315224 -0.022656651697292557 0 -0.022656651697292557 0.0014205719818332074 0 0 0 -0.0098527521978704902 -0.02676888677421151 0.00058736916233792524 0 0.00058736916233792524 -0.015951465734418458 0 0 0 -0.010680088127157494 -0.1133245960888547 0.0005309142241332887 0 0.0005309142241332887 0.0017339902379809313 0 0 0 -0.027897651462718498 -0.20304830519516304 -0.0016797478173047886 0 -0.0016797478173047886 0.0025325969447146379 0 0 0 -0.050128927062612072 -0.051272231061467957 -0.0098698534473293797 0 -0.0098698534473293797 -0.0031602389072369896 0 0 0 -0.013608117492176067 0.011928585012363713 0.019532677898963069 0 0.019532677898963069 0.08442330428315703 0 0 0 0.024087972323879936 0.0019240928046926342 0.026808331867612445 0 0.026808331867612445 0.063177232624229696 0 0 0 0.016275331357230804 -0.037303208992453207 -0.0080243728554441757 0 -0.0080243728554441757 -0.002802177731126676 0 0 0 -0.010026346680895193 0.0035418199027557051 0.016084888613385827 0 0.016084888613385827 0.10785799469970136 0 0 0 0.027849953650613823 -0.01644919442355347 -0.017781413025214271 0 -0.017781413025214271 0.013136579419255445 0 0 0 -0.00082815375107447853 -0.051694960147820074 -0.019631710213968201 0 -0.019631710213968201 0.015124537256814063 0 0 0 -0.0091426057227514956 0.0040756533488857105 -0.00063101568792900322 0 -0.00063101568792900322 0.077706734070798644 0 0 0 0.020445596854921089 -0.0011772069299842147 -0.0018347768732079883 0 -0.0018347768732079883 0.14373680654389343 0 0 0 0.035639899903477296 -0.13063575866541743 -0.014122431246121059 0 -0.014122431246121059 0.025699850202716923 0 0 0 -0.0262339771156751 -0.067488825572962818 0.0045780076460702826 0 0.0045780076460702826 -0.0022257224623152272 0 0 0 -0.017428637008819518 -0.027062020226554292 0.0083954195673004665 0 0.0083954195673004665 -0.0016397212306064725 0 0 0 -0.0071754353642901779 -0.08887002145120193 0.048093029746351323 0 0.048093029746351323 -0.0050815291909693805 0 0 0 -0.023487887660542883 -0.0092853436758340013 -0.025648894239679643 0 -0.025648894239679643 0.020149549224260821 0 0 0 0.0027160513871066216 -0.023739814414824905 0.0014857178917563232 0 0.0014857178917563232 -0.012538040300131316 0 0 0 -0.0090694636787390561 -0.06025718793328564 0.0014572387601984038 0 0.0014572387601984038 0.014454444405924298 0 0 0 -0.011450685881840346 0.02293450194870017 0.016491245962920367 0 0.016491245962920367 0.065855038500703955 0 0 0 0.02219738511235092 -0.043479401496734307 -0.0090155899501105242 0 -0.0090155899501105242 -0.017508898374725745 0 0 0 -0.015247074967865013 -0.029791781291657639 -0.0079769493856927665 0 -0.0079769493856927665 0.002284999064681853 0 0 0 -0.0068766955567439794 -0.02266105327526044 -0.013490335906986811 0 -0.013490335906986811 0.0040312858076382851 0 0 0 -0.004657441866905504 -0.0072283947795905856 0.0058823874110986996 0 0.0058823874110986996 0.035715198532467518 0 0 0 0.0071217009382192331 0.0016226164018788292 0.00096077452850423795 0 0.00096077452850423795 0.074765578258028653 0 0 0 0.019097048664976912 0.0034909236937186727 -0.0065625830514184913 0 -0.0065625830514184913 0.13405671001621333 0 0 0 0.034386908427483043 -0.010050065653928845 -0.011420065250841771 0 -0.011420065250841771 0.073999617625735772 0 0 0 0.015987387992951692 -0.019551452409463467 0.020502398774056407 0 0.020502398774056407 0.036577524163045771 0 0 0 0.0042565179383955883 -0.014275117328712034 -0.023791634538052588 0 -0.023791634538052588 -0.0039649330381441306 0 0 0 -0.0045600125917140133 0.00079323321818837423 -0.046307136494465627 0 -0.046307136494465627 0.040369531917087448 0 0 0 0.010290691283818959 -0.055903956441942459 -0.019211847861797859 0 -0.019211847861797859 0.0040218094521755621 0 0 0 -0.012970536747441863 -0.08194474785240112 0.0051634991766864695 0 0.0051634991766864695 0.0016976750525794504 0 0 0 -0.020061768199955407 -0.070482307122780072 0.0070983638945887172 0 0.0070983638945887172 0.0028402664719119897 0 0 0 -0.016910510162716996 -0.1271886405868885 0.0074066158821525091 0 0.0074066158821525091 0.052399933930655451 0 0 0 -0.018697176664058235 -0.018142718510190003 0.00081134498005258626 0 0.00081134498005258626 0.020068263948773701 0 0 0 0.00048138635964595222 -0.017238306100712697 -0.010080358216726842 0 -0.010080358216726842 0.046212613255389057 0 0 0 0.0072435767886690483 -0.02637615142337383 0.0091185544278422591 0 0.0091185544278422591 0.0059435040052201356 0 0 0 -0.0051081618545384304 -0.00014976504280145297 0.00039487768151277858 0 0.00039487768151277858 -0.026027829693045179 0 0 0 -0.0065443986839616719 -0.034396642926491632 0.0043194991878628278 0 0.0043194991878628278 -0.0071396172794929418 0 0 0 -0.010384065051496146 -0.042814671275561766 -0.022618431920216973 0 -0.022618431920216973 0.01538882555183374 0 0 0 -0.0068564614309320204 -0.023149594893900644 0.0016366077876649671 0 0.0016366077876649671 -0.016524348883779915 0 0 0 -0.009918485944420137 -0.026950200116169887 0.054505309830948034 0 0.054505309830948034 0.0040289290197979 0 0 0 -0.0057303177740930522 -0.029041535607128341 0.046586169702003133 0 0.046586169702003133 0.0083498907324578431 0 0 0 -0.0051729112186674059 -0.029460925896373516 -0.028654655016361552 0 -0.028654655016361552 0.0027782033362125647 0 0 0 -0.0066706806400400748 0.017704846256168014 -0.091405855610088946 0 -0.091405855610088946 0.16127933953277124 0 0 0 0.044746046447234789 -0.024484721020126308 0.0022133506418443817 0 0.0022133506418443817 -0.014613905906270486 0 0 0 -0.0097746567315991992 -0.05292270000128052 -0.011183647549864562 0 -0.011183647549864562 0.0031041572093288838 0 0 0 -0.012454635697987992 0.0014935374294791082 0.00065487188540336305 0 0.00065487188540336305 9.6252482720604604e-05 0 0 0 0.00039744747805003922 -0.01050059279584481 0.0057750315035196564 0 0.0057750315035196564 0.15322489855275645 0 0 0 0.035681076439227688 0.0089857021028623071 0.0017249788908308972 0 0.0017249788908308972 0.13121165243158803 0 0 0 0.035049338633612363 0.0050418902309476987 -0.003553452225248277 0 -0.003553452225248277 0.067775697314763406 0 0 0 0.018204396886427832 0.0023045505916701181 -0.0010638236490587746 0 -0.0010638236490587746 0.00029796467643983249 0 0 0 0.00065062881702759867 -0.00037243514353913854 0.00083605345894710581 0 0.00083605345894710581 0.0015883070194838422 0 0 0 0.00030396796898612044 -0.0075796195732307226 -0.0074013197366703427 0 -0.0074013197366703427 0.085683810942525973 0 0 0 0.019526047842323813 -0.00038173702895782924 -0.0013315918873901822 0 -0.0013315918873901822 0.0024666256115644103 0 0 0 0.00052122214565164526 -0.027073035904963554 0.00064231216210722199 0 0.00064231216210722199 -0.014045467550634133 0 0 0 -0.010279625863899423 -0.037067532491948732 -0.021065493792100681 0 -0.021065493792100681 -0.005390596403476472 0 0 0 -0.010614532223856294 -0.068878779780843599 0.00548326220046845 0 0.00548326220046845 0.00775939540880205 0 0 0 -0.015279846093010377 -0.049855048939049462 -0.027561937416917814 0 -0.027561937416917814 0.004971783740604474 0 0 0 -0.011220816299611358 -0.033977971319201626 -0.0013003552933649213 0 -0.0013003552933649213 -0.015973546357432165 0 0 0 -0.01248787941915845 -0.028794672963648349 0.037248719141333764 0 0.037248719141333764 -0.0054005869765738623 0 0 0 -0.0085488149850552198 -0.024587080086577728 -0.030438388686105711 0 -0.030438388686105711 0.0049569098629778097 0 0 0 -0.0049075425558999797 -0.006228270940264069 -0.0065507147965576662 0 -0.0065507147965576662 0.061076789835304179 0 0 0 0.013712129723759958 -0.011819856341775625 0.0003268970809409133 0 0.0003268970809409133 0.11543532004310397 0 0 0 0.025903865925332087 -0.056272882733283444 0.0090043140009685302 0 0.0090043140009685302 0.056088668127807162 0 0 0 -4.6053651369046267e-05 -0.062917343145753118 1.0281807751359728e-05 0 1.0281807751359728e-05 0.0080616420452431781 0 0 0 -0.013713925275127464 -0.029673967784156485 -0.01220591211818183 0 -0.01220591211818183 0.043335211168055499 0 0 0 0.0034153108459747394 -0.027473764361711367 0.0064178957866406761 0 0.0064178957866406761 0.087606547293347159 0 0 0 0.015033195732908927 -0.032496117858687668 -0.032953226315581341 0 -0.032953226315581341 0.0086993249738712697 0 0 0 -0.0059491982212040995 -0.023731925826629939 0.0084179440642771722 0 0.0084179440642771722 -0.00055432093138430699 0 0 0 -0.006071561689503565 -0.026338721575268287 -0.032398019357087637 0 -0.032398019357087637 0.014809122317391399 0 0 0 -0.0028823998144692498 -0.039220281517879929 0.035906586056902778 0 0.035906586056902778 -0.0015691544703368976 0 0 0 -0.010197358997054096 -0.032636444073654763 -0.0013321717414262191 0 -0.0013321717414262191 0.022400445401740687 0 0 0 -0.0025589996679785398 -0.021392978458502965 -0.0038189578952329689 0 -0.0038189578952329689 0.026142669063505153 0 0 0 0.001187422651250547 -0.049497113811562535 0.0033862325571676413 0 0.0033862325571676413 -0.0028785026564296448 0 0 0 -0.013093904116998054 -0.048483301791456275 -0.0079077789726959558 0 -0.0079077789726959558 0.038889393949977799 0 0 0 -0.0023984769603695791 0.011275389519611018 -0.027549455085108199 0 -0.027549455085108199 0.020407976780266901 0 0 0 0.007920841574969445 -0.035101228713765559 -0.022200202607230851 0 -0.022200202607230851 -0.0022794531997382891 0 0 0 -0.0093451704783759897 0.039631460528561813 -0.019447010376087204 0 -0.019447010376087204 0.026356486616119668 0 0 0 0.016496986786170398 -0.022944642613659916 -0.0052492942332373338 0 -0.0052492942332373338 0.054348718269699836 0 0 0 0.0078510189140100217 -0.035310118545906377 -0.0071781987407970316 0 -0.0071781987407970316 0.016896939610903661 0 0 0 -0.0046032947337507069 -0.076654688288047099 0.0045579208221438565 0 0.0045579208221438565 -0.0024549831137558181 0 0 0 -0.01977741785045075 -0.050536801654957129 -0.010149888248623382 0 -0.010149888248623382 0.043957914327074563 0 0 0 -0.0016447218319706608 -0.051140455641106759 -0.0089082136216959533 0 -0.0089082136216959533 0.053633014020851744 0 0 0 0.00062313959493624088 0.024224817413024763 0.060501786861412277 0 0.060501786861412277 0.18359098998047102 0 0 0 0.051953951848373953 -0.02913377472943933 -0.018251397184842422 0 -0.018251397184842422 0.20997568502734171 0 0 0 0.045210477574475591 0.010146079174551792 0.017371501833335235 0 0.017371501833335235 0.080463085217225228 0 0 0 0.022652291097944088 -0.028252124444448759 0.022573740627945059 0 0.022573740627945059 0.04837927848927645 0 0 0 0.0050317885112069333 -0.056887097681650012 -0.0095434216831389238 0 -0.0095434216831389238 0.00042158176239182055 0 0 0 -0.014116378979814659 -0.049915969625054776 0.0036631877520490437 0 0.0036631877520490437 -0.0053219378033369097 0 0 0 -0.013809476857097921 -0.096947010525747931 -0.009725907522566718 0 -0.009725907522566718 -0.014652941553111021 0 0 0 -0.027899988019714748 -0.077284356811774826 0.0015755348947680912 0 0.0015755348947680912 -0.0092891450726146421 0 0 0 -0.021643375471097362 -0.015977294765227718 0.0048255211522915745 0 0.0048255211522915745 -0.011195180007948197 0 0 0 -0.0067931186932939768 -0.10887084321874145 -0.008348115075054844 0 -0.008348115075054844 -0.0021302486972016445 0 0 0 -0.027750272978985777 -0.094966273816852825 -0.0093894042413140803 0 -0.0093894042413140803 -0.021553714910316636 0 0 0 -0.02912999718179236 -0.14728018686635627 0.0069106885392678351 0 0.0069106885392678351 -0.00096005359037261082 0 0 0 -0.037060060114182225 -0.12989225969494364 0.0077643832209867642 0 0.0077643832209867642 -0.027746796979075616 0 0 0 -0.039409764168504807 -0.054344204511435068 -0.020124832939722836 0 -0.020124832939722836 0.02259926867743739 0 0 0 -0.0079362339584994057 -0.021750844648414792 0.0034684205691122329 0 0.0034684205691122329 -0.013073040576979021 0 0 0 -0.0087059713063484534 0.022633465188669932 0.030949694309005515 0 0.030949694309005515 0.027540073404453302 0 0 0 0.012543384648280531 -0.028734938000798016 0.00442665832090329 0 0.00442665832090329 0.075166456088448519 0 0 0 0.011607879521912612 -0.014781352939621628 0.031959477506441125 0 0.031959477506441125 0.074017709432004489 0 0 0 0.014809089123095712 -0.032880378131894039 -0.033410806980969134 0 -0.033410806980969134 0.03155602404861213 0 0 0 -0.00033108852082053275 -0.0040114655570660024 0.00030636118995097661 0 0.00030636118995097661 0.0082389818058765472 0 0 0 0.0010568790622023031 0.001344227486775003 -0.0060851720835075618 0 -0.0060851720835075618 0.024996366705134332 0 0 0 0.0065851485479773335 0.0018329120512681118 0.006051978619926679 0 0.006051978619926679 0.055362196475134046 0 0 0 0.014298777131600984 -0.0030578943189017061 -0.00063232230326892847 0 -0.00063232230326892847 0.0045056934283837528 0 0 0 0.00036194977737012311 -0.011903078350761979 0.0067050989683725137 0 0.0067050989683725137 0.0008850410133296599 0 0 0 -0.0027545093343581059 -0.012831367312703179 -0.013850720889775542 0 -0.013850720889775542 0.0080642739791623175 0 0 0 -0.0011917733333852154 -0.10336653257895533 -0.01467376021835445 0 -0.01467376021835445 -0.034393101981527251 0 0 0 -0.034439908640120642 -0.13945269709773433 0.014764859761536181 0 0.014764859761536181 -0.046398660482180831 0 0 0 -0.046462839394978792 -0.15890670764279752 0.015024534651702188 0 0.015024534651702188 -0.021566177450502585 0 0 0 -0.045118221273325022 -0.11888048392852911 -0.014459249026865083 0 -0.014459249026865083 -0.016457382933691811 0 0 0 -0.033834466715555234 -0.030469613007547913 -0.033656487852551042 0 -0.033656487852551042 0.011524511395690995 0 0 0 -0.004736275402964174 -0.049869885153409531 0.0035080724262692119 0 0.0035080724262692119 0.0025781947638384567 0 0 0 -0.011822922597392781 -0.039255874552449554 -0.023198644965839524 0 -0.023198644965839524 0.0059956417733210698 0 0 0 -0.0083150581947820934 -0.037044033691962741 -0.02308414735152757 0 -0.02308414735152757 -0.0027859018628547672 0 0 0 -0.0099574838887043771 -0.043106120279885633 0.002566328718699122 0 0.002566328718699122 0.002603132566279906 0 0 0 -0.010125746928401435 -0.030677488217419457 0.0049849331127158093 0 0.0049849331127158093 -0.0054741817490585425 0 0 0 -0.0090379174916194963 -0.030532213705673904 0.0056265679403422805 0 0.0056265679403422805 -0.0049922065232214548 0 0 0 -0.008881105057223837 -0.051730208676170425 -0.0423636570998146 0 -0.0423636570998146 0.13270202701668873 0 0 0 0.020242954585129549 0.012800366611937425 -0.0083375812025636986 0 -0.0083375812025636986 0.37748080768369463 0 0 0 0.097570293573908076 -0.067405520191646084 -0.014292903163865667 0 -0.014292903163865667 0.015449701054779302 0 0 0 -0.012988954784216737 -0.02412723260488267 -0.0026518965423315902 0 -0.0026518965423315902 0.047448190218257635 0 0 0 0.0058302394033437344 -0.034510686599163176 -0.012749209030609221 0 -0.012749209030609221 0.028008890310022405 0 0 0 -0.0016254490722851789 -0.03155549103266269 0.0069526162610416241 0 0.0069526162610416241 0.0070633864580600531 0 0 0 -0.0061230261436506679 -0.019495055509343162 0.030478789179531951 0 0.030478789179531951 0.057460822595936989 0 0 0 0.0094914417716485122 -0.028788864416671611 -0.014108006070863377 0 -0.014108006070863377 -0.0020038188856985606 0 0 0 -0.007698170825592765 0.011049545307655478 -0.03064340684238577 0 -0.03064340684238577 0.060748560050115807 0 0 0 0.017949526339442828 -0.017852103268579292 -0.005566719903515524 0 -0.005566719903515524 0.017653755036734928 0 0 0 -4.9587057961056336e-05 -0.043998857222761645 0.028375661706897315 0 0.028375661706897315 0.0026203458809108682 0 0 0 -0.010344627835463083 -0.024618775992931052 -0.027865594980845398 0 -0.027865594980845398 0.027568449339080647 0 0 0 0.00073741833653728772 -0.016996821886945068 -0.02587857544617686 0 -0.02587857544617686 0.023416146775994573 0 0 0 0.0016048312222622929 -0.02242095639265751 -0.0025764401227600375 0 -0.0025764401227600375 -0.012580444355814513 0 0 0 -0.0087503501871180056 -0.018132551694556867 -0.0079457476022265494 0 -0.0079457476022265494 0.065557396285487179 0 0 0 0.011856211147732623 -0.031592618287403097 -0.0086965665218218698 0 -0.0086965665218218698 -0.010069750018656329 0 0 0 -0.010415592076514858 -0.018541712454509737 -0.0073003755208947974 0 -0.0073003755208947974 -0.032180651114145309 0 0 0 -0.012680590892163821 -0.054913507909158353 0.0045860999414325211 0 0.0045860999414325211 -0.0061182755060658778 0 0 0 -0.015257945853806054 -0.049210771162039556 0.0048274815573782666 0 0.0048274815573782666 -0.0074650167374119714 0 0 0 -0.014168946974862894 -0.050876037541241072 -0.0040723719942206589 0 -0.0040723719942206589 0.031747886615989707 0 0 0 -0.0047820377313128439 -0.049522017749157654 -0.018070009812653359 0 -0.018070009812653359 0.037424373201279004 0 0 0 -0.0030244111369696625 -0.041470870880166259 0.0022913179511974717 0 0.0022913179511974717 -0.0047516871102228969 0 0 0 -0.011555639497597296 -0.037939825846103586 0.0041104358796814986 0 0.0041104358796814986 0.0034335580517797105 0 0 0 -0.0086265669485809694 -0.041020927721289527 0.0025579704832524256 0 0.0025579704832524256 0.0026989657082392357 0 0 0 -0.009580490503262571 -0.011289334950672747 0.0082668103941708204 0 0.0082668103941708204 -0.020437861283515213 0 0 0 -0.0079317990585471287 -0.0041790559091883228 0.0099111509011584886 0 0.0099111509011584886 0.0015703635670374361 0 0 0 -0.00065217308553772169 -0.0046427508605077494 -0.01477615500904067 0 -0.01477615500904067 0.01802259230091327 0 0 0 0.0033449603601014011 -0.013170059275918633 -0.012500869535010228 0 -0.012500869535010228 -0.0077682246836299207 0 0 0 -0.0052345709898871662 -0.013864276737528658 -0.040954615022711881 0 -0.040954615022711881 0.13145666054425473 0 0 0 0.029398095951681524 -0.0027196170943475373 0.020105808883671195 0 0.020105808883671195 0.042455906947560962 0 0 0 0.0099340724633032451 -0.0010949525911949642 -0.0033112295770594269 0 -0.0033112295770594269 -0.0039345926977714107 0 0 0 -0.0012573863222418158 -0.0024809666803138897 -0.016780164205151937 0 -0.016780164205151937 0.019538199043437343 0 0 0 0.0042643080907807662 -0.0011593382239065697 0.0038323155603947612 0 0.0038323155603947612 -0.003878254468184128 0 0 0 -0.0012593981730228965 -0.048418304434266979 0.03818206122067172 0 0.03818206122067172 -0.0047231736129180746 0 0 0 -0.013285369511796041 -0.02839001113282924 -0.03194075220991241 0 -0.03194075220991241 0.014414414818946675 0 0 0 -0.0034938990784705304 -0.020952604708011635 -0.031198000125075009 0 -0.031198000125075009 0.013767738068599211 0 0 0 -0.0017962166598529672 -0.045186316298604826 -0.0072516431578298658 0 -0.0072516431578298658 0.044316250638106895 0 0 0 -0.00021751641512448346 0.0015706215701332127 0.013108168206292015 0 0.013108168206292015 0.025925474910231117 0 0 0 0.0068740241200906382 -0.00084774914354479591 -0.00062785662980296975 0 -0.00062785662980296975 0.0020399451900434684 0 0 0 0.00029804901162489017 -0.0015979589818404527 7.6906760443584687e-05 0 7.6906760443584687e-05 0.0046002264558566708 0 0 0 0.00075056686850372145 -0.00029871155000260607 -0.010985429890364218 0 -0.010985429890364218 0.0061709661523239312 0 0 0 0.0014680636505801647 -0.027062400321229307 -0.0052311402785041594 0 -0.0052311402785041594 -0.023471146497526574 0 0 0 -0.012633386704688943 0.01467054019534221 -0.030333714033183634 0 -0.030333714033183634 0.0080951112021334648 0 0 0 0.0056914128493689292 0.010960328435705186 0.00048757873214649861 0 0.00048757873214649861 0.076051656349893609 0 0 0 0.021752996196399726 0.014632803106453374 -0.004696605244265073 0 -0.004696605244265073 0.14249068068159232 0 0 0 0.039280870947011381 -0.025970386657456518 0.0062487339664652483 0 0.0062487339664652483 -0.0076655772783564002 0 0 0 -0.008408990983953233 -0.076711058030320967 0.039318627822540475 0 0.039318627822540475 0.0017264318838536852 0 0 0 -0.018746156536616931 -0.084113979633158475 0.037023724757625318 0 0.037023724757625318 -0.0018973874576637684 0 0 0 -0.02150284177270545 -0.028690314795334054 -0.0081739347987277999 0 -0.0081739347987277999 -0.013763616689556946 0 0 0 -0.010613482871222806 -0.040309480227910963 -0.0028694967633637915 0 -0.0028694967633637915 0.014616686601864892 0 0 0 -0.0064231984065115256 -0.044782685648547933 -0.023028080233991749 0 -0.023028080233991749 0.0041511199221475961 0 0 0 -0.01015789143160007 -0.037222158864645749 -0.027578876284799103 0 -0.027578876284799103 0.019155476275437885 0 0 0 -0.0045166706473019937 -0.052575520515373508 0.039769444728040448 0 0.039769444728040448 -0.0042406424565024636 0 0 0 -0.014204040742968882 -0.026468882055327381 -0.03088754594292914 0 -0.03088754594292914 0.015679313541620221 0 0 0 -0.0026973921284267899 -0.029886878984215604 -0.032630570093082567 0 -0.032630570093082567 0.01194775060020925 0 0 0 -0.0044847820960015605 -0.092085325539952759 0.00019069456366883029 0 0.00019069456366883029 -0.0091325644251076185 0 0 0 -0.025304472491265072 -0.12668902063815693 -0.0089617059870791254 0 -0.0089617059870791254 -0.014538262373590908 0 0 0 -0.035306820752936958 -0.11647546175043719 -0.014104383833936997 0 -0.014104383833936997 -0.0011615385929849634 0 0 0 -0.029409250085855539 -0.087093807345026877 0.0036773327866020285 0 0.0036773327866020285 -0.001422106995382838 0 0 0 -0.022128978585102425 -0.045993436557369968 -0.0039823113476480411 0 -0.0039823113476480411 0.021682673665960297 0 0 0 -0.0060776907228524161 -0.070819083588677945 0.031691545853663072 0 0.031691545853663072 -0.0062565377054131233 0 0 0 -0.019268905323522656 -0.019037752501573246 -0.026371597674562985 0 -0.026371597674562985 0.026863637143109909 0 0 0 0.0019564711603841101 -0.021332713852650342 -0.027467492740302246 0 -0.027467492740302246 0.020799553328566311 0 0 0 -0.00013329013102103549 -0.053351007593049019 -0.032316429705546601 0 -0.032316429705546601 0.0084586185627148758 0 0 0 -0.011223097257583428 -0.030866482434554629 -0.0068985630443298973 0 -0.0068985630443298973 -0.016954663313340085 0 0 0 -0.011955286436973675 -0.023722352619439918 -0.015736484804240711 0 -0.015736484804240711 -0.0044151281095064498 0 0 0 -0.0070343701822365989 -0.039411350817429899 -0.0087732712151664949 0 -0.0087732712151664949 0.015128850037428698 0 0 0 -0.0060706251950003037 -0.077284097179542544 0.0054610622442366839 0 0.0054610622442366839 -0.0051070609067766504 0 0 0 -0.020597789521579809 -0.091530490488063776 0.060432995220297769 0 0.060432995220297769 0.016867800268993705 0 0 0 -0.018665672554767421 -0.060711776884542878 -0.028119983316344188 0 -0.028119983316344188 0.010357110598058439 0 0 0 -0.012588666571621165 -0.020066600790091191 0.041479138139352223 0 0.041479138139352223 0.021068485742251952 0 0 0 0.00025047123804018689 -0.036949877256179257 -0.02430974885020265 0 -0.02430974885020265 -0.00390559362245399 0 0 0 -0.010213867719658147 -0.016349157502826728 0.058148202476895561 0 0.058148202476895561 0.0066097464764340863 0 0 0 -0.0024348527565982714 -0.071613056551339982 0.0042958595950243067 0 0.0042958595950243067 0.00082408477556782794 0 0 0 -0.017697242943943078 -0.04226155737711413 -0.0013063966693584797 0 -0.0013063966693584797 0.010425540492100233 0 0 0 -0.0079590042212534708 -0.052326590825770514 -0.029120668594466159 0 -0.029120668594466159 0.0017930293307939493 0 0 0 -0.012633390373744113 -0.0063239715391385995 0.0095210965021039762 0 0.0095210965021039762 0.036672034717909169 0 0 0 0.0075870157946925712 -0.0098200955098444176 -0.013145951181888549 0 -0.013145951181888549 0.074451972832950242 0 0 0 0.016157969330776456 -0.040046860789116352 0.00068362727809324897 0 0.00068362727809324897 0.0012508804006368338 0 0 0 -0.0096989950971198766 0.0019760411899372166 4.9501175229949013e-06 0 4.9501175229949013e-06 0.0028798068161659529 0 0 0 0.0012139620015259034 -0.0058471645158704177 0.0015438868967858621 0 0.0015438868967858621 0.0005668172162991425 0 0 0 -0.001320086824893707 -0.00064488568317355721 -0.015383594787533594 0 -0.015383594787533594 0.032164313098460795 0 0 0 0.007879856853822087 -0.0012824907621598047 -0.0073745752569295275 0 -0.0073745752569295275 0.033336648606269392 0 0 0 0.0080135394610272304 -0.0022391653087918684 0.0085060585562404256 0 0.0085060585562404256 0.070209371677220744 0 0 0 0.016992551592106775 0.0013798996729728064 -0.00015520943696811784 0 -0.00015520943696811784 0.0016024800230853842 0 0 0 0.00074559492401449212 0.002059419848110533 0.016648299198055216 0 0.016648299198055216 0.070220749796533255 0 0 0 0.018070042411161058 -0.0047073548793452602 -0.0015598934552469856 0 -0.0015598934552469856 -0.0001614903408229118 0 0 0 -0.001217211305041932 -0.030289750330352527 -0.0094113600996744429 0 -0.0094113600996744429 -0.019917503672483683 0 0 0 -0.012551813500709108 -0.032818959931609493 -0.010589070538205311 0 -0.010589070538205311 0.011929365499715239 0 0 0 -0.0052223986079735774 -0.040437900112841541 -0.012635688982314021 0 -0.012635688982314021 0.0087805684710688947 0 0 0 -0.0079143329104430782 -0.018321412029950288 -0.0016011734775583375 0 -0.0016011734775583375 -0.019990266678311178 0 0 0 -0.0095779196770652691 -0.018402302457736858 0.0011567789405916851 0 0.0011567789405916851 -0.014582060332564595 0 0 0 -0.0082460906975753423 -0.030778611762928794 0.02770822394742245 0 0.02770822394742245 0.1031771550725243 0 0 0 0.018099635827398868 -0.053240077957967015 -0.01735547760500461 0 -0.01735547760500461 0.012449404042048001 0 0 0 -0.010197668478979773 -0.055801761702253844 -0.026888154205864129 0 -0.026888154205864129 0.0064707813517449475 0 0 0 -0.012332745087627189 -0.060524218123135617 0.0017047547381035481 0 0.0017047547381035481 0.004048775316620401 0 0 0 -0.014118860701628808 -0.11000040811168543 0.043446270610162596 0 0.043446270610162596 0.003657831978597148 0 0 0 -0.026585644033272016 -0.089269971949780258 0.060249826579420129 0 0.060249826579420129 0.039858733215453857 0 0 0 -0.012352809683581434 -0.024618045161989191 0.02630782670858603 0 0.02630782670858603 0.066741176516725592 0 0 0 0.010530782838684097 -0.025316820021637709 -0.010364277796269691 0 -0.010364277796269691 0.021890526422464474 0 0 0 -0.00085657339979333669 -0.031808538528361019 -0.0099766447660813024 0 -0.0099766447660813024 0.022138678846353566 0 0 0 -0.0024174649205018772 0.0062257479838439267 0.03651962452630661 0 0.03651962452630661 0.07112400704016153 0 0 0 0.019337438756001357 -0.062301889001390914 -0.02765959720449207 0 -0.02765959720449207 0.018546841429507133 0 0 0 -0.010938761892970855 -0.07329469832146876 -0.019455834984295817 0 -0.019455834984295817 0.0014890108650087996 0 0 0 -0.017951421864114941 -0.021011120861035126 0.023388865906460624 0 0.023388865906460624 0.050638809906002502 0 0 0 0.0074069222612418578 -0.0080321304180770194 0.028819570967400385 0 0.028819570967400385 0.040624706563334882 0 0 0 0.0081481440363144718 -0.041980184761629874 -0.015901222117341629 0 -0.015901222117341629 0.022633531284548813 0 0 0 -0.0048366633692702721 -0.040766637342092404 -0.0054199274917505758 0 -0.0054199274917505758 0.011828505459404795 0 0 0 -0.0072345329706719023 -0.040414963175885499 -0.0042555779852590375 0 -0.0042555779852590375 0.021146768239574509 0 0 0 -0.0048170487340777474 -0.041315203730743794 -0.0026333862733329064 0 -0.0026333862733329064 0.035374388855030955 0 0 0 -0.0014852037189281991 0.00095408974859401141 0.020337529376498686 0 0.020337529376498686 0.11267287183903463 0 0 0 0.028406740396907271 -0.030362237925615099 -0.0063435121606063571 0 -0.0063435121606063571 0.00027164924688594105 0 0 0 -0.0075226471696824282 -0.071667376325750043 0.0069271485590597648 0 0.0069271485590597648 0.00075666623757994489 0 0 0 -0.017727677522042538 -0.029075164155277389 0.0050485564402627751 0 0.0050485564402627751 -0.011195272837026028 0 0 0 -0.010067609248075853 0.032493251174457005 0.019407918034779481 0 0.019407918034779481 0.063593432623877177 0 0 0 0.024021670949583629 -0.025037633080485788 -0.0061669489710302061 0 -0.0061669489710302061 -0.018261047225395455 0 0 0 -0.010824670076470366 -0.062774338077214636 -0.026823400406926576 0 -0.026823400406926576 -0.00070739255507279442 0 0 0 -0.015870432658071851 -0.088533259615900251 -0.021357322369339453 0 -0.021357322369339453 0.0029653495146974573 0 0 0 -0.021391977525300671 -0.035290867413487137 -0.011277144777138509 0 -0.011277144777138509 0.043307398455278423 0 0 0 0.0020041327604478076 
</DataArray>
<DataArray type="Float64" Name="cross_section_updated" format="ascii">
0.0010093116938791017 0.0010230106682690508 0.0010313642249433039 0.0010392350922792466 0.0010474260493259361 0.0010563693999792575 0.0010661634679346469 0.0010761655924316294 0.0010862513346792373 0.0010952383243683136 0.002033315206178637 0.0020860422635042377 0.0021218164305802541 0.002153991734208451 0.0021854992725330548 0.0022167427173518314 0.0022480712146172649 0.0022786063298515587 0.0023082929620660254 0.0023359863643399887 1 1 1 1 1 1 1 1 1 1 1 1 1 1 1 1 1 1 1 1 1 1 1 1 1 1 1 1 1 1 1 1 1 1 1 1 1 1 1 1 1 1 1 1 1 1 1 1 1 1 1 1 1 1 1 1 1 1 1 1 1 1 1 1 1 1 1 1 1 1 1 1 1 1 1 1 1 1 1 1 1 1 1 1 1 1 1 1 1 1 1 1 1 1 1 1 1 1 1 1 1 1 1 1 1 1 1 1 1 1 1 1 1 1 1 1 1 1 1 1 1 1 1 1 1 1 1 1 1 1 1 1 1 1 1 1 1 1 1 1 1 1 1 1 1 1 1 1 1 1 1 1 1 1 1 1 1 1 1 1 1 1 1 1 1 1 1 1 1 1 1 1 1 1 1 1 1 1 1 1 1 1 1 1 1 1 1 1 1 1 1 1 1 1 1 1 1 1 1 1 1 1 1 1 1 1 1 1 1 1 1 1 1 1 1 1 1 1 1 1 1 1 1 1 1 1 1 1 1 1 1 1 1 1 1 1 1 1 1 1 1 1 1 1 1 1 1 1 1 1 1 1 1 1 1 1 1 1 1 1 1 1 1 1 1 1 1 1 1 1 1 1 1 1 1 1 1 1 1 1 1 1 1 1 1 1 1 1 1 1 1 1 1 1 1 1 1 1 1 1 1 1 1 1 1 1 1 1 1 1 1 1 1 1 1 1 1 1 1 1 1 1 1 1 1 1 1 1 1 1 1 1 1 1 1 1 1 1 1 1 1 1 1 1 1 1 1 1 1 1 1 1 1 1 1 1 1 1 1 1 1 1 1 1 1 1 1 1 1 1 1 1 1 1 1 1 1 1 1 1 1 1 1 1 1 1 1 1 1 1 1 1 1 1 1 1 1 1 1 1 1 1 1 1 1 1 1 1 1 1 1 1 1 1 1 1 1 1 1 1 1 1 1 1 1 1 1 1 1 1 1 1 1 1 1 1 1 1 1 1 1 1 1 1 1 1 1 1 1 1 1 1 1 1 1 1 1 1 1 1 1 1 1 1 1 1 1 1 1 1 1 1 1 1 1 1 1 1 1 1 1 1 1 1 1 1 1 1 1 1 1 1 1 1 1 1 1 1 1 1 1 1 1 1 1 1 1 1 1 1 1 1 1 1 1 1 1 1 1 1 1 1 1 1 1 1 1 1 1 1 1 1 1 1 1 1 1 1 1 1 1 1 1 1 1 1 1 1 1 1 1 1 1 1 1 1 1 1 1 1 1 1 1 1 1 1 1 1 1 1 1 1 1 1 1 1 1 1 1 1 1 1 1 1 1 1 1 1 1 1 1 1 1 1 1 1 1 1 1 1 1 1 1 1 1 1 1 1 1 1 1 1 1 1 1 1 1 1 1 1 1 1 1 1 1 1 1 1 1 1 1 1 1 1 1 1 1 1 1 1 1 1 1 1 1 1 1 1 1 1 1 1 1 1 1 1 1 1 1 1 1 1 1 1 1 1 1 1 1 1 1 1 1 1 1 1 1 1 1 1 1 1 1 1 1 1 1 1 1 1 1 1 1 1 1 1 1 1 1 1 1 1 1 1 1 1 1 1 1 1 1 1 1 1 1 1 1 1 1 1 1 1 1 1 1 1 1 1 1 1 1 1 1 1 1 1 1 1 1 1 1 1 1 1 1 1 1 1 1 1 1 1 1 1 1 1 1 1 1 1 1 1 1 1 1 1 1 1 1 1 1 1 1 1 1 1 1 1 1 1 1 1 1 1 1 1 1 1 1 1 1 1 1 1 1 1 1 1 1 1 1 1 1 1 1 1 1 1 1 1 1 1 1 1 1 1 1 1 1 1 1 1 1 1 1 1 1 1 1 1 1 1 1 1 1 1 1 1 1 1 1 1 1 1 1 1 1 1 1 1 1 1 1 1 1 1 1 1 1 1 1 1 1 1 1 1 1 1 1 1 1 1 1 1 1 1 1 1 1 1 1 1 1 1 1 1 1 1 1 1 1 1 1 1 1 1 1 1 1 1 1 1 1 1 1 1 1 1 1 1 1 1 1 1 1 1 1 1 1 1 1 1 1 1 1 1 1 1 1 1 1 1 1 1 1 1 1 1 1 1 1 1 1 1 1 1 1 1 1 1 1 1 1 1 1 1 1 1 1 1 1 1 1 1 1 1 1 1 1 1 1 1 1 1 1 1 1 1 1 1 1 1 1 1 1 1 1 1 1 1 1 1 1 1 1 1 1 1 1 1 1 1 1 1 1 1 1 1 1 1 1 1 1 1 1 1 1 1 1 1 1 1 1 1 1 1 1 1 1 1 1 1 1 1 
</DataArray>
</CellData>
</Piece>
</UnstructuredGrid>
</VTKFile>
