<?xml version="1.0"?>
<VTKFile type="UnstructuredGrid" version="0.1" byte_order="LittleEndian">
<UnstructuredGrid>
<Piece NumberOfPoints="3142" NumberOfCells="1054">
<Points>
<DataArray type="Float64" NumberOfComponents="3" format="ascii">
0.5 0.29999999999999999 0 0.54999999999999993 0.29999999999999999 0 0.54999999999999993 0.29999999999999999 0 0.59999999999999976 0.29999999999999999 0 0.59999999999999976 0.29999999999999999 0 0.6499999999999998 0.29999999999999999 0 0.6499999999999998 0.29999999999999999 0 0.69999999999999984 0.29999999999999999 0 0.69999999999999984 0.29999999999999999 0 0.74999999999999989 0.29999999999999999 0 0.74999999999999989 0.29999999999999999 0 0.79999999999999982 0.29999999999999999 0 0.79999999999999982 0.29999999999999999 0 0.84999999999999987 0.29999999999999999 0 0.84999999999999987 0.29999999999999999 0 0.89999999999999991 0.29999999999999999 0 0.89999999999999991 0.29999999999999999 0 0.94999999999999996 0.29999999999999999 0 0.94999999999999996 0.29999999999999999 0 1 0.29999999999999999 0 0.5 0.69999999999999996 0 0.54999999999999993 0.69999999999999996 0 0.54999999999999993 0.69999999999999996 0 0.59999999999999976 0.69999999999999996 0 0.59999999999999976 0.69999999999999996 0 0.6499999999999998 0.69999999999999996 0 0.6499999999999998 0.69999999999999996 0 0.69999999999999984 0.69999999999999996 0 0.69999999999999984 0.69999999999999996 0 0.74999999999999989 0.69999999999999996 0 0.74999999999999989 0.69999999999999996 0 0.79999999999999982 0.69999999999999996 0 0.79999999999999982 0.69999999999999996 0 0.84999999999999987 0.69999999999999996 0 0.84999999999999987 0.69999999999999996 0 0.89999999999999991 0.69999999999999996 0 0.89999999999999991 0.69999999999999996 0 0.94999999999999996 0.69999999999999996 0 0.94999999999999996 0.69999999999999996 0 1 0.69999999999999996 0 0.40076539126862748 0.34589349467022118 0 0.33277555741076909 0.36432196682010132 0 0.36575549820117997 0.31677992835137742 0 0.38083244760691543 0.38531983672244652 0 0.33277555741076909 0.36432196682010132 0 0.40076539126862748 0.34589349467022118 0 0.56836770495988642 0.3523062350852913 0 0.52289427570932567 0.3932284363388488 0 0.52752007115234678 0.33170632466418198 0 0.52752007115234678 0.33170632466418198 0 0.52289427570932567 0.3932284363388488 0 0.49077833859261139 0.35229981449445641 0 0.10000000000041601 1 0 0.053064897599294662 0.95186845269532028 0 0.10266856499240549 0.95548163909968886 0 0.099999999999814668 0 0 0.10266856499169109 0.044518360900210059 0 0.053064897599215843 0.048131547304697528 0 0.050000000000207989 1 0 0.053064897599294662 0.95186845269532028 0 0.10000000000041601 1 0 0.049999999999899652 0 0 0.099999999999814668 0 0 0.053064897599215843 0.048131547304697528 0 0.24999999999941211 0 0 0.29999999999926641 0 0 0.27499999999933927 0.060310814194988557 0 0.30000000000124832 1 0 0.25000000000104028 1 0 0.27609987656793722 0.94991445621608572 0 0.15720202157091859 0.60665697304410315 0 0.19914261668318661 0.62286739485272158 0 0.16500388252850301 0.66612077714085194 0 0.2236846579037573 0.67380363126050236 0 0.16500388252850301 0.66612077714085194 0 0.19914261668318661 0.62286739485272158 0 0.1247745017231483 0.27198077544791172 0 0.168349569971391 0.28054490850913671 0 0.14223753364722069 0.3341983344262433 0 0 0.75000000000034661 0 0 0.7000000000006934 0 0.049706944316475897 0.72477277076253799 0 0 0.30000000000124832 0 0 0.25000000000104028 0 0.049706944316556423 0.27522722923869108 0 0.59999999999999976 0.29999999999999999 0 0.61959173890754571 0.33832250091341232 0 0.56836770495988642 0.3523062350852913 0 0.5 0.69999999999999996 0 0.43323420005758778 0.6913544522562407 0 0.47913475093885149 0.66010775372412711 0 1 0.14999999999961891 0 0.95391631417672862 0.19584263333809451 0 0.93677536231883773 0.14999999999999089 0 1 0.84999999999982645 0 0.95391631417670719 0.89584263333814784 0 0.93677536231884972 0.85000000000000286 0 1 0.84999999999982645 0 0.93677536231884972 0.85000000000000286 0 0.95386563387742829 0.80414874155775029 0 1 0.14999999999961891 0 0.93677536231883773 0.14999999999999089 0 0.95386563387744361 0.1041487415577465 0 0.90416666666660628 0.9041666666666166 0 0.88088768115933802 0.84674609810493673 0 0.93677536231884972 0.85000000000000286 0 0.90416666666668166 0.20416666666667119 0 0.88088768115941807 0.14674609810479519 0 0.93677536231883773 0.14999999999999089 0 0.1247745017231483 0.27198077544791172 0 0.14223753364722069 0.3341983344262433 0 0.093851963071650835 0.30582068233324772 0 0.5 0.69999999999999996 0 0.45582236402875981 0.73896743678908217 0 0.43323420005758778 0.6913544522562407 0 0.55000000000173355 1 0 0.50000000000205869 1 0 0.52122150208832174 0.94089974453840242 0 0.49999999999869432 0 0 0.5499999999988151 0 0 0.52375890611712683 0.059318771819432882 0 0.54999999999999993 0.29999999999999999 0 0.59999999999999976 0.29999999999999999 0 0.56836770495988642 0.3523062350852913 0 0.50202631463681879 0.87892870825713787 0 0.44003836461056539 0.88093474584252718 0 0.45677673713123867 0.84253684404072415 0 0.33403534827021109 0.84402799729020661 0 0.35864759629805099 0.87963482415279515 0 0.30864387279288652 0.89906554525974958 0 0.53245488764484505 0.55078124999999989 0 0.47793794143994173 0.52940715638744962 0 0.53330375813596242 0.50827942741749099 0 0.82709327591102189 0.14937141670914489 0 0.81283102246527783 0.1881007222486438 0 0.77144070960558853 0.14311854477243749 0 0.82709327591091286 0.84937141670920724 0 0.81159157511211755 0.88795995483179491 0 0.76901770135486491 0.84293557325473656 0 0.77144070960558853 0.14311854477243749 0 0.81283102246527783 0.1881007222486438 0 0.76587607630038135 0.18880039518954719 0 0.76901770135486491 0.84293557325473656 0 0.81159157511211755 0.88795995483179491 0 0.76891166905518427 0.88835469571185499 0 0.33403534827021109 0.84402799729020661 0 0.30864387279288652 0.89906554525974958 0 0.29209212897034281 0.84715728365233667 0 0.57412547362576272 0.58273804879550706 0 0.5166924242153631 0.59825134841919447 0 0.53245488764484505 0.55078124999999989 0 0.50202631463681879 0.87892870825713787 0 0.47401147028110507 0.91529957330468115 0 0.44003836461056539 0.88093474584252718 0 0.5 0.69999999999999996 0 0.54999999999999993 0.69999999999999996 0 0.55363780716230748 0.74348740161571747 0 1 0.34999999999993492 0 0.95871855522754235 0.40006508612975411 0 0.95780851984364423 0.34215720972155339 0 1 0.64999999999986979 0 0.9578014258160763 0.65787212321113708 0 0.95867599106212187 0.60011091146651041 0 0.46666084890304671 0.57634471035397938 0 0.47793794143994173 0.52940715638744962 0 0.53245488764484505 0.55078124999999989 0 0.94999999999999996 0.29999999999999999 0 0.89898474358614167 0.25391965591104898 0 0.94399509803921056 0.24399509803922639 0 0.94999999999979179 1 0 0.89898474358632463 0.95391965591118966 0 0.94399509803919068 0.9439950980391687 0 0 0.65000000000104008 0 0.050069554451969707 0.61308520079857043 0 0.046634677244967337 0.671418230738282 0 0 0.35000000000145642 0 0.046389130980076937 0.32668781832131749 0 0.050583896093752537 0.38543522283434112 0 0.50202631463681879 0.87892870825713787 0 0.50627822638148745 0.8263979829520941 0 0.55899371797446828 0.85003102233514438 0 0.54782696902220018 0.79245182748204157 0 0.55899371797446828 0.85003102233514438 0 0.50627822638148745 0.8263979829520941 0 0.50945740445113552 0.75476055527778108 0 0.5 0.69999999999999996 0 0.55363780716230748 0.74348740161571747 0 0.84999999999965292 1 0 0.85170973911348691 0.93569607295217616 0 0.89898474358632463 0.95391965591118966 0 0.84999999999999987 0.29999999999999999 0 0.8517097391133297 0.2356960729520409 0 0.89898474358614167 0.25391965591104898 0 0.86956835336234861 0.571283299838105 0 0.82862096804812391 0.55037090955459045 0 0.86907294890112186 0.52008116128001669 0 0.49102375406324739 0.49123754822244059 0 0.53330375813596242 0.50827942741749099 0 0.47793794143994173 0.52940715638744962 0 0.57611405284611883 0.50165903596042916 0 0.61547661924074692 0.48539576058873962 0 0.62042975506801734 0.54295974692364424 0 0.71406021706547751 0.63292083137662503 0 0.67529834988829951 0.61613270668143583 0 0.71809016091162536 0.58185040402320831 0 0.65000000000104008 1 0 0.62065498684670595 0.95224934003983619 0 0.68015064798562208 0.95924320340003011 0 0.84999999999960507 0 0 0.899991664607802 0.045289349238254978 0 0.85491058998398861 0.060047533455626502 0 0.84999999999999987 0.69999999999999996 0 0.89999166460796554 0.74528934923809909 0 0.85491058998424563 0.76004753345552634 0 0.89999999999999991 0.29999999999999999 0 0.89898474358614167 0.25391965591104898 0 0.94999999999999996 0.29999999999999999 0 0.94999999999979179 1 0 0.89999999999958358 1 0 0.89898474358632463 0.95391965591118966 0 0.86411095495256451 0.42388805655111889 0 0.81308179852519835 0.39754945808726527 0 0.86844634540301924 0.38530937474099819 0 0.5 0.29999999999999999 0 0.49695729691142171 0.25014895411178018 0 0.54248833945060504 0.2520322959927106 0 0.86411095495256451 0.42388805655111889 0 0.81973119833356312 0.43505687159469048 0 0.81308179852519835 0.39754945808726527 0 0.67323294229744413 0.57556450033612505 0 0.71809016091162536 0.58185040402320831 0 0.67529834988829951 0.61613270668143583 0 0.6236733212988993 0.14864538214901801 0 0.68391457121233579 0.14440470121196541 0 0.64011864159029941 0.18789607982138171 0 0 0.050000000000207989 0 0.053064897599215843 0.048131547304697528 0 0.044310582753132287 0.101412518374475 0 0 0.94999999999979179 0 0.0443105827531413 0.89858748162559932 0 0.053064897599294662 0.95186845269532028 0 1 0.34999999999993492 0 1 0.39999999999978308 0 0.95871855522754235 0.40006508612975411 0 1 0.59999999999973963 0 1 0.64999999999986979 0 0.95867599106212187 0.60011091146651041 0 0 0.84999999999965292 0 0.065374659239661639 0.8551091961254178 0 0.0443105827531413 0.89858748162559932 0 0 0.15000000000062411 0 0.044310582753132287 0.101412518374475 0 0.065374659239632718 0.1448908038746782 0 0.16500388252850301 0.66612077714085194 0 0.1020579365089687 0.69352219419301997 0 0.1241190223511371 0.64391885572885044 0 0.14999999999970359 0 0 0.14618258501891079 0.062070108745602003 0 0.10266856499169109 0.044518360900210059 0 0.15000000000062411 1 0 0.10266856499240549 0.95548163909968886 0 0.14617343800780541 0.93808063414349496 0 0.7152569930854884 0.5237994455134295 0 0.67569444444444449 0.53500863336860327 0 0.69385896817107129 0.48377516041410151 0 0.6541250972820879 0.49999999999999989 0 0.62042975506801734 0.54295974692364424 0 0.61547661924074692 0.48539576058873962 0 0.94999999999999996 0.69999999999999996 0 0.94399509803918602 0.75600490196082126 0 0.89999166460796554 0.74528934923809909 0 0.94999999999986839 0 0 0.94399509803922566 0.056004901960802607 0 0.899991664607802 0.045289349238254978 0 0.6541250972820879 0.49999999999999989 0 0.69385896817107129 0.48377516041410151 0 0.67569444444444449 0.53500863336860327 0 0.82862096804812391 0.55037090955459045 0 0.81723410853263523 0.59419663659258926 0 0.77151014687832564 0.54436834383023036 0 0.7250000000005199 0.89375000000045834 0 0.66412543161245952 0.88015090885499059 0 0.68697391633157634 0.84450604838764298 0 0 0.94999999999979179 0 0 0.89999999999958358 0 0.0443105827531413 0.89858748162559932 0 0 0.10000000000041601 0 0 0.050000000000207989 0 0.044310582753132287 0.101412518374475 0 0.16500388252850301 0.66612077714085194 0 0.15332765547575641 0.71200081858233666 0 0.1020579365089687 0.69352219419301997 0 0.90299850604011456 0.79563452813489832 0 0.93677536231884972 0.85000000000000286 0 0.88088768115933802 0.84674609810493673 0 0.90299850604006393 0.09563452813493091 0 0.93677536231883773 0.14999999999999089 0 0.88088768115941807 0.14674609810479519 0 0.68391457121233579 0.14440470121196541 0 0.6865991819015953 0.189116534044597 0 0.64011864159029941 0.18789607982138171 0 0.085622222639554768 0.53333248912060549 0 0.1216098864341134 0.50637075089503902 0 0.1154888278694548 0.56733818459978413 0 0.21858834311891909 0.81980263716112767 0 0.22556077506376701 0.77837424984191617 0 0.26104540868854792 0.81401944968719064 0 0.81723410853263523 0.59419663659258926 0 0.77293540622714185 0.59448302402785813 0 0.77151014687832564 0.54436834383023036 0 0.1154888278694548 0.56733818459978413 0 0.1216098864341134 0.50637075089503902 0 0.14934928745814749 0.55042914607228977 0 0.1216098864341134 0.50637075089503902 0 0.068743045408989428 0.48853989837882689 0 0.113541300460994 0.46208784312094731 0 0.078358742472063481 0.43365249433908948 0 0.113541300460994 0.46208784312094731 0 0.068743045408989428 0.48853989837882689 0 0.83573492347052902 0.36590755630746369 0 0.81308179852519835 0.39754945808726527 0 0.78145581580700685 0.34881365920033602 0 0.57611405284611883 0.50165903596042916 0 0.62042975506801734 0.54295974692364424 0 0.57435499076887508 0.54267261987897775 0 0.86956835336234861 0.571283299838105 0 0.81723410853263523 0.59419663659258926 0 0.82862096804812391 0.55037090955459045 0 0.46666084890304671 0.57634471035397938 0 0.53245488764484505 0.55078124999999989 0 0.5166924242153631 0.59825134841919447 0 0.89999999999999991 0.69999999999999996 0 0.94999999999999996 0.69999999999999996 0 0.89999166460796554 0.74528934923809909 0 0.89999999999973679 0 0 0.94999999999986839 0 0 0.899991664607802 0.045289349238254978 0 0.84999999999960507 0 0 0.89999999999973679 0 0 0.899991664607802 0.045289349238254978 0 0.84999999999999987 0.69999999999999996 0 0.89999999999999991 0.69999999999999996 0 0.89999166460796554 0.74528934923809909 0 0.43545892161006339 0.61093128915313821 0 0.4089290844030305 0.58728915500154233 0 0.46666084890304671 0.57634471035397938 0 0.1650278706801647 0.38791388161335733 0 0.1117088112799664 0.38831403004970022 0 0.14223753364722069 0.3341983344262433 0 0.087545339447545459 0.35122518864182262 0 0.14223753364722069 0.3341983344262433 0 0.1117088112799664 0.38831403004970022 0 0.6916490518212759 0.75387992374886192 0 0.72501250972655151 0.74067302935308721 0 0.72500000000000064 0.7952620967744265 0 0.72501250972655151 0.74067302935308721 0 0.75841349681148107 0.75422312624214749 0 0.72500000000000064 0.7952620967744265 0 0.57412547362576272 0.58273804879550706 0 0.53245488764484505 0.55078124999999989 0 0.57435499076887508 0.54267261987897775 0 1 0.54999999999963112 0 0.95867599106212187 0.60011091146651041 0 0.93732437411268477 0.55911392101136159 0 1 0.44999999999963131 0 0.93814194660195893 0.44426664081746747 0 0.95871855522754235 0.40006508612975411 0 0.4089290844030305 0.58728915500154233 0 0.42644501560315817 0.54603747078095544 0 0.46666084890304671 0.57634471035397938 0 0.89999999999958358 1 0 0.84999999999965292 1 0 0.89898474358632463 0.95391965591118966 0 0.84999999999999987 0.29999999999999999 0 0.89898474358614167 0.25391965591104898 0 0.89999999999999991 0.29999999999999999 0 0.29999999999926641 0 0 0.32541448401678508 0.046215317981507749 0 0.27499999999933927 0.060310814194988557 0 0.30000000000124832 1 0 0.27609987656793722 0.94991445621608572 0 0.32544832635163229 0.95485394099568932 0 0.57412547362576272 0.58273804879550706 0 0.62042975506801734 0.54295974692364424 0 0.63065402604362242 0.59661356661633302 0 0.5 0.29999999999999999 0 0.54248833945060504 0.2520322959927106 0 0.54999999999999993 0.29999999999999999 0 0.67323294229744413 0.57556450033612505 0 0.62042975506801734 0.54295974692364424 0 0.67569444444444449 0.53500863336860327 0 0.6541250972820879 0.49999999999999989 0 0.67569444444444449 0.53500863336860327 0 0.62042975506801734 0.54295974692364424 0 1 0.14999999999961891 0 1 0.19999999999974799 0 0.95391631417672862 0.19584263333809451 0 1 0.84999999999982645 0 1 0.8999999999998336 0 0.95391631417670719 0.89584263333814784 0 1 0.7999999999998193 0 1 0.84999999999982645 0 0.95386563387742829 0.80414874155775029 0 1 0.099999999999753911 0 1 0.14999999999961891 0 0.95386563387744361 0.1041487415577465 0 0.4656888918609538 0.78493261229743638 0 0.50627822638148745 0.8263979829520941 0 0.45677673713123867 0.84253684404072415 0 0.6879972333610942 0.43038561374960838 0 0.72622533758026719 0.40265885511101601 0 0.73483647259922602 0.44789725365921768 0 0.67323294229744413 0.57556450033612505 0 0.67569444444444449 0.53500863336860327 0 0.71809016091162536 0.58185040402320831 0 0.7152569930854884 0.5237994455134295 0 0.71809016091162536 0.58185040402320831 0 0.67569444444444449 0.53500863336860327 0 0.65394964615507722 0.22666784374016369 0 0.59814117807200873 0.23398510860739519 0 0.64011864159029941 0.18789607982138171 0 0.55000000000173355 1 0 0.52122150208832174 0.94089974453840242 0 0.57382506491224949 0.9629411906298494 0 0.39801143831225599 0.16651381068160659 0 0.44288491854585582 0.14116182884956319 0 0.42905200079338551 0.19982395548231649 0 0.47357141910802508 0.1873585799078378 0 0.42905200079338551 0.19982395548231649 0 0.44288491854585582 0.14116182884956319 0 0.90594285160987287 0.4141265964174129 0 0.88594198078881503 0.46167788676578442 0 0.86411095495256451 0.42388805655111889 0 0.65507451745379841 0.92229208810758578 0 0.68015064798562208 0.95924320340003011 0 0.62065498684670595 0.95224934003983619 0 0.35312867752657662 0.084946736076730367 0 0.39591832466117061 0.056982757562006353 0 0.39823268594401579 0.1116623613130045 0 0.43698630808430822 0.080423614171545449 0 0.39823268594401579 0.1116623613130045 0 0.39591832466117061 0.056982757562006353 0 0.4367309254023824 0.92065556789053882 0 0.39641108128798319 0.94356127926187128 0 0.39767323751400468 0.89584229130535065 0 0.35752321586431363 0.9185439911803448 0 0.39767323751400468 0.89584229130535065 0 0.39641108128798319 0.94356127926187128 0 0.77354604466818633 0.40378688774472771 0 0.77972660463949339 0.45529290596363098 0 0.73483647259922602 0.44789725365921768 0 0.5499999999988151 0 0 0.57396793757665954 0.037011367187645222 0 0.52375890611712683 0.059318771819432882 0 0.64753070846764316 0.77332939069435502 0 0.60294066490120068 0.80851322453934582 0 0.59636844454254345 0.75937156204589151 0 0.49102375406324739 0.49123754822244059 0 0.48858720058566618 0.43964267759203868 0 0.53823865529665704 0.45873898050322898 0 0.28307294598219601 0.50789252727458634 0 0.29110487519241501 0.56588143995431495 0 0.25115337790845271 0.54719303014923271 0 0.79680861578988083 0.92656778056766709 0 0.81159157511211755 0.88795995483179491 0 0.85170973911348691 0.93569607295217616 0 0.79680861578956375 0.22656778056752541 0 0.81283102246527783 0.1881007222486438 0 0.8517097391133297 0.2356960729520409 0 0.57412547362576272 0.58273804879550706 0 0.57435499076887508 0.54267261987897775 0 0.62042975506801734 0.54295974692364424 0 0.93814194660195893 0.44426664081746747 0 0.88594198078881503 0.46167788676578442 0 0.90594285160987287 0.4141265964174129 0 0.7152569930854884 0.5237994455134295 0 0.73947346780852752 0.49062440112282169 0 0.77151014687832564 0.54436834383023036 0 0 0.7000000000006934 0 0.046634677244967337 0.671418230738282 0 0.049706944316475897 0.72477277076253799 0 0 0.30000000000124832 0 0.049706944316556423 0.27522722923869108 0 0.046389130980076937 0.32668781832131749 0 0.59814117807200873 0.23398510860739519 0 0.59443395090188023 0.18455690917515069 0 0.64011864159029941 0.18789607982138171 0 0.21858834311891909 0.81980263716112767 0 0.26104540868854792 0.81401944968719064 0 0.2401283238295133 0.85648409884788523 0 0.39536230704883951 0.84069429572832477 0 0.45677673713123867 0.84253684404072415 0 0.44003836461056539 0.88093474584252718 0 0.086179601630648681 0.64647209519980475 0 0.050069554451969707 0.61308520079857043 0 0.1024350934457823 0.60772393977513839 0 0.077693244765132896 0.56932317963405099 0 0.1024350934457823 0.60772393977513839 0 0.050069554451969707 0.61308520079857043 0 0.078358742472063481 0.43365249433908948 0 0.050583896093752537 0.38543522283434112 0 0.1117088112799664 0.38831403004970022 0 0.087545339447545459 0.35122518864182262 0 0.1117088112799664 0.38831403004970022 0 0.050583896093752537 0.38543522283434112 0 0.33403534827021109 0.84402799729020661 0 0.35642984951668422 0.80994399665655703 0 0.39536230704883951 0.84069429572832477 0 0.28307294598219601 0.50789252727458634 0 0.33190227185843768 0.52715113583864037 0 0.29110487519241501 0.56588143995431495 0 0.2236846579037573 0.67380363126050236 0 0.19068556247388771 0.71028988922845504 0 0.16500388252850301 0.66612077714085194 0 0.26104540868854792 0.81401944968719064 0 0.22556077506376701 0.77837424984191617 0 0.2792923945214143 0.77665808831789485 0 0.38244435121258652 0.51653317813019495 0 0.37272913873093971 0.56192925302619479 0 0.33190227185843768 0.52715113583864037 0 0.25195515620380449 0.25883339815888678 0 0.29132859388405002 0.27203693976649962 0 0.24432083401701241 0.3006253385567515 0 0.29348325746214782 0.31350119524708198 0 0.24432083401701241 0.3006253385567515 0 0.29132859388405002 0.27203693976649962 0 0 0.89999999999958358 0 0 0.84999999999965292 0 0.0443105827531413 0.89858748162559932 0 0 0.15000000000062411 0 0 0.10000000000041601 0 0.044310582753132287 0.101412518374475 0 0.59999999999999976 0.69999999999999996 0 0.59636844454254345 0.75937156204589151 0 0.55363780716230748 0.74348740161571747 0 0.1650278706801647 0.38791388161335733 0 0.22033343844674469 0.36963382230740238 0 0.191953871957803 0.42546416763755879 0 0.52289427570932567 0.3932284363388488 0 0.46655310992796922 0.39650496622958609 0 0.49077833859261139 0.35229981449445641 0 0.91696753777131557 0.497780560203536 0 0.88594198078881503 0.46167788676578442 0 0.93814194660195893 0.44426664081746747 0 0.24999999999941211 0 0 0.27499999999933927 0.060310814194988557 0 0.22668068146512929 0.045875643423131329 0 0.25000000000104028 1 0 0.22850979588452081 0.95594428570238643 0 0.27609987656793722 0.94991445621608572 0 0.77846603114747959 0.49850927265137401 0 0.77151014687832564 0.54436834383023036 0 0.73947346780852752 0.49062440112282169 0 0.27499999999933927 0.060310814194988557 0 0.27474541102162192 0.11822029332053539 0 0.24218496799700481 0.089025544070598317 0 0.27270076654418179 0.87751467830216623 0 0.29209212897034281 0.84715728365233667 0 0.30864387279288652 0.89906554525974958 0 0.3096713403101819 0.085471541595262421 0 0.27474541102162192 0.11822029332053539 0 0.27499999999933927 0.060310814194988557 0 0.17933913398461551 0.2350063570234002 0 0.18124454140915969 0.18790916706335251 0 0.224700362040408 0.22206622194729711 0 0.18269480424590959 0.75905448272264375 0 0.22556077506376701 0.77837424984191617 0 0.17777405986036951 0.81832336108265358 0 0.35864759629805099 0.87963482415279515 0 0.33403534827021109 0.84402799729020661 0 0.39536230704883951 0.84069429572832477 0 0.77354604466818633 0.40378688774472771 0 0.73483647259922602 0.44789725365921768 0 0.72622533758026719 0.40265885511101601 0 0.80185942888539485 0.77452061303608133 0 0.85491058998424563 0.76004753345552634 0 0.84725310900444062 0.80779732082917555 0 0.80185942888501827 0.074520613036224564 0 0.85491058998398861 0.060047533455626502 0 0.84725310900442086 0.10779732082922661 0 0.086179601630648681 0.64647209519980475 0 0.046634677244967337 0.671418230738282 0 0.050069554451969707 0.61308520079857043 0 0.087545339447545459 0.35122518864182262 0 0.050583896093752537 0.38543522283434112 0 0.046389130980076937 0.32668781832131749 0 0 0.75000000000034661 0 0.049706944316475897 0.72477277076253799 0 0.04408157711937423 0.7728941757575627 0 0 0.25000000000104028 0 0.044081577119474857 0.2271058242433576 0 0.049706944316556423 0.27522722923869108 0 0.52289427570932567 0.3932284363388488 0 0.56836770495988642 0.3523062350852913 0 0.57744073070774993 0.41535148636609359 0 0.6084546825910605 0.37989672713932537 0 0.57744073070774993 0.41535148636609359 0 0.56836770495988642 0.3523062350852913 0 0.61343887413683884 0.856862479058357 0 0.55899371797446828 0.85003102233514438 0 0.60294066490120068 0.80851322453934582 0 0.54782696902220018 0.79245182748204157 0 0.60294066490120068 0.80851322453934582 0 0.55899371797446828 0.85003102233514438 0 0.40326160981139969 0.73346192995102844 0 0.36622285152418499 0.69092437780804039 0 0.43323420005758778 0.6913544522562407 0 0.52289427570932567 0.3932284363388488 0 0.48858720058566618 0.43964267759203868 0 0.46655310992796922 0.39650496622958609 0 0.15720202157091859 0.60665697304410315 0 0.1154888278694548 0.56733818459978413 0 0.14934928745814749 0.55042914607228977 0 0.6879972333610942 0.43038561374960838 0 0.73483647259922602 0.44789725365921768 0 0.69385896817107129 0.48377516041410151 0 0.7250000000005199 0.89375000000045834 0 0.68987011941058407 0.92105047536677087 0 0.66412543161245952 0.88015090885499059 0 0.83573492347052902 0.36590755630746369 0 0.78145581580700685 0.34881365920033602 0 0.82500000000000062 0.33010209762754811 0 0.82862096804812391 0.55037090955459045 0 0.81441713509985358 0.51161854125224959 0 0.86907294890112186 0.52008116128001669 0 0.19670163708476801 0.31472518408333222 0 0.14223753364722069 0.3341983344262433 0 0.168349569971391 0.28054490850913671 0 0.50202631463681879 0.87892870825713787 0 0.45677673713123867 0.84253684404072415 0 0.50627822638148745 0.8263979829520941 0 0.099999999999814668 0 0 0.14999999999970359 0 0 0.10266856499169109 0.044518360900210059 0 0.15000000000062411 1 0 0.10000000000041601 1 0 0.10266856499240549 0.95548163909968886 0 0.67323294229744413 0.57556450033612505 0 0.63065402604362242 0.59661356661633302 0 0.62042975506801734 0.54295974692364424 0 0.083105206071467416 0.20007701332709979 0 0.13737030665753211 0.20313708640667491 0 0.095326043202144745 0.24554465089224409 0 0.083105206071452636 0.79992298667296435 0 0.090953281884486245 0.7564451946902494 0 0.1382744753146134 0.79650574229207483 0 0.50000000000205869 1 0 0.47135117303824892 0.95556877749289892 0 0.52122150208832174 0.94089974453840242 0 0.49999999999869432 0 0 0.52375890611712683 0.059318771819432882 0 0.47040171442036788 0.044141676406503738 0 0.4656888918609538 0.78493261229743638 0 0.45582236402875981 0.73896743678908217 0 0.50945740445113552 0.75476055527778108 0 0.5 0.69999999999999996 0 0.50945740445113552 0.75476055527778108 0 0.45582236402875981 0.73896743678908217 0 0.55306006949600994 0.20198184231352201 0 0.56202748619534593 0.15054058349222879 0 0.59443395090188023 0.18455690917515069 0 0.6236733212988993 0.14864538214901801 0 0.59443395090188023 0.18455690917515069 0 0.56202748619534593 0.15054058349222879 0 0.57412547362576272 0.58273804879550706 0 0.5498280205245758 0.6290146943450976 0 0.5166924242153631 0.59825134841919447 0 0.91696753777131557 0.497780560203536 0 0.93814194660195893 0.44426664081746747 0 0.96228564064454991 0.48206450662049471 0 0.15720202157091859 0.60665697304410315 0 0.16500388252850301 0.66612077714085194 0 0.1241190223511371 0.64391885572885044 0 0.44288491854585582 0.14116182884956319 0 0.47881186583059909 0.093591717165689425 0 0.48466639505193998 0.1421439844745814 0 1 0.54999999999963112 0 0.93732437411268477 0.55911392101136159 0 0.95631871884947484 0.51827533208233789 0 0.57724883562309992 0.92155686857100794 0 0.57382506491224949 0.9629411906298494 0 0.52122150208832174 0.94089974453840242 0 0.85170973911348691 0.93569607295217616 0 0.81159157511211755 0.88795995483179491 0 0.85600844944837662 0.88483418979512773 0 0.8517097391133297 0.2356960729520409 0 0.81283102246527783 0.1881007222486438 0 0.85600844944842547 0.1848341897950983 0 0.27866744612395528 0.38416094670951489 0 0.29124338931648802 0.43334555462578611 0 0.24049127783545701 0.41270748208749802 0 0.6084546825910605 0.37989672713932537 0 0.56836770495988642 0.3523062350852913 0 0.61959173890754571 0.33832250091341232 0 0.20050006573841939 0.53248514016039872 0 0.25115337790845271 0.54719303014923271 0 0.22549374774072969 0.58452645269293457 0 0.26573297623774761 0.59828298563722948 0 0.22549374774072969 0.58452645269293457 0 0.25115337790845271 0.54719303014923271 0 0.26104540868854792 0.81401944968719064 0 0.29209212897034281 0.84715728365233667 0 0.2401283238295133 0.85648409884788523 0 0.6236733212988993 0.14864538214901801 0 0.65290632656860115 0.11434202593454081 0 0.68391457121233579 0.14440470121196541 0 0.19901705110390991 0.9175543425573498 0 0.19741632902693801 0.86755867406447229 0 0.24536017905392571 0.90704567837671446 0 0.72500000000000064 0.7952620967744265 0 0.76901770135486491 0.84293557325473656 0 0.72863726579783861 0.85390518901155588 0 0.72500000000000064 0.7952620967744265 0 0.72863726579783861 0.85390518901155588 0 0.68697391633157634 0.84450604838764298 0 0.7250000000005199 0.89375000000045834 0 0.68697391633157634 0.84450604838764298 0 0.72863726579783861 0.85390518901155588 0 0.72525833953073282 0.1032114801687094 0 0.77144070960558853 0.14311854477243749 0 0.72634814642510737 0.16106886917518889 0 0.72525833953073282 0.1032114801687094 0 0.72634814642510737 0.16106886917518889 0 0.68391457121233579 0.14440470121196541 0 0.36622285152418499 0.69092437780804039 0 0.3977710372045391 0.65868194622830212 0 0.43323420005758778 0.6913544522562407 0 0 0.65000000000104008 0 0 0.60000000000138687 0 0.050069554451969707 0.61308520079857043 0 0 0.40000000000166441 0 0 0.35000000000145642 0 0.050583896093752537 0.38543522283434112 0 0.22033343844674469 0.36963382230740238 0 0.24049127783545701 0.41270748208749802 0 0.191953871957803 0.42546416763755879 0 0.5 0.29999999999999999 0 0.4604742573284204 0.27846934318264788 0 0.49695729691142171 0.25014895411178018 0 0.19741632902693801 0.86755867406447229 0 0.2401283238295133 0.85648409884788523 0 0.24536017905392571 0.90704567837671446 0 0 0.50000000000205869 0 0.068743045408989428 0.48853989837882689 0 0.044576108720083309 0.53509043209532614 0 0.15000000000062411 1 0 0.14617343800780541 0.93808063414349496 0 0.18474005699953849 0.96231585248064622 0 0.14999999999970359 0 0 0.184418230509967 0.038773194583122873 0 0.14618258501891079 0.062070108745602003 0 0.57667858002728545 0.078486105337742612 0 0.52375890611712683 0.059318771819432882 0 0.57396793757665954 0.037011367187645222 0 0.113541300460994 0.46208784312094731 0 0.078358742472063481 0.43365249433908948 0 0.13773355295499351 0.42497777642586831 0 0.77354604466818633 0.40378688774472771 0 0.78145581580700685 0.34881365920033602 0 0.81308179852519835 0.39754945808726527 0 0.38244435121258652 0.51653317813019495 0 0.33190227185843768 0.52715113583864037 0 0.35024835142131061 0.48654922671676981 0 0.64753070846764316 0.77332939069435502 0 0.65005442820240822 0.82644988530054031 0 0.60294066490120068 0.80851322453934582 0 0.15720202157091859 0.60665697304410315 0 0.1024350934457823 0.60772393977513839 0 0.1154888278694548 0.56733818459978413 0 0.90416666666660628 0.9041666666666166 0 0.85600844944837662 0.88483418979512773 0 0.88088768115933802 0.84674609810493673 0 0.90416666666668166 0.20416666666667119 0 0.85600844944842547 0.1848341897950983 0 0.88088768115941807 0.14674609810479519 0 0.078358742472063481 0.43365249433908948 0 0.1117088112799664 0.38831403004970022 0 0.13773355295499351 0.42497777642586831 0 0.38244435121258652 0.51653317813019495 0 0.3908716102680424 0.47010282357248828 0 0.43507373378304309 0.49699695397193322 0 0.90299850604011456 0.79563452813489832 0 0.95386563387742829 0.80414874155775029 0 0.93677536231884972 0.85000000000000286 0 0.90416666666660628 0.9041666666666166 0 0.93677536231884972 0.85000000000000286 0 0.95391631417670719 0.89584263333814784 0 0.90299850604006393 0.09563452813493091 0 0.95386563387744361 0.1041487415577465 0 0.93677536231883773 0.14999999999999089 0 0.90416666666668166 0.20416666666667119 0 0.93677536231883773 0.14999999999999089 0 0.95391631417672862 0.19584263333809451 0 0.39536230704883951 0.84069429572832477 0 0.44003836461056539 0.88093474584252718 0 0.39767323751400468 0.89584229130535065 0 0.51076801031701946 0.1202837388510348 0 0.52375890611712683 0.059318771819432882 0 0.54979595918804436 0.1060565713905809 0 0.57667858002728545 0.078486105337742612 0 0.54979595918804436 0.1060565713905809 0 0.52375890611712683 0.059318771819432882 0 0.57724883562309992 0.92155686857100794 0 0.52122150208832174 0.94089974453840242 0 0.54783390826260769 0.89287767010860219 0 0.50202631463681879 0.87892870825713787 0 0.54783390826260769 0.89287767010860219 0 0.52122150208832174 0.94089974453840242 0 0.087545339447545459 0.35122518864182262 0 0.093851963071650835 0.30582068233324772 0 0.14223753364722069 0.3341983344262433 0 0.54999999999999993 0.69999999999999996 0 0.59999999999999976 0.69999999999999996 0 0.55363780716230748 0.74348740161571747 0 0.083105206071452636 0.79992298667296435 0 0.1074251789111534 0.83564394292147814 0 0.065374659239661639 0.8551091961254178 0 0.083105206071467416 0.20007701332709979 0 0.065374659239632718 0.1448908038746782 0 0.106902708054812 0.16453234188234539 0 0.52289427570932567 0.3932284363388488 0 0.53823865529665704 0.45873898050322898 0 0.48858720058566618 0.43964267759203868 0 0.13737030665753211 0.20313708640667491 0 0.14377654328998779 0.2442024734791064 0 0.095326043202144745 0.24554465089224409 0 0.1382744753146134 0.79650574229207483 0 0.090953281884486245 0.7564451946902494 0 0.14335651144331049 0.75565258250209677 0 0.27270076654418179 0.87751467830216623 0 0.30864387279288652 0.89906554525974958 0 0.24536017905392571 0.90704567837671446 0 0.27609987656793722 0.94991445621608572 0 0.24536017905392571 0.90704567837671446 0 0.30864387279288652 0.89906554525974958 0 0.90299850604011456 0.79563452813489832 0 0.84725310900444062 0.80779732082917555 0 0.85491058998424563 0.76004753345552634 0 0.90299850604006393 0.09563452813493091 0 0.84725310900442086 0.10779732082922661 0 0.85491058998398861 0.060047533455626502 0 1 0.54999999999963112 0 1 0.59999999999973963 0 0.95867599106212187 0.60011091146651041 0 1 0.39999999999978308 0 1 0.44999999999963131 0 0.95871855522754235 0.40006508612975411 0 0.28040350263641872 0.23054717217092141 0 0.25195515620380449 0.25883339815888678 0 0.224700362040408 0.22206622194729711 0 0.84999999999999987 0.29999999999999999 0 0.87430060258887643 0.34056085888204451 0 0.82500000000000062 0.33010209762754811 0 0.84999999999999987 0.69999999999999996 0 0.82457059160610424 0.66831947184359608 0 0.87712158428786946 0.65709029563313581 0 0.86956835336234861 0.571283299838105 0 0.87159648282691515 0.61285406320581504 0 0.81723410853263523 0.59419663659258926 0 0.43698630808430822 0.080423614171545449 0 0.47881186583059909 0.093591717165689425 0 0.44288491854585582 0.14116182884956319 0 1 0.44999999999963131 0 0.96228564064454991 0.48206450662049471 0 0.93814194660195893 0.44426664081746747 0 0.35752321586431363 0.9185439911803448 0 0.30864387279288652 0.89906554525974958 0 0.35864759629805099 0.87963482415279515 0 0.29124338931648802 0.43334555462578611 0 0.25982634974572738 0.46097799597715272 0 0.24049127783545701 0.41270748208749802 0 0.51076801031701946 0.1202837388510348 0 0.56202748619534593 0.15054058349222879 0 0.51729576145820033 0.1683240575987815 0 0.55306006949600994 0.20198184231352201 0 0.51729576145820033 0.1683240575987815 0 0.56202748619534593 0.15054058349222879 0 0.26429849586623999 0.19346700179430079 0 0.28040350263641872 0.23054717217092141 0 0.224700362040408 0.22206622194729711 0 0.51076801031701946 0.1202837388510348 0 0.48466639505193998 0.1421439844745814 0 0.47881186583059909 0.093591717165689425 0 0.2185883431182947 0.18019736283949719 0 0.26429849586623999 0.19346700179430079 0 0.224700362040408 0.22206622194729711 0 0.18269480424590959 0.75905448272264375 0 0.2248999640082178 0.72584299459689172 0 0.22556077506376701 0.77837424984191617 0 0.51076801031701946 0.1202837388510348 0 0.47881186583059909 0.093591717165689425 0 0.52375890611712683 0.059318771819432882 0 0.50202631463681879 0.87892870825713787 0 0.52122150208832174 0.94089974453840242 0 0.47401147028110507 0.91529957330468115 0 0 0.84999999999965292 0 0.038512288486097702 0.8155852717111195 0 0.065374659239661639 0.8551091961254178 0 0 0.15000000000062411 0 0.065374659239632718 0.1448908038746782 0 0.038512288486115001 0.1844147282893184 0 0.2185883431182947 0.18019736283949719 0 0.224700362040408 0.22206622194729711 0 0.18124454140915969 0.18790916706335251 0 0.21858834311891909 0.81980263716112767 0 0.17777405986036951 0.81832336108265358 0 0.22556077506376701 0.77837424984191617 0 0.1215415378367805 0.72939333680004137 0 0.1020579365089687 0.69352219419301997 0 0.15332765547575641 0.71200081858233666 0 0.49695729691142171 0.25014895411178018 0 0.50760557329222289 0.20700468884612061 0 0.54248833945060504 0.2520322959927106 0 0.15720202157091859 0.60665697304410315 0 0.14934928745814749 0.55042914607228977 0 0.18381867841758909 0.57774125163628387 0 0.90416666666660628 0.9041666666666166 0 0.85170973911348691 0.93569607295217616 0 0.85600844944837662 0.88483418979512773 0 0.90416666666668166 0.20416666666667119 0 0.8517097391133297 0.2356960729520409 0 0.85600844944842547 0.1848341897950983 0 0.17933913398461551 0.2350063570234002 0 0.13737030665753211 0.20313708640667491 0 0.18124454140915969 0.18790916706335251 0 0.18269480424590959 0.75905448272264375 0 0.17777405986036951 0.81832336108265358 0 0.1382744753146134 0.79650574229207483 0 0.1216098864341134 0.50637075089503902 0 0.15801167086041079 0.46008690540259539 0 0.16618607197337229 0.50652878253548905 0 0.50760557329222289 0.20700468884612061 0 0.55306006949600994 0.20198184231352201 0 0.54248833945060504 0.2520322959927106 0 0.75000000000034661 1 0 0.7000000000006934 1 0 0.7250000000005199 0.94981617647078953 0 0.69999999999999984 0.29999999999999999 0 0.72500000000000064 0.2498161764706 0 0.74999999999999989 0.29999999999999999 0 0.72525833953073282 0.1032114801687094 0 0.68391457121233579 0.14440470121196541 0 0.68330259535470161 0.10038702501083881 0 0.43249999999999988 0.43937499999999979 0 0.46655310992796922 0.39650496622958609 0 0.48858720058566618 0.43964267759203868 0 0.19901705110390991 0.9175543425573498 0 0.14617343800780541 0.93808063414349496 0 0.16206583317966519 0.89685560785156404 0 0.19922788606653311 0.085920220746880993 0 0.16141998738593399 0.10404039647458049 0 0.14618258501891079 0.062070108745602003 0 0.31378396441836959 0.70157213313026345 0 0.26439878998046262 0.7048065392091396 0 0.27820712747429932 0.65530134213254643 0 0.1216098864341134 0.50637075089503902 0 0.113541300460994 0.46208784312094731 0 0.15801167086041079 0.46008690540259539 0 0.6084546825910605 0.37989672713932537 0 0.65481233915350323 0.35652751921065562 0 0.63912439215427275 0.41063340167983359 0 0.19901705110390991 0.9175543425573498 0 0.18474005699953849 0.96231585248064622 0 0.14617343800780541 0.93808063414349496 0 0.19922788606653311 0.085920220746880993 0 0.14618258501891079 0.062070108745602003 0 0.184418230509967 0.038773194583122873 0 0.38244435121258652 0.51653317813019495 0 0.35024835142131061 0.48654922671676981 0 0.3908716102680424 0.47010282357248828 0 0.82709327591102189 0.14937141670914489 0 0.77144070960558853 0.14311854477243749 0 0.80076557130237269 0.1154587552654202 0 0.82709327591091286 0.84937141670920724 0 0.76901770135486491 0.84293557325473656 0 0.80041942726660109 0.81543261647703358 0 0.43698630808430822 0.080423614171545449 0 0.44288491854585582 0.14116182884956319 0 0.39823268594401579 0.1116623613130045 0 0.39801143831225599 0.16651381068160659 0 0.39823268594401579 0.1116623613130045 0 0.44288491854585582 0.14116182884956319 0 0.36575549820117997 0.31677992835137742 0 0.3786248352540974 0.27082301512024259 0 0.41914690343363781 0.30688979866601612 0 0.42377727103934271 0.25099357235810238 0 0.41914690343363781 0.30688979866601612 0 0.3786248352540974 0.27082301512024259 0 0.049706944316475897 0.72477277076253799 0 0.1020579365089687 0.69352219419301997 0 0.090953281884486245 0.7564451946902494 0 0.1215415378367805 0.72939333680004137 0 0.090953281884486245 0.7564451946902494 0 0.1020579365089687 0.69352219419301997 0 0.1247745017231483 0.27198077544791172 0 0.093851963071650835 0.30582068233324772 0 0.095326043202144745 0.24554465089224409 0 0.049706944316556423 0.27522722923869108 0 0.095326043202144745 0.24554465089224409 0 0.093851963071650835 0.30582068233324772 0 0.77354604466818633 0.40378688774472771 0 0.81973119833356312 0.43505687159469048 0 0.77972660463949339 0.45529290596363098 0 0.43249999999999988 0.43937499999999979 0 0.43507373378304309 0.49699695397193322 0 0.3908716102680424 0.47010282357248828 0 0.26573297623774761 0.59828298563722948 0 0.2459498854893499 0.63248470766216769 0 0.22549374774072969 0.58452645269293457 0 0.72500000000000064 0.7952620967744265 0 0.77094201086366854 0.79647480515688507 0 0.76901770135486491 0.84293557325473656 0 0.72525833953073282 0.1032114801687094 0 0.76878382444651716 0.097147941686331368 0 0.77144070960558853 0.14311854477243749 0 0.72500000000000064 0.7952620967744265 0 0.68697391633157634 0.84450604838764298 0 0.68024162096458085 0.79868546898116533 0 0.31378396441836959 0.70157213313026345 0 0.29904318922293632 0.74132814928635593 0 0.26439878998046262 0.7048065392091396 0 0.31378396441836959 0.70157213313026345 0 0.35415581127540569 0.73730480045900215 0 0.29904318922293632 0.74132814928635593 0 0.61343887413683884 0.856862479058357 0 0.65005442820240822 0.82644988530054031 0 0.66412543161245952 0.88015090885499059 0 0.68697391633157634 0.84450604838764298 0 0.66412543161245952 0.88015090885499059 0 0.65005442820240822 0.82644988530054031 0 0.083411279318375747 0.91030024466934134 0 0.065374659239661639 0.8551091961254178 0 0.10562472963403439 0.87143394428979881 0 0.083411279318303222 0.089699755330707398 0 0.1053400320299198 0.12877248826361379 0 0.065374659239632718 0.1448908038746782 0 0.55306006949600994 0.20198184231352201 0 0.59443395090188023 0.18455690917515069 0 0.59814117807200873 0.23398510860739519 0 0.84999999999999987 0.29999999999999999 0 0.89999999999999991 0.29999999999999999 0 0.87430060258887643 0.34056085888204451 0 0.84999999999999987 0.69999999999999996 0 0.87712158428786946 0.65709029563313581 0 0.89999999999999991 0.69999999999999996 0 0.34258405725730701 0.4444034294386992 0 0.3908716102680424 0.47010282357248828 0 0.35024835142131061 0.48654922671676981 0 0.26573297623774761 0.59828298563722948 0 0.31502927232353312 0.6134992213375432 0 0.27820712747429932 0.65530134213254643 0 0.91696753777131557 0.497780560203536 0 0.86907294890112186 0.52008116128001669 0 0.88594198078881503 0.46167788676578442 0 0.84723782639812573 0.48638347960178252 0 0.88594198078881503 0.46167788676578442 0 0.86907294890112186 0.52008116128001669 0 0.7152569930854884 0.5237994455134295 0 0.77151014687832564 0.54436834383023036 0 0.71809016091162536 0.58185040402320831 0 0.90416666666660628 0.9041666666666166 0 0.89898474358632463 0.95391965591118966 0 0.85170973911348691 0.93569607295217616 0 0.90416666666668166 0.20416666666667119 0 0.89898474358614167 0.25391965591104898 0 0.8517097391133297 0.2356960729520409 0 0.91750694127107502 0.36982372220068471 0 0.95780851984364423 0.34215720972155339 0 0.95871855522754235 0.40006508612975411 0 0.91750694127105259 0.63017627779935648 0 0.95867599106212187 0.60011091146651041 0 0.9578014258160763 0.65787212321113708 0 0.90299850604011456 0.79563452813489832 0 0.88088768115933802 0.84674609810493673 0 0.84725310900444062 0.80779732082917555 0 0.90299850604006393 0.09563452813493091 0 0.88088768115941807 0.14674609810479519 0 0.84725310900442086 0.10779732082922661 0 0.1216098864341134 0.50637075089503902 0 0.16618607197337229 0.50652878253548905 0 0.14934928745814749 0.55042914607228977 0 0.20050006573841939 0.53248514016039872 0 0.14934928745814749 0.55042914607228977 0 0.16618607197337229 0.50652878253548905 0 0.80185942888539485 0.77452061303608133 0 0.84725310900444062 0.80779732082917555 0 0.80041942726660109 0.81543261647703358 0 0.80185942888501827 0.074520613036224564 0 0.84725310900442086 0.10779732082922661 0 0.80076557130237269 0.1154587552654202 0 0.083105206071452636 0.79992298667296435 0 0.065374659239661639 0.8551091961254178 0 0.038512288486097702 0.8155852717111195 0 0.083105206071467416 0.20007701332709979 0 0.038512288486115001 0.1844147282893184 0 0.065374659239632718 0.1448908038746782 0 0.54782696902220018 0.79245182748204157 0 0.59636844454254345 0.75937156204589151 0 0.60294066490120068 0.80851322453934582 0 0.083411279318375747 0.91030024466934134 0 0.0443105827531413 0.89858748162559932 0 0.065374659239661639 0.8551091961254178 0 0.083411279318303222 0.089699755330707398 0 0.065374659239632718 0.1448908038746782 0 0.044310582753132287 0.101412518374475 0 0.84999999999965292 1 0 0.81486180804382891 0.96321394949790495 0 0.85170973911348691 0.93569607295217616 0 0.84999999999999987 0.29999999999999999 0 0.81486180804364938 0.26321394949780091 0 0.8517097391133297 0.2356960729520409 0 0.4656888918609538 0.78493261229743638 0 0.45677673713123867 0.84253684404072415 0 0.42609163930740518 0.80361684430568059 0 0.39536230704883951 0.84069429572832477 0 0.42609163930740518 0.80361684430568059 0 0.45677673713123867 0.84253684404072415 0 0.6236733212988993 0.14864538214901801 0 0.56202748619534593 0.15054058349222879 0 0.58516465772821369 0.11653801664834119 0 0.57412547362576272 0.58273804879550706 0 0.63065402604362242 0.59661356661633302 0 0.5991018319127801 0.62925360607495295 0 0.61343887413683884 0.856862479058357 0 0.5832743223239254 0.88483152652961872 0 0.55899371797446828 0.85003102233514438 0 0.50202631463681879 0.87892870825713787 0 0.55899371797446828 0.85003102233514438 0 0.54783390826260769 0.89287767010860219 0 0.51076801031701946 0.1202837388510348 0 0.54979595918804436 0.1060565713905809 0 0.56202748619534593 0.15054058349222879 0 0.55306006949600994 0.20198184231352201 0 0.59814117807200873 0.23398510860739519 0 0.54248833945060504 0.2520322959927106 0 0.83573492347052902 0.36590755630746369 0 0.82500000000000062 0.33010209762754811 0 0.87430060258887643 0.34056085888204451 0 0.83758014339878906 0.63222013025741819 0 0.87712158428786946 0.65709029563313581 0 0.82457059160610424 0.66831947184359608 0 0.49102375406324739 0.49123754822244059 0 0.53823865529665704 0.45873898050322898 0 0.53330375813596242 0.50827942741749099 0 0.52289427570932567 0.3932284363388488 0 0.57744073070774993 0.41535148636609359 0 0.53823865529665704 0.45873898050322898 0 0.4089290844030305 0.58728915500154233 0 0.37272913873093971 0.56192925302619479 0 0.42644501560315817 0.54603747078095544 0 0.49695729691142171 0.25014895411178018 0 0.4604742573284204 0.27846934318264788 0 0.46429753744194407 0.22870891180733599 0 0.90299850604011456 0.79563452813489832 0 0.85491058998424563 0.76004753345552634 0 0.89999166460796554 0.74528934923809909 0 0.90299850604006393 0.09563452813493091 0 0.85491058998398861 0.060047533455626502 0 0.899991664607802 0.045289349238254978 0 0.38244435121258652 0.51653317813019495 0 0.42644501560315817 0.54603747078095544 0 0.37272913873093971 0.56192925302619479 0 0.71406021706547751 0.63292083137662503 0 0.71809016091162536 0.58185040402320831 0 0.74994237037456724 0.62775548192980357 0 0.84723782639812573 0.48638347960178252 0 0.86907294890112186 0.52008116128001669 0 0.81441713509985358 0.51161854125224959 0 0.33122374654748771 0.57588941099433744 0 0.33190227185843768 0.52715113583864037 0 0.37272913873093971 0.56192925302619479 0 0.086179601630648681 0.64647209519980475 0 0.1241190223511371 0.64391885572885044 0 0.1020579365089687 0.69352219419301997 0 0.59999999999894682 0 0 0.64999999999907843 0 0 0.61940220174112337 0.047251958781050582 0 0.18269480424590959 0.75905448272264375 0 0.14335651144331049 0.75565258250209677 0 0.15332765547575641 0.71200081858233666 0 0.22549374774072969 0.58452645269293457 0 0.2459498854893499 0.63248470766216769 0 0.19914261668318661 0.62286739485272158 0 0.38244435121258652 0.51653317813019495 0 0.43507373378304309 0.49699695397193322 0 0.42644501560315817 0.54603747078095544 0 0.65000000000104008 1 0 0.60000000000138687 1 0 0.62065498684670595 0.95224934003983619 0 0.078358742472063481 0.43365249433908948 0 0.068743045408989428 0.48853989837882689 0 0.033550201249889847 0.46247875832467239 0 0.2236846579037573 0.67380363126050236 0 0.27820712747429932 0.65530134213254643 0 0.26439878998046262 0.7048065392091396 0 0.6879972333610942 0.43038561374960838 0 0.68128176404677243 0.38629093627004979 0 0.72622533758026719 0.40265885511101601 0 0.72525833953073282 0.1032114801687094 0 0.7010294155333181 0.056779085686491267 0 0.7527966693318906 0.053051678021508272 0 0.18269480424590959 0.75905448272264375 0 0.15332765547575641 0.71200081858233666 0 0.19068556247388771 0.71028988922845504 0 0.1216098864341134 0.50637075089503902 0 0.085622222639554768 0.53333248912060549 0 0.068743045408989428 0.48853989837882689 0 0.25676291524611189 0.7436741304886243 0 0.26439878998046262 0.7048065392091396 0 0.29904318922293632 0.74132814928635593 0 0.65481233915350323 0.35652751921065562 0 0.68128176404677243 0.38629093627004979 0 0.63912439215427275 0.41063340167983359 0 0.83573492347052902 0.36590755630746369 0 0.86844634540301924 0.38530937474099819 0 0.81308179852519835 0.39754945808726527 0 0.27270076654418179 0.87751467830216623 0 0.2401283238295133 0.85648409884788523 0 0.29209212897034281 0.84715728365233667 0 0.84999999999999987 0.69999999999999996 0 0.85491058998424563 0.76004753345552634 0 0.81864958914779962 0.73589050177899629 0 0.84999999999960507 0 0 0.85491058998398861 0.060047533455626502 0 0.81864958914740749 0.035890501779055867 0 0.18381867841758909 0.57774125163628387 0 0.19914261668318661 0.62286739485272158 0 0.15720202157091859 0.60665697304410315 0 0.22549374774072969 0.58452645269293457 0 0.19914261668318661 0.62286739485272158 0 0.18381867841758909 0.57774125163628387 0 0.79680861578988083 0.92656778056766709 0 0.85170973911348691 0.93569607295217616 0 0.81486180804382891 0.96321394949790495 0 0.79680861578956375 0.22656778056752541 0 0.8517097391133297 0.2356960729520409 0 0.81486180804364938 0.26321394949780091 0 0.20050006573841939 0.53248514016039872 0 0.23975172658309729 0.49475499200540818 0 0.25115337790845271 0.54719303014923271 0 0.28307294598219601 0.50789252727458634 0 0.25115337790845271 0.54719303014923271 0 0.23975172658309729 0.49475499200540818 0 0.20050006573841939 0.53248514016039872 0 0.18381867841758909 0.57774125163628387 0 0.14934928745814749 0.55042914607228977 0 0.19922788606653311 0.085920220746880993 0 0.22985637510995899 0.1298347970200906 0 0.18652628422869419 0.14162325200928061 0 0.33758650185219202 0.23837101504325639 0 0.38831533174504851 0.2189834941785925 0 0.3786248352540974 0.27082301512024259 0 0.42377727103934271 0.25099357235810238 0 0.3786248352540974 0.27082301512024259 0 0.38831533174504851 0.2189834941785925 0 0.19922788606653311 0.085920220746880993 0 0.18652628422869419 0.14162325200928061 0 0.16141998738593399 0.10404039647458049 0 0.54782696902220018 0.79245182748204157 0 0.55363780716230748 0.74348740161571747 0 0.59636844454254345 0.75937156204589151 0 0.82709327591091286 0.84937141670920724 0 0.88088768115933802 0.84674609810493673 0 0.85600844944837662 0.88483418979512773 0 0.82709327591102189 0.14937141670914489 0 0.88088768115941807 0.14674609810479519 0 0.85600844944842547 0.1848341897950983 0 0.27866744612395528 0.38416094670951489 0 0.22033343844674469 0.36963382230740238 0 0.25966125648670141 0.34351016742083729 0 0 0.50000000000205869 0 0.033550201249889847 0.46247875832467239 0 0.068743045408989428 0.48853989837882689 0 0.31378396441836959 0.70157213313026345 0 0.36622285152418499 0.69092437780804039 0 0.35415581127540569 0.73730480045900215 0 0.77293540622714185 0.59448302402785813 0 0.71809016091162536 0.58185040402320831 0 0.77151014687832564 0.54436834383023036 0 0.7152569930854884 0.5237994455134295 0 0.69385896817107129 0.48377516041410151 0 0.73947346780852752 0.49062440112282169 0 0.15801167086041079 0.46008690540259539 0 0.191953871957803 0.42546416763755879 0 0.19604738184454831 0.47787523520405789 0 0.57667858002728545 0.078486105337742612 0 0.61940220174112337 0.047251958781050582 0 0.61956000905586006 0.1043312481793135 0 0.65408113592120842 0.073941773121567966 0 0.61956000905586006 0.1043312481793135 0 0.61940220174112337 0.047251958781050582 0 0 0.55000000000173355 0 0 0.50000000000205869 0 0.044576108720083309 0.53509043209532614 0 0.65507451745379841 0.92229208810758578 0 0.62065498684670595 0.95224934003983619 0 0.61885627562261258 0.90282959257498208 0 0.57724883562309992 0.92155686857100794 0 0.61885627562261258 0.90282959257498208 0 0.62065498684670595 0.95224934003983619 0 0.91750694127107502 0.36982372220068471 0 0.86844634540301924 0.38530937474099819 0 0.87430060258887643 0.34056085888204451 0 0.91750694127105259 0.63017627779935648 0 0.87712158428786946 0.65709029563313581 0 0.87159648282691515 0.61285406320581504 0 0.33123028043633618 0.77629643437932982 0 0.29904318922293632 0.74132814928635593 0 0.35415581127540569 0.73730480045900215 0 0.86411095495256451 0.42388805655111889 0 0.84925632466077294 0.45359738909549091 0 0.81973119833356312 0.43505687159469048 0 0.43846182030517877 0.64845797726506715 0 0.47913475093885149 0.66010775372412711 0 0.43323420005758778 0.6913544522562407 0 0.18269480424590959 0.75905448272264375 0 0.19068556247388771 0.71028988922845504 0 0.2248999640082178 0.72584299459689172 0 0.39536230704883951 0.84069429572832477 0 0.38586766253264881 0.78219501014812498 0 0.42609163930740518 0.80361684430568059 0 0.59999999999999976 0.69999999999999996 0 0.63221990677827677 0.73442891067859706 0 0.59636844454254345 0.75937156204589151 0 0.27866744612395528 0.38416094670951489 0 0.24049127783545701 0.41270748208749802 0 0.22033343844674469 0.36963382230740238 0 0.82709327591091286 0.84937141670920724 0 0.84725310900444062 0.80779732082917555 0 0.88088768115933802 0.84674609810493673 0 0.82709327591102189 0.14937141670914489 0 0.84725310900442086 0.10779732082922661 0 0.88088768115941807 0.14674609810479519 0 0.1650278706801647 0.38791388161335733 0 0.18434624290945251 0.35208838264196463 0 0.22033343844674469 0.36963382230740238 0 0.4409427642593301 0.35743108089689513 0 0.49077833859261139 0.35229981449445641 0 0.46655310992796922 0.39650496622958609 0 0.80185942888539485 0.77452061303608133 0 0.81864958914779962 0.73589050177899629 0 0.85491058998424563 0.76004753345552634 0 0.80185942888501827 0.074520613036224564 0 0.81864958914740749 0.035890501779055867 0 0.85491058998398861 0.060047533455626502 0 0.29999999999926641 0 0 0.34999999999912063 0 0 0.32541448401678508 0.046215317981507749 0 0.35000000000145642 1 0 0.30000000000124832 1 0 0.32544832635163229 0.95485394099568932 0 0.4656888918609538 0.78493261229743638 0 0.50731287292894423 0.78963574450233831 0 0.50627822638148745 0.8263979829520941 0 0.2185883431182947 0.18019736283949719 0 0.25557216766470708 0.15874861286892261 0 0.26429849586623999 0.19346700179430079 0 1 0.29999999999999999 0 1 0.34999999999993492 0 0.95780851984364423 0.34215720972155339 0 1 0.29999999999999999 0 0.95780851984364423 0.34215720972155339 0 0.94999999999999996 0.29999999999999999 0 1 0.69999999999999996 0 0.94999999999999996 0.69999999999999996 0 0.9578014258160763 0.65787212321113708 0 1 0.69999999999999996 0 0.9578014258160763 0.65787212321113708 0 1 0.64999999999986979 0 0.91750694127107502 0.36982372220068471 0 0.90594285160987287 0.4141265964174129 0 0.86844634540301924 0.38530937474099819 0 0.91750694127105259 0.63017627779935648 0 0.87159648282691515 0.61285406320581504 0 0.91143117093204207 0.58709913730335972 0 0.74999999999999989 0.69999999999999996 0 0.7750489929959945 0.66593931409600093 0 0.79999999999999982 0.69999999999999996 0 0.74999999999999989 0.29999999999999999 0 0.79999999999999982 0.29999999999999999 0 0.78145581580700685 0.34881365920033602 0 0.54999999999999993 0.69999999999999996 0 0.57484956128872922 0.66573805030881994 0 0.59999999999999976 0.69999999999999996 0 0.90299850604011456 0.79563452813489832 0 0.94399509803918602 0.75600490196082126 0 0.95386563387742829 0.80414874155775029 0 0.90416666666660628 0.9041666666666166 0 0.95391631417670719 0.89584263333814784 0 0.94399509803919068 0.9439950980391687 0 0.90299850604006393 0.09563452813493091 0 0.94399509803922566 0.056004901960802607 0 0.95386563387744361 0.1041487415577465 0 0.90416666666668166 0.20416666666667119 0 0.95391631417672862 0.19584263333809451 0 0.94399509803921056 0.24399509803922639 0 0.22278230690790279 0.44824268025881547 0 0.19604738184454831 0.47787523520405789 0 0.191953871957803 0.42546416763755879 0 0.90299850604011456 0.79563452813489832 0 0.89999166460796554 0.74528934923809909 0 0.94399509803918602 0.75600490196082126 0 0.90299850604006393 0.09563452813493091 0 0.899991664607802 0.045289349238254978 0 0.94399509803922566 0.056004901960802607 0 0.49102375406324739 0.49123754822244059 0 0.47793794143994173 0.52940715638744962 0 0.43507373378304309 0.49699695397193322 0 0.90416666666660628 0.9041666666666166 0 0.94399509803919068 0.9439950980391687 0 0.89898474358632463 0.95391965591118966 0 0.90416666666668166 0.20416666666667119 0 0.94399509803921056 0.24399509803922639 0 0.89898474358614167 0.25391965591104898 0 0.65394964615507722 0.22666784374016369 0 0.62657463266645097 0.26524202571255862 0 0.59814117807200873 0.23398510860739519 0 0.6084546825910605 0.37989672713932537 0 0.63912439215427275 0.41063340167983359 0 0.57744073070774993 0.41535148636609359 0 0.61209567303293111 0.44669033081290321 0 0.57744073070774993 0.41535148636609359 0 0.63912439215427275 0.41063340167983359 0 0.25676291524611189 0.7436741304886243 0 0.22556077506376701 0.77837424984191617 0 0.2248999640082178 0.72584299459689172 0 0.61343887413683884 0.856862479058357 0 0.60294066490120068 0.80851322453934582 0 0.65005442820240822 0.82644988530054031 0 0.64999999999907843 0 0 0.66369801598854572 0.036327466368102787 0 0.61940220174112337 0.047251958781050582 0 0.40326160981139969 0.73346192995102844 0 0.38586766253264881 0.78219501014812498 0 0.35415581127540569 0.73730480045900215 0 0.33123028043633618 0.77629643437932982 0 0.35415581127540569 0.73730480045900215 0 0.38586766253264881 0.78219501014812498 0 0.26573297623774761 0.59828298563722948 0 0.29110487519241501 0.56588143995431495 0 0.31502927232353312 0.6134992213375432 0 0.77846603114747959 0.49850927265137401 0 0.81441713509985358 0.51161854125224959 0 0.77151014687832564 0.54436834383023036 0 0.82862096804812391 0.55037090955459045 0 0.77151014687832564 0.54436834383023036 0 0.81441713509985358 0.51161854125224959 0 0.50000000000205869 1 0 0.45000000000187229 1 0 0.47135117303824892 0.95556877749289892 0 0.44999999999882923 0 0 0.49999999999869432 0 0 0.47040171442036788 0.044141676406503738 0 0 0.7000000000006934 0 0 0.65000000000104008 0 0.046634677244967337 0.671418230738282 0 0 0.35000000000145642 0 0 0.30000000000124832 0 0.046389130980076937 0.32668781832131749 0 0.31378396441836959 0.70157213313026345 0 0.27820712747429932 0.65530134213254643 0 0.32263089806001177 0.66003674931826484 0 0.33122374654748771 0.57588941099433744 0 0.31502927232353312 0.6134992213375432 0 0.29110487519241501 0.56588143995431495 0 0.26573297623774761 0.59828298563722948 0 0.27820712747429932 0.65530134213254643 0 0.2459498854893499 0.63248470766216769 0 0.14474682429600511 0.85524784522713515 0 0.16206583317966519 0.89685560785156404 0 0.1241151115713819 0.9045666525468371 0 0.14332333627550789 0.14578431753966009 0 0.12372429750337779 0.095814237875728972 0 0.16141998738593399 0.10404039647458049 0 0.64753070846764316 0.77332939069435502 0 0.59636844454254345 0.75937156204589151 0 0.63221990677827677 0.73442891067859706 0 0.14474682429600511 0.85524784522713515 0 0.1241151115713819 0.9045666525468371 0 0.10562472963403439 0.87143394428979881 0 0.14332333627550789 0.14578431753966009 0 0.1053400320299198 0.12877248826361379 0 0.12372429750337779 0.095814237875728972 0 0.77354604466818633 0.40378688774472771 0 0.81308179852519835 0.39754945808726527 0 0.81973119833356312 0.43505687159469048 0 0.54782696902220018 0.79245182748204157 0 0.50945740445113552 0.75476055527778108 0 0.55363780716230748 0.74348740161571747 0 0.2236846579037573 0.67380363126050236 0 0.2459498854893499 0.63248470766216769 0 0.27820712747429932 0.65530134213254643 0 0.77293540622714185 0.59448302402785813 0 0.74994237037456724 0.62775548192980357 0 0.71809016091162536 0.58185040402320831 0 0 0.79999999999999982 0 0 0.75000000000034661 0 0.04408157711937423 0.7728941757575627 0 0 0.25000000000104028 0 0 0.20000000000083221 0 0.044081577119474857 0.2271058242433576 0 0.19999999999955789 0 0 0.24999999999941211 0 0 0.22668068146512929 0.045875643423131329 0 0.25000000000104028 1 0 0.20000000000083221 1 0 0.22850979588452081 0.95594428570238643 0 0.47357141910802508 0.1873585799078378 0 0.44288491854585582 0.14116182884956319 0 0.48466639505193998 0.1421439844745814 0 0.59999999999999976 0.29999999999999999 0 0.5794309697024993 0.27124795968204829 0 0.62657463266645097 0.26524202571255862 0 0.43249999999999988 0.43937499999999979 0 0.42161023666869668 0.39493916313643851 0 0.46655310992796922 0.39650496622958609 0 0.31068898841644388 0.47541502461811092 0 0.33190227185843768 0.52715113583864037 0 0.28307294598219601 0.50789252727458634 0 0.35024835142131061 0.48654922671676981 0 0.33190227185843768 0.52715113583864037 0 0.31068898841644388 0.47541502461811092 0 0.35864735590330371 0.63903383440414463 0 0.36622285152418499 0.69092437780804039 0 0.32263089806001177 0.66003674931826484 0 0.31378396441836959 0.70157213313026345 0 0.32263089806001177 0.66003674931826484 0 0.36622285152418499 0.69092437780804039 0 0.86956835336234861 0.571283299838105 0 0.90900154012161016 0.53607784105648792 0 0.91143117093204207 0.58709913730335972 0 0.6499999999999998 0.29999999999999999 0 0.65481233915350323 0.35652751921065562 0 0.61959173890754571 0.33832250091341232 0 0.4409427642593301 0.35743108089689513 0 0.46226845272279993 0.31901800744800313 0 0.49077833859261139 0.35229981449445641 0 0.5 0.29999999999999999 0 0.49077833859261139 0.35229981449445641 0 0.46226845272279993 0.31901800744800313 0 0.14999999999970359 0 0 0.19999999999955789 0 0 0.184418230509967 0.038773194583122873 0 0.20000000000083221 1 0 0.15000000000062411 1 0 0.18474005699953849 0.96231585248064622 0 1 0.49999999999950101 0 1 0.54999999999963112 0 0.95631871884947484 0.51827533208233789 0 0.38586766253264881 0.78219501014812498 0 0.42676259796334498 0.76772545931379299 0 0.42609163930740518 0.80361684430568059 0 0.20050006573841939 0.53248514016039872 0 0.22549374774072969 0.58452645269293457 0 0.18381867841758909 0.57774125163628387 0 0.065374659239661639 0.8551091961254178 0 0.1074251789111534 0.83564394292147814 0 0.10562472963403439 0.87143394428979881 0 0.065374659239632718 0.1448908038746782 0 0.1053400320299198 0.12877248826361379 0 0.106902708054812 0.16453234188234539 0 0.1650278706801647 0.38791388161335733 0 0.14223753364722069 0.3341983344262433 0 0.18434624290945251 0.35208838264196463 0 0.43249999999999988 0.43937499999999979 0 0.46111841286828259 0.46690301029591341 0 0.43507373378304309 0.49699695397193322 0 0.83758014339878906 0.63222013025741819 0 0.81723410853263523 0.59419663659258926 0 0.87159648282691515 0.61285406320581504 0 0.19670163708476801 0.31472518408333222 0 0.18434624290945251 0.35208838264196463 0 0.14223753364722069 0.3341983344262433 0 0.75000000000034661 1 0 0.7250000000005199 0.94981617647078953 0 0.770759834363826 0.95919399014344442 0 0.74999999999999989 0.29999999999999999 0 0.72500000000000064 0.2498161764706 0 0.77075983436335049 0.25919399014334171 0 0.69999999999999984 0.29999999999999999 0 0.67933712972090698 0.25920070958121938 0 0.72500000000000064 0.2498161764706 0 0.57611405284611883 0.50165903596042916 0 0.53330375813596242 0.50827942741749099 0 0.53823865529665704 0.45873898050322898 0 0.6499999999999998 0.29999999999999999 0 0.68887083591306764 0.33632058575757479 0 0.65481233915350323 0.35652751921065562 0 0.27866744612395528 0.38416094670951489 0 0.33277555741076909 0.36432196682010132 0 0.31778888742534622 0.40581751814196781 0 0.49102375406324739 0.49123754822244059 0 0.43507373378304309 0.49699695397193322 0 0.46111841286828259 0.46690301029591341 0 0.94999999999999996 0.69999999999999996 0 0.97166519676947294 0.73337114490064459 0 0.94399509803918602 0.75600490196082126 0 0.94999999999986839 0 0 0.97166519676946894 0.033371144900598393 0 0.94399509803922566 0.056004901960802607 0 0.94999999999999996 0.29999999999999999 0 0.94399509803921056 0.24399509803922639 0 0.97166519676951801 0.26662885509932011 0 0.94999999999979179 1 0 0.94399509803919068 0.9439950980391687 0 0.97166519676946206 0.96662885509935492 0 0.34258405725730701 0.4444034294386992 0 0.29124338931648802 0.43334555462578611 0 0.31778888742534622 0.40581751814196781 0 0.27866744612395528 0.38416094670951489 0 0.31778888742534622 0.40581751814196781 0 0.29124338931648802 0.43334555462578611 0 0.36575549820117997 0.31677992835137742 0 0.33277555741076909 0.36432196682010132 0 0.32752639306529541 0.32610012995269699 0 0.35752321586431363 0.9185439911803448 0 0.32544832635163229 0.95485394099568932 0 0.30864387279288652 0.89906554525974958 0 0.27609987656793722 0.94991445621608572 0 0.30864387279288652 0.89906554525974958 0 0.32544832635163229 0.95485394099568932 0 0.33123028043633618 0.77629643437932982 0 0.30857225866488791 0.81101973481716805 0 0.2792923945214143 0.77665808831789485 0 0.33758650185219202 0.23837101504325639 0 0.29132859388405002 0.27203693976649962 0 0.28040350263641872 0.23054717217092141 0 0.4409427642593301 0.35743108089689513 0 0.41914690343363781 0.30688979866601612 0 0.46226845272279993 0.31901800744800313 0 0.14332333627550789 0.14578431753966009 0 0.13737030665753211 0.20313708640667491 0 0.106902708054812 0.16453234188234539 0 0.083105206071467416 0.20007701332709979 0 0.106902708054812 0.16453234188234539 0 0.13737030665753211 0.20313708640667491 0 0.083105206071452636 0.79992298667296435 0 0.1382744753146134 0.79650574229207483 0 0.1074251789111534 0.83564394292147814 0 0.14474682429600511 0.85524784522713515 0 0.1074251789111534 0.83564394292147814 0 0.1382744753146134 0.79650574229207483 0 0.65408113592120842 0.073941773121567966 0 0.7010294155333181 0.056779085686491267 0 0.68330259535470161 0.10038702501083881 0 0.72525833953073282 0.1032114801687094 0 0.68330259535470161 0.10038702501083881 0 0.7010294155333181 0.056779085686491267 0 0.049706944316475897 0.72477277076253799 0 0.046634677244967337 0.671418230738282 0 0.1020579365089687 0.69352219419301997 0 0.086179601630648681 0.64647209519980475 0 0.1020579365089687 0.69352219419301997 0 0.046634677244967337 0.671418230738282 0 0.087545339447545459 0.35122518864182262 0 0.046389130980076937 0.32668781832131749 0 0.093851963071650835 0.30582068233324772 0 0.049706944316556423 0.27522722923869108 0 0.093851963071650835 0.30582068233324772 0 0.046389130980076937 0.32668781832131749 0 0.82709327591091286 0.84937141670920724 0 0.80041942726660109 0.81543261647703358 0 0.84725310900444062 0.80779732082917555 0 0.82709327591102189 0.14937141670914489 0 0.80076557130237269 0.1154587552654202 0 0.84725310900442086 0.10779732082922661 0 0.17933913398461551 0.2350063570234002 0 0.14377654328998779 0.2442024734791064 0 0.13737030665753211 0.20313708640667491 0 0.18269480424590959 0.75905448272264375 0 0.1382744753146134 0.79650574229207483 0 0.14335651144331049 0.75565258250209677 0 0.33758650185219202 0.23837101504325639 0 0.3786248352540974 0.27082301512024259 0 0.33402499257867951 0.28911035184473982 0 0.14332333627550789 0.14578431753966009 0 0.18124454140915969 0.18790916706335251 0 0.13737030665753211 0.20313708640667491 0 0.14474682429600511 0.85524784522713515 0 0.1382744753146134 0.79650574229207483 0 0.17777405986036951 0.81832336108265358 0 0.5 0.29999999999999999 0 0.52752007115234678 0.33170632466418198 0 0.49077833859261139 0.35229981449445641 0 0.27866744612395528 0.38416094670951489 0 0.29644548887253103 0.34914008784168082 0 0.33277555741076909 0.36432196682010132 0 0 0.84999999999965292 0 0 0.79999999999999982 0 0.038512288486097702 0.8155852717111195 0 0 0.20000000000083221 0 0 0.15000000000062411 0 0.038512288486115001 0.1844147282893184 0 0.40326160981139969 0.73346192995102844 0 0.35415581127540569 0.73730480045900215 0 0.36622285152418499 0.69092437780804039 0 0.91696753777131557 0.497780560203536 0 0.96228564064454991 0.48206450662049471 0 0.95631871884947484 0.51827533208233789 0 0.33758650185219202 0.23837101504325639 0 0.31255190597181792 0.19850845631528771 0 0.3572130504031617 0.1874703368446563 0 0.59814117807200873 0.23398510860739519 0 0.62657463266645097 0.26524202571255862 0 0.5794309697024993 0.27124795968204829 0 0.34258405725730701 0.4444034294386992 0 0.31068898841644388 0.47541502461811092 0 0.29124338931648802 0.43334555462578611 0 0.38083244760691543 0.38531983672244652 0 0.35221190152536241 0.40457127605439203 0 0.33277555741076909 0.36432196682010132 0 0.083411279318375747 0.91030024466934134 0 0.10266856499240549 0.95548163909968886 0 0.053064897599294662 0.95186845269532028 0 0.083411279318303222 0.089699755330707398 0 0.053064897599215843 0.048131547304697528 0 0.10266856499169109 0.044518360900210059 0 0.42377727103934271 0.25099357235810238 0 0.4604742573284204 0.27846934318264788 0 0.41914690343363781 0.30688979866601612 0 0.28307294598219601 0.50789252727458634 0 0.25982634974572738 0.46097799597715272 0 0.31068898841644388 0.47541502461811092 0 0.29348325746214782 0.31350119524708198 0 0.29132859388405002 0.27203693976649962 0 0.33402499257867951 0.28911035184473982 0 0.35312867752657662 0.084946736076730367 0 0.39823268594401579 0.1116623613130045 0 0.36246644853392812 0.1399454205365751 0 0.7000000000006934 1 0 0.68015064798562208 0.95924320340003011 0 0.7250000000005199 0.94981617647078953 0 0.42377727103934271 0.25099357235810238 0 0.38831533174504851 0.2189834941785925 0 0.42905200079338551 0.19982395548231649 0 0.53823865529665704 0.45873898050322898 0 0.57744073070774993 0.41535148636609359 0 0.57975577671020095 0.46172033326338591 0 0.33758650185219202 0.23837101504325639 0 0.3572130504031617 0.1874703368446563 0 0.38831533174504851 0.2189834941785925 0 0.29124338931648802 0.43334555462578611 0 0.31068898841644388 0.47541502461811092 0 0.25982634974572738 0.46097799597715272 0 0.6084546825910605 0.37989672713932537 0 0.61959173890754571 0.33832250091341232 0 0.65481233915350323 0.35652751921065562 0 0.40326160981139969 0.73346192995102844 0 0.43323420005758778 0.6913544522562407 0 0.45582236402875981 0.73896743678908217 0 0.33758650185219202 0.23837101504325639 0 0.28040350263641872 0.23054717217092141 0 0.31255190597181792 0.19850845631528771 0 0.79999999999999982 1 0 0.75000000000034661 1 0 0.770759834363826 0.95919399014344442 0 0.74999999999999989 0.29999999999999999 0 0.77075983436335049 0.25919399014334171 0 0.79999999999999982 0.29999999999999999 0 0.6499999999999998 0.29999999999999999 0 0.67933712972090698 0.25920070958121938 0 0.69999999999999984 0.29999999999999999 0 0.39536230704883951 0.84069429572832477 0 0.39767323751400468 0.89584229130535065 0 0.35864759629805099 0.87963482415279515 0 0.54999999999999993 0.69999999999999996 0 0.52584555706968406 0.66664215091846768 0 0.57484956128872922 0.66573805030881994 0 0.35312867752657662 0.084946736076730367 0 0.32541448401678508 0.046215317981507749 0 0.3615861437013822 0.03582617922508851 0 0.35752321586431363 0.9185439911803448 0 0.36184234618600131 0.96443954459096326 0 0.32544832635163229 0.95485394099568932 0 0.35312867752657662 0.084946736076730367 0 0.3615861437013822 0.03582617922508851 0 0.39591832466117061 0.056982757562006353 0 0.35752321586431363 0.9185439911803448 0 0.39641108128798319 0.94356127926187128 0 0.36184234618600131 0.96443954459096326 0 0.083411279318303222 0.089699755330707398 0 0.044310582753132287 0.101412518374475 0 0.053064897599215843 0.048131547304697528 0 0.083411279318375747 0.91030024466934134 0 0.053064897599294662 0.95186845269532028 0 0.0443105827531413 0.89858748162559932 0 0.38083244760691543 0.38531983672244652 0 0.40076539126862748 0.34589349467022118 0 0.42161023666869668 0.39493916313643851 0 0.4409427642593301 0.35743108089689513 0 0.42161023666869668 0.39493916313643851 0 0.40076539126862748 0.34589349467022118 0 0.79999999999999982 0.29999999999999999 0 0.82500000000000062 0.33010209762754811 0 0.78145581580700685 0.34881365920033602 0 0.79999999999999982 0.69999999999999996 0 0.7750489929959945 0.66593931409600093 0 0.82457059160610424 0.66831947184359608 0 0.59999999999999976 0.69999999999999996 0 0.57484956128872922 0.66573805030881994 0 0.62460753523532009 0.66851202781000296 0 0.74999999999999989 0.69999999999999996 0 0.72500000000000064 0.67022701834392062 0 0.7750489929959945 0.66593931409600093 0 0.74999999999999989 0.29999999999999999 0 0.78145581580700685 0.34881365920033602 0 0.73090396928863699 0.33699297293167962 0 0.33758650185219202 0.23837101504325639 0 0.33402499257867951 0.28911035184473982 0 0.29132859388405002 0.27203693976649962 0 0.36575549820117997 0.31677992835137742 0 0.41914690343363781 0.30688979866601612 0 0.40076539126862748 0.34589349467022118 0 0.4409427642593301 0.35743108089689513 0 0.40076539126862748 0.34589349467022118 0 0.41914690343363781 0.30688979866601612 0 0.34258405725730701 0.4444034294386992 0 0.38707855792647411 0.42299362914874578 0 0.3908716102680424 0.47010282357248828 0 0.7000000000006934 1 0 0.65000000000104008 1 0 0.68015064798562208 0.95924320340003011 0 0.49102375406324739 0.49123754822244059 0 0.46111841286828259 0.46690301029591341 0 0.48858720058566618 0.43964267759203868 0 0.4656888918609538 0.78493261229743638 0 0.42676259796334498 0.76772545931379299 0 0.45582236402875981 0.73896743678908217 0 0.40326160981139969 0.73346192995102844 0 0.45582236402875981 0.73896743678908217 0 0.42676259796334498 0.76772545931379299 0 0.59999999999999976 0.29999999999999999 0 0.62657463266645097 0.26524202571255862 0 0.6499999999999998 0.29999999999999999 0 0.40000000000166441 1 0 0.36184234618600131 0.96443954459096326 0 0.39641108128798319 0.94356127926187128 0 0.3999999999989749 0 0 0.39591832466117061 0.056982757562006353 0 0.3615861437013822 0.03582617922508851 0 0.43249999999999988 0.43937499999999979 0 0.48858720058566618 0.43964267759203868 0 0.46111841286828259 0.46690301029591341 0 0.7250000000005199 0.89375000000045834 0 0.7250000000005199 0.94981617647078953 0 0.68987011941058407 0.92105047536677087 0 0.7250000000005199 0.89375000000045834 0 0.75729602384198635 0.92353652857884294 0 0.7250000000005199 0.94981617647078953 0 0.72500000000001008 0.19776155966387679 0 0.75668890529066124 0.2244279804069782 0 0.72500000000000064 0.2498161764706 0 0.72500000000001008 0.19776155966387679 0 0.72500000000000064 0.2498161764706 0 0.69397719155551807 0.2245125647000914 0 0.79999999999999982 0.29999999999999999 0 0.81486180804364938 0.26321394949780091 0 0.84999999999999987 0.29999999999999999 0 0.84999999999965292 1 0 0.79999999999999982 1 0 0.81486180804382891 0.96321394949790495 0 0.1247745017231483 0.27198077544791172 0 0.095326043202144745 0.24554465089224409 0 0.14377654328998779 0.2442024734791064 0 0.1215415378367805 0.72939333680004137 0 0.14335651144331049 0.75565258250209677 0 0.090953281884486245 0.7564451946902494 0 0.72500000000001008 0.19776155966387679 0 0.72634814642510737 0.16106886917518889 0 0.76587607630038135 0.18880039518954719 0 0.72500000000001008 0.19776155966387679 0 0.6865991819015953 0.189116534044597 0 0.72634814642510737 0.16106886917518889 0 0.77144070960558853 0.14311854477243749 0 0.76587607630038135 0.18880039518954719 0 0.72634814642510737 0.16106886917518889 0 0.68391457121233579 0.14440470121196541 0 0.72634814642510737 0.16106886917518889 0 0.6865991819015953 0.189116534044597 0 0.7250000000005199 0.89375000000045834 0 0.72863726579783861 0.85390518901155588 0 0.76891166905518427 0.88835469571185499 0 0.76901770135486491 0.84293557325473656 0 0.76891166905518427 0.88835469571185499 0 0.72863726579783861 0.85390518901155588 0 0 0.20000000000083221 0 0.038512288486115001 0.1844147282893184 0 0.044081577119474857 0.2271058242433576 0 0 0.79999999999999982 0 0.04408157711937423 0.7728941757575627 0 0.038512288486097702 0.8155852717111195 0 0.52375890611712683 0.059318771819432882 0 0.47881186583059909 0.093591717165689425 0 0.47040171442036788 0.044141676406503738 0 0.52122150208832174 0.94089974453840242 0 0.47135117303824892 0.95556877749289892 0 0.47401147028110507 0.91529957330468115 0 0.27474541102162192 0.11822029332053539 0 0.3096713403101819 0.085471541595262421 0 0.32215584939770009 0.1218492143506909 0 0.22278230690790279 0.44824268025881547 0 0.24049127783545701 0.41270748208749802 0 0.25982634974572738 0.46097799597715272 0 0.93732437411268477 0.55911392101136159 0 0.91143117093204207 0.58709913730335972 0 0.90900154012161016 0.53607784105648792 0 0.19901705110390991 0.9175543425573498 0 0.24536017905392571 0.90704567837671446 0 0.22850979588452081 0.95594428570238643 0 0.27609987656793722 0.94991445621608572 0 0.22850979588452081 0.95594428570238643 0 0.24536017905392571 0.90704567837671446 0 0.15720202157091859 0.60665697304410315 0 0.1241190223511371 0.64391885572885044 0 0.1024350934457823 0.60772393977513839 0 0.6499999999999998 0.69999999999999996 0 0.675261390228442 0.65996937624687813 0 0.69999999999999984 0.69999999999999996 0 0.3999999999989749 0 0 0.4320097814748517 0.037406712692169303 0 0.39591832466117061 0.056982757562006353 0 0.40000000000166441 1 0 0.39641108128798319 0.94356127926187128 0 0.4308986359464303 0.96395712492906194 0 0.54999999999999993 0.29999999999999999 0 0.56836770495988642 0.3523062350852913 0 0.52752007115234678 0.33170632466418198 0 0.14474682429600511 0.85524784522713515 0 0.17777405986036951 0.81832336108265358 0 0.19741632902693801 0.86755867406447229 0 0.21858834311891909 0.81980263716112767 0 0.19741632902693801 0.86755867406447229 0 0.17777405986036951 0.81832336108265358 0 0.54782696902220018 0.79245182748204157 0 0.50731287292894423 0.78963574450233831 0 0.50945740445113552 0.75476055527778108 0 0.20000000000083221 1 0 0.18474005699953849 0.96231585248064622 0 0.22850979588452081 0.95594428570238643 0 0.19999999999955789 0 0 0.22668068146512929 0.045875643423131329 0 0.184418230509967 0.038773194583122873 0 0.77846603114747959 0.49850927265137401 0 0.73947346780852752 0.49062440112282169 0 0.77972660463949339 0.45529290596363098 0 0.73483647259922602 0.44789725365921768 0 0.77972660463949339 0.45529290596363098 0 0.73947346780852752 0.49062440112282169 0 0.34258405725730701 0.4444034294386992 0 0.35024835142131061 0.48654922671676981 0 0.31068898841644388 0.47541502461811092 0 0.33123028043633618 0.77629643437932982 0 0.2792923945214143 0.77665808831789485 0 0.29904318922293632 0.74132814928635593 0 0.26573297623774761 0.59828298563722948 0 0.25115337790845271 0.54719303014923271 0 0.29110487519241501 0.56588143995431495 0 0.4656888918609538 0.78493261229743638 0 0.50945740445113552 0.75476055527778108 0 0.50731287292894423 0.78963574450233831 0 0.35312867752657662 0.084946736076730367 0 0.36246644853392812 0.1399454205365751 0 0.32215584939770009 0.1218492143506909 0 0.29348325746214782 0.31350119524708198 0 0.25966125648670141 0.34351016742083729 0 0.24432083401701241 0.3006253385567515 0 0.59999999999999976 0.69999999999999996 0 0.6499999999999998 0.69999999999999996 0 0.63221990677827677 0.73442891067859706 0 0.69999999999921003 0 0 0.7010294155333181 0.056779085686491267 0 0.66369801598854572 0.036327466368102787 0 0.40000000000166441 1 0 0.35000000000145642 1 0 0.36184234618600131 0.96443954459096326 0 0.34999999999912063 0 0 0.3999999999989749 0 0 0.3615861437013822 0.03582617922508851 0 0.43507373378304309 0.49699695397193322 0 0.47793794143994173 0.52940715638744962 0 0.42644501560315817 0.54603747078095544 0 0.14474682429600511 0.85524784522713515 0 0.19741632902693801 0.86755867406447229 0 0.16206583317966519 0.89685560785156404 0 0.19901705110390991 0.9175543425573498 0 0.16206583317966519 0.89685560785156404 0 0.19741632902693801 0.86755867406447229 0 0.35864735590330371 0.63903383440414463 0 0.3977710372045391 0.65868194622830212 0 0.36622285152418499 0.69092437780804039 0 0.7527966693318906 0.053051678021508272 0 0.7010294155333181 0.056779085686491267 0 0.72683645290270404 0.027797073151180601 0 0.71508799138962864 0.36622814920737751 0 0.72622533758026719 0.40265885511101601 0 0.68128176404677243 0.38629093627004979 0 0.79999999999999982 0.69999999999999996 0 0.84999999999999987 0.69999999999999996 0 0.81864958914779962 0.73589050177899629 0 0.79999999999947335 0 0 0.84999999999960507 0 0 0.81864958914740749 0.035890501779055867 0 0.39536230704883951 0.84069429572832477 0 0.35642984951668422 0.80994399665655703 0 0.38586766253264881 0.78219501014812498 0 0.42377727103934271 0.25099357235810238 0 0.46429753744194407 0.22870891180733599 0 0.4604742573284204 0.27846934318264788 0 0.39801143831225599 0.16651381068160659 0 0.42905200079338551 0.19982395548231649 0 0.38831533174504851 0.2189834941785925 0 0.79999999999999982 1 0 0.770759834363826 0.95919399014344442 0 0.81486180804382891 0.96321394949790495 0 0.79999999999999982 0.29999999999999999 0 0.77075983436335049 0.25919399014334171 0 0.81486180804364938 0.26321394949780091 0 0.25195515620380449 0.25883339815888678 0 0.21049769590865089 0.26857363548218488 0 0.224700362040408 0.22206622194729711 0 0.40326160981139969 0.73346192995102844 0 0.42676259796334498 0.76772545931379299 0 0.38586766253264881 0.78219501014812498 0 0.35312867752657662 0.084946736076730367 0 0.3096713403101819 0.085471541595262421 0 0.32541448401678508 0.046215317981507749 0 0.59999999999999976 0.29999999999999999 0 0.6499999999999998 0.29999999999999999 0 0.61959173890754571 0.33832250091341232 0 0.2185883431182947 0.18019736283949719 0 0.18652628422869419 0.14162325200928061 0 0.22985637510995899 0.1298347970200906 0 0.64999999999907843 0 0 0.69999999999921003 0 0 0.66369801598854572 0.036327466368102787 0 0.27499999999933927 0.060310814194988557 0 0.24218496799700481 0.089025544070598317 0 0.22668068146512929 0.045875643423131329 0 0.19922788606653311 0.085920220746880993 0 0.22668068146512929 0.045875643423131329 0 0.24218496799700481 0.089025544070598317 0 0.65507451745379841 0.92229208810758578 0 0.66412543161245952 0.88015090885499059 0 0.68987011941058407 0.92105047536677087 0 0.049706944316475897 0.72477277076253799 0 0.090953281884486245 0.7564451946902494 0 0.04408157711937423 0.7728941757575627 0 0.083105206071452636 0.79992298667296435 0 0.04408157711937423 0.7728941757575627 0 0.090953281884486245 0.7564451946902494 0 0.083105206071467416 0.20007701332709979 0 0.095326043202144745 0.24554465089224409 0 0.044081577119474857 0.2271058242433576 0 0.049706944316556423 0.27522722923869108 0 0.044081577119474857 0.2271058242433576 0 0.095326043202144745 0.24554465089224409 0 0.36575549820117997 0.31677992835137742 0 0.33402499257867951 0.28911035184473982 0 0.3786248352540974 0.27082301512024259 0 0.53245488764484505 0.55078124999999989 0 0.53330375813596242 0.50827942741749099 0 0.57435499076887508 0.54267261987897775 0 0.57611405284611883 0.50165903596042916 0 0.57435499076887508 0.54267261987897775 0 0.53330375813596242 0.50827942741749099 0 0.6499999999999998 0.29999999999999999 0 0.69999999999999984 0.29999999999999999 0 0.68887083591306764 0.33632058575757479 0 0.57611405284611883 0.50165903596042916 0 0.53823865529665704 0.45873898050322898 0 0.57975577671020095 0.46172033326338591 0 0.7750489929959945 0.66593931409600093 0 0.72500000000000064 0.67022701834392062 0 0.74994237037456724 0.62775548192980357 0 0.78145581580700685 0.34881365920033602 0 0.74764719760526988 0.3719647154012321 0 0.73090396928863699 0.33699297293167962 0 0.3999999999989749 0 0 0.44999999999882923 0 0 0.4320097814748517 0.037406712692169303 0 0.45000000000187229 1 0 0.40000000000166441 1 0 0.4308986359464303 0.96395712492906194 0 0.57484956128872922 0.66573805030881994 0 0.5991018319127801 0.62925360607495295 0 0.62460753523532009 0.66851202781000296 0 0.7750489929959945 0.66593931409600093 0 0.79884539758237771 0.62875045078114233 0 0.82457059160610424 0.66831947184359608 0 0.39801143831225599 0.16651381068160659 0 0.36246644853392812 0.1399454205365751 0 0.39823268594401579 0.1116623613130045 0 0.078358742472063481 0.43365249433908948 0 0.033550201249889847 0.46247875832467239 0 0.035463093262830522 0.42673416072819947 0 0.25676291524611189 0.7436741304886243 0 0.2792923945214143 0.77665808831789485 0 0.22556077506376701 0.77837424984191617 0 0.2236846579037573 0.67380363126050236 0 0.2248999640082178 0.72584299459689172 0 0.19068556247388771 0.71028988922845504 0 0.50715858906372158 0.63295939104129484 0 0.5166924242153631 0.59825134841919447 0 0.5498280205245758 0.6290146943450976 0 0.14618258501891079 0.062070108745602003 0 0.12372429750337779 0.095814237875728972 0 0.10266856499169109 0.044518360900210059 0 0.083411279318303222 0.089699755330707398 0 0.10266856499169109 0.044518360900210059 0 0.12372429750337779 0.095814237875728972 0 0.083411279318375747 0.91030024466934134 0 0.1241151115713819 0.9045666525468371 0 0.10266856499240549 0.95548163909968886 0 0.14617343800780541 0.93808063414349496 0 0.10266856499240549 0.95548163909968886 0 0.1241151115713819 0.9045666525468371 0 0.5499999999988151 0 0 0.59999999999894682 0 0 0.57396793757665954 0.037011367187645222 0 0.54782696902220018 0.79245182748204157 0 0.50627822638148745 0.8263979829520941 0 0.50731287292894423 0.78963574450233831 0 0.6499999999999998 0.29999999999999999 0 0.62657463266645097 0.26524202571255862 0 0.67933712972090698 0.25920070958121938 0 0.86956835336234861 0.571283299838105 0 0.86907294890112186 0.52008116128001669 0 0.90900154012161016 0.53607784105648792 0 0.17933913398461551 0.2350063570234002 0 0.224700362040408 0.22206622194729711 0 0.21049769590865089 0.26857363548218488 0 0.43249999999999988 0.43937499999999979 0 0.3908716102680424 0.47010282357248828 0 0.38707855792647411 0.42299362914874578 0 0.27474541102162192 0.11822029332053539 0 0.22985637510995899 0.1298347970200906 0 0.24218496799700481 0.089025544070598317 0 0.64753070846764316 0.77332939069435502 0 0.66427993341343905 0.73232764502436276 0 0.6916490518212759 0.75387992374886192 0 0 0.40000000000166441 0 0.050583896093752537 0.38543522283434112 0 0.035463093262830522 0.42673416072819947 0 0.73483647259922602 0.44789725365921768 0 0.73947346780852752 0.49062440112282169 0 0.69385896817107129 0.48377516041410151 0 0.57484956128872922 0.66573805030881994 0 0.52584555706968406 0.66664215091846768 0 0.5498280205245758 0.6290146943450976 0 0.60000000000138687 1 0 0.55000000000173355 1 0 0.57382506491224949 0.9629411906298494 0 0.068743045408989428 0.48853989837882689 0 0.085622222639554768 0.53333248912060549 0 0.044576108720083309 0.53509043209532614 0 0.083105206071467416 0.20007701332709979 0 0.044081577119474857 0.2271058242433576 0 0.038512288486115001 0.1844147282893184 0 0.083105206071452636 0.79992298667296435 0 0.038512288486097702 0.8155852717111195 0 0.04408157711937423 0.7728941757575627 0 0.28307294598219601 0.50789252727458634 0 0.23975172658309729 0.49475499200540818 0 0.25982634974572738 0.46097799597715272 0 0.43698630808430822 0.080423614171545449 0 0.39591832466117061 0.056982757562006353 0 0.4320097814748517 0.037406712692169303 0 0.4367309254023824 0.92065556789053882 0 0.4308986359464303 0.96395712492906194 0 0.39641108128798319 0.94356127926187128 0 0.80185942888539485 0.77452061303608133 0 0.75841349681148107 0.75422312624214749 0 0.78578450296893509 0.73292684821144505 0 0.80185942888501827 0.074520613036224564 0 0.7527966693318906 0.053051678021508272 0 0.78393852574753176 0.032039079577822822 0 0.6499999999999998 0.69999999999999996 0 0.62460753523532009 0.66851202781000296 0 0.675261390228442 0.65996937624687813 0 0.33123028043633618 0.77629643437932982 0 0.38586766253264881 0.78219501014812498 0 0.35642984951668422 0.80994399665655703 0 0.6405463747586706 0.63290524857395714 0 0.675261390228442 0.65996937624687813 0 0.62460753523532009 0.66851202781000296 0 0.22278230690790279 0.44824268025881547 0 0.191953871957803 0.42546416763755879 0 0.24049127783545701 0.41270748208749802 0 0.077693244765132896 0.56932317963405099 0 0.050069554451969707 0.61308520079857043 0 0.034381862692950467 0.57372682250960894 0 0.25195515620380449 0.25883339815888678 0 0.24432083401701241 0.3006253385567515 0 0.21049769590865089 0.26857363548218488 0 0.46666084890304671 0.57634471035397938 0 0.5166924242153631 0.59825134841919447 0 0.47095389620662098 0.61892551373708504 0 0.50715858906372158 0.63295939104129484 0 0.47095389620662098 0.61892551373708504 0 0.5166924242153631 0.59825134841919447 0 0.72525833953073282 0.1032114801687094 0 0.7527966693318906 0.053051678021508272 0 0.76878382444651716 0.097147941686331368 0 0.80185942888501827 0.074520613036224564 0 0.76878382444651716 0.097147941686331368 0 0.7527966693318906 0.053051678021508272 0 0.72500000000000064 0.7952620967744265 0 0.75841349681148107 0.75422312624214749 0 0.77094201086366854 0.79647480515688507 0 0.80185942888539485 0.77452061303608133 0 0.77094201086366854 0.79647480515688507 0 0.75841349681148107 0.75422312624214749 0 0.72500000000000064 0.7952620967744265 0 0.68024162096458085 0.79868546898116533 0 0.6916490518212759 0.75387992374886192 0 0.64753070846764316 0.77332939069435502 0 0.6916490518212759 0.75387992374886192 0 0.68024162096458085 0.79868546898116533 0 0 0.50000000000205869 0 0 0.45000000000187229 0 0.033550201249889847 0.46247875832467239 0 0.69999999999999984 0.69999999999999996 0 0.675261390228442 0.65996937624687813 0 0.72500000000000064 0.67022701834392062 0 0.71406021706547751 0.63292083137662503 0 0.72500000000000064 0.67022701834392062 0 0.675261390228442 0.65996937624687813 0 0.65408113592120842 0.073941773121567966 0 0.61940220174112337 0.047251958781050582 0 0.66369801598854572 0.036327466368102787 0 0.59999999999894682 0 0 0.61940220174112337 0.047251958781050582 0 0.57396793757665954 0.037011367187645222 0 0.60000000000138687 1 0 0.57382506491224949 0.9629411906298494 0 0.62065498684670595 0.95224934003983619 0 0.33122374654748771 0.57588941099433744 0 0.35765792684946668 0.6000687869219653 0 0.31502927232353312 0.6134992213375432 0 0.35864735590330371 0.63903383440414463 0 0.31502927232353312 0.6134992213375432 0 0.35765792684946668 0.6000687869219653 0 0.15801167086041079 0.46008690540259539 0 0.19604738184454831 0.47787523520405789 0 0.16618607197337229 0.50652878253548905 0 0.078358742472063481 0.43365249433908948 0 0.035463093262830522 0.42673416072819947 0 0.050583896093752537 0.38543522283434112 0 0.19901705110390991 0.9175543425573498 0 0.22850979588452081 0.95594428570238643 0 0.18474005699953849 0.96231585248064622 0 0.19922788606653311 0.085920220746880993 0 0.184418230509967 0.038773194583122873 0 0.22668068146512929 0.045875643423131329 0 0.19922788606653311 0.085920220746880993 0 0.24218496799700481 0.089025544070598317 0 0.22985637510995899 0.1298347970200906 0 0.74999999999999989 0.69999999999999996 0 0.78578450296893509 0.73292684821144505 0 0.75841349681148107 0.75422312624214749 0 0.74999999999934175 0 0 0.78393852574753176 0.032039079577822822 0 0.7527966693318906 0.053051678021508272 0 0 0.60000000000138687 0 0.034381862692950467 0.57372682250960894 0 0.050069554451969707 0.61308520079857043 0 0.2236846579037573 0.67380363126050236 0 0.26439878998046262 0.7048065392091396 0 0.2248999640082178 0.72584299459689172 0 0.6236733212988993 0.14864538214901801 0 0.58516465772821369 0.11653801664834119 0 0.61956000905586006 0.1043312481793135 0 0.26104540868854792 0.81401944968719064 0 0.2792923945214143 0.77665808831789485 0 0.30857225866488791 0.81101973481716805 0 0.42377727103934271 0.25099357235810238 0 0.42905200079338551 0.19982395548231649 0 0.46429753744194407 0.22870891180733599 0 0.27820712747429932 0.65530134213254643 0 0.31502927232353312 0.6134992213375432 0 0.32263089806001177 0.66003674931826484 0 0.61343887413683884 0.856862479058357 0 0.61885627562261258 0.90282959257498208 0 0.5832743223239254 0.88483152652961872 0 0.43698630808430822 0.080423614171545449 0 0.47040171442036788 0.044141676406503738 0 0.47881186583059909 0.093591717165689425 0 0.4367309254023824 0.92065556789053882 0 0.47401147028110507 0.91529957330468115 0 0.47135117303824892 0.95556877749289892 0 0.91696753777131557 0.497780560203536 0 0.95631871884947484 0.51827533208233789 0 0.90900154012161016 0.53607784105648792 0 0.93732437411268477 0.55911392101136159 0 0.90900154012161016 0.53607784105648792 0 0.95631871884947484 0.51827533208233789 0 0.27474541102162192 0.11822029332053539 0 0.25557216766470708 0.15874861286892261 0 0.22985637510995899 0.1298347970200906 0 0.2185883431182947 0.18019736283949719 0 0.22985637510995899 0.1298347970200906 0 0.25557216766470708 0.15874861286892261 0 0.29348325746214782 0.31350119524708198 0 0.33402499257867951 0.28911035184473982 0 0.32752639306529541 0.32610012995269699 0 0.27499999999933927 0.060310814194988557 0 0.32541448401678508 0.046215317981507749 0 0.3096713403101819 0.085471541595262421 0 0.27270076654418179 0.87751467830216623 0 0.24536017905392571 0.90704567837671446 0 0.2401283238295133 0.85648409884788523 0 1 0.44999999999963131 0 1 0.49999999999950101 0 0.96228564064454991 0.48206450662049471 0 0.61343887413683884 0.856862479058357 0 0.66412543161245952 0.88015090885499059 0 0.61885627562261258 0.90282959257498208 0 0 0.45000000000187229 0 0 0.40000000000166441 0 0.035463093262830522 0.42673416072819947 0 0.69999999999999984 0.69999999999999996 0 0.6916490518212759 0.75387992374886192 0 0.66427993341343905 0.73232764502436276 0 0.43846182030517877 0.64845797726506715 0 0.43323420005758778 0.6913544522562407 0 0.3977710372045391 0.65868194622830212 0 0.4367309254023824 0.92065556789053882 0 0.44003836461056539 0.88093474584252718 0 0.47401147028110507 0.91529957330468115 0 0.43846182030517877 0.64845797726506715 0 0.39743091024207589 0.6239520004230239 0 0.43545892161006339 0.61093128915313821 0 0.43846182030517877 0.64845797726506715 0 0.3977710372045391 0.65868194622830212 0 0.39743091024207589 0.6239520004230239 0 0.26429849586623999 0.19346700179430079 0 0.29336099386129338 0.15892013001050981 0 0.31255190597181792 0.19850845631528771 0 0.19670163708476801 0.31472518408333222 0 0.21049769590865089 0.26857363548218488 0 0.24432083401701241 0.3006253385567515 0 0.57724883562309992 0.92155686857100794 0 0.62065498684670595 0.95224934003983619 0 0.57382506491224949 0.9629411906298494 0 0.4409427642593301 0.35743108089689513 0 0.46655310992796922 0.39650496622958609 0 0.42161023666869668 0.39493916313643851 0 0.46666084890304671 0.57634471035397938 0 0.47095389620662098 0.61892551373708504 0 0.43545892161006339 0.61093128915313821 0 0.6879972333610942 0.43038561374960838 0 0.65178832218679827 0.45929119821019959 0 0.63912439215427275 0.41063340167983359 0 0.43698630808430822 0.080423614171545449 0 0.4320097814748517 0.037406712692169303 0 0.47040171442036788 0.044141676406503738 0 0.4367309254023824 0.92065556789053882 0 0.47135117303824892 0.95556877749289892 0 0.4308986359464303 0.96395712492906194 0 0.79680861578988083 0.92656778056766709 0 0.81486180804382891 0.96321394949790495 0 0.770759834363826 0.95919399014344442 0 0.79680861578956375 0.22656778056752541 0 0.81486180804364938 0.26321394949780091 0 0.77075983436335049 0.25919399014334171 0 0.71508799138962864 0.36622814920737751 0 0.68128176404677243 0.38629093627004979 0 0.68887083591306764 0.33632058575757479 0 0.35864735590330371 0.63903383440414463 0 0.32263089806001177 0.66003674931826484 0 0.31502927232353312 0.6134992213375432 0 0.21858834311891909 0.81980263716112767 0 0.2401283238295133 0.85648409884788523 0 0.19741632902693801 0.86755867406447229 0 0.35312867752657662 0.084946736076730367 0 0.32215584939770009 0.1218492143506909 0 0.3096713403101819 0.085471541595262421 0 0.35752321586431363 0.9185439911803448 0 0.35864759629805099 0.87963482415279515 0 0.39767323751400468 0.89584229130535065 0 0.41914690343363781 0.30688979866601612 0 0.4604742573284204 0.27846934318264788 0 0.46226845272279993 0.31901800744800313 0 0.33084213324567391 0.16272720141332131 0 0.32215584939770009 0.1218492143506909 0 0.36246644853392812 0.1399454205365751 0 0.46666084890304671 0.57634471035397938 0 0.42644501560315817 0.54603747078095544 0 0.47793794143994173 0.52940715638744962 0 0 0.60000000000138687 0 0 0.55000000000173355 0 0.034381862692950467 0.57372682250960894 0 0.77354604466818633 0.40378688774472771 0 0.74764719760526988 0.3719647154012321 0 0.78145581580700685 0.34881365920033602 0 0.34999999999912063 0 0 0.3615861437013822 0.03582617922508851 0 0.32541448401678508 0.046215317981507749 0 0.35000000000145642 1 0 0.32544832635163229 0.95485394099568932 0 0.36184234618600131 0.96443954459096326 0 0.57667858002728545 0.078486105337742612 0 0.57396793757665954 0.037011367187645222 0 0.61940220174112337 0.047251958781050582 0 0.47357141910802508 0.1873585799078378 0 0.50760557329222289 0.20700468884612061 0 0.46429753744194407 0.22870891180733599 0 0.49695729691142171 0.25014895411178018 0 0.46429753744194407 0.22870891180733599 0 0.50760557329222289 0.20700468884612061 0 0.33084213324567391 0.16272720141332131 0 0.3572130504031617 0.1874703368446563 0 0.31255190597181792 0.19850845631528771 0 0.6879972333610942 0.43038561374960838 0 0.63912439215427275 0.41063340167983359 0 0.68128176404677243 0.38629093627004979 0 0.65408113592120842 0.073941773121567966 0 0.65290632656860115 0.11434202593454081 0 0.61956000905586006 0.1043312481793135 0 0.33084213324567391 0.16272720141332131 0 0.31255190597181792 0.19850845631528771 0 0.29336099386129338 0.15892013001050981 0 0.61209567303293111 0.44669033081290321 0 0.63912439215427275 0.41063340167983359 0 0.65178832218679827 0.45929119821019959 0 0.086179601630648681 0.64647209519980475 0 0.1024350934457823 0.60772393977513839 0 0.1241190223511371 0.64391885572885044 0 0.44999999999882923 0 0 0.47040171442036788 0.044141676406503738 0 0.4320097814748517 0.037406712692169303 0 0.45000000000187229 1 0 0.4308986359464303 0.96395712492906194 0 0.47135117303824892 0.95556877749289892 0 0.74999999999934175 0 0 0.7527966693318906 0.053051678021508272 0 0.72683645290270404 0.027797073151180601 0 0.74999999999999989 0.69999999999999996 0 0.75841349681148107 0.75422312624214749 0 0.72501250972655151 0.74067302935308721 0 0.69999999999999984 0.69999999999999996 0 0.72501250972655151 0.74067302935308721 0 0.6916490518212759 0.75387992374886192 0 0.74999999999934175 0 0 0.79999999999947335 0 0 0.78393852574753176 0.032039079577822822 0 0.74999999999999989 0.69999999999999996 0 0.79999999999999982 0.69999999999999996 0 0.78578450296893509 0.73292684821144505 0 0.6405463747586706 0.63290524857395714 0 0.5991018319127801 0.62925360607495295 0 0.63065402604362242 0.59661356661633302 0 0.65481233915350323 0.35652751921065562 0 0.68887083591306764 0.33632058575757479 0 0.68128176404677243 0.38629093627004979 0 0.89999999999999991 0.29999999999999999 0 0.94999999999999996 0.29999999999999999 0 0.92012390126144183 0.33123581297173937 0 0.89999999999999991 0.69999999999999996 0 0.92057473616084773 0.66770436535372446 0 0.94999999999999996 0.69999999999999996 0 0.4367309254023824 0.92065556789053882 0 0.39767323751400468 0.89584229130535065 0 0.44003836461056539 0.88093474584252718 0 0.2185883431182947 0.18019736283949719 0 0.18124454140915969 0.18790916706335251 0 0.18652628422869419 0.14162325200928061 0 0.20050006573841939 0.53248514016039872 0 0.19604738184454831 0.47787523520405789 0 0.23975172658309729 0.49475499200540818 0 0.65507451745379841 0.92229208810758578 0 0.61885627562261258 0.90282959257498208 0 0.66412543161245952 0.88015090885499059 0 0.65394964615507722 0.22666784374016369 0 0.67933712972090698 0.25920070958121938 0 0.62657463266645097 0.26524202571255862 0 0.077693244765132896 0.56932317963405099 0 0.034381862692950467 0.57372682250960894 0 0.044576108720083309 0.53509043209532614 0 0.39801143831225599 0.16651381068160659 0 0.38831533174504851 0.2189834941785925 0 0.3572130504031617 0.1874703368446563 0 0.6499999999999998 0.69999999999999996 0 0.69999999999999984 0.69999999999999996 0 0.66427993341343905 0.73232764502436276 0 0.1215415378367805 0.72939333680004137 0 0.15332765547575641 0.71200081858233666 0 0.14335651144331049 0.75565258250209677 0 0.6405463747586706 0.63290524857395714 0 0.63065402604362242 0.59661356661633302 0 0.67529834988829951 0.61613270668143583 0 0.67323294229744413 0.57556450033612505 0 0.67529834988829951 0.61613270668143583 0 0.63065402604362242 0.59661356661633302 0 0.91750694127107502 0.36982372220068471 0 0.87430060258887643 0.34056085888204451 0 0.92012390126144183 0.33123581297173937 0 0.89999999999999991 0.29999999999999999 0 0.92012390126144183 0.33123581297173937 0 0.87430060258887643 0.34056085888204451 0 0.89999999999999991 0.69999999999999996 0 0.87712158428786946 0.65709029563313581 0 0.92057473616084773 0.66770436535372446 0 0.91750694127105259 0.63017627779935648 0 0.92057473616084773 0.66770436535372446 0 0.87712158428786946 0.65709029563313581 0 0.33122374654748771 0.57588941099433744 0 0.29110487519241501 0.56588143995431495 0 0.33190227185843768 0.52715113583864037 0 0.57484956128872922 0.66573805030881994 0 0.5498280205245758 0.6290146943450976 0 0.5991018319127801 0.62925360607495295 0 0.57412547362576272 0.58273804879550706 0 0.5991018319127801 0.62925360607495295 0 0.5498280205245758 0.6290146943450976 0 0.65408113592120842 0.073941773121567966 0 0.66369801598854572 0.036327466368102787 0 0.7010294155333181 0.056779085686491267 0 0.27474541102162192 0.11822029332053539 0 0.32215584939770009 0.1218492143506909 0 0.29336099386129338 0.15892013001050981 0 0.33084213324567391 0.16272720141332131 0 0.29336099386129338 0.15892013001050981 0 0.32215584939770009 0.1218492143506909 0 0.5 0.29999999999999999 0 0.54999999999999993 0.29999999999999999 0 0.52752007115234678 0.33170632466418198 0 0.83573492347052902 0.36590755630746369 0 0.87430060258887643 0.34056085888204451 0 0.86844634540301924 0.38530937474099819 0 0.83758014339878906 0.63222013025741819 0 0.87159648282691515 0.61285406320581504 0 0.87712158428786946 0.65709029563313581 0 0.22278230690790279 0.44824268025881547 0 0.23975172658309729 0.49475499200540818 0 0.19604738184454831 0.47787523520405789 0 1 0.49999999999950101 0 0.95631871884947484 0.51827533208233789 0 0.96228564064454991 0.48206450662049471 0 0.1650278706801647 0.38791388161335733 0 0.13773355295499351 0.42497777642586831 0 0.1117088112799664 0.38831403004970022 0 0.61209567303293111 0.44669033081290321 0 0.57975577671020095 0.46172033326338591 0 0.57744073070774993 0.41535148636609359 0 0.077693244765132896 0.56932317963405099 0 0.1154888278694548 0.56733818459978413 0 0.1024350934457823 0.60772393977513839 0 0.68697391633157634 0.84450604838764298 0 0.65005442820240822 0.82644988530054031 0 0.68024162096458085 0.79868546898116533 0 0.76901770135486491 0.84293557325473656 0 0.77094201086366854 0.79647480515688507 0 0.80041942726660109 0.81543261647703358 0 0.77144070960558853 0.14311854477243749 0 0.76878382444651716 0.097147941686331368 0 0.80076557130237269 0.1154587552654202 0 0.5 0.69999999999999996 0 0.52584555706968406 0.66664215091846768 0 0.54999999999999993 0.69999999999999996 0 0.077693244765132896 0.56932317963405099 0 0.044576108720083309 0.53509043209532614 0 0.085622222639554768 0.53333248912060549 0 0.69999999999921003 0 0 0.72683645290270404 0.027797073151180601 0 0.7010294155333181 0.056779085686491267 0 1 0 0 0.97166519676946894 0.033371144900598393 0 0.94999999999986839 0 0 1 0.69999999999999996 0 0.97166519676947294 0.73337114490064459 0 0.94999999999999996 0.69999999999999996 0 1 0.69999999999999996 0 1 0.74999999999993494 0 0.97166519676947294 0.73337114490064459 0 1 0.29999999999999999 0 0.97166519676951801 0.26662885509932011 0 1 0.24999999999987299 0 1 1 0 0.94999999999979179 1 0 0.97166519676946206 0.96662885509935492 0 1 0 0 1 0.049999999999896842 0 0.97166519676946894 0.033371144900598393 0 1 0.29999999999999999 0 0.94999999999999996 0.29999999999999999 0 0.97166519676951801 0.26662885509932011 0 1 1 0 0.97166519676946206 0.96662885509935492 0 1 0.94999999999997109 0 0 0.55000000000173355 0 0.044576108720083309 0.53509043209532614 0 0.034381862692950467 0.57372682250960894 0 0.6879972333610942 0.43038561374960838 0 0.69385896817107129 0.48377516041410151 0 0.65178832218679827 0.45929119821019959 0 0.33084213324567391 0.16272720141332131 0 0.36246644853392812 0.1399454205365751 0 0.3572130504031617 0.1874703368446563 0 0.65408113592120842 0.073941773121567966 0 0.68330259535470161 0.10038702501083881 0 0.65290632656860115 0.11434202593454081 0 0.16500388252850301 0.66612077714085194 0 0.19068556247388771 0.71028988922845504 0 0.15332765547575641 0.71200081858233666 0 0.82709327591091286 0.84937141670920724 0 0.85600844944837662 0.88483418979512773 0 0.81159157511211755 0.88795995483179491 0 0.82709327591102189 0.14937141670914489 0 0.85600844944842547 0.1848341897950983 0 0.81283102246527783 0.1881007222486438 0 0.79999999999999982 0.29999999999999999 0 0.84999999999999987 0.29999999999999999 0 0.82500000000000062 0.33010209762754811 0 0.79999999999999982 0.69999999999999996 0 0.82457059160610424 0.66831947184359608 0 0.84999999999999987 0.69999999999999996 0 0.59999999999999976 0.69999999999999996 0 0.62460753523532009 0.66851202781000296 0 0.6499999999999998 0.69999999999999996 0 0.39801143831225599 0.16651381068160659 0 0.3572130504031617 0.1874703368446563 0 0.36246644853392812 0.1399454205365751 0 0.69999999999999984 0.29999999999999999 0 0.74999999999999989 0.29999999999999999 0 0.73090396928863699 0.33699297293167962 0 0.69999999999999984 0.69999999999999996 0 0.72500000000000064 0.67022701834392062 0 0.74999999999999989 0.69999999999999996 0 0.6236733212988993 0.14864538214901801 0 0.64011864159029941 0.18789607982138171 0 0.59443395090188023 0.18455690917515069 0 0.20050006573841939 0.53248514016039872 0 0.16618607197337229 0.50652878253548905 0 0.19604738184454831 0.47787523520405789 0 0.79680861578956375 0.22656778056752541 0 0.76587607630038135 0.18880039518954719 0 0.81283102246527783 0.1881007222486438 0 0.79680861578988083 0.92656778056766709 0 0.76891166905518427 0.88835469571185499 0 0.81159157511211755 0.88795995483179491 0 0.71406021706547751 0.63292083137662503 0 0.675261390228442 0.65996937624687813 0 0.67529834988829951 0.61613270668143583 0 0.6405463747586706 0.63290524857395714 0 0.67529834988829951 0.61613270668143583 0 0.675261390228442 0.65996937624687813 0 0.19670163708476801 0.31472518408333222 0 0.168349569971391 0.28054490850913671 0 0.21049769590865089 0.26857363548218488 0 0.47357141910802508 0.1873585799078378 0 0.46429753744194407 0.22870891180733599 0 0.42905200079338551 0.19982395548231649 0 0.59814117807200873 0.23398510860739519 0 0.5794309697024993 0.27124795968204829 0 0.54248833945060504 0.2520322959927106 0 0.6541250972820879 0.49999999999999989 0 0.65178832218679827 0.45929119821019959 0 0.69385896817107129 0.48377516041410151 0 0.54999999999999993 0.29999999999999999 0 0.5794309697024993 0.27124795968204829 0 0.59999999999999976 0.29999999999999999 0 0.7750489929959945 0.66593931409600093 0 0.74994237037456724 0.62775548192980357 0 0.79884539758237771 0.62875045078114233 0 0.77293540622714185 0.59448302402785813 0 0.79884539758237771 0.62875045078114233 0 0.74994237037456724 0.62775548192980357 0 0.14332333627550789 0.14578431753966009 0 0.16141998738593399 0.10404039647458049 0 0.18652628422869419 0.14162325200928061 0 0.38083244760691543 0.38531983672244652 0 0.42161023666869668 0.39493916313643851 0 0.38707855792647411 0.42299362914874578 0 0.43249999999999988 0.43937499999999979 0 0.38707855792647411 0.42299362914874578 0 0.42161023666869668 0.39493916313643851 0 0.43846182030517877 0.64845797726506715 0 0.47095389620662098 0.61892551373708504 0 0.47913475093885149 0.66010775372412711 0 0.50715858906372158 0.63295939104129484 0 0.47913475093885149 0.66010775372412711 0 0.47095389620662098 0.61892551373708504 0 0.69999999999999984 0.69999999999999996 0 0.74999999999999989 0.69999999999999996 0 0.72501250972655151 0.74067302935308721 0 0.4089290844030305 0.58728915500154233 0 0.35765792684946668 0.6000687869219653 0 0.37272913873093971 0.56192925302619479 0 0.69999999999921003 0 0 0.74999999999934175 0 0 0.72683645290270404 0.027797073151180601 0 0.17933913398461551 0.2350063570234002 0 0.21049769590865089 0.26857363548218488 0 0.168349569971391 0.28054490850913671 0 0.14474682429600511 0.85524784522713515 0 0.10562472963403439 0.87143394428979881 0 0.1074251789111534 0.83564394292147814 0 0.14332333627550789 0.14578431753966009 0 0.106902708054812 0.16453234188234539 0 0.1053400320299198 0.12877248826361379 0 0.2236846579037573 0.67380363126050236 0 0.19914261668318661 0.62286739485272158 0 0.2459498854893499 0.63248470766216769 0 0.049999999999899652 0 0 0.053064897599215843 0.048131547304697528 0 0.02576622439977887 0.024532886826226379 0 0 0.050000000000207989 0 0.02576622439977887 0.024532886826226379 0 0.053064897599215843 0.048131547304697528 0 0.050000000000207989 1 0 0.025766224399875661 0.97546711317377799 0 0.053064897599294662 0.95186845269532028 0 0 0.94999999999979179 0 0.053064897599294662 0.95186845269532028 0 0.025766224399875661 0.97546711317377799 0 0.47357141910802508 0.1873585799078378 0 0.48466639505193998 0.1421439844745814 0 0.51729576145820033 0.1683240575987815 0 0.077693244765132896 0.56932317963405099 0 0.085622222639554768 0.53333248912060549 0 0.1154888278694548 0.56733818459978413 0 0.64753070846764316 0.77332939069435502 0 0.63221990677827677 0.73442891067859706 0 0.66427993341343905 0.73232764502436276 0 0.4656888918609538 0.78493261229743638 0 0.42609163930740518 0.80361684430568059 0 0.42676259796334498 0.76772545931379299 0 0.4089290844030305 0.58728915500154233 0 0.39743091024207589 0.6239520004230239 0 0.35765792684946668 0.6000687869219653 0 0.55306006949600994 0.20198184231352201 0 0.50760557329222289 0.20700468884612061 0 0.51729576145820033 0.1683240575987815 0 1 0.8999999999998336 0 1 0.94999999999997109 0 0.97435614836744289 0.92499999999990257 0 1 0.19999999999974799 0 1 0.24999999999987299 0 0.97435614836740092 0.22499999999981049 0 1 0.74999999999993494 0 1 0.7999999999998193 0 0.97435614836745565 0.77499999999987745 0 1 0.049999999999896842 0 1 0.099999999999753911 0 0.97435614836748241 0.074999999999825387 0 0.86411095495256451 0.42388805655111889 0 0.86844634540301924 0.38530937474099819 0 0.90594285160987287 0.4141265964174129 0 0.86956835336234861 0.571283299838105 0 0.91143117093204207 0.58709913730335972 0 0.87159648282691515 0.61285406320581504 0 0 0 0 0.02576622439977887 0.024532886826226379 0 0 0.050000000000207989 0 0 1 0 0 0.94999999999979179 0 0.025766224399875661 0.97546711317377799 0 0 1 0 0.025766224399875661 0.97546711317377799 0 0.050000000000207989 1 0 0 0 0 0.049999999999899652 0 0 0.02576622439977887 0.024532886826226379 0 0.65394964615507722 0.22666784374016369 0 0.64011864159029941 0.18789607982138171 0 0.6865991819015953 0.189116534044597 0 0.25195515620380449 0.25883339815888678 0 0.28040350263641872 0.23054717217092141 0 0.29132859388405002 0.27203693976649962 0 0.61209567303293111 0.44669033081290321 0 0.65178832218679827 0.45929119821019959 0 0.61547661924074692 0.48539576058873962 0 0.6541250972820879 0.49999999999999989 0 0.61547661924074692 0.48539576058873962 0 0.65178832218679827 0.45929119821019959 0 0.19670163708476801 0.31472518408333222 0 0.24432083401701241 0.3006253385567515 0 0.22615676742807109 0.33458786033114157 0 0.15801167086041079 0.46008690540259539 0 0.13773355295499351 0.42497777642586831 0 0.191953871957803 0.42546416763755879 0 0.1650278706801647 0.38791388161335733 0 0.191953871957803 0.42546416763755879 0 0.13773355295499351 0.42497777642586831 0 0.50715858906372158 0.63295939104129484 0 0.52584555706968406 0.66664215091846768 0 0.47913475093885149 0.66010775372412711 0 0.5 0.69999999999999996 0 0.47913475093885149 0.66010775372412711 0 0.52584555706968406 0.66664215091846768 0 0.51076801031701946 0.1202837388510348 0 0.51729576145820033 0.1683240575987815 0 0.48466639505193998 0.1421439844745814 0 0.71406021706547751 0.63292083137662503 0 0.74994237037456724 0.62775548192980357 0 0.72500000000000064 0.67022701834392062 0 0.71508799138962864 0.36622814920737751 0 0.73090396928863699 0.33699297293167962 0 0.74764719760526988 0.3719647154012321 0 0.22278230690790279 0.44824268025881547 0 0.25982634974572738 0.46097799597715272 0 0.23975172658309729 0.49475499200540818 0 0.80185942888539485 0.77452061303608133 0 0.78578450296893509 0.73292684821144505 0 0.81864958914779962 0.73589050177899629 0 0.80185942888501827 0.074520613036224564 0 0.78393852574753176 0.032039079577822822 0 0.81864958914740749 0.035890501779055867 0 0.5 0.29999999999999999 0 0.46226845272279993 0.31901800744800313 0 0.4604742573284204 0.27846934318264788 0 0.6405463747586706 0.63290524857395714 0 0.62460753523532009 0.66851202781000296 0 0.5991018319127801 0.62925360607495295 0 0.79680861578988083 0.92656778056766709 0 0.770759834363826 0.95919399014344442 0 0.75729602384198635 0.92353652857884294 0 0.79680861578956375 0.22656778056752541 0 0.77075983436335049 0.25919399014334171 0 0.75668890529066124 0.2244279804069782 0 0.65394964615507722 0.22666784374016369 0 0.69397719155551807 0.2245125647000914 0 0.67933712972090698 0.25920070958121938 0 0.81973119833356312 0.43505687159469048 0 0.84925632466077294 0.45359738909549091 0 0.81400510706333218 0.47357325943904899 0 0.83758014339878906 0.63222013025741819 0 0.82457059160610424 0.66831947184359608 0 0.79884539758237771 0.62875045078114233 0 0.25676291524611189 0.7436741304886243 0 0.2248999640082178 0.72584299459689172 0 0.26439878998046262 0.7048065392091396 0 0.91696753777131557 0.497780560203536 0 0.90900154012161016 0.53607784105648792 0 0.86907294890112186 0.52008116128001669 0 0.17933913398461551 0.2350063570234002 0 0.168349569971391 0.28054490850913671 0 0.14377654328998779 0.2442024734791064 0 0.1247745017231483 0.27198077544791172 0 0.14377654328998779 0.2442024734791064 0 0.168349569971391 0.28054490850913671 0 0.34258405725730701 0.4444034294386992 0 0.35221190152536241 0.40457127605439203 0 0.38707855792647411 0.42299362914874578 0 0.47357141910802508 0.1873585799078378 0 0.51729576145820033 0.1683240575987815 0 0.50760557329222289 0.20700468884612061 0 0.19670163708476801 0.31472518408333222 0 0.22615676742807109 0.33458786033114157 0 0.18434624290945251 0.35208838264196463 0 0.22033343844674469 0.36963382230740238 0 0.18434624290945251 0.35208838264196463 0 0.22615676742807109 0.33458786033114157 0 0.24432083401701241 0.3006253385567515 0 0.25966125648670141 0.34351016742083729 0 0.22615676742807109 0.33458786033114157 0 0.93814194660195893 0.44426664081746747 0 0.90594285160987287 0.4141265964174129 0 0.95871855522754235 0.40006508612975411 0 0.91750694127107502 0.36982372220068471 0 0.95871855522754235 0.40006508612975411 0 0.90594285160987287 0.4141265964174129 0 0.91750694127105259 0.63017627779935648 0 0.91143117093204207 0.58709913730335972 0 0.95867599106212187 0.60011091146651041 0 0.93732437411268477 0.55911392101136159 0 0.95867599106212187 0.60011091146651041 0 0.91143117093204207 0.58709913730335972 0 0.50715858906372158 0.63295939104129484 0 0.5498280205245758 0.6290146943450976 0 0.52584555706968406 0.66664215091846768 0 0.94399509803918602 0.75600490196082126 0 0.97435614836745565 0.77499999999987745 0 0.95386563387742829 0.80414874155775029 0 0.94399509803922566 0.056004901960802607 0 0.97435614836748241 0.074999999999825387 0 0.95386563387744361 0.1041487415577465 0 0.94399509803921056 0.24399509803922639 0 0.95391631417672862 0.19584263333809451 0 0.97435614836740092 0.22499999999981049 0 0.94399509803919068 0.9439950980391687 0 0.95391631417670719 0.89584263333814784 0 0.97435614836744289 0.92499999999990257 0 0.79680861578988083 0.92656778056766709 0 0.75729602384198635 0.92353652857884294 0 0.76891166905518427 0.88835469571185499 0 0.79680861578956375 0.22656778056752541 0 0.75668890529066124 0.2244279804069782 0 0.76587607630038135 0.18880039518954719 0 0.65394964615507722 0.22666784374016369 0 0.6865991819015953 0.189116534044597 0 0.69397719155551807 0.2245125647000914 0 0.38083244760691543 0.38531983672244652 0 0.38707855792647411 0.42299362914874578 0 0.35221190152536241 0.40457127605439203 0 1 0.7999999999998193 0 0.95386563387742829 0.80414874155775029 0 0.97435614836745565 0.77499999999987745 0 1 0.099999999999753911 0 0.95386563387744361 0.1041487415577465 0 0.97435614836748241 0.074999999999825387 0 1 0.8999999999998336 0 0.97435614836744289 0.92499999999990257 0 0.95391631417670719 0.89584263333814784 0 1 0.19999999999974799 0 0.97435614836740092 0.22499999999981049 0 0.95391631417672862 0.19584263333809451 0 0.84723782639812573 0.48638347960178252 0 0.81400510706333218 0.47357325943904899 0 0.84925632466077294 0.45359738909549091 0 0.54999999999999993 0.29999999999999999 0 0.54248833945060504 0.2520322959927106 0 0.5794309697024993 0.27124795968204829 0 0.94999999999999996 0.29999999999999999 0 0.95780851984364423 0.34215720972155339 0 0.92012390126144183 0.33123581297173937 0 0.94999999999999996 0.69999999999999996 0 0.92057473616084773 0.66770436535372446 0 0.9578014258160763 0.65787212321113708 0 0.15801167086041079 0.46008690540259539 0 0.113541300460994 0.46208784312094731 0 0.13773355295499351 0.42497777642586831 0 0.7250000000005199 0.94981617647078953 0 0.68015064798562208 0.95924320340003011 0 0.68987011941058407 0.92105047536677087 0 0.65507451745379841 0.92229208810758578 0 0.68987011941058407 0.92105047536677087 0 0.68015064798562208 0.95924320340003011 0 0.77846603114747959 0.49850927265137401 0 0.77972660463949339 0.45529290596363098 0 0.81400510706333218 0.47357325943904899 0 0.27866744612395528 0.38416094670951489 0 0.25966125648670141 0.34351016742083729 0 0.29644548887253103 0.34914008784168082 0 0.61209567303293111 0.44669033081290321 0 0.61547661924074692 0.48539576058873962 0 0.57975577671020095 0.46172033326338591 0 0.57611405284611883 0.50165903596042916 0 0.57975577671020095 0.46172033326338591 0 0.61547661924074692 0.48539576058873962 0 0.7250000000005199 0.89375000000045834 0 0.76891166905518427 0.88835469571185499 0 0.75729602384198635 0.92353652857884294 0 0.72500000000001008 0.19776155966387679 0 0.76587607630038135 0.18880039518954719 0 0.75668890529066124 0.2244279804069782 0 0.72500000000001008 0.19776155966387679 0 0.69397719155551807 0.2245125647000914 0 0.6865991819015953 0.189116534044597 0 0.083411279318303222 0.089699755330707398 0 0.12372429750337779 0.095814237875728972 0 0.1053400320299198 0.12877248826361379 0 0.083411279318375747 0.91030024466934134 0 0.10562472963403439 0.87143394428979881 0 0.1241151115713819 0.9045666525468371 0 0.14617343800780541 0.93808063414349496 0 0.1241151115713819 0.9045666525468371 0 0.16206583317966519 0.89685560785156404 0 0.14618258501891079 0.062070108745602003 0 0.16141998738593399 0.10404039647458049 0 0.12372429750337779 0.095814237875728972 0 0.33277555741076909 0.36432196682010132 0 0.35221190152536241 0.40457127605439203 0 0.31778888742534622 0.40581751814196781 0 0.7250000000005199 0.94981617647078953 0 0.75729602384198635 0.92353652857884294 0 0.770759834363826 0.95919399014344442 0 0.72500000000000064 0.2498161764706 0 0.75668890529066124 0.2244279804069782 0 0.77075983436335049 0.25919399014334171 0 0.72500000000000064 0.2498161764706 0 0.67933712972090698 0.25920070958121938 0 0.69397719155551807 0.2245125647000914 0 0.6236733212988993 0.14864538214901801 0 0.61956000905586006 0.1043312481793135 0 0.65290632656860115 0.11434202593454081 0 0.81973119833356312 0.43505687159469048 0 0.81400510706333218 0.47357325943904899 0 0.77972660463949339 0.45529290596363098 0 0.25676291524611189 0.7436741304886243 0 0.29904318922293632 0.74132814928635593 0 0.2792923945214143 0.77665808831789485 0 0.36575549820117997 0.31677992835137742 0 0.32752639306529541 0.32610012995269699 0 0.33402499257867951 0.28911035184473982 0 0.14332333627550789 0.14578431753966009 0 0.18652628422869419 0.14162325200928061 0 0.18124454140915969 0.18790916706335251 0 0.57724883562309992 0.92155686857100794 0 0.5832743223239254 0.88483152652961872 0 0.61885627562261258 0.90282959257498208 0 0.57667858002728545 0.078486105337742612 0 0.61956000905586006 0.1043312481793135 0 0.58516465772821369 0.11653801664834119 0 0.80185942888539485 0.77452061303608133 0 0.80041942726660109 0.81543261647703358 0 0.77094201086366854 0.79647480515688507 0 0.80185942888501827 0.074520613036224564 0 0.80076557130237269 0.1154587552654202 0 0.76878382444651716 0.097147941686331368 0 0.64753070846764316 0.77332939069435502 0 0.68024162096458085 0.79868546898116533 0 0.65005442820240822 0.82644988530054031 0 0.26429849586623999 0.19346700179430079 0 0.25557216766470708 0.15874861286892261 0 0.29336099386129338 0.15892013001050981 0 0.29348325746214782 0.31350119524708198 0 0.29644548887253103 0.34914008784168082 0 0.25966125648670141 0.34351016742083729 0 0.68391457121233579 0.14440470121196541 0 0.65290632656860115 0.11434202593454081 0 0.68330259535470161 0.10038702501083881 0 0.91750694127107502 0.36982372220068471 0 0.92012390126144183 0.33123581297173937 0 0.95780851984364423 0.34215720972155339 0 0.91750694127105259 0.63017627779935648 0 0.9578014258160763 0.65787212321113708 0 0.92057473616084773 0.66770436535372446 0 0.22033343844674469 0.36963382230740238 0 0.22615676742807109 0.33458786033114157 0 0.25966125648670141 0.34351016742083729 0 1 0.94999999999997109 0 0.97166519676946206 0.96662885509935492 0 0.97435614836744289 0.92499999999990257 0 0.94399509803919068 0.9439950980391687 0 0.97435614836744289 0.92499999999990257 0 0.97166519676946206 0.96662885509935492 0 0.94399509803921056 0.24399509803922639 0 0.97435614836740092 0.22499999999981049 0 0.97166519676951801 0.26662885509932011 0 1 0.24999999999987299 0 0.97166519676951801 0.26662885509932011 0 0.97435614836740092 0.22499999999981049 0 1 0.74999999999993494 0 0.97435614836745565 0.77499999999987745 0 0.97166519676947294 0.73337114490064459 0 1 0.049999999999896842 0 0.97435614836748241 0.074999999999825387 0 0.97166519676946894 0.033371144900598393 0 0.94399509803918602 0.75600490196082126 0 0.97166519676947294 0.73337114490064459 0 0.97435614836745565 0.77499999999987745 0 0.94399509803922566 0.056004901960802607 0 0.97166519676946894 0.033371144900598393 0 0.97435614836748241 0.074999999999825387 0 0.77846603114747959 0.49850927265137401 0 0.81400510706333218 0.47357325943904899 0 0.81441713509985358 0.51161854125224959 0 0.77354604466818633 0.40378688774472771 0 0.72622533758026719 0.40265885511101601 0 0.74764719760526988 0.3719647154012321 0 0.71508799138962864 0.36622814920737751 0 0.74764719760526988 0.3719647154012321 0 0.72622533758026719 0.40265885511101601 0 0.84723782639812573 0.48638347960178252 0 0.84925632466077294 0.45359738909549091 0 0.88594198078881503 0.46167788676578442 0 0.86411095495256451 0.42388805655111889 0 0.88594198078881503 0.46167788676578442 0 0.84925632466077294 0.45359738909549091 0 0.43846182030517877 0.64845797726506715 0 0.43545892161006339 0.61093128915313821 0 0.47095389620662098 0.61892551373708504 0 0.33123028043633618 0.77629643437932982 0 0.35642984951668422 0.80994399665655703 0 0.30857225866488791 0.81101973481716805 0 0.33403534827021109 0.84402799729020661 0 0.30857225866488791 0.81101973481716805 0 0.35642984951668422 0.80994399665655703 0 0.26429849586623999 0.19346700179430079 0 0.31255190597181792 0.19850845631528771 0 0.28040350263641872 0.23054717217092141 0 0.57724883562309992 0.92155686857100794 0 0.54783390826260769 0.89287767010860219 0 0.5832743223239254 0.88483152652961872 0 0.55899371797446828 0.85003102233514438 0 0.5832743223239254 0.88483152652961872 0 0.54783390826260769 0.89287767010860219 0 0.4089290844030305 0.58728915500154233 0 0.43545892161006339 0.61093128915313821 0 0.39743091024207589 0.6239520004230239 0 0.77293540622714185 0.59448302402785813 0 0.81723410853263523 0.59419663659258926 0 0.79884539758237771 0.62875045078114233 0 0.83758014339878906 0.63222013025741819 0 0.79884539758237771 0.62875045078114233 0 0.81723410853263523 0.59419663659258926 0 0.35864735590330371 0.63903383440414463 0 0.39743091024207589 0.6239520004230239 0 0.3977710372045391 0.65868194622830212 0 0.56202748619534593 0.15054058349222879 0 0.54979595918804436 0.1060565713905809 0 0.58516465772821369 0.11653801664834119 0 0.57667858002728545 0.078486105337742612 0 0.58516465772821369 0.11653801664834119 0 0.54979595918804436 0.1060565713905809 0 0.33122374654748771 0.57588941099433744 0 0.37272913873093971 0.56192925302619479 0 0.35765792684946668 0.6000687869219653 0 0.35864735590330371 0.63903383440414463 0 0.35765792684946668 0.6000687869219653 0 0.39743091024207589 0.6239520004230239 0 0.71508799138962864 0.36622814920737751 0 0.68887083591306764 0.33632058575757479 0 0.73090396928863699 0.33699297293167962 0 0.29348325746214782 0.31350119524708198 0 0.32752639306529541 0.32610012995269699 0 0.29644548887253103 0.34914008784168082 0 0.33277555741076909 0.36432196682010132 0 0.29644548887253103 0.34914008784168082 0 0.32752639306529541 0.32610012995269699 0 0.34258405725730701 0.4444034294386992 0 0.31778888742534622 0.40581751814196781 0 0.35221190152536241 0.40457127605439203 0 0.79999999999999982 0.69999999999999996 0 0.81864958914779962 0.73589050177899629 0 0.78578450296893509 0.73292684821144505 0 0.79999999999947335 0 0 0.81864958914740749 0.035890501779055867 0 0.78393852574753176 0.032039079577822822 0 0.27474541102162192 0.11822029332053539 0 0.29336099386129338 0.15892013001050981 0 0.25557216766470708 0.15874861286892261 0 0 0.45000000000187229 0 0.035463093262830522 0.42673416072819947 0 0.033550201249889847 0.46247875832467239 0 0.6499999999999998 0.69999999999999996 0 0.66427993341343905 0.73232764502436276 0 0.63221990677827677 0.73442891067859706 0 0.84723782639812573 0.48638347960178252 0 0.81441713509985358 0.51161854125224959 0 0.81400510706333218 0.47357325943904899 0 0.26104540868854792 0.81401944968719064 0 0.30857225866488791 0.81101973481716805 0 0.29209212897034281 0.84715728365233667 0 0.33403534827021109 0.84402799729020661 0 0.29209212897034281 0.84715728365233667 0 0.30857225866488791 0.81101973481716805 0 0.69999999999999984 0.29999999999999999 0 0.73090396928863699 0.33699297293167962 0 0.68887083591306764 0.33632058575757479 0 
</DataArray>
</Points>
<Cells>
<DataArray type="UInt32" Name="connectivity" format="ascii">
0 1 2 3 4 5 6 7 8 9 10 11 12 13 14 15 16 17 18 19 20 21 22 23 24 25 26 27 28 29 30 31 32 33 34 35 36 37 38 39 40 41 42 43 44 45 46 47 48 49 50 51 52 53 54 55 56 57 58 59 60 61 62 63 64 65 66 67 68 69 70 71 72 73 74 75 76 77 78 79 80 81 82 83 84 85 86 87 88 89 90 91 92 93 94 95 96 97 98 99 100 101 102 103 104 105 106 107 108 109 110 111 112 113 114 115 116 117 118 119 120 121 122 123 124 125 126 127 128 129 130 131 132 133 134 135 136 137 138 139 140 141 142 143 144 145 146 147 148 149 150 151 152 153 154 155 156 157 158 159 160 161 162 163 164 165 166 167 168 169 170 171 172 173 174 175 176 177 178 179 180 181 182 183 184 185 186 187 188 189 190 191 192 193 194 195 196 197 198 199 200 201 202 203 204 205 206 207 208 209 210 211 212 213 214 215 216 217 218 219 220 221 222 223 224 225 226 227 228 229 230 231 232 233 234 235 236 237 238 239 240 241 242 243 244 245 246 247 248 249 250 251 252 253 254 255 256 257 258 259 260 261 262 263 264 265 266 267 268 269 270 271 272 273 274 275 276 277 278 279 280 281 282 283 284 285 286 287 288 289 290 291 292 293 294 295 296 297 298 299 300 301 302 303 304 305 306 307 308 309 310 311 312 313 314 315 316 317 318 319 320 321 322 323 324 325 326 327 328 329 330 331 332 333 334 335 336 337 338 339 340 341 342 343 344 345 346 347 348 349 350 351 352 353 354 355 356 357 358 359 360 361 362 363 364 365 366 367 368 369 370 371 372 373 374 375 376 377 378 379 380 381 382 383 384 385 386 387 388 389 390 391 392 393 394 395 396 397 398 399 400 401 402 403 404 405 406 407 408 409 410 411 412 413 414 415 416 417 418 419 420 421 422 423 424 425 426 427 428 429 430 431 432 433 434 435 436 437 438 439 440 441 442 443 444 445 446 447 448 449 450 451 452 453 454 455 456 457 458 459 460 461 462 463 464 465 466 467 468 469 470 471 472 473 474 475 476 477 478 479 480 481 482 483 484 485 486 487 488 489 490 491 492 493 494 495 496 497 498 499 500 501 502 503 504 505 506 507 508 509 510 511 512 513 514 515 516 517 518 519 520 521 522 523 524 525 526 527 528 529 530 531 532 533 534 535 536 537 538 539 540 541 542 543 544 545 546 547 548 549 550 551 552 553 554 555 556 557 558 559 560 561 562 563 564 565 566 567 568 569 570 571 572 573 574 575 576 577 578 579 580 581 582 583 584 585 586 587 588 589 590 591 592 593 594 595 596 597 598 599 600 601 602 603 604 605 606 607 608 609 610 611 612 613 614 615 616 617 618 619 620 621 622 623 624 625 626 627 628 629 630 631 632 633 634 635 636 637 638 639 640 641 642 643 644 645 646 647 648 649 650 651 652 653 654 655 656 657 658 659 660 661 662 663 664 665 666 667 668 669 670 671 672 673 674 675 676 677 678 679 680 681 682 683 684 685 686 687 688 689 690 691 692 693 694 695 696 697 698 699 700 701 702 703 704 705 706 707 708 709 710 711 712 713 714 715 716 717 718 719 720 721 722 723 724 725 726 727 728 729 730 731 732 733 734 735 736 737 738 739 740 741 742 743 744 745 746 747 748 749 750 751 752 753 754 755 756 757 758 759 760 761 762 763 764 765 766 767 768 769 770 771 772 773 774 775 776 777 778 779 780 781 782 783 784 785 786 787 788 789 790 791 792 793 794 795 796 797 798 799 800 801 802 803 804 805 806 807 808 809 810 811 812 813 814 815 816 817 818 819 820 821 822 823 824 825 826 827 828 829 830 831 832 833 834 835 836 837 838 839 840 841 842 843 844 845 846 847 848 849 850 851 852 853 854 855 856 857 858 859 860 861 862 863 864 865 866 867 868 869 870 871 872 873 874 875 876 877 878 879 880 881 882 883 884 885 886 887 888 889 890 891 892 893 894 895 896 897 898 899 900 901 902 903 904 905 906 907 908 909 910 911 912 913 914 915 916 917 918 919 920 921 922 923 924 925 926 927 928 929 930 931 932 933 934 935 936 937 938 939 940 941 942 943 944 945 946 947 948 949 950 951 952 953 954 955 956 957 958 959 960 961 962 963 964 965 966 967 968 969 970 971 972 973 974 975 976 977 978 979 980 981 982 983 984 985 986 987 988 989 990 991 992 993 994 995 996 997 998 999 1000 1001 1002 1003 1004 1005 1006 1007 1008 1009 1010 1011 1012 1013 1014 1015 1016 1017 1018 1019 1020 1021 1022 1023 1024 1025 1026 1027 1028 1029 1030 1031 1032 1033 1034 1035 1036 1037 1038 1039 1040 1041 1042 1043 1044 1045 1046 1047 1048 1049 1050 1051 1052 1053 1054 1055 1056 1057 1058 1059 1060 1061 1062 1063 1064 1065 1066 1067 1068 1069 1070 1071 1072 1073 1074 1075 1076 1077 1078 1079 1080 1081 1082 1083 1084 1085 1086 1087 1088 1089 1090 1091 1092 1093 1094 1095 1096 1097 1098 1099 1100 1101 1102 1103 1104 1105 1106 1107 1108 1109 1110 1111 1112 1113 1114 1115 1116 1117 1118 1119 1120 1121 1122 1123 1124 1125 1126 1127 1128 1129 1130 1131 1132 1133 1134 1135 1136 1137 1138 1139 1140 1141 1142 1143 1144 1145 1146 1147 1148 1149 1150 1151 1152 1153 1154 1155 1156 1157 1158 1159 1160 1161 1162 1163 1164 1165 1166 1167 1168 1169 1170 1171 1172 1173 1174 1175 1176 1177 1178 1179 1180 1181 1182 1183 1184 1185 1186 1187 1188 1189 1190 1191 1192 1193 1194 1195 1196 1197 1198 1199 1200 1201 1202 1203 1204 1205 1206 1207 1208 1209 1210 1211 1212 1213 1214 1215 1216 1217 1218 1219 1220 1221 1222 1223 1224 1225 1226 1227 1228 1229 1230 1231 1232 1233 1234 1235 1236 1237 1238 1239 1240 1241 1242 1243 1244 1245 1246 1247 1248 1249 1250 1251 1252 1253 1254 1255 1256 1257 1258 1259 1260 1261 1262 1263 1264 1265 1266 1267 1268 1269 1270 1271 1272 1273 1274 1275 1276 1277 1278 1279 1280 1281 1282 1283 1284 1285 1286 1287 1288 1289 1290 1291 1292 1293 1294 1295 1296 1297 1298 1299 1300 1301 1302 1303 1304 1305 1306 1307 1308 1309 1310 1311 1312 1313 1314 1315 1316 1317 1318 1319 1320 1321 1322 1323 1324 1325 1326 1327 1328 1329 1330 1331 1332 1333 1334 1335 1336 1337 1338 1339 1340 1341 1342 1343 1344 1345 1346 1347 1348 1349 1350 1351 1352 1353 1354 1355 1356 1357 1358 1359 1360 1361 1362 1363 1364 1365 1366 1367 1368 1369 1370 1371 1372 1373 1374 1375 1376 1377 1378 1379 1380 1381 1382 1383 1384 1385 1386 1387 1388 1389 1390 1391 1392 1393 1394 1395 1396 1397 1398 1399 1400 1401 1402 1403 1404 1405 1406 1407 1408 1409 1410 1411 1412 1413 1414 1415 1416 1417 1418 1419 1420 1421 1422 1423 1424 1425 1426 1427 1428 1429 1430 1431 1432 1433 1434 1435 1436 1437 1438 1439 1440 1441 1442 1443 1444 1445 1446 1447 1448 1449 1450 1451 1452 1453 1454 1455 1456 1457 1458 1459 1460 1461 1462 1463 1464 1465 1466 1467 1468 1469 1470 1471 1472 1473 1474 1475 1476 1477 1478 1479 1480 1481 1482 1483 1484 1485 1486 1487 1488 1489 1490 1491 1492 1493 1494 1495 1496 1497 1498 1499 1500 1501 1502 1503 1504 1505 1506 1507 1508 1509 1510 1511 1512 1513 1514 1515 1516 1517 1518 1519 1520 1521 1522 1523 1524 1525 1526 1527 1528 1529 1530 1531 1532 1533 1534 1535 1536 1537 1538 1539 1540 1541 1542 1543 1544 1545 1546 1547 1548 1549 1550 1551 1552 1553 1554 1555 1556 1557 1558 1559 1560 1561 1562 1563 1564 1565 1566 1567 1568 1569 1570 1571 1572 1573 1574 1575 1576 1577 1578 1579 1580 1581 1582 1583 1584 1585 1586 1587 1588 1589 1590 1591 1592 1593 1594 1595 1596 1597 1598 1599 1600 1601 1602 1603 1604 1605 1606 1607 1608 1609 1610 1611 1612 1613 1614 1615 1616 1617 1618 1619 1620 1621 1622 1623 1624 1625 1626 1627 1628 1629 1630 1631 1632 1633 1634 1635 1636 1637 1638 1639 1640 1641 1642 1643 1644 1645 1646 1647 1648 1649 1650 1651 1652 1653 1654 1655 1656 1657 1658 1659 1660 1661 1662 1663 1664 1665 1666 1667 1668 1669 1670 1671 1672 1673 1674 1675 1676 1677 1678 1679 1680 1681 1682 1683 1684 1685 1686 1687 1688 1689 1690 1691 1692 1693 1694 1695 1696 1697 1698 1699 1700 1701 1702 1703 1704 1705 1706 1707 1708 1709 1710 1711 1712 1713 1714 1715 1716 1717 1718 1719 1720 1721 1722 1723 1724 1725 1726 1727 1728 1729 1730 1731 1732 1733 1734 1735 1736 1737 1738 1739 1740 1741 1742 1743 1744 1745 1746 1747 1748 1749 1750 1751 1752 1753 1754 1755 1756 1757 1758 1759 1760 1761 1762 1763 1764 1765 1766 1767 1768 1769 1770 1771 1772 1773 1774 1775 1776 1777 1778 1779 1780 1781 1782 1783 1784 1785 1786 1787 1788 1789 1790 1791 1792 1793 1794 1795 1796 1797 1798 1799 1800 1801 1802 1803 1804 1805 1806 1807 1808 1809 1810 1811 1812 1813 1814 1815 1816 1817 1818 1819 1820 1821 1822 1823 1824 1825 1826 1827 1828 1829 1830 1831 1832 1833 1834 1835 1836 1837 1838 1839 1840 1841 1842 1843 1844 1845 1846 1847 1848 1849 1850 1851 1852 1853 1854 1855 1856 1857 1858 1859 1860 1861 1862 1863 1864 1865 1866 1867 1868 1869 1870 1871 1872 1873 1874 1875 1876 1877 1878 1879 1880 1881 1882 1883 1884 1885 1886 1887 1888 1889 1890 1891 1892 1893 1894 1895 1896 1897 1898 1899 1900 1901 1902 1903 1904 1905 1906 1907 1908 1909 1910 1911 1912 1913 1914 1915 1916 1917 1918 1919 1920 1921 1922 1923 1924 1925 1926 1927 1928 1929 1930 1931 1932 1933 1934 1935 1936 1937 1938 1939 1940 1941 1942 1943 1944 1945 1946 1947 1948 1949 1950 1951 1952 1953 1954 1955 1956 1957 1958 1959 1960 1961 1962 1963 1964 1965 1966 1967 1968 1969 1970 1971 1972 1973 1974 1975 1976 1977 1978 1979 1980 1981 1982 1983 1984 1985 1986 1987 1988 1989 1990 1991 1992 1993 1994 1995 1996 1997 1998 1999 2000 2001 2002 2003 2004 2005 2006 2007 2008 2009 2010 2011 2012 2013 2014 2015 2016 2017 2018 2019 2020 2021 2022 2023 2024 2025 2026 2027 2028 2029 2030 2031 2032 2033 2034 2035 2036 2037 2038 2039 2040 2041 2042 2043 2044 2045 2046 2047 2048 2049 2050 2051 2052 2053 2054 2055 2056 2057 2058 2059 2060 2061 2062 2063 2064 2065 2066 2067 2068 2069 2070 2071 2072 2073 2074 2075 2076 2077 2078 2079 2080 2081 2082 2083 2084 2085 2086 2087 2088 2089 2090 2091 2092 2093 2094 2095 2096 2097 2098 2099 2100 2101 2102 2103 2104 2105 2106 2107 2108 2109 2110 2111 2112 2113 2114 2115 2116 2117 2118 2119 2120 2121 2122 2123 2124 2125 2126 2127 2128 2129 2130 2131 2132 2133 2134 2135 2136 2137 2138 2139 2140 2141 2142 2143 2144 2145 2146 2147 2148 2149 2150 2151 2152 2153 2154 2155 2156 2157 2158 2159 2160 2161 2162 2163 2164 2165 2166 2167 2168 2169 2170 2171 2172 2173 2174 2175 2176 2177 2178 2179 2180 2181 2182 2183 2184 2185 2186 2187 2188 2189 2190 2191 2192 2193 2194 2195 2196 2197 2198 2199 2200 2201 2202 2203 2204 2205 2206 2207 2208 2209 2210 2211 2212 2213 2214 2215 2216 2217 2218 2219 2220 2221 2222 2223 2224 2225 2226 2227 2228 2229 2230 2231 2232 2233 2234 2235 2236 2237 2238 2239 2240 2241 2242 2243 2244 2245 2246 2247 2248 2249 2250 2251 2252 2253 2254 2255 2256 2257 2258 2259 2260 2261 2262 2263 2264 2265 2266 2267 2268 2269 2270 2271 2272 2273 2274 2275 2276 2277 2278 2279 2280 2281 2282 2283 2284 2285 2286 2287 2288 2289 2290 2291 2292 2293 2294 2295 2296 2297 2298 2299 2300 2301 2302 2303 2304 2305 2306 2307 2308 2309 2310 2311 2312 2313 2314 2315 2316 2317 2318 2319 2320 2321 2322 2323 2324 2325 2326 2327 2328 2329 2330 2331 2332 2333 2334 2335 2336 2337 2338 2339 2340 2341 2342 2343 2344 2345 2346 2347 2348 2349 2350 2351 2352 2353 2354 2355 2356 2357 2358 2359 2360 2361 2362 2363 2364 2365 2366 2367 2368 2369 2370 2371 2372 2373 2374 2375 2376 2377 2378 2379 2380 2381 2382 2383 2384 2385 2386 2387 2388 2389 2390 2391 2392 2393 2394 2395 2396 2397 2398 2399 2400 2401 2402 2403 2404 2405 2406 2407 2408 2409 2410 2411 2412 2413 2414 2415 2416 2417 2418 2419 2420 2421 2422 2423 2424 2425 2426 2427 2428 2429 2430 2431 2432 2433 2434 2435 2436 2437 2438 2439 2440 2441 2442 2443 2444 2445 2446 2447 2448 2449 2450 2451 2452 2453 2454 2455 2456 2457 2458 2459 2460 2461 2462 2463 2464 2465 2466 2467 2468 2469 2470 2471 2472 2473 2474 2475 2476 2477 2478 2479 2480 2481 2482 2483 2484 2485 2486 2487 2488 2489 2490 2491 2492 2493 2494 2495 2496 2497 2498 2499 2500 2501 2502 2503 2504 2505 2506 2507 2508 2509 2510 2511 2512 2513 2514 2515 2516 2517 2518 2519 2520 2521 2522 2523 2524 2525 2526 2527 2528 2529 2530 2531 2532 2533 2534 2535 2536 2537 2538 2539 2540 2541 2542 2543 2544 2545 2546 2547 2548 2549 2550 2551 2552 2553 2554 2555 2556 2557 2558 2559 2560 2561 2562 2563 2564 2565 2566 2567 2568 2569 2570 2571 2572 2573 2574 2575 2576 2577 2578 2579 2580 2581 2582 2583 2584 2585 2586 2587 2588 2589 2590 2591 2592 2593 2594 2595 2596 2597 2598 2599 2600 2601 2602 2603 2604 2605 2606 2607 2608 2609 2610 2611 2612 2613 2614 2615 2616 2617 2618 2619 2620 2621 2622 2623 2624 2625 2626 2627 2628 2629 2630 2631 2632 2633 2634 2635 2636 2637 2638 2639 2640 2641 2642 2643 2644 2645 2646 2647 2648 2649 2650 2651 2652 2653 2654 2655 2656 2657 2658 2659 2660 2661 2662 2663 2664 2665 2666 2667 2668 2669 2670 2671 2672 2673 2674 2675 2676 2677 2678 2679 2680 2681 2682 2683 2684 2685 2686 2687 2688 2689 2690 2691 2692 2693 2694 2695 2696 2697 2698 2699 2700 2701 2702 2703 2704 2705 2706 2707 2708 2709 2710 2711 2712 2713 2714 2715 2716 2717 2718 2719 2720 2721 2722 2723 2724 2725 2726 2727 2728 2729 2730 2731 2732 2733 2734 2735 2736 2737 2738 2739 2740 2741 2742 2743 2744 2745 2746 2747 2748 2749 2750 2751 2752 2753 2754 2755 2756 2757 2758 2759 2760 2761 2762 2763 2764 2765 2766 2767 2768 2769 2770 2771 2772 2773 2774 2775 2776 2777 2778 2779 2780 2781 2782 2783 2784 2785 2786 2787 2788 2789 2790 2791 2792 2793 2794 2795 2796 2797 2798 2799 2800 2801 2802 2803 2804 2805 2806 2807 2808 2809 2810 2811 2812 2813 2814 2815 2816 2817 2818 2819 2820 2821 2822 2823 2824 2825 2826 2827 2828 2829 2830 2831 2832 2833 2834 2835 2836 2837 2838 2839 2840 2841 2842 2843 2844 2845 2846 2847 2848 2849 2850 2851 2852 2853 2854 2855 2856 2857 2858 2859 2860 2861 2862 2863 2864 2865 2866 2867 2868 2869 2870 2871 2872 2873 2874 2875 2876 2877 2878 2879 2880 2881 2882 2883 2884 2885 2886 2887 2888 2889 2890 2891 2892 2893 2894 2895 2896 2897 2898 2899 2900 2901 2902 2903 2904 2905 2906 2907 2908 2909 2910 2911 2912 2913 2914 2915 2916 2917 2918 2919 2920 2921 2922 2923 2924 2925 2926 2927 2928 2929 2930 2931 2932 2933 2934 2935 2936 2937 2938 2939 2940 2941 2942 2943 2944 2945 2946 2947 2948 2949 2950 2951 2952 2953 2954 2955 2956 2957 2958 2959 2960 2961 2962 2963 2964 2965 2966 2967 2968 2969 2970 2971 2972 2973 2974 2975 2976 2977 2978 2979 2980 2981 2982 2983 2984 2985 2986 2987 2988 2989 2990 2991 2992 2993 2994 2995 2996 2997 2998 2999 3000 3001 3002 3003 3004 3005 3006 3007 3008 3009 3010 3011 3012 3013 3014 3015 3016 3017 3018 3019 3020 3021 3022 3023 3024 3025 3026 3027 3028 3029 3030 3031 3032 3033 3034 3035 3036 3037 3038 3039 3040 3041 3042 3043 3044 3045 3046 3047 3048 3049 3050 3051 3052 3053 3054 3055 3056 3057 3058 3059 3060 3061 3062 3063 3064 3065 3066 3067 3068 3069 3070 3071 3072 3073 3074 3075 3076 3077 3078 3079 3080 3081 3082 3083 3084 3085 3086 3087 3088 3089 3090 3091 3092 3093 3094 3095 3096 3097 3098 3099 3100 3101 3102 3103 3104 3105 3106 3107 3108 3109 3110 3111 3112 3113 3114 3115 3116 3117 3118 3119 3120 3121 3122 3123 3124 3125 3126 3127 3128 3129 3130 3131 3132 3133 3134 3135 3136 3137 3138 3139 3140 3141 
</DataArray>
<DataArray type="UInt32" Name="offsets" format="ascii">
2 4 6 8 10 12 14 16 18 20 22 24 26 28 30 32 34 36 38 40 43 46 49 52 55 58 61 64 67 70 73 76 79 82 85 88 91 94 97 100 103 106 109 112 115 118 121 124 127 130 133 136 139 142 145 148 151 154 157 160 163 166 169 172 175 178 181 184 187 190 193 196 199 202 205 208 211 214 217 220 223 226 229 232 235 238 241 244 247 250 253 256 259 262 265 268 271 274 277 280 283 286 289 292 295 298 301 304 307 310 313 316 319 322 325 328 331 334 337 340 343 346 349 352 355 358 361 364 367 370 373 376 379 382 385 388 391 394 397 400 403 406 409 412 415 418 421 424 427 430 433 436 439 442 445 448 451 454 457 460 463 466 469 472 475 478 481 484 487 490 493 496 499 502 505 508 511 514 517 520 523 526 529 532 535 538 541 544 547 550 553 556 559 562 565 568 571 574 577 580 583 586 589 592 595 598 601 604 607 610 613 616 619 622 625 628 631 634 637 640 643 646 649 652 655 658 661 664 667 670 673 676 679 682 685 688 691 694 697 700 703 706 709 712 715 718 721 724 727 730 733 736 739 742 745 748 751 754 757 760 763 766 769 772 775 778 781 784 787 790 793 796 799 802 805 808 811 814 817 820 823 826 829 832 835 838 841 844 847 850 853 856 859 862 865 868 871 874 877 880 883 886 889 892 895 898 901 904 907 910 913 916 919 922 925 928 931 934 937 940 943 946 949 952 955 958 961 964 967 970 973 976 979 982 985 988 991 994 997 1000 1003 1006 1009 1012 1015 1018 1021 1024 1027 1030 1033 1036 1039 1042 1045 1048 1051 1054 1057 1060 1063 1066 1069 1072 1075 1078 1081 1084 1087 1090 1093 1096 1099 1102 1105 1108 1111 1114 1117 1120 1123 1126 1129 1132 1135 1138 1141 1144 1147 1150 1153 1156 1159 1162 1165 1168 1171 1174 1177 1180 1183 1186 1189 1192 1195 1198 1201 1204 1207 1210 1213 1216 1219 1222 1225 1228 1231 1234 1237 1240 1243 1246 1249 1252 1255 1258 1261 1264 1267 1270 1273 1276 1279 1282 1285 1288 1291 1294 1297 1300 1303 1306 1309 1312 1315 1318 1321 1324 1327 1330 1333 1336 1339 1342 1345 1348 1351 1354 1357 1360 1363 1366 1369 1372 1375 1378 1381 1384 1387 1390 1393 1396 1399 1402 1405 1408 1411 1414 1417 1420 1423 1426 1429 1432 1435 1438 1441 1444 1447 1450 1453 1456 1459 1462 1465 1468 1471 1474 1477 1480 1483 1486 1489 1492 1495 1498 1501 1504 1507 1510 1513 1516 1519 1522 1525 1528 1531 1534 1537 1540 1543 1546 1549 1552 1555 1558 1561 1564 1567 1570 1573 1576 1579 1582 1585 1588 1591 1594 1597 1600 1603 1606 1609 1612 1615 1618 1621 1624 1627 1630 1633 1636 1639 1642 1645 1648 1651 1654 1657 1660 1663 1666 1669 1672 1675 1678 1681 1684 1687 1690 1693 1696 1699 1702 1705 1708 1711 1714 1717 1720 1723 1726 1729 1732 1735 1738 1741 1744 1747 1750 1753 1756 1759 1762 1765 1768 1771 1774 1777 1780 1783 1786 1789 1792 1795 1798 1801 1804 1807 1810 1813 1816 1819 1822 1825 1828 1831 1834 1837 1840 1843 1846 1849 1852 1855 1858 1861 1864 1867 1870 1873 1876 1879 1882 1885 1888 1891 1894 1897 1900 1903 1906 1909 1912 1915 1918 1921 1924 1927 1930 1933 1936 1939 1942 1945 1948 1951 1954 1957 1960 1963 1966 1969 1972 1975 1978 1981 1984 1987 1990 1993 1996 1999 2002 2005 2008 2011 2014 2017 2020 2023 2026 2029 2032 2035 2038 2041 2044 2047 2050 2053 2056 2059 2062 2065 2068 2071 2074 2077 2080 2083 2086 2089 2092 2095 2098 2101 2104 2107 2110 2113 2116 2119 2122 2125 2128 2131 2134 2137 2140 2143 2146 2149 2152 2155 2158 2161 2164 2167 2170 2173 2176 2179 2182 2185 2188 2191 2194 2197 2200 2203 2206 2209 2212 2215 2218 2221 2224 2227 2230 2233 2236 2239 2242 2245 2248 2251 2254 2257 2260 2263 2266 2269 2272 2275 2278 2281 2284 2287 2290 2293 2296 2299 2302 2305 2308 2311 2314 2317 2320 2323 2326 2329 2332 2335 2338 2341 2344 2347 2350 2353 2356 2359 2362 2365 2368 2371 2374 2377 2380 2383 2386 2389 2392 2395 2398 2401 2404 2407 2410 2413 2416 2419 2422 2425 2428 2431 2434 2437 2440 2443 2446 2449 2452 2455 2458 2461 2464 2467 2470 2473 2476 2479 2482 2485 2488 2491 2494 2497 2500 2503 2506 2509 2512 2515 2518 2521 2524 2527 2530 2533 2536 2539 2542 2545 2548 2551 2554 2557 2560 2563 2566 2569 2572 2575 2578 2581 2584 2587 2590 2593 2596 2599 2602 2605 2608 2611 2614 2617 2620 2623 2626 2629 2632 2635 2638 2641 2644 2647 2650 2653 2656 2659 2662 2665 2668 2671 2674 2677 2680 2683 2686 2689 2692 2695 2698 2701 2704 2707 2710 2713 2716 2719 2722 2725 2728 2731 2734 2737 2740 2743 2746 2749 2752 2755 2758 2761 2764 2767 2770 2773 2776 2779 2782 2785 2788 2791 2794 2797 2800 2803 2806 2809 2812 2815 2818 2821 2824 2827 2830 2833 2836 2839 2842 2845 2848 2851 2854 2857 2860 2863 2866 2869 2872 2875 2878 2881 2884 2887 2890 2893 2896 2899 2902 2905 2908 2911 2914 2917 2920 2923 2926 2929 2932 2935 2938 2941 2944 2947 2950 2953 2956 2959 2962 2965 2968 2971 2974 2977 2980 2983 2986 2989 2992 2995 2998 3001 3004 3007 3010 3013 3016 3019 3022 3025 3028 3031 3034 3037 3040 3043 3046 3049 3052 3055 3058 3061 3064 3067 3070 3073 3076 3079 3082 3085 3088 3091 3094 3097 3100 3103 3106 3109 3112 3115 3118 3121 3124 3127 3130 3133 3136 3139 3142 
</DataArray>
<DataArray type="UInt32" Name="types" format="ascii">
3 3 3 3 3 3 3 3 3 3 3 3 3 3 3 3 3 3 3 3 5 5 5 5 5 5 5 5 5 5 5 5 5 5 5 5 5 5 5 5 5 5 5 5 5 5 5 5 5 5 5 5 5 5 5 5 5 5 5 5 5 5 5 5 5 5 5 5 5 5 5 5 5 5 5 5 5 5 5 5 5 5 5 5 5 5 5 5 5 5 5 5 5 5 5 5 5 5 5 5 5 5 5 5 5 5 5 5 5 5 5 5 5 5 5 5 5 5 5 5 5 5 5 5 5 5 5 5 5 5 5 5 5 5 5 5 5 5 5 5 5 5 5 5 5 5 5 5 5 5 5 5 5 5 5 5 5 5 5 5 5 5 5 5 5 5 5 5 5 5 5 5 5 5 5 5 5 5 5 5 5 5 5 5 5 5 5 5 5 5 5 5 5 5 5 5 5 5 5 5 5 5 5 5 5 5 5 5 5 5 5 5 5 5 5 5 5 5 5 5 5 5 5 5 5 5 5 5 5 5 5 5 5 5 5 5 5 5 5 5 5 5 5 5 5 5 5 5 5 5 5 5 5 5 5 5 5 5 5 5 5 5 5 5 5 5 5 5 5 5 5 5 5 5 5 5 5 5 5 5 5 5 5 5 5 5 5 5 5 5 5 5 5 5 5 5 5 5 5 5 5 5 5 5 5 5 5 5 5 5 5 5 5 5 5 5 5 5 5 5 5 5 5 5 5 5 5 5 5 5 5 5 5 5 5 5 5 5 5 5 5 5 5 5 5 5 5 5 5 5 5 5 5 5 5 5 5 5 5 5 5 5 5 5 5 5 5 5 5 5 5 5 5 5 5 5 5 5 5 5 5 5 5 5 5 5 5 5 5 5 5 5 5 5 5 5 5 5 5 5 5 5 5 5 5 5 5 5 5 5 5 5 5 5 5 5 5 5 5 5 5 5 5 5 5 5 5 5 5 5 5 5 5 5 5 5 5 5 5 5 5 5 5 5 5 5 5 5 5 5 5 5 5 5 5 5 5 5 5 5 5 5 5 5 5 5 5 5 5 5 5 5 5 5 5 5 5 5 5 5 5 5 5 5 5 5 5 5 5 5 5 5 5 5 5 5 5 5 5 5 5 5 5 5 5 5 5 5 5 5 5 5 5 5 5 5 5 5 5 5 5 5 5 5 5 5 5 5 5 5 5 5 5 5 5 5 5 5 5 5 5 5 5 5 5 5 5 5 5 5 5 5 5 5 5 5 5 5 5 5 5 5 5 5 5 5 5 5 5 5 5 5 5 5 5 5 5 5 5 5 5 5 5 5 5 5 5 5 5 5 5 5 5 5 5 5 5 5 5 5 5 5 5 5 5 5 5 5 5 5 5 5 5 5 5 5 5 5 5 5 5 5 5 5 5 5 5 5 5 5 5 5 5 5 5 5 5 5 5 5 5 5 5 5 5 5 5 5 5 5 5 5 5 5 5 5 5 5 5 5 5 5 5 5 5 5 5 5 5 5 5 5 5 5 5 5 5 5 5 5 5 5 5 5 5 5 5 5 5 5 5 5 5 5 5 5 5 5 5 5 5 5 5 5 5 5 5 5 5 5 5 5 5 5 5 5 5 5 5 5 5 5 5 5 5 5 5 5 5 5 5 5 5 5 5 5 5 5 5 5 5 5 5 5 5 5 5 5 5 5 5 5 5 5 5 5 5 5 5 5 5 5 5 5 5 5 5 5 5 5 5 5 5 5 5 5 5 5 5 5 5 5 5 5 5 5 5 5 5 5 5 5 5 5 5 5 5 5 5 5 5 5 5 5 5 5 5 5 5 5 5 5 5 5 5 5 5 5 5 5 5 5 5 5 5 5 5 5 5 5 5 5 5 5 5 5 5 5 5 5 5 5 5 5 5 5 5 5 5 5 5 5 5 5 5 5 5 5 5 5 5 5 5 5 5 5 5 5 5 5 5 5 5 5 5 5 5 5 5 5 5 5 5 5 5 5 5 5 5 5 5 5 5 5 5 5 5 5 5 5 5 5 5 5 5 5 5 5 5 5 5 5 5 5 5 5 5 5 5 5 5 5 5 5 5 5 5 5 5 5 5 5 5 5 5 5 5 5 5 5 5 5 5 5 5 5 5 5 5 5 5 5 5 5 5 5 5 5 5 5 5 5 5 5 5 5 5 5 5 5 5 5 5 5 5 5 5 5 5 5 5 5 5 5 5 5 5 5 5 5 5 5 5 5 5 5 5 5 5 5 5 5 5 5 5 5 5 5 5 5 5 5 5 5 5 5 5 5 5 5 5 5 5 5 5 5 5 5 5 5 5 5 5 5 5 5 5 5 5 5 5 5 5 5 5 5 5 5 5 5 5 5 5 5 
</DataArray>
</Cells>
<PointData Scalars="" Vectors="displacement," Tensors="">
<DataArray type="Float64" Name="displacement" NumberOfComponents="3" format="ascii">
-6.9733724370202643e-06 -6.8630158930984872e-06 0 -7.5771662219348714e-06 -8.9999208866012983e-06 0 -7.5771662219348714e-06 -8.9999208866012983e-06 0 -8.2105075289153883e-06 -1.2027061243355319e-05 0 -8.2105075289153883e-06 -1.2027061243355319e-05 0 -8.9680207665572051e-06 -1.5874020197035929e-05 0 -8.9680207665572051e-06 -1.5874020197035929e-05 0 -9.6856581984463665e-06 -2.0021936677136275e-05 0 -9.6856581984463665e-06 -2.0021936677136275e-05 0 -1.0340486501552566e-05 -2.3578849529340714e-05 0 -1.0340486501552566e-05 -2.3578849529340714e-05 0 -1.0973374730215568e-05 -2.7778007948947504e-05 0 -1.0973374730215568e-05 -2.7778007948947504e-05 0 -1.1718735497702334e-05 -3.1376904435003459e-05 0 -1.1718735497702334e-05 -3.1376904435003459e-05 0 -1.2340240626857509e-05 -3.6029797387681061e-05 0 -1.2340240626857509e-05 -3.6029797387681061e-05 0 -1.2940536678510385e-05 -3.8771143900055302e-05 0 -1.2940536678510385e-05 -3.8771143900055302e-05 0 -1.2709081640432822e-05 -3.8219476727359474e-05 0 1.9223165693474941e-06 1.1839702850186895e-05 0 3.5530256300112741e-06 1.5837066381152349e-05 0 3.5530256300112741e-06 1.5837066381152349e-05 0 3.5281626203013827e-06 2.0119998057944408e-05 0 3.5281626203013827e-06 2.0119998057944408e-05 0 3.2990179008306681e-06 2.3143263436569568e-05 0 3.2990179008306681e-06 2.3143263436569568e-05 0 2.8673432410946438e-06 2.977380622758446e-05 0 2.8673432410946438e-06 2.977380622758446e-05 0 2.2173982868846582e-06 3.4971566936489414e-05 0 2.2173982868846582e-06 3.4971566936489414e-05 0 1.3893924482566968e-06 4.0383033825220974e-05 0 1.3893924482566968e-06 4.0383033825220974e-05 0 3.1892641693556868e-07 4.5494422875897692e-05 0 3.1892641693556868e-07 4.5494422875897692e-05 0 -8.877467498684929e-07 5.4230019477624552e-05 0 -8.877467498684929e-07 5.4230019477624552e-05 0 -1.4308740962765471e-06 5.7602939010732582e-05 0 -1.4308740962765471e-06 5.7602939010732582e-05 0 -3.8509139881093843e-06 5.2986251364210266e-05 0 -5.5932629755679436e-06 -2.3369376792274995e-06 0 -4.1554667151394986e-06 -6.6454944912656829e-07 0 -5.2651233181718663e-06 -1.9754925055617118e-06 0 -4.8688832638354142e-06 -1.2007871089817182e-06 0 -4.1554667151394986e-06 -6.6454944912656829e-07 0 -5.5932629755679436e-06 -2.3369376792274995e-06 0 -1.0124613333610071e-05 -5.1411032731263757e-06 0 -8.6349216601589308e-06 -3.5825282677630422e-06 0 -9.0544757649317642e-06 -4.9360698072007954e-06 0 -9.0544757649317642e-06 -4.9360698072007954e-06 0 -8.6349216601589308e-06 -3.5825282677630417e-06 0 -7.9288607330709544e-06 -4.2948368875028001e-06 0 -5.5393469304627335e-06 1.6843892888811061e-06 0 -2.4217850365408439e-06 4.1530340750529866e-07 0 -5.0463089529429583e-06 9.0544758278991589e-07 0 -3.8469641385075624e-06 -1.4383619588955179e-06 0 -3.5124300563864772e-06 -9.2556107560656296e-07 0 -1.7036972883280254e-06 -4.6502604509543994e-07 0 -2.8328287198981089e-06 1.2354800672224282e-06 0 -2.4217850365408439e-06 4.1530340750529866e-07 0 -5.5393469304627335e-06 1.6843892888811061e-06 0 -2.0137660298919604e-06 -1.0142733205303288e-06 0 -3.8469641385075624e-06 -1.4383619588955179e-06 0 -1.7036972883280254e-06 -4.6502604509543994e-07 0 -9.9631120874768608e-06 -3.0132565345846189e-06 0 -1.2234044633680502e-05 -3.9703618195522661e-06 0 -9.6937463906063087e-06 -2.5899425212633438e-06 0 -1.9246750946127247e-05 5.9448878536889786e-06 0 -1.5282266158807749e-05 4.1120559164783582e-06 0 -1.496762926131436e-05 3.7584877544912727e-06 0 -9.1055266689964221e-07 3.6125934030824745e-07 0 -1.1447794847482953e-06 7.2369797298067855e-07 0 -1.3650051682137563e-06 1.6750506299655364e-07 0 -1.7191131402300925e-06 8.8017900303814911e-07 0 -1.3650051682137563e-06 1.6750506299655364e-07 0 -1.1447794847482953e-06 7.2369797298067855e-07 0 -2.0101637393510127e-06 4.1809329528426155e-07 0 -2.6383358492267741e-06 3.2156464152170281e-07 0 -1.7693178965088151e-06 5.3634191052188446e-07 0 -9.0326748630482426e-10 -2.5813272391702134e-10 0 -6.81376556003327e-10 -1.7480078285180498e-10 0 -7.5189537132521734e-07 -3.9854918981296883e-07 0 -6.9526770859585755e-10 1.5643104738625771e-10 0 -8.3535582491437999e-10 1.6160176857901899e-10 0 -7.7079615312454096e-07 3.2964458941589127e-07 0 -1.1808757235110786e-05 -7.067701193989778e-06 0 -1.1729879429738886e-05 -7.012476292099596e-06 0 -1.0124613333610071e-05 -5.1411032731263757e-06 0 1.2759303809833064e-06 1.1329049295099423e-05 0 -9.7038600627797346e-07 7.4753191079962304e-06 0 -1.4701324876361977e-06 7.9208574062653209e-06 0 -2.0532281328890874e-05 -6.4972884154661703e-05 0 -1.6802315369580334e-05 -6.0861594573844456e-05 0 -2.0547938726012055e-05 -5.8822466694662652e-05 0 -2.575471173245048e-05 0.00014291064926160954 0 -3.5627832209039192e-05 0.00013225646287435411 0 -2.5757967279495759e-05 0.00012853044115129574 0 -2.575471173245048e-05 0.00014291064926160954 0 -2.5757967279495759e-05 0.00012853044115129574 0 -1.6259953928834631e-05 0.00013284593912541451 0 -2.0532281328890874e-05 -6.4972884154661703e-05 0 -2.0547938726012055e-05 -5.8822466694662652e-05 0 -2.4581046673266394e-05 -6.0347441819479348e-05 0 -3.7361927141795537e-05 0.00012019351821972697 0 -2.4786331739836335e-05 0.00011452831016533368 0 -2.5757967279495759e-05 0.00012853044115129574 0 -1.5917261774349915e-05 -5.5307153040508886e-05 0 -2.0590076822497905e-05 -5.2400362455649627e-05 0 -2.0547938726012055e-05 -5.8822466694662652e-05 0 -2.0101637393510127e-06 4.1809329528426155e-07 0 -1.7693178965088151e-06 5.3634191052188446e-07 0 -1.3043157915864737e-06 4.7825145641141536e-07 0 1.2759303809833064e-06 1.1329049295099423e-05 0 -2.9134032080881462e-06 9.979940638224962e-06 0 -9.7038600627797346e-07 7.4753191079962304e-06 0 -4.4039654372112353e-05 3.3836645165309319e-05 0 -3.9255346626268991e-05 2.5063975307511081e-05 0 -3.1653179180179256e-05 2.6758251781491977e-05 0 -2.2930739327601604e-05 -1.2528011451536584e-05 0 -2.5508333217818888e-05 -1.6302505202437824e-05 0 -1.9942008967268276e-05 -1.3245790667086119e-05 0 -9.8514192581565999e-06 -5.6590528539243964e-06 0 -1.1808757235110786e-05 -7.067701193989778e-06 0 -1.0124613333610071e-05 -5.1411032731263757e-06 0 -2.148231315407912e-05 2.1695022244731642e-05 0 -1.8589402718849243e-05 1.3200513233598635e-05 0 -1.4789223670485625e-05 1.4094462060089401e-05 0 -1.0599161081962088e-05 4.3237718882528847e-06 0 -1.4513125528227451e-05 6.2639539961768284e-06 0 -1.3680384481292316e-05 3.9812524552615539e-06 0 -6.3574732349111379e-06 -2.0675580918968241e-07 0 -5.425707896210576e-06 1.141074553775651e-06 0 -7.1829720816662104e-06 -1.3269243520650307e-06 0 -1.9877104607107047e-05 -4.5810051287797553e-05 0 -1.637521025164866e-05 -4.3871841259403103e-05 0 -1.9708507112164742e-05 -3.8858185992918739e-05 0 -2.4805854070488032e-05 0.0001003781360165067 0 -3.2848329638702451e-05 9.6303092582904995e-05 0 -2.261985414139433e-05 8.4778158052158418e-05 0 -1.9708507112164742e-05 -3.8858185992918739e-05 0 -1.637521025164866e-05 -4.3871841259403103e-05 0 -1.5674969333831443e-05 -3.7872147247774913e-05 0 -2.261985414139433e-05 8.4778158052158418e-05 0 -3.2848329638702451e-05 9.6303092582904995e-05 0 -3.2157045491211903e-05 8.4919554024747714e-05 0 -1.0599161081962088e-05 4.3237718882528847e-06 0 -1.3680384481292316e-05 3.9812524552615539e-06 0 -9.3990551770907044e-06 2.6929151622208514e-06 0 -6.4119099167472562e-06 -1.829627808449073e-06 0 -4.9531269416764137e-06 2.0701480104899393e-06 0 -6.3574732349111379e-06 -2.0675580918968241e-07 0 -2.148231315407912e-05 2.1695022244731642e-05 0 -2.4840818767507037e-05 1.8629307336355191e-05 0 -1.8589402718849246e-05 1.3200513233598635e-05 0 1.2759303809833064e-06 1.1329049295099423e-05 0 5.9426056794381604e-06 2.7605115649694408e-05 0 -3.0610751996726455e-06 2.8630145117090882e-05 0 -1.6341833976542622e-05 -1.6788295990019301e-05 0 -1.4908371663223154e-05 -1.6397548667147162e-05 0 -1.6640688623826296e-05 -1.6081567169829437e-05 0 -8.5741946532570863e-06 -2.1942448654317766e-05 0 -8.3417672457575651e-06 -2.0205659805997514e-05 0 -9.6375924863535743e-06 -2.0365811490830793e-05 0 -4.1071582113975324e-06 3.1954005058952138e-06 0 -5.425707896210576e-06 1.141074553775651e-06 0 -6.3574732349111379e-06 -2.0675580918968241e-07 0 -7.8639002035566177e-06 -5.8925175787592066e-05 0 -1.1605502645664777e-05 -5.4328071344326374e-05 0 -1.2861889390867758e-05 -5.976567346339453e-05 0 -5.9701999735685414e-05 0.00013116336950709837 0 -4.8682474374104653e-05 0.00011885900759286847 0 -4.6521996150459379e-05 0.00012973169357736715 0 -5.3748950695915871e-10 -1.3451701600797785e-10 0 -3.9819326484303969e-07 -1.015539539104214e-07 0 -4.9360300422343905e-07 -2.4694064452092354e-07 0 -5.961178182281475e-10 1.6259520347384345e-10 0 -5.8974503979543853e-07 3.2330679739325149e-07 0 -5.1879677338967873e-07 3.3772428745183736e-07 0 -2.148231315407912e-05 2.1695022244731642e-05 0 -1.4556748909320718e-05 2.0769428618804058e-05 0 -1.9693886224486546e-05 3.182499647039128e-05 0 -1.0853287648978473e-05 2.8094441411162178e-05 0 -1.9693886224486546e-05 3.182499647039128e-05 0 -1.4556748909320718e-05 2.0769428618804061e-05 0 -5.2088344351092398e-06 1.7820667100879683e-05 0 1.2759303809833064e-06 1.1329049295099423e-05 0 -3.0610751996726455e-06 2.8630145117090882e-05 0 -5.9380990783080237e-05 0.00010663143141538595 0 -4.4000003491306594e-05 0.00010689605908066045 0 -4.8682474374104653e-05 0.00011885900759286847 0 -6.3093997047485043e-06 -4.682869199675318e-05 0 -1.2710994863238284e-05 -4.8544852217745911e-05 0 -1.1605502645664777e-05 -5.4328071344326374e-05 0 -1.0045502002043221e-05 -1.6299231889067658e-05 0 -1.0287116499132215e-05 -1.4404703030127184e-05 0 -1.1340089880495331e-05 -1.5773289932004806e-05 0 -6.4364633380699301e-06 -3.8831787196033052e-07 0 -7.1829720816662104e-06 -1.3269243520650307e-06 0 -5.425707896210576e-06 1.141074553775651e-06 0 -8.2130601443212038e-06 -3.231056275780176e-06 0 -9.1959233546792045e-06 -5.1774585981817249e-06 0 -8.0663853416201819e-06 -4.8647036975045872e-06 0 -6.1442887552784567e-06 -8.8744967393150595e-06 0 -6.2598526506895288e-06 -7.239824075901575e-06 0 -8.0631585070767951e-06 -9.480594319469898e-06 0 -5.2301843781489747e-05 5.5700865847636927e-05 0 -4.0108456070588145e-05 4.7754651012730029e-05 0 -4.4706515726269072e-05 6.2383641148154467e-05 0 -3.4717700420118904e-05 -4.8865654328910289e-05 0 -3.0159610419132589e-05 -5.4491160226727086e-05 0 -2.8377728443458659e-05 -4.9318706807223709e-05 0 7.9752377061892954e-06 0.00010352974639793711 0 -3.3957480798669064e-06 0.00011890735353985746 0 -6.0721139723101768e-06 0.00010733232936155754 0 -7.1307282670298862e-06 -5.2690088885084086e-05 0 -1.1605502645664777e-05 -5.4328071344326374e-05 0 -7.8639002035566177e-06 -5.8925175787592066e-05 0 -5.9701999735685414e-05 0.00013116336950709837 0 -5.9666242133323694e-05 0.0001190987446446098 0 -4.8682474374104653e-05 0.00011885900759286847 0 -1.3970372229371131e-05 -1.4682497081935336e-05 0 -1.4199614186447983e-05 -1.3313621970515499e-05 0 -1.5082658263124175e-05 -1.4683096368343535e-05 0 -7.059859708174415e-06 -6.5763140095796004e-06 0 -8.4486986124455839e-06 -7.9978090282441014e-06 0 -8.7554339139157897e-06 -1.1850220601216171e-05 0 -1.3970372229371131e-05 -1.4682497081935336e-05 0 -1.3265399163069522e-05 -1.3494189538450217e-05 0 -1.4199614186447983e-05 -1.3313621970515499e-05 0 -7.6857834433773315e-06 -7.3541311718398392e-06 0 -8.0631585070767951e-06 -9.480594319469898e-06 0 -6.2598526506895288e-06 -7.239824075901575e-06 0 -1.6626037665220399e-05 -2.1336583996638409e-05 0 -1.8118623389577252e-05 -2.8155234553415607e-05 0 -1.3944056464459465e-05 -2.2772928000930788e-05 0 -1.2797196041185125e-09 1.191577254327679e-10 0 -1.7036972883280254e-06 -4.6502604509543994e-07 0 -1.1940441508369958e-06 -7.8184677642126335e-08 0 -1.8534071601654101e-09 -2.6526934998233231e-10 0 -1.6393145939405177e-06 -1.0414061476897638e-07 0 -2.4217850365408439e-06 4.1530340750529866e-07 0 -1.6341833976542622e-05 -1.6788295990019301e-05 0 -1.4680141810741945e-05 -1.7550335078030613e-05 0 -1.4908371663223154e-05 -1.6397548667147162e-05 0 -9.4610687434028461e-06 -2.1414510218639296e-05 0 -8.5741946532570863e-06 -2.1942448654317766e-05 0 -9.6375924863535743e-06 -2.0365811490830793e-05 0 -1.37120962929556e-09 -3.8925300116875001e-10 0 -2.1041240163805945e-06 -3.4931739339332613e-07 0 -1.6393145939405175e-06 -1.0414061476897651e-07 0 -1.0648503938400832e-09 1.8422099092429958e-10 0 -1.1940441508369958e-06 -7.8184677642126335e-08 0 -1.6227789494426411e-06 6.8782429938015451e-08 0 -1.3650051682137563e-06 1.6750506299655364e-07 0 -1.1675497559791097e-06 -3.4523288362186099e-07 0 -9.6731173588853665e-07 -5.4825600168832962e-09 0 -5.7443595574164354e-06 -1.8247668129593304e-06 0 -4.8839486673984888e-06 -1.0414709217147037e-06 0 -3.5124300563864772e-06 -9.2556107560656296e-07 0 -8.4570774235943544e-06 2.1696211573038569e-06 0 -5.0463089529429592e-06 9.0544758278991589e-07 0 -7.0157214471238472e-06 1.0001668072307002e-06 0 -9.733820232062331e-06 -9.4690378478037081e-06 0 -8.9329312609941261e-06 -7.6265134178277922e-06 0 -1.0442296843047165e-05 -8.6333848269763766e-06 0 -9.4982511656185898e-06 -6.7758299627874726e-06 0 -8.0663853416201819e-06 -4.8647036975045872e-06 0 -9.1959233546792045e-06 -5.1774585981817249e-06 0 6.0913802649827499e-06 0.00012896087713417729 0 -6.202175788443406e-06 0.00013023783901998308 0 -3.3957480798669064e-06 0.00011890735353985746 0 -3.4933909716915872e-05 -5.9829044843449428e-05 0 -2.9194414740333973e-05 -5.9196708368116213e-05 0 -3.0159610419132589e-05 -5.4491160226727086e-05 0 -9.4982511656185898e-06 -6.7758299627874726e-06 0 -1.0442296843047165e-05 -8.6333848269763766e-06 0 -8.9329312609941261e-06 -7.6265134178277922e-06 0 -1.0287116499132215e-05 -1.4404703030127184e-05 0 -8.9586137835237855e-06 -1.4021407133967036e-05 0 -9.8678007683025128e-06 -1.1963590814735799e-05 0 -3.2282725768905254e-05 7.3283556085727443e-05 0 -2.79365669204208e-05 5.7326801132799964e-05 0 -2.1608190423848446e-05 6.2921815571826128e-05 0 -1.8534071601654101e-09 -2.6526934998233231e-10 0 -1.9656483517843275e-09 1.0411844090539531e-10 0 -1.6393145939405175e-06 -1.0414061476897651e-07 0 -1.4327814395353062e-09 -1.194755753310246e-10 0 -1.2797196041185125e-09 1.191577254327679e-10 0 -1.1940441508369958e-06 -7.8184677642126335e-08 0 -1.3650051682137563e-06 1.6750506299655364e-07 0 -1.8615355474112186e-06 -9.4199675174903895e-08 0 -1.1675497559791097e-06 -3.4523288362186099e-07 0 -1.4207405036563418e-05 0.00012035191619692097 0 -2.5757967279495759e-05 0.00012853044115129574 0 -2.4786331739836335e-05 0.00011452831016533368 0 -2.5282716239502037e-05 -5.4863671649658267e-05 0 -2.0547938726012055e-05 -5.8822466694662652e-05 0 -2.0590076822497905e-05 -5.2400362455649627e-05 0 -1.8118623389577252e-05 -2.8155234553415607e-05 0 -1.4518046334674008e-05 -2.8129048014822042e-05 0 -1.3944056464459465e-05 -2.2772928000930788e-05 0 -5.3491507516808024e-07 2.3742187341613565e-07 0 -7.4009204495877825e-07 4.6270745013466967e-07 0 -6.6864152204217758e-07 2.5583260496817693e-07 0 -5.9052476418674296e-06 7.2001986771575444e-07 0 -4.4466542200796241e-06 6.7554794167430692e-07 0 -6.6903416445017755e-06 1.5620475822563607e-06 0 -8.9586137835237855e-06 -1.4021407133967036e-05 0 -8.3734947276633085e-06 -1.1958666719177657e-05 0 -9.8678007683025128e-06 -1.1963590814735799e-05 0 -6.6864152204217758e-07 2.5583260496817693e-07 0 -7.4009204495877825e-07 4.6270745013466967e-07 0 -8.1762842594281056e-07 4.9603674715086662e-07 0 -7.4009204495877825e-07 4.6270745013466967e-07 0 -4.6891915074473464e-07 2.831565930435677e-07 0 -8.2567678671317544e-07 5.0031899817018553e-07 0 -6.4676471373746394e-07 4.1152051758688593e-07 0 -8.2567678671317544e-07 5.0031899817018553e-07 0 -4.6891915074473464e-07 2.831565930435677e-07 0 -1.5250035034858823e-05 -1.4047653730377002e-05 0 -1.4199614186447983e-05 -1.3313621970515499e-05 0 -1.4930754244645311e-05 -1.285427039872567e-05 0 -8.2130601443212038e-06 -3.231056275780176e-06 0 -8.0663853416201802e-06 -4.8647036975045872e-06 0 -7.3230351745805639e-06 -2.4977006831018823e-06 0 -1.0045502002043221e-05 -1.6299231889067658e-05 0 -8.9586137835237855e-06 -1.4021407133967036e-05 0 -1.0287116499132215e-05 -1.4404703030127184e-05 0 -4.1071582113975324e-06 3.1954005058952138e-06 0 -6.3574732349111379e-06 -2.0675580918968196e-07 0 -4.9531269416764137e-06 2.0701480104899393e-06 0 7.0011604207478615e-06 0.00011588547659227108 0 6.0913802649827499e-06 0.00012896087713417729 0 -3.3957480798669064e-06 0.00011890735353985746 0 -3.4912534444454628e-05 -5.4486617796108623e-05 0 -3.4933909716915872e-05 -5.9829044843449428e-05 0 -3.0159610419132589e-05 -5.4491160226727086e-05 0 -3.4717700420118904e-05 -4.8865654328910289e-05 0 -3.4912534444454628e-05 -5.4486617796108623e-05 0 -3.0159610419132589e-05 -5.4491160226727086e-05 0 7.9752377061892954e-06 0.00010352974639793711 0 7.0011604207478615e-06 0.00011588547659227108 0 -3.3957480798669064e-06 0.00011890735353985746 0 -2.4769340297766577e-06 4.7195753040080484e-06 0 -2.5391599600294935e-06 3.8099203097319737e-06 0 -4.1071582113975324e-06 3.1954005058952138e-06 0 -1.6527472477349688e-06 6.006679841347148e-07 0 -1.096009444876391e-06 5.5117709832189279e-07 0 -1.7693178965088151e-06 5.3634191052188446e-07 0 -1.0136165063591543e-06 4.8914169860810143e-07 0 -1.7693178965088151e-06 5.3634191052188446e-07 0 -1.096009444876391e-06 5.5117709832189279e-07 0 -3.151550072565902e-06 6.3604500407156517e-05 0 -2.7782154928559944e-07 7.2141364931690226e-05 0 -1.2156739541896782e-05 7.2736669711087967e-05 0 -2.7782154928559944e-07 7.2141364931690226e-05 0 -3.5621349962793299e-06 8.1239855445295708e-05 0 -1.2156739541896782e-05 7.2736669711087967e-05 0 -6.4119099167472562e-06 -1.829627808449073e-06 0 -6.3574732349111379e-06 -2.0675580918968273e-07 0 -7.3230351745805639e-06 -2.4977006831018823e-06 0 -1.0427533691415124e-05 -2.0577703418079057e-05 0 -9.6375924863535743e-06 -2.0365811490830793e-05 0 -1.0514945448766351e-05 -1.8903535465790179e-05 0 -1.3049628295723637e-05 -1.8487187902930992e-05 0 -1.3520901620336543e-05 -1.6680008883223712e-05 0 -1.4908371663223154e-05 -1.6397548667147162e-05 0 -2.5391599600294935e-06 3.8099203097319737e-06 0 -3.7238028572541568e-06 2.4730076416854745e-06 0 -4.1071582113975324e-06 3.1954005058952138e-06 0 -5.9666242133323694e-05 0.0001190987446446098 0 -5.9380990783080237e-05 0.00010663143141538595 0 -4.8682474374104653e-05 0.00011885900759286847 0 -6.3093997047485043e-06 -4.682869199675318e-05 0 -1.1605502645664777e-05 -5.4328071344326374e-05 0 -7.1307282670298862e-06 -5.2690088885084086e-05 0 -1.2234044633680502e-05 -3.9703618195522661e-06 0 -1.2146382991353557e-05 -3.8507077398402267e-06 0 -9.6937463906063087e-06 -2.5899425212633438e-06 0 -1.9246750946127247e-05 5.9448878536889786e-06 0 -1.496762926131436e-05 3.7584877544912727e-06 0 -1.8615140764919537e-05 5.9783537075673741e-06 0 -6.4119099167472562e-06 -1.829627808449073e-06 0 -8.0663853416201819e-06 -4.8647036975045872e-06 0 -6.4938561190290096e-06 -5.0972389363108042e-06 0 -7.059859708174415e-06 -6.5763140095796004e-06 0 -8.7554339139157897e-06 -1.1850220601216171e-05 0 -5.3663047941760414e-06 -1.2517625365600235e-05 0 -7.6857834433773315e-06 -7.3541311718398392e-06 0 -8.0663853416201819e-06 -4.8647036975045872e-06 0 -8.9329312609941261e-06 -7.6265134178277922e-06 0 -9.4982511656185898e-06 -6.7758299627874726e-06 0 -8.9329312609941261e-06 -7.6265134178277922e-06 0 -8.0663853416201819e-06 -4.8647036975045872e-06 0 -2.0532281328890874e-05 -6.4972884154661703e-05 0 -1.6462183999218906e-05 -6.5192476388169617e-05 0 -1.6802315369580334e-05 -6.0861594573844456e-05 0 -2.575471173245048e-05 0.00014291064926160954 0 -3.656399194598608e-05 0.00014274971278935091 0 -3.5627832209039192e-05 0.00013225646287435411 0 -1.5441615693146867e-05 0.00014310986202211459 0 -2.575471173245048e-05 0.00014291064926160954 0 -1.6259953928834631e-05 0.00013284593912541451 0 -2.4971066929929039e-05 -6.4833490308492179e-05 0 -2.0532281328890874e-05 -6.4972884154661703e-05 0 -2.4581046673266394e-05 -6.0347441819479348e-05 0 -8.1194850854602438e-06 1.3186816917808489e-05 0 -1.4556748909320718e-05 2.0769428618804061e-05 0 -1.4789223670485625e-05 1.4094462060089401e-05 0 -1.1475386877946477e-05 -8.6693519920576032e-06 0 -1.2731362277367834e-05 -1.0396861405270121e-05 0 -1.184534961091505e-05 -1.0466657452942383e-05 0 -7.6857834433773315e-06 -7.3541311718398392e-06 0 -8.9329312609941261e-06 -7.6265134178277922e-06 0 -8.0631585070767951e-06 -9.480594319469898e-06 0 -9.733820232062331e-06 -9.4690378478037081e-06 0 -8.0631585070767951e-06 -9.480594319469898e-06 0 -8.9329312609941261e-06 -7.6265134178277922e-06 0 -1.1055650819488308e-05 -2.4004876854884677e-05 0 -1.0087241601999996e-05 -1.7779688688686988e-05 0 -1.3944056464459465e-05 -2.2772928000930788e-05 0 -4.4039654372112353e-05 3.3836645165309319e-05 0 -3.1653179180179256e-05 2.6758251781491977e-05 0 -3.9190607183839756e-05 3.7616701072087604e-05 0 -1.0032983264070369e-05 -4.5926853412956536e-06 0 -1.2405811120506668e-05 -6.8818563289197305e-06 0 -9.3711014855193787e-06 -5.3944419685296524e-06 0 -1.0951081631294646e-05 -7.8412699612525814e-06 0 -9.3711014855193787e-06 -5.3944419685296524e-06 0 -1.2405811120506668e-05 -6.8818563289197305e-06 0 -1.4451167611740777e-05 -1.5523620203586777e-05 0 -1.2994561983492439e-05 -1.5598540796292617e-05 0 -1.3970372229371131e-05 -1.4682497081935336e-05 0 -3.5877148211149756e-05 5.5601619342223244e-05 0 -4.4706515726269072e-05 6.2383641148154467e-05 0 -4.0108456070588145e-05 4.7754651012730029e-05 0 -1.1892522034813976e-05 -4.0825335318484586e-06 0 -1.4727771823996877e-05 -5.9848560701748583e-06 0 -1.2391753495194101e-05 -5.3031016480546228e-06 0 -1.5260781869042606e-05 -7.4666991610147577e-06 0 -1.2391753495194101e-05 -5.3031016480546228e-06 0 -1.4727771823996877e-05 -5.9848560701748583e-06 0 -2.3117263673279112e-05 1.3939451370118592e-05 0 -2.286873135056395e-05 1.0567526595397446e-05 0 -1.804499378883672e-05 9.4927997921604052e-06 0 -1.7909351069714296e-05 6.9557248585693615e-06 0 -1.804499378883672e-05 9.4927997921604052e-06 0 -2.286873135056395e-05 1.0567526595397446e-05 0 -1.347373978787842e-05 -1.2071413852039112e-05 0 -1.2281659495301216e-05 -1.2171310668754312e-05 0 -1.184534961091505e-05 -1.0466657452942383e-05 0 -2.5508333217818888e-05 -1.6302505202437824e-05 0 -2.3668138054531061e-05 -1.7810065729443702e-05 0 -1.9942008967268276e-05 -1.3245790667086119e-05 0 -7.3360927830472557e-06 5.2385186733459256e-05 0 -1.3841208708258844e-05 4.1401914978714863e-05 0 -5.1057727887466192e-06 3.9403379409975248e-05 0 -6.4364633380699301e-06 -3.8831787196033052e-07 0 -7.123061529346983e-06 -1.7398810073985416e-06 0 -8.1428563074624287e-06 -2.5980248433958646e-06 0 -1.8648664457225384e-06 1.3298999234935504e-06 0 -1.4776418020041906e-06 1.9227665461379338e-06 0 -1.3156174679149977e-06 1.3332604731495649e-06 0 -4.1109100865607576e-05 9.2540594161794111e-05 0 -3.2848329638702451e-05 9.6303092582904995e-05 0 -4.4000003491306594e-05 0.00010689605908066045 0 -1.2776126968222954e-05 -4.1512492436449878e-05 0 -1.637521025164866e-05 -4.3871841259403103e-05 0 -1.2710994863238283e-05 -4.8544852217745911e-05 0 -6.4119099167472562e-06 -1.829627808449073e-06 0 -7.3230351745805639e-06 -2.4977006831018818e-06 0 -8.0663853416201819e-06 -4.8647036975045872e-06 0 -1.3520901620336543e-05 -1.6680008883223712e-05 0 -1.2994561983492439e-05 -1.5598540796292617e-05 0 -1.4451167611740777e-05 -1.5523620203586777e-05 0 -9.733820232062331e-06 -9.4690378478037081e-06 0 -1.0897850370788194e-05 -1.0564230877632424e-05 0 -9.8678007683025128e-06 -1.1963590814735799e-05 0 -6.81376556003327e-10 -1.7480078285180498e-10 0 -4.9360300422343905e-07 -2.4694064452092354e-07 0 -7.5189537132521734e-07 -3.9854918981296883e-07 0 -6.9526770859585755e-10 1.5643104738625771e-10 0 -7.7079615312454096e-07 3.2964458941589127e-07 0 -5.8974503979543853e-07 3.2330679739325149e-07 0 -1.0087241601999996e-05 -1.7779688688686988e-05 0 -1.3527758398305418e-05 -1.794222416241098e-05 0 -1.3944056464459465e-05 -2.2772928000930788e-05 0 -5.9052476418674296e-06 7.2001986771575444e-07 0 -6.6903416445017755e-06 1.5620475822563607e-06 0 -8.2167037459308138e-06 1.3850724447982009e-06 0 -1.2289996859596889e-05 7.917236334224601e-06 0 -1.4789223670485623e-05 1.4094462060089401e-05 0 -1.8589402718849246e-05 1.3200513233598635e-05 0 -7.4045511162331593e-07 -1.7973573259678831e-07 0 -3.9819326484303969e-07 -1.015539539104214e-07 0 -6.8414702564177469e-07 2.9159623759578853e-08 0 -4.961549767378692e-07 9.8676333894892128e-08 0 -6.8414702564177469e-07 2.9159623759578853e-08 0 -3.9819326484303969e-07 -1.015539539104214e-07 0 -6.4676471373746394e-07 4.1152051758688593e-07 0 -5.1879677338967884e-07 3.3772428745183736e-07 0 -1.096009444876391e-06 5.5117709832189279e-07 0 -1.0136165063591543e-06 4.8914169860810143e-07 0 -1.096009444876391e-06 5.5117709832189279e-07 0 -5.1879677338967873e-07 3.3772428745183736e-07 0 -1.0599161081962088e-05 4.3237718882528847e-06 0 -8.4712351426492746e-06 5.0353413629624206e-06 0 -1.2289996859596889e-05 7.917236334224601e-06 0 -1.8648664457225384e-06 1.3298999234935504e-06 0 -2.2402923361131231e-06 1.878308422327671e-06 0 -1.4776418020041906e-06 1.9227665461379338e-06 0 -1.7191131402300925e-06 8.8017900303814911e-07 0 -2.1720207966371765e-06 3.0471204079346581e-07 0 -1.3650051682137563e-06 1.6750506299655364e-07 0 -6.6903416445017755e-06 1.5620475822563607e-06 0 -4.4466542200796241e-06 6.7554794167430692e-07 0 -5.1838076984912969e-06 1.9013177516104196e-06 0 -3.270420055308254e-06 1.7760001514955914e-06 0 -2.3669868772363689e-06 2.8257213140898862e-06 0 -2.2402923361131231e-06 1.878308422327671e-06 0 -4.4066234801766885e-06 -4.5034238032812198e-07 0 -4.8420652313095621e-06 -9.0368422442955674e-07 0 -3.6059681313915736e-06 -1.0307379245791919e-07 0 -4.182938453957895e-06 -6.2871934094344792e-07 0 -3.6059681313915736e-06 -1.0307379245791919e-07 0 -4.8420652313095621e-06 -9.0368422442955674e-07 0 -1.9656483517842973e-09 1.041184409053973e-10 0 -1.37120962929556e-09 -3.8925300116875001e-10 0 -1.6393145939405175e-06 -1.0414061476897651e-07 0 -1.0648503938400832e-09 1.8422099092429958e-10 0 -1.4327814395353062e-09 -1.194755753310246e-10 0 -1.1940441508369958e-06 -7.8184677642126335e-08 0 7.7311379721896927e-06 4.0010336661593316e-05 0 -5.1057727887466192e-06 3.9403379409975248e-05 0 -3.0610751996726455e-06 2.8630145117090882e-05 0 -1.6527472477349688e-06 6.006679841347148e-07 0 -2.4391122658748143e-06 4.1759204495679584e-07 0 -1.6399945765227805e-06 6.7210980381077896e-07 0 -8.6349216601589308e-06 -3.5825282677630422e-06 0 -6.9252242849162082e-06 -2.5350316915023441e-06 0 -7.9288607330709544e-06 -4.2948368875028001e-06 0 -1.2016912525708669e-05 -1.7071199012802436e-05 0 -1.2994561983492439e-05 -1.5598540796292617e-05 0 -1.3520901620336543e-05 -1.6680008883223712e-05 0 -9.9631120874768608e-06 -3.0132565345846189e-06 0 -9.6937463906063087e-06 -2.5899425212633438e-06 0 -8.1055486982159044e-06 -2.0347715125854908e-06 0 -1.5282266158807749e-05 4.1120559164783582e-06 0 -1.2210957284871625e-05 2.5724122871926618e-06 0 -1.496762926131436e-05 3.7584877544912727e-06 0 -1.1147779221439576e-05 -1.2164186077621682e-05 0 -9.8678007683025128e-06 -1.1963590814735799e-05 0 -1.0897850370788194e-05 -1.0564230877632424e-05 0 -9.6937463906063087e-06 -2.5899425212633438e-06 0 -8.157417157863525e-06 -1.9022415015769311e-06 0 -7.7892895626281844e-06 -1.7226152941432172e-06 0 -1.0613782019218609e-05 2.4442601636905263e-06 0 -9.3990551770907044e-06 2.6929151622208514e-06 0 -1.3680384481292316e-05 3.9812524552615539e-06 0 -1.0278889380177414e-05 -2.9689551495400128e-06 0 -8.157417157863525e-06 -1.9022415015769311e-06 0 -9.6937463906063087e-06 -2.5899425212633438e-06 0 -3.3979756257790127e-06 8.284638250557452e-08 0 -4.1174679122538376e-06 -1.9064006029190129e-07 0 -4.5259594702640669e-06 -3.5187113152156817e-07 0 -3.1659732227775965e-06 4.8879976405838066e-08 0 -4.4466542200796241e-06 6.7554794167430692e-07 0 -4.7718059192360822e-06 6.3401257558788316e-08 0 -1.4513125528227451e-05 6.2639539961768284e-06 0 -1.0599161081962088e-05 4.3237718882528847e-06 0 -1.2289996859596889e-05 7.917236334224601e-06 0 -1.347373978787842e-05 -1.2071413852039112e-05 0 -1.184534961091505e-05 -1.0466657452942383e-05 0 -1.2731362277367834e-05 -1.0396861405270121e-05 0 -8.549285022876351e-06 9.3256501855917435e-05 0 -6.0721139723101768e-06 0.00010733232936155754 0 -1.6233436305703645e-05 0.00010568873897839494 0 -2.639130256990946e-05 -4.2924916965366869e-05 0 -2.8377728443458659e-05 -4.9318706807223709e-05 0 -2.3789462077956416e-05 -4.8350513844306653e-05 0 -7.4045511162331593e-07 -1.7973573259678831e-07 0 -4.9360300422343905e-07 -2.4694064452092354e-07 0 -3.9819326484303969e-07 -1.015539539104214e-07 0 -1.0136165063591543e-06 4.8914169860810143e-07 0 -5.1879677338967873e-07 3.3772428745183736e-07 0 -5.8974503979543853e-07 3.2330679739325149e-07 0 -9.0326748630482426e-10 -2.5813272391702134e-10 0 -7.5189537132521734e-07 -3.9854918981296883e-07 0 -8.9628587517069631e-07 -4.1911070432574088e-07 0 -8.3535582491437999e-10 1.6160176857901899e-10 0 -8.1602193007860406e-07 2.5560028961563242e-07 0 -7.7079615312454096e-07 3.2964458941589127e-07 0 -8.6349216601589308e-06 -3.5825282677630422e-06 0 -1.0124613333610071e-05 -5.1411032731263757e-06 0 -9.6515814050600549e-06 -4.5241520963751785e-06 0 -1.0790195982393092e-05 -6.0333280368991449e-06 0 -9.6515814050600549e-06 -4.5241520963751785e-06 0 -1.0124613333610071e-05 -5.1411032731263757e-06 0 -2.2267177103428242e-05 4.4537776467499703e-05 0 -1.9693886224486546e-05 3.182499647039128e-05 0 -1.3841208708258844e-05 4.1401914978714863e-05 0 -1.0853287648978473e-05 2.8094441411162178e-05 0 -1.3841208708258844e-05 4.1401914978714863e-05 0 -1.9693886224486546e-05 3.182499647039128e-05 0 -3.1704379099171973e-06 6.6581960068084931e-06 0 -1.8383229672136054e-06 4.577835426163828e-06 0 -9.7038600627797346e-07 7.4753191079962304e-06 0 -8.6349216601589308e-06 -3.5825282677630422e-06 0 -7.123061529346983e-06 -1.7398810073985416e-06 0 -6.9252242849162082e-06 -2.5350316915023441e-06 0 -9.1055266689964221e-07 3.6125934030824745e-07 0 -6.6864152204217758e-07 2.5583260496817693e-07 0 -8.1762842594281056e-07 4.9603674715086662e-07 0 -1.1475386877946477e-05 -8.6693519920576032e-06 0 -1.184534961091505e-05 -1.0466657452942383e-05 0 -1.0442296843047165e-05 -8.6333848269763766e-06 0 -3.2282725768905254e-05 7.3283556085727443e-05 0 -3.6952851367413723e-05 6.4378546369657849e-05 0 -2.79365669204208e-05 5.7326801132799964e-05 0 -1.5250035034858823e-05 -1.4047653730377002e-05 0 -1.4930754244645311e-05 -1.285427039872567e-05 0 -1.5957075089380999e-05 -1.4340100619085936e-05 0 -1.0287116499132215e-05 -1.4404703030127184e-05 0 -1.1183093406407935e-05 -1.3620583631097915e-05 0 -1.1340089880495331e-05 -1.5773289932004806e-05 0 -2.7069103496169932e-06 3.1013604924959484e-07 0 -1.7693178965088151e-06 5.3634191052188446e-07 0 -2.6383358492267741e-06 3.2156464152170281e-07 0 -2.148231315407912e-05 2.1695022244731642e-05 0 -1.4789223670485625e-05 1.4094462060089401e-05 0 -1.4556748909320718e-05 2.0769428618804061e-05 0 -3.8469641385075624e-06 -1.4383619588955179e-06 0 -5.7443595574164354e-06 -1.8247668129593304e-06 0 -3.5124300563864772e-06 -9.2556107560656296e-07 0 -8.4570774235943544e-06 2.1696211573038569e-06 0 -5.5393469304627335e-06 1.6843892888811061e-06 0 -5.0463089529429583e-06 9.0544758278991589e-07 0 -7.6857834433773315e-06 -7.3541311718398392e-06 0 -6.4938561190290096e-06 -5.0972389363108042e-06 0 -8.0663853416201819e-06 -4.8647036975045872e-06 0 -1.7422401101513972e-06 2.5470020310346303e-07 0 -2.8925846593407783e-06 1.5426996266944956e-07 0 -1.6801052783875484e-06 3.8686444608974615e-07 0 -2.0159640116644193e-06 -5.1161963674606765e-07 0 -1.6278263633195151e-06 -5.2187538140347227e-07 0 -3.2315936756178933e-06 -3.531996433585169e-07 0 -3.9255346626268991e-05 2.5063975307511081e-05 0 -3.0041629275915121e-05 1.9323850339439739e-05 0 -3.1653179180179256e-05 2.6758251781491977e-05 0 -2.2930739327601604e-05 -1.2528011451536584e-05 0 -1.9942008967268276e-05 -1.3245790667086119e-05 0 -1.8628446932734499e-05 -9.8479245919119615e-06 0 -8.1194850854602438e-06 1.3186816917808489e-05 0 -2.9134032080881466e-06 9.979940638224962e-06 0 -5.2088344351092398e-06 1.7820667100879683e-05 0 1.2759303809833064e-06 1.1329049295099423e-05 0 -5.2088344351092398e-06 1.7820667100879683e-05 0 -2.9134032080881466e-06 9.979940638224962e-06 0 -1.1732099636877147e-05 -1.359607930393002e-05 0 -1.5145433170813776e-05 -1.5153762651323405e-05 0 -1.3527758398305418e-05 -1.794222416241098e-05 0 -1.6626037665220399e-05 -2.1336583996638409e-05 0 -1.3527758398305418e-05 -1.794222416241098e-05 0 -1.5145433170813776e-05 -1.5153762651323405e-05 0 -6.4119099167472562e-06 -1.829627808449073e-06 0 -4.6688279327376651e-06 7.8204863368217112e-07 0 -4.9531269416764137e-06 2.0701480104899393e-06 0 -1.2016912525708669e-05 -1.7071199012802436e-05 0 -1.3520901620336545e-05 -1.6680008883223712e-05 0 -1.2301309067489791e-05 -1.8102543642774407e-05 0 -9.1055266689964221e-07 3.6125934030824745e-07 0 -1.3650051682137563e-06 1.6750506299655364e-07 0 -9.6731173588853665e-07 -5.4825600168832962e-09 0 -1.2405811120506668e-05 -6.8818563289197305e-06 0 -1.6091216447829616e-05 -9.6162716540307986e-06 0 -1.3591038540379082e-05 -9.283814930488631e-06 0 -1.0427533691415124e-05 -2.0577703418079057e-05 0 -1.0514945448766351e-05 -1.8903535465790179e-05 0 -1.136931293697956e-05 -1.8690015564817341e-05 0 -3.2008563335421878e-05 3.7340830909735905e-05 0 -3.9190607183839756e-05 3.7616701072087604e-05 0 -3.1653179180179256e-05 2.6758251781491977e-05 0 -4.4000003491306594e-05 0.00010689605908066045 0 -3.2848329638702451e-05 9.6303092582904995e-05 0 -3.2756572910841973e-05 0.00010800059645808263 0 -1.2710994863238283e-05 -4.8544852217745911e-05 0 -1.637521025164866e-05 -4.3871841259403103e-05 0 -1.7143851961238572e-05 -4.9328131938608381e-05 0 -3.0681523149731643e-06 1.7274997233716918e-07 0 -2.7320777082083905e-06 5.7248624956122202e-07 0 -2.2782008088176401e-06 5.6989416571871587e-07 0 -1.0790195982393092e-05 -6.0333280368991449e-06 0 -1.0124613333610071e-05 -5.1411032731263757e-06 0 -1.1729879429738886e-05 -7.012476292099596e-06 0 -1.0864010768241605e-06 8.7325338411238757e-07 0 -1.3156174679149977e-06 1.3332604731495649e-06 0 -1.1043433329411021e-06 1.1224937724298994e-06 0 -1.2558430790039559e-06 1.674957294632428e-06 0 -1.1043433329411021e-06 1.1224937724298994e-06 0 -1.3156174679149977e-06 1.3332604731495649e-06 0 -6.6903416445017755e-06 1.5620475822563607e-06 0 -9.3990551770907044e-06 2.6929151622208514e-06 0 -8.2167037459308138e-06 1.3850724447982009e-06 0 -1.6626037665220399e-05 -2.1336583996638409e-05 0 -1.9916062843719727e-05 -2.4905131662179582e-05 0 -1.8118623389577252e-05 -2.8155234553415607e-05 0 -9.0971978747846401e-06 1.3554586869477084e-06 0 -7.1231900693748579e-06 6.5508819971722743e-07 0 -1.0940508698598372e-05 2.0631148482162791e-06 0 -1.2156739541896782e-05 7.2736669711087967e-05 0 -2.261985414139433e-05 8.4778158052158418e-05 0 -2.4238701402310673e-05 7.4033927046483444e-05 0 -1.2156739541896782e-05 7.2736669711087967e-05 0 -2.4238701402310673e-05 7.4033927046483444e-05 0 -2.1608190423848446e-05 6.2921815571826128e-05 0 -3.2282725768905254e-05 7.3283556085727443e-05 0 -2.1608190423848446e-05 6.2921815571826114e-05 0 -2.4238701402310673e-05 7.4033927046483444e-05 0 -2.2415793195665194e-05 -3.3408779780155942e-05 0 -1.9708507112164742e-05 -3.8858185992918739e-05 0 -1.7449508873490297e-05 -3.3146181276882154e-05 0 -2.2415793195665194e-05 -3.3408779780155942e-05 0 -1.7449508873490297e-05 -3.3146181276882154e-05 0 -1.8118623389577252e-05 -2.8155234553415607e-05 0 -1.8383229672136054e-06 4.577835426163828e-06 0 -1.3237304109589246e-06 5.4369873321915328e-06 0 -9.7038600627797346e-07 7.4753191079962304e-06 0 -5.3748950695915871e-10 -1.3451701600797785e-10 0 -3.8771806217917085e-10 1.5144848139498468e-11 0 -3.9819326484303969e-07 -1.015539539104214e-07 0 -4.8053058863275207e-10 1.2114435387223821e-10 0 -5.961178182281475e-10 1.6259520347384345e-10 0 -5.1879677338967873e-07 3.3772428745183736e-07 0 -2.4391122658748143e-06 4.1759204495679584e-07 0 -2.2782008088176405e-06 5.6989416571871576e-07 0 -1.6399945765227805e-06 6.7210980381077896e-07 0 -7.059859708174415e-06 -6.5763140095796004e-06 0 -7.1385123234507565e-06 -5.4704443918150777e-06 0 -8.4486986124455839e-06 -7.9978090282441014e-06 0 -7.1231900693748579e-06 6.5508819971722743e-07 0 -8.2167037459308121e-06 1.3850724447982009e-06 0 -1.0940508698598372e-05 2.0631148482162791e-06 0 -3.8874931285442612e-10 8.9486590894342135e-11 0 -4.6891915074473464e-07 2.831565930435677e-07 0 -3.0477339387488934e-07 1.0692009128881606e-07 0 -8.4570774235943544e-06 2.1696211573038569e-06 0 -7.0157214471238472e-06 1.0001668072307002e-06 0 -9.7632749100099933e-06 1.9119510350688778e-06 0 -5.7443595574164354e-06 -1.8247668129593304e-06 0 -6.6027702319476721e-06 -1.6479890970871659e-06 0 -4.8839486673984888e-06 -1.0414709217147037e-06 0 -2.0563540478655916e-05 -1.7474213079501488e-05 0 -1.9942008967268273e-05 -1.3245790667086119e-05 0 -2.3668138054531061e-05 -1.7810065729443702e-05 0 -8.2567678671317544e-07 5.0031899817018553e-07 0 -6.4676471373746394e-07 4.1152051758688593e-07 0 -1.1610450970805189e-06 6.0507300271486133e-07 0 -1.347373978787842e-05 -1.2071413852039112e-05 0 -1.4930754244645311e-05 -1.285427039872567e-05 0 -1.4199614186447983e-05 -1.3313621970515499e-05 0 -3.270420055308254e-06 1.7760001514955914e-06 0 -2.2402923361131231e-06 1.878308422327671e-06 0 -3.0658068209587355e-06 1.1703585408043764e-06 0 -7.3360927830472557e-06 5.2385186733459256e-05 0 -1.7548922696267629e-05 5.3311818126374195e-05 0 -1.3841208708258844e-05 4.1401914978714863e-05 0 -9.1055266689964221e-07 3.6125934030824745e-07 0 -6.8414702564177469e-07 2.9159623759578853e-08 0 -6.6864152204217758e-07 2.5583260496817693e-07 0 -3.7361927141795537e-05 0.00012019351821972697 0 -3.2756572910841973e-05 0.00010800059645808263 0 -2.4786331739836335e-05 0.00011452831016533368 0 -1.5917261774349915e-05 -5.5307153040508886e-05 0 -1.7143851961238572e-05 -4.9328131938608381e-05 0 -2.0590076822497905e-05 -5.2400362455649627e-05 0 -6.4676471373746394e-07 4.1152051758688593e-07 0 -1.096009444876391e-06 5.5117709832189279e-07 0 -1.1610450970805189e-06 6.0507300271486133e-07 0 -3.270420055308254e-06 1.7760001514955914e-06 0 -4.1308554231682041e-06 5.6543073602128459e-07 0 -4.8391361357598447e-06 8.6913457733575849e-07 0 -1.4207405036563418e-05 0.00012035191619692097 0 -1.6259953928834631e-05 0.00013284593912541451 0 -2.5757967279495759e-05 0.00012853044115129574 0 -3.7361927141795537e-05 0.00012019351821972697 0 -2.5757967279495759e-05 0.00012853044115129574 0 -3.5627832209039192e-05 0.00013225646287435411 0 -2.5282716239502037e-05 -5.4863671649658267e-05 0 -2.4581046673266394e-05 -6.0347441819479348e-05 0 -2.0547938726012055e-05 -5.8822466694662652e-05 0 -1.5917261774349915e-05 -5.5307153040508886e-05 0 -2.0547938726012055e-05 -5.8822466694662652e-05 0 -1.6802315369580334e-05 -6.0861594573844456e-05 0 -1.2289996859596889e-05 7.917236334224601e-06 0 -1.8589402718849246e-05 1.3200513233598635e-05 0 -1.804499378883672e-05 9.4927997921604052e-06 0 -1.5604099799907367e-05 -1.1381975803722815e-05 0 -1.9942008967268276e-05 -1.3245790667086119e-05 0 -1.7735578132177201e-05 -1.475924715550996e-05 0 -2.0563540478655916e-05 -1.7474213079501488e-05 0 -1.7735578132177201e-05 -1.475924715550996e-05 0 -1.9942008967268276e-05 -1.3245790667086119e-05 0 -3.2008563335421878e-05 3.7340830909735905e-05 0 -3.1653179180179256e-05 2.6758251781491977e-05 0 -2.5788438997150133e-05 3.072154419319772e-05 0 -2.148231315407912e-05 2.1695022244731642e-05 0 -2.5788438997150133e-05 3.072154419319772e-05 0 -3.1653179180179256e-05 2.6758251781491977e-05 0 -1.0136165063591543e-06 4.8914169860810143e-07 0 -1.3043157915864737e-06 4.7825145641141536e-07 0 -1.7693178965088151e-06 5.3634191052188446e-07 0 5.9426056794381604e-06 2.7605115649694408e-05 0 7.7311379721896927e-06 4.0010336661593316e-05 0 -3.0610751996726455e-06 2.8630145117090882e-05 0 -2.0159640116644193e-06 -5.1161963674606765e-07 0 -3.1942954055635168e-06 -3.7769188530703044e-07 0 -2.1041240163805945e-06 -3.4931739339332608e-07 0 -1.7422401101513972e-06 2.5470020310346303e-07 0 -1.6227789494426411e-06 6.8782429938015451e-08 0 -2.5570230602307771e-06 6.442272231536931e-08 0 -8.6349216601589308e-06 -3.5825282677630422e-06 0 -8.1428563074624287e-06 -2.5980248433958646e-06 0 -7.123061529346983e-06 -1.7398810073985416e-06 0 -2.8925846593407783e-06 1.5426996266944956e-07 0 -2.6125478711609635e-06 2.818393017817519e-07 0 -1.6801052783875484e-06 3.8686444608974615e-07 0 -3.2315936756178933e-06 -3.531996433585169e-07 0 -1.6278263633195154e-06 -5.2187538140347227e-07 0 -2.5129845778250425e-06 -2.6069606539322564e-07 0 -1.0613782019218609e-05 2.4442601636905263e-06 0 -1.3680384481292316e-05 3.9812524552615539e-06 0 -1.0940508698598372e-05 2.0631148482162791e-06 0 -1.496762926131436e-05 3.7584877544912727e-06 0 -1.0940508698598372e-05 2.0631148482162791e-06 0 -1.3680384481292316e-05 3.9812524552615539e-06 0 -1.4207405036563418e-05 0.00012035191619692097 0 -1.6233436305703645e-05 0.00010568873897839494 0 -6.0721139723101768e-06 0.00010733232936155754 0 -2.5282716239502037e-05 -5.4863671649658267e-05 0 -2.3789462077956416e-05 -4.8350513844306653e-05 0 -2.8377728443458659e-05 -4.9318706807223709e-05 0 -1.0427533691415124e-05 -2.0577703418079057e-05 0 -9.4610687434028461e-06 -2.1414510218639296e-05 0 -9.6375924863535743e-06 -2.0365811490830793e-05 0 -1.4680141810741945e-05 -1.7550335078030613e-05 0 -1.3049628295723637e-05 -1.8487187902930992e-05 0 -1.4908371663223154e-05 -1.6397548667147162e-05 0 -5.4971507416711165e-06 -1.0225782935339296e-06 0 -4.4066234801766885e-06 -4.5034238032812198e-07 0 -4.5259594702640669e-06 -3.5187113152156817e-07 0 -1.677539538766072e-05 -1.5804002868307191e-05 0 -1.6248226943469155e-05 -1.5061548641913239e-05 0 -1.5957075089380999e-05 -1.4340100619085936e-05 0 -5.6194975183479999e-06 -1.2684842537884938e-05 0 -6.5210493898471518e-06 -1.325698029496276e-05 0 -7.6680130754219319e-06 -1.6255206171942311e-05 0 -1.0045502002043221e-05 -1.6299231889067658e-05 0 -8.9833621818300882e-06 -1.6516307500884242e-05 0 -8.9586137835237855e-06 -1.4021407133967036e-05 0 -1.5260781869042606e-05 -7.4666991610147577e-06 0 -1.6091216447829616e-05 -9.6162716540307986e-06 0 -1.2405811120506668e-05 -6.8818563289197305e-06 0 -1.3049628295723637e-05 -1.8487187902930992e-05 0 -1.2301309067489791e-05 -1.8102543642774407e-05 0 -1.3520901620336543e-05 -1.6680008883223712e-05 0 -1.7909351069714296e-05 6.9557248585693615e-06 0 -1.3680384481292316e-05 3.9812524552615539e-06 0 -1.4513125528227451e-05 6.2639539961768284e-06 0 -2.7320777082083905e-06 5.7248624956122202e-07 0 -2.0489854795758707e-06 8.7610369911376281e-07 0 -2.2782008088176401e-06 5.6989416571871587e-07 0 -1.5604099799907367e-05 -1.1381975803722815e-05 0 -1.5145433170813776e-05 -1.5153762651323405e-05 0 -1.2986247216505151e-05 -1.1121975580864937e-05 0 -1.1732099636877147e-05 -1.359607930393002e-05 0 -1.2986247216505151e-05 -1.1121975580864937e-05 0 -1.5145433170813776e-05 -1.5153762651323405e-05 0 -5.9786275505371197e-06 -1.0536003639254247e-06 0 -5.4971507416711165e-06 -1.0225782935339296e-06 0 -4.5259594702640669e-06 -3.5187113152156817e-07 0 -1.5604099799907367e-05 -1.1381975803722815e-05 0 -1.3591038540379082e-05 -9.283814930488631e-06 0 -1.6091216447829616e-05 -9.6162716540307986e-06 0 -5.160236787911343e-06 -5.8171507125306032e-07 0 -5.9786275505371197e-06 -1.0536003639254247e-06 0 -4.5259594702640669e-06 -3.5187113152156817e-07 0 -3.1659732227775965e-06 4.8879976405838066e-08 0 -2.7613912209512522e-06 7.298705588692049e-07 0 -4.4466542200796241e-06 6.7554794167430692e-07 0 -1.5604099799907367e-05 -1.1381975803722815e-05 0 -1.6091216447829616e-05 -9.6162716540307986e-06 0 -1.9942008967268276e-05 -1.3245790667086119e-05 0 -2.148231315407912e-05 2.1695022244731642e-05 0 -3.1653179180179256e-05 2.6758251781491977e-05 0 -2.4840818767507037e-05 1.8629307336355191e-05 0 -1.37120962929556e-09 -3.8925300116875001e-10 0 -9.985315797976731e-07 -3.4335276945262058e-07 0 -2.1041240163805945e-06 -3.4931739339332608e-07 0 -1.0648503938400832e-09 1.8422099092429958e-10 0 -1.6227789494426411e-06 6.8782429938015451e-08 0 -8.2312559047275501e-07 1.5649845191277557e-07 0 -5.160236787911343e-06 -5.8171507125306032e-07 0 -4.5259594702640669e-06 -3.5187113152156817e-07 0 -4.1174679122538376e-06 -1.9064006029190129e-07 0 -5.9052476418674296e-06 7.2001986771575444e-07 0 -4.7718059192360822e-06 6.3401257558788316e-08 0 -4.4466542200796241e-06 6.7554794167430692e-07 0 -1.7688668123699192e-06 -3.6216799707866581e-07 0 -1.1675497559791097e-06 -3.4523288362186099e-07 0 -1.8615355474112186e-06 -9.4199675174903895e-08 0 -8.4486986124455839e-06 -7.9978090282441014e-06 0 -1.0702148443569123e-05 -9.6994135353511599e-06 0 -8.7554339139157897e-06 -1.1850220601216171e-05 0 -9.1055266689964221e-07 3.6125934030824745e-07 0 -8.1762842594281056e-07 4.9603674715086672e-07 0 -9.5314886462276291e-07 6.8407460710303568e-07 0 -3.7361927141795537e-05 0.00012019351821972697 0 -4.4000003491306594e-05 0.00010689605908066045 0 -3.2756572910841973e-05 0.00010800059645808263 0 -1.5917261774349915e-05 -5.5307153040508886e-05 0 -1.2710994863238283e-05 -4.8544852217745911e-05 0 -1.7143851961238572e-05 -4.9328131938608381e-05 0 -3.3979756257790127e-06 8.284638250557452e-08 0 -2.8925846593407783e-06 1.5426996266944956e-07 0 -4.1174679122538376e-06 -1.9064006029190129e-07 0 -3.1659732227775965e-06 4.8879976405838066e-08 0 -4.7718059192360822e-06 6.3401257558788316e-08 0 -3.2315936756178933e-06 -3.531996433585169e-07 0 -7.4009204495877825e-07 4.6270745013466967e-07 0 -1.1374301018477336e-06 6.5689334308333418e-07 0 -9.9203258635286401e-07 6.6763160563176138e-07 0 -1.0702148443569123e-05 -9.6994135353511599e-06 0 -1.1732099636877147e-05 -1.359607930393002e-05 0 -8.7554339139157897e-06 -1.1850220601216171e-05 0 -5.7322866960600909e-05 8.0877576591417846e-05 0 -5.5245767776551812e-05 6.8093601122567535e-05 0 -4.4368755372963045e-05 7.381017098403326e-05 0 -4.5895139142553619e-06 -2.8305055160279174e-05 0 -9.728417936755227e-06 -3.2161580577830182e-05 0 -4.9366808535277502e-06 -3.4183842476153755e-05 0 -2.2415793195665194e-05 -3.3408779780155942e-05 0 -1.8118623389577248e-05 -2.8155234553415607e-05 0 -2.1774957290108096e-05 -2.847679462098015e-05 0 -5.5635394264304001e-06 -7.3452948207914287e-07 0 -6.9252242849162082e-06 -2.5350316915023441e-06 0 -7.123061529346983e-06 -1.7398810073985416e-06 0 -9.0971978747846401e-06 1.3554586869477084e-06 0 -7.0157214471238472e-06 1.0001668072307e-06 0 -6.6540954860647068e-06 5.6411128529333735e-07 0 -6.3700517392688378e-06 -1.234301387580564e-06 0 -4.8317173239752272e-06 -7.1827367381728046e-07 0 -4.8839486673984888e-06 -1.0414709217147037e-06 0 -2.3716405284559459e-06 2.8650367030317302e-06 0 -2.4333233260620318e-06 1.5794050952976745e-06 0 -1.5415701975978223e-06 1.9710390747971807e-06 0 -7.4009204495877825e-07 4.6270745013466967e-07 0 -8.2567678671317544e-07 5.0031899817018553e-07 0 -1.1374301018477336e-06 6.5689334308333418e-07 0 -1.0790195982393092e-05 -6.0333280368991449e-06 0 -1.2238133586290882e-05 -8.1062149835856159e-06 0 -1.0940600184985946e-05 -6.8470491539181741e-06 0 -9.0971978747846401e-06 1.3554586869477084e-06 0 -9.7632749100099933e-06 1.9119510350688778e-06 0 -7.0157214471238472e-06 1.0001668072307002e-06 0 -6.3700517392688378e-06 -1.234301387580564e-06 0 -4.8839486673984888e-06 -1.0414709217147037e-06 0 -6.602770231947673e-06 -1.6479890970871661e-06 0 -3.270420055308254e-06 1.7760001514955914e-06 0 -3.0658068209587355e-06 1.1703585408043764e-06 0 -4.1308554231682041e-06 5.6543073602128459e-07 0 -1.9877104607107047e-05 -4.5810051287797553e-05 0 -1.9708507112164742e-05 -3.8858185992918732e-05 0 -2.2565924211762095e-05 -4.2643984776962326e-05 0 -2.4805854070488032e-05 0.0001003781360165067 0 -2.261985414139433e-05 8.4778158052158404e-05 0 -1.728696691807671e-05 9.3118721681523649e-05 0 -1.5260781869042606e-05 -7.4666991610147577e-06 0 -1.2405811120506668e-05 -6.8818563289197305e-06 0 -1.2391753495194101e-05 -5.3031016480546228e-06 0 -1.0032983264070369e-05 -4.5926853412956536e-06 0 -1.2391753495194101e-05 -5.3031016480546228e-06 0 -1.2405811120506668e-05 -6.8818563289197305e-06 0 -5.2651233181718663e-06 -1.9754925055617118e-06 0 -6.2778450274186353e-06 -2.8208367566203852e-06 0 -6.1657206570397394e-06 -3.5322593459698115e-06 0 -7.427109581514517e-06 -4.4698104848448064e-06 0 -6.1657206570397394e-06 -3.5322593459698115e-06 0 -6.2778450274186353e-06 -2.8208367566203852e-06 0 -7.5189537132521734e-07 -3.9854918981296883e-07 0 -1.1675497559791097e-06 -3.4523288362186099e-07 0 -1.6278263633195154e-06 -5.2187538140347227e-07 0 -1.7688668123699192e-06 -3.6216799707866581e-07 0 -1.6278263633195154e-06 -5.2187538140347227e-07 0 -1.1675497559791097e-06 -3.4523288362186099e-07 0 -2.0101637393510127e-06 4.1809329528426155e-07 0 -1.3043157915864737e-06 4.7825145641141536e-07 0 -1.6801052783875484e-06 3.8686444608974615e-07 0 -7.7079615312454096e-07 3.2964458941589127e-07 0 -1.6801052783875484e-06 3.8686444608974615e-07 0 -1.3043157915864737e-06 4.7825145641141536e-07 0 -1.347373978787842e-05 -1.2071413852039112e-05 0 -1.3265399163069522e-05 -1.3494189538450217e-05 0 -1.2281659495301216e-05 -1.2171310668754312e-05 0 -5.5635394264304001e-06 -7.3452948207914287e-07 0 -4.8391361357598447e-06 8.6913457733575849e-07 0 -4.1308554231682041e-06 5.6543073602128459e-07 0 -1.2558430790039559e-06 1.674957294632428e-06 0 -1.3287321095195016e-06 1.389017551149997e-06 0 -1.1043433329411021e-06 1.1224937724298994e-06 0 -1.2156739541896782e-05 7.2736669711087967e-05 0 -1.292263277664776e-05 8.5091120659558546e-05 0 -2.261985414139433e-05 8.4778158052158418e-05 0 -2.2415793195665194e-05 -3.3408779780155942e-05 0 -2.3746861787594478e-05 -3.8793748099473603e-05 0 -1.9708507112164742e-05 -3.8858185992918739e-05 0 -1.2156739541896782e-05 7.2736669711087967e-05 0 -2.1608190423848446e-05 6.2921815571826128e-05 0 -1.2455410981039006e-05 6.0933885647241689e-05 0 -2.3716405284559459e-06 2.8650367030317302e-06 0 -3.7383130164201847e-06 2.4284628383744315e-06 0 -2.4333233260620314e-06 1.5794050952976745e-06 0 -2.3716405284559459e-06 2.8650367030317302e-06 0 -3.6010651409170164e-06 4.3549289366762359e-06 0 -3.7383130164201847e-06 2.4284628383744315e-06 0 -2.2267177103428242e-05 4.4537776467499703e-05 0 -1.7548922696267629e-05 5.3311818126374195e-05 0 -2.79365669204208e-05 5.7326801132799964e-05 0 -2.1608190423848446e-05 6.2921815571826128e-05 0 -2.79365669204208e-05 5.7326801132799964e-05 0 -1.7548922696267629e-05 5.3311818126374195e-05 0 -3.3983451567015525e-06 1.1608265623851911e-07 0 -2.1041240163805945e-06 -3.4931739339332608e-07 0 -3.7572552740900351e-06 -1.5446329976729435e-07 0 -2.4502710910956049e-06 -3.3309042003312779e-07 0 -2.8320897729075803e-06 -1.493979850477969e-07 0 -1.6227789494426411e-06 6.8782429938015451e-08 0 -1.1732099636877147e-05 -1.359607930393002e-05 0 -1.3527758398305418e-05 -1.794222416241098e-05 0 -1.0087241601999996e-05 -1.7779688688686988e-05 0 -1.677539538766072e-05 -1.5804002868307191e-05 0 -1.7058567336061646e-05 -1.6753835554293463e-05 0 -1.6248226943469155e-05 -1.5061548641913239e-05 0 -5.6194975183479999e-06 -1.2684842537884938e-05 0 -7.6680130754219319e-06 -1.6255206171942311e-05 0 -6.13345984349417e-06 -1.4868226788326741e-05 0 -3.4356205196307594e-06 4.281053411548205e-07 0 -4.1308554231682041e-06 5.6543073602128459e-07 0 -3.0658068209587355e-06 1.1703585408043764e-06 0 -1.2558430790039559e-06 1.674957294632428e-06 0 -1.3900644889649979e-06 2.6635503566635738e-06 0 -1.5415701975978223e-06 1.9710390747971807e-06 0 -1.2016912525708669e-05 -1.7071199012802436e-05 0 -1.1340089880495331e-05 -1.5773289932004806e-05 0 -1.2994561983492439e-05 -1.5598540796292617e-05 0 -1.213613808643417e-05 -1.4657583173051672e-05 0 -1.2994561983492439e-05 -1.5598540796292617e-05 0 -1.1340089880495331e-05 -1.5773289932004806e-05 0 -9.733820232062331e-06 -9.4690378478037081e-06 0 -9.8678007683025128e-06 -1.1963590814735799e-05 0 -8.0631585070767951e-06 -9.480594319469898e-06 0 -3.7361927141795537e-05 0.00012019351821972697 0 -4.8682474374104653e-05 0.00011885900759286847 0 -4.4000003491306594e-05 0.00010689605908066045 0 -1.5917261774349915e-05 -5.5307153040508886e-05 0 -1.1605502645664777e-05 -5.4328071344326374e-05 0 -1.2710994863238283e-05 -4.8544852217745911e-05 0 -1.5805230279348032e-05 -1.545298540685573e-05 0 -1.6640688623826296e-05 -1.6081567169829437e-05 0 -1.4908371663223154e-05 -1.6397548667147162e-05 0 -8.8562840543349255e-06 -1.8687238824058605e-05 0 -9.6375924863535743e-06 -2.0365811490830793e-05 0 -8.3417672457575651e-06 -2.0205659805997514e-05 0 -1.4207405036563418e-05 0.00012035191619692097 0 -2.4786331739836335e-05 0.00011452831016533368 0 -1.6233436305703645e-05 0.00010568873897839494 0 -2.5282716239502037e-05 -5.4863671649658267e-05 0 -2.0590076822497905e-05 -5.2400362455649627e-05 0 -2.3789462077956416e-05 -4.8350513844306653e-05 0 -7.4009204495877825e-07 4.6270745013466967e-07 0 -9.9203258635286401e-07 6.6763160563176138e-07 0 -8.1762842594281056e-07 4.9603674715086662e-07 0 -1.0864010768241605e-06 8.7325338411238757e-07 0 -8.1762842594281056e-07 4.9603674715086662e-07 0 -9.9203258635286401e-07 6.6763160563176138e-07 0 -8.549285022876351e-06 9.3256501855917435e-05 0 -1.6233436305703645e-05 0.00010568873897839494 0 -1.728696691807671e-05 9.3118721681523649e-05 0 -2.639130256990946e-05 -4.2924916965366869e-05 0 -2.3789462077956416e-05 -4.8350513844306653e-05 0 -2.2565924211762095e-05 -4.2643984776962326e-05 0 -2.0159640116644193e-06 -5.1161963674606765e-07 0 -2.104124016380595e-06 -3.4931739339332602e-07 0 -9.985315797976731e-07 -3.4335276945262058e-07 0 -1.7422401101513972e-06 2.5470020310346303e-07 0 -8.2312559047275501e-07 1.5649845191277557e-07 0 -1.6227789494426411e-06 6.8782429938015451e-08 0 -1.0853287648978473e-05 2.8094441411162178e-05 0 -5.1057727887466192e-06 3.9403379409975248e-05 0 -1.3841208708258844e-05 4.1401914978714863e-05 0 -3.3983451567015525e-06 1.1608265623851911e-07 0 -1.6393145939405175e-06 -1.0414061476897651e-07 0 -2.1041240163805945e-06 -3.4931739339332608e-07 0 -2.4502710910956049e-06 -3.3309042003312779e-07 0 -1.6227789494426411e-06 6.8782429938015451e-08 0 -1.1940441508369958e-06 -7.8184677642126335e-08 0 -5.9380990783080237e-05 0.00010663143141538595 0 -4.9966184889857943e-05 9.7434858362108336e-05 0 -4.4000003491306594e-05 0.00010689605908066045 0 -6.3093997047485043e-06 -4.682869199675318e-05 0 -9.5419327032470192e-06 -4.3338144547943125e-05 0 -1.2710994863238283e-05 -4.8544852217745911e-05 0 -8.1194850854602438e-06 1.3186816917808489e-05 0 -1.4789223670485625e-05 1.4094462060089401e-05 0 -9.354065910271226e-06 9.696041113896323e-06 0 -1.2289996859596889e-05 7.917236334224601e-06 0 -9.354065910271226e-06 9.6960411138963247e-06 0 -1.4789223670485625e-05 1.4094462060089401e-05 0 -1.6626037665220399e-05 -2.1336583996638409e-05 0 -1.5145433170813776e-05 -1.5153762651323405e-05 0 -1.804659286094307e-05 -1.7827077328771347e-05 0 -6.4119099167472562e-06 -1.829627808449073e-06 0 -6.4938561190290096e-06 -5.0972389363108042e-06 0 -4.9370335838616255e-06 -3.0311773762450563e-06 0 -2.2267177103428242e-05 4.4537776467499703e-05 0 -2.6094781264654734e-05 3.7963054992852607e-05 0 -1.9693886224486546e-05 3.182499647039128e-05 0 -2.148231315407912e-05 2.1695022244731642e-05 0 -1.9693886224486546e-05 3.182499647039128e-05 0 -2.5788438997150133e-05 3.072154419319772e-05 0 -1.5604099799907367e-05 -1.1381975803722815e-05 0 -1.7735578132177201e-05 -1.475924715550996e-05 0 -1.5145433170813776e-05 -1.5153762651323405e-05 0 -1.1732099636877147e-05 -1.359607930393002e-05 0 -1.0087241601999996e-05 -1.7779688688686988e-05 0 -8.7554339139157897e-06 -1.1850220601216171e-05 0 -1.5250035034858823e-05 -1.4047653730377002e-05 0 -1.5957075089380999e-05 -1.4340100619085936e-05 0 -1.6248226943469155e-05 -1.5061548641913239e-05 0 -8.0391605034435831e-06 -1.4750971864112295e-05 0 -7.6680130754219319e-06 -1.6255206171942311e-05 0 -6.5210493898471518e-06 -1.325698029496276e-05 0 -6.4364633380699301e-06 -3.8831787196033052e-07 0 -8.1428563074624287e-06 -2.5980248433958646e-06 0 -7.1829720816662104e-06 -1.3269243520650307e-06 0 -8.6349216601589308e-06 -3.5825282677630422e-06 0 -9.6515814050600549e-06 -4.5241520963751785e-06 0 -8.1428563074624287e-06 -2.5980248433958646e-06 0 -2.5391599600294935e-06 3.8099203097319737e-06 0 -2.3669868772363689e-06 2.8257213140898862e-06 0 -3.7238028572541568e-06 2.4730076416854745e-06 0 -8.4486986124455839e-06 -7.9978090282441014e-06 0 -7.1385123234507565e-06 -5.4704443918150777e-06 0 -8.8487520389753362e-06 -6.5720412653899088e-06 0 -1.4207405036563418e-05 0.00012035191619692097 0 -6.072113972310176e-06 0.00010733232936155754 0 -3.3957480798669064e-06 0.00011890735353985746 0 -2.5282716239502037e-05 -5.4863671649658267e-05 0 -2.8377728443458659e-05 -4.9318706807223709e-05 0 -3.0159610419132589e-05 -5.4491160226727086e-05 0 -3.270420055308254e-06 1.7760001514955914e-06 0 -3.7238028572541568e-06 2.4730076416854745e-06 0 -2.3669868772363689e-06 2.8257213140898862e-06 0 -6.1442887552784567e-06 -8.8744967393150595e-06 0 -8.0631585070767951e-06 -9.480594319469898e-06 0 -6.9014891374332063e-06 -1.0638546154442171e-05 0 -1.213613808643417e-05 -1.4657583173051672e-05 0 -1.1340089880495331e-05 -1.5773289932004806e-05 0 -1.1183093406407935e-05 -1.3620583631097915e-05 0 -1.7271234584332537e-06 2.5641408768194974e-06 0 -2.2402923361131231e-06 1.878308422327671e-06 0 -2.3669868772363689e-06 2.8257213140898862e-06 0 -7.4045511162331593e-07 -1.7973573259678831e-07 0 -9.6731173588853665e-07 -5.482560016883292e-09 0 -1.1675497559791097e-06 -3.4523288362186099e-07 0 -2.8035682663410788e-05 -2.0795813438432023e-05 0 -3.0159052463336671e-05 -2.5827302383790569e-05 0 -2.4522563966467476e-05 -2.2051321529703245e-05 0 -3.1659732227775965e-06 4.8879976405838066e-08 0 -2.5129845778250425e-06 -2.6069606539322564e-07 0 -1.8615355474112186e-06 -9.4199675174903895e-08 0 -1.1043433329411021e-06 1.1224937724298994e-06 0 -1.3287321095195016e-06 1.389017551149997e-06 0 -1.1447794847482953e-06 7.2369797298067855e-07 0 -3.270420055308254e-06 1.7760001514955914e-06 0 -4.8391361357598447e-06 8.6913457733575849e-07 0 -3.7238028572541568e-06 2.4730076416854745e-06 0 -5.2301843781489747e-05 5.5700865847636927e-05 0 -4.8631851271641281e-05 4.4228430181370815e-05 0 -4.0108456070588145e-05 4.7754651012730029e-05 0 -6.4676471373746394e-07 4.1152051758688593e-07 0 -4.6891915074473464e-07 2.831565930435677e-07 0 -2.6397254562397187e-07 1.8074104477021226e-07 0 -1.7191131402300925e-06 8.8017900303814911e-07 0 -1.5415701975978223e-06 1.9710390747971807e-06 0 -2.4333233260620314e-06 1.5794050952976745e-06 0 -1.1475386877946477e-05 -8.6693519920576032e-06 0 -1.2225834004917613e-05 -8.7908558849630752e-06 0 -1.2731362277367834e-05 -1.0396861405270121e-05 0 -2.2415793195665194e-05 -3.3408779780155942e-05 0 -2.6133314625972348e-05 -3.0909429582683009e-05 0 -2.7657324402164144e-05 -3.7076977027065855e-05 0 -3.1659732227775965e-06 4.8879976405838066e-08 0 -1.8615355474112186e-06 -9.4199675174903895e-08 0 -2.1720207966371765e-06 3.0471204079346571e-07 0 -7.4009204495877825e-07 4.6270745013466967e-07 0 -5.3491507516808024e-07 2.3742187341613565e-07 0 -4.6891915074473464e-07 2.831565930435677e-07 0 -3.5904408615997936e-06 1.350283066440872e-06 0 -2.4333233260620314e-06 1.5794050952976745e-06 0 -3.7383130164201847e-06 2.4284628383744315e-06 0 -1.2238133586290882e-05 -8.1062149835856159e-06 0 -1.2225834004917613e-05 -8.7908558849630752e-06 0 -1.0940600184985946e-05 -6.8470491539181741e-06 0 -1.5250035034858823e-05 -1.4047653730377002e-05 0 -1.5082658263124175e-05 -1.4683096368343535e-05 0 -1.4199614186447983e-05 -1.3313621970515499e-05 0 -1.0613782019218609e-05 2.4442601636905263e-06 0 -8.2167037459308138e-06 1.3850724447982009e-06 0 -9.3990551770907044e-06 2.6929151622208514e-06 0 7.9752377061892954e-06 0.00010352974639793711 0 -6.0721139723101768e-06 0.00010733232936155754 0 2.3483819201641345e-09 9.7012237365158452e-05 0 -3.4717700420118904e-05 -4.8865654328910289e-05 0 -2.8377728443458659e-05 -4.9318706807223709e-05 0 -3.053250804713277e-05 -4.507191918829664e-05 0 -9.5314886462276291e-07 6.8407460710303568e-07 0 -1.1447794847482953e-06 7.2369797298067855e-07 0 -9.1055266689964221e-07 3.6125934030824745e-07 0 -1.1043433329411021e-06 1.1224937724298994e-06 0 -1.1447794847482953e-06 7.2369797298067855e-07 0 -9.5314886462276291e-07 6.8407460710303568e-07 0 -4.1109100865607576e-05 9.2540594161794111e-05 0 -4.4000003491306594e-05 0.00010689605908066046 0 -4.996618488985795e-05 9.7434858362108336e-05 0 -1.2776126968222954e-05 -4.1512492436449878e-05 0 -1.2710994863238284e-05 -4.8544852217745918e-05 0 -9.5419327032470192e-06 -4.3338144547943125e-05 0 -1.0864010768241605e-06 8.7325338411238757e-07 0 -1.5700147260779364e-06 1.0252647981932971e-06 0 -1.3156174679149977e-06 1.3332604731495649e-06 0 -1.8648664457225384e-06 1.3298999234935504e-06 0 -1.3156174679149979e-06 1.3332604731495649e-06 0 -1.5700147260779364e-06 1.0252647981932971e-06 0 -1.0864010768241605e-06 8.7325338411238757e-07 0 -9.5314886462276291e-07 6.8407460710303568e-07 0 -8.1762842594281056e-07 4.9603674715086662e-07 0 -6.3700517392688378e-06 -1.234301387580564e-06 0 -6.4985568256361746e-06 -1.1335049347624194e-06 0 -4.9985018032100586e-06 -5.8219368361955131e-07 0 -6.3834929374485099e-06 -2.0661344859117772e-06 0 -7.8624234339945616e-06 -3.6469971298456392e-06 0 -6.2778450274186353e-06 -2.8208367566203852e-06 0 -7.427109581514517e-06 -4.4698104848448064e-06 0 -6.2778450274186353e-06 -2.8208367566203857e-06 0 -7.8624234339945616e-06 -3.6469971298456392e-06 0 -6.3700517392688378e-06 -1.234301387580564e-06 0 -4.9985018032100586e-06 -5.8219368361955131e-07 0 -4.8317173239752272e-06 -7.1827367381728046e-07 0 -1.0853287648978473e-05 2.8094441411162178e-05 0 -3.0610751996726455e-06 2.8630145117090882e-05 0 -5.1057727887466192e-06 3.9403379409975248e-05 0 -2.4805854070488032e-05 0.0001003781360165067 0 -2.4786331739836335e-05 0.0001145283101653337 0 -3.2756572910841973e-05 0.00010800059645808263 0 -1.9877104607107047e-05 -4.5810051287797553e-05 0 -2.0590076822497905e-05 -5.2400362455649627e-05 0 -1.7143851961238572e-05 -4.9328131938608381e-05 0 -3.0681523149731643e-06 1.7274997233716918e-07 0 -2.4391122658748143e-06 4.1759204495679579e-07 0 -3.2577865517211177e-06 6.5907467896883984e-09 0 -3.8874931285442612e-10 8.9486590894342135e-11 0 -2.6397254562397187e-07 1.8074104477021226e-07 0 -4.6891915074473464e-07 2.831565930435677e-07 0 -2.3716405284559459e-06 2.8650367030317302e-06 0 -1.8383229672136054e-06 4.577835426163828e-06 0 -3.6010651409170164e-06 4.3549289366762359e-06 0 -8.3734947276633085e-06 -1.1958666719177657e-05 0 -8.0631585070767951e-06 -9.480594319469898e-06 0 -9.8678007683025128e-06 -1.1963590814735799e-05 0 -9.733820232062331e-06 -9.4690378478037081e-06 0 -1.0442296843047165e-05 -8.6333848269763766e-06 0 -1.0897850370788194e-05 -1.0564230877632424e-05 0 -1.1374301018477336e-06 6.5689334308333418e-07 0 -1.6399945765227805e-06 6.7210980381077896e-07 0 -1.3305746484851597e-06 7.7827802037467636e-07 0 -2.0563540478655916e-05 -1.7474213079501488e-05 0 -2.4522563966467476e-05 -2.2051321529703245e-05 0 -1.9866212294690737e-05 -2.1410499411904721e-05 0 -2.3333317592588989e-05 -2.5421470892254801e-05 0 -1.9866212294690737e-05 -2.1410499411904721e-05 0 -2.4522563966467476e-05 -2.2051321529703245e-05 0 -3.7814939253202897e-10 -1.5990491524869389e-11 0 -3.8874931285444277e-10 8.9486590894347965e-11 0 -3.0477339387488934e-07 1.0692009128881606e-07 0 -3.5877148211149756e-05 5.5601619342223244e-05 0 -4.0108456070588145e-05 4.7754651012730029e-05 0 -3.0642160236466303e-05 4.6468035251611596e-05 0 -3.2008563335421878e-05 3.7340830909735905e-05 0 -3.0642160236466303e-05 4.6468035251611596e-05 0 -4.0108456070588145e-05 4.7754651012730029e-05 0 -1.5805230279348032e-05 -1.545298540685573e-05 0 -1.5082658263124175e-05 -1.4683096368343535e-05 0 -1.6248226943469155e-05 -1.5061548641913239e-05 0 -8.8562840543349255e-06 -1.8687238824058605e-05 0 -7.6680130754219319e-06 -1.6255206171942311e-05 0 -8.9833621818300882e-06 -1.6516307500884242e-05 0 -5.7474725151056453e-06 3.6158316125637848e-06 0 -3.7383130164201847e-06 2.4284628383744315e-06 0 -3.6010651409170164e-06 4.3549289366762359e-06 0 -1.3970372229371131e-05 -1.4682497081935336e-05 0 -1.3015951427246969e-05 -1.4451472568765523e-05 0 -1.3265399163069522e-05 -1.3494189538450217e-05 0 -1.4905300921154716e-06 6.2176268884802597e-06 0 -1.4701324876361977e-06 7.9208574062653209e-06 0 -9.7038600627797346e-07 7.4753191079962304e-06 0 -3.1659732227775965e-06 4.8879976405838066e-08 0 -2.1720207966371765e-06 3.0471204079346571e-07 0 -2.7613912209512522e-06 7.298705588692049e-07 0 -1.2289996859596889e-05 7.917236334224601e-06 0 -6.5980124176201262e-06 6.2763133587620805e-06 0 -9.354065910271226e-06 9.696041113896323e-06 0 7.7311379721896927e-06 4.0010336661593316e-05 0 8.076679025111695e-07 4.8324363428109073e-05 0 -5.1057727887466192e-06 3.9403379409975248e-05 0 -3.0681523149731643e-06 1.7274997233716918e-07 0 -2.2782008088176401e-06 5.6989416571871587e-07 0 -2.4391122658748143e-06 4.1759204495679584e-07 0 -2.4805854070488032e-05 0.0001003781360165067 0 -1.6233436305703645e-05 0.00010568873897839494 0 -2.4786331739836335e-05 0.00011452831016533368 0 -1.9877104607107047e-05 -4.5810051287797553e-05 0 -2.3789462077956416e-05 -4.8350513844306653e-05 0 -2.0590076822497905e-05 -5.2400362455649627e-05 0 -1.6527472477349688e-06 6.006679841347148e-07 0 -2.1619136819140688e-06 4.7189089854117745e-07 0 -2.4391122658748143e-06 4.1759204495679584e-07 0 -6.4029787834002037e-06 -3.1258169247377329e-06 0 -7.9288607330709544e-06 -4.2948368875028001e-06 0 -6.9252242849162082e-06 -2.5350316915023441e-06 0 -8.549285022876351e-06 9.3256501855917435e-05 0 2.3483819201641345e-09 9.7012237365158452e-05 0 -6.0721139723101768e-06 0.00010733232936155754 0 -2.639130256990946e-05 -4.2924916965366869e-05 0 -3.0532508047132777e-05 -4.5071919188296634e-05 0 -2.8377728443458659e-05 -4.9318706807223709e-05 0 -1.2234044633680502e-05 -3.9703618195522661e-06 0 -1.4725188262482899e-05 -5.2838685646539978e-06 0 -1.2146382991353557e-05 -3.8507077398402267e-06 0 -2.3704266772658108e-05 8.6983866404994651e-06 0 -1.9246750946127247e-05 5.9448878536889786e-06 0 -1.8615140764919537e-05 5.9783537075673741e-06 0 -8.1194850854602438e-06 1.3186816917808489e-05 0 -9.6303991593701578e-06 1.9507738929203305e-05 0 -1.4556748909320718e-05 2.0769428618804061e-05 0 -5.160236787911343e-06 -5.8171507125306032e-07 0 -6.5756281148190143e-06 -1.2199158331958667e-06 0 -5.9786275505371197e-06 -1.0536003639254247e-06 0 -1.6720267932981749e-05 -1.7725349367339929e-05 0 -1.6341833976542622e-05 -1.6788295990019301e-05 0 -1.6640688623826296e-05 -1.6081567169829437e-05 0 -1.6720267932981749e-05 -1.7725349367339929e-05 0 -1.6640688623826296e-05 -1.6081567169829437e-05 0 -1.71610391724533e-05 -1.7430812863521852e-05 0 -6.117346509809921e-06 -1.9882593720132717e-05 0 -6.4911063377219855e-06 -1.7196398113642146e-05 0 -8.3417672457575651e-06 -2.0205659805997514e-05 0 -6.117346509809921e-06 -1.9882593720132717e-05 0 -8.3417672457575651e-06 -2.0205659805997514e-05 0 -8.5741946532570863e-06 -2.1942448654317766e-05 0 -1.5805230279348032e-05 -1.545298540685573e-05 0 -1.4451167611740777e-05 -1.5523620203586777e-05 0 -1.5082658263124175e-05 -1.4683096368343535e-05 0 -8.8562840543349255e-06 -1.8687238824058605e-05 0 -8.9833621818300882e-06 -1.6516307500884242e-05 0 -9.8508908970455978e-06 -1.8235364514491864e-05 0 -3.9748413889561853e-06 -8.4091958965335073e-06 0 -5.857980662285966e-06 -1.1020616211493489e-05 0 -4.8045867117853726e-06 -1.0510665134945239e-05 0 -1.5604106497682169e-05 -1.2992245242088397e-05 0 -1.6248115763547183e-05 -1.4595832915794039e-05 0 -1.4930754244645311e-05 -1.285427039872567e-05 0 6.2925474665022528e-07 1.8030041754044414e-06 0 -2.7676275854174936e-06 -1.0386215886507979e-06 0 -7.6792230336486452e-07 -1.9152782836011772e-06 0 -1.4207405036563418e-05 0.00012035191619692097 0 -6.202175788443406e-06 0.00013023783901998308 0 -1.6259953928834631e-05 0.00013284593912541451 0 -3.7361927141795537e-05 0.00012019351821972697 0 -3.5627832209039192e-05 0.00013225646287435411 0 -4.6521996150459379e-05 0.00012973169357736715 0 -2.5282716239502037e-05 -5.4863671649658267e-05 0 -2.9194414740333973e-05 -5.9196708368116213e-05 0 -2.4581046673266394e-05 -6.0347441819479348e-05 0 -1.5917261774349915e-05 -5.5307153040508886e-05 0 -1.6802315369580334e-05 -6.0861594573844456e-05 0 -1.2861889390867758e-05 -5.976567346339453e-05 0 -1.7675910937115788e-06 7.6310517957484748e-07 0 -1.3305746484851597e-06 7.7827802037467636e-07 0 -1.6399945765227805e-06 6.7210980381077896e-07 0 -1.4207405036563418e-05 0.00012035191619692097 0 -3.3957480798669056e-06 0.00011890735353985746 0 -6.2021757884434052e-06 0.00013023783901998308 0 -2.5282716239502037e-05 -5.4863671649658267e-05 0 -3.0159610419132589e-05 -5.4491160226727086e-05 0 -2.9194414740333973e-05 -5.9196708368116213e-05 0 -6.4364633380699301e-06 -3.8831787196033052e-07 0 -5.425707896210576e-06 1.141074553775651e-06 0 -4.8391361357598447e-06 8.6913457733575849e-07 0 -3.7361927141795537e-05 0.00012019351821972697 0 -4.6521996150459379e-05 0.00012973169357736715 0 -4.8682474374104653e-05 0.00011885900759286847 0 -1.5917261774349915e-05 -5.5307153040508886e-05 0 -1.2861889390867758e-05 -5.976567346339453e-05 0 -1.1605502645664777e-05 -5.4328071344326374e-05 0 -1.1055650819488308e-05 -2.4004876854884677e-05 0 -7.648870459842488e-06 -2.0605964097003389e-05 0 -1.0087241601999996e-05 -1.7779688688686988e-05 0 -1.0790195982393092e-05 -6.0333280368991449e-06 0 -1.0940600184985946e-05 -6.8470491539181741e-06 0 -9.6515814050600549e-06 -4.5241520963751785e-06 0 -9.8275089061935795e-06 -5.4416987737951721e-06 0 -9.6515814050600549e-06 -4.5241520963751785e-06 0 -1.0940600184985946e-05 -6.8470491539181741e-06 0 -3.5904408615997936e-06 1.350283066440872e-06 0 -4.4466542200796241e-06 6.7554794167430692e-07 0 -2.7613912209512522e-06 7.298705588692049e-07 0 -2.2267177103428242e-05 4.4537776467499703e-05 0 -1.3841208708258844e-05 4.1401914978714863e-05 0 -1.7548922696267629e-05 5.3311818126374195e-05 0 -3.0159052463336671e-05 -2.5827302383790569e-05 0 -2.7056390186319127e-05 -2.6887736775168617e-05 0 -2.4522563966467476e-05 -2.2051321529703245e-05 0 -3.1704379099171973e-06 6.6581960068084931e-06 0 -6.5980124176201262e-06 6.2763133587620805e-06 0 -3.6010651409170164e-06 4.3549289366762359e-06 0 -5.7474725151056453e-06 3.6158316125637848e-06 0 -3.6010651409170164e-06 4.3549289366762359e-06 0 -6.5980124176201262e-06 6.2763133587620805e-06 0 -1.2558430790039559e-06 1.674957294632428e-06 0 -1.4776418020041906e-06 1.9227665461379338e-06 0 -1.3900644889649979e-06 2.6635503566635738e-06 0 -1.1147779221439576e-05 -1.2164186077621682e-05 0 -1.1183093406407935e-05 -1.3620583631097915e-05 0 -9.8678007683025128e-06 -1.1963590814735799e-05 0 -1.0287116499132215e-05 -1.4404703030127184e-05 0 -9.8678007683025128e-06 -1.1963590814735799e-05 0 -1.1183093406407935e-05 -1.3620583631097915e-05 0 -3.9255346626268991e-05 2.5063975307511081e-05 0 -3.4005929488251277e-05 1.7935382534024148e-05 0 -3.0041629275915121e-05 1.9323850339439739e-05 0 -2.0164622508887441e-05 -9.4478803253740763e-06 0 -2.2930739327601604e-05 -1.2528011451536584e-05 0 -1.8628446932734499e-05 -9.8479245919119615e-06 0 -6.81376556003327e-10 -1.7480078285180498e-10 0 -5.3748950695915871e-10 -1.3451701600797785e-10 0 -4.9360300422343905e-07 -2.4694064452092354e-07 0 -5.961178182281475e-10 1.6259520347384345e-10 0 -6.9526770859585755e-10 1.5643104738625771e-10 0 -5.8974503979543853e-07 3.2330679739325149e-07 0 -2.3716405284559459e-06 2.8650367030317302e-06 0 -1.5415701975978223e-06 1.9710390747971807e-06 0 -1.5994006348438994e-06 3.0724704037247855e-06 0 -1.7271234584332537e-06 2.5641408768194974e-06 0 -1.3900644889649979e-06 2.6635503566635738e-06 0 -1.4776418020041906e-06 1.9227665461379338e-06 0 -1.2558430790039559e-06 1.674957294632428e-06 0 -1.5415701975978223e-06 1.9710390747971803e-06 0 -1.3287321095195016e-06 1.389017551149997e-06 0 -4.8277292733126265e-06 -3.8386223910075603e-08 0 -6.6540954860647068e-06 5.6411128529333735e-07 0 -5.182697879911836e-06 3.0617535463317406e-07 0 -3.7240551716129022e-06 -2.2492819726764183e-07 0 -3.7269352566749157e-06 -5.2830699443634653e-07 0 -4.8317173239752272e-06 -7.1827367381728046e-07 0 -7.3360927830472557e-06 5.2385186733459256e-05 0 -5.1057727887466192e-06 3.9403379409975248e-05 0 8.076679025111695e-07 4.8324363428109073e-05 0 -4.8277292733126265e-06 -3.8386223910075603e-08 0 -5.1826978799118352e-06 3.0617535463317395e-07 0 -3.7572552740900351e-06 -1.5446329976729435e-07 0 -3.7240551716129022e-06 -2.2492819726764183e-07 0 -2.8320897729075803e-06 -1.493979850477969e-07 0 -3.7269352566749157e-06 -5.2830699443634653e-07 0 -1.347373978787842e-05 -1.2071413852039112e-05 0 -1.4199614186447983e-05 -1.3313621970515499e-05 0 -1.3265399163069522e-05 -1.3494189538450217e-05 0 -1.0853287648978473e-05 2.8094441411162178e-05 0 -5.2088344351092398e-06 1.7820667100879683e-05 0 -3.0610751996726455e-06 2.8630145117090882e-05 0 -1.7191131402300925e-06 8.8017900303814911e-07 0 -1.3287321095195016e-06 1.389017551149997e-06 0 -1.5415701975978223e-06 1.9710390747971807e-06 0 -8.3734947276633085e-06 -1.1958666719177657e-05 0 -6.9014891374332063e-06 -1.0638546154442171e-05 0 -8.0631585070767951e-06 -9.480594319469898e-06 0 -1.2022916864746696e-09 -1.81646629177546e-10 0 -9.0326748630482426e-10 -2.5813272391702134e-10 0 -8.9628587517069631e-07 -4.1911070432574088e-07 0 -8.3535582491437999e-10 1.6160176857901899e-10 0 -1.0085623475600089e-09 8.5204310665810051e-11 0 -8.1602193007860406e-07 2.5560028961563242e-07 0 -7.781963323405524e-06 -2.3218410460690836e-06 0 -9.9631120874768608e-06 -3.0132565345846193e-06 0 -8.1055486982159044e-06 -2.0347715125854908e-06 0 -1.5282266158807749e-05 4.1120559164783582e-06 0 -1.1684781568149728e-05 2.9389661908736473e-06 0 -1.2210957284871625e-05 2.5724122871926618e-06 0 -1.0951081631294646e-05 -7.8412699612525814e-06 0 -1.2405811120506668e-05 -6.8818563289197305e-06 0 -1.3591038540379082e-05 -9.283814930488631e-06 0 -4.6081604299096487e-06 -1.7455648536209421e-05 0 -7.1989762790049975e-06 -1.5552696180779379e-05 0 -7.6488704598424863e-06 -2.0605964097003386e-05 0 -5.5635394264304001e-06 -7.3452948207914287e-07 0 -5.6999234591590346e-06 -1.7237870689260573e-06 0 -6.9252242849162082e-06 -2.5350316915023441e-06 0 -2.5464961415767388e-06 1.0428890017509405e-06 0 -2.2402923361131231e-06 1.878308422327671e-06 0 -1.8648664457225384e-06 1.3298999234935504e-06 0 -3.0658068209587355e-06 1.1703585408043764e-06 0 -2.2402923361131231e-06 1.878308422327671e-06 0 -2.5464961415767388e-06 1.0428890017509405e-06 0 -1.419237726044286e-06 3.9258591202627097e-06 0 -1.8383229672136054e-06 4.577835426163828e-06 0 -1.5994006348438994e-06 3.0724704037247855e-06 0 -2.3716405284559459e-06 2.8650367030317302e-06 0 -1.5994006348438996e-06 3.0724704037247855e-06 0 -1.8383229672136054e-06 4.577835426163828e-06 0 -1.0045502002043221e-05 -1.6299231889067658e-05 0 -1.1053562035676114e-05 -1.7472455834468785e-05 0 -9.8508908970455978e-06 -1.8235364514491864e-05 0 -1.344583436267529e-05 -8.9674760500930282e-06 0 -1.2238133586290882e-05 -8.1062149835856143e-06 0 -1.1729879429738886e-05 -7.012476292099596e-06 0 -6.4029787834002037e-06 -3.1258169247377329e-06 0 -6.744200447429152e-06 -4.7266625239788852e-06 0 -7.9288607330709544e-06 -4.2948368875028001e-06 0 -7.059859708174415e-06 -6.5763140095796004e-06 0 -7.9288607330709544e-06 -4.2948368875028001e-06 0 -6.744200447429152e-06 -4.7266625239788852e-06 0 -5.7443595574164354e-06 -1.8247668129593304e-06 0 -7.781963323405524e-06 -2.3218410460690836e-06 0 -6.602770231947673e-06 -1.6479890970871661e-06 0 -1.1684781568149728e-05 2.9389661908736473e-06 0 -8.4570774235943544e-06 2.1696211573038569e-06 0 -9.7632749100099933e-06 1.9119510350688778e-06 0 -1.1562616184619136e-05 -1.9526305039330233e-05 0 -1.0427533691415124e-05 -2.0577703418079057e-05 0 -1.136931293697956e-05 -1.8690015564817341e-05 0 -6.5980124176201262e-06 6.2763133587620805e-06 0 -5.6743920644696919e-06 8.7292944939790217e-06 0 -9.354065910271226e-06 9.696041113896323e-06 0 -1.0864010768241605e-06 8.7325338411238757e-07 0 -1.1043433329411021e-06 1.1224937724298994e-06 0 -9.5314886462276291e-07 6.8407460710303568e-07 0 -2.1041240163805945e-06 -3.4931739339332608e-07 0 -3.1942954055635168e-06 -3.7769188530703049e-07 0 -3.7572552740900351e-06 -1.5446329976729435e-07 0 -1.6227789494426411e-06 6.8782429938015451e-08 0 -2.8320897729075803e-06 -1.4939798504779693e-07 0 -2.5570230602307771e-06 6.442272231536931e-08 0 -1.6527472477349688e-06 6.006679841347148e-07 0 -1.7693178965088151e-06 5.3634191052188446e-07 0 -2.1619136819140688e-06 4.7189089854117745e-07 0 -5.5635394264304001e-06 -7.3452948207914287e-07 0 -5.9816592074014087e-06 -4.7668131861979711e-07 0 -4.8391361357598447e-06 8.6913457733575849e-07 0 -8.0391605034435831e-06 -1.4750971864112295e-05 0 -8.9586137835237855e-06 -1.4021407133967036e-05 0 -8.9833621818300882e-06 -1.6516307500884242e-05 0 -2.7069103496169932e-06 3.1013604924959484e-07 0 -2.1619136819140684e-06 4.7189089854117745e-07 0 -1.7693178965088151e-06 5.3634191052188446e-07 0 -5.7322866960600909e-05 8.0877576591417846e-05 0 -4.4368755372963045e-05 7.381017098403326e-05 0 -4.8015754604138758e-05 8.5903266021740871e-05 0 -4.9366808535277502e-06 -3.4183842476153755e-05 0 -9.728417936755227e-06 -3.2161580577830182e-05 0 -9.3561809957925214e-06 -3.7723741121086475e-05 0 -4.5895139142553619e-06 -2.8305055160279174e-05 0 -8.4202608927511392e-06 -2.6582819544524601e-05 0 -9.728417936755227e-06 -3.2161580577830182e-05 0 -8.2130601443212038e-06 -3.231056275780176e-06 0 -7.1829720816662104e-06 -1.3269243520650307e-06 0 -8.1428563074624287e-06 -2.5980248433958646e-06 0 -1.344583436267529e-05 -8.9674760500930282e-06 0 -1.3466188410267656e-05 -9.7935109465597584e-06 0 -1.2238133586290882e-05 -8.1062149835856159e-06 0 -3.0681523149731643e-06 1.7274997233716918e-07 0 -4.1554667151394986e-06 -6.6454944912656829e-07 0 -3.4464439347303674e-06 3.9522210816385941e-08 0 -6.4364633380699301e-06 -3.8831787196033052e-07 0 -4.8391361357598447e-06 8.6913457733575849e-07 0 -5.9816592074014087e-06 -4.7668131861979695e-07 0 6.0913802649827499e-06 0.00012896087713417729 0 -1.5295820112277742e-06 0.00013629756853941624 0 -6.2021757884434052e-06 0.00013023783901998308 0 -3.4933909716915872e-05 -5.9829044843449428e-05 0 -3.1516329486836131e-05 -6.2040380943057191e-05 0 -2.9194414740333973e-05 -5.9196708368116213e-05 0 -7.8639002035566177e-06 -5.8925175787592066e-05 0 -1.2861889390867758e-05 -5.976567346339453e-05 0 -1.1023926225900806e-05 -6.2482832031626772e-05 0 -5.9701999735685414e-05 0.00013116336950709837 0 -4.6521996150459379e-05 0.00012973169357736715 0 -5.1850396884627532e-05 0.00013625089924819645 0 -3.4356205196307594e-06 4.281053411548205e-07 0 -2.7320777082083905e-06 5.7248624956122202e-07 0 -3.4464439347303674e-06 3.9522210816385941e-08 0 -3.0681523149731643e-06 1.7274997233716918e-07 0 -3.4464439347303674e-06 3.9522210816385941e-08 0 -2.7320777082083905e-06 5.7248624956122202e-07 0 -5.2651233181718663e-06 -1.9754925055617118e-06 0 -4.1554667151394986e-06 -6.6454944912656807e-07 0 -4.5346980058865786e-06 -1.0553592912348565e-06 0 -1.7909351069714296e-05 6.9557248585693615e-06 0 -1.8615140764919537e-05 5.9783537075673741e-06 0 -1.3680384481292316e-05 3.9812524552615539e-06 0 -1.496762926131436e-05 3.7584877544912727e-06 0 -1.3680384481292316e-05 3.9812524552615531e-06 0 -1.8615140764919537e-05 5.9783537075673741e-06 0 -5.7474725151056453e-06 3.6158316125637848e-06 0 -7.5739851175101857e-06 2.9496266356575392e-06 0 -5.1838076984912969e-06 1.9013177516104196e-06 0 -6.3834929374485099e-06 -2.0661344859117772e-06 0 -4.8420652313095621e-06 -9.0368422442955674e-07 0 -5.4971507416711165e-06 -1.0225782935339296e-06 0 -6.4029787834002037e-06 -3.1258169247377329e-06 0 -6.1657206570397394e-06 -3.5322593459698115e-06 0 -6.744200447429152e-06 -4.7266625239788852e-06 0 -3.7240551716129022e-06 -2.2492819726764183e-07 0 -2.8925846593407779e-06 1.5426996266944956e-07 0 -2.5570230602307771e-06 6.442272231536931e-08 0 -1.7422401101513972e-06 2.5470020310346303e-07 0 -2.5570230602307771e-06 6.442272231536931e-08 0 -2.8925846593407783e-06 1.5426996266944956e-07 0 -2.0159640116644193e-06 -5.1161963674606765e-07 0 -3.2315936756178933e-06 -3.531996433585169e-07 0 -3.1942954055635168e-06 -3.7769188530703044e-07 0 -4.8277292733126265e-06 -3.8386223910075603e-08 0 -3.1942954055635164e-06 -3.7769188530703049e-07 0 -3.2315936756178933e-06 -3.531996433585169e-07 0 -2.3333317592588989e-05 -2.5421470892254801e-05 0 -2.6133314625972348e-05 -3.0909429582683016e-05 0 -2.1774957290108096e-05 -2.847679462098015e-05 0 -2.2415793195665194e-05 -3.3408779780155942e-05 0 -2.1774957290108096e-05 -2.847679462098015e-05 0 -2.6133314625972348e-05 -3.0909429582683016e-05 0 -7.5189537132521734e-07 -3.9854918981296883e-07 0 -4.9360300422343905e-07 -2.4694064452092354e-07 0 -1.1675497559791097e-06 -3.4523288362186099e-07 0 -7.4045511162331593e-07 -1.7973573259678831e-07 0 -1.1675497559791097e-06 -3.4523288362186099e-07 0 -4.9360300422343905e-07 -2.4694064452092354e-07 0 -1.0136165063591543e-06 4.8914169860810143e-07 0 -5.8974503979543853e-07 3.2330679739325149e-07 0 -1.3043157915864737e-06 4.7825145641141536e-07 0 -7.7079615312454096e-07 3.2964458941589127e-07 0 -1.3043157915864737e-06 4.7825145641141536e-07 0 -5.8974503979543853e-07 3.2330679739325149e-07 0 -2.4805854070488032e-05 0.0001003781360165067 0 -1.728696691807671e-05 9.3118721681523649e-05 0 -1.6233436305703645e-05 0.00010568873897839494 0 -1.9877104607107047e-05 -4.5810051287797553e-05 0 -2.2565924211762095e-05 -4.2643984776962326e-05 0 -2.3789462077956416e-05 -4.8350513844306653e-05 0 -3.3979756257790127e-06 8.284638250557452e-08 0 -2.612547871160963e-06 2.8183930178175195e-07 0 -2.8925846593407783e-06 1.5426996266944956e-07 0 -3.1659732227775965e-06 4.8879976405838066e-08 0 -3.2315936756178933e-06 -3.531996433585169e-07 0 -2.5129845778250425e-06 -2.6069606539322564e-07 0 -6.3834929374485099e-06 -2.0661344859117772e-06 0 -6.2778450274186353e-06 -2.8208367566203852e-06 0 -5.222267752401679e-06 -1.5524067251838166e-06 0 -3.7240551716129022e-06 -2.2492819726764183e-07 0 -4.1174679122538376e-06 -1.9064006029190129e-07 0 -2.8925846593407783e-06 1.5426996266944956e-07 0 -4.8277292733126265e-06 -3.8386223910075603e-08 0 -3.2315936756178933e-06 -3.531996433585169e-07 0 -4.7718059192360822e-06 6.3401257558788316e-08 0 -7.059859708174415e-06 -6.5763140095796004e-06 0 -9.0544757649317642e-06 -4.9360698072007954e-06 0 -7.9288607330709544e-06 -4.2948368875028001e-06 0 -3.0681523149731643e-06 1.7274997233716918e-07 0 -3.7533149963552836e-06 -3.6914079755009646e-07 0 -4.1554667151394986e-06 -6.6454944912656829e-07 0 -1.37120962929556e-09 -3.8925300116875001e-10 0 -1.2022916864746696e-09 -1.81646629177546e-10 0 -9.985315797976731e-07 -3.4335276945262058e-07 0 -1.0085623475600089e-09 8.5204310665810051e-11 0 -1.0648503938400832e-09 1.8422099092429958e-10 0 -8.2312559047275501e-07 1.5649845191277557e-07 0 -3.1704379099171973e-06 6.6581960068084931e-06 0 -3.6010651409170164e-06 4.3549289366762359e-06 0 -1.8383229672136054e-06 4.577835426163828e-06 0 -1.2016912525708669e-05 -1.7071199012802436e-05 0 -1.2301309067489791e-05 -1.8102543642774407e-05 0 -1.136931293697956e-05 -1.8690015564817341e-05 0 -6.3834929374485099e-06 -2.0661344859117772e-06 0 -6.9584999970568014e-06 -1.8716625555260467e-06 0 -8.278286269800663e-06 -3.0464792716085829e-06 0 -1.0087241601999996e-05 -1.7779688688686988e-05 0 -7.6488704598424863e-06 -2.0605964097003386e-05 0 -7.1989762790049975e-06 -1.5552696180779379e-05 0 -3.4356205196307594e-06 4.281053411548205e-07 0 -2.5464961415767388e-06 1.0428890017509405e-06 0 -2.7320777082083905e-06 5.7248624956122202e-07 0 -4.8688832638354142e-06 -1.2007871089817182e-06 0 -4.0794273940008414e-06 -3.7551622666999262e-07 0 -4.1554667151394986e-06 -6.6454944912656829e-07 0 -3.3983451567015525e-06 1.1608265623851911e-07 0 -5.0463089529429583e-06 9.0544758278991589e-07 0 -2.4217850365408439e-06 4.1530340750529866e-07 0 -2.4502710910956049e-06 -3.3309042003312779e-07 0 -1.7036972883280254e-06 -4.6502604509543994e-07 0 -3.5124300563864772e-06 -9.2556107560656296e-07 0 -7.427109581514517e-06 -4.4698104848448064e-06 0 -7.1385123234507565e-06 -5.4704443918150786e-06 0 -6.1657206570397394e-06 -3.5322593459698115e-06 0 -1.8648664457225384e-06 1.3298999234935504e-06 0 -2.0489854795758707e-06 8.7610369911376281e-07 0 -2.5464961415767388e-06 1.0428890017509405e-06 0 -4.182938453957895e-06 -6.2871934094344792e-07 0 -4.8420652313095621e-06 -9.0368422442955685e-07 0 -5.222267752401679e-06 -1.5524067251838166e-06 0 -1.1892522034813976e-05 -4.0825335318484586e-06 0 -1.2391753495194101e-05 -5.3031016480546228e-06 0 -1.0119029077707982e-05 -3.7122241603009777e-06 0 -5.5245767776551812e-05 6.8093601122567549e-05 0 -4.4706515726269072e-05 6.2383641148154467e-05 0 -4.4368755372963045e-05 7.381017098403326e-05 0 -7.427109581514517e-06 -4.4698104848448064e-06 0 -7.8624234339945616e-06 -3.6469971298456392e-06 0 -9.3711014855193787e-06 -5.3944419685296524e-06 0 -8.1428563074624287e-06 -2.5980248433958646e-06 0 -9.6515814050600549e-06 -4.5241520963751785e-06 0 -8.9448048619889203e-06 -3.9771421033882066e-06 0 -6.3834929374485099e-06 -2.0661344859117772e-06 0 -8.278286269800663e-06 -3.0464792716085829e-06 0 -7.8624234339945616e-06 -3.6469971298456392e-06 0 -2.7320777082083905e-06 5.7248624956122202e-07 0 -2.5464961415767388e-06 1.0428890017509405e-06 0 -2.0489854795758707e-06 8.7610369911376281e-07 0 -1.0790195982393092e-05 -6.0333280368991449e-06 0 -1.1729879429738888e-05 -7.012476292099596e-06 0 -1.2238133586290882e-05 -8.1062149835856159e-06 0 -3.1704379099171973e-06 6.6581960068084931e-06 0 -9.7038600627797346e-07 7.4753191079962304e-06 0 -2.9134032080881466e-06 9.979940638224962e-06 0 -6.3834929374485099e-06 -2.0661344859117772e-06 0 -5.4971507416711165e-06 -1.0225782935339294e-06 0 -6.9584999970568014e-06 -1.8716625555260467e-06 0 -5.8699781539783019e-05 9.380100861571256e-05 0 -5.7322866960600909e-05 8.0877576591417846e-05 0 -4.8015754604138758e-05 8.5903266021740871e-05 0 -4.9366808535277502e-06 -3.4183842476153755e-05 0 -9.3561809957925214e-06 -3.7723741121086475e-05 0 -5.4849926273804191e-06 -4.0380815437414759e-05 0 -4.453141343340112e-06 -2.2739374622190244e-05 0 -8.4202608927511392e-06 -2.6582819544524601e-05 0 -4.5895139142553619e-06 -2.8305055160279174e-05 0 -1.2289996859596889e-05 7.917236334224601e-06 0 -1.804499378883672e-05 9.4927997921604052e-06 0 -1.4513125528227451e-05 6.2639539961768284e-06 0 6.2925474665022528e-07 1.8030041754044414e-06 0 -2.707510818784873e-06 4.4522596567856475e-06 0 -2.7676275854174936e-06 -1.0386215886507979e-06 0 -1.1892522034813976e-05 -4.0825335318484586e-06 0 -1.2146382991353557e-05 -3.8507077398402267e-06 0 -1.4079697376475132e-05 -5.0614259189325999e-06 0 -1.7909351069714296e-05 6.9557248585693615e-06 0 -2.210348461572873e-05 8.4233925308970861e-06 0 -1.8615140764919537e-05 5.9783537075673741e-06 0 -1.1892522034813976e-05 -4.0825335318484586e-06 0 -1.4079697376475132e-05 -5.0614259189325999e-06 0 -1.4727771823996877e-05 -5.9848560701748583e-06 0 -1.7909351069714296e-05 6.9557248585693615e-06 0 -2.286873135056395e-05 1.0567526595397446e-05 0 -2.210348461572873e-05 8.4233925308970861e-06 0 -2.4502710910956049e-06 -3.3309042003312779e-07 0 -1.1940441508369958e-06 -7.8184677642126335e-08 0 -1.7036972883280254e-06 -4.6502604509543994e-07 0 -3.3983451567015525e-06 1.1608265623851911e-07 0 -2.4217850365408439e-06 4.1530340750529866e-07 0 -1.6393145939405175e-06 -1.0414061476897651e-07 0 -4.8688832638354142e-06 -1.2007871089817182e-06 0 -5.5932629755679436e-06 -2.3369376792274995e-06 0 -5.6999234591590346e-06 -1.7237870689260573e-06 0 -6.4029787834002037e-06 -3.1258169247377329e-06 0 -5.6999234591590346e-06 -1.7237870689260573e-06 0 -5.5932629755679436e-06 -2.3369376792274995e-06 0 -1.6248115763547183e-05 -1.4595832915794039e-05 0 -1.5957075089380999e-05 -1.4340100619085936e-05 0 -1.4930754244645311e-05 -1.285427039872567e-05 0 -4.8045867117853726e-06 -1.0510665134945239e-05 0 -5.857980662285966e-06 -1.1020616211493489e-05 0 -6.5210493898471518e-06 -1.325698029496276e-05 0 -7.6792230336486452e-07 -1.9152782836011772e-06 0 -2.7676275854174936e-06 -1.0386215886507977e-06 0 -3.1662739712082589e-06 -4.0946132693235542e-06 0 -3.9748413889561853e-06 -8.4091958965335073e-06 0 -4.8430383683428572e-06 -8.6169952228961918e-06 0 -5.857980662285966e-06 -1.1020616211493489e-05 0 -1.5604106497682169e-05 -1.2992245242088397e-05 0 -1.4930754244645311e-05 -1.285427039872567e-05 0 -1.4319175729133237e-05 -1.1411941591482435e-05 0 -6.3834929374485099e-06 -2.0661344859117772e-06 0 -5.222267752401679e-06 -1.5524067251838164e-06 0 -4.8420652313095621e-06 -9.0368422442955674e-07 0 -5.2651233181718663e-06 -1.9754925055617118e-06 0 -6.1657206570397394e-06 -3.5322593459698115e-06 0 -5.5932629755679436e-06 -2.3369376792274995e-06 0 -6.4029787834002037e-06 -3.1258169247377329e-06 0 -5.5932629755679436e-06 -2.3369376792274995e-06 0 -6.1657206570397394e-06 -3.5322593459698115e-06 0 -3.4356205196307594e-06 4.281053411548205e-07 0 -4.6109431506007871e-06 -4.8377533993446362e-07 0 -4.1308554231682041e-06 5.6543073602128459e-07 0 -5.5245767776551812e-05 6.8093601122567549e-05 0 -5.2301843781489747e-05 5.5700865847636927e-05 0 -4.4706515726269072e-05 6.2383641148154467e-05 0 -6.4364633380699301e-06 -3.8831787196033052e-07 0 -5.9816592074014087e-06 -4.7668131861979674e-07 0 -7.123061529346983e-06 -1.7398810073985416e-06 0 -8.1194850854602438e-06 1.3186816917808489e-05 0 -5.6743920644696919e-06 8.7292944939790217e-06 0 -2.9134032080881466e-06 9.979940638224962e-06 0 -3.1704379099171973e-06 6.6581960068084931e-06 0 -2.9134032080881466e-06 9.979940638224962e-06 0 -5.6743920644696919e-06 8.7292944939790217e-06 0 -4.6081604299096487e-06 -1.7455648536209421e-05 0 -7.6488704598424863e-06 -2.0605964097003386e-05 0 -4.453141343340112e-06 -2.2739374622190244e-05 0 -2.8693708525824265e-05 1.2485380126627034e-05 0 -2.210348461572873e-05 8.4233925308970861e-06 0 -2.286873135056395e-05 1.0567526595397446e-05 0 -1.7394772834557268e-05 -7.0381198486318023e-06 0 -1.4727771823996877e-05 -5.9848560701748583e-06 0 -1.4079697376475132e-05 -5.0614259189325999e-06 0 -5.5635394264304001e-06 -7.3452948207914287e-07 0 -7.123061529346983e-06 -1.7398810073985414e-06 0 -5.9816592074014087e-06 -4.7668131861979695e-07 0 -3.2282725768905254e-05 7.3283556085727443e-05 0 -4.4368755372963045e-05 7.381017098403326e-05 0 -3.6952851367413723e-05 6.4378546369657836e-05 0 -3.2282725768905254e-05 7.3283556085727443e-05 0 -3.9545923262147007e-05 8.2044808301272719e-05 0 -4.4368755372963045e-05 7.381017098403326e-05 0 -1.4334593111736506e-05 -3.2702910129342333e-05 0 -1.2408541876924496e-05 -3.6396515171416562e-05 0 -9.728417936755227e-06 -3.2161580577830182e-05 0 -1.4334593111736506e-05 -3.2702910129342333e-05 0 -9.728417936755227e-06 -3.2161580577830175e-05 0 -1.1639293637132735e-05 -2.870295633420315e-05 0 -5.4849926273804191e-06 -4.0380815437414759e-05 0 -9.5419327032470192e-06 -4.3338144547943125e-05 0 -6.3093997047485043e-06 -4.682869199675318e-05 0 -5.9380990783080237e-05 0.00010663143141538595 0 -5.8699781539783019e-05 9.380100861571256e-05 0 -4.996618488985795e-05 9.7434858362108336e-05 0 -2.0101637393510127e-06 4.1809329528426155e-07 0 -1.6801052783875484e-06 3.8686444608974615e-07 0 -2.6125478711609635e-06 2.818393017817519e-07 0 -1.7688668123699192e-06 -3.6216799707866581e-07 0 -2.5129845778250425e-06 -2.6069606539322564e-07 0 -1.6278263633195154e-06 -5.2187538140347227e-07 0 -1.4334593111736506e-05 -3.2702910129342333e-05 0 -1.7449508873490297e-05 -3.3146181276882154e-05 0 -1.5674969333831443e-05 -3.7872147247774913e-05 0 -1.4334593111736506e-05 -3.2702910129342333e-05 0 -1.4518046334674008e-05 -2.8129048014822042e-05 0 -1.7449508873490297e-05 -3.3146181276882154e-05 0 -1.9708507112164742e-05 -3.8858185992918739e-05 0 -1.5674969333831443e-05 -3.7872147247774913e-05 0 -1.7449508873490297e-05 -3.3146181276882154e-05 0 -1.8118623389577252e-05 -2.8155234553415607e-05 0 -1.7449508873490297e-05 -3.3146181276882154e-05 0 -1.4518046334674008e-05 -2.8129048014822042e-05 0 -3.2282725768905254e-05 7.3283556085727443e-05 0 -2.4238701402310673e-05 7.4033927046483444e-05 0 -3.2157045491211903e-05 8.4919554024747714e-05 0 -2.261985414139433e-05 8.4778158052158418e-05 0 -3.2157045491211903e-05 8.4919554024747714e-05 0 -2.4238701402310673e-05 7.4033927046483444e-05 0 -1.0085623475600089e-09 8.5204310665810051e-11 0 -8.2312559047275501e-07 1.5649845191277557e-07 0 -8.1602193007860406e-07 2.5560028961563242e-07 0 -1.2022916864746696e-09 -1.81646629177546e-10 0 -8.9628587517069631e-07 -4.1911070432574088e-07 0 -9.985315797976731e-07 -3.4335276945262058e-07 0 -1.9942008967268276e-05 -1.3245790667086119e-05 0 -1.6091216447829616e-05 -9.6162716540307986e-06 0 -1.8628446932734499e-05 -9.8479245919119615e-06 0 -3.1653179180179256e-05 2.6758251781491977e-05 0 -3.0041629275915121e-05 1.9323850339439739e-05 0 -2.4840818767507037e-05 1.8629307336355191e-05 0 -8.157417157863525e-06 -1.9022415015769311e-06 0 -1.0278889380177414e-05 -2.9689551495400133e-06 0 -9.5323674020113609e-06 -2.8209843962235925e-06 0 -1.7675910937115788e-06 7.6310517957484748e-07 0 -2.2782008088176401e-06 5.6989416571871587e-07 0 -2.0489854795758707e-06 8.7610369911376281e-07 0 -1.0514945448766351e-05 -1.8903535465790179e-05 0 -9.8508908970455978e-06 -1.8235364514491864e-05 0 -1.1053562035676114e-05 -1.7472455834468785e-05 0 -9.0971978747846401e-06 1.3554586869477084e-06 0 -1.0940508698598372e-05 2.0631148482162791e-06 0 -1.2210957284871625e-05 2.5724122871926618e-06 0 -1.496762926131436e-05 3.7584877544912727e-06 0 -1.2210957284871625e-05 2.5724122871926618e-06 0 -1.0940508698598372e-05 2.0631148482162791e-06 0 -9.1055266689964221e-07 3.6125934030824745e-07 0 -9.6731173588853665e-07 -5.4825600168832962e-09 0 -6.8414702564177469e-07 2.9159623759578853e-08 0 -2.028755845322901e-06 -4.3522262193842683e-06 0 -4.4096601164905422e-06 -6.6916366891505356e-06 0 -3.0156555388571457e-06 -6.3528624788379674e-06 0 -1.7394772834557268e-05 -7.0381198486318023e-06 0 -1.7250845467776317e-05 -7.882305860405625e-06 0 -1.4727771823996877e-05 -5.9848560701748583e-06 0 -2.8693708525824265e-05 1.2485380126627034e-05 0 -2.286873135056395e-05 1.0567526595397446e-05 0 -2.7773968635500493e-05 1.4527231214261887e-05 0 -9.8514192581565999e-06 -5.6590528539243964e-06 0 -1.0124613333610069e-05 -5.1411032731263749e-06 0 -9.0544757649317642e-06 -4.9360698072007954e-06 0 -4.8277292733126265e-06 -3.8386223910075603e-08 0 -4.7718059192360822e-06 6.3401257558788316e-08 0 -7.1231900693748579e-06 6.5508819971722743e-07 0 -5.9052476418674296e-06 7.2001986771575444e-07 0 -7.1231900693748588e-06 6.5508819971722753e-07 0 -4.7718059192360822e-06 6.3401257558788316e-08 0 -1.0853287648978473e-05 2.8094441411162178e-05 0 -9.6303991593701578e-06 1.9507738929203305e-05 0 -5.2088344351092398e-06 1.7820667100879683e-05 0 -1.1684781568149728e-05 2.9389661908736473e-06 0 -9.7632749100099933e-06 1.9119510350688778e-06 0 -1.2210957284871625e-05 2.5724122871926618e-06 0 -7.781963323405524e-06 -2.3218410460690836e-06 0 -8.1055486982159044e-06 -2.0347715125854908e-06 0 -6.602770231947673e-06 -1.6479890970871661e-06 0 -1.1147779221439576e-05 -1.2164186077621682e-05 0 -1.0897850370788194e-05 -1.0564230877632424e-05 0 -1.2281659495301216e-05 -1.2171310668754312e-05 0 -1.184534961091505e-05 -1.0466657452942383e-05 0 -1.2281659495301216e-05 -1.2171310668754312e-05 0 -1.0897850370788194e-05 -1.0564230877632424e-05 0 -3.4356205196307594e-06 4.281053411548205e-07 0 -3.0658068209587355e-06 1.1703585408043764e-06 0 -2.5464961415767388e-06 1.0428890017509405e-06 0 -5.7474725151056453e-06 3.6158316125637848e-06 0 -5.1838076984912969e-06 1.9013177516104194e-06 0 -3.7383130164201847e-06 2.4284628383744315e-06 0 -1.2558430790039559e-06 1.674957294632428e-06 0 -1.3156174679149977e-06 1.3332604731495649e-06 0 -1.4776418020041906e-06 1.9227665461379338e-06 0 -8.1194850854602438e-06 1.3186816917808489e-05 0 -5.2088344351092398e-06 1.7820667100879683e-05 0 -9.6303991593701578e-06 1.9507738929203305e-05 0 -1.1892522034813976e-05 -4.0825335318484586e-06 0 -1.0119029077707982e-05 -3.7122241603009777e-06 0 -9.5323674020113609e-06 -2.8209843962235925e-06 0 -4.182938453957895e-06 -6.2871934094344792e-07 0 -3.2577865517211177e-06 6.5907467896883984e-09 0 -3.6059681313915736e-06 -1.0307379245791919e-07 0 7.7311379721896927e-06 4.0010336661593316e-05 0 8.7926589881465405e-06 5.199314915622863e-05 0 8.076679025111695e-07 4.8324363428109073e-05 0 -3.1918435374270674e-05 -3.1339523118435247e-05 0 -2.6133314625972348e-05 -3.0909429582683016e-05 0 -2.7056390186319127e-05 -2.6887736775168617e-05 0 -2.8693708525824265e-05 1.2485380126627034e-05 0 -2.3704266772658108e-05 8.6983866404994651e-06 0 -2.210348461572873e-05 8.4233925308970861e-06 0 -1.4725188262482899e-05 -5.2838685646539978e-06 0 -1.7394772834557268e-05 -7.0381198486318023e-06 0 -1.4079697376475132e-05 -5.0614259189325999e-06 0 -4.8391361357598447e-06 8.6913457733575849e-07 0 -5.425707896210576e-06 1.141074553775651e-06 0 -3.7238028572541568e-06 2.4730076416854745e-06 0 -4.8277292733126265e-06 -3.8386223910075603e-08 0 -7.1231900693748579e-06 6.5508819971722743e-07 0 -6.6540954860647068e-06 5.6411128529333735e-07 0 -9.0971978747846401e-06 1.3554586869477084e-06 0 -6.6540954860647068e-06 5.6411128529333735e-07 0 -7.1231900693748579e-06 6.5508819971722743e-07 0 -1.419237726044286e-06 3.9258591202627097e-06 0 -1.3237304109589244e-06 5.4369873321915328e-06 0 -1.8383229672136054e-06 4.577835426163828e-06 0 -2.7657324402164144e-05 -3.7076977027065855e-05 0 -2.6133314625972348e-05 -3.0909429582683016e-05 0 -2.9755853489272938e-05 -3.4169039668969489e-05 0 -1.33408526359001e-05 -1.0357624947404184e-05 0 -1.2731362277367834e-05 -1.0396861405270121e-05 0 -1.2225834004917613e-05 -8.7908558849630752e-06 0 8.8077788708996239e-06 9.0246098741781261e-05 0 7.9752377061892954e-06 0.00010352974639793711 0 2.3483819201641345e-09 9.7012237365158452e-05 0 -3.4232378050658534e-05 -4.3036755343212998e-05 0 -3.4717700420118904e-05 -4.8865654328910289e-05 0 -3.053250804713277e-05 -4.507191918829664e-05 0 -1.2289996859596889e-05 7.917236334224601e-06 0 -8.4712351426492746e-06 5.0353413629624206e-06 0 -6.5980124176201262e-06 6.2763133587620805e-06 0 -7.427109581514517e-06 -4.4698104848448064e-06 0 -8.8487520389753362e-06 -6.5720412653899088e-06 0 -7.1385123234507565e-06 -5.4704443918150777e-06 0 -1.0032983264070369e-05 -4.5926853412956536e-06 0 -9.3711014855193787e-06 -5.3944419685296524e-06 0 -7.8624234339945616e-06 -3.6469971298456392e-06 0 -5.8699781539783019e-05 9.380100861571256e-05 0 -4.8015754604138758e-05 8.5903266021740871e-05 0 -4.996618488985795e-05 9.7434858362108336e-05 0 -5.4849926273804191e-06 -4.0380815437414759e-05 0 -9.3561809957925214e-06 -3.7723741121086475e-05 0 -9.5419327032470192e-06 -4.3338144547943125e-05 0 -4.4066234801766885e-06 -4.5034238032812198e-07 0 -3.5056538838011359e-06 2.2933528854352639e-08 0 -4.5259594702640669e-06 -3.5187113152156817e-07 0 -3.1704379099171973e-06 6.6581960068084931e-06 0 -5.6743920644696919e-06 8.7292944939790217e-06 0 -6.5980124176201262e-06 6.2763133587620805e-06 0 -1.1892522034813976e-05 -4.0825335318484586e-06 0 -1.0278889380177414e-05 -2.9689551495400128e-06 0 -1.2146382991353557e-05 -3.8507077398402267e-06 0 -1.1808757235110786e-05 -7.067701193989778e-06 0 -1.344583436267529e-05 -8.9674760500930282e-06 0 -1.1729879429738886e-05 -7.012476292099596e-06 0 -5.160236787911343e-06 -5.8171507125306032e-07 0 -4.9985018032100586e-06 -5.8219368361955131e-07 0 -6.4985568256361746e-06 -1.1335049347624194e-06 0 -3.0159052463336671e-05 -2.5827302383790569e-05 0 -3.1918435374270674e-05 -3.1339523118435247e-05 0 -2.7056390186319127e-05 -2.6887736775168617e-05 0 -9.6937463906063087e-06 -2.5899425212633438e-06 0 -7.7892895626281844e-06 -1.7226152941432172e-06 0 -8.1055486982159044e-06 -2.0347715125854908e-06 0 -6.3700517392688378e-06 -1.234301387580564e-06 0 -8.1055486982159044e-06 -2.0347715125854908e-06 0 -7.7892895626281844e-06 -1.7226152941432172e-06 0 -3.5877148211149756e-05 5.5601619342223244e-05 0 -2.79365669204208e-05 5.7326801132799964e-05 0 -3.6952851367413723e-05 6.4378546369657836e-05 0 -7.5189537132521734e-07 -3.9854918981296883e-07 0 -1.6278263633195154e-06 -5.2187538140347227e-07 0 -8.9628587517069631e-07 -4.1911070432574088e-07 0 -2.0159640116644193e-06 -5.1161963674606765e-07 0 -8.9628587517069631e-07 -4.1911070432574088e-07 0 -1.6278263633195154e-06 -5.2187538140347227e-07 0 -1.7422401101513972e-06 2.5470020310346303e-07 0 -1.6801052783875484e-06 3.8686444608974615e-07 0 -8.1602193007860406e-07 2.5560028961563242e-07 0 -7.7079615312454096e-07 3.2964458941589127e-07 0 -8.1602193007860406e-07 2.5560028961563242e-07 0 -1.6801052783875484e-06 3.8686444608974615e-07 0 -5.2651233181718663e-06 -1.9754925055617118e-06 0 -5.222267752401679e-06 -1.5524067251838166e-06 0 -6.2778450274186353e-06 -2.8208367566203852e-06 0 -6.3574732349111379e-06 -2.0675580918968241e-07 0 -7.1829720816662104e-06 -1.3269243520650307e-06 0 -7.3230351745805639e-06 -2.4977006831018823e-06 0 -8.2130601443212038e-06 -3.231056275780176e-06 0 -7.3230351745805639e-06 -2.4977006831018823e-06 0 -7.1829720816662104e-06 -1.3269243520650307e-06 0 -1.344583436267529e-05 -8.9674760500930282e-06 0 -1.469827018033163e-05 -1.1076974182469128e-05 0 -1.3466188410267656e-05 -9.7935109465597584e-06 0 -8.2130601443212038e-06 -3.231056275780176e-06 0 -8.1428563074624287e-06 -2.5980248433958646e-06 0 -8.9448048619889203e-06 -3.9771421033882066e-06 0 -5.857980662285966e-06 -1.1020616211493489e-05 0 -4.8430383683428572e-06 -8.6169952228961918e-06 0 -6.9014891374332063e-06 -1.0638546154442171e-05 0 -1.4930754244645311e-05 -1.285427039872567e-05 0 -1.3824348334632685e-05 -1.1451730912781801e-05 0 -1.4319175729133237e-05 -1.1411941591482435e-05 0 -1.7394772834557268e-05 -7.0381198486318023e-06 0 -2.0164622508887441e-05 -9.4478803253740763e-06 0 -1.7250845467776317e-05 -7.882305860405625e-06 0 -3.4005929488251277e-05 1.7935382534024148e-05 0 -2.8693708525824265e-05 1.2485380126627034e-05 0 -2.7773968635500493e-05 1.4527231214261887e-05 0 -2.7676275854174936e-06 -1.0386215886507979e-06 0 -4.9370335838616247e-06 -3.0311773762450563e-06 0 -3.1662739712082589e-06 -4.0946132693235542e-06 0 -5.857980662285966e-06 -1.1020616211493489e-05 0 -7.6080618255995697e-06 -1.2918580020582756e-05 0 -6.5210493898471518e-06 -1.325698029496276e-05 0 -1.0032983264070369e-05 -4.5926853412956536e-06 0 -1.0119029077707982e-05 -3.7122241603009777e-06 0 -1.2391753495194101e-05 -5.3031016480546228e-06 0 -6.4676471373746394e-07 4.1152051758688593e-07 0 -2.6397254562397187e-07 1.8074104477021226e-07 0 -3.1154558740261158e-07 2.2232717381838563e-07 0 -3.5904408615997936e-06 1.350283066440872e-06 0 -5.1838076984912969e-06 1.9013177516104196e-06 0 -4.4466542200796241e-06 6.7554794167430692e-07 0 -1.7191131402300925e-06 8.8017900303814911e-07 0 -2.7613912209512522e-06 7.298705588692049e-07 0 -2.1720207966371765e-06 3.0471204079346571e-07 0 -3.6344470910746131e-06 4.1618942841281238e-06 0 -4.9531269416764137e-06 2.0701480104899393e-06 0 -4.6688279327376659e-06 7.8204863368217059e-07 0 -4.8839486673984888e-06 -1.0414709217147037e-06 0 -3.7269352566749157e-06 -5.2830699443634653e-07 0 -3.5124300563864772e-06 -9.2556107560656296e-07 0 -2.4502710910956049e-06 -3.3309042003312779e-07 0 -3.5124300563864772e-06 -9.2556107560656296e-07 0 -3.7269352566749157e-06 -5.2830699443634653e-07 0 -3.3983451567015525e-06 1.1608265623851911e-07 0 -5.182697879911836e-06 3.0617535463317406e-07 0 -5.0463089529429583e-06 9.0544758278991589e-07 0 -7.0157214471238472e-06 1.0001668072307002e-06 0 -5.0463089529429583e-06 9.0544758278991589e-07 0 -5.182697879911836e-06 3.0617535463317406e-07 0 -2.5508333217818888e-05 -1.6302505202437824e-05 0 -2.8035682663410788e-05 -2.0795813438432023e-05 0 -2.3668138054531061e-05 -1.7810065729443702e-05 0 -1.0853287648978473e-05 2.8094441411162178e-05 0 -1.4556748909320718e-05 2.0769428618804058e-05 0 -9.6303991593701578e-06 1.9507738929203305e-05 0 -4.453141343340112e-06 -2.2739374622190244e-05 0 -7.6488704598424863e-06 -2.0605964097003386e-05 0 -8.4202608927511392e-06 -2.6582819544524601e-05 0 -1.0045502002043221e-05 -1.6299231889067658e-05 0 -1.1340089880495331e-05 -1.5773289932004806e-05 0 -1.1053562035676114e-05 -1.7472455834468785e-05 0 -3.3979756257790127e-06 8.284638250557452e-08 0 -4.5259594702640669e-06 -3.5187113152156817e-07 0 -3.5056538838011359e-06 2.2933528854352636e-08 0 -5.5635394264304001e-06 -7.3452948207914287e-07 0 -4.1308554231682041e-06 5.6543073602128459e-07 0 -4.6109431506007871e-06 -4.8377533993446362e-07 0 -8.157417157863525e-06 -1.9022415015769311e-06 0 -6.4985568256361746e-06 -1.1335049347624194e-06 0 -7.7892895626281844e-06 -1.7226152941432172e-06 0 -7.3360927830472557e-06 5.2385186733459256e-05 0 1.562153470915951e-06 5.6318361790016604e-05 0 -3.151550072565902e-06 6.3604500407156517e-05 0 -4.8053058863275207e-10 1.2114435387223821e-10 0 -5.1879677338967873e-07 3.3772428745183736e-07 0 -3.1154558740261158e-07 2.2232717381838563e-07 0 -1.184534961091505e-05 -1.0466657452942383e-05 0 -1.0897850370788194e-05 -1.0564230877632424e-05 0 -1.0442296843047165e-05 -8.6333848269763766e-06 0 -2.7676275854174936e-06 -1.0386215886507979e-06 0 -2.707510818784873e-06 4.4522596567856475e-06 0 -4.6688279327376659e-06 7.8204863368217059e-07 0 -4.8631851271641281e-05 4.4228430181370815e-05 0 -4.4039654372112353e-05 3.3836645165309319e-05 0 -3.9190607183839756e-05 3.7616701072087604e-05 0 -4.6891915074473464e-07 2.831565930435677e-07 0 -5.3491507516808035e-07 2.3742187341613565e-07 0 -3.0477339387488934e-07 1.0692009128881606e-07 0 -1.7422401101513972e-06 2.5470020310346303e-07 0 -8.1602193007860406e-07 2.5560028961563242e-07 0 -8.2312559047275501e-07 1.5649845191277557e-07 0 -2.0159640116644193e-06 -5.1161963674606765e-07 0 -9.985315797976731e-07 -3.4335276945262058e-07 0 -8.9628587517069631e-07 -4.1911070432574088e-07 0 -1.8648664457225384e-06 1.3298999234935504e-06 0 -1.5700147260779364e-06 1.0252647981932971e-06 0 -2.0489854795758707e-06 8.7610369911376281e-07 0 -1.5260781869042606e-05 -7.4666991610147577e-06 0 -1.4727771823996877e-05 -5.9848560701748583e-06 0 -1.7250845467776317e-05 -7.882305860405625e-06 0 -2.3117263673279112e-05 1.3939451370118592e-05 0 -2.7773968635500493e-05 1.4527231214261887e-05 0 -2.286873135056395e-05 1.0567526595397446e-05 0 -8.549285022876351e-06 9.3256501855917435e-05 0 -3.5621349962793299e-06 8.1239855445295708e-05 0 1.1132931736639221e-06 8.8080113461509621e-05 0 -2.639130256990946e-05 -4.2924916965366869e-05 0 -2.7657324402164144e-05 -3.7076977027065855e-05 0 -3.0439238189865602e-05 -4.0964587824538295e-05 0 -2.028755845322901e-06 -4.3522262193842683e-06 0 -3.1662739712082585e-06 -4.0946132693235542e-06 0 -4.4096601164905422e-06 -6.6916366891505356e-06 0 -5.7474725151056453e-06 3.6158316125637848e-06 0 -6.5980124176201262e-06 6.2763133587620797e-06 0 -8.4712351426492746e-06 5.0353413629624206e-06 0 -5.1480401159718674e-06 -5.3848898251851289e-06 0 -4.4096601164905422e-06 -6.6916366891505356e-06 0 -3.1662739712082589e-06 -4.0946132693235542e-06 0 -1.7675910937115788e-06 7.6310517957484748e-07 0 -1.6399945765227805e-06 6.7210980381077896e-07 0 -2.2782008088176401e-06 5.6989416571871587e-07 0 -4.961549767378692e-07 9.8676333894892128e-08 0 -3.9819326484303969e-07 -1.015539539104214e-07 0 -2.5146465054980219e-07 5.5199245244976531e-10 0 -4.4066234801766885e-06 -4.5034238032812198e-07 0 -3.6059681313915736e-06 -1.0307379245791922e-07 0 -3.5056538838011359e-06 2.2933528854352636e-08 0 -4.1071582113975324e-06 3.1954005058952138e-06 0 -4.9531269416764137e-06 2.0701480104899393e-06 0 -3.0099071190298319e-06 5.1478023917578141e-06 0 -3.6344470910746131e-06 4.1618942841281238e-06 0 -3.0099071190298319e-06 5.1478023917578141e-06 0 -4.9531269416764137e-06 2.0701480104899393e-06 0 -2.2415793195665194e-05 -3.3408779780155942e-05 0 -2.7657324402164144e-05 -3.7076977027065855e-05 0 -2.3746861787594478e-05 -3.8793748099473603e-05 0 -2.639130256990946e-05 -4.2924916965366869e-05 0 -2.3746861787594478e-05 -3.8793748099473603e-05 0 -2.7657324402164144e-05 -3.7076977027065855e-05 0 -1.2156739541896782e-05 7.2736669711087967e-05 0 -3.5621349962793299e-06 8.1239855445295708e-05 0 -1.292263277664776e-05 8.5091120659558546e-05 0 -8.549285022876351e-06 9.3256501855917435e-05 0 -1.292263277664776e-05 8.5091120659558546e-05 0 -3.5621349962793299e-06 8.1239855445295708e-05 0 -1.2156739541896782e-05 7.2736669711087967e-05 0 -1.2455410981039006e-05 6.0933885647241689e-05 0 -3.151550072565902e-06 6.3604500407156517e-05 0 -7.3360927830472557e-06 5.2385186733459256e-05 0 -3.151550072565902e-06 6.3604500407156517e-05 0 -1.2455410981039006e-05 6.0933885647241689e-05 0 -3.8874931285442612e-10 8.9486590894342135e-11 0 -4.1422804679037836e-10 1.0542491757457578e-10 0 -2.6397254562397187e-07 1.8074104477021226e-07 0 -3.0156555388571457e-06 -6.3528624788379674e-06 0 -4.4096601164905422e-06 -6.6916366891505356e-06 0 -4.8430383683428572e-06 -8.6169952228961918e-06 0 -6.1442887552784567e-06 -8.8744967393150595e-06 0 -4.8430383683428572e-06 -8.6169952228961918e-06 0 -4.4096601164905422e-06 -6.6916366891505356e-06 0 -2.3333317592588989e-05 -2.5421470892254801e-05 0 -2.4522563966467476e-05 -2.2051321529703245e-05 0 -2.7056390186319127e-05 -2.6887736775168617e-05 0 -2.8035682663410788e-05 -2.0795813438432023e-05 0 -2.4522563966467476e-05 -2.2051321529703245e-05 0 -2.3668138054531061e-05 -1.7810065729443702e-05 0 -4.8631851271641281e-05 4.4228430181370815e-05 0 -3.9190607183839756e-05 3.7616701072087604e-05 0 -4.0108456070588145e-05 4.7754651012730029e-05 0 -1.7271234584332537e-06 2.5641408768194974e-06 0 -1.7048968409314509e-06 3.3711402512720528e-06 0 -1.3900644889649979e-06 2.6635503566635738e-06 0 -1.419237726044286e-06 3.9258591202627097e-06 0 -1.3900644889649979e-06 2.6635503566635738e-06 0 -1.7048968409314509e-06 3.3711402512720528e-06 0 -1.1374301018477336e-06 6.5689334308333418e-07 0 -1.3305746484851597e-06 7.7827802037467636e-07 0 -9.9203258635286401e-07 6.6763160563176138e-07 0 -6.4676471373746394e-07 4.1152051758688593e-07 0 -3.1154558740261153e-07 2.223271738183856e-07 0 -5.1879677338967873e-07 3.3772428745183736e-07 0 -9.0971978747846401e-06 1.3554586869477084e-06 0 -1.2210957284871625e-05 2.5724122871926618e-06 0 -9.7632749100099933e-06 1.9119510350688778e-06 0 -6.3700517392688378e-06 -1.234301387580564e-06 0 -6.602770231947673e-06 -1.6479890970871661e-06 0 -8.1055486982159044e-06 -2.0347715125854908e-06 0 -6.3700517392688378e-06 -1.234301387580564e-06 0 -7.7892895626281827e-06 -1.7226152941432172e-06 0 -6.4985568256361746e-06 -1.1335049347624194e-06 0 9.2009650174413365e-06 7.7291127921041343e-05 0 1.1132931736639221e-06 8.8080113461509621e-05 0 -3.5621349962793299e-06 8.1239855445295708e-05 0 -3.3301513100432515e-05 -3.7105686753706682e-05 0 -3.0439238189865602e-05 -4.0964587824538295e-05 0 -2.7657324402164144e-05 -3.7076977027065855e-05 0 -3.8771806217917085e-10 1.5144848139498468e-11 0 -2.5146465054980219e-07 5.5199245244975197e-10 0 -3.9819326484303969e-07 -1.015539539104214e-07 0 -1.7191131402300925e-06 8.8017900303814911e-07 0 -2.4333233260620314e-06 1.5794050952976749e-06 0 -2.7613912209512522e-06 7.298705588692049e-07 0 -1.6626037665220399e-05 -2.1336583996638409e-05 0 -1.804659286094307e-05 -1.7827077328771347e-05 0 -1.9866212294690737e-05 -2.1410499411904721e-05 0 -6.6903416445017755e-06 1.5620475822563607e-06 0 -5.1838076984912961e-06 1.9013177516104194e-06 0 -7.5739851175101857e-06 2.9496266356575392e-06 0 -7.427109581514517e-06 -4.4698104848448064e-06 0 -9.3711014855193787e-06 -5.3944419685296524e-06 0 -8.8487520389753362e-06 -6.5720412653899088e-06 0 -1.5415701975978223e-06 1.9710390747971807e-06 0 -1.3900644889649979e-06 2.6635503566635738e-06 0 -1.5994006348438994e-06 3.0724704037247855e-06 0 -2.2267177103428242e-05 4.4537776467499703e-05 0 -3.0642160236466303e-05 4.6468035251611596e-05 0 -2.6094781264654734e-05 3.7963054992852607e-05 0 -1.5260781869042606e-05 -7.4666991610147577e-06 0 -1.8628446932734499e-05 -9.8479245919119615e-06 0 -1.6091216447829616e-05 -9.6162716540307986e-06 0 -2.3117263673279112e-05 1.3939451370118592e-05 0 -2.4840818767507037e-05 1.8629307336355191e-05 0 -3.0041629275915121e-05 1.9323850339439739e-05 0 -1.2016912525708669e-05 -1.7071199012802436e-05 0 -1.136931293697956e-05 -1.8690015564817341e-05 0 -1.1053562035676114e-05 -1.7472455834468785e-05 0 -1.0514945448766351e-05 -1.8903535465790179e-05 0 -1.1053562035676114e-05 -1.7472455834468785e-05 0 -1.136931293697956e-05 -1.8690015564817341e-05 0 -8.157417157863525e-06 -1.9022415015769311e-06 0 -6.5756281148190143e-06 -1.2199158331958667e-06 0 -6.4985568256361746e-06 -1.1335049347624194e-06 0 -5.160236787911343e-06 -5.8171507125306032e-07 0 -6.4985568256361746e-06 -1.1335049347624194e-06 0 -6.5756281148190143e-06 -1.2199158331958667e-06 0 -4.182938453957895e-06 -6.2871934094344792e-07 0 -5.222267752401679e-06 -1.5524067251838166e-06 0 -4.5346980058865786e-06 -1.0553592912348565e-06 0 -9.6937463906063087e-06 -2.5899425212633438e-06 0 -1.2146382991353557e-05 -3.8507077398402267e-06 0 -1.0278889380177414e-05 -2.9689551495400128e-06 0 -1.0613782019218609e-05 2.4442601636905263e-06 0 -1.0940508698598372e-05 2.0631148482162791e-06 0 -8.2167037459308138e-06 1.3850724447982009e-06 0 -1.3049628295723637e-05 -1.8487187902930992e-05 0 -1.1562616184619136e-05 -1.9526305039330233e-05 0 -1.2301309067489791e-05 -1.8102543642774407e-05 0 -2.2267177103428242e-05 4.4537776467499703e-05 0 -2.79365669204208e-05 5.7326801132799964e-05 0 -3.0642160236466303e-05 4.6468035251611596e-05 0 -4.1422804679037836e-10 1.0542491757457578e-10 0 -4.8053058863275207e-10 1.2114435387223821e-10 0 -3.1154558740261158e-07 2.2232717381838563e-07 0 9.2016844366599126e-06 6.4430704183907384e-05 0 -3.151550072565902e-06 6.3604500407156517e-05 0 1.562153470915951e-06 5.6318361790016604e-05 0 -1.4905300921154716e-06 6.2176268884802597e-06 0 -9.7038600627797346e-07 7.4753191079962304e-06 0 -1.3237304109589246e-06 5.4369873321915328e-06 0 -2.3117263673279112e-05 1.3939451370118592e-05 0 -1.8589402718849246e-05 1.3200513233598635e-05 0 -2.4840818767507037e-05 1.8629307336355191e-05 0 -1.4905300921154716e-06 6.2176268884802597e-06 0 -1.7009507595424785e-06 4.6301951688832398e-06 0 -2.4769340297766577e-06 4.7195753040080484e-06 0 -1.4905300921154716e-06 6.2176268884802597e-06 0 -1.3237304109589246e-06 5.4369873321915319e-06 0 -1.7009507595424785e-06 4.6301951688832398e-06 0 -5.9786275505371197e-06 -1.0536003639254247e-06 0 -7.5833002725608493e-06 -1.8422127996837858e-06 0 -6.9584999970568014e-06 -1.8716625555260467e-06 0 -2.7069103496169932e-06 3.1013604924959484e-07 0 -3.5056538838011359e-06 2.2933528854352636e-08 0 -3.6059681313915736e-06 -1.0307379245791919e-07 0 -3.2008563335421878e-05 3.7340830909735905e-05 0 -4.0108456070588145e-05 4.7754651012730029e-05 0 -3.9190607183839756e-05 3.7616701072087604e-05 0 -6.4029787834002037e-06 -3.1258169247377329e-06 0 -6.9252242849162082e-06 -2.5350316915023436e-06 0 -5.6999234591590346e-06 -1.7237870689260573e-06 0 -4.1071582113975324e-06 3.1954005058952138e-06 0 -3.0099071190298319e-06 5.1478023917578141e-06 0 -2.4769340297766577e-06 4.7195753040080484e-06 0 -1.1475386877946477e-05 -8.6693519920576032e-06 0 -1.0302696401688866e-05 -6.9508427132231109e-06 0 -1.0940600184985946e-05 -6.8470491539181741e-06 0 -1.5260781869042606e-05 -7.4666991610147577e-06 0 -1.7250845467776317e-05 -7.882305860405625e-06 0 -1.8628446932734499e-05 -9.8479245919119615e-06 0 -2.3117263673279112e-05 1.3939451370118592e-05 0 -3.0041629275915121e-05 1.9323850339439739e-05 0 -2.7773968635500493e-05 1.4527231214261887e-05 0 -4.1109100865607576e-05 9.2540594161794111e-05 0 -4.996618488985795e-05 9.7434858362108336e-05 0 -4.8015754604138758e-05 8.5903266021740871e-05 0 -1.2776126968222954e-05 -4.1512492436449878e-05 0 -9.5419327032470192e-06 -4.3338144547943125e-05 0 -9.3561809957925214e-06 -3.7723741121086475e-05 0 -1.33408526359001e-05 -1.0357624947404184e-05 0 -1.2225834004917613e-05 -8.7908558849630752e-06 0 -1.3466188410267656e-05 -9.7935109465597584e-06 0 -1.419237726044286e-06 3.9258591202627097e-06 0 -1.5994006348438994e-06 3.0724704037247855e-06 0 -1.3900644889649979e-06 2.6635503566635738e-06 0 -5.9052476418674296e-06 7.2001986771575444e-07 0 -8.2167037459308138e-06 1.3850724447982009e-06 0 -7.1231900693748579e-06 6.5508819971722743e-07 0 -1.1892522034813976e-05 -4.0825335318484586e-06 0 -9.5323674020113609e-06 -2.8209843962235925e-06 0 -1.0278889380177414e-05 -2.9689551495400128e-06 0 -1.7909351069714296e-05 6.9557248585693615e-06 0 -1.4513125528227451e-05 6.2639539961768284e-06 0 -1.804499378883672e-05 9.4927997921604052e-06 0 -6.1657206570397394e-06 -3.5322593459698115e-06 0 -7.1385123234507565e-06 -5.4704443918150777e-06 0 -6.744200447429152e-06 -4.7266625239788852e-06 0 -8.4603280735331045e-06 -2.6160958595798061e-06 0 -9.5323674020113593e-06 -2.8209843962235925e-06 0 -1.0119029077707982e-05 -3.7122241603009777e-06 0 -4.1071582113975324e-06 3.1954005058952138e-06 0 -3.7238028572541568e-06 2.4730076416854745e-06 0 -5.425707896210576e-06 1.141074553775651e-06 0 -3.8771806217917085e-10 1.5144848139498468e-11 0 -3.7814939253198295e-10 -1.5990491524869493e-11 0 -2.5146465054980219e-07 5.5199245244976531e-10 0 -1.347373978787842e-05 -1.2071413852039112e-05 0 -1.3824348334632685e-05 -1.1451730912781801e-05 0 -1.4930754244645311e-05 -1.285427039872567e-05 0 -1.4725188262482899e-05 -5.2838685646539978e-06 0 -1.4079697376475132e-05 -5.0614259189325999e-06 0 -1.2146382991353557e-05 -3.8507077398402267e-06 0 -2.3704266772658108e-05 8.6983866404994651e-06 0 -1.8615140764919537e-05 5.9783537075673741e-06 0 -2.210348461572873e-05 8.4233925308970861e-06 0 -2.0563540478655916e-05 -1.7474213079501488e-05 0 -2.3668138054531061e-05 -1.7810065729443702e-05 0 -2.4522563966467476e-05 -2.2051321529703245e-05 0 -1.0951081631294646e-05 -7.8412699612525814e-06 0 -1.0702148443569123e-05 -9.6994135353511599e-06 0 -8.8487520389753362e-06 -6.5720412653899088e-06 0 -8.4486986124455839e-06 -7.9978090282441014e-06 0 -8.8487520389753362e-06 -6.5720412653899088e-06 0 -1.0702148443569123e-05 -9.6994135353511599e-06 0 -8.4603280735331045e-06 -2.6160958595798061e-06 0 -8.278286269800663e-06 -3.0464792716085829e-06 0 -6.9584999970568014e-06 -1.8716625555260467e-06 0 -1.1475386877946477e-05 -8.6693519920576032e-06 0 -1.0940600184985946e-05 -6.8470491539181741e-06 0 -1.2225834004917613e-05 -8.7908558849630752e-06 0 -2.3333317592588989e-05 -2.5421470892254801e-05 0 -1.9916062843719727e-05 -2.4905131662179582e-05 0 -1.9866212294690737e-05 -2.1410499411904721e-05 0 -8.4603280735331045e-06 -2.6160958595798061e-06 0 -6.9584999970568014e-06 -1.8716625555260467e-06 0 -7.5833002725608493e-06 -1.8422127996837858e-06 0 -9.8275089061935795e-06 -5.4416987737951721e-06 0 -1.0940600184985946e-05 -6.8470491539181741e-06 0 -1.0302696401688866e-05 -6.9508427132231109e-06 0 -7.4045511162331593e-07 -1.7973573259678831e-07 0 -6.8414702564177469e-07 2.915962375957887e-08 0 -9.6731173588853665e-07 -5.4825600168832962e-09 0 -2.0164622508887441e-05 -9.4478803253740763e-06 0 -1.8628446932734499e-05 -9.8479245919119615e-06 0 -1.7250845467776317e-05 -7.882305860405625e-06 0 -3.4005929488251277e-05 1.7935382534024148e-05 0 -2.7773968635500493e-05 1.4527231214261887e-05 0 -3.0041629275915121e-05 1.9323850339439739e-05 0 -3.3301513100432515e-05 -3.7105686753706682e-05 0 -2.7657324402164144e-05 -3.7076977027065855e-05 0 -2.9755853489272938e-05 -3.4169039668969489e-05 0 9.2009650174413365e-06 7.7291127921041343e-05 0 -3.5621349962793299e-06 8.1239855445295708e-05 0 -2.7782154928559944e-07 7.2141364931690226e-05 0 9.2016844366599126e-06 6.4430704183907384e-05 0 -2.7782154928559944e-07 7.2141364931690226e-05 0 -3.151550072565902e-06 6.3604500407156517e-05 0 -3.3301513100432515e-05 -3.7105686753706682e-05 0 -3.4232378050658534e-05 -4.3036755343212998e-05 0 -3.0439238189865602e-05 -4.0964587824538295e-05 0 9.2009650174413365e-06 7.7291127921041343e-05 0 8.8077788708996239e-06 9.0246098741781261e-05 0 1.1132931736639221e-06 8.8080113461509621e-05 0 -5.1480401159718674e-06 -5.3848898251851289e-06 0 -4.9370335838616255e-06 -3.0311773762450563e-06 0 -6.4938561190290096e-06 -5.0972389363108042e-06 0 -1.2238133586290882e-05 -8.1062149835856159e-06 0 -1.3466188410267656e-05 -9.7935109465597584e-06 0 -1.2225834004917613e-05 -8.7908558849630752e-06 0 -1.7058567336061646e-05 -1.6753835554293463e-05 0 -1.71610391724533e-05 -1.7430812863521852e-05 0 -1.6715571514203538e-05 -1.5878039243312717e-05 0 -6.13345984349417e-06 -1.4868226788326741e-05 0 -7.7161643235729714e-06 -1.8009261056426567e-05 0 -6.4911063377219855e-06 -1.7196398113642146e-05 0 -2.3117263673279112e-05 1.3939451370118592e-05 0 -1.804499378883672e-05 9.4927997921604052e-06 0 -1.8589402718849246e-05 1.3200513233598635e-05 0 -5.160236787911343e-06 -5.8171507125306032e-07 0 -4.1174679122538376e-06 -1.9064006029190129e-07 0 -4.9985018032100586e-06 -5.8219368361955131e-07 0 -1.0864010768241605e-06 8.7325338411238757e-07 0 -1.3305746484851597e-06 7.7827802037467636e-07 0 -1.5700147260779364e-06 1.0252647981932971e-06 0 -3.5877148211149756e-05 5.5601619342223244e-05 0 -3.0642160236466303e-05 4.6468035251611596e-05 0 -2.79365669204208e-05 5.7326801132799964e-05 0 -1.1055650819488308e-05 -2.4004876854884677e-05 0 -8.4202608927511392e-06 -2.6582819544524601e-05 0 -7.6488704598424863e-06 -2.0605964097003386e-05 0 -4.961549767378692e-07 9.8676333894892128e-08 0 -2.5146465054980219e-07 5.5199245244976531e-10 0 -3.0477339387488934e-07 1.0692009128881606e-07 0 -1.0032983264070369e-05 -4.5926853412956536e-06 0 -7.8624234339945616e-06 -3.6469971298456388e-06 0 -8.278286269800663e-06 -3.0464792716085829e-06 0 8.7926589881465405e-06 5.199314915622863e-05 0 9.2016844366599143e-06 6.4430704183907384e-05 0 1.562153470915951e-06 5.6318361790016604e-05 0 -1.7688668123699192e-06 -3.6216799707866581e-07 0 -1.8615355474112186e-06 -9.4199675174903895e-08 0 -2.5129845778250425e-06 -2.6069606539322564e-07 0 -5.1480401159718674e-06 -5.3848898251851289e-06 0 -6.4938561190290096e-06 -5.0972389363108042e-06 0 -6.2598526506895288e-06 -7.239824075901575e-06 0 -7.6857834433773315e-06 -7.3541311718398392e-06 0 -6.2598526506895288e-06 -7.239824075901575e-06 0 -6.4938561190290096e-06 -5.0972389363108042e-06 0 -1.5805230279348032e-05 -1.545298540685573e-05 0 -1.6248226943469155e-05 -1.5061548641913239e-05 0 -1.6715571514203538e-05 -1.5878039243312717e-05 0 -1.7058567336061646e-05 -1.6753835554293463e-05 0 -1.6715571514203538e-05 -1.5878039243312717e-05 0 -1.6248226943469155e-05 -1.5061548641913239e-05 0 -6.13345984349417e-06 -1.4868226788326741e-05 0 -7.6680130754219319e-06 -1.6255206171942307e-05 0 -7.7161643235729731e-06 -1.8009261056426567e-05 0 -8.8562840543349255e-06 -1.8687238824058605e-05 0 -7.7161643235729731e-06 -1.8009261056426567e-05 0 -7.6680130754219319e-06 -1.6255206171942311e-05 0 -1.7271234584332537e-06 2.5641408768194974e-06 0 -1.4776418020041906e-06 1.9227665461379338e-06 0 -2.2402923361131231e-06 1.878308422327671e-06 0 -2.7676275854174936e-06 -1.0386215886507979e-06 0 -4.6688279327376659e-06 7.8204863368217059e-07 0 -4.9370335838616255e-06 -3.0311773762450563e-06 0 -6.4119099167472562e-06 -1.829627808449073e-06 0 -4.9370335838616255e-06 -3.0311773762450563e-06 0 -4.6688279327376659e-06 7.8204863368217059e-07 0 -2.3333317592588989e-05 -2.5421470892254801e-05 0 -2.7056390186319127e-05 -2.6887736775168617e-05 0 -2.6133314625972348e-05 -3.0909429582683016e-05 0 -8.157417157863525e-06 -1.9022415015769311e-06 0 -9.5323674020113609e-06 -2.8209843962235925e-06 0 -7.5833002725608493e-06 -1.8422127996837858e-06 0 -8.4603280735331045e-06 -2.6160958595798061e-06 0 -7.5833002725608493e-06 -1.8422127996837858e-06 0 -9.5323674020113609e-06 -2.8209843962235925e-06 0 -7.059859708174415e-06 -6.5763140095796004e-06 0 -9.8514192581565999e-06 -5.6590528539243964e-06 0 -9.0544757649317642e-06 -4.9360698072007954e-06 0 -1.5250035034858823e-05 -1.4047653730377002e-05 0 -1.6248226943469155e-05 -1.5061548641913239e-05 0 -1.5082658263124175e-05 -1.4683096368343535e-05 0 -8.0391605034435831e-06 -1.4750971864112295e-05 0 -8.9833621818300882e-06 -1.6516307500884242e-05 0 -7.6680130754219319e-06 -1.6255206171942311e-05 0 -1.7675910937115788e-06 7.6310517957484748e-07 0 -1.5700147260779364e-06 1.0252647981932971e-06 0 -1.3305746484851597e-06 7.7827802037467636e-07 0 -1.1562616184619136e-05 -1.9526305039330233e-05 0 -1.136931293697956e-05 -1.8690015564817341e-05 0 -1.2301309067489791e-05 -1.8102543642774407e-05 0 -1.6527472477349688e-06 6.006679841347148e-07 0 -1.1610450970805189e-06 6.0507300271486133e-07 0 -1.096009444876391e-06 5.5117709832189279e-07 0 -9.8275089061935795e-06 -5.4416987737951721e-06 0 -8.9448048619889203e-06 -3.9771421033882066e-06 0 -9.6515814050600549e-06 -4.5241520963751785e-06 0 -4.961549767378692e-07 9.8676333894892128e-08 0 -6.6864152204217758e-07 2.5583260496817693e-07 0 -6.8414702564177469e-07 2.9159623759578853e-08 0 -2.1608190423848446e-05 6.2921815571826128e-05 0 -1.7548922696267629e-05 5.3311818126374195e-05 0 -1.2455410981039006e-05 6.0933885647241689e-05 0 -2.261985414139433e-05 8.4778158052158418e-05 0 -1.292263277664776e-05 8.5091120659558532e-05 0 -1.728696691807671e-05 9.3118721681523649e-05 0 -1.9708507112164742e-05 -3.8858185992918739e-05 0 -2.3746861787594478e-05 -3.8793748099473603e-05 0 -2.2565924211762095e-05 -4.2643984776962326e-05 0 1.2759303809833064e-06 1.1329049295099423e-05 0 -2.707510818784873e-06 4.4522596567856475e-06 0 6.2925474665022528e-07 1.8030041754044414e-06 0 -4.961549767378692e-07 9.8676333894892128e-08 0 -3.0477339387488934e-07 1.0692009128881606e-07 0 -5.3491507516808024e-07 2.3742187341613565e-07 0 -3.1918435374270674e-05 -3.1339523118435247e-05 0 -2.9755853489272938e-05 -3.4169039668969489e-05 0 -2.6133314625972348e-05 -3.0909429582683016e-05 0 -3.4910760203351843e-05 -6.4911762536723776e-05 0 -3.1516329486836131e-05 -6.2040380943057191e-05 0 -3.4933909716915872e-05 -5.9829044843449428e-05 0 5.9365197013317557e-06 0.00014041767403045574 0 -1.5295820112277733e-06 0.00013629756853941624 0 6.0913802649827499e-06 0.00012896087713417729 0 5.9365197013317557e-06 0.00014041767403045574 0 -5.4067154909207277e-06 0.00014305766690038023 0 -1.5295820112277742e-06 0.00013629756853941624 0 -7.8807148316001617e-06 -6.3932028211151904e-05 0 -1.1023926225900806e-05 -6.2482832031626772e-05 0 -1.2613166244448154e-05 -6.5349385757995236e-05 0 -5.9669597007120959e-05 0.00014287459362867936 0 -5.9701999735685414e-05 0.00013116336950709837 0 -5.1850396884627532e-05 0.00013625089924819645 0 -3.4910760203351843e-05 -6.4911762536723776e-05 0 -2.9843085522711548e-05 -6.4882186054903736e-05 0 -3.1516329486836131e-05 -6.2040380943057191e-05 0 -7.8807148316001617e-06 -6.3932028211151904e-05 0 -7.8639002035566177e-06 -5.8925175787592066e-05 0 -1.1023926225900806e-05 -6.2482832031626772e-05 0 -5.9669597007120959e-05 0.00014287459362867936 0 -5.1850396884627532e-05 0.00013625089924819645 0 -4.7979065765017363e-05 0.00014283200032941395 0 -3.7814939253202897e-10 -1.5990491524869389e-11 0 -3.0477339387488934e-07 1.0692009128881606e-07 0 -2.5146465054980219e-07 5.5199245244976531e-10 0 -1.1475386877946477e-05 -8.6693519920576032e-06 0 -1.0442296843047165e-05 -8.6333848269763766e-06 0 -1.0302696401688866e-05 -6.9508427132231109e-06 0 -8.4603280735331045e-06 -2.6160958595798061e-06 0 -1.0119029077707982e-05 -3.7122241603009777e-06 0 -8.278286269800663e-06 -3.0464792716085829e-06 0 -2.3333317592588989e-05 -2.5421470892254801e-05 0 -2.1774957290108096e-05 -2.847679462098015e-05 0 -1.9916062843719727e-05 -2.4905131662179582e-05 0 -1.3650051682137563e-06 1.6750506299655364e-07 0 -2.1720207966371765e-06 3.0471204079346571e-07 0 -1.8615355474112186e-06 -9.4199675174903895e-08 0 -2.4805854070488032e-05 0.0001003781360165067 0 -3.2756572910841973e-05 0.00010800059645808263 0 -3.2848329638702451e-05 9.6303092582904995e-05 0 -1.9877104607107047e-05 -4.5810051287797553e-05 0 -1.7143851961238572e-05 -4.9328131938608381e-05 0 -1.637521025164866e-05 -4.3871841259403103e-05 0 -1.6248115763547183e-05 -1.4595832915794039e-05 0 -1.677539538766072e-05 -1.5804002868307191e-05 0 -1.5957075089380999e-05 -1.4340100619085936e-05 0 -4.8045867117853726e-06 -1.0510665134945239e-05 0 -6.5210493898471526e-06 -1.325698029496276e-05 0 -5.6194975183479999e-06 -1.2684842537884938e-05 0 -7.6792230336486452e-07 -1.9152782836011772e-06 0 -3.1662739712082589e-06 -4.0946132693235542e-06 0 -2.028755845322901e-06 -4.3522262193842683e-06 0 -1.0032983264070369e-05 -4.5926853412956536e-06 0 -8.278286269800663e-06 -3.0464792716085829e-06 0 -1.0119029077707982e-05 -3.7122241603009777e-06 0 -1.469827018033163e-05 -1.1076974182469128e-05 0 -1.5604106497682169e-05 -1.2992245242088398e-05 0 -1.4319175729133237e-05 -1.1411941591482435e-05 0 -3.0156555388571457e-06 -6.3528624788379674e-06 0 -4.8430383683428572e-06 -8.6169952228961918e-06 0 -3.9748413889561853e-06 -8.4091958965335073e-06 0 -1.6626037665220399e-05 -2.1336583996638409e-05 0 -1.3944056464459465e-05 -2.2772928000930788e-05 0 -1.3527758398305418e-05 -1.794222416241098e-05 0 -1.0864010768241605e-06 8.7325338411238757e-07 0 -9.9203258635286401e-07 6.6763160563176127e-07 0 -1.3305746484851597e-06 7.7827802037467636e-07 0 -1.2776126968222954e-05 -4.1512492436449878e-05 0 -1.5674969333831443e-05 -3.7872147247774913e-05 0 -1.637521025164866e-05 -4.3871841259403103e-05 0 -4.1109100865607576e-05 9.2540594161794111e-05 0 -3.2157045491211903e-05 8.4919554024747714e-05 0 -3.2848329638702451e-05 9.6303092582904995e-05 0 -6.1442887552784567e-06 -8.8744967393150595e-06 0 -4.4096601164905422e-06 -6.6916366891505356e-06 0 -6.2598526506895288e-06 -7.239824075901575e-06 0 -5.1480401159718674e-06 -5.3848898251851289e-06 0 -6.2598526506895288e-06 -7.2398240759015741e-06 0 -4.4096601164905422e-06 -6.6916366891505356e-06 0 -2.7069103496169932e-06 3.1013604924959484e-07 0 -2.6383358492267741e-06 3.2156464152170281e-07 0 -3.5056538838011359e-06 2.2933528854352636e-08 0 -1.0951081631294646e-05 -7.8412699612525814e-06 0 -8.8487520389753362e-06 -6.5720412653899079e-06 0 -9.3711014855193787e-06 -5.3944419685296524e-06 0 -1.0087241601999996e-05 -1.7779688688686988e-05 0 -7.1989762790049975e-06 -1.5552696180779379e-05 0 -8.7554339139157897e-06 -1.1850220601216171e-05 0 -9.4982511656185898e-06 -6.7758299627874726e-06 0 -1.0302696401688866e-05 -6.9508427132231109e-06 0 -1.0442296843047165e-05 -8.6333848269763766e-06 0 -5.3663047941760414e-06 -1.2517625365600235e-05 0 -7.1989762790049975e-06 -1.5552696180779379e-05 0 -4.6081604299096487e-06 -1.7455648536209421e-05 0 -5.857980662285966e-06 -1.1020616211493489e-05 0 -6.9014891374332063e-06 -1.0638546154442171e-05 0 -7.6080618255995697e-06 -1.2918580020582756e-05 0 -8.3734947276633085e-06 -1.1958666719177657e-05 0 -7.6080618255995697e-06 -1.2918580020582756e-05 0 -6.9014891374332063e-06 -1.0638546154442171e-05 0 -3.7240551716129022e-06 -2.2492819726764183e-07 0 -4.8317173239752272e-06 -7.1827367381728046e-07 0 -4.9985018032100586e-06 -5.8219368361955131e-07 0 -4.8688832638354142e-06 -1.2007871089817182e-06 0 -5.6999234591590346e-06 -1.7237870689260573e-06 0 -4.6109431506007871e-06 -4.8377533993446362e-07 0 -5.5635394264304001e-06 -7.3452948207914287e-07 0 -4.6109431506007871e-06 -4.8377533993446362e-07 0 -5.6999234591590346e-06 -1.7237870689260573e-06 0 -1.4905300921154716e-06 6.2176268884802597e-06 0 -3.0099071190298319e-06 5.1478023917578141e-06 0 -1.4701324876361977e-06 7.9208574062653209e-06 0 -3.6344470910746131e-06 4.1618942841281238e-06 0 -1.4701324876361977e-06 7.9208574062653209e-06 0 -3.0099071190298319e-06 5.1478023917578141e-06 0 9.2016844366599126e-06 6.4430704183907384e-05 0 9.2009650174413365e-06 7.7291127921041343e-05 0 -2.7782154928559944e-07 7.2141364931690226e-05 0 -2.5391599600294935e-06 3.8099203097319737e-06 0 -1.7048968409314509e-06 3.3711402512720528e-06 0 -2.3669868772363689e-06 2.8257213140898862e-06 0 -3.1918435374270674e-05 -3.1339523118435247e-05 0 -3.3301513100432515e-05 -3.7105686753706682e-05 0 -2.9755853489272938e-05 -3.4169039668969489e-05 0 -3.3979756257790127e-06 8.284638250557452e-08 0 -3.5056538838011359e-06 2.2933528854352636e-08 0 -2.6383358492267741e-06 3.2156464152170281e-07 0 -4.8277292733126265e-06 -3.8386223910075603e-08 0 -3.7572552740900351e-06 -1.5446329976729435e-07 0 -3.1942954055635168e-06 -3.7769188530703044e-07 0 -3.7240551716129022e-06 -2.2492819726764183e-07 0 -2.5570230602307771e-06 6.442272231536931e-08 0 -2.8320897729075803e-06 -1.493979850477969e-07 0 -1.7191131402300925e-06 8.8017900303814911e-07 0 -1.1447794847482953e-06 7.2369797298067855e-07 0 -1.3287321095195016e-06 1.389017551149997e-06 0 -2.0137660298919604e-06 -1.0142733205303288e-06 0 -1.7036972883280254e-06 -4.6502604509543994e-07 0 -8.5182809970733944e-07 -3.2330503523418157e-07 0 -1.2797196041185125e-09 1.191577254327679e-10 0 -8.5182809970733944e-07 -3.2330503523418157e-07 0 -1.7036972883280254e-06 -4.6502604509543994e-07 0 -2.8328287198981089e-06 1.2354800672224282e-06 0 -1.2001347045427176e-06 3.5052249451548756e-07 0 -2.4217850365408439e-06 4.1530340750529866e-07 0 -1.8534071601654101e-09 -2.6526934998233231e-10 0 -2.4217850365408439e-06 4.1530340750529866e-07 0 -1.2001347045427176e-06 3.5052249451548756e-07 0 -1.0951081631294646e-05 -7.8412699612525814e-06 0 -1.3591038540379082e-05 -9.283814930488631e-06 0 -1.2986247216505151e-05 -1.1121975580864937e-05 0 -4.961549767378692e-07 9.8676333894892128e-08 0 -5.3491507516808024e-07 2.3742187341613565e-07 0 -6.6864152204217758e-07 2.5583260496817693e-07 0 -7.3360927830472557e-06 5.2385186733459256e-05 0 8.0766790251116929e-07 4.8324363428109073e-05 0 1.562153470915951e-06 5.6318361790016604e-05 0 -8.1194850854602438e-06 1.3186816917808489e-05 0 -9.354065910271226e-06 9.6960411138963213e-06 0 -5.6743920644696919e-06 8.7292944939790217e-06 0 -2.5391599600294935e-06 3.8099203097319737e-06 0 -1.7009507595424785e-06 4.6301951688832398e-06 0 -1.7048968409314509e-06 3.3711402512720528e-06 0 -1.1732099636877147e-05 -1.359607930393002e-05 0 -1.0702148443569123e-05 -9.6994135353511599e-06 0 -1.2986247216505151e-05 -1.1121975580864937e-05 0 -3.656399194598608e-05 0.00014274971278935091 0 -4.7979065765017363e-05 0.00014283200032941395 0 -4.2207007260605783e-05 0.00013688494601958362 0 -1.6462183999218906e-05 -6.5192476388169617e-05 0 -1.2613166244448154e-05 -6.5349385757995236e-05 0 -1.4536109420838881e-05 -6.3009229615716122e-05 0 -5.4067154909207277e-06 0.00014305766690038023 0 -1.5441615693146867e-05 0.00014310986202211459 0 -1.0372970210261199e-05 0.00013760108097681401 0 -2.9843085522711551e-05 -6.4882186054903736e-05 0 -2.4971066929929039e-05 -6.4833490308492179e-05 0 -2.7362284171853312e-05 -6.2317387222527405e-05 0 -1.3970372229371131e-05 -1.4682497081935336e-05 0 -1.5082658263124175e-05 -1.4683096368343535e-05 0 -1.4451167611740777e-05 -1.5523620203586777e-05 0 -1.0045502002043221e-05 -1.6299231889067658e-05 0 -9.8508908970455978e-06 -1.8235364514491864e-05 0 -8.9833621818300882e-06 -1.6516307500884242e-05 0 -2.3154131286167316e-09 -9.8920334720542023e-10 0 -8.5182809970733965e-07 -3.2330503523418162e-07 0 -1.2797196041185125e-09 1.191577254327679e-10 0 -3.1331470824324006e-09 1.3354903422917026e-09 0 -1.8534071601654101e-09 -2.6526934998233231e-10 0 -1.2001347045427176e-06 3.5052249451548756e-07 0 -3.1331470824324006e-09 1.3354903422917026e-09 0 -1.2001347045427176e-06 3.5052249451548756e-07 0 -2.8328287198981089e-06 1.2354800672224282e-06 0 -2.3154131286167316e-09 -9.8920334720542023e-10 0 -2.0137660298919604e-06 -1.0142733205303288e-06 0 -8.5182809970733944e-07 -3.2330503523418157e-07 0 -1.1055650819488308e-05 -2.4004876854884677e-05 0 -1.3944056464459465e-05 -2.2772928000930784e-05 0 -1.4518046334674008e-05 -2.8129048014822042e-05 0 -4.4066234801766885e-06 -4.5034238032812198e-07 0 -5.4971507416711165e-06 -1.0225782935339296e-06 0 -4.8420652313095621e-06 -9.0368422442955674e-07 0 -9.8275089061935795e-06 -5.4416987737951721e-06 0 -1.0302696401688866e-05 -6.9508427132231109e-06 0 -9.1959233546792045e-06 -5.1774585981817249e-06 0 -9.4982511656185898e-06 -6.7758299627874726e-06 0 -9.1959233546792045e-06 -5.1774585981817249e-06 0 -1.0302696401688866e-05 -6.9508427132231109e-06 0 -2.7069103496169932e-06 3.1013604924959484e-07 0 -3.6059681313915736e-06 -1.0307379245791919e-07 0 -2.901044881581823e-06 2.1379424731705477e-07 0 -1.1374301018477336e-06 6.5689334308333418e-07 0 -1.1610450970805189e-06 6.0507300271486133e-07 0 -1.6399945765227805e-06 6.7210980381077896e-07 0 -1.6527472477349688e-06 6.006679841347148e-07 0 -1.6399945765227805e-06 6.7210980381077896e-07 0 -1.1610450970805189e-06 6.0507300271486133e-07 0 -3.6344470910746131e-06 4.1618942841281238e-06 0 -2.707510818784873e-06 4.4522596567856475e-06 0 -1.4701324876361977e-06 7.9208574062653209e-06 0 1.2759303809833064e-06 1.1329049295099423e-05 0 -1.4701324876361975e-06 7.9208574062653209e-06 0 -2.707510818784873e-06 4.4522596567856475e-06 0 -1.5604099799907367e-05 -1.1381975803722815e-05 0 -1.2986247216505151e-05 -1.1121975580864937e-05 0 -1.3591038540379082e-05 -9.283814930488631e-06 0 -6.1442887552784567e-06 -8.8744967393150595e-06 0 -6.9014891374332063e-06 -1.0638546154442171e-05 0 -4.8430383683428572e-06 -8.6169952228961918e-06 0 -1.33408526359001e-05 -1.0357624947404184e-05 0 -1.4319175729133237e-05 -1.1411941591482435e-05 0 -1.3824348334632685e-05 -1.1451730912781801e-05 0 -1.7675910937115788e-06 7.6310517957484748e-07 0 -2.0489854795758707e-06 8.7610369911376281e-07 0 -1.5700147260779364e-06 1.0252647981932971e-06 0 -8.549285022876351e-06 9.3256501855917435e-05 0 1.1132931736639221e-06 8.8080113461509621e-05 0 2.3483819201641345e-09 9.7012237365158452e-05 0 -2.639130256990946e-05 -4.2924916965366869e-05 0 -3.0439238189865602e-05 -4.0964587824538295e-05 0 -3.053250804713277e-05 -4.507191918829664e-05 0 -7.059859708174415e-06 -6.5763140095796004e-06 0 -6.744200447429152e-06 -4.7266625239788852e-06 0 -7.1385123234507565e-06 -5.4704443918150777e-06 0 -5.1480401159718674e-06 -5.3848898251851289e-06 0 -3.1662739712082589e-06 -4.0946132693235542e-06 0 -4.9370335838616255e-06 -3.0311773762450563e-06 0 -4.1109100865607576e-05 9.2540594161794111e-05 0 -4.8015754604138758e-05 8.5903266021740871e-05 0 -3.9545923262147007e-05 8.2044808301272719e-05 0 -1.2776126968222954e-05 -4.1512492436449878e-05 0 -9.3561809957925214e-06 -3.7723741121086475e-05 0 -1.2408541876924496e-05 -3.6396515171416562e-05 0 -1.1055650819488308e-05 -2.4004876854884677e-05 0 -1.1639293637132733e-05 -2.870295633420315e-05 0 -8.4202608927511392e-06 -2.6582819544524601e-05 0 -1.3265399163069522e-05 -1.3494189538450217e-05 0 -1.3015951427246969e-05 -1.4451472568765523e-05 0 -1.218984156194612e-05 -1.3428800639729153e-05 0 -8.0391605034435831e-06 -1.4750971864112295e-05 0 -6.5210493898471518e-06 -1.325698029496276e-05 0 -7.6080618255995697e-06 -1.2918580020582756e-05 0 -3.5904408615997936e-06 1.350283066440872e-06 0 -2.7613912209512522e-06 7.298705588692049e-07 0 -2.4333233260620314e-06 1.5794050952976745e-06 0 -1.2016912525708669e-05 -1.7071199012802436e-05 0 -1.1053562035676114e-05 -1.7472455834468785e-05 0 -1.1340089880495331e-05 -1.5773289932004806e-05 0 -3.3979756257790127e-06 8.284638250557452e-08 0 -2.6383358492267741e-06 3.2156464152170281e-07 0 -2.6125478711609635e-06 2.818393017817519e-07 0 -2.0101637393510127e-06 4.1809329528426155e-07 0 -2.6125478711609635e-06 2.818393017817519e-07 0 -2.6383358492267741e-06 3.2156464152170281e-07 0 -3.4356205196307594e-06 4.281053411548205e-07 0 -4.0794273940008414e-06 -3.7551622666999262e-07 0 -4.6109431506007871e-06 -4.8377533993446362e-07 0 -1.0951081631294646e-05 -7.8412699612525814e-06 0 -1.2986247216505151e-05 -1.1121975580864937e-05 0 -1.0702148443569123e-05 -9.6994135353511599e-06 0 -2.7069103496169932e-06 3.1013604924959484e-07 0 -2.901044881581823e-06 2.1379424731705474e-07 0 -2.1619136819140688e-06 4.7189089854117745e-07 0 -2.4391122658748143e-06 4.1759204495679584e-07 0 -2.1619136819140688e-06 4.7189089854117745e-07 0 -2.901044881581823e-06 2.1379424731705477e-07 0 -3.6059681313915736e-06 -1.0307379245791919e-07 0 -3.2577865517211177e-06 6.5907467896883984e-09 0 -2.901044881581823e-06 2.1379424731705477e-07 0 -1.3520901620336543e-05 -1.6680008883223712e-05 0 -1.4451167611740777e-05 -1.5523620203586777e-05 0 -1.4908371663223154e-05 -1.6397548667147162e-05 0 -1.5805230279348032e-05 -1.545298540685573e-05 0 -1.4908371663223154e-05 -1.6397548667147162e-05 0 -1.4451167611740777e-05 -1.5523620203586777e-05 0 -8.8562840543349255e-06 -1.8687238824058605e-05 0 -9.8508908970455978e-06 -1.8235364514491864e-05 0 -9.6375924863535743e-06 -2.0365811490830793e-05 0 -1.0514945448766351e-05 -1.8903535465790179e-05 0 -9.6375924863535743e-06 -2.0365811490830793e-05 0 -9.8508908970455978e-06 -1.8235364514491864e-05 0 -3.6344470910746131e-06 4.1618942841281238e-06 0 -4.6688279327376659e-06 7.8204863368217049e-07 0 -2.707510818784873e-06 4.4522596567856475e-06 0 -6.2021757884434052e-06 0.00013023783901998308 0 -1.0372970210261199e-05 0.00013760108097681401 0 -1.6259953928834631e-05 0.00013284593912541451 0 -2.9194414740333973e-05 -5.9196708368116213e-05 0 -2.7362284171853312e-05 -6.2317387222527405e-05 0 -2.4581046673266394e-05 -6.0347441819479348e-05 0 -1.2861889390867758e-05 -5.976567346339453e-05 0 -1.6802315369580334e-05 -6.0861594573844456e-05 0 -1.4536109420838881e-05 -6.3009229615716122e-05 0 -4.6521996150459379e-05 0.00012973169357736715 0 -3.5627832209039192e-05 0.00013225646287435411 0 -4.2207007260605783e-05 0.00013688494601958362 0 -4.1109100865607576e-05 9.2540594161794111e-05 0 -3.9545923262147007e-05 8.2044808301272719e-05 0 -3.2157045491211903e-05 8.4919554024747714e-05 0 -1.2776126968222954e-05 -4.1512492436449878e-05 0 -1.2408541876924496e-05 -3.6396515171416562e-05 0 -1.5674969333831443e-05 -3.7872147247774913e-05 0 -1.1055650819488308e-05 -2.4004876854884677e-05 0 -1.4518046334674008e-05 -2.8129048014822042e-05 0 -1.1639293637132735e-05 -2.870295633420315e-05 0 -4.8688832638354142e-06 -1.2007871089817182e-06 0 -4.6109431506007871e-06 -4.8377533993446362e-07 0 -4.0794273940008414e-06 -3.7551622666999262e-07 0 -1.5441615693146867e-05 0.00014310986202211459 0 -1.6259953928834631e-05 0.00013284593912541451 0 -1.0372970210261199e-05 0.00013760108097681401 0 -2.4971066929929039e-05 -6.4833490308492179e-05 0 -2.4581046673266394e-05 -6.0347441819479348e-05 0 -2.7362284171853312e-05 -6.2317387222527405e-05 0 -3.656399194598608e-05 0.00014274971278935091 0 -4.2207007260605783e-05 0.00013688494601958362 0 -3.5627832209039192e-05 0.00013225646287435411 0 -1.6462183999218906e-05 -6.5192476388169617e-05 0 -1.4536109420838881e-05 -6.3009229615716122e-05 0 -1.6802315369580334e-05 -6.0861594573844456e-05 0 -1.213613808643417e-05 -1.4657583173051672e-05 0 -1.218984156194612e-05 -1.3428800639729153e-05 0 -1.3015951427246969e-05 -1.4451472568765523e-05 0 -5.3663047941760414e-06 -1.2517625365600235e-05 0 -8.7554339139157897e-06 -1.1850220601216171e-05 0 -7.1989762790049975e-06 -1.5552696180779379e-05 0 -1.71610391724533e-05 -1.7430812863521852e-05 0 -1.6640688623826296e-05 -1.6081567169829437e-05 0 -1.6715571514203538e-05 -1.5878039243312717e-05 0 -6.4911063377219855e-06 -1.7196398113642146e-05 0 -7.7161643235729731e-06 -1.8009261056426567e-05 0 -8.3417672457575651e-06 -2.0205659805997514e-05 0 -1.1374301018477336e-06 6.5689334308333418e-07 0 -8.2567678671317544e-07 5.0031899817018553e-07 0 -1.1610450970805189e-06 6.0507300271486133e-07 0 -4.4368755372963045e-05 7.381017098403326e-05 0 -4.4706515726269072e-05 6.2383641148154467e-05 0 -3.6952851367413723e-05 6.4378546369657836e-05 0 -3.5877148211149756e-05 5.5601619342223244e-05 0 -3.6952851367413723e-05 6.4378546369657836e-05 0 -4.4706515726269072e-05 6.2383641148154467e-05 0 -1.1147779221439576e-05 -1.2164186077621682e-05 0 -1.2281659495301216e-05 -1.2171310668754312e-05 0 -1.218984156194612e-05 -1.3428800639729153e-05 0 -3.0681523149731643e-06 1.7274997233716918e-07 0 -3.2577865517211177e-06 6.5907467896883984e-09 0 -3.7533149963552836e-06 -3.6914079755009646e-07 0 -9.8275089061935795e-06 -5.4416987737951721e-06 0 -9.1959233546792045e-06 -5.1774585981817249e-06 0 -8.9448048619889203e-06 -3.9771421033882066e-06 0 -8.2130601443212038e-06 -3.231056275780176e-06 0 -8.9448048619889203e-06 -3.9771421033882066e-06 0 -9.1959233546792045e-06 -5.1774585981817249e-06 0 -3.2282725768905254e-05 7.3283556085727443e-05 0 -3.2157045491211903e-05 8.4919554024747714e-05 0 -3.9545923262147007e-05 8.2044808301272719e-05 0 -1.4334593111736506e-05 -3.2702910129342333e-05 0 -1.5674969333831443e-05 -3.7872147247774913e-05 0 -1.2408541876924496e-05 -3.6396515171416562e-05 0 -1.4334593111736506e-05 -3.2702910129342333e-05 0 -1.1639293637132735e-05 -2.870295633420315e-05 0 -1.4518046334674008e-05 -2.8129048014822042e-05 0 -2.4502710910956049e-06 -3.3309042003312779e-07 0 -3.7269352566749161e-06 -5.2830699443634664e-07 0 -2.8320897729075803e-06 -1.493979850477969e-07 0 -3.3983451567015525e-06 1.1608265623851911e-07 0 -3.7572552740900351e-06 -1.5446329976729435e-07 0 -5.182697879911836e-06 3.0617535463317406e-07 0 -7.0157214471238472e-06 1.0001668072307002e-06 0 -5.182697879911836e-06 3.0617535463317406e-07 0 -6.6540954860647068e-06 5.6411128529333735e-07 0 -4.8839486673984888e-06 -1.0414709217147037e-06 0 -4.8317173239752272e-06 -7.1827367381728046e-07 0 -3.7269352566749157e-06 -5.2830699443634653e-07 0 -4.1554667151394986e-06 -6.6454944912656829e-07 0 -4.0794273940008414e-06 -3.7551622666999262e-07 0 -3.4464439347303674e-06 3.9522210816385941e-08 0 -4.4368755372963045e-05 7.381017098403326e-05 0 -3.9545923262147007e-05 8.2044808301272719e-05 0 -4.8015754604138758e-05 8.5903266021740871e-05 0 -9.728417936755227e-06 -3.2161580577830182e-05 0 -1.2408541876924496e-05 -3.6396515171416562e-05 0 -9.3561809957925214e-06 -3.7723741121086475e-05 0 -9.728417936755227e-06 -3.2161580577830182e-05 0 -8.4202608927511392e-06 -2.6582819544524601e-05 0 -1.1639293637132735e-05 -2.870295633420315e-05 0 -1.6626037665220399e-05 -2.1336583996638409e-05 0 -1.9866212294690737e-05 -2.1410499411904721e-05 0 -1.9916062843719727e-05 -2.4905131662179582e-05 0 -1.3265399163069522e-05 -1.3494189538450217e-05 0 -1.218984156194612e-05 -1.3428800639729153e-05 0 -1.2281659495301216e-05 -1.2171310668754312e-05 0 -3.5904408615997936e-06 1.350283066440872e-06 0 -3.7383130164201847e-06 2.4284628383744315e-06 0 -5.1838076984912969e-06 1.9013177516104196e-06 0 -5.2651233181718663e-06 -1.9754925055617118e-06 0 -4.5346980058865786e-06 -1.0553592912348565e-06 0 -5.222267752401679e-06 -1.5524067251838166e-06 0 -3.7240551716129022e-06 -2.2492819726764183e-07 0 -4.9985018032100578e-06 -5.8219368361955142e-07 0 -4.1174679122538376e-06 -1.9064006029190129e-07 0 -3.2008563335421878e-05 3.7340830909735905e-05 0 -2.6094781264654734e-05 3.7963054992852613e-05 0 -3.0642160236466303e-05 4.6468035251611596e-05 0 -2.0563540478655916e-05 -1.7474213079501488e-05 0 -1.9866212294690737e-05 -2.1410499411904721e-05 0 -1.804659286094307e-05 -1.7827077328771347e-05 0 -8.549285022876351e-06 9.3256501855917435e-05 0 -1.728696691807671e-05 9.3118721681523649e-05 0 -1.292263277664776e-05 8.5091120659558546e-05 0 -2.639130256990946e-05 -4.2924916965366869e-05 0 -2.2565924211762095e-05 -4.2643984776962326e-05 0 -2.3746861787594478e-05 -3.8793748099473603e-05 0 -7.3360927830472557e-06 5.2385186733459256e-05 0 -1.2455410981039006e-05 6.0933885647241689e-05 0 -1.7548922696267629e-05 5.3311818126374195e-05 0 -5.9786275505371197e-06 -1.0536003639254247e-06 0 -6.5756281148190143e-06 -1.2199158331958665e-06 0 -7.5833002725608493e-06 -1.8422127996837858e-06 0 -4.182938453957895e-06 -6.2871934094344792e-07 0 -3.7533149963552836e-06 -3.6914079755009646e-07 0 -3.2577865517211177e-06 6.5907467896883984e-09 0 -1.8118623389577252e-05 -2.8155234553415607e-05 0 -1.9916062843719727e-05 -2.4905131662179582e-05 0 -2.1774957290108096e-05 -2.847679462098015e-05 0 -1.5805230279348032e-05 -1.545298540685573e-05 0 -1.6715571514203538e-05 -1.5878039243312717e-05 0 -1.6640688623826296e-05 -1.6081567169829437e-05 0 -8.8562840543349255e-06 -1.8687238824058605e-05 0 -8.3417672457575651e-06 -2.0205659805997514e-05 0 -7.7161643235729731e-06 -1.8009261056426567e-05 0 -2.4391122658748143e-06 4.1759204495679584e-07 0 -2.901044881581823e-06 2.1379424731705477e-07 0 -3.2577865517211177e-06 6.5907467896883984e-09 0 -4.7979065765017363e-05 0.00014283200032941395 0 -5.1850396884627532e-05 0.00013625089924819645 0 -4.2207007260605783e-05 0.00013688494601958362 0 -4.6521996150459379e-05 0.00012973169357736715 0 -4.2207007260605783e-05 0.00013688494601958362 0 -5.1850396884627532e-05 0.00013625089924819645 0 -1.2861889390867758e-05 -5.976567346339453e-05 0 -1.4536109420838881e-05 -6.3009229615716122e-05 0 -1.1023926225900806e-05 -6.2482832031626772e-05 0 -1.2613166244448154e-05 -6.5349385757995236e-05 0 -1.1023926225900806e-05 -6.2482832031626772e-05 0 -1.4536109420838881e-05 -6.3009229615716122e-05 0 -5.4067154909207277e-06 0.00014305766690038023 0 -1.0372970210261199e-05 0.00013760108097681401 0 -1.5295820112277742e-06 0.00013629756853941624 0 -2.9843085522711551e-05 -6.4882186054903736e-05 0 -2.7362284171853312e-05 -6.2317387222527405e-05 0 -3.1516329486836131e-05 -6.2040380943057191e-05 0 -6.2021757884434052e-06 0.00013023783901998308 0 -1.5295820112277742e-06 0.00013629756853941624 0 -1.0372970210261199e-05 0.00013760108097681401 0 -2.9194414740333973e-05 -5.9196708368116213e-05 0 -3.1516329486836131e-05 -6.2040380943057191e-05 0 -2.7362284171853312e-05 -6.2317387222527405e-05 0 -1.1147779221439576e-05 -1.2164186077621682e-05 0 -1.218984156194612e-05 -1.3428800639729153e-05 0 -1.1183093406407935e-05 -1.3620583631097915e-05 0 -1.347373978787842e-05 -1.2071413852039112e-05 0 -1.2731362277367834e-05 -1.0396861405270121e-05 0 -1.3824348334632685e-05 -1.1451730912781801e-05 0 -1.33408526359001e-05 -1.0357624947404184e-05 0 -1.3824348334632685e-05 -1.1451730912781801e-05 0 -1.2731362277367834e-05 -1.0396861405270121e-05 0 -1.213613808643417e-05 -1.4657583173051672e-05 0 -1.3015951427246969e-05 -1.4451472568765523e-05 0 -1.2994561983492439e-05 -1.5598540796292617e-05 0 -1.3970372229371131e-05 -1.4682497081935336e-05 0 -1.2994561983492439e-05 -1.5598540796292617e-05 0 -1.3015951427246969e-05 -1.4451472568765523e-05 0 -1.4905300921154716e-06 6.2176268884802597e-06 0 -2.4769340297766577e-06 4.7195753040080484e-06 0 -3.0099071190298319e-06 5.1478023917578141e-06 0 -5.7474725151056453e-06 3.6158316125637848e-06 0 -8.4712351426492746e-06 5.0353413629624206e-06 0 -7.5739851175101857e-06 2.9496266356575392e-06 0 -1.0599161081962088e-05 4.3237718882528847e-06 0 -7.5739851175101857e-06 2.9496266356575392e-06 0 -8.4712351426492746e-06 5.0353413629624206e-06 0 -5.9786275505371197e-06 -1.0536003639254247e-06 0 -6.9584999970568014e-06 -1.8716625555260467e-06 0 -5.4971507416711165e-06 -1.0225782935339296e-06 0 -3.2008563335421878e-05 3.7340830909735905e-05 0 -2.5788438997150133e-05 3.072154419319772e-05 0 -2.6094781264654734e-05 3.7963054992852607e-05 0 -1.9693886224486546e-05 3.182499647039128e-05 0 -2.6094781264654734e-05 3.7963054992852607e-05 0 -2.5788438997150133e-05 3.072154419319772e-05 0 -2.5391599600294935e-06 3.8099203097319737e-06 0 -2.4769340297766577e-06 4.7195753040080484e-06 0 -1.7009507595424785e-06 4.6301951688832398e-06 0 -8.3734947276633085e-06 -1.1958666719177657e-05 0 -8.9586137835237855e-06 -1.4021407133967036e-05 0 -7.6080618255995697e-06 -1.2918580020582756e-05 0 -8.0391605034435831e-06 -1.4750971864112295e-05 0 -7.6080618255995697e-06 -1.2918580020582756e-05 0 -8.9586137835237855e-06 -1.4021407133967036e-05 0 -1.419237726044286e-06 3.9258591202627097e-06 0 -1.7009507595424785e-06 4.6301951688832398e-06 0 -1.3237304109589246e-06 5.4369873321915328e-06 0 -1.5145433170813776e-05 -1.5153762651323405e-05 0 -1.7735578132177201e-05 -1.475924715550996e-05 0 -1.804659286094307e-05 -1.7827077328771347e-05 0 -2.0563540478655916e-05 -1.7474213079501488e-05 0 -1.804659286094307e-05 -1.7827077328771347e-05 0 -1.7735578132177201e-05 -1.475924715550996e-05 0 -1.7271234584332537e-06 2.5641408768194974e-06 0 -2.3669868772363689e-06 2.8257213140898862e-06 0 -1.7048968409314509e-06 3.3711402512720528e-06 0 -1.419237726044286e-06 3.9258591202627097e-06 0 -1.7048968409314509e-06 3.3711402512720528e-06 0 -1.7009507595424785e-06 4.6301951688832398e-06 0 -1.33408526359001e-05 -1.0357624947404184e-05 0 -1.3466188410267656e-05 -9.7935109465597584e-06 0 -1.4319175729133237e-05 -1.1411941591482435e-05 0 -4.182938453957895e-06 -6.2871934094344792e-07 0 -4.5346980058865786e-06 -1.0553592912348565e-06 0 -3.7533149963552836e-06 -3.6914079755009646e-07 0 -4.1554667151394986e-06 -6.6454944912656829e-07 0 -3.7533149963552836e-06 -3.6914079755009646e-07 0 -4.5346980058865786e-06 -1.0553592912348565e-06 0 -3.4356205196307594e-06 4.281053411548205e-07 0 -3.4464439347303674e-06 3.9522210816385941e-08 0 -4.0794273940008414e-06 -3.7551622666999262e-07 0 8.8077788708996239e-06 9.0246098741781261e-05 0 2.3483819201640324e-09 9.7012237365158452e-05 0 1.1132931736639221e-06 8.8080113461509621e-05 0 -3.4232378050658534e-05 -4.3036755343212998e-05 0 -3.053250804713277e-05 -4.5071919188296634e-05 0 -3.0439238189865602e-05 -4.0964587824538295e-05 0 -8.157417157863525e-06 -1.9022415015769311e-06 0 -7.5833002725608493e-06 -1.8422127996837858e-06 0 -6.5756281148190143e-06 -1.2199158331958667e-06 0 -4.1422804679037836e-10 1.0542491757457578e-10 0 -3.1154558740261158e-07 2.2232717381838565e-07 0 -2.6397254562397187e-07 1.8074104477021226e-07 0 8.7926589881465405e-06 5.199314915622863e-05 0 1.562153470915951e-06 5.6318361790016604e-05 0 8.076679025111695e-07 4.8324363428109073e-05 0 -1.213613808643417e-05 -1.4657583173051672e-05 0 -1.1183093406407935e-05 -1.3620583631097915e-05 0 -1.218984156194612e-05 -1.3428800639729153e-05 0 -6.6903416445017755e-06 1.5620475822563607e-06 0 -7.5739851175101857e-06 2.9496266356575388e-06 0 -9.3990551770907044e-06 2.6929151622208514e-06 0 -1.0599161081962088e-05 4.3237718882528847e-06 0 -9.3990551770907027e-06 2.6929151622208514e-06 0 -7.5739851175101857e-06 2.9496266356575392e-06 0 -1.469827018033163e-05 -1.1076974182469128e-05 0 -1.4319175729133237e-05 -1.1411941591482435e-05 0 -1.3466188410267656e-05 -9.7935109465597584e-06 0 
</DataArray>
</PointData>
<CellData Scalars="region_id,cross_section_updated," Vectors="" Tensors="stress,">
<DataArray type="Float64" Name="region_id" format="ascii">
2 2 2 2 2 2 2 2 2 2 3 3 3 3 3 3 3 3 3 3 1 1 1 1 1 1 1 1 1 1 1 1 1 1 1 1 1 1 1 1 1 1 1 1 1 1 1 1 1 1 1 1 1 1 1 1 1 1 1 1 1 1 1 1 1 1 1 1 1 1 1 1 1 1 1 1 1 1 1 1 1 1 1 1 1 1 1 1 1 1 1 1 1 1 1 1 1 1 1 1 1 1 1 1 1 1 1 1 1 1 1 1 1 1 1 1 1 1 1 1 1 1 1 1 1 1 1 1 1 1 1 1 1 1 1 1 1 1 1 1 1 1 1 1 1 1 1 1 1 1 1 1 1 1 1 1 1 1 1 1 1 1 1 1 1 1 1 1 1 1 1 1 1 1 1 1 1 1 1 1 1 1 1 1 1 1 1 1 1 1 1 1 1 1 1 1 1 1 1 1 1 1 1 1 1 1 1 1 1 1 1 1 1 1 1 1 1 1 1 1 1 1 1 1 1 1 1 1 1 1 1 1 1 1 1 1 1 1 1 1 1 1 1 1 1 1 1 1 1 1 1 1 1 1 1 1 1 1 1 1 1 1 1 1 1 1 1 1 1 1 1 1 1 1 1 1 1 1 1 1 1 1 1 1 1 1 1 1 1 1 1 1 1 1 1 1 1 1 1 1 1 1 1 1 1 1 1 1 1 1 1 1 1 1 1 1 1 1 1 1 1 1 1 1 1 1 1 1 1 1 1 1 1 1 1 1 1 1 1 1 1 1 1 1 1 1 1 1 1 1 1 1 1 1 1 1 1 1 1 1 1 1 1 1 1 1 1 1 1 1 1 1 1 1 1 1 1 1 1 1 1 1 1 1 1 1 1 1 1 1 1 1 1 1 1 1 1 1 1 1 1 1 1 1 1 1 1 1 1 1 1 1 1 1 1 1 1 1 1 1 1 1 1 1 1 1 1 1 1 1 1 1 1 1 1 1 1 1 1 1 1 1 1 1 1 1 1 1 1 1 1 1 1 1 1 1 1 1 1 1 1 1 1 1 1 1 1 1 1 1 1 1 1 1 1 1 1 1 1 1 1 1 1 1 1 1 1 1 1 1 1 1 1 1 1 1 1 1 1 1 1 1 1 1 1 1 1 1 1 1 1 1 1 1 1 1 1 1 1 1 1 1 1 1 1 1 1 1 1 1 1 1 1 1 1 1 1 1 1 1 1 1 1 1 1 1 1 1 1 1 1 1 1 1 1 1 1 1 1 1 1 1 1 1 1 1 1 1 1 1 1 1 1 1 1 1 1 1 1 1 1 1 1 1 1 1 1 1 1 1 1 1 1 1 1 1 1 1 1 1 1 1 1 1 1 1 1 1 1 1 1 1 1 1 1 1 1 1 1 1 1 1 1 1 1 1 1 1 1 1 1 1 1 1 1 1 1 1 1 1 1 1 1 1 1 1 1 1 1 1 1 1 1 1 1 1 1 1 1 1 1 1 1 1 1 1 1 1 1 1 1 1 1 1 1 1 1 1 1 1 1 1 1 1 1 1 1 1 1 1 1 1 1 1 1 1 1 1 1 1 1 1 1 1 1 1 1 1 1 1 1 1 1 1 1 1 1 1 1 1 1 1 1 1 1 1 1 1 1 1 1 1 1 1 1 1 1 1 1 1 1 1 1 1 1 1 1 1 1 1 1 1 1 1 1 1 1 1 1 1 1 1 1 1 1 1 1 1 1 1 1 1 1 1 1 1 1 1 1 1 1 1 1 1 1 1 1 1 1 1 1 1 1 1 1 1 1 1 1 1 1 1 1 1 1 1 1 1 1 1 1 1 1 1 1 1 1 1 1 1 1 1 1 1 1 1 1 1 1 1 1 1 1 1 1 1 1 1 1 1 1 1 1 1 1 1 1 1 1 1 1 1 1 1 1 1 1 1 1 1 1 1 1 1 1 1 1 1 1 1 1 1 1 1 1 1 1 1 1 1 1 1 1 1 1 1 1 1 1 1 1 1 1 1 1 1 1 1 1 1 1 1 1 1 1 1 1 1 1 1 1 1 1 1 1 1 1 1 1 1 1 1 1 1 1 1 1 1 1 1 1 1 1 1 1 1 1 1 1 1 1 1 1 1 1 1 1 1 1 1 1 1 1 1 1 1 1 1 1 1 1 1 1 1 1 1 1 1 1 1 1 1 1 1 1 1 1 1 1 1 1 1 1 1 1 1 1 1 1 1 1 1 1 1 1 1 1 1 1 1 1 1 1 1 1 1 1 1 1 1 1 1 1 1 1 1 1 1 1 1 1 1 1 1 1 1 1 1 1 1 1 1 1 1 1 1 1 1 1 1 1 1 1 1 1 1 1 1 1 1 1 1 1 1 
</DataArray>
<DataArray type="Float64" Name="stress" NumberOfComponents="9" format="ascii">
-1.449105083795057e-05 -1.7095239948022509e-05 0 -1.7095239948022509e-05 -4.8303502793168633e-06 0 0 0 -4.8303502793168633e-06 -1.520019136753246e-05 -2.4217122854032247e-05 0 -2.4217122854032247e-05 -5.066730455844149e-06 0 0 0 -5.066730455844149e-06 -1.8180317703403589e-05 -3.0775671629444852e-05 0 -3.0775671629444852e-05 -6.0601059011345206e-06 0 0 0 -6.0601059011345206e-06 -1.7223298365339862e-05 -3.3183331840802745e-05 0 -3.3183331840802745e-05 -5.7410994551132917e-06 0 0 0 -5.7410994551132917e-06 -1.5715879274548781e-05 -2.845530281763548e-05 0 -2.845530281763548e-05 -5.2386264248495938e-06 0 0 0 -5.2386264248495938e-06 -1.5189317487912079e-05 -3.3593267356854376e-05 0 -3.3593267356854376e-05 -5.0631058293040354e-06 0 0 0 -5.0631058293040354e-06 -1.7888658419682357e-05 -2.8791171888447611e-05 0 -2.8791171888447611e-05 -5.9628861398941237e-06 0 0 0 -5.9628861398941237e-06 -1.4916123099724171e-05 -3.7223143621420765e-05 0 -3.7223143621420765e-05 -4.9720410332413994e-06 0 0 0 -4.9720410332413994e-06 -1.4407105239669057e-05 -2.1930772098993927e-05 0 -2.1930772098993927e-05 -4.8023684132229963e-06 0 0 0 -4.8023684132229963e-06 5.554920913861507e-06 4.4133373815666266e-06 0 4.4133373815666266e-06 1.8516403046205023e-06 0 0 0 1.8516403046205023e-06 3.9137017455930786e-05 3.1978908247723678e-05 0 3.1978908247723678e-05 1.3045672485310261e-05 0 0 0 1.3045672485310261e-05 -5.9671223303740535e-07 3.4263453414336574e-05 0 3.4263453414336574e-05 -1.9890407767913173e-07 0 0 0 -1.9890407767913173e-07 -5.4994732672971334e-06 2.4186123029001254e-05 0 2.4186123029001254e-05 -1.8331577557657168e-06 0 0 0 -1.8331577557657168e-06 -1.0360191833664584e-05 5.3044342328119088e-05 0 5.3044342328119088e-05 -3.4533972778881911e-06 0 0 0 -3.4533972778881911e-06 -1.5598678901039636e-05 4.1582085671239575e-05 0 4.1582085671239575e-05 -5.1995596336798809e-06 0 0 0 -5.1995596336798809e-06 -1.9872140127071102e-05 4.3291735109852536e-05 0 4.3291735109852536e-05 -6.6240467090237012e-06 0 0 0 -6.6240467090237012e-06 -2.5691184751707055e-05 4.0891112405413684e-05 0 4.0891112405413684e-05 -8.5637282505690177e-06 0 0 0 -8.5637282505690177e-06 -2.8960156003297452e-05 6.9884772813814825e-05 0 6.9884772813814825e-05 -9.6533853344324842e-06 0 0 0 -9.6533853344324842e-06 -1.3035056313793285e-05 2.698335626486419e-05 0 2.698335626486419e-05 -4.3450187712644296e-06 0 0 0 -4.3450187712644296e-06 -5.8080957403988045e-05 -3.6933501172178472e-05 0 -3.6933501172178472e-05 -1.9360319134662681e-05 0 0 0 -1.9360319134662681e-05 -0.016725399276555471 -0.0041641514062930049 0 -0.0041641514062930049 0.0082328747106649169 0 0 0 -0.002123131141472636 -0.014888522751031454 -0.004220489036894824 0 -0.004220489036894824 0.01528500779579138 0 0 0 9.9121261189979992e-05 -0.025932237817623244 -0.0043413893351381232 0 -0.0043413893351381232 0.013578326981386529 0 0 0 -0.0030884777090591647 -0.02495236603352485 -0.00025265101442674409 0 -0.00025265101442674409 0.014721375385807204 0 0 0 -0.0025577476619294097 -0.055047684199419675 -0.0022461176788299096 0 -0.0022461176788299096 0.00086224652723366005 0 0 0 -0.013546359418046501 -0.038103062748498652 0.00049982393969424639 0 0.00049982393969424639 0.00012340092224153679 0 0 0 -0.009494915456564279 -0.057911628206688874 -0.0012034834200955608 0 -0.0012034834200955608 -0.00051771914465133153 0 0 0 -0.014607336837835053 -0.039216164140593882 0.00011800313785638829 0 0.00011800313785638829 -0.00032381347018371059 0 0 0 -0.0098849944026943998 -0.048520922109740988 0.001660438468133324 0 0.001660438468133324 -0.00022308337176638743 0 0 0 -0.012186001370376835 -0.084683123105463276 -0.0043774745628830953 0 -0.0043774745628830953 -0.00032234292899782635 0 0 0 -0.021251366508615286 -0.005176368378141118 0.0012604504575237925 0 0.0012604504575237925 -0.0066607221369149351 0 0 0 -0.0029592726287640128 -0.0070248285054362444 0.001440766434341942 0 0.001440766434341942 -0.0055060988010472364 0 0 0 -0.0031327318266208683 -0.018207450158721033 0.0022558260416197474 0 0.0022558260416197474 -0.0032215833495166275 0 0 0 -0.0053572583770594125 -0.018133442299689176 -0.0032072274620903369 0 -0.0032072274620903369 -0.0060462585146391287 0 0 0 -0.006044925203582077 -0.018589753252210021 0.0026525457807378612 0 0.0026525457807378612 -0.0061966947261221164 0 0 0 -0.0061966119945830343 -0.025346839601920593 -0.0063393956146151481 0 -0.0063393956146151481 0.01038213832933136 0 0 0 -0.0037411753181473134 0.05553658736816125 0.042003471120679259 0 0.042003471120679259 0.08172127224808251 0 0 0 0.034314464904060912 -0.0029458875938606077 -0.0062661175904785149 0 -0.0062661175904785149 -0.0096301334500197289 0 0 0 -0.0031440052609700841 -0.0014444398493810295 0.0048512787591480366 0 0.0048512787591480366 -0.0044980931365001808 0 0 0 -0.0014856332464703303 -0.0036753324435705448 0.0081268385402498006 0 0.0081268385402498006 -0.011190770919142778 0 0 0 -0.0037165258406781643 -0.0009027568876828207 -0.0036903284981358586 0 -0.0036903284981358586 -0.0035007413316074931 0 0 0 -0.0011008745548225507 -0.0068880032974450445 0.013451922058398513 0 0.013451922058398513 -0.005475575084358475 0 0 0 -0.0030908945954508105 -0.0065501139197657876 -0.01265488313688129 0 -0.01265488313688129 -0.0065931159085553803 0 0 0 -0.003285807457080292 -0.01631744358384906 0.0031862355391030356 0 0.0031862355391030356 -0.0034426657916535241 0 0 0 -0.0049400273438756455 0.060521029991844187 -0.0024980949671271277 0 -0.0024980949671271277 0.048836504429078553 0 0 0 0.027339383605230673 -0.10109005670311912 0.0049852184599842586 0 0.0049852184599842586 0.0029255256266086382 0 0 0 -0.024541132769127616 -0.054608039530926931 -0.0017830449109976687 0 -0.0017830449109976687 0.0011418903807270397 0 0 0 -0.01336653728754994 -0.039057955447634088 -0.0078597113249489516 0 -0.0078597113249489516 0.0080957641821662041 0 0 0 -0.0077405478163669744 -0.045911770449785103 0.0068847865299622134 0 0.0068847865299622134 0.024137703114310793 0 0 0 -0.0054435168338685669 -0.048925913910377171 -0.009959371367726861 0 -0.009959371367726861 0.0029750324971174608 0 0 0 -0.011487720353314912 -0.019152683664326327 -0.0063403380494816532 0 -0.0063403380494816532 0.020987561805456783 0 0 0 0.00045871953528261143 -0.01364408253561547 -0.015838339299404314 0 -0.015838339299404314 -0.00040547160880888278 0 0 0 -0.0035123885361061091 -0.015826532394911719 0.021744292357717132 0 0.021744292357717132 -0.0029215976936876054 0 0 0 -0.0046870325221498588 -0.013934013714055393 -0.016419493368560079 0 -0.016419493368560079 0.0017885711377690905 0 0 0 -0.0030363606440716451 -0.0202729666667677 0.022691711353976185 0 0.022691711353976185 -0.0027727153433554363 0 0 0 -0.0057614205025307008 -0.035896945826318263 -0.012745184729033045 0 -0.012745184729033045 0.0009757862300780254 0 0 0 -0.008730289899060063 -0.011779739991095403 -0.014850134159135234 0 -0.014850134159135234 0.025857723410536854 0 0 0 0.0035194958548603649 -0.052390021509402654 0.0024693697567736289 0 0.0024693697567736289 0.0057952296359312927 0 0 0 -0.01164869796836783 0.11053629493207154 0.044269064890543844 0 0.044269064890543844 0.032941665695103706 0 0 0 0.035869490156793804 -0.00025106886901932191 0.0056434984706395797 0 0.0056434984706395797 -0.0056395310102695939 0 0 0 -0.0014726499698222151 -0.00072969978552425707 -0.0073365251906725611 0 -0.0073365251906725611 0.0020560430674076979 0 0 0 0.00033158582047085328 -0.016994255187011552 -0.0065426666578470632 0 -0.0065426666578470632 0.03121082875615357 0 0 0 0.0035541433922855123 0.0012711868590713493 -0.0098721358539799464 0 -0.0098721358539799464 0.029559661132233517 0 0 0 0.007707711997826161 -0.0046929507448616459 0.0026232201671585464 0 0.0026232201671585464 -0.0019153419686772644 0 0 0 -0.001652073178384672 -0.012567802263348478 -0.0024948604785763042 0 -0.0024948604785763042 -0.0071014327555592666 0 0 0 -0.0049173087547269359 -0.01410650637239016 0.0035539905101625753 0 0.0035539905101625753 -0.0049616343627190418 0 0 0 -0.0047670351837773 -0.031049693693052174 0.023968653206757562 0 0.023968653206757562 0.025259480960376259 0 0 0 -0.0014475531831689842 -0.027045101867611859 0.020168058275558454 0 0.020168058275558454 0.019159604514065634 0 0 0 -0.0019713743383865667 0.050372789689695989 0.056739225620525274 0 0.056739225620525274 0.094732652050764615 0 0 0 0.036276360435115139 -0.0070945258921903502 0.0050724048234975783 0 0.0050724048234975783 0.00039401478503865717 0 0 0 -0.0016751277767877541 -0.0085276660306220376 -0.012846460298413631 0 -0.012846460298413631 0.021901875519594306 0 0 0 0.0033435523722430537 -0.012405635457791747 -0.0063492283516739245 0 -0.0063492283516739245 -0.014666414650713777 0 0 0 -0.0067680125271263603 -0.018461723354808279 -0.0062986951242100459 0 -0.0062986951242100459 0.024264080253449644 0 0 0 0.0014505892246603411 -0.01579784723099183 -0.0098237274909197241 0 -0.0098237274909197241 0.004713111880388976 0 0 0 -0.0027711838376507161 -0.012119954050150386 -0.0036759695673798838 0 -0.0036759695673798838 0.00476840499382436 0 0 0 -0.001837887264081503 -0.054537933765316987 0.0079592079891170342 0 0.0079592079891170342 -0.00058417448488834456 0 0 0 -0.013780527062551173 -0.0050826399667707189 -0.0032691684067708837 0 -0.0032691684067708837 0.00021528827265293593 0 0 0 -0.0012168379235295013 -0.0036306622982911207 0.015076010559605502 0 0.015076010559605502 0.042763234594930921 0 0 0 0.0097831430741598391 -0.0022786479855025441 -0.010908229908705269 0 -0.010908229908705269 0.040087059981203127 0 0 0 0.0094521029989251739 -0.0009036396134354252 0.0011788071937407229 0 0.0011788071937407229 -0.00042243228916527542 0 0 0 -0.00033151797565023067 -0.01291718941254491 0.00094634700953109829 0 0.00094634700953109829 -0.0073293283775959783 0 0 0 -0.0050616294475352153 0.0040147163779061627 -0.023065907005216837 0 -0.023065907005216837 0.037353577453896628 0 0 0 0.010342073457950681 -0.011072911493481052 -0.00010102967455172251 0 -0.00010102967455172251 -0.0037596833021576459 0 0 0 -0.0037081486989096746 -0.014013455780670578 -0.004924213204575539 0 -0.004924213204575539 0.0009488279457538773 0 0 0 -0.0032661569587291578 -0.019065758733829596 -0.014397190447385671 0 -0.014397190447385671 0.0048658260810902076 0 0 0 -0.0035499831631848611 -0.035974047995995038 -0.0016961129850628471 0 -0.0016961129850628471 -0.0057470366132827046 0 0 0 -0.010430271152319436 -0.05101354078656798 0.00011874462392103295 0 0.00011874462392103295 -0.007925404088331792 0 0 0 -0.014734736218724941 0.00060092134852564544 0.002113905598481236 0 0.002113905598481236 -0.016056526761448787 0 0 0 -0.0038639013532307648 0.00095965952074547611 -0.0030673302801088598 0 -0.0030673302801088598 -0.010942800120862795 0 0 0 -0.0024957851500293227 -0.036978752339201018 -0.0041124415363252061 0 -0.0041124415363252061 -0.0091882608330399462 0 0 0 -0.011541753293060241 -0.028465986373732526 0.0013376189072237003 0 0.0013376189072237003 -0.0065370795564522934 0 0 0 -0.0087507664825462045 -0.0088835610365381526 -0.00013287327264033946 0 -0.00013287327264033946 -0.0072291472693039385 0 0 0 -0.0040281770764605236 -0.038592730680972319 0.0016274347651407846 0 0.0016274347651407846 0.0001002350449681921 0 0 0 -0.009623123909001035 -0.056595527750677714 -0.0041958415377497914 0 -0.0041958415377497914 0.00065465283999219248 0 0 0 -0.013985218727671372 -0.014473589703916934 -0.0083246364578493624 0 -0.0083246364578493624 -0.0011004338563581628 0 0 0 -0.0038935058900687602 -0.015181632128559878 -0.0095564417914672933 0 -0.0095564417914672933 0.0048529695786209415 0 0 0 -0.002582165637484736 0.0075776106855943437 0.0099761988567657056 0 0.0099761988567657056 0.054927612520711933 0 0 0 0.015626305801576618 -0.003601757366312297 -0.0018912408989989471 0 -0.0018912408989989471 -0.0013825480958767344 0 0 0 -0.0012460763655472995 -0.015018434178138994 -0.0082729734194182079 0 -0.0082729734194182079 -0.0011675273027984545 0 0 0 -0.0040464903702343569 -0.013216793778472111 -0.0059405711250672399 0 -0.0059405711250672399 -0.0068557490745629474 0 0 0 -0.0050181357132587506 -0.02944154750828798 0.025852472699948087 0 0.025852472699948087 0.00050354121873841251 0 0 0 -0.007234501572387475 -0.044344843825090449 -0.0009402331689365354 0 -0.0009402331689365354 -0.014789494881235722 0 0 0 -0.014783584676581543 -0.032299576248679164 -0.00070587296228072664 0 -0.00070587296228072664 -0.010771616259975995 0 0 0 -0.01076779812716379 -0.012224387849395758 -0.0026801610934619091 0 -0.0026801610934619091 -0.0084304912366810602 0 0 0 -0.0051637197715192051 -0.0084121197579541951 0.016651108317778496 0 0.016651108317778496 -0.0085842632222337123 0 0 0 -0.0042490957450470601 -0.005965785590313577 -0.009980250803865498 0 -0.009980250803865498 -0.0035655397485535589 0 0 0 -0.002382831334716784 -0.014377029067448881 -0.01361306437739096 0 -0.01361306437739096 0.0032251911714435283 0 0 0 -0.0027879594740013326 -0.0074545566715388603 0.001867446659527161 0 0.001867446659527161 -0.0056737246204362308 0 0 0 -0.0032820703229937726 -0.026794376321533003 -0.0075085487606065 0 -0.0075085487606065 -0.0041156900304685365 0 0 0 -0.0077275165880003778 -0.015047082951075069 -0.0065469315320045166 0 -0.0065469315320045166 -0.0034985921902295214 0 0 0 -0.0046364187853261546 -0.0059483662880009877 0.0025812775576916792 0 0.0025812775576916792 -0.0049934436317615608 0 0 0 -0.0027354524799406352 -0.0080174203519626681 0.0027915644619635523 0 0.0027915644619635523 -0.0043410610880236216 0 0 0 -0.0030896203599965724 -0.0087627239715042642 0.0023698179377721171 0 0.0023698179377721171 -0.0046929457506738629 0 0 0 -0.0033639174305445316 -0.013563122161138079 -9.9810285385110165e-05 0 -9.9810285385110165e-05 0.0019703756744444967 0 0 0 -0.0028981866216733973 -0.013248049146525165 -0.012187041481916058 0 -0.012187041481916058 0.012302095447835157 0 0 0 -0.00023648842467249853 -0.011306769113333615 -0.0066699868341226903 0 -0.0066699868341226903 -0.0068533410181060295 0 0 0 -0.0045400275328598971 -0.017143339668749192 -0.0068180626529900272 0 -0.0068180626529900272 0.031999083218797422 0 0 0 0.003713935887512055 0.0048740435126615189 0.012775343321485 0 0.012775343321485 0.072848060506951917 0 0 0 0.019430526004903248 -0.0005609918175173978 -0.00076115401151533024 0 -0.00076115401151533024 -0.00031495801503611531 0 0 0 -0.00021898745813841991 -0.004724411973969056 -0.0029897007675799112 0 -0.0029897007675799112 -0.0017038583644535255 0 0 0 -0.0016070675846056592 0.0033298527721359328 0.007017885871093088 0 0.007017885871093088 0.072330504584659838 0 0 0 0.018915089339198943 -0.0097508254676006954 0.0098155811559554815 0 0.0098155811559554815 0.041097558609020174 0 0 0 0.0078366832853548722 -0.012150236169450417 0.0030054273952697425 0 0.0030054273952697425 -0.0031955031166416743 0 0 0 -0.0038364348215230203 -0.014105608107403089 0.0027150294551452634 0 0.0027150294551452634 -0.0037172025847902745 0 0 0 -0.0044557026730483425 0.0043797026523485494 0.017043575279961254 0 0.017043575279961254 0.013155722582435692 0 0 0 0.004383856308696088 -0.0076739900575036879 0.020137776963332937 0 0.020137776963332937 0.0091397164356952221 0 0 0 0.00036643159454796681 -0.0158452210850492 -0.01154901317198344 0 -0.01154901317198344 0.012189714219230048 0 0 0 -0.00091387671645478882 -0.0030626344509081943 -0.0041735911580880747 0 -0.0041735911580880747 -0.022593736059525693 0 0 0 -0.0064140926276084753 -0.0022480377038193167 0.0024209740274165319 0 0.0024209740274165319 -0.021190416857779726 0 0 0 -0.0058596136403997745 -0.016208285438750913 0.0055179369785685189 0 0.0055179369785685189 0.026949669418315052 0 0 0 0.0026853459948910346 -0.0069624668011747382 0.0044442895163882903 0 0.0044442895163882903 -0.002631313987917494 0 0 0 -0.002398445197272947 -0.0044602730367244714 -0.0079031714426149313 0 -0.0079031714426149313 0.039184208875834736 0 0 0 0.0086809839597775662 -0.044382510174160082 0.0015135798030580967 0 0.0015135798030580967 0.00031370892112821819 0 0 0 -0.011017200313257964 -0.073047982258844693 -0.0040123465162131278 0 -0.0040123465162131278 0.0005047974230896618 0 0 0 -0.018135796208938744 -0.0080778908589401073 -0.011395312254163834 0 -0.011395312254163834 0.0047837475418588404 0 0 0 -0.00082353582927031238 0.042523060661154299 -0.021390395199233705 0 -0.021390395199233705 0.019181667487566834 0 0 0 0.015426182037180283 -0.012139518026068954 -0.0077509873369660739 0 -0.0077509873369660739 -8.3276895282563546e-05 0 0 0 -0.003055698730337883 -0.012338056915226096 -0.010163697567796455 0 -0.010163697567796455 0.002246914457843259 0 0 0 -0.0025227856143457059 -0.0017121156195447815 -0.0048721933888524749 0 -0.0048721933888524749 -0.0052553395213383322 0 0 0 -0.0017418637852208061 -0.0022612918293658524 0.0047218609105383891 0 0.0047218609105383891 -0.0041870753513055803 0 0 0 -0.0016120917951678582 -0.0025662308959883973 0.0063434731401794675 0 0.0063434731401794675 -0.0051052825227699827 0 0 0 -0.001917878354689817 -0.0016799211828870246 -0.003485501178258299 0 -0.003485501178258299 -0.0035337091125869735 0 0 0 -0.001303407573868444 -0.026344966451744972 0.010498283058253635 0 0.010498283058253635 0.032353197560398783 0 0 0 0.0015020577771634319 -0.01718346222512418 -0.0071944214902919246 0 -0.0071944214902919246 0.00088832884194367523 0 0 0 -0.0040737833457951123 -0.013615040349412095 -0.0071811459815753209 0 -0.0071811459815753209 -0.00047793742492178472 0 0 0 -0.0035232444435834599 -0.013491463653624414 -0.0066526604232671899 0 -0.0066526604232671899 -0.0023151814018737577 0 0 0 -0.0039516612638745563 -0.0056313846401501999 -0.013383580858176328 0 -0.013383580858176328 0.0062923818090198091 0 0 0 0.00016524929221742313 -0.073950058506623326 0.0082539348278356517 0 0.0082539348278356517 0.0011522767236957776 0 0 0 -0.018199445445731877 -0.026594089044426457 0.0011879155848433555 0 0.0011879155848433555 0.0075346892226685891 0 0 0 -0.0047648499554394583 -0.021678928677945797 -0.0019264219637972983 0 -0.0019264219637972983 0.0069302153947561895 0 0 0 -0.0036871783207974018 -0.010232054678690539 0.0023609543674718847 0 0.0023609543674718847 -0.015277275721587796 0 0 0 -0.0063773326000695907 -0.056902881779124476 0.016434071592827559 0 0.016434071592827559 0.00036285227450161273 0 0 0 -0.014135007376155667 -0.039184715383082658 0.0035876159832987815 0 0.0035876159832987815 0.001832960869574754 0 0 0 -0.0093379386283769725 -0.040209608130091057 2.9505204924222539e-05 0 2.9505204924222539e-05 0.0018948032252064373 0 0 0 -0.0095787012262211618 -0.067429030739319662 -0.0019595286382901103 0 -0.0019595286382901103 0.0043090418854107027 0 0 0 -0.015779997213477254 -0.063920390307136143 -0.010253904653443918 0 -0.010253904653443918 0.0048912449660850066 0 0 0 -0.014757286335262784 -0.015498580027511314 -0.0054450723190189454 0 -0.0054450723190189454 -0.0023181768860379426 0 0 0 -0.0044541892283873376 -0.042938212588350268 -0.0034865125047872647 0 -0.0034865125047872647 0.00071044241895701354 0 0 0 -0.010556942542348353 0.0089014399293215751 0.029356192075273763 0 0.029356192075273763 0.010421947657812569 0 0 0 0.0048308468967835361 -0.020353597701085687 -0.0053291793567719174 0 -0.0053291793567719174 0.022561154569406494 0 0 0 0.00055188921708020544 -0.0057131127535187867 0.0073619347670327712 0 0.0073619347670327712 0.0074254862211366041 0 0 0 0.00042809336690445348 -0.018267599816042424 0.016378701719649835 0 0.016378701719649835 -0.0034156855407427855 0 0 0 -0.0054208213391964133 -0.01314152293343282 -0.016547008032528621 0 -0.016547008032528621 0.0035814707456237604 0 0 0 -0.0023900130469523273 -0.012977771800008987 -0.011530984494328565 0 -0.011530984494328565 0.013145722414728637 0 0 0 4.1987653679910605e-05 -0.0046002485666846449 0.0023951704534025467 0 0.0023951704534025467 -0.014300389557308169 0 0 0 -0.0047251595309982242 -0.014205278328164879 -0.0072829776967848966 0 -0.0072829776967848966 -0.0041942569629684623 0 0 0 -0.0045998838227833266 -0.016670650554638594 -0.0043525624792024797 0 -0.0043525624792024797 -0.0081706009845587558 0 0 0 -0.0062103128847993379 -0.016908923742682998 0.0037553111610744653 0 0.0037553111610744653 -0.0053010470666249067 0 0 0 -0.005552492702326977 -0.012621645080624851 -0.014354951631349894 0 -0.014354951631349894 0.0078257500370294622 0 0 0 -0.0011989737608988603 -0.027681806510920115 -0.01105707302302188 0 -0.01105707302302188 -0.0028227164766792268 0 0 0 -0.0076261307468998337 -0.036566159053220526 -0.0060910448457186161 0 -0.0060910448457186161 0.0094637695120588505 0 0 0 -0.0067755973852904328 -0.0088490433407688914 -0.00075223662242947969 0 -0.00075223662242947969 -0.0077911372775548906 0 0 0 -0.0041600451545809446 -0.0079944099524030064 0.00035036196778701404 0 0.00035036196778701404 -0.0060856501186654444 0 0 0 -0.0035200150177671129 -0.011691413367936125 0.0025514616094717566 0 0.0025514616094717566 -0.0044245828316636111 0 0 0 -0.0040289990498999333 -0.011809602932370999 0.0030306081771223729 0 0.0030306081771223729 -0.0045995221112619285 0 0 0 -0.0041022812609082318 -0.031223774948403414 -0.0095766799657008364 0 -0.0095766799657008364 0.0090854886187918676 0 0 0 -0.0055345715824028641 -0.0094347811475804302 0.0063218681827425724 0 0.0063218681827425724 0.0066354295429469773 0 0 0 -0.0006998379011583615 -0.0064433480845930641 -0.0013093263622533623 0 -0.0013093263622533623 -0.0067142279895830194 0 0 0 -0.0032893940185440211 -0.017456473353091844 -0.0099556434161074576 0 -0.0099556434161074576 -0.0035857829813946696 0 0 0 -0.005260564083621631 -0.010852637478438927 0.00769512586918711 0 0.00769512586918711 0.021724942183908233 0 0 0 0.0027180761763673251 -0.017430327960665775 0.0010694749955962905 0 0.0010694749955962905 0.00042768536046968028 0 0 0 -0.0042506606500490231 -0.016427954881134722 0.0016534283532912402 0 0.0016534283532912402 0.0022958951297482114 0 0 0 -0.003533014937846626 -0.044338482406736754 -0.00094566658617915541 0 -0.00094566658617915541 -0.014768968878147987 0 0 0 -0.014776862821221185 -0.032295636202749896 -0.00070184332495555461 0 -0.00070184332495555461 -0.010758733207503214 0 0 0 -0.01076359235256328 0.040191318176889701 0.014384870946747841 0 0.014384870946747841 0.018818654353101663 0 0 0 0.014752493132497848 -0.012301483357340891 0.0025396171535686293 0 0.0025396171535686293 -0.00041312020874447256 0 0 0 -0.0031786508915213419 -0.023738158595288515 -0.0042154122093506436 0 -0.0042154122093506436 0.024723326579837154 0 0 0 0.00024629199613716152 -0.0081262049019977523 0.00044186707307161677 0 0.00044186707307161677 -0.021765335751095294 0 0 0 -0.0074728851632732685 -0.04146605206445169 0.002056490500840058 0 0.002056490500840058 0.00052116495754621697 0 0 0 -0.010236221776726362 -0.066861479122419201 -0.004561177679410517 0 -0.004561177679410517 0.00060761194755519499 0 0 0 -0.016563466793716008 -0.014751808997374941 -0.0058128772360926534 0 -0.0058128772360926534 -0.0068314609207821148 0 0 0 -0.0053958174795392701 -0.037224975080020359 0.0041100080718422562 0 0.0041100080718422562 0.00018331477824278463 0 0 0 -0.0092604150754443792 -0.047680651038036578 -0.013547381749315801 0 -0.013547381749315801 -0.0011437260117890605 0 0 0 -0.012206094262456408 -0.038501432790673029 0.0027536703768131863 0 0.0027536703768131863 -0.00025805037346243037 0 0 0 -0.009689870791033877 -0.022704844067554932 0.0025671391971461535 0 0.0025671391971461535 -0.0017203791448624798 0 0 0 -0.0061063058031043498 -0.019871033722290515 -0.0058089054372423947 0 -0.0058089054372423947 -0.0051237957782517066 0 0 0 -0.0062487073751355598 -0.033405470454080946 -0.011298261552061019 0 -0.011298261552061019 0.0032437368356650204 0 0 0 -0.0075404334046039745 -0.017387759996096 -0.0051348452480305812 0 -0.0051348452480305812 -0.00023133263243524382 0 0 0 -0.0044047731571328075 -0.010857652562063724 0.021174259533640327 0 0.021174259533640327 0.005447885697615007 0 0 0 -0.0013524417161121516 -0.013694407750012239 -0.010417556354865257 0 -0.010417556354865257 -0.0035064661404584641 0 0 0 -0.0043002184726176895 -0.010059513779959452 -0.00077933821317120581 0 -0.00077933821317120581 -0.0060033867496054405 0 0 0 -0.0040157251323912225 -0.013828544762999963 0.0024340843700525645 0 0.0024340843700525645 -0.0046566390133022592 0 0 0 -0.0046212959440755565 -0.021796205863182608 -0.0055264150432207913 0 -0.0055264150432207913 -0.0088120700085919986 0 0 0 -0.007652068967943652 -0.02004403759114802 0.0036561939926214827 0 0.0036561939926214827 -0.0058152087506810049 0 0 0 -0.0064648115854572547 -0.022418272994881281 -0.004692444782520195 0 -0.004692444782520195 0.0064267312633496387 0 0 0 -0.0039978854328829097 -0.023226036319448185 -0.0084799311824138579 0 -0.0084799311824138579 0.0076360703928834844 0 0 0 -0.0038974914816411639 -0.025508084789505336 0.025226687081529926 0 0.025226687081529926 0.0070228758815562564 0 0 0 -0.0046213022269873116 -0.0044282131985858286 0.033725970480976614 0 0.033725970480976614 0.018832113060900268 0 0 0 0.0036009749655785683 0.020400564805946132 0.00013307520842358728 0 0.00013307520842358728 0.018875323676035491 0 0 0 0.0098189721204954075 -0.024825396815819724 -0.0025662699708118089 0 -0.0025662699708118089 0.020656780384992419 0 0 0 -0.0010421541077068434 -0.0071283171505107015 0.0018168170576363532 0 0.0018168170576363532 -0.0057540879674550819 0 0 0 -0.0032206012794914448 -0.016898493327609176 -0.0076777167740900397 0 -0.0076777167740900397 -0.00019736402123954333 0 0 0 -0.0042739643372121938 -0.027473407713556719 0.02238790881013919 0 0.02238790881013919 5.0116960263357768e-05 0 0 0 -0.0068558226883232987 -0.0095158812475083787 -0.0013463139484723302 0 -0.0013463139484723302 0.014212798468884236 0 0 0 0.0011742293053439712 -0.010667296580392532 -0.0051228239878795129 0 -0.0051228239878795129 -0.010112179568664087 0 0 0 -0.0051948690372641548 -0.015636831578068 0.0024681597482522459 0 0.0024681597482522459 -0.0026531298283638243 0 0 0 -0.0045724903516079531 -0.035466102536246602 0.0037510472986845567 0 0.0037510472986845567 0.019439724571257144 0 0 0 -0.0040065944912473783 -0.040744646815057142 0.00082445377720037139 0 0.00082445377720037139 -0.00080063363473375365 0 0 0 -0.010386320112447719 -0.062794006276819567 -0.0019472998858276567 0 -0.0019472998858276567 -0.0016472672708122728 0 0 0 -0.016110318386907962 -0.012702087958105172 -0.0074955786814293116 0 -0.0074955786814293116 0.0013874692306419245 0 0 0 -0.0028286546818658068 -0.024541082699446919 0.0020509684717063222 0 0.0020509684717063222 -0.0044933107313613781 0 0 0 -0.0072585983577020778 -0.027106394824703416 -0.0040527247762078625 0 -0.0040527247762078625 -0.0082218699122031894 0 0 0 -0.0088320661842266526 -0.083003474181602893 0.00018201857907140795 0 0.00018201857907140795 0.0019826124970089842 0 0 0 -0.020255215421148443 -0.046697442787678595 2.2274379258002686e-06 0 2.2274379258002686e-06 0.00057244753933087533 0 0 0 -0.011531248812086947 0.004290292459430075 0.009209410884619823 0 0.009209410884619823 0.045140264147058962 0 0 0 0.01235763915162227 0.029295880052111558 0.00010587052329259772 0 0.00010587052329259772 0.11461561230895242 0 0 0 0.035977873090265997 -0.014848941292083188 -0.014463639451005456 0 -0.014463639451005456 0.0088287636932606189 0 0 0 -0.0015050443997056337 -0.021021375226886324 -0.012583037513643036 0 -0.012583037513643036 0.0070608690703098942 0 0 0 -0.0034901265391441005 -0.011602207199147502 -0.013203181186795379 0 -0.013203181186795379 0.021966854939493852 0 0 0 0.0025911619350865913 -0.002736284820131718 0.00015231436083046335 0 0.00015231436083046335 -0.021082439796506897 0 0 0 -0.0059546811541596745 -0.0088482228885372587 -0.00015753361416468562 0 -0.00015753361416468562 -0.0073291819913655258 0 0 0 -0.0040443512199756946 -0.030066758875497687 -0.0010968737016007757 0 -0.0010968737016007757 0.0047176487054409466 0 0 0 -0.0063372775425141747 -0.0018626639949962109 -0.0025323271326334364 0 -0.0025323271326334364 -0.020815711708370266 0 0 0 -0.0056695939258416261 -0.072667826518529766 0.0070468794496347797 0 0.0070468794496347797 0.0002552031370694971 0 0 0 -0.018103155845365041 -0.0160677848431513 0.016476179684864034 0 0.016476179684864034 -0.0047745083387686904 0 0 0 -0.0052105732954799144 -0.011636522136871996 -0.015923315910307212 0 -0.015923315910307212 0.0011879646946457711 0 0 0 -0.0026121393605565424 -0.012075794831617448 0.0026185478087287616 0 0.0026185478087287616 0.0056342265397150496 0 0 0 -0.0016103920729756002 -0.026643788491049543 -0.006860114730692167 0 -0.006860114730692167 0.0069600811044833177 0 0 0 -0.0049209268466415546 -0.005971786892227866 0.004424798068481086 0 0.004424798068481086 -0.0014603892201257782 0 0 0 -0.0018580440280884115 -0.0043104119852451816 0.006066841222841411 0 0.006066841222841411 0.0018374517769903578 0 0 0 -0.00061824005206370658 -0.034833647928880739 -0.0099745639110703395 0 -0.0099745639110703395 -0.0019814459041163184 0 0 0 -0.0092037734582492564 -0.01978927745059586 -0.013221469226984556 0 -0.013221469226984556 0.0019940434793828121 0 0 0 -0.004448808492803269 -0.05268380190227083 -0.0078484558998315017 0 -0.0078484558998315017 -0.0032441739368063299 0 0 0 -0.013981993959769278 -0.016528137115886077 0.025007719626994773 0 0.025007719626994773 0.00038411481437727879 0 0 0 -0.0040360055753773105 -0.018010745049109739 0.024183225767222871 0 0.024183225767222871 3.153214869060228e-05 0 0 0 -0.0044948032251047876 -0.018524043428118864 0.024814193681785279 0 0.024814193681785279 -0.00041105731094637221 0 0 0 -0.0047337751847662535 -0.016221227228229884 -0.015120955014484405 0 -0.015120955014484405 0.0019243428944031304 0 0 0 -0.0035742210834566746 -0.01896729514552584 -0.013645194981589059 0 -0.013645194981589059 0.00093571751062464931 0 0 0 -0.0045078944087252907 0.02179299385663077 0.015948971651721329 0 0.015948971651721329 0.023865213177285433 0 0 0 0.011414551758479052 -0.0095343282846970957 -0.00081230929694343207 0 -0.00081230929694343207 -0.0031813022146675333 0 0 0 -0.0031789076248411566 -0.012295530975282198 0.0026704784073771602 0 0.0026704784073771602 -0.0040993946098855623 0 0 0 -0.0040987313962919407 -0.01139072610011437 0.0031033158090540171 0 0.0031033158090540171 0.00049768618496388254 0 0 0 -0.0027232599787876204 -0.0038626133959005216 -0.0065261374673751954 0 -0.0065261374673751954 0.032058519278572339 0 0 0 0.0070489764706679475 -0.041708257070505753 -0.011941205625764338 0 -0.011941205625764338 -0.0018093396206227894 0 0 0 -0.010879399172782127 -0.0089032162419552304 0.0015214376259405585 0 0.0015214376259405585 -0.0048923524091792061 0 0 0 -0.0034488921627836081 -0.063429680486836074 -0.0029555263127976697 0 -0.0029555263127976697 -0.0018048295995100371 0 0 0 -0.016308627521586516 -0.040675447484524341 0.0012149833982327629 0 0.0012149833982327629 -0.00065472182549439206 0 0 0 -0.010332542327504694 -0.042301918919800702 -0.0029551102515159577 0 -0.0029551102515159577 0.00045175747129766464 0 0 0 -0.010462540362125766 -0.01004534337121011 0.002757877530825909 0 0.002757877530825909 -0.0041709855854421742 0 0 0 -0.0035540822391630709 -0.013431122992910657 -0.0021736583132035692 0 -0.0021736583132035692 0.0061316378616694325 0 0 0 -0.0018248712828102774 -0.014058056849275864 0.0056398827050649306 0 0.0056398827050649306 0.014785500836508571 0 0 0 0.00018186099680817663 -0.0045111627304450889 0.023476738977303957 0 0.023476738977303957 0.0043993710224562443 0 0 0 -2.7947926997212019e-05 -0.0064715868863360606 0.0017044852464672495 0 0.0017044852464672495 -0.0060780923087115427 0 0 0 -0.003137419798761901 -0.012955330589678793 0.015927859506182196 0 0.015927859506182196 -0.0093921029725021477 0 0 0 -0.0055868583905454017 -0.010455463940607479 -0.015660231311498518 0 -0.015660231311498518 -0.003853869613356542 0 0 0 -0.003577333388491033 -0.010004898173095226 0.0028445845126881487 0 0.0028445845126881487 -0.0041505483866616961 0 0 0 -0.0035388616399392309 -0.01965981446414378 0.002388466030982906 0 0.002388466030982906 0.019689824013258896 0 0 0 7.5023872787834209e-06 -0.0073810092857802267 0.014753940728941067 0 0.014753940728941067 -0.0050392542641946036 0 0 0 -0.0031050658874935966 -0.004850651671809314 0.010442847451364479 0 0.010442847451364479 -0.011037321407090239 0 0 0 -0.0039719932697249716 -0.0036559288819267843 -0.0076320565981939648 0 -0.0076320565981939648 -0.0081701033045178395 0 0 0 -0.0029565080466111837 -0.0056815810408413214 -0.011569154573628393 0 -0.011569154573628393 -0.0046393765487034999 0 0 0 -0.0025802393973862192 -0.048804939976861916 -0.0024620083734087778 0 -0.0024620083734087778 0.0099082237028885467 0 0 0 -0.0097241790684933493 -0.032047359924398902 -0.0068841751289301645 0 -0.0068841751289301645 0.0033487008235224131 0 0 0 -0.0071746647752191223 -0.037282742160214752 -0.0072272698790456363 0 -0.0072272698790456363 0.0037829722176810632 0 0 0 -0.0083749424856334326 -0.061025512304469842 0.017187802103350094 0 0.017187802103350094 0.0088645275565071291 0 0 0 -0.013040246186990734 -0.049207108440544767 0.016415477772564697 0 0.016415477772564697 0.0079383677083123549 0 0 0 -0.010317185183058075 -0.014679867015129876 0.0022663651520494531 0 0.0022663651520494531 -0.004492244548525196 0 0 0 -0.004793027890913769 0.044051293750120207 0.015228400991635794 0 0.015228400991635794 0.017687814514262157 0 0 0 0.015434777066095612 -0.036307879455404535 -0.0043418599893742058 0 -0.0043418599893742058 -0.0086891500800061749 0 0 0 -0.011249257383852677 -0.028779706982456396 0.0015870918230098305 0 0.0015870918230098305 -0.0053133856058309118 0 0 0 -0.0085232731470718213 -0.022510880564537938 -0.0047218686323985491 0 -0.0047218686323985491 0.014859100965032068 0 0 0 -0.0019129448998764626 -0.021397294687433569 0.0030826561602620892 0 0.0030826561602620892 -0.0034739454172819919 0 0 0 -0.0062178100261788879 -0.021286583070554574 -0.0059077168559169245 0 -0.0059077168559169245 -0.0088527462007502583 0 0 0 -0.0075348323178262037 -0.053853490469268739 -0.010173779447204219 0 -0.010173779447204219 0.00035127574729072047 0 0 0 -0.013375553680494503 -0.054147733368421491 -0.010123799274019588 0 -0.010123799274019588 -0.00062370526100735679 0 0 0 -0.013692859657357217 -0.009324905232309777 0.020125443992995345 0 0.020125443992995345 0.0054710611622108551 0 0 0 -0.00096346101752475821 -0.0066012348440923629 -0.0085468793725938658 0 -0.0085468793725938658 -0.00049872473911172222 0 0 0 -0.001774989895801049 -0.0015061605740606377 -0.0024372353087593057 0 -0.0024372353087593057 -0.018353931936599868 0 0 0 -0.0049650231276651404 -0.00079876832955355637 0.0018622714404011309 0 0.0018622714404011309 -0.020252449707786557 0 0 0 -0.0052628045093350562 -0.02143547093392488 0.0020457098879952651 0 0.0020457098879952651 0.00036643507073246765 0 0 0 -0.0052672589657981042 0.00049644053943462274 -0.00090811085573788697 0 -0.00090811085573788697 0.033246766733034172 0 0 0 0.0084358018181171779 0.005675021271621658 -0.0024644634264297666 0 -0.0024644634264297666 0.060032125794694996 0 0 0 0.016426786766579174 -0.012470955161182812 -0.0075379556175011186 0 -0.0075379556175011186 -0.0073928091234005903 0 0 0 -0.0049659410711458858 -0.03686308257311928 -0.002266310491663719 0 -0.002266310491663719 0.0037988547509384962 0 0 0 -0.0082660569555451785 -0.0021641282042429849 0.00071132867208788253 0 0.00071132867208788253 -0.022233981784132439 0 0 0 -0.0060995274970938596 -0.053649092875019344 -0.014243101282142085 0 -0.014243101282142085 0.0027198588248965871 0 0 0 -0.012732308512530682 -0.012566392428183002 0.0027724804624157996 0 0.0027724804624157996 0.0038682721763120542 0 0 0 -0.002174530062967737 -0.023588681815632243 -0.010219624195373388 0 -0.010219624195373388 0.010008389376644167 0 0 0 -0.0033950731097470155 -0.021962766743484255 -0.0086622231062277039 0 -0.0086622231062277039 0.0093760729471025206 0 0 0 -0.0031466734490954301 -0.02234566832559912 0.0035933048250889718 0 0.0035933048250889718 -0.00051967716729842042 0 0 0 -0.0057163363732243809 -0.03104512813461037 -0.0050337563883429276 0 -0.0050337563883429276 0.0056763098839633652 0 0 0 -0.0063422045626617407 -0.025023855891675609 0.0024417567781873637 0 0.0024417567781873637 -0.00054794791348185094 0 0 0 -0.0063929509512893664 -0.019096316479718201 -0.0066859098692442767 0 -0.0066859098692442767 -0.0076720488418159979 0 0 0 -0.0066920913303835459 -0.038632381471818134 -0.0021689538910942066 0 -0.0021689538910942066 0.0041440852998582689 0 0 0 -0.0086220740429899384 -0.066119750559289953 0.0040648493287434584 0 0.0040648493287434584 0.014329269594628657 0 0 0 -0.012947620241165324 -0.036523554416277061 -0.0048317046109295795 0 -0.0048317046109295795 -0.0082581015226140288 0 0 0 -0.011195413984722772 -0.028194944277503801 0.0019411954623226051 0 0.0019411954623226051 -0.006094874375030335 0 0 0 -0.0085724546631335361 -0.026158156663124637 0.0038389809450065696 0 0.0038389809450065696 -0.0014522110323088621 0 0 0 -0.0069025919238583739 -0.030097549966765329 -0.0094751477673516472 0 -0.0094751477673516472 -0.006023814930401869 0 0 0 -0.0090303412242918029 -0.012739583592894727 -0.0021608742866335113 0 -0.0021608742866335113 -0.0083999679272721145 0 0 0 -0.0052848878800417151 -0.0032209046846408164 -0.014125461322337357 0 -0.014125461322337357 0.018520921949386329 0 0 0 0.0038250043161863721 -0.0049588533896687791 0.0028114939470662882 0 0.0028114939470662882 -0.005441658947166016 0 0 0 -0.0026001280842086979 -0.0081183242266967826 0.012674754834958502 0 0.012674754834958502 -0.003034091876760403 0 0 0 -0.0027881040258642686 -0.0091473999217035473 -0.015872832776547968 0 -0.015872832776547968 0.0020132347381007776 0 0 0 -0.0017835412959007479 -0.025298652649477432 0.0033678477163026433 0 0.0033678477163026433 -0.0024947745141440702 0 0 0 -0.0069483567909053726 -0.027140388302527099 -0.0076185295339635806 0 -0.0076185295339635806 -0.0079038402934058418 0 0 0 -0.0087610571489832277 -0.0070311748956506676 0.003490938871673305 0 0.003490938871673305 -0.0029605838953385231 0 0 0 -0.0024979396977472977 -0.012895514531377758 -0.011133846518851251 0 -0.011133846518851251 0.014022065426406938 0 0 0 0.00028163772375729146 -0.044466829898969107 0.0072964817641176733 0 0.0072964817641176733 -0.00046614191684235529 0 0 0 -0.011233242953952893 -0.0010218281215859104 -0.0074532380030629675 0 -0.0074532380030629675 0.019153199748675076 0 0 0 0.0045328429067722775 -0.021483510107132509 -0.01391958372206531 0 -0.01391958372206531 0.0023833045795992325 0 0 0 -0.0047750513818833884 -0.022359191853409167 -0.0033667717086965192 0 -0.0033667717086965192 0.022046642981711273 0 0 0 -7.8137217924479502e-05 -0.054205152588029208 -0.0061744321359366219 0 -0.0061744321359366219 -0.0015471190909383224 0 0 0 -0.013938067919741878 -0.036667601515958166 0.0020641947669886142 0 0.0020641947669886142 -0.00072379228770147117 0 0 0 -0.0093478484509149102 -0.00018007047268050677 0.0031983013951454075 0 0.0031983013951454075 -0.00076596602110676898 0 0 0 -0.00023650912344682501 -0.0088320191163796923 0.0026552948796897233 0 0.0026552948796897233 -0.0045213344299227997 0 0 0 -0.0033383383865756228 -0.022078038436857406 -0.0084598583294805789 0 -0.0084598583294805789 0.0055170337640632339 0 0 0 -0.0041402511681985429 -0.055213229715525981 -0.0072554951975994956 0 -0.0072554951975994956 -0.00065693381545762694 0 0 0 -0.013967540882745898 -0.037630141404689663 0.0028673091011816258 0 0.0028673091011816258 -0.00022645019571607139 0 0 0 -0.00946414790010143 -0.014149869580380732 0.0040744368914638202 0 0.0040744368914638202 0.022188417676713049 0 0 0 0.0020096370240830731 -0.014109078149499243 -0.014368293049238541 0 -0.014368293049238541 -0.00047591394258161834 0 0 0 -0.003646248023020271 -0.015987202238711973 0.023201626824001648 0 0.023201626824001648 -0.0020785794315867356 0 0 0 -0.0045164454175745661 -0.034639397404750395 0.0022726443452581666 0 0.0022726443452581666 0.0033422030955480766 0 0 0 -0.0078242985773005966 -0.029267973567631222 -0.00036365648736465944 0 -0.00036365648736465944 0.0038706594719610894 0 0 0 -0.0063493285239175305 -0.011866898066731904 -0.003559640557646078 0 -0.003559640557646078 0.0075525255406281196 0 0 0 -0.0010785931315259369 -0.013648395045440829 -0.0036096591703450136 0 -0.0036096591703450136 0.010668469185632202 0 0 0 -0.0007449814649521545 -0.017681347331339612 -0.0041908952618690907 0 -0.0041908952618690907 -0.0090265286425525084 0 0 0 -0.0066769689934730297 -0.016649050016010223 -0.0025548194199458752 0 -0.0025548194199458752 -0.0079332713972863171 0 0 0 -0.0061455803533241333 -0.019128910151117846 0.0022152794992255239 0 0.0022152794992255239 -0.0047667583069688126 0 0 0 -0.0059739171145216652 -0.018730651192544408 0.0032467853956846381 0 0.0032467853956846381 -0.0045669343747374528 0 0 0 -0.0058243963918204649 -0.013810143370995398 -0.0029995211533566657 0 -0.0029995211533566657 -0.0025634097689444801 0 0 0 -0.0040933882849849973 -0.017883718162848297 0.0013260096445381273 0 0.0013260096445381273 0.024217731241095865 0 0 0 0.0015835032695618973 -0.0031820269237388807 0.004100615350186845 0 0.004100615350186845 -0.001433762757578852 0 0 0 -0.0011539474203294342 -0.01162029087918548 0.02384707541993028 0 0.02384707541993028 0.00081669983547927316 0 0 0 -0.0027008977609266349 -0.019555225856740133 -0.013610911600138394 0 -0.013610911600138394 -0.00043542850045397152 0 0 0 -0.0049976635892984844 -0.0083760031520169753 0.02621946682245524 0 0.02621946682245524 0.002102704049218973 0 0 0 -0.0015683247756995145 -0.0017776254572192977 -0.0035255516422883909 0 -0.0035255516422883909 -0.0020452937090525251 0 0 0 -0.00095572979156795506 0.00079002830332336807 0.00028790682462688164 0 0.00028790682462688164 0.0024333889573105172 0 0 0 0.00080585431515846698 -0.027410764720361802 0.024482399389283871 0 0.024482399389283871 0.0013555362971626739 0 0 0 -0.0065138071057997404 -0.01811202981556892 0.027117120566550024 0 0.027117120566550024 0.0019902503860224074 0 0 0 -0.0040304448573866281 -0.040500826816365937 -0.0039686404510570084 0 -0.0039686404510570084 -0.0050766129503592447 0 0 0 -0.011394359941681295 -0.030932523249593738 0.0011895618169980454 0 0.0011895618169980454 -0.0035567567527233146 0 0 0 -0.0086223200005792634 -0.01205504338437613 -0.011942446299947236 0 -0.011942446299947236 0.007528356623842325 0 0 0 -0.0011316716901334511 0.0050782209927694166 -0.0010426521511743621 0 -0.0010426521511743621 0.033357667675967484 0 0 0 0.0096089721671842321 0.0099072092381145005 -0.0009698631022564963 0 -0.0009698631022564963 0.062615216523698253 0 0 0 0.018130606440453195 -0.017762767252274103 0.0021539299221485881 0 0.0021539299221485881 0.014266965975915348 0 0 0 -0.00087395031908969051 -0.0011678519003564154 0.0060209003375549814 0 0.0060209003375549814 0.00053204963771848884 0 0 0 -0.00015895056565948251 -0.0063052687602474372 -0.0019621937099484621 0 -0.0019621937099484621 -0.01543569177959131 0 0 0 -0.005435240134959704 -0.010938220846286484 -0.0021084074165714922 0 -0.0021084074165714922 -0.016742454696066278 0 0 0 -0.0069201688855881904 -0.014966815623900648 -0.006262502177796711 0 -0.006262502177796711 -0.0028546571908065477 0 0 0 -0.0044553682036767919 -0.013259054760266509 0.0098211717345217941 0 0.0098211717345217941 -0.0048983722029321553 0 0 0 -0.0045393567407995827 -0.0088950656233623485 -0.015697130194985975 0 -0.015697130194985975 0.0041495139555245697 0 0 0 -0.0011863879169594707 -0.0022925173359249623 0.0043126637457981398 0 0.0043126637457981398 -0.0062637893997069538 0 0 0 -0.0021390766839079756 -0.0022765532455033544 -0.0067146520283806604 0 -0.0067146520283806604 0.0015658512360047228 0 0 0 -0.00017767550237468566 -0.011746089840058649 0.020725833422136075 0 0.020725833422136075 -0.0040907582240152784 0 0 0 -0.0039592120160184541 -0.0099885905746808223 -0.011527478285654147 0 -0.011527478285654147 -0.006096393435944758 0 0 0 -0.0040212460026564645 -0.0076470409363053977 0.0025629615414160386 0 0.0025629615414160386 -0.0048345638823859161 0 0 0 -0.0031204012046728282 -0.0058526190154686297 0.0036793908436847898 0 0.0036793908436847898 -0.0032824622375965604 0 0 0 -0.002283770313266301 -0.012427947580307408 0.022153968769467514 0 0.022153968769467514 0.0023792450715238722 0 0 0 -0.0025121756271959672 -0.011722333875611279 -0.011604445190512291 0 -0.011604445190512291 -6.9315284399129595e-05 0 0 0 -0.0029479122900025745 -0.030841332646636219 -0.0052610403121613677 0 -0.0052610403121613677 -0.0082020070602016031 0 0 0 -0.0097608349267094534 -0.025651143736076711 0.0024691617881593161 0 0.0024691617881593161 -0.005350476247518738 0 0 0 -0.0077504049958988606 0.00047682480858296517 0.024595975582034912 0 0.024595975582034912 0.0094563595580097193 0 0 0 0.0024832960916481572 -0.047575939348198655 -0.0025015540225594782 0 -0.0025015540225594782 -0.0080642490339611784 0 0 0 -0.013910047095539956 -0.034478990355453286 6.9029384744178864e-05 0 6.9029384744178864e-05 -0.0054023689880698979 0 0 0 -0.0099703398358808003 -0.019356452031314419 0.007673626048939397 0 0.007673626048939397 -0.0035011104265301185 0 0 0 -0.0057143906144614398 -0.0049155087163906264 -0.0098379172969568773 0 -0.0098379172969568773 0.023317020834079716 0 0 0 0.0046003780294222585 -0.01767928096970851 -0.0066321539648745431 0 -0.0066321539648745431 0.027931561033116115 0 0 0 0.0025630700158518933 -0.031055837091796157 -0.00424984557003244 0 -0.00424984557003244 0.026477634181073961 0 0 0 -0.0011445507276805628 -0.02198398068575988 -0.011807023922696809 0 -0.011807023922696809 0.0039743525453433959 0 0 0 -0.0045024070351041556 -0.010361950494489458 -0.0087438519876509007 0 -0.0087438519876509007 0.0029431127137470037 0 0 0 -0.0018547094451856136 -0.025903871196389733 0.026482991483162632 0 0.026482991483162632 0.0071067799856056046 0 0 0 -0.0046992728026960251 -0.046881969389212297 0.014145950526382095 0 0.014145950526382095 0.0096438220289033483 0 0 0 -0.0093095368400772371 -0.030989730802216606 -0.0060075474702863119 0 -0.0060075474702863119 0.0041399868914837601 0 0 0 -0.0067124359776832426 -0.00066816435775600425 -0.017525895563467529 0 -0.017525895563467529 0.013950905502980254 0 0 0 0.0033206852863060937 -0.0075734033484281052 0.0022003199781183702 0 0.0022003199781183702 0.01177717553572652 0 0 0 0.0010509430468246192 -0.007668282345834887 -0.0060768437425912092 0 -0.0060768437425912092 0.021509909539630501 0 0 0 0.0034604067984488618 -0.020363176576281335 -0.0057394570607437641 0 -0.0057394570607437641 0.01725640051240486 0 0 0 -0.00077669401596912845 -0.020323915643957156 -0.0050744958372127046 0 -0.0050744958372127046 0.015703807752097065 0 0 0 -0.001155026972965028 -0.0094552740536195494 0.009613184749329113 0 0.009613184749329113 0.032982754474382515 0 0 0 0.0058818701051907459 -0.0046289397969376325 -0.0087115707385153687 0 -0.0087115707385153687 0.017531022930869639 0 0 0 0.0032255207834830033 -0.0076295465602784773 0.018775750875853592 0 0.018775750875853592 0.011432410751727407 0 0 0 0.00095071604786223229 -0.0094115624776402451 -0.0070341207882222978 0 -0.0070341207882222978 -0.0037089988272818175 0 0 0 -0.0032801403262304185 -0.015542392290616536 0.006307448241811852 0 0.006307448241811852 0.019551360814402452 0 0 0 0.0010022421309464763 -0.015816668023257888 -0.0046714882926918444 0 -0.0046714882926918444 0.0033467521841894533 0 0 0 -0.0031174789597671337 -0.012083696504277555 -0.003901699178066112 0 -0.003901699178066112 -0.013024285008886305 0 0 0 -0.0062769953782909754 -0.0086265828964405995 0.0085800736527635209 0 0.0085800736527635209 0.012298975331356255 0 0 0 0.00091809810872891411 -0.0097147567445132112 -0.0010573086808306736 0 -0.0010573086808306736 -0.0085235239802808702 0 0 0 -0.0045595701811985204 -0.045061173273935884 -0.0035374151189994773 0 -0.0035374151189994773 0.00071214737309110987 0 0 0 -0.011087256475211166 -0.018805634358829957 -0.0041249324347627401 0 -0.0041249324347627401 -0.0083779042718258277 0 0 0 -0.0067958846576639436 -0.0041261855831592614 0.0044147607740036583 0 0.0044147607740036583 -0.0019663246297931137 0 0 0 -0.0015231275532380946 -0.014730226186036918 0.0053098600760536708 0 0.0053098600760536708 0.028953087587056572 0 0 0 0.0035557153502549198 -0.077918374718980832 0.007680390996103746 0 0.007680390996103746 0.0011243964749882984 0 0 0 -0.019198494560998147 -0.0093819622322554412 0.0024295808359400071 0 0.0024295808359400071 -0.0048540821841994404 0 0 0 -0.0035590111041137211 -0.0048157956959038288 9.6266720460609807e-05 0 9.6266720460609807e-05 -0.00435082485886263 0 0 0 -0.0022916551386916173 -0.018693164255912768 -0.0076250442023683696 0 -0.0076250442023683696 0.003026589697045147 0 0 0 -0.0039166436397169106 -0.024165559034171114 -0.010636632401128165 0 -0.010636632401128165 0.00051947655983258789 0 0 0 -0.0059115206185846314 -0.012586570967326139 -0.004556885605972576 0 -0.004556885605972576 -0.0079533356972993317 0 0 0 -0.0051349766661563639 -0.0074226398269144137 0.0019246960433282939 0 0.0019246960433282939 -0.0052858007664068844 0 0 0 -0.0031771101483303245 -0.0066051968968581154 -0.0021369618720268047 0 -0.0021369618720268047 -0.0031562327121588182 0 0 0 -0.0024403574022542332 -0.019224452057281172 -0.0084214022224267382 0 -0.0084214022224267382 0.0062794260381651007 0 0 0 -0.0032362565047790309 -0.0096666997372700653 0.0010319534559750376 0 0.0010319534559750376 0.0037341027286346695 0 0 0 -0.0014831492521588802 -0.037011519219659818 -0.013938074397815303 0 -0.013938074397815303 -0.0028363397073107172 0 0 0 -0.0099619647317426337 0.0021304564551885286 0.0093833478941398596 0 0.0093833478941398596 0.045893488204194255 0 0 0 0.012005986164845744 -0.012992493860525929 -0.0048091565772991895 0 -0.0048091565772991895 -0.0020376192286350459 0 0 0 -0.0037575282722902628 -0.0063938747818898713 0.0027406043262098107 0 0.0027406043262098107 -0.0046562960082201284 0 0 0 -0.0027625426975274991 -0.0048708756775488566 0.0031173090012108738 0 0.0031173090012108738 -0.0046657404418334446 0 0 0 -0.002384154029845576 -0.014234633213963344 0.010247877832268437 0 0.010247877832268437 0.00076344748752266156 0 0 0 -0.003367796431610337 -0.011841410323434887 -0.014002093353237571 0 -0.014002093353237571 0.011486577183865032 0 0 0 -8.8708284892602407e-05 -0.0059358259074838698 0.0056406494151371523 0 0.0056406494151371523 0.0024605000270182982 0 0 0 -0.00086883147011639246 -0.008773572203204294 0.0049598722353089413 0 0.0049598722353089413 0.002036790729755298 0 0 0 -0.0016841953683622481 -0.00648987184276348 0.0031771281711331142 0 0.0031771281711331142 -0.0039542392931343423 0 0 0 -0.0026110277839744571 -0.031965247293481207 0.003066218485801713 0 0.003066218485801713 -0.00064121749311048422 0 0 0 -0.0081516161966479171 -0.018223178587982225 1.9374714239865989e-05 0 1.9374714239865989e-05 0.005541036395196014 0 0 0 -0.0031705355481965493 -0.011755844865130149 -0.0016176835268971214 0 -0.0016176835268971214 0.006667894523832707 0 0 0 -0.0012719875853243537 -0.035058290060847895 0.0032812925913524088 0 0.0032812925913524088 -0.0013936725044328682 0 0 0 -0.0091129906413201962 0.020265024088039901 0.035002920592765052 0 0.035002920592765052 0.026144503133045865 0 0 0 0.011602381805271428 -0.012028890260041392 0.018864011319649737 0 0.018864011319649737 -0.0035305118527593216 0 0 0 -0.0038898505282003448 -0.01069121348240154 -0.015183904853978167 0 -0.015183904853978167 -0.0028609466454772026 0 0 0 -0.0033880400319697968 -0.013484265688435235 0.002033381686336936 0 0.002033381686336936 0.0028088608896589054 0 0 0 -0.002668851199694081 -0.0084924836570287182 0.001995777213405543 0 0.001995777213405543 -0.0042506844442967923 0 0 0 -0.0031857920253313774 0.0046670583675656324 -0.001551241744993468 0 -0.001551241744993468 0.0057134656735855771 0 0 0 0.0025951310102878059 -0.014573817953558707 -0.0061309498018801319 0 -0.0061309498018801319 -0.0033727340565608555 0 0 0 -0.0044866380025298941 -0.015736457246258669 -0.0070256468348088297 0 -0.0070256468348088297 -0.0032137020092952162 0 0 0 -0.0047375398138884625 -0.0090259145354422352 0.0035472918171380553 0 0.0035472918171380553 -0.0010419444409911216 0 0 0 -0.0025169647441083418 -0.034952680567953698 -0.0068230852370256695 0 -0.0068230852370256695 0.0006155850365886506 0 0 0 -0.0085842738828412202 -0.029653677697531078 -0.0097567048413360891 0 -0.0097567048413360891 0.0024035116149250246 0 0 0 -0.0068125415206515272 -0.0081951548702999723 0.00095938459017377734 0 0.00095938459017377734 -0.0027339684678582819 0 0 0 -0.002732280834539563 -0.044048792655912328 0.02117565450776121 0 0.02117565450776121 0.0036553420246820956 0 0 0 -0.010098362657807614 -0.055913556895861916 0.015088245033328174 0 0.015088245033328174 0.00030548832159205119 0 0 0 -0.01390201714356748 -0.0054721147400302039 0.0046300548957215748 0 0.0046300548957215748 0.0053014759063297889 0 0 0 -4.2659708425124565e-05 -0.0056858260439955066 -0.0084478176916784609 0 -0.0084478176916784609 0.011323362343451493 0 0 0 0.0014093840748639619 -0.0012488030321662139 -0.0083639565548088261 0 -0.0083639565548088261 0.001363503463289395 0 0 0 2.8675107780797016e-05 -0.013275435431897326 -0.00029106946887708096 0 -0.00029106946887708096 -0.011272651106974146 0 0 0 -0.0061370216347178541 0.0098589942247667844 0.017649982700498546 0 0.017649982700498546 0.038765290088903281 0 0 0 0.012156071078417513 -0.010085138615177283 -0.003124914335651997 0 -0.003124914335651997 -0.0065483877162459481 0 0 0 -0.0041583815828558088 -0.015694958368051536 -0.0070496873734876564 0 -0.0070496873734876564 0.01140850673313272 0 0 0 -0.001071612908729723 0.020284354980370817 0.014870945233418031 0 0.014870945233418031 0.012328669119317515 0 0 0 0.0081532560249221453 -0.013420530862454851 0.0016772399012408095 0 0.0016772399012408095 0.0021671996078472238 0 0 0 -0.002813332813651905 -0.011998325506846597 0.020807452044759422 0 0.020807452044759422 -0.0042024546005687835 0 0 0 -0.0040501950268538311 -0.0099484646149447797 -0.013048089081529712 0 -0.013048089081529712 -0.001458317710425816 0 0 0 -0.0028516955813427114 -0.01302231663726142 0.0021529704850479724 0 0.0021529704850479724 -0.0019919424561837071 0 0 0 -0.0037535647733612813 -0.024539503755345318 -0.005694897309006363 0 -0.005694897309006363 0.022291318457364276 0 0 0 -0.00056204632449526754 -0.010437738134930596 0.017119830951152548 0 0.017119830951152548 0.01842211156497453 0 0 0 0.0019960933575109974 -0.009710399985164736 -0.006549218383894384 0 -0.006549218383894384 0.00062994022400508776 0 0 0 -0.0022701149402899745 -0.0529732907665975 0.0012100023049434804 0 0.0012100023049434804 0.00051331994402577241 0 0 0 -0.013114992705642921 -0.094859960991957967 -0.0036693715083955789 0 -0.0036693715083955789 0.00070112992091439508 0 0 0 -0.023539707767760865 -0.0099200134074259594 0.0051645771229127044 0 0.0051645771229127044 0.037729964044216913 0 0 0 0.0069524876591977591 -0.026450858709789155 0.0043068578435038985 0 0.0043068578435038985 -0.00031941443185650592 0 0 0 -0.0066925682854114179 0.014308088993115408 -0.0050662105742387276 0 -0.0050662105742387276 0.024759835047237853 0 0 0 0.0097669810100883148 0.023816990999779158 0.0019278162604055571 0 0.0019278162604055571 0.043241613673158485 0 0 0 0.016764651168234446 0.033563344042005921 -0.0033640076678990438 0 -0.0033640076678990438 0.076769403139645531 0 0 0 0.027583186795412884 0.020869077430531568 0.0062658947515622787 0 0.0062658947515622787 0.050899931072677207 0 0 0 0.017942252125802194 -0.0091251057105520422 0.0045873567713287378 0 0.0045873567713287378 -0.0096565722506947865 0 0 0 -0.0046954194903117558 -0.0091473038171359933 -0.0087157232368153398 0 -0.0087157232368153398 -0.0073533058359385173 0 0 0 -0.0041251524132686346 -0.0016097754388584712 0.00042164628747244637 0 0.00042164628747244637 0.048274374344492665 0 0 0 0.011666149726408545 -0.0060587051117066276 -0.0039909374718723467 0 -0.0039909374718723467 0.0230404776802412 0 0 0 0.0042454431421336397 -0.021931368153786102 0.0018047480401902592 0 0.0018047480401902592 0.023625226739607694 0 0 0 0.00042346464645539976 -0.005109171196692408 0.014876539934752797 0 0.014876539934752797 0.002511408095526857 0 0 0 -0.00064944077529127675 -0.004751372615817262 0.0060645077372898093 0 0.0060645077372898093 -0.0043172537421605206 0 0 0 -0.0022671565894945012 -0.0035352301230968664 -0.0044770170187283798 0 -0.0044770170187283798 -0.0031660379710036768 0 0 0 -0.0016753170235251358 -0.0051944943077184558 -0.012292965706649769 0 -0.012292965706649769 -0.002001337642571599 0 0 0 -0.0017989579875725692 -0.010063999374478414 0.0032609530129759602 0 0.0032609530129759602 -0.0013225729820378999 0 0 0 -0.0028466430891290785 -0.0085775378393976448 0.016058421646764964 0 0.016058421646764964 0.011552714662394881 0 0 0 0.00074379420574931243 -0.0024258531531041322 -0.0038865289038118034 0 -0.0038865289038118034 -0.0019045040501149829 0 0 0 -0.0010825893008046955 -0.018702678007406617 -0.00068703461500248253 0 -0.00068703461500248253 0.029549458491614736 0 0 0 0.0027116951210520279 -0.0033471923787005142 0.005367124915601873 0 0.005367124915601873 -0.002931902692524968 0 0 0 -0.0015697737678063151 -0.0079084217798104928 -0.013392624794040131 0 -0.013392624794040131 0.0051112261790695612 0 0 0 -0.00069929890018527452 -0.0036893707866069991 -0.010580279298464834 0 -0.010580279298464834 0.0092997206460806447 0 0 0 0.0014025874648684045 -0.019589814726401193 -0.0088169793120992171 0 -0.0088169793120992171 0.0044726998870390777 0 0 0 -0.0037792787098405237 -0.019035961577925371 -0.0082623220829920255 0 -0.0082623220829920255 0.0058151827576749249 0 0 0 -0.003305194705062596 -0.010263054516537343 -0.0047147330638371496 0 -0.0047147330638371496 -0.0047949974115097573 0 0 0 -0.0037645129820117768 -0.011807898476360185 0.030921202920039526 0 0.030921202920039526 0.0076563996864184025 0 0 0 -0.0010378746974854247 -0.035292487174588189 -0.0034423670541235685 0 -0.0034423670541235685 -7.3461659052809214e-05 0 0 0 -0.0088414872084102702 0.0076952620011916436 -0.0086054455035831888 0 -0.0086054455035831888 0.012336647675199056 0 0 0 0.0050079774190976752 -0.0072207713588928017 -0.0050629665314039299 0 -0.0050629665314039299 0.0072966315740155968 0 0 0 1.8965053780701374e-05 -0.0020783845885469603 0.0087390057592012169 0 0.0087390057592012169 0.0062269256930419445 0 0 0 0.0010371352761237469 -0.013361011221883476 -0.005436656409228649 0 -0.005436656409228649 -0.0062431744400047173 0 0 0 -0.0049010464154720518 -0.014096669352566565 -0.0061593070812383053 0 -0.0061593070812383053 -0.0097660236443670168 0 0 0 -0.0059656732492333886 -0.11108110023902587 0.0011588008695956056 0 0.0011588008695956056 0.0027193961148036516 0 0 0 -0.027090426031055548 -0.058623121654890031 -0.00049293048794327849 0 -0.00049293048794327849 0.0011621114335137461 0 0 0 -0.014365252555344071 -0.012686260916342975 -0.0021179353088640659 0 -0.0021179353088640659 -0.0042296130258070008 0 0 0 -0.0042289684855374944 -0.015238934858928884 0.0027871965600920795 0 0.0027871965600920795 -0.0050795134509797621 0 0 0 -0.0050796120774771617 0.00091017843834897277 0.0025252563013422116 0 0.0025252563013422116 0.00060258411116917432 0 0 0 0.00037819063737953851 -0.0057198534152691988 0.0078062264393987217 0 0.0078062264393987217 0.0072698168564525184 0 0 0 0.00038749086029582751 -0.0037458224064785221 0.0051120691336088604 0 0.0051120691336088604 0.00032298852723483713 0 0 0 -0.00085570846981092644 -0.048468335355058019 -0.0066450715262391788 0 -0.0066450715262391788 -0.0046971348634674958 0 0 0 -0.013291367554631377 -0.034957547878456889 0.0022695681813423452 0 0.0022695681813423452 -0.0022647114852061105 0 0 0 -0.0093055648409157542 0.020202321428444581 0.014818319784580314 0 0.014818319784580314 0.012137317963471839 0 0 0 0.0080849098479791603 -0.040048767908492058 -0.0061850984369592535 0 -0.0061850984369592535 -0.0027365675409210428 0 0 0 -0.010696333862353273 -0.030897880966523544 0.0022128869543847451 0 0.0022128869543847451 -0.0014341260255004065 0 0 0 -0.0080830017480059881 -0.016551126700254312 -0.0015630876035149163 0 -0.0015630876035149163 -0.0047325806685685756 0 0 0 -0.0053209268422056977 0.017372325074679534 0.036507106180861448 0 0.036507106180861448 0.025694922762634853 0 0 0 0.010766811959328604 -0.00067709182912054078 0.003982282426060163 0 0.003982282426060163 -0.0022276029741365964 0 0 0 -0.0007261737008142817 -0.013490083403246415 -0.0048279155677362282 0 -0.0048279155677362282 0.0032810217142025255 0 0 0 -0.0025522654222609811 -0.024369995914356339 -0.0038034140326284418 0 -0.0038034140326284418 -0.0081217002680976595 0 0 0 -0.0081229240456134975 -0.022188447899590364 0.0023195755689458691 0 0.0023195755689458691 -0.0073945194874279812 0 0 0 -0.0073957418467545857 -0.046627600325692187 0.0017954863166819207 0 0.0017954863166819207 -0.00028928007610400791 0 0 0 -0.011729220100449043 -0.076938399095276694 -0.0044622515164063695 0 -0.0044622515164063695 -0.00057618348467480818 0 0 0 -0.019378645644987882 -0.028404883411113233 -0.0027092551716921959 0 -0.0027092551716921959 0.0094069127934494345 0 0 0 -0.004749492654415946 0.0059778677281214498 -0.0068495239326313018 0 -0.0068495239326313018 0.012254369784349239 0 0 0 0.0045580593781176515 -0.022360975891062111 -0.0036614908752612835 0 -0.0036614908752612835 0.021256764167868779 0 0 0 -0.0002760529307983383 -0.0088399599130191391 0.0066485772719326423 0 0.0066485772719326423 0.01174068075998394 0 0 0 0.00072518021174120158 -0.013363436356840504 0.0045121399889520592 0 0.0045121399889520592 0.013423675403630268 0 0 0 1.5059761697434719e-05 0.0036798934211274793 0.0081887547831886454 0 0.0081887547831886454 0.010176983775077872 0 0 0 0.0034642192990513394 0.0088416693553480599 0.0063642903627386255 0 0.0063642903627386255 0.0051356772962440483 0 0 0 0.0034943366628980262 -0.010395243371813356 -0.0070262959350283621 0 -0.0070262959350283621 -0.017314623906554416 0 0 0 -0.0069274668195919709 -0.02449442850780368 -0.0068351501482642602 0 -0.0068351501482642602 0.011784886996086274 0 0 0 -0.0031773853779293653 -0.025650000870525751 -0.011574382337635889 0 -0.011574382337635889 0.023864638002320956 0 0 0 -0.00044634071705119613 -0.006691963809947821 -0.019810491692477977 0 -0.019810491692477977 0.038720179966423483 0 0 0 0.0080070540391189073 -0.043548832712178444 0.0016376316685163504 0 0.0016376316685163504 -0.00023985711285378492 0 0 0 -0.010947172456258064 -0.069055931977444585 -0.0037848572562508413 0 -0.0037848572562508413 -0.00059473068164963422 0 0 0 -0.017412665664773553 -0.0023240869280238964 -0.0020965082401468993 0 -0.0020965082401468993 -0.023204527722591111 0 0 0 -0.006382153662653752 -0.0052394704689165822 -0.013121762012176373 0 -0.013121762012176373 0.02837988268370284 0 0 0 0.005785103053696547 -0.0047639044968865963 0.0048330258907643715 0 0.0048330258907643715 -0.0018924034609954458 0 0 0 -0.0016640769894705138 -0.038257397569518202 -0.0060698656558701471 0 -0.0060698656558701471 -0.0059779281026712964 0 0 0 -0.011058831418047376 -0.029579565448569298 0.0023453150325704122 0 0.0023453150325704122 -0.0033422795829740667 0 0 0 -0.0082304612578858374 -0.014096707976867944 0.0019940353404218521 0 0.0019940353404218521 -0.002295646048161095 0 0 0 -0.0040980885062572615 -0.02201803118128369 -0.0018959747919907264 0 -0.0018959747919907264 0.023230985980829264 0 0 0 0.00030323869988638751 -0.010237147131576668 -0.0072928892889958519 0 -0.0072928892889958519 0.0036044420870927907 0 0 0 -0.0016581762611209694 -0.014989451967761733 0.0028526205668958655 0 0.0028526205668958655 -0.0014208428892459541 0 0 0 -0.0041025737142519241 -0.03172546102119711 0.0075652195577327053 0 0.0075652195577327053 0.00032758784407005415 0 0 0 -0.0078494682942819027 -0.0062564975487977847 -0.0097388818695439139 0 -0.0097388818695439139 0.021977398485988453 0 0 0 0.003930225234297674 -0.003040525972332786 -0.0081322761801597421 0 -0.0081322761801597421 0.017982360163856292 0 0 0 0.0037354585478808211 -0.017050171550956929 -0.0095599134889076398 0 -0.0095599134889076398 0.017313198204603593 0 0 0 6.5756663411666028e-05 -0.019301363460713483 -0.0061178048639436641 0 -0.0061178048639436641 0.013319125994174313 0 0 0 -0.0014955593666347994 -0.013883406139147002 0.0002654154277863245 0 0.0002654154277863245 0.0093618667046860941 0 0 0 -0.0011303848586152276 -0.021364660649218863 -0.0020259531176004646 0 -0.0020259531176004646 0.022469254625953752 0 0 0 0.00027614849418371428 0.0062353783087122361 0.015892952200010191 0 0.015892952200010191 0.056192212583931145 0 0 0 0.015606897723160817 6.7959254725358242e-06 -2.2049579726624025e-05 0 -2.2049579726624025e-05 0.00031978556766953936 0 0 0 8.1645373285421652e-05 0.0025486714693170043 -0.012432134692679675 0 -0.012432134692679675 0.030707162027341195 0 0 0 0.0083139583741646261 4.4347047146425789e-05 2.2048692049914109e-06 0 2.2048692049914109e-06 0.00036745134425097969 0 0 0 0.00010294959784898361 -0.01365549217444457 0.0019057792227971401 0 0.0019057792227971401 0.010152928032721862 0 0 0 -0.00087564103543067958 -0.014611589104939347 0.00065271589711308467 0 0.00065271589711308467 0.006309842151032247 0 0 0 -0.0020754367384767753 -0.014139584010075089 -0.0034950992094311857 0 -0.0034950992094311857 0.0092515222091849869 0 0 0 -0.0012220154502225293 -0.061975132098754333 -0.0071848638260013156 0 -0.0071848638260013156 0.00051541841627220086 0 0 0 -0.015364928420620531 -0.071322709935952133 -0.010224472153797994 0 -0.010224472153797994 0.00069466280527526181 0 0 0 -0.017657011782669228 -0.01257809479945767 -0.010771493016984686 0 -0.010771493016984686 -0.0016697800759605183 0 0 0 -0.0035619687188545458 -0.018801404313692011 0.00051000768050927289 0 0.00051000768050927289 0.0022211449685506993 0 0 0 -0.0041450648362853278 -0.0074188918185289741 -0.013141752517983094 0 -0.013141752517983094 0.02178899452370598 0 0 0 0.0035925256762942455 -0.028715959501126671 0.0028018060347818818 0 0.0028018060347818818 -0.0030506994087032111 0 0 0 -0.0079416647274574721 -0.024421824359780516 0.002535285009643405 0 0.002535285009643405 -0.0039118786984796081 0 0 0 -0.0070834257645650319 -0.027035533379812023 -0.0057117408566436049 0 -0.0057117408566436049 -0.0071754227008887237 0 0 0 -0.0085527390201751846 -0.035716700548157128 -0.0068242713580330457 0 -0.0068242713580330457 -0.006971997146062575 0 0 0 -0.010672174423554925 -0.028680063440211234 -0.0097725253147552676 0 -0.0097725253147552676 0.00079650659462171536 0 0 0 -0.0069708892113973242 -0.022585206268109725 -0.010735156181463021 0 -0.010735156181463021 0.00077636307084971712 0 0 0 -0.005452210799315016 -0.013685183085586328 -0.001957383205652934 0 -0.001957383205652934 -0.0075524461493177387 0 0 0 -0.0053094073087260156 -0.013190614102492055 -0.0024702207896926424 0 -0.0024702207896926424 -0.0079946623226526282 0 0 0 -0.0052963191062861716 -0.015348617656204565 0.0032723355992569695 0 0.0032723355992569695 -0.0043285991704443538 0 0 0 -0.0049193042066622292 -0.016647234057958454 0.002370383993384927 0 0.002370383993384927 -0.0054532231876794528 0 0 0 -0.0055251143114094766 -0.01344360520104948 0.022708790328093809 0 0.022708790328093809 -0.0016887178970843575 0 0 0 -0.0037830807745334871 -0.013411685343240332 -0.01362497621373765 0 -0.01362497621373765 -0.0026367169881134078 0 0 0 -0.0040121005828384071 -0.021911200617841662 0.0021040925872993677 0 0.0021040925872993677 -0.0032236254696249352 0 0 0 -0.0062837065218666532 -0.018409878638459401 -0.0045864871481458274 0 -0.0045864871481458274 -0.0074930598768378851 0 0 0 -0.0064757346288243228 -0.014300625817010335 -0.0012618910552262431 0 -0.0012618910552262431 0.0041605255155642423 0 0 0 -0.0025350250753615189 -0.026084957241304493 0.0025034409885392778 0 0.0025034409885392778 -0.0022818682150104789 0 0 0 -0.00709170636407874 -0.028859125471410962 -0.006511814167066322 0 -0.006511814167066322 -0.0048526205338712625 0 0 0 -0.008427936501320555 -0.03519899949230032 -0.0066666906915327853 0 -0.0066666906915327853 0.036258750508745635 0 0 0 0.00026493775411132875 -0.015308410887298816 -0.0002152354724189046 0 -0.0002152354724189046 0.0048812069944067955 0 0 0 -0.0026068009732230025 -0.031075689676777356 -0.0035649558373442853 0 -0.0035649558373442853 -0.010362992161528299 0 0 0 -0.010359670459576415 -0.025616496060203484 0.001624683916155474 0 0.001624683916155474 -0.0085409443759133334 0 0 0 -0.0085393601090292034 0.010119089510827309 0.0044112051598037393 0 0.0044112051598037393 0.011427433750057156 0 0 0 0.0053866308152211093 -0.0051006947857328844 -0.0015613084389119319 0 -0.0015613084389119319 -0.024296882304556289 0 0 0 -0.0073493942725722516 -0.022962370804968667 0.0018949302624213273 0 0.0018949302624213273 0.0030951627620127015 0 0 0 -0.0049668020107389958 0.0029648608844784902 -0.011476543725476934 0 -0.011476543725476934 0.0077612059132142752 0 0 0 0.0026815166994231948 -0.013983833984421726 0.0024542816547656371 0 0.0024542816547656371 0.010124244410879673 0 0 0 -0.00096489739338551008 -0.017461373199717599 -0.002655559519837398 0 -0.002655559519837398 0.011172387981454797 0 0 0 -0.0015722463045657019 -0.056762139598745313 -0.0021938960047240049 0 -0.0021938960047240049 -0.0043241463098257884 0 0 0 -0.015271571477142771 -0.039257967611778341 -0.00014942309760035757 0 -0.00014942309760035757 -0.0030066738342562575 0 0 0 -0.010566160361508651 -0.0047384985411181232 -0.0062551225152804348 0 -0.0062551225152804348 0.012998231034184377 0 0 0 0.0020649331232665546 -0.011468288088161277 0.0043311335526818647 0 0.0043311335526818647 0.0061667545434875362 0 0 0 -0.0013253833861684335 -0.015670926599131114 -0.00060725794187812231 0 -0.00060725794187812231 0.0028599684010102507 0 0 0 -0.0032027395495302169 -0.035211833100403413 0.0013679946949130585 0 0.0013679946949130585 0.0016963848722163777 0 0 0 -0.0083788620570467535 -0.04515741130241907 0.0079708240705206324 0 0.0079708240705206324 0.00044636272116260756 0 0 0 -0.011177762145314241 -0.018434509582002004 -9.4117188131487284e-05 0 -9.4117188131487284e-05 0.0091548678855406657 0 0 0 -0.0023199104241153207 -0.019179393985573608 -0.007169022629341517 0 -0.007169022629341517 0.0080109350660191453 0 0 0 -0.0027921147298886166 -0.017609708781742454 0.0010235766935079368 0 0.0010235766935079368 0.0031924429309860142 0 0 0 -0.003604316462689109 -0.010789529801058812 0.0041610813166286943 0 0.0041610813166286943 0.0082707323769641711 0 0 0 -0.00062969935602366026 -0.022172871312978341 -0.0086048163077606793 0 -0.0086048163077606793 0.0068813236331347061 0 0 0 -0.0038228869199609106 0.021094666549211903 0.0061283898885763355 0 0.0061283898885763355 0.03242322994863707 0 0 0 0.013379474124462248 -0.020059067717466725 0.0028782085798963524 0 0.0028782085798963524 0.00099499718616013338 0 0 0 -0.0047660176328266426 -0.029712355309504002 0.0065507131454852156 0 0.0065507131454852156 -0.0010145328602453318 0 0 0 -0.0076817220424373334 -0.0036811140308643242 -0.0084853372103015912 0 -0.0084853372103015912 0.024048611433977907 0 0 0 0.0050918743507784026 0.0023920890157987096 -0.0064159192277219168 0 -0.0064159192277219168 0.015904111585972214 0 0 0 0.00457405015044271 -0.047377901431571681 -0.012087030606519625 0 -0.012087030606519625 0.011457847029411786 0 0 0 -0.0089800136005399739 0.0014100202147414448 -0.0049724462862040554 0 -0.0049724462862040554 0.0022762506527903917 0 0 0 0.00092156771688296085 -0.0453688358221521 0.0031882216295544483 0 0.0031882216295544483 0.00077282007369038064 0 0 0 -0.011149003937115438 -0.077802272634868982 -0.0096816995018119967 0 -0.0096816995018119967 0.0021279064641338621 0 0 0 -0.018918591542683778 -0.044715144864534005 0.00075911139170933839 0 0.00075911139170933839 -0.00015311474453069684 0 0 0 -0.011217064902266196 -0.077910908848798713 -0.0030135174706441767 0 -0.0030135174706441767 0.0004141893148909559 0 0 0 -0.019374179883476894 -0.034329080291316642 -2.4284842895368371e-05 0 -2.4284842895368371e-05 -0.0044993898208061378 0 0 0 -0.0097071175280306985 -0.047514712536861035 -0.0019278099973364779 0 -0.0019278099973364779 -0.0059390181221929015 0 0 0 -0.013363432664763478 -0.018515322288472552 -0.0041291158733322408 0 -0.0041291158733322408 0.015111510777883818 0 0 0 -0.00085095287764717833 -0.017194761147424392 -0.007669782451697485 0 -0.007669782451697485 0.019596016872273109 0 0 0 0.0006003139312121715 -0.006311699233969334 -0.00036215941005116048 0 -0.00036215941005116048 0.026852200154855038 0 0 0 0.0051351252302214573 0.0014201399879924803 -0.0021325127569216534 0 -0.0021325127569216534 0.053600580066703513 0 0 0 0.013755180013673984 -0.0059638350801659128 0.0017748836551983935 0 0.0017748836551983935 0.019696435056560477 0 0 0 0.0034331499940986367 -0.0022525976375965817 -0.00046228992579244732 0 -0.00046228992579244732 0.046322340829562797 0 0 0 0.011017435797991561 -0.011660340632313498 -0.0035803953383794357 0 -0.0035803953383794357 0.022754301440399832 0 0 0 0.0027734902020215557 -0.017551771869408057 0.0011744290360427307 0 0.0011744290360427307 0.0035478511145201263 0 0 0 -0.0035009801887219724 -0.011194105790731792 -0.0073422230257258105 0 -0.0073422230257258105 0.016025447181778354 0 0 0 0.0012078353477616433 -0.018219089962981931 -0.0081936665318932088 0 -0.0081936665318932088 0.014025974864850535 0 0 0 -0.0010482787745328542 -0.015638949708939257 0.00097820810121095406 0 0.00097820810121095406 0.01935200476429827 0 0 0 0.00092826376383975655 -0.062898859053710621 0.0071763386999886382 0 0.0071763386999886382 -0.00028544147585396473 0 0 0 -0.015796075132391119 -0.021653652368408289 -0.0018034891559725354 0 -0.0018034891559725354 0.021686052503254401 0 0 0 8.1000337115392368e-06 0.0030700469222983556 -0.0071181666935879392 0 -0.0071181666935879392 0.054276054334247426 0 0 0 0.014336525314136442 0.023588317798499944 -0.0084325130595661775 0 -0.0084325130595661775 0.027513705565109847 0 0 0 0.012775505840902465 0.0076568665813810943 -0.0063286861155942009 0 -0.0063286861155942009 0.013049378203692952 0 0 0 0.0051765611962684976 -0.086046190569361719 -0.0074162003837132534 0 -0.0074162003837132534 0.0021724132718854428 0 0 0 -0.02096844432436909 -0.048498509431114389 0.0027445441597539963 0 0.0027445441597539963 0.00074830823431038841 0 0 0 -0.011937550299200989 -0.022188853194003794 -0.0017091535467880161 0 -0.0017091535467880161 0.022620982524188871 0 0 0 0.00010803233254626319 -0.037744732913238099 0.01808813832063827 0 0.01808813832063827 -0.0025626572555059735 0 0 0 -0.010076847542185852 -0.027535863067765565 0.018819792843420557 0 0.018819792843420557 0.00084029935965124203 0 0 0 -0.0066738909270286362 -0.012259532778304189 -0.014728799267343856 0 -0.014728799267343856 0.0070060342447196833 0 0 0 -0.0013133746333961194 -0.0085344611209973789 -0.012592502130207905 0 -0.012592502130207905 0.0082477247971563597 0 0 0 -7.1684080960261932e-05 -0.008468577366322505 -0.010133643171358897 0 -0.010133643171358897 0.027356320852589933 0 0 0 0.0047219358715668847 -0.014393760357520602 0.0054752814664829341 0 0.0054752814664829341 0.00041611049876344453 0 0 0 -0.0034944124646894004 -0.02141026964827283 0.0026456118308089771 0 0.0026456118308089771 -0.0034158705063630822 0 0 0 -0.0062065350386589797 -0.020635100657242465 -0.0036589741083333177 0 -0.0036589741083333177 -0.0071693951375733696 0 0 0 -0.0069511239487039592 -0.014156982781813562 -0.016180562820348521 0 -0.016180562820348521 0.0032752735360068175 0 0 0 -0.0027204273114516866 -0.014003299983980866 -0.014583611432956931 0 -0.014583611432956931 0.0034828523421619462 0 0 0 -0.0026301119104547577 -0.016264676494711389 -0.015086170575744517 0 -0.015086170575744517 0.0014778385146374806 0 0 0 -0.0036967094950185186 -0.016353690770146589 -0.015676091723353894 0 -0.015676091723353894 0.002903361505831481 0 0 0 -0.0033625823160787771 -0.024462859759710659 0.02469700044953882 0 0.02469700044953882 -0.002375157903175884 0 0 0 -0.0067095044157217398 -0.018861944636519169 0.022827520885001062 0 0.022827520885001062 -0.0023015360303061342 0 0 0 -0.0052908701667064096 -0.023574269384421052 0.003021303492018373 0 0.003021303492018373 -0.0060429410924633933 0 0 0 -0.0074043026192211099 -0.028180046436873829 -0.0058519247176356103 0 -0.0058519247176356103 -0.0087731707490157594 0 0 0 -0.0092383042964723962 -0.042925861962681555 -0.0040007884674505348 0 -0.0040007884674505348 0.0030821574723167988 0 0 0 -0.0099609261225912238 -0.074983253983273102 0.0093260274713420493 0 0.0093260274713420493 0.0044805123397932967 0 0 0 -0.017625685410869951 -0.033272895688626049 0.0044301715021991678 0 0.0044301715021991678 0.00065016467242590137 0 0 0 -0.0081556827540500455 -0.010467144263320356 0.0040175620822367215 0 0.0040175620822367215 0.0028466322650784852 0 0 0 -0.0019051279995604678 -0.005414296096100113 -0.0065327826256324217 0 -0.0065327826256324217 -0.015727072750717885 0 0 0 -0.0052853422117044857 -0.052642652034476822 -0.0095702586778155189 0 -0.0095702586778155189 0.00059244298493728309 0 0 0 -0.013012552262384871 -0.068866051719672361 -0.0082397033813631365 0 -0.0082397033813631365 -0.0017592601194333229 0 0 0 -0.017656327959776438 -0.0068991128700352407 0.0002761838410189087 0 0.0002761838410189087 -0.0071391072982239451 0 0 0 -0.0035095550420647967 -0.010409422751935425 0.0028034612702822065 0 0.0028034612702822065 0.031933312130385347 0 0 0 0.0053809723446124821 -0.049460122598470276 -0.00031276525650161813 0 -0.00031276525650161813 -0.00015282370271645085 0 0 0 -0.012403236575296663 -0.090151860808369608 0.00023055261116927683 0 0.00023055261116927683 -0.00047979480255206514 0 0 0 -0.02265791390273041 -0.028692378526914961 -0.0029342531511575842 0 -0.0029342531511575842 0.0055560811430984611 0 0 0 -0.0057840743459541127 -0.039919977141746957 -0.0088286458308315871 0 -0.0088286458308315871 -0.0053488265519951884 0 0 0 -0.011317200923435538 -0.029433594844330693 -0.0085340577326110442 0 -0.0085340577326110442 -0.0037509932672249073 0 0 0 -0.008296147027888905 -0.0010786028143509874 0.031840911433771456 0 0.031840911433771456 0.064862821456086683 0 0 0 0.015946054660433889 -0.063795518649528399 -0.0035083598964509438 0 -0.0035083598964509438 3.1814120164331411e-05 0 0 0 -0.015940926132341007 -0.04058177279977658 0.0015175857253438528 0 0.0015175857253438528 0.00016302596329012195 0 0 0 -0.010104686709121628 -0.014386213310415077 -0.0059709122944919917 0 -0.0059709122944919917 -0.0058897586260115431 0 0 0 -0.0050689929841066655 -0.015591284639412964 -0.005851531466834866 0 -0.005851531466834866 -0.0032014073285509537 0 0 0 -0.0046981729919909898 -0.012548490371490887 0.0039743101472357809 0 0.0039743101472357809 0.01495746071232266 0 0 0 0.00060224258520794613 -0.011998303058507723 -0.0056517049817594528 0 -0.0056517049817594528 -0.00021542232116651683 0 0 0 -0.0030534313449185578 -0.0052306936296334363 0.0064416099104297117 0 0.0064416099104297117 0.0013060146499498104 0 0 0 -0.00098116974492090583 -0.0032609491782929212 0.0069029153535785093 0 0.0069029153535785093 0.060048282934618502 0 0 0 0.014196833439081458 -0.03316864685697566 0.0041503770286991926 0 0.0041503770286991926 0.0010526378409101717 0 0 0 -0.0080290022540163777 -0.015537824890925842 0.00042163981247335955 0 0.00042163981247335955 0.0023317107387367027 0 0 0 -0.0033015285380472879 0.032358217739170247 0.0074773366361412311 0 0.0074773366361412311 0.029137308196272471 0 0 0 0.015373881483860652 -0.033835128686599193 -0.0042176373872183093 0 -0.0042176373872183093 -0.0010132026007688109 0 0 0 -0.0087120828218419724 -0.1065641852212037 -0.0010030448274887527 0 -0.0010030448274887527 -0.00036828346230521891 0 0 0 -0.026733117170877202 -0.057047870977379608 7.9632018768942685e-05 0 7.9632018768942685e-05 -0.00029020031888143949 0 0 0 -0.014334517824065258 -0.020765753551347473 0.00068869629028234236 0 0.00068869629028234236 0.024918198925495204 0 0 0 0.0010381113435369328 -0.040308732209761909 -0.0070773748508663583 0 -0.0070773748508663583 -0.0028016775802295404 0 0 0 -0.010777602447497864 -0.048337382162598155 -0.0096929686600376527 0 -0.0096929686600376527 -0.001641792247256791 0 0 0 -0.012494793602463729 0.01140286162183151 0.010308480694652247 0 0.010308480694652247 0.01177282096054795 0 0 0 0.0057939206455948702 -0.023480413443505266 -0.0052415045969575608 0 -0.0052415045969575608 -0.00055305172900710353 0 0 0 -0.0060083662931280646 -0.018983873762835186 -0.00682948437034675 0 -0.00682948437034675 0.0054917864723999926 0 0 0 -0.0033730218226087939 0.00020760914267148323 0.011593441936610631 0 0.011593441936610631 0.053905461969475432 0 0 0 0.013528267778036618 -0.010098941799984495 -0.0033786201235888368 0 -0.0033786201235888368 0.00076380624542848885 0 0 0 -0.0023337838886389184 -0.021872187176492155 -0.013540826283604694 0 -0.013540826283604694 0.012329669614436073 0 0 0 -0.0023856293905140102 -0.012695051958729706 -0.0033545898109725684 0 -0.0033545898109725684 0.015984484964447737 0 0 0 0.00082235825142951136 -0.018679010022446513 4.5939502719895275e-05 0 4.5939502719895275e-05 0.0055684481670859182 0 0 0 -0.0032776404638401486 -0.023494561093374222 0.0058627122139437438 0 0.0058627122139437438 -0.00077970682170569461 0 0 0 -0.0060685669787698959 -0.0053366155785093961 -0.010049838307173431 0 -0.010049838307173431 0.028015242352180336 0 0 0 0.005669656693417735 -0.019460810743711688 0.0024904050834644456 0 0.0024904050834644456 -0.0012322979559856468 0 0 0 -0.005173277174924335 0.0030543884193934417 -0.0023177275643203113 0 -0.0023177275643203113 0.01758854142468752 0 0 0 0.0051607324610202371 -0.039184048334734066 0.0029452671846500107 0 0.0029452671846500107 -6.7571004627731135e-07 0 0 0 -0.0097961810111950806 -0.03094360285635081 -0.0076794666022572625 0 -0.0076794666022572625 0.01194212759507568 0 0 0 -0.0047503688153187756 -0.031543710497933031 0.0038696861734629755 0 0.0038696861734629755 -0.0013036434118268332 0 0 0 -0.0082118384774399686 -0.037273615653699521 -0.0046272083038309819 0 -0.0046272083038309819 0.00077965933838108903 0 0 0 -0.0091234890788295386 -0.042037452800392533 0.0024594670394663364 0 0.0024594670394663364 -0.00043493336880641442 0 0 0 -0.010618096542299737 -0.03670798501630277 0.0030019800003300082 0 0.0030019800003300082 0.00015924667686545435 0 0 0 -0.0091371845848593272 -0.040179262643350894 0.022457620182382176 0 0.022457620182382176 0.00083593352345506799 0 0 0 -0.009835832279973894 -0.021132741940856192 -0.0029896262763846036 0 -0.0029896262763846036 -0.0078045946146464767 0 0 0 -0.0072343341388756664 -0.024077406290505227 -0.0059164625806572332 0 -0.0059164625806572332 -0.0082078659339015984 0 0 0 -0.0080713180561017075 -0.022071757564261361 0.0032832813378207695 0 0.0032832813378207695 -0.0047377399133882274 0 0 0 -0.0067023743694123944 -0.021029021790434223 0.0020539371344950172 0 0.0020539371344950172 -0.0056297571173384471 0 0 0 -0.0066646947269431659 -0.015122956788354902 -0.0024805662754204226 0 -0.0024805662754204226 0.0075276495470376278 0 0 0 -0.0018988268103293134 -0.013087866013285647 -0.012292911305910691 0 -0.012292911305910691 0.022689939661893071 0 0 0 0.0024005184121518538 -0.018580928724500692 -0.0084739874053056958 0 -0.0084739874053056958 0.01095812665155543 0 0 0 -0.0019057005182363254 -0.02109468107440636 -0.0063771401123334792 0 -0.0063771401123334792 0.016871849106786574 0 0 0 -0.0010557079919049223 -0.018377058739146204 -0.0071528075885896464 0 -0.0071528075885896464 0.01046102176266045 0 0 0 -0.0019790092441214213 -0.012208934071448505 -0.0031127454264780943 0 -0.0031127454264780943 0.017713000086623965 0 0 0 0.0013760165037938893 -0.015178300574844844 -0.0037494168756981305 0 -0.0037494168756981305 0.0099814116518678331 0 0 0 -0.0012992222307442458 -0.059006801157784242 0.0012227609246474812 0 0.0012227609246474812 0.00024997568429496742 0 0 0 -0.014689206368372329 -0.11277636705500352 -0.0030394068529620323 0 -0.0030394068529620323 0.001653040428904351 0 0 0 -0.027780831656524785 -0.0077881045682215502 -0.0039829227544663469 0 -0.0039829227544663469 0.011585717871623463 0 0 0 0.00094940332585047998 -0.0096297023663610981 -0.0035394204342528712 0 -0.0035394204342528712 0.019700685061371986 0 0 0 0.0025177456737527082 -0.030434062183959963 0.00341430707223047 0 0.00341430707223047 0.0035226169187725781 0 0 0 -0.0067278613162968515 -0.0099206246668778249 0.002185494049901154 0 0.002185494049901154 -0.0042876271763122274 0 0 0 -0.0035520629607975135 -0.017483486559880555 -0.0061029090693770554 0 -0.0061029090693770554 -0.0046545012823170553 0 0 0 -0.0055344969605494055 -0.011135100780811927 -0.0023800976350513803 0 -0.0023800976350513803 -0.0071385430323837934 0 0 0 -0.0045684109532989313 -0.0097183760132580933 -0.017362440429845138 0 -0.017362440429845138 0.038907059306232276 0 0 0 0.0072971708232435527 -0.038665413065127281 0.0014230456131740137 0 0.0014230456131740137 -0.0015910106619345041 0 0 0 -0.010064105931765446 -0.035562676912694866 0.0011945333627754124 0 0.0011945333627754124 -0.00078409802350927829 0 0 0 -0.0090866937340510386 -0.049600243203059995 -0.004022038585353398 0 -0.004022038585353398 -0.00095611085580552674 0 0 0 -0.012639088514716377 -0.057679837514926773 -0.004572109331988046 0 -0.004572109331988046 -0.0029516531204965852 0 0 0 -0.015157872658855836 -0.053671007352850686 -0.0029652228789245742 0 -0.0029652228789245742 0.00073734245890344496 0 0 0 -0.013233416223486782 -0.0089121089180886348 0.029822778128337751 0 0.029822778128337751 0.039916343628204398 0 0 0 0.007751058677528927 0.00099811626214624249 -0.0068738680752312986 0 -0.0068738680752312986 0.015152560780744506 0 0 0 0.0040376692607226317 -0.0075174213968959239 -0.005310762781971512 0 -0.005310762781971512 -0.013064211272770005 0 0 0 -0.0051454081674164823 -0.022212064712636374 0.0030935701378249198 0 0.0030935701378249198 -0.0014070393296226837 0 0 0 -0.0059047760105647657 -0.021103646917539295 -0.00068938768213038567 0 -0.00068938768213038567 0.017920822328166063 0 0 0 -0.00079570614734331005 -0.033433988873294004 0.0030695831966537296 0 0.0030695831966537296 -0.00042735019041271333 0 0 0 -0.0084653347659266846 0.0026731659846539468 0.016458108629836765 0 0.016458108629836765 0.011239832475936407 0 0 0 0.0034782496151475328 -0.011963513472148942 0.0031909017440568473 0 0.0031909017440568473 -0.0044058705085406637 0 0 0 -0.0040923459951724018 -0.015305492732752349 -0.0076150224424277463 0 -0.0076150224424277463 -0.0025967778689623688 0 0 0 -0.0044755676504286551 0.0102520893552878 -0.023843312051491795 0 -0.023843312051491795 0.031614675548853971 0 0 0 0.010466691226035442 -0.09756641380508041 0.0071767942610100333 0 0.0071767942610100333 0.001201360156647846 0 0 0 -0.024091263412108044 -0.00756949398038203 0.0014860747310419249 0 0.0014860747310419249 -0.0048526340626921117 0 0 0 -0.0031055320107685356 -0.02514196034563063 0.0017783206012728838 0 0.0017783206012728838 -0.0061067763345212358 0 0 0 -0.0078121841700379644 -0.029214315588384374 -0.0035723266998833715 0 -0.0035723266998833715 -0.0083046376971956902 0 0 0 -0.0093797383213950168 -0.0083793859617192629 0.0053643824261819066 0 0.0053643824261819066 0.0049751547221415122 0 0 0 -0.00085105780989443852 -0.044677149352336604 0.0026410192109485378 0 0.0026410192109485378 0.00090921917355454851 0 0 0 -0.010941982544695542 -0.076638838926536348 -0.0073767081635836423 0 -0.0073767081635836423 0.0031429810996445248 0 0 0 -0.018373964456722999 -0.00059388420874961767 0.014888781079652691 0 0.014888781079652691 0.022655511012403817 0 0 0 0.0055154067009133279 -0.021357988841213482 -0.0071617081715172615 0 -0.0071617081715172615 -0.0017084118779804314 0 0 0 -0.00576660017979852 -0.0078165473016748449 0.0011516309881944853 0 0.0011516309881944853 0.028534131789552372 0 0 0 0.0051793961219693818 -0.006424890643910941 -0.010945938154735931 0 -0.010945938154735931 0.0044961384596982068 0 0 0 -0.00048218804605318355 -0.013929293480948367 -0.00021188957858857965 0 -0.00021188957858857965 0.010686521923293904 0 0 0 -0.00081069288941361395 -0.010922156194863628 0.0032862367559434108 0 0.0032862367559434108 0.0017448739892901577 0 0 0 -0.0022943205513933683 -0.0082969943865878418 0.00020205435853949056 0 0.00020205435853949056 -0.0063508063453200821 0 0 0 -0.003661950182976981 -0.019003507304330067 0.0023924834025933553 0 0.0023924834025933553 0.00060221026303793285 0 0 0 -0.0046003242603230342 -0.015255779988475812 -0.0063163827183707784 0 -0.0063163827183707784 0.048612430474687315 0 0 0 0.0083391626215528758 -0.01559754614621397 -0.0062676234579581505 0 -0.0062676234579581505 0.04568842047316711 0 0 0 0.0075227185817382872 -0.018566091153728842 -0.011185499617101302 0 -0.011185499617101302 -0.00017514095296011778 0 0 0 -0.0046853080266722746 -0.016507010032714542 -0.010854961724307333 0 -0.010854961724307333 -7.4592875677015336e-05 0 0 0 -0.0041454007270979587 -0.008489224244117799 0.020121408873254865 0 0.020121408873254865 0.0094389849609979315 0 0 0 0.0002374401792201164 -0.011481606338985095 0.021591079439283734 0 0.021591079439283734 0.0074852664643709765 0 0 0 -0.00099908496865364071 -0.0081974880307089659 0.021698645875052429 0 0.021698645875052429 0.0054623902955115433 0 0 0 -0.00068377443379941116 0.0067850172737397019 0.020060513695937088 0 0.020060513695937088 0.0084374916249430054 0 0 0 0.0038056272246707046 -0.0094271234691122342 0.0021538671872710492 0 0.0021538671872710492 -0.0031427145073399205 0 0 0 -0.003142459494113038 -0.0070135998258595983 -0.00011311812482216188 0 -0.00011311812482216188 0.037251880451009176 0 0 0 0.0075595701562873874 -0.012545007554514574 -0.0011485287594814597 0 -0.0011485287594814597 0.016542224198884958 0 0 0 0.00099930416109261441 -0.037273306375066706 -0.0064957321682108937 0 -0.0064957321682108937 0.00017403380769553944 0 0 0 -0.0092748181418427778 -0.041844959114086325 -0.0023317890622933379 0 -0.0023317890622933379 -0.00012521889062402924 0 0 0 -0.01049254450117755 -0.071573697756675603 0.0056137765618567426 0 0.0056137765618567426 -0.00042852336240117861 0 0 0 -0.018000555279769237 -0.0018026457061699336 0.010742797153318839 0 0.010742797153318839 0.011481460449326603 0 0 0 0.0024197036857891638 -0.00056046422966085641 0.011350344128918855 0 0.011350344128918855 0.014432041547605731 0 0 0 0.0034678943294862152 -0.0086988386183625838 0.0030981218534702716 0 0.0030981218534702716 -0.0032837674243561647 0 0 0 -0.0029956515106796871 -0.01021735325273951 0.0026507891629736257 0 0.0026507891629736257 -0.004593619915333802 0 0 0 -0.003702743292018328 -0.065865628045069513 -0.0066352745815724395 0 -0.0066352745815724395 -0.0026645790265246092 0 0 0 -0.017132551767898525 -0.041179474337354 0.0023137134211975996 0 0.0023137134211975996 -0.0006081909195470199 0 0 0 -0.010446916314225257 -0.037177344364435858 0.003615592101023522 0 0.003615592101023522 -0.00090825484515758698 0 0 0 -0.0095213998023983559 -0.0010437999303906098 0.015948314508645645 0 0.015948314508645645 0.032056479750069755 0 0 0 0.0077531699549198141 -0.017579576118852691 -0.0051646486286938686 0 -0.0051646486286938686 0.001475997444006949 0 0 0 -0.0040258946687113939 -0.010134937817976041 -0.00085364148842632633 0 -0.00085364148842632633 -0.0055045493236040568 0 0 0 -0.0039098717853950247 -0.0041382051016371976 -9.9984438769143424e-05 0 -9.9984438769143424e-05 -0.0049516598374737507 0 0 0 -0.0022724662347777362 -0.026922156802140912 -0.009898910438174785 0 -0.009898910438174785 0.0027345966619370943 0 0 0 -0.0060468900350509891 -0.024034695055304752 -0.0085768671324856216 0 -0.0085768671324856216 -0.0023125181869519396 0 0 0 -0.0065868033105641599 -0.012658054431494207 -0.0032094213748963124 0 -0.0032094213748963124 0.010166191888510541 0 0 0 -0.00062296563574592081 0.00092412655653249798 0.007967328408543646 0 0.007967328408543646 0.0054503579074555442 0 0 0 0.001593621115997014 -0.039602620270973776 0.021544854510796907 0 0.021544854510796907 0.0024773652663199197 0 0 0 -0.009281313751163478 -0.039980870859047356 0.00076796451843501312 0 0.00076796451843501312 0.001803537151542689 0 0 0 -0.0095443334268761823 -0.068167900805072679 -0.0015864008929930354 0 -0.0015864008929930354 0.0048006026859035433 0 0 0 -0.015841824529792325 -0.0032359259034632493 -0.002563568138638006 0 -0.002563568138638006 -0.019397325323112335 0 0 0 -0.0056583128066439448 -0.0065950046341434754 -0.004791267398525631 0 -0.004791267398525631 -0.024431928636094891 0 0 0 -0.0077567333175595499 -0.032741694423811897 0.004000658961333569 0 0.004000658961333569 -0.00029809101798069018 0 0 0 -0.0082599463604481494 -0.028259668450977989 0.0032676094319116326 0 0.0032676094319116326 -0.0007228875366776643 0 0 0 -0.0072456389969138973 -0.015173538522537139 -0.00027514233264520471 0 -0.00027514233264520471 0.0061951996287167854 0 0 0 -0.0022445847234550918 -0.04217436024201926 0.0042050170370878034 0 0.0042050170370878034 0.00087779081946276483 0 0 0 -0.010324142355639106 -0.045600444490903995 -0.0095999973750478321 0 -0.0095999973750478321 -0.0037178900791688535 0 0 0 -0.012329583642518205 -0.0017810918551832164 0.00074893868049125123 0 0.00074893868049125123 -0.022761529528302717 0 0 0 -0.006135655345871462 -0.030519032372104238 0.027069498108726553 0 0.027069498108726553 0.0036482138635127725 0 0 0 -0.0067177046271477692 -0.010527143419668669 0.0025069607842776401 0 0.0025069607842776401 -0.0035093831545305715 0 0 0 -0.0035091316435498106 0.01813889176473403 0.0079588005654794847 0 0.0079588005654794847 0.030693898259290919 0 0 0 0.01220819750600631 0.011759935435109883 0.015753347073901212 0 0.015753347073901212 0.038754290358757618 0 0 0 0.012628556448466879 -0.064268296211483944 0.0043034689758639777 0 0.0043034689758639777 0.0099695397526323934 0 0 0 -0.013574689114712879 0.0021471848643471597 0.017106126090022399 0 0.017106126090022399 0.041965848974999637 0 0 0 0.011028258459836696 0.0075542778549944067 0.014334022834126199 0 0.014334022834126199 0.027036492982692673 0 0 0 0.0086476927094217698 -0.024603164673248877 0.0036870024027750286 0 0.0036870024027750286 0.00019707801243470241 0 0 0 -0.0061015216652035454 -0.016517071325927016 0.0021188954664172564 0 0.0021188954664172564 -0.0012587382884993363 0 0 0 -0.0044439524036065815 -0.062415032801086456 0.017465846123432799 0 0.017465846123432799 0.0059141308575745288 0 0 0 -0.014125225485878079 -0.021876734729663404 -0.005760952167157718 0 -0.005760952167157718 0.022126909077864812 0 0 0 6.2543587050347543e-05 -0.0072944283237894019 0.011877798254932806 0 0.011877798254932806 0.046285780543625754 0 0 0 0.0097478380549590894 -0.01839553347330411 -0.0091489867475752287 0 -0.0091489867475752287 0.0028935393026678913 0 0 0 -0.0038754985426590616 -0.047528630293433946 -0.0010125839449904028 0 -0.0010125839449904028 0.0011249899062246646 0 0 0 -0.011600910096802346 -0.084573000613769364 0.0025912188355754623 0 0.0025912188355754623 0.0042289798741616536 0 0 0 -0.020086005184901903 -0.025899893278992392 0.012311658334665743 0 0.012311658334665743 -0.0033368092914494163 0 0 0 -0.0073091756426104104 -0.009998012113514726 -0.013583759481627156 0 -0.013583759481627156 0.011070443635798677 0 0 0 0.00026810788057099466 -0.018345012653634168 -0.0064295058980584005 0 -0.0064295058980584005 0.0091562552230446959 0 0 0 -0.002297189357647389 0.0044022238274609576 0.0085836390832431352 0 0.0085836390832431352 0.0062556304795736567 0 0 0 0.0026644635767586536 -0.040868537686892061 -0.0090912147855304257 0 -0.0090912147855304257 -0.0061296592238367868 0 0 0 -0.011749549227682208 -0.038954157248322963 0.0030629494185406281 0 0.0030629494185406281 0.00067789154089760439 0 0 0 -0.0095690664268563604 -0.056356942520045888 -0.0057503753572174243 0 -0.0057503753572174243 0.0024738861290895565 0 0 0 -0.013470764097739035 -0.011698347128730004 -0.0091294519464855152 0 -0.0091294519464855152 0.017236707207694268 0 0 0 0.001384590019741061 -0.030629637072773788 0.002192543864485294 0 0.002192543864485294 0.0012399693428516226 0 0 0 -0.0073474169324805345 -0.014910340519243784 0.0036511619139671094 0 0.0036511619139671094 0.03845562049734283 0 0 0 0.0058863199945247621 -0.0087630443798986171 6.3594962446120543e-06 0 6.3594962446120543e-06 -0.0029203505727200293 0 0 0 -0.0029208487381546626 -0.015733167421729061 -0.0044095489885312839 0 -0.0044095489885312839 0.0045430950174845941 0 0 0 -0.0027975181010611305 -0.046770384733125989 0.0013228384585039915 0 0.0013228384585039915 0.0010347941553790901 0 0 0 -0.011433897644436721 -0.081592371710885875 -0.0043356739820151341 0 -0.0043356739820151341 0.0023262786147643655 0 0 0 -0.019816523274030405 -0.037688851010988539 -0.0077502641925261684 0 -0.0077502641925261684 0.0028088164528715168 0 0 0 -0.0087200086395292625 -0.016876160969707427 -0.007023676403742983 0 -0.007023676403742983 0.011798696475476378 0 0 0 -0.0012693661235577552 -0.012891349460734211 -0.004919849066149222 0 -0.004919849066149222 0.022016142949204454 0 0 0 0.002281198372117571 -0.022971637785067354 0.0026114525892470281 0 0.0026114525892470281 0.0013272243473420389 0 0 0 -0.0054111033594313237 -0.01919254092256048 -0.0084031402410070857 0 -0.0084031402410070857 0.003188972603508311 0 0 0 -0.0040008920797630354 -0.028126668483809035 -0.0095539756347794991 0 -0.0095539756347794991 0.00091661335785813911 0 0 0 -0.0068025137814877656 -0.027658522120276169 0.0027572685543381034 0 0.0027572685543381034 0.0011750910330564704 0 0 0 -0.0066208577718049333 -0.017719420071939745 -0.0092078903028523437 0 -0.0092078903028523437 0.0031190860356477834 0 0 0 -0.0036500835090729766 -0.0089305365152399785 0.00011050621518070977 0 0.00011050621518070977 -0.0067794492788801992 0 0 0 -0.0039274964485300446 -0.048475218041209009 0.00077333813771668369 0 0.00077333813771668369 0.00078979612845388181 0 0 0 -0.01192135547818883 -0.087941707648082942 -0.0018070122567026281 0 -0.0018070122567026281 0.0011692440814292659 0 0 0 -0.021693115891663436 -0.025946937471733322 -0.0043901711905661722 0 -0.0043901711905661722 -0.0014014085893258588 0 0 0 -0.0068370865152647675 0.0094060976468912372 0.0097048675453655919 0 0.0097048675453655919 0.037918594051258692 0 0 0 0.011831172924537364 0.0044546409559862998 0.014438371822036444 0 0.014438371822036444 0.029126743512677411 0 0 0 0.0083953461171659138 -0.020256636388089166 -0.0038253405809389475 0 -0.0038253405809389475 -0.0011945523499594657 0 0 0 -0.005362797184512158 0.0089951988821672657 0.0088080671930204565 0 0.0088080671930204565 0.052149510025172319 0 0 0 0.015286177226834674 -0.0071812090361230568 -0.0072224165422794433 0 -0.0072224165422794433 0.0058623405729253675 0 0 0 -0.00032971711579943275 -0.022618076462929931 -0.0080408413140689028 0 -0.0080408413140689028 0.0071625546405412743 0 0 0 -0.0038638804555971573 0.012245140991269665 -0.00049533204937283158 0 -0.00049533204937283158 0.043293620502874774 0 0 0 0.013884690373536096 0.018454244218460369 -0.0008454464654068794 0 -0.0008454464654068794 0.078252108285961297 0 0 0 0.024176588126105389 -0.054804186945744196 -0.0086526924973128472 0 -0.0086526924973128472 0.010182255853710853 0 0 0 -0.011155482773008332 -0.026510141539971104 0.0029179115755799418 0 0.0029179115755799418 -0.00090096231820204625 0 0 0 -0.0068527759645432857 -0.0083998202847270047 0.0040877447339012201 0 0.0040877447339012201 -0.0013920035289812951 0 0 0 -0.0024479559534270759 -0.041825059330947378 0.019619224240164879 0 0.019619224240164879 -0.0012951667574727654 0 0 0 -0.010780056522104897 -0.0025251396537007281 -0.010992093448329521 0 -0.010992093448329521 0.0081248798822114443 0 0 0 0.0013999350571276409 -0.0076792558963781569 0.0007705737011297687 0 0.0007705737011297687 -0.0049220977553032395 0 0 0 -0.0031503384129203489 -0.023980123294043365 0.0021122282705766 0 0.0021122282705766 0.004994137249251903 0 0 0 -0.0047464965111978777 0.019381965503654341 0.0085897334863496658 0 0.0085897334863496658 0.031968267806107509 0 0 0 0.012837558327440379 -0.016060268598038403 -0.0042268624403739288 0 -0.0042268624403739288 -0.0076555550536540947 0 0 0 -0.0059289559129231239 -0.012606345579518726 -0.0040291058168866467 0 -0.0040291058168866467 0.0020412663407649578 0 0 0 -0.0026412698096884395 -0.010275673056862646 -0.0058674586926720854 0 -0.0058674586926720854 0.0023143068451766764 0 0 0 -0.0019903415529214851 -0.0025906273500625465 0.0029702108243290226 0 0.0029702108243290226 0.0097434395241078331 0 0 0 0.0017882030435113494 0.0055255742395568241 0.0019234501832719464 0 0.0019234501832719464 0.03910825365476317 0 0 0 0.011158456973579978 0.011182286494777358 -0.0054767908129149112 0 -0.0054767908129149112 0.069763047153623137 0 0 0 0.020236333412100113 -0.0017229031095125427 -0.0058399741901658808 0 -0.0058399741901658808 0.022680126969851978 0 0 0 0.0052393059650848381 -0.0048794772658522674 0.0091358881738588388 0 0.0091358881738588388 0.013568000802139227 0 0 0 0.0021721308840717407 -0.0055911635576580271 -0.00869613469171443 0 -0.00869613469171443 0.0015083058436023838 0 0 0 -0.0010207144285139073 -0.00042846816636976127 -0.017097871741084195 0 -0.017097871741084195 0.016671443057502101 0 0 0 0.0040607437227830803 -0.027036313379118437 -0.0083444543761885814 0 -0.0083444543761885814 0.001689786449426911 0 0 0 -0.0063366317324229093 -0.033121068780684181 0.0032661138974097908 0 0.0032661138974097908 0.0003873357903895619 0 0 0 -0.0081834332475736477 -0.028122705428405271 0.0041050557751230159 0 0.0041050557751230159 0.00087317569961928299 0 0 0 -0.0068123824321964961 -0.052673695761201185 0.0015583249517858652 0 0.0015583249517858652 0.020638723915256479 0 0 0 -0.0080087429614861677 -0.0093099736743373074 0.00084431593750147749 0 0.00084431593750147749 0.0027526088880501232 0 0 0 -0.0016393411965717752 -0.0075070970814292703 -0.0057267094952493658 0 -0.0057267094952493658 0.0098306117206196642 0 0 0 0.00058087865979761233 -0.0082800255950191467 0.0045262027390350536 0 0.0045262027390350536 0.0016782252840047591 0 0 0 -0.0016504500777535947 -0.00015019998885193453 -0.00039699304757562226 0 -0.00039699304757562226 -0.022250998014999857 0 0 0 -0.0056002995009629686 -0.012156710538109669 0.0026168970148989761 0 0.0026168970148989761 -0.0031915984815198591 0 0 0 -0.0038370772549073794 -0.018207105611630151 -0.0090689767728535237 0 -0.0090689767728535237 0.008586041552396298 0 0 0 -0.0024052660148084493 -0.0073325555631822805 0.00081554522721662592 0 0.00081554522721662592 -0.0070760974933300903 0 0 0 -0.0036021632641280929 -0.013631057565131388 0.023910005602870932 0 0.023910005602870932 0.0013640091606779148 0 0 0 -0.0030667621011133406 -0.01438792135004377 0.024083295147922845 0 0.024083295147922845 -7.5516155204125024e-05 0 0 0 -0.0036158593763118418 -0.014294793610762385 -0.014013169728957386 0 -0.014013169728957386 0.0013644779330619639 0 0 0 -0.0032325789194250498 0.0078946132051636517 -0.032450535318450047 0 -0.032450535318450047 0.065071080212808274 0 0 0 0.018241423354492969 -0.008010358114175907 0.0011532815788120516 0 0.0011532815788120516 -0.0060670764571327971 0 0 0 -0.0035193586428271754 -0.026647789316104786 -0.0052401382672716545 0 -0.0052401382672716545 0.0014299173951881627 0 0 0 -0.0063044679802291559 0.00044801610219191712 0.00018252034423738017 0 0.00018252034423738017 -0.00013752056151816738 0 0 0 7.7623885168409679e-05 0.024720084021382704 0.0011107560401808492 0 0.0011107560401808492 0.084071328137811818 0 0 0 0.027197853039798603 0.016688649410467757 -0.0077088173995316644 0 -0.0077088173995316644 0.061882731028618146 0 0 0 0.019642845109771309 0.010689409920244142 0.0040471575301954665 0 0.0040471575301954665 0.033800097639329119 0 0 0 0.01112237688989326 0.00062171949085043643 -0.0002543931752420212 0 -0.0002543931752420212 -0.00020861615556722057 0 0 0 0.00010327583382108152 -0.00027789018203667782 0.00028501663668090149 0 0.00028501663668090149 0.00053833488481682583 0 0 0 6.5111175695009248e-05 0.016235582994652775 -0.002264804245467422 0 -0.002264804245467422 0.049782885178744962 0 0 0 0.016504617043349379 -0.00036532019601964727 -0.00041943345238548702 0 -0.00041943345238548702 0.00078688365232215673 0 0 0 0.00010539086407557186 -0.0093102857784804934 0.00046334459620119407 0 0.00046334459620119407 -0.0055837477192475261 0 0 0 -0.0037235083744320044 -0.016525379962276012 -0.008832759332677742 0 -0.008832759332677742 0.00026252861385931553 0 0 0 -0.0040657128371041741 -0.027583324197815434 0.0036354270149608417 0 0.0036354270149608417 0.0026001616363106883 0 0 0 -0.0062457906403761941 -0.023352909192073806 -0.011687675141210552 0 -0.011687675141210552 0.0023387735505960849 0 0 0 -0.0052535339103693957 -0.011901444774444507 -0.0010201395964124333 0 -0.0010201395964124333 -0.0071904096659964004 0 0 0 -0.0047729636101102252 -0.015481912345648885 0.01989824867404244 0 0.01989824867404244 -0.0049489644206364147 0 0 0 -0.0051077191915713804 -0.012086733225510404 -0.015931387662020735 0 -0.015931387662020735 -0.0001786723050379857 0 0 0 -0.0030663513826371669 -0.0012293640330976741 -0.002294704018811225 0 -0.002294704018811225 0.030057803843973385 0 0 0 0.0072071099527189209 0.0016273765804440538 -0.00077746056151867249 0 -0.00077746056151867249 0.057036421361340184 0 0 0 0.014665949485446084 -0.017810942414067592 0.0030886787320060297 0 0.0030886787320060297 0.027260519443111503 0 0 0 0.0023623942572609802 -0.025242194037704301 0.0013887664401835385 0 0.0013887664401835385 0.0026900431732374275 0 0 0 -0.0056380377161167061 -0.012561872798252119 -0.0051691785286069125 0 -0.0051691785286069125 0.020287905915677751 0 0 0 0.0019315082793563976 -0.0064152570742372975 0.0016568896375126901 0 0.0016568896375126901 0.042142123183626645 0 0 0 0.0089317165273473317 -0.014281831418479038 -0.012757867666902206 0 -0.012757867666902206 0.0037221597728622768 0 0 0 -0.0026399179114041799 -0.0073094152912584528 0.003995325034168753 0 0.003995325034168753 -0.0010148537903464198 0 0 0 -0.0020810672704012169 -0.01305855232674985 -0.015902899948805005 0 -0.015902899948805005 0.0043548885447937113 0 0 0 -0.0021759159454889931 -0.020012928795780649 0.018324703963551792 0 0.018324703963551792 -0.0016692217400795517 0 0 0 -0.0054205376339651057 -0.013365629167023302 -0.002150933640726202 0 -0.002150933640726202 0.0088409142464755675 0 0 0 -0.0011311787301369336 -0.0089664688921155047 -0.0020653895324175796 0 -0.0020653895324175796 0.010307490556104443 0 0 0 0.0003352554159972293 -0.01874405866809643 0.0025518151702766576 0 0.0025518151702766576 -0.0014630522428332807 0 0 0 -0.0050517777277324285 -0.019374222686199365 -0.0014870066904275822 0 -0.0014870066904275822 0.014447380662897753 0 0 0 -0.0012317105058253872 0.0047211600255494743 -0.01035325978300608 0 -0.01035325978300608 0.0095589715135447617 0 0 0 0.0035700328847735538 -0.015667764167215704 -0.0093291736886260274 0 -0.0093291736886260274 0.0020550266236032972 0 0 0 -0.0034031843859031229 0.019982532474211556 -0.0077995837307005544 0 -0.0077995837307005544 0.011426358109585311 0 0 0 0.0078522226459492028 -0.0098775568175266809 -0.0038885448843656856 0 -0.0038885448843656856 0.019032647636971434 0 0 0 0.0022887727048612055 -0.015221573202684413 -0.0051967308872928886 0 -0.0051967308872928886 0.0027696862740167194 0 0 0 -0.0031129717321669303 -0.030304007179719185 0.0027613741991107674 0 0.0027613741991107674 -0.00093633382163541522 0 0 0 -0.0078100852503386487 -0.018660192360379038 -0.0029513027854322317 0 -0.0029513027854322317 0.017267642363696174 0 0 0 -0.00034813749917072569 -0.018701926849842298 -0.0023434451935417855 0 -0.0023434451935417855 0.021398163946489749 0 0 0 0.00067405927416186104 0.01204290476070341 0.025396677272573311 0 0.025396677272573311 0.070764234142594945 0 0 0 0.020701784725824596 -0.0097439821942425647 -0.0054243668553258864 0 -0.0054243668553258864 0.080820914350881623 0 0 0 0.017769233039159747 0.012543699196023606 0.0096604729212848607 0 0.0096604729212848607 0.037677140418059363 0 0 0 0.012555209903520881 -0.0080538084255283166 0.010228390782388574 0 0.010228390782388574 0.018237359469344863 0 0 0 0.0025458877609541367 -0.029375463042042416 -0.0043274995980514055 0 -0.0043274995980514055 0.00039058534799751854 0 0 0 -0.0072462194235112798 -0.018889739940561034 0.0026276860330359353 0 0.0026276860330359353 -0.0022515753708736144 0 0 0 -0.0052853288278586642 -0.038899301480111115 -0.0047216517018522676 0 -0.0047216517018522676 -0.0060094364457402537 0 0 0 -0.01122718448146284 -0.030483945396557667 0.0016530425955018952 0 0.0016530425955018952 -0.0035614807881155421 0 0 0 -0.0085113565461682993 -0.0038251894643309128 0.0018649527959506574 0 0.0018649527959506574 -0.0057459211129999421 0 0 0 -0.0023927776443327135 -0.041729669851740536 -0.002805217483406678 0 -0.002805217483406678 -0.00065552270755477656 0 0 0 -0.010596298139823828 -0.036867944508050032 -0.0030606820537751483 0 -0.0030606820537751483 -0.0080518106765978849 0 0 0 -0.011229938796161984 -0.058927750029752396 0.0024187810373124414 0 0.0024187810373124414 -0.00023684173166190099 0 0 0 -0.014791147940353572 -0.052257095395233627 0.0026682890597974655 0 0.0026682890597974655 -0.010947596703619333 0 0 0 -0.015801173024713237 -0.022342765608266407 -0.0063489639067727949 0 -0.0063489639067727949 0.0086660478232676724 0 0 0 -0.0034191794462496948 -0.0066612000246723153 0.0016297114739749171 0 0.0016297114739749171 -0.0053920223508631196 0 0 0 -0.0030133055938838583 0.013916277906768804 0.01465221760068991 0 0.01465221760068991 0.011138516090048456 0 0 0 0.0062636984992043288 -0.0092855411264177179 -0.0004330132886420715 0 -0.0004330132886420715 0.027665070575706274 0 0 0 0.0045948823623221113 -0.0028905178982974265 0.013839577111678131 0 0.013839577111678131 0.028030953796228518 0 0 0 0.006285108974482775 -0.013617034816154061 -0.011637785836450275 0 -0.011637785836450275 0.01224677491768067 0 0 0 -0.00034256497461836177 -0.002360977554935167 0.00080146075952436391 0 0.00080146075952436391 0.00096847500302801946 0 0 0 -0.00034812563797673147 -0.0013285416901560384 -0.0044865125067869993 0 -0.0044865125067869993 -0.0037902471196569663 0 0 0 -0.0012796972024532235 -0.0019781188564205452 0.0052412352180284394 0 0.0052412352180284394 0.00045412297819527977 0 0 0 -0.00038099896955626087 -0.001706471165819479 -0.00065051882029909525 0 -0.00065051882029909525 0.00047001886817659078 0 0 0 -0.00030911307441086079 -0.0067945993061341893 0.0030546687153367447 0 0.0030546687153367447 -0.0047230044029002022 0 0 0 -0.0028794009272586109 -0.0073261440584692084 -0.0077236740993599298 0 -0.0077236740993599298 -0.0056645847178459774 0 0 0 -0.0032476821940788103 -0.039578812443737982 -0.0050038520907962339 0 -0.0050038520907962339 -0.013169292445029809 0 0 0 -0.013187026222191946 -0.055763909354296495 0.0054228037846631438 0 0.0054228037846631438 -0.018553820244663788 0 0 0 -0.018579432399740067 -0.063236555630302491 0.0056142226112850966 0 0.0056142226112850966 -0.0086091502314575227 0 0 0 -0.017961426465440002 -0.045016261686982459 -0.005056699946578801 0 -0.005056699946578801 -0.0063159455878350201 0 0 0 -0.012833051818704371 -0.013560083019054439 -0.014332801566604741 0 -0.014332801566604741 0.0055290442941661744 0 0 0 -0.002007759681222035 -0.018938100682286858 0.0027317618540950795 0 0.0027317618540950795 0.00058720632912553916 0 0 0 -0.0045877235882903359 -0.016994332517501543 -0.0093902138594661073 0 -0.0093902138594661073 0.0054685868609942179 0 0 0 -0.0028814364141268242 -0.016025954686848351 -0.0093104225196526044 0 -0.0093104225196526044 0.0019338065964425721 0 0 0 -0.0035230370226014412 -0.015928047116163146 0.0022543977227574381 0 0.0022543977227574381 0.00063338180790156913 0 0 0 -0.0038236663270653959 -0.010356220197733986 0.0028136552955580138 0 0.0028136552955580138 -0.0026351694099751698 0 0 0 -0.0032478474019272878 -0.010263348725661854 0.003177658766185136 0 0.003177658766185136 -0.0023303661164028495 0 0 0 -0.003148428710516175 -0.01786749252334955 -0.014417598556299677 0 -0.014417598556299677 0.05165429225180021 0 0 0 0.0084466999321126737 0.0068684574824601045 -0.0015174061385015564 0 -0.0015174061385015564 0.14531353994136753 0 0 0 0.038045499355956913 -0.028056405337541716 -0.0039070397975822235 0 -0.0039070397975822235 0.0062914066882004335 0 0 0 -0.0054412496623353276 -0.010333776815994955 -0.0027250708414824354 0 -0.0027250708414824354 0.018374501107426333 0 0 0 0.0020101810728578445 -0.016197349316783197 -0.0053052081384439148 0 -0.0053052081384439148 0.012017137294187741 0 0 0 -0.0010450530056488744 -0.010357620796714768 0.0037192454407170001 0 0.0037192454407170001 0.0020644589689691704 0 0 0 -0.0020732904569364021 -0.0079361689288908743 0.017122633129853959 0 0.017122633129853959 0.018811138477606848 0 0 0 0.0027187423871791183 -0.01511020666529056 -0.0070451864340889125 0 -0.0070451864340889125 -0.00081579554882338368 0 0 0 -0.0039815005535285275 0.0039591359191506886 -0.0116135047193805 0 -0.0116135047193805 0.022721897181482903 0 0 0 0.0066702582751584014 -0.0073773358941104251 -0.0025424067801779887 0 -0.0025424067801779887 0.0086389617279914455 0 0 0 0.00031540645847025726 -0.023112195364701993 0.014308377224794722 0 0.014308377224794722 0.00098484373293161731 0 0 0 -0.0055318379079427604 -0.011488030609688893 -0.013890306203695468 0 -0.013890306203695468 0.010817079194707424 0 0 0 -0.00016773785374540884 -0.0070273509289969782 -0.011229119412524649 0 -0.011229119412524649 0.010300774383415479 0 0 0 0.0008183558636046806 -0.011115498834307277 -0.0015760747170957129 0 -0.0015760747170957129 -0.0067514131133932231 0 0 0 -0.004466727986925087 -0.0078862906899768784 -0.0050259355807680539 0 -0.0050259355807680539 0.022519189709565568 0 0 0 0.0036582247548971672 -0.010864147715731028 -0.0043650036415877492 0 -0.0043650036415877492 -0.0056103254715230352 0 0 0 -0.0041186182968135157 -0.010351092532594135 -0.004323819951991964 0 -0.004323819951991964 -0.022482065246469854 0 0 0 -0.0082082894447660024 -0.021085755139729486 0.0030338841294748581 0 0.0030338841294748581 -0.0026010733182698139 0 0 0 -0.0059217071144998298 -0.018562006891261706 0.0030481356780355361 0 0.0030481356780355361 -0.0030001500365566458 0 0 0 -0.0053905392319545942 -0.018418878401954362 -0.00045633323467074612 0 -0.00045633323467074612 0.012233583217802258 0 0 0 -0.001546323796038032 -0.019995352731460428 -0.0052221694282098205 0 -0.0052221694282098205 0.014861605508568076 0 0 0 -0.0012834368057230844 -0.015056013601579338 0.0020333063864299808 0 0.0020333063864299808 -0.0021861367145279299 0 0 0 -0.0043105375790268184 -0.013625148369760006 0.0027962188122361616 0 0.0027962188122361616 0.00094888714890549366 0 0 0 -0.00316906530521363 -0.01488145342050138 0.0022381776440170082 0 0.0022381776440170082 0.00066252453337092929 0 0 0 -0.0035547322217826059 -0.0068487079421909319 0.0041530535192769447 0 0.0041530535192769447 -0.019451171722222993 0 0 0 -0.0065749699161035263 -0.0032139362876809352 0.0048657511427187133 0 0.0048657511427187133 -0.0078542162601875631 0 0 0 -0.0027670381369671315 -0.0040211447547242214 -0.0082203354824011976 0 -0.0082203354824011976 -0.0059234048705754383 0 0 0 -0.0024861374063248794 -0.0076212334706299428 -0.007575071523351129 0 -0.007575071523351129 -0.017711279675037384 0 0 0 -0.0063331282864168142 -0.0047663522164526073 -0.014246995731467718 0 -0.014246995731467718 0.051745863167525608 0 0 0 0.011744877737768257 -0.0071395730650052336 0.012794445567173574 0 0.012794445567173574 0.0030660571385690005 0 0 0 -0.0010183789816089472 -0.00075700155002655922 -0.0020092760966844425 0 -0.0020092760966844425 -0.0037135886021990583 0 0 0 -0.0011176475380565432 -0.0050926650046202726 -0.010158711044319868 0 -0.010158711044319868 -0.00078182973793750055 0 0 0 -0.0014686236856394086 -0.00099277821641530206 0.0026824153995979039 0 0.0026824153995979039 -0.0050931610571787189 0 0 0 -0.001521484818398533 -0.025107645845616311 0.019045071380541484 0 0.019045071380541484 -0.0021378526917339435 0 0 0 -0.0068113746343376746 -0.013265849701938226 -0.015943502038300007 0 -0.015943502038300007 0.0045592107264031956 0 0 0 -0.0021766597438837576 -0.0088425046804549434 -0.013399643130507399 0 -0.013399643130507399 0.0057560192995147474 0 0 0 -0.00077162134523506287 -0.016237828374610332 -0.0016601407829585652 0 -0.0016601407829585652 0.017439236649702577 0 0 0 0.0003003520687730511 -0.0034205316261610719 0.0078201270691108382 0 0.0078201270691108382 -0.0088135748027626803 0 0 0 -0.0030585266072309381 -0.00016801803218735589 -0.00072108351438171514 0 -0.00072108351438171514 -0.0009359774649242425 0 0 0 -0.00027599887427798286 -0.00032238083157021258 0.00084389959697372952 0 0.00084389959697372952 -0.0011097408738689474 0 0 0 -0.00035803042635973448 -0.0028476214041178172 -0.0063130724062849808 0 -0.0063130724062849808 -0.0098035549481461093 0 0 0 -0.0031627940880659122 -0.013576681283372499 -0.0029763141413469002 0 -0.0029763141413469002 -0.013447608489932539 0 0 0 -0.0067560724433262387 0.0078053270384868846 -0.012597530014406166 0 -0.012597530014406166 0.0046699895897063387 0 0 0 0.0031188291570483119 0.011934762522132498 -0.0011417677508434587 0 -0.0011417677508434587 0.041181121349539593 0 0 0 0.013278970967918031 0.018882654202918847 0.00028736270955986853 0 0.00028736270955986853 0.074152513004344056 0 0 0 0.023258791801815698 -0.0083813353873755016 0.0032393750687897288 0 0.0032393750687897288 -0.0033734687920263309 0 0 0 -0.0029387010448504573 -0.03922606924576133 0.018044939103473906 0 0.018044939103473906 0.0011286933696847967 0 0 0 -0.0095243439690191334 -0.041382969619025212 0.015943610777762629 0 0.015943610777762629 -0.00092084827732619168 0 0 0 -0.010575954474087879 -0.013724750102125703 -0.0041187331749540645 0 -0.0041187331749540645 -0.0055256610552410854 0 0 0 -0.0048126027893417283 -0.01451568275024008 5.3133629056754082e-05 0 5.3133629056754082e-05 0.0053442316722942997 0 0 0 -0.0022928627694864382 -0.018585468845094454 -0.0089992971819931739 0 -0.0089992971819931739 0.0048577368101191364 0 0 0 -0.0034319330087438423 -0.015806199256547915 -0.010676165130381408 0 -0.010676165130381408 0.010439822038031369 0 0 0 -0.0013415943046291429 -0.026286462765275354 0.019124654260517418 0 0.019124654260517418 -0.0023395557177163795 0 0 0 -0.0071565046207479055 -0.01240847368208231 -0.014480352580540048 0 -0.014480352580540048 0.0058221106430111913 0 0 0 -0.0016465907597678076 -0.013423153051530134 -0.014741455164805267 0 -0.014741455164805267 0.0051654421485812785 0 0 0 -0.0020644277257372279 -0.036350641809439331 0.0010693707588465976 0 0.0010693707588465976 -0.0034668936844388931 0 0 0 -0.0099543838734695543 -0.051323924507953804 -0.0044239573842335912 0 -0.0044239573842335912 -0.0059364961903175468 0 0 0 -0.014315105174567834 -0.047072440633883689 -0.0064112564747082204 0 -0.0064112564747082204 -0.00041703834070897297 0 0 0 -0.011872369743648161 -0.034409472234675796 0.002243695035561522 0 0.002243695035561522 -0.00042957398356840808 0 0 0 -0.0087097615545610636 -0.016494260681937722 -0.00040416908614630874 0 -0.00040416908614630874 0.0081338676969875297 0 0 0 -0.0020900982462375328 -0.036693973088735565 0.015025616849124956 0 0.015025616849124956 -0.0024935251597693053 0 0 0 -0.0097968745621260789 -0.0080932360413564219 -0.01274626419053948 0 -0.01274626419053948 0.010119757369666305 0 0 0 0.00050663033207742902 -0.0083970047664813641 -0.012659352489001185 0 -0.012659352489001185 0.0083634943460577649 0 0 0 -8.3776051059136769e-06 -0.024252215625398279 -0.013184109174698311 0 -0.013184109174698311 0.0044195794841454666 0 0 0 -0.0049581590353132386 -0.014971462429523633 -0.0034344963860601652 0 -0.0034344963860601652 -0.008702645624950503 0 0 0 -0.005918527013618561 -0.0074170870823995448 -0.0075115905402476871 0 -0.0075115905402476871 -0.0032040943338365463 0 0 0 -0.0026552953540590236 -0.014423996863312416 -0.0023241678087432211 0 -0.0023241678087432211 0.0054543269929998583 0 0 0 -0.0022424174675781429 -0.030528107146067469 0.0033219996506346186 0 0.0033219996506346186 -0.0020700766121138341 0 0 0 -0.0081495459395453246 -0.043130249884556299 0.024229128239663777 0 0.024229128239663777 0.0075614925256015375 0 0 0 -0.0088921893397385932 -0.027549288584597903 -0.010946122717478579 0 -0.010946122717478579 0.0046164728891804341 0 0 0 -0.0057332039238543742 -0.010126052567375372 0.021791757208589946 0 0.021791757208589946 0.0031099962268825027 0 0 0 -0.0017540140851233857 -0.018153308798104607 -0.011775067679799411 0 -0.011775067679799411 -0.0022210516128309474 0 0 0 -0.0050935901027337922 -0.0072211405625987601 0.026162110341824196 0 0.026162110341824196 0.0031610162227393435 0 0 0 -0.001015031084964868 -0.028553475647370187 0.002966737469583005 0 0.002966737469583005 1.7872079236534374e-05 0 0 0 -0.0071339008920334075 -0.015321380525013195 0.00074765613235363399 0 0.00074765613235363399 0.0036794031504260982 0 0 0 -0.0029104943436467777 -0.02389585558819185 -0.012016941183748048 0 -0.012016941183748048 0.0015090597590888821 0 0 0 -0.0055966989572758252 -0.001530264139173584 0.005936511683465151 0 0.005936511683465151 0.010629826555726994 0 0 0 0.0022748906041383608 -0.001352646320240819 -0.0087999672659909156 0 -0.0087999672659909156 0.02344803410285734 0 0 0 0.005523846945654165 -0.014435391035462852 0.0014090881200386207 0 0.0014090881200386207 7.8528805291752868e-05 0 0 0 -0.0035892155575427743 0.00075625600357609457 0.00020946410604438803 0 0.00020946410604438803 1.1299064863301567e-05 0 0 0 0.00019188876710951597 -0.0035121009329148745 0.0015059331670451703 0 0.0015059331670451703 -0.0011718171679921952 0 0 0 -0.0011709795252268229 -0.00055774817643516883 -0.007552305660938341 0 -0.007552305660938341 0.0061938951268778464 0 0 0 0.0014090367376107249 -0.0056617501240023849 -0.005406251735909251 0 -0.005406251735909251 0.0048819921108684827 0 0 0 -0.00019493950328353105 -0.0085625636494941482 0.0069075730337486707 0 0.0069075730337486707 0.014764145476729773 0 0 0 0.0015503954568087952 0.00054031831156131638 -0.00017390156069718721 0 -0.00017390156069718721 -9.5390853802612696e-06 0 0 0 0.00013269480654531929 0.00093298523199702998 0.0080779102529386915 0 0.0080779102529386915 0.017691989479549974 0 0 0 0.0046562436778867511 -0.0026133677331469096 -0.0011403617200038685 0 -0.0011403617200038685 -0.0008822096848908334 0 0 0 -0.00087389435450935249 -0.014656399974734641 -0.0048993095886985527 0 -0.0048993095886985527 -0.0098139295282120287 0 0 0 -0.0061175823757366743 -0.015715089106923735 -0.0045430675269050712 0 -0.0045430675269050712 0.0049073442654676835 0 0 0 -0.0027019362103640199 -0.018684890725507095 -0.0051341143746514196 0 -0.0051341143746514196 0.0041392427710664204 0 0 0 -0.0036364119886101304 -0.0095483762720424276 -0.0011886581262720852 0 -0.0011886581262720852 -0.011824569421606021 0 0 0 -0.0053432364234120983 -0.0098498094500699684 -0.00020303131087145987 0 -0.00020303131087145987 -0.010833171038473921 0 0 0 -0.0051707451221359724 -0.0097159924738751038 0.012448604667818761 0 0.012448604667818761 0.039075106750695941 0 0 0 0.0073397785692051968 -0.020516873197222067 -0.0088032684708204516 0 -0.0088032684708204516 0.00317705794321093 0 0 0 -0.0043349538135027885 -0.021394813265483266 -0.012844810235834503 0 -0.012844810235834503 0.0012675499378451555 0 0 0 -0.0050318158319095224 -0.023795932151057249 0.0019960676737257686 0 0.0019960676737257686 0.0012304713746726925 0 0 0 -0.0056413651940961408 -0.049452331601537003 0.015803534968897026 0 0.015803534968897026 0.0018870566185247295 0 0 0 -0.01189131874575311 -0.040535344664700657 0.022953226399516469 0 0.022953226399516469 0.017626492901423596 0 0 0 -0.0057272129408192374 -0.0065523126297402298 0.011863562792579975 0 0.011863562792579975 0.025432758888917384 0 0 0 0.0047201115647942798 -0.012736473664103076 -0.0057404671739634738 0 -0.0057404671739634738 0.0033922933139000078 0 0 0 -0.002336045087550781 -0.014184159884715358 -0.0064915303117029678 0 -0.0064915303117029678 0.0021351969546195004 0 0 0 -0.0030122407325239298 0.0055519159332358195 0.015192948394974818 0 0.015192948394974818 0.026346777359311291 0 0 0 0.0079746733231367758 -0.027507468731629306 -0.010219113341275343 0 -0.010219113341275343 0.0082285866001256813 0 0 0 -0.004819720532875868 -0.032172598261860023 -0.0068033459809738739 0 -0.0068033459809738739 0.00077795653415758947 0 0 0 -0.0078486604319256068 -0.0055088079982888935 0.010324197799631273 0 0.010324197799631273 0.018819548589140728 0 0 0 0.0033276851477129568 0.00021256016948511614 0.012362883171154207 0 0.012362883171154207 0.014620695432385797 0 0 0 0.0037083139004677212 -0.018738808600626197 -0.0065810982274639995 0 -0.0065810982274639995 0.0098629899543220545 0 0 0 -0.0022189546615760253 -0.014880599738752033 -0.00095503810914353911 0 -0.00095503810914353911 0.0042018866231083498 0 0 0 -0.002669678278910916 -0.01455760109619857 -0.00040822669159657713 0 -0.00040822669159657713 0.0079815951484019966 0 0 0 -0.001644001486949145 -0.014587154372476154 0.00015808161654097107 0 0.00015808161654097107 0.013711775382495942 0 0 0 -0.00021884474749504996 0.0051449851473832631 0.011332954018110852 0 0.011332954018110852 0.054645685964437529 0 0 0 0.014947667777955198 -0.015957630108179299 -0.0032062288786447457 0 -0.0032062288786447457 9.3617403176038394e-05 0 0 0 -0.003966003176250843 -0.028532294731110373 0.0039395012148841831 0 0.0039395012148841831 0.00011674219351016923 0 0 0 -0.0071038881344000458 -0.010168514193615523 0.0026383969329237624 0 0.0026383969329237624 -0.0043049306704528679 0 0 0 -0.0036183612160170971 0.01954378651861155 0.0093513248493752865 0 0.0093513248493752865 0.031032678232583266 0 0 0 0.012644116187798815 -0.012208275114792 -0.0034494488298145304 0 -0.0034494488298145304 -0.0090400165243429975 0 0 0 -0.0053120729097837494 -0.024352818068358567 -0.012452427604822132 0 -0.012452427604822132 -0.0012965929852524066 0 0 0 -0.0064123527634027469 -0.035824298516688932 -0.010434796195994005 0 -0.010434796195994005 -0.00020538231695545195 0 0 0 -0.009007420208411103 -0.015511406328111738 -0.0045237033942752553 0 -0.0045237033942752553 0.019815301593285928 0 0 0 0.0010759738162935406 
</DataArray>
<DataArray type="Float64" Name="cross_section_updated" format="ascii">
0.001003429286255838 0.0010086232599269477 0.0010120799229571585 0.0010154999897749536 0.0010192098391059378 0.001023488289877843 0.0010284048358250334 0.0010334804712296183 0.0010387153081274304 0.001043850520883941 0.002012901055737145 0.0020338638632097423 0.0020491354951604037 0.0020635644710191793 0.0020782419452401602 0.0020932285438471508 0.0021084856764062745 0.0021234841461582098 0.0021384554893142086 0.002153228771499204 1 1 1 1 1 1 1 1 1 1 1 1 1 1 1 1 1 1 1 1 1 1 1 1 1 1 1 1 1 1 1 1 1 1 1 1 1 1 1 1 1 1 1 1 1 1 1 1 1 1 1 1 1 1 1 1 1 1 1 1 1 1 1 1 1 1 1 1 1 1 1 1 1 1 1 1 1 1 1 1 1 1 1 1 1 1 1 1 1 1 1 1 1 1 1 1 1 1 1 1 1 1 1 1 1 1 1 1 1 1 1 1 1 1 1 1 1 1 1 1 1 1 1 1 1 1 1 1 1 1 1 1 1 1 1 1 1 1 1 1 1 1 1 1 1 1 1 1 1 1 1 1 1 1 1 1 1 1 1 1 1 1 1 1 1 1 1 1 1 1 1 1 1 1 1 1 1 1 1 1 1 1 1 1 1 1 1 1 1 1 1 1 1 1 1 1 1 1 1 1 1 1 1 1 1 1 1 1 1 1 1 1 1 1 1 1 1 1 1 1 1 1 1 1 1 1 1 1 1 1 1 1 1 1 1 1 1 1 1 1 1 1 1 1 1 1 1 1 1 1 1 1 1 1 1 1 1 1 1 1 1 1 1 1 1 1 1 1 1 1 1 1 1 1 1 1 1 1 1 1 1 1 1 1 1 1 1 1 1 1 1 1 1 1 1 1 1 1 1 1 1 1 1 1 1 1 1 1 1 1 1 1 1 1 1 1 1 1 1 1 1 1 1 1 1 1 1 1 1 1 1 1 1 1 1 1 1 1 1 1 1 1 1 1 1 1 1 1 1 1 1 1 1 1 1 1 1 1 1 1 1 1 1 1 1 1 1 1 1 1 1 1 1 1 1 1 1 1 1 1 1 1 1 1 1 1 1 1 1 1 1 1 1 1 1 1 1 1 1 1 1 1 1 1 1 1 1 1 1 1 1 1 1 1 1 1 1 1 1 1 1 1 1 1 1 1 1 1 1 1 1 1 1 1 1 1 1 1 1 1 1 1 1 1 1 1 1 1 1 1 1 1 1 1 1 1 1 1 1 1 1 1 1 1 1 1 1 1 1 1 1 1 1 1 1 1 1 1 1 1 1 1 1 1 1 1 1 1 1 1 1 1 1 1 1 1 1 1 1 1 1 1 1 1 1 1 1 1 1 1 1 1 1 1 1 1 1 1 1 1 1 1 1 1 1 1 1 1 1 1 1 1 1 1 1 1 1 1 1 1 1 1 1 1 1 1 1 1 1 1 1 1 1 1 1 1 1 1 1 1 1 1 1 1 1 1 1 1 1 1 1 1 1 1 1 1 1 1 1 1 1 1 1 1 1 1 1 1 1 1 1 1 1 1 1 1 1 1 1 1 1 1 1 1 1 1 1 1 1 1 1 1 1 1 1 1 1 1 1 1 1 1 1 1 1 1 1 1 1 1 1 1 1 1 1 1 1 1 1 1 1 1 1 1 1 1 1 1 1 1 1 1 1 1 1 1 1 1 1 1 1 1 1 1 1 1 1 1 1 1 1 1 1 1 1 1 1 1 1 1 1 1 1 1 1 1 1 1 1 1 1 1 1 1 1 1 1 1 1 1 1 1 1 1 1 1 1 1 1 1 1 1 1 1 1 1 1 1 1 1 1 1 1 1 1 1 1 1 1 1 1 1 1 1 1 1 1 1 1 1 1 1 1 1 1 1 1 1 1 1 1 1 1 1 1 1 1 1 1 1 1 1 1 1 1 1 1 1 1 1 1 1 1 1 1 1 1 1 1 1 1 1 1 1 1 1 1 1 1 1 1 1 1 1 1 1 1 1 1 1 1 1 1 1 1 1 1 1 1 1 1 1 1 1 1 1 1 1 1 1 1 1 1 1 1 1 1 1 1 1 1 1 1 1 1 1 1 1 1 1 1 1 1 1 1 1 1 1 1 1 1 1 1 1 1 1 1 1 1 1 1 1 1 1 1 1 1 1 1 1 1 1 1 1 1 1 1 1 1 1 1 1 1 1 1 1 1 1 1 1 1 1 1 1 1 1 1 1 1 1 1 1 1 1 1 1 1 1 1 1 1 1 1 1 1 1 1 1 1 1 1 1 1 1 1 1 1 1 1 1 1 1 1 1 1 1 1 1 1 1 1 1 1 1 1 1 1 1 1 1 1 1 1 1 1 1 1 1 1 1 1 1 1 1 1 1 1 1 1 1 1 1 1 1 1 1 1 1 1 1 1 1 1 1 1 1 1 1 1 1 1 1 1 1 1 1 1 1 1 1 1 1 1 1 1 1 1 1 1 1 1 1 1 1 1 1 1 1 1 1 1 1 1 1 1 1 1 1 1 1 1 1 1 1 
</DataArray>
</CellData>
</Piece>
</UnstructuredGrid>
</VTKFile>
