<?xml version="1.0"?>
<VTKFile type="UnstructuredGrid" version="0.1" byte_order="LittleEndian">
<UnstructuredGrid>
<Piece NumberOfPoints="3142" NumberOfCells="1054">
<Points>
<DataArray type="Float64" NumberOfComponents="3" format="ascii">
0.5 0.29999999999999999 0 0.54999999999999993 0.29999999999999999 0 0.54999999999999993 0.29999999999999999 0 0.59999999999999976 0.29999999999999999 0 0.59999999999999976 0.29999999999999999 0 0.6499999999999998 0.29999999999999999 0 0.6499999999999998 0.29999999999999999 0 0.69999999999999984 0.29999999999999999 0 0.69999999999999984 0.29999999999999999 0 0.74999999999999989 0.29999999999999999 0 0.74999999999999989 0.29999999999999999 0 0.79999999999999982 0.29999999999999999 0 0.79999999999999982 0.29999999999999999 0 0.84999999999999987 0.29999999999999999 0 0.84999999999999987 0.29999999999999999 0 0.89999999999999991 0.29999999999999999 0 0.89999999999999991 0.29999999999999999 0 0.94999999999999996 0.29999999999999999 0 0.94999999999999996 0.29999999999999999 0 1 0.29999999999999999 0 0.5 0.69999999999999996 0 0.54999999999999993 0.69999999999999996 0 0.54999999999999993 0.69999999999999996 0 0.59999999999999976 0.69999999999999996 0 0.59999999999999976 0.69999999999999996 0 0.6499999999999998 0.69999999999999996 0 0.6499999999999998 0.69999999999999996 0 0.69999999999999984 0.69999999999999996 0 0.69999999999999984 0.69999999999999996 0 0.74999999999999989 0.69999999999999996 0 0.74999999999999989 0.69999999999999996 0 0.79999999999999982 0.69999999999999996 0 0.79999999999999982 0.69999999999999996 0 0.84999999999999987 0.69999999999999996 0 0.84999999999999987 0.69999999999999996 0 0.89999999999999991 0.69999999999999996 0 0.89999999999999991 0.69999999999999996 0 0.94999999999999996 0.69999999999999996 0 0.94999999999999996 0.69999999999999996 0 1 0.69999999999999996 0 0.40076539126862748 0.34589349467022118 0 0.33277555741076909 0.36432196682010132 0 0.36575549820117997 0.31677992835137742 0 0.38083244760691543 0.38531983672244652 0 0.33277555741076909 0.36432196682010132 0 0.40076539126862748 0.34589349467022118 0 0.56836770495988642 0.3523062350852913 0 0.52289427570932567 0.3932284363388488 0 0.52752007115234678 0.33170632466418198 0 0.52752007115234678 0.33170632466418198 0 0.52289427570932567 0.3932284363388488 0 0.49077833859261139 0.35229981449445641 0 0.10000000000041601 1 0 0.053064897599294662 0.95186845269532028 0 0.10266856499240549 0.95548163909968886 0 0.099999999999814668 0 0 0.10266856499169109 0.044518360900210059 0 0.053064897599215843 0.048131547304697528 0 0.050000000000207989 1 0 0.053064897599294662 0.95186845269532028 0 0.10000000000041601 1 0 0.049999999999899652 0 0 0.099999999999814668 0 0 0.053064897599215843 0.048131547304697528 0 0.24999999999941211 0 0 0.29999999999926641 0 0 0.27499999999933927 0.060310814194988557 0 0.30000000000124832 1 0 0.25000000000104028 1 0 0.27609987656793722 0.94991445621608572 0 0.15720202157091859 0.60665697304410315 0 0.19914261668318661 0.62286739485272158 0 0.16500388252850301 0.66612077714085194 0 0.2236846579037573 0.67380363126050236 0 0.16500388252850301 0.66612077714085194 0 0.19914261668318661 0.62286739485272158 0 0.1247745017231483 0.27198077544791172 0 0.168349569971391 0.28054490850913671 0 0.14223753364722069 0.3341983344262433 0 0 0.75000000000034661 0 0 0.7000000000006934 0 0.049706944316475897 0.72477277076253799 0 0 0.30000000000124832 0 0 0.25000000000104028 0 0.049706944316556423 0.27522722923869108 0 0.59999999999999976 0.29999999999999999 0 0.61959173890754571 0.33832250091341232 0 0.56836770495988642 0.3523062350852913 0 0.5 0.69999999999999996 0 0.43323420005758778 0.6913544522562407 0 0.47913475093885149 0.66010775372412711 0 1 0.14999999999961891 0 0.95391631417672862 0.19584263333809451 0 0.93677536231883773 0.14999999999999089 0 1 0.84999999999982645 0 0.95391631417670719 0.89584263333814784 0 0.93677536231884972 0.85000000000000286 0 1 0.84999999999982645 0 0.93677536231884972 0.85000000000000286 0 0.95386563387742829 0.80414874155775029 0 1 0.14999999999961891 0 0.93677536231883773 0.14999999999999089 0 0.95386563387744361 0.1041487415577465 0 0.90416666666660628 0.9041666666666166 0 0.88088768115933802 0.84674609810493673 0 0.93677536231884972 0.85000000000000286 0 0.90416666666668166 0.20416666666667119 0 0.88088768115941807 0.14674609810479519 0 0.93677536231883773 0.14999999999999089 0 0.1247745017231483 0.27198077544791172 0 0.14223753364722069 0.3341983344262433 0 0.093851963071650835 0.30582068233324772 0 0.5 0.69999999999999996 0 0.45582236402875981 0.73896743678908217 0 0.43323420005758778 0.6913544522562407 0 0.55000000000173355 1 0 0.50000000000205869 1 0 0.52122150208832174 0.94089974453840242 0 0.49999999999869432 0 0 0.5499999999988151 0 0 0.52375890611712683 0.059318771819432882 0 0.54999999999999993 0.29999999999999999 0 0.59999999999999976 0.29999999999999999 0 0.56836770495988642 0.3523062350852913 0 0.50202631463681879 0.87892870825713787 0 0.44003836461056539 0.88093474584252718 0 0.45677673713123867 0.84253684404072415 0 0.33403534827021109 0.84402799729020661 0 0.35864759629805099 0.87963482415279515 0 0.30864387279288652 0.89906554525974958 0 0.53245488764484505 0.55078124999999989 0 0.47793794143994173 0.52940715638744962 0 0.53330375813596242 0.50827942741749099 0 0.82709327591102189 0.14937141670914489 0 0.81283102246527783 0.1881007222486438 0 0.77144070960558853 0.14311854477243749 0 0.82709327591091286 0.84937141670920724 0 0.81159157511211755 0.88795995483179491 0 0.76901770135486491 0.84293557325473656 0 0.77144070960558853 0.14311854477243749 0 0.81283102246527783 0.1881007222486438 0 0.76587607630038135 0.18880039518954719 0 0.76901770135486491 0.84293557325473656 0 0.81159157511211755 0.88795995483179491 0 0.76891166905518427 0.88835469571185499 0 0.33403534827021109 0.84402799729020661 0 0.30864387279288652 0.89906554525974958 0 0.29209212897034281 0.84715728365233667 0 0.57412547362576272 0.58273804879550706 0 0.5166924242153631 0.59825134841919447 0 0.53245488764484505 0.55078124999999989 0 0.50202631463681879 0.87892870825713787 0 0.47401147028110507 0.91529957330468115 0 0.44003836461056539 0.88093474584252718 0 0.5 0.69999999999999996 0 0.54999999999999993 0.69999999999999996 0 0.55363780716230748 0.74348740161571747 0 1 0.34999999999993492 0 0.95871855522754235 0.40006508612975411 0 0.95780851984364423 0.34215720972155339 0 1 0.64999999999986979 0 0.9578014258160763 0.65787212321113708 0 0.95867599106212187 0.60011091146651041 0 0.46666084890304671 0.57634471035397938 0 0.47793794143994173 0.52940715638744962 0 0.53245488764484505 0.55078124999999989 0 0.94999999999999996 0.29999999999999999 0 0.89898474358614167 0.25391965591104898 0 0.94399509803921056 0.24399509803922639 0 0.94999999999979179 1 0 0.89898474358632463 0.95391965591118966 0 0.94399509803919068 0.9439950980391687 0 0 0.65000000000104008 0 0.050069554451969707 0.61308520079857043 0 0.046634677244967337 0.671418230738282 0 0 0.35000000000145642 0 0.046389130980076937 0.32668781832131749 0 0.050583896093752537 0.38543522283434112 0 0.50202631463681879 0.87892870825713787 0 0.50627822638148745 0.8263979829520941 0 0.55899371797446828 0.85003102233514438 0 0.54782696902220018 0.79245182748204157 0 0.55899371797446828 0.85003102233514438 0 0.50627822638148745 0.8263979829520941 0 0.50945740445113552 0.75476055527778108 0 0.5 0.69999999999999996 0 0.55363780716230748 0.74348740161571747 0 0.84999999999965292 1 0 0.85170973911348691 0.93569607295217616 0 0.89898474358632463 0.95391965591118966 0 0.84999999999999987 0.29999999999999999 0 0.8517097391133297 0.2356960729520409 0 0.89898474358614167 0.25391965591104898 0 0.86956835336234861 0.571283299838105 0 0.82862096804812391 0.55037090955459045 0 0.86907294890112186 0.52008116128001669 0 0.49102375406324739 0.49123754822244059 0 0.53330375813596242 0.50827942741749099 0 0.47793794143994173 0.52940715638744962 0 0.57611405284611883 0.50165903596042916 0 0.61547661924074692 0.48539576058873962 0 0.62042975506801734 0.54295974692364424 0 0.71406021706547751 0.63292083137662503 0 0.67529834988829951 0.61613270668143583 0 0.71809016091162536 0.58185040402320831 0 0.65000000000104008 1 0 0.62065498684670595 0.95224934003983619 0 0.68015064798562208 0.95924320340003011 0 0.84999999999960507 0 0 0.899991664607802 0.045289349238254978 0 0.85491058998398861 0.060047533455626502 0 0.84999999999999987 0.69999999999999996 0 0.89999166460796554 0.74528934923809909 0 0.85491058998424563 0.76004753345552634 0 0.89999999999999991 0.29999999999999999 0 0.89898474358614167 0.25391965591104898 0 0.94999999999999996 0.29999999999999999 0 0.94999999999979179 1 0 0.89999999999958358 1 0 0.89898474358632463 0.95391965591118966 0 0.86411095495256451 0.42388805655111889 0 0.81308179852519835 0.39754945808726527 0 0.86844634540301924 0.38530937474099819 0 0.5 0.29999999999999999 0 0.49695729691142171 0.25014895411178018 0 0.54248833945060504 0.2520322959927106 0 0.86411095495256451 0.42388805655111889 0 0.81973119833356312 0.43505687159469048 0 0.81308179852519835 0.39754945808726527 0 0.67323294229744413 0.57556450033612505 0 0.71809016091162536 0.58185040402320831 0 0.67529834988829951 0.61613270668143583 0 0.6236733212988993 0.14864538214901801 0 0.68391457121233579 0.14440470121196541 0 0.64011864159029941 0.18789607982138171 0 0 0.050000000000207989 0 0.053064897599215843 0.048131547304697528 0 0.044310582753132287 0.101412518374475 0 0 0.94999999999979179 0 0.0443105827531413 0.89858748162559932 0 0.053064897599294662 0.95186845269532028 0 1 0.34999999999993492 0 1 0.39999999999978308 0 0.95871855522754235 0.40006508612975411 0 1 0.59999999999973963 0 1 0.64999999999986979 0 0.95867599106212187 0.60011091146651041 0 0 0.84999999999965292 0 0.065374659239661639 0.8551091961254178 0 0.0443105827531413 0.89858748162559932 0 0 0.15000000000062411 0 0.044310582753132287 0.101412518374475 0 0.065374659239632718 0.1448908038746782 0 0.16500388252850301 0.66612077714085194 0 0.1020579365089687 0.69352219419301997 0 0.1241190223511371 0.64391885572885044 0 0.14999999999970359 0 0 0.14618258501891079 0.062070108745602003 0 0.10266856499169109 0.044518360900210059 0 0.15000000000062411 1 0 0.10266856499240549 0.95548163909968886 0 0.14617343800780541 0.93808063414349496 0 0.7152569930854884 0.5237994455134295 0 0.67569444444444449 0.53500863336860327 0 0.69385896817107129 0.48377516041410151 0 0.6541250972820879 0.49999999999999989 0 0.62042975506801734 0.54295974692364424 0 0.61547661924074692 0.48539576058873962 0 0.94999999999999996 0.69999999999999996 0 0.94399509803918602 0.75600490196082126 0 0.89999166460796554 0.74528934923809909 0 0.94999999999986839 0 0 0.94399509803922566 0.056004901960802607 0 0.899991664607802 0.045289349238254978 0 0.6541250972820879 0.49999999999999989 0 0.69385896817107129 0.48377516041410151 0 0.67569444444444449 0.53500863336860327 0 0.82862096804812391 0.55037090955459045 0 0.81723410853263523 0.59419663659258926 0 0.77151014687832564 0.54436834383023036 0 0.7250000000005199 0.89375000000045834 0 0.66412543161245952 0.88015090885499059 0 0.68697391633157634 0.84450604838764298 0 0 0.94999999999979179 0 0 0.89999999999958358 0 0.0443105827531413 0.89858748162559932 0 0 0.10000000000041601 0 0 0.050000000000207989 0 0.044310582753132287 0.101412518374475 0 0.16500388252850301 0.66612077714085194 0 0.15332765547575641 0.71200081858233666 0 0.1020579365089687 0.69352219419301997 0 0.90299850604011456 0.79563452813489832 0 0.93677536231884972 0.85000000000000286 0 0.88088768115933802 0.84674609810493673 0 0.90299850604006393 0.09563452813493091 0 0.93677536231883773 0.14999999999999089 0 0.88088768115941807 0.14674609810479519 0 0.68391457121233579 0.14440470121196541 0 0.6865991819015953 0.189116534044597 0 0.64011864159029941 0.18789607982138171 0 0.085622222639554768 0.53333248912060549 0 0.1216098864341134 0.50637075089503902 0 0.1154888278694548 0.56733818459978413 0 0.21858834311891909 0.81980263716112767 0 0.22556077506376701 0.77837424984191617 0 0.26104540868854792 0.81401944968719064 0 0.81723410853263523 0.59419663659258926 0 0.77293540622714185 0.59448302402785813 0 0.77151014687832564 0.54436834383023036 0 0.1154888278694548 0.56733818459978413 0 0.1216098864341134 0.50637075089503902 0 0.14934928745814749 0.55042914607228977 0 0.1216098864341134 0.50637075089503902 0 0.068743045408989428 0.48853989837882689 0 0.113541300460994 0.46208784312094731 0 0.078358742472063481 0.43365249433908948 0 0.113541300460994 0.46208784312094731 0 0.068743045408989428 0.48853989837882689 0 0.83573492347052902 0.36590755630746369 0 0.81308179852519835 0.39754945808726527 0 0.78145581580700685 0.34881365920033602 0 0.57611405284611883 0.50165903596042916 0 0.62042975506801734 0.54295974692364424 0 0.57435499076887508 0.54267261987897775 0 0.86956835336234861 0.571283299838105 0 0.81723410853263523 0.59419663659258926 0 0.82862096804812391 0.55037090955459045 0 0.46666084890304671 0.57634471035397938 0 0.53245488764484505 0.55078124999999989 0 0.5166924242153631 0.59825134841919447 0 0.89999999999999991 0.69999999999999996 0 0.94999999999999996 0.69999999999999996 0 0.89999166460796554 0.74528934923809909 0 0.89999999999973679 0 0 0.94999999999986839 0 0 0.899991664607802 0.045289349238254978 0 0.84999999999960507 0 0 0.89999999999973679 0 0 0.899991664607802 0.045289349238254978 0 0.84999999999999987 0.69999999999999996 0 0.89999999999999991 0.69999999999999996 0 0.89999166460796554 0.74528934923809909 0 0.43545892161006339 0.61093128915313821 0 0.4089290844030305 0.58728915500154233 0 0.46666084890304671 0.57634471035397938 0 0.1650278706801647 0.38791388161335733 0 0.1117088112799664 0.38831403004970022 0 0.14223753364722069 0.3341983344262433 0 0.087545339447545459 0.35122518864182262 0 0.14223753364722069 0.3341983344262433 0 0.1117088112799664 0.38831403004970022 0 0.6916490518212759 0.75387992374886192 0 0.72501250972655151 0.74067302935308721 0 0.72500000000000064 0.7952620967744265 0 0.72501250972655151 0.74067302935308721 0 0.75841349681148107 0.75422312624214749 0 0.72500000000000064 0.7952620967744265 0 0.57412547362576272 0.58273804879550706 0 0.53245488764484505 0.55078124999999989 0 0.57435499076887508 0.54267261987897775 0 1 0.54999999999963112 0 0.95867599106212187 0.60011091146651041 0 0.93732437411268477 0.55911392101136159 0 1 0.44999999999963131 0 0.93814194660195893 0.44426664081746747 0 0.95871855522754235 0.40006508612975411 0 0.4089290844030305 0.58728915500154233 0 0.42644501560315817 0.54603747078095544 0 0.46666084890304671 0.57634471035397938 0 0.89999999999958358 1 0 0.84999999999965292 1 0 0.89898474358632463 0.95391965591118966 0 0.84999999999999987 0.29999999999999999 0 0.89898474358614167 0.25391965591104898 0 0.89999999999999991 0.29999999999999999 0 0.29999999999926641 0 0 0.32541448401678508 0.046215317981507749 0 0.27499999999933927 0.060310814194988557 0 0.30000000000124832 1 0 0.27609987656793722 0.94991445621608572 0 0.32544832635163229 0.95485394099568932 0 0.57412547362576272 0.58273804879550706 0 0.62042975506801734 0.54295974692364424 0 0.63065402604362242 0.59661356661633302 0 0.5 0.29999999999999999 0 0.54248833945060504 0.2520322959927106 0 0.54999999999999993 0.29999999999999999 0 0.67323294229744413 0.57556450033612505 0 0.62042975506801734 0.54295974692364424 0 0.67569444444444449 0.53500863336860327 0 0.6541250972820879 0.49999999999999989 0 0.67569444444444449 0.53500863336860327 0 0.62042975506801734 0.54295974692364424 0 1 0.14999999999961891 0 1 0.19999999999974799 0 0.95391631417672862 0.19584263333809451 0 1 0.84999999999982645 0 1 0.8999999999998336 0 0.95391631417670719 0.89584263333814784 0 1 0.7999999999998193 0 1 0.84999999999982645 0 0.95386563387742829 0.80414874155775029 0 1 0.099999999999753911 0 1 0.14999999999961891 0 0.95386563387744361 0.1041487415577465 0 0.4656888918609538 0.78493261229743638 0 0.50627822638148745 0.8263979829520941 0 0.45677673713123867 0.84253684404072415 0 0.6879972333610942 0.43038561374960838 0 0.72622533758026719 0.40265885511101601 0 0.73483647259922602 0.44789725365921768 0 0.67323294229744413 0.57556450033612505 0 0.67569444444444449 0.53500863336860327 0 0.71809016091162536 0.58185040402320831 0 0.7152569930854884 0.5237994455134295 0 0.71809016091162536 0.58185040402320831 0 0.67569444444444449 0.53500863336860327 0 0.65394964615507722 0.22666784374016369 0 0.59814117807200873 0.23398510860739519 0 0.64011864159029941 0.18789607982138171 0 0.55000000000173355 1 0 0.52122150208832174 0.94089974453840242 0 0.57382506491224949 0.9629411906298494 0 0.39801143831225599 0.16651381068160659 0 0.44288491854585582 0.14116182884956319 0 0.42905200079338551 0.19982395548231649 0 0.47357141910802508 0.1873585799078378 0 0.42905200079338551 0.19982395548231649 0 0.44288491854585582 0.14116182884956319 0 0.90594285160987287 0.4141265964174129 0 0.88594198078881503 0.46167788676578442 0 0.86411095495256451 0.42388805655111889 0 0.65507451745379841 0.92229208810758578 0 0.68015064798562208 0.95924320340003011 0 0.62065498684670595 0.95224934003983619 0 0.35312867752657662 0.084946736076730367 0 0.39591832466117061 0.056982757562006353 0 0.39823268594401579 0.1116623613130045 0 0.43698630808430822 0.080423614171545449 0 0.39823268594401579 0.1116623613130045 0 0.39591832466117061 0.056982757562006353 0 0.4367309254023824 0.92065556789053882 0 0.39641108128798319 0.94356127926187128 0 0.39767323751400468 0.89584229130535065 0 0.35752321586431363 0.9185439911803448 0 0.39767323751400468 0.89584229130535065 0 0.39641108128798319 0.94356127926187128 0 0.77354604466818633 0.40378688774472771 0 0.77972660463949339 0.45529290596363098 0 0.73483647259922602 0.44789725365921768 0 0.5499999999988151 0 0 0.57396793757665954 0.037011367187645222 0 0.52375890611712683 0.059318771819432882 0 0.64753070846764316 0.77332939069435502 0 0.60294066490120068 0.80851322453934582 0 0.59636844454254345 0.75937156204589151 0 0.49102375406324739 0.49123754822244059 0 0.48858720058566618 0.43964267759203868 0 0.53823865529665704 0.45873898050322898 0 0.28307294598219601 0.50789252727458634 0 0.29110487519241501 0.56588143995431495 0 0.25115337790845271 0.54719303014923271 0 0.79680861578988083 0.92656778056766709 0 0.81159157511211755 0.88795995483179491 0 0.85170973911348691 0.93569607295217616 0 0.79680861578956375 0.22656778056752541 0 0.81283102246527783 0.1881007222486438 0 0.8517097391133297 0.2356960729520409 0 0.57412547362576272 0.58273804879550706 0 0.57435499076887508 0.54267261987897775 0 0.62042975506801734 0.54295974692364424 0 0.93814194660195893 0.44426664081746747 0 0.88594198078881503 0.46167788676578442 0 0.90594285160987287 0.4141265964174129 0 0.7152569930854884 0.5237994455134295 0 0.73947346780852752 0.49062440112282169 0 0.77151014687832564 0.54436834383023036 0 0 0.7000000000006934 0 0.046634677244967337 0.671418230738282 0 0.049706944316475897 0.72477277076253799 0 0 0.30000000000124832 0 0.049706944316556423 0.27522722923869108 0 0.046389130980076937 0.32668781832131749 0 0.59814117807200873 0.23398510860739519 0 0.59443395090188023 0.18455690917515069 0 0.64011864159029941 0.18789607982138171 0 0.21858834311891909 0.81980263716112767 0 0.26104540868854792 0.81401944968719064 0 0.2401283238295133 0.85648409884788523 0 0.39536230704883951 0.84069429572832477 0 0.45677673713123867 0.84253684404072415 0 0.44003836461056539 0.88093474584252718 0 0.086179601630648681 0.64647209519980475 0 0.050069554451969707 0.61308520079857043 0 0.1024350934457823 0.60772393977513839 0 0.077693244765132896 0.56932317963405099 0 0.1024350934457823 0.60772393977513839 0 0.050069554451969707 0.61308520079857043 0 0.078358742472063481 0.43365249433908948 0 0.050583896093752537 0.38543522283434112 0 0.1117088112799664 0.38831403004970022 0 0.087545339447545459 0.35122518864182262 0 0.1117088112799664 0.38831403004970022 0 0.050583896093752537 0.38543522283434112 0 0.33403534827021109 0.84402799729020661 0 0.35642984951668422 0.80994399665655703 0 0.39536230704883951 0.84069429572832477 0 0.28307294598219601 0.50789252727458634 0 0.33190227185843768 0.52715113583864037 0 0.29110487519241501 0.56588143995431495 0 0.2236846579037573 0.67380363126050236 0 0.19068556247388771 0.71028988922845504 0 0.16500388252850301 0.66612077714085194 0 0.26104540868854792 0.81401944968719064 0 0.22556077506376701 0.77837424984191617 0 0.2792923945214143 0.77665808831789485 0 0.38244435121258652 0.51653317813019495 0 0.37272913873093971 0.56192925302619479 0 0.33190227185843768 0.52715113583864037 0 0.25195515620380449 0.25883339815888678 0 0.29132859388405002 0.27203693976649962 0 0.24432083401701241 0.3006253385567515 0 0.29348325746214782 0.31350119524708198 0 0.24432083401701241 0.3006253385567515 0 0.29132859388405002 0.27203693976649962 0 0 0.89999999999958358 0 0 0.84999999999965292 0 0.0443105827531413 0.89858748162559932 0 0 0.15000000000062411 0 0 0.10000000000041601 0 0.044310582753132287 0.101412518374475 0 0.59999999999999976 0.69999999999999996 0 0.59636844454254345 0.75937156204589151 0 0.55363780716230748 0.74348740161571747 0 0.1650278706801647 0.38791388161335733 0 0.22033343844674469 0.36963382230740238 0 0.191953871957803 0.42546416763755879 0 0.52289427570932567 0.3932284363388488 0 0.46655310992796922 0.39650496622958609 0 0.49077833859261139 0.35229981449445641 0 0.91696753777131557 0.497780560203536 0 0.88594198078881503 0.46167788676578442 0 0.93814194660195893 0.44426664081746747 0 0.24999999999941211 0 0 0.27499999999933927 0.060310814194988557 0 0.22668068146512929 0.045875643423131329 0 0.25000000000104028 1 0 0.22850979588452081 0.95594428570238643 0 0.27609987656793722 0.94991445621608572 0 0.77846603114747959 0.49850927265137401 0 0.77151014687832564 0.54436834383023036 0 0.73947346780852752 0.49062440112282169 0 0.27499999999933927 0.060310814194988557 0 0.27474541102162192 0.11822029332053539 0 0.24218496799700481 0.089025544070598317 0 0.27270076654418179 0.87751467830216623 0 0.29209212897034281 0.84715728365233667 0 0.30864387279288652 0.89906554525974958 0 0.3096713403101819 0.085471541595262421 0 0.27474541102162192 0.11822029332053539 0 0.27499999999933927 0.060310814194988557 0 0.17933913398461551 0.2350063570234002 0 0.18124454140915969 0.18790916706335251 0 0.224700362040408 0.22206622194729711 0 0.18269480424590959 0.75905448272264375 0 0.22556077506376701 0.77837424984191617 0 0.17777405986036951 0.81832336108265358 0 0.35864759629805099 0.87963482415279515 0 0.33403534827021109 0.84402799729020661 0 0.39536230704883951 0.84069429572832477 0 0.77354604466818633 0.40378688774472771 0 0.73483647259922602 0.44789725365921768 0 0.72622533758026719 0.40265885511101601 0 0.80185942888539485 0.77452061303608133 0 0.85491058998424563 0.76004753345552634 0 0.84725310900444062 0.80779732082917555 0 0.80185942888501827 0.074520613036224564 0 0.85491058998398861 0.060047533455626502 0 0.84725310900442086 0.10779732082922661 0 0.086179601630648681 0.64647209519980475 0 0.046634677244967337 0.671418230738282 0 0.050069554451969707 0.61308520079857043 0 0.087545339447545459 0.35122518864182262 0 0.050583896093752537 0.38543522283434112 0 0.046389130980076937 0.32668781832131749 0 0 0.75000000000034661 0 0.049706944316475897 0.72477277076253799 0 0.04408157711937423 0.7728941757575627 0 0 0.25000000000104028 0 0.044081577119474857 0.2271058242433576 0 0.049706944316556423 0.27522722923869108 0 0.52289427570932567 0.3932284363388488 0 0.56836770495988642 0.3523062350852913 0 0.57744073070774993 0.41535148636609359 0 0.6084546825910605 0.37989672713932537 0 0.57744073070774993 0.41535148636609359 0 0.56836770495988642 0.3523062350852913 0 0.61343887413683884 0.856862479058357 0 0.55899371797446828 0.85003102233514438 0 0.60294066490120068 0.80851322453934582 0 0.54782696902220018 0.79245182748204157 0 0.60294066490120068 0.80851322453934582 0 0.55899371797446828 0.85003102233514438 0 0.40326160981139969 0.73346192995102844 0 0.36622285152418499 0.69092437780804039 0 0.43323420005758778 0.6913544522562407 0 0.52289427570932567 0.3932284363388488 0 0.48858720058566618 0.43964267759203868 0 0.46655310992796922 0.39650496622958609 0 0.15720202157091859 0.60665697304410315 0 0.1154888278694548 0.56733818459978413 0 0.14934928745814749 0.55042914607228977 0 0.6879972333610942 0.43038561374960838 0 0.73483647259922602 0.44789725365921768 0 0.69385896817107129 0.48377516041410151 0 0.7250000000005199 0.89375000000045834 0 0.68987011941058407 0.92105047536677087 0 0.66412543161245952 0.88015090885499059 0 0.83573492347052902 0.36590755630746369 0 0.78145581580700685 0.34881365920033602 0 0.82500000000000062 0.33010209762754811 0 0.82862096804812391 0.55037090955459045 0 0.81441713509985358 0.51161854125224959 0 0.86907294890112186 0.52008116128001669 0 0.19670163708476801 0.31472518408333222 0 0.14223753364722069 0.3341983344262433 0 0.168349569971391 0.28054490850913671 0 0.50202631463681879 0.87892870825713787 0 0.45677673713123867 0.84253684404072415 0 0.50627822638148745 0.8263979829520941 0 0.099999999999814668 0 0 0.14999999999970359 0 0 0.10266856499169109 0.044518360900210059 0 0.15000000000062411 1 0 0.10000000000041601 1 0 0.10266856499240549 0.95548163909968886 0 0.67323294229744413 0.57556450033612505 0 0.63065402604362242 0.59661356661633302 0 0.62042975506801734 0.54295974692364424 0 0.083105206071467416 0.20007701332709979 0 0.13737030665753211 0.20313708640667491 0 0.095326043202144745 0.24554465089224409 0 0.083105206071452636 0.79992298667296435 0 0.090953281884486245 0.7564451946902494 0 0.1382744753146134 0.79650574229207483 0 0.50000000000205869 1 0 0.47135117303824892 0.95556877749289892 0 0.52122150208832174 0.94089974453840242 0 0.49999999999869432 0 0 0.52375890611712683 0.059318771819432882 0 0.47040171442036788 0.044141676406503738 0 0.4656888918609538 0.78493261229743638 0 0.45582236402875981 0.73896743678908217 0 0.50945740445113552 0.75476055527778108 0 0.5 0.69999999999999996 0 0.50945740445113552 0.75476055527778108 0 0.45582236402875981 0.73896743678908217 0 0.55306006949600994 0.20198184231352201 0 0.56202748619534593 0.15054058349222879 0 0.59443395090188023 0.18455690917515069 0 0.6236733212988993 0.14864538214901801 0 0.59443395090188023 0.18455690917515069 0 0.56202748619534593 0.15054058349222879 0 0.57412547362576272 0.58273804879550706 0 0.5498280205245758 0.6290146943450976 0 0.5166924242153631 0.59825134841919447 0 0.91696753777131557 0.497780560203536 0 0.93814194660195893 0.44426664081746747 0 0.96228564064454991 0.48206450662049471 0 0.15720202157091859 0.60665697304410315 0 0.16500388252850301 0.66612077714085194 0 0.1241190223511371 0.64391885572885044 0 0.44288491854585582 0.14116182884956319 0 0.47881186583059909 0.093591717165689425 0 0.48466639505193998 0.1421439844745814 0 1 0.54999999999963112 0 0.93732437411268477 0.55911392101136159 0 0.95631871884947484 0.51827533208233789 0 0.57724883562309992 0.92155686857100794 0 0.57382506491224949 0.9629411906298494 0 0.52122150208832174 0.94089974453840242 0 0.85170973911348691 0.93569607295217616 0 0.81159157511211755 0.88795995483179491 0 0.85600844944837662 0.88483418979512773 0 0.8517097391133297 0.2356960729520409 0 0.81283102246527783 0.1881007222486438 0 0.85600844944842547 0.1848341897950983 0 0.27866744612395528 0.38416094670951489 0 0.29124338931648802 0.43334555462578611 0 0.24049127783545701 0.41270748208749802 0 0.6084546825910605 0.37989672713932537 0 0.56836770495988642 0.3523062350852913 0 0.61959173890754571 0.33832250091341232 0 0.20050006573841939 0.53248514016039872 0 0.25115337790845271 0.54719303014923271 0 0.22549374774072969 0.58452645269293457 0 0.26573297623774761 0.59828298563722948 0 0.22549374774072969 0.58452645269293457 0 0.25115337790845271 0.54719303014923271 0 0.26104540868854792 0.81401944968719064 0 0.29209212897034281 0.84715728365233667 0 0.2401283238295133 0.85648409884788523 0 0.6236733212988993 0.14864538214901801 0 0.65290632656860115 0.11434202593454081 0 0.68391457121233579 0.14440470121196541 0 0.19901705110390991 0.9175543425573498 0 0.19741632902693801 0.86755867406447229 0 0.24536017905392571 0.90704567837671446 0 0.72500000000000064 0.7952620967744265 0 0.76901770135486491 0.84293557325473656 0 0.72863726579783861 0.85390518901155588 0 0.72500000000000064 0.7952620967744265 0 0.72863726579783861 0.85390518901155588 0 0.68697391633157634 0.84450604838764298 0 0.7250000000005199 0.89375000000045834 0 0.68697391633157634 0.84450604838764298 0 0.72863726579783861 0.85390518901155588 0 0.72525833953073282 0.1032114801687094 0 0.77144070960558853 0.14311854477243749 0 0.72634814642510737 0.16106886917518889 0 0.72525833953073282 0.1032114801687094 0 0.72634814642510737 0.16106886917518889 0 0.68391457121233579 0.14440470121196541 0 0.36622285152418499 0.69092437780804039 0 0.3977710372045391 0.65868194622830212 0 0.43323420005758778 0.6913544522562407 0 0 0.65000000000104008 0 0 0.60000000000138687 0 0.050069554451969707 0.61308520079857043 0 0 0.40000000000166441 0 0 0.35000000000145642 0 0.050583896093752537 0.38543522283434112 0 0.22033343844674469 0.36963382230740238 0 0.24049127783545701 0.41270748208749802 0 0.191953871957803 0.42546416763755879 0 0.5 0.29999999999999999 0 0.4604742573284204 0.27846934318264788 0 0.49695729691142171 0.25014895411178018 0 0.19741632902693801 0.86755867406447229 0 0.2401283238295133 0.85648409884788523 0 0.24536017905392571 0.90704567837671446 0 0 0.50000000000205869 0 0.068743045408989428 0.48853989837882689 0 0.044576108720083309 0.53509043209532614 0 0.15000000000062411 1 0 0.14617343800780541 0.93808063414349496 0 0.18474005699953849 0.96231585248064622 0 0.14999999999970359 0 0 0.184418230509967 0.038773194583122873 0 0.14618258501891079 0.062070108745602003 0 0.57667858002728545 0.078486105337742612 0 0.52375890611712683 0.059318771819432882 0 0.57396793757665954 0.037011367187645222 0 0.113541300460994 0.46208784312094731 0 0.078358742472063481 0.43365249433908948 0 0.13773355295499351 0.42497777642586831 0 0.77354604466818633 0.40378688774472771 0 0.78145581580700685 0.34881365920033602 0 0.81308179852519835 0.39754945808726527 0 0.38244435121258652 0.51653317813019495 0 0.33190227185843768 0.52715113583864037 0 0.35024835142131061 0.48654922671676981 0 0.64753070846764316 0.77332939069435502 0 0.65005442820240822 0.82644988530054031 0 0.60294066490120068 0.80851322453934582 0 0.15720202157091859 0.60665697304410315 0 0.1024350934457823 0.60772393977513839 0 0.1154888278694548 0.56733818459978413 0 0.90416666666660628 0.9041666666666166 0 0.85600844944837662 0.88483418979512773 0 0.88088768115933802 0.84674609810493673 0 0.90416666666668166 0.20416666666667119 0 0.85600844944842547 0.1848341897950983 0 0.88088768115941807 0.14674609810479519 0 0.078358742472063481 0.43365249433908948 0 0.1117088112799664 0.38831403004970022 0 0.13773355295499351 0.42497777642586831 0 0.38244435121258652 0.51653317813019495 0 0.3908716102680424 0.47010282357248828 0 0.43507373378304309 0.49699695397193322 0 0.90299850604011456 0.79563452813489832 0 0.95386563387742829 0.80414874155775029 0 0.93677536231884972 0.85000000000000286 0 0.90416666666660628 0.9041666666666166 0 0.93677536231884972 0.85000000000000286 0 0.95391631417670719 0.89584263333814784 0 0.90299850604006393 0.09563452813493091 0 0.95386563387744361 0.1041487415577465 0 0.93677536231883773 0.14999999999999089 0 0.90416666666668166 0.20416666666667119 0 0.93677536231883773 0.14999999999999089 0 0.95391631417672862 0.19584263333809451 0 0.39536230704883951 0.84069429572832477 0 0.44003836461056539 0.88093474584252718 0 0.39767323751400468 0.89584229130535065 0 0.51076801031701946 0.1202837388510348 0 0.52375890611712683 0.059318771819432882 0 0.54979595918804436 0.1060565713905809 0 0.57667858002728545 0.078486105337742612 0 0.54979595918804436 0.1060565713905809 0 0.52375890611712683 0.059318771819432882 0 0.57724883562309992 0.92155686857100794 0 0.52122150208832174 0.94089974453840242 0 0.54783390826260769 0.89287767010860219 0 0.50202631463681879 0.87892870825713787 0 0.54783390826260769 0.89287767010860219 0 0.52122150208832174 0.94089974453840242 0 0.087545339447545459 0.35122518864182262 0 0.093851963071650835 0.30582068233324772 0 0.14223753364722069 0.3341983344262433 0 0.54999999999999993 0.69999999999999996 0 0.59999999999999976 0.69999999999999996 0 0.55363780716230748 0.74348740161571747 0 0.083105206071452636 0.79992298667296435 0 0.1074251789111534 0.83564394292147814 0 0.065374659239661639 0.8551091961254178 0 0.083105206071467416 0.20007701332709979 0 0.065374659239632718 0.1448908038746782 0 0.106902708054812 0.16453234188234539 0 0.52289427570932567 0.3932284363388488 0 0.53823865529665704 0.45873898050322898 0 0.48858720058566618 0.43964267759203868 0 0.13737030665753211 0.20313708640667491 0 0.14377654328998779 0.2442024734791064 0 0.095326043202144745 0.24554465089224409 0 0.1382744753146134 0.79650574229207483 0 0.090953281884486245 0.7564451946902494 0 0.14335651144331049 0.75565258250209677 0 0.27270076654418179 0.87751467830216623 0 0.30864387279288652 0.89906554525974958 0 0.24536017905392571 0.90704567837671446 0 0.27609987656793722 0.94991445621608572 0 0.24536017905392571 0.90704567837671446 0 0.30864387279288652 0.89906554525974958 0 0.90299850604011456 0.79563452813489832 0 0.84725310900444062 0.80779732082917555 0 0.85491058998424563 0.76004753345552634 0 0.90299850604006393 0.09563452813493091 0 0.84725310900442086 0.10779732082922661 0 0.85491058998398861 0.060047533455626502 0 1 0.54999999999963112 0 1 0.59999999999973963 0 0.95867599106212187 0.60011091146651041 0 1 0.39999999999978308 0 1 0.44999999999963131 0 0.95871855522754235 0.40006508612975411 0 0.28040350263641872 0.23054717217092141 0 0.25195515620380449 0.25883339815888678 0 0.224700362040408 0.22206622194729711 0 0.84999999999999987 0.29999999999999999 0 0.87430060258887643 0.34056085888204451 0 0.82500000000000062 0.33010209762754811 0 0.84999999999999987 0.69999999999999996 0 0.82457059160610424 0.66831947184359608 0 0.87712158428786946 0.65709029563313581 0 0.86956835336234861 0.571283299838105 0 0.87159648282691515 0.61285406320581504 0 0.81723410853263523 0.59419663659258926 0 0.43698630808430822 0.080423614171545449 0 0.47881186583059909 0.093591717165689425 0 0.44288491854585582 0.14116182884956319 0 1 0.44999999999963131 0 0.96228564064454991 0.48206450662049471 0 0.93814194660195893 0.44426664081746747 0 0.35752321586431363 0.9185439911803448 0 0.30864387279288652 0.89906554525974958 0 0.35864759629805099 0.87963482415279515 0 0.29124338931648802 0.43334555462578611 0 0.25982634974572738 0.46097799597715272 0 0.24049127783545701 0.41270748208749802 0 0.51076801031701946 0.1202837388510348 0 0.56202748619534593 0.15054058349222879 0 0.51729576145820033 0.1683240575987815 0 0.55306006949600994 0.20198184231352201 0 0.51729576145820033 0.1683240575987815 0 0.56202748619534593 0.15054058349222879 0 0.26429849586623999 0.19346700179430079 0 0.28040350263641872 0.23054717217092141 0 0.224700362040408 0.22206622194729711 0 0.51076801031701946 0.1202837388510348 0 0.48466639505193998 0.1421439844745814 0 0.47881186583059909 0.093591717165689425 0 0.2185883431182947 0.18019736283949719 0 0.26429849586623999 0.19346700179430079 0 0.224700362040408 0.22206622194729711 0 0.18269480424590959 0.75905448272264375 0 0.2248999640082178 0.72584299459689172 0 0.22556077506376701 0.77837424984191617 0 0.51076801031701946 0.1202837388510348 0 0.47881186583059909 0.093591717165689425 0 0.52375890611712683 0.059318771819432882 0 0.50202631463681879 0.87892870825713787 0 0.52122150208832174 0.94089974453840242 0 0.47401147028110507 0.91529957330468115 0 0 0.84999999999965292 0 0.038512288486097702 0.8155852717111195 0 0.065374659239661639 0.8551091961254178 0 0 0.15000000000062411 0 0.065374659239632718 0.1448908038746782 0 0.038512288486115001 0.1844147282893184 0 0.2185883431182947 0.18019736283949719 0 0.224700362040408 0.22206622194729711 0 0.18124454140915969 0.18790916706335251 0 0.21858834311891909 0.81980263716112767 0 0.17777405986036951 0.81832336108265358 0 0.22556077506376701 0.77837424984191617 0 0.1215415378367805 0.72939333680004137 0 0.1020579365089687 0.69352219419301997 0 0.15332765547575641 0.71200081858233666 0 0.49695729691142171 0.25014895411178018 0 0.50760557329222289 0.20700468884612061 0 0.54248833945060504 0.2520322959927106 0 0.15720202157091859 0.60665697304410315 0 0.14934928745814749 0.55042914607228977 0 0.18381867841758909 0.57774125163628387 0 0.90416666666660628 0.9041666666666166 0 0.85170973911348691 0.93569607295217616 0 0.85600844944837662 0.88483418979512773 0 0.90416666666668166 0.20416666666667119 0 0.8517097391133297 0.2356960729520409 0 0.85600844944842547 0.1848341897950983 0 0.17933913398461551 0.2350063570234002 0 0.13737030665753211 0.20313708640667491 0 0.18124454140915969 0.18790916706335251 0 0.18269480424590959 0.75905448272264375 0 0.17777405986036951 0.81832336108265358 0 0.1382744753146134 0.79650574229207483 0 0.1216098864341134 0.50637075089503902 0 0.15801167086041079 0.46008690540259539 0 0.16618607197337229 0.50652878253548905 0 0.50760557329222289 0.20700468884612061 0 0.55306006949600994 0.20198184231352201 0 0.54248833945060504 0.2520322959927106 0 0.75000000000034661 1 0 0.7000000000006934 1 0 0.7250000000005199 0.94981617647078953 0 0.69999999999999984 0.29999999999999999 0 0.72500000000000064 0.2498161764706 0 0.74999999999999989 0.29999999999999999 0 0.72525833953073282 0.1032114801687094 0 0.68391457121233579 0.14440470121196541 0 0.68330259535470161 0.10038702501083881 0 0.43249999999999988 0.43937499999999979 0 0.46655310992796922 0.39650496622958609 0 0.48858720058566618 0.43964267759203868 0 0.19901705110390991 0.9175543425573498 0 0.14617343800780541 0.93808063414349496 0 0.16206583317966519 0.89685560785156404 0 0.19922788606653311 0.085920220746880993 0 0.16141998738593399 0.10404039647458049 0 0.14618258501891079 0.062070108745602003 0 0.31378396441836959 0.70157213313026345 0 0.26439878998046262 0.7048065392091396 0 0.27820712747429932 0.65530134213254643 0 0.1216098864341134 0.50637075089503902 0 0.113541300460994 0.46208784312094731 0 0.15801167086041079 0.46008690540259539 0 0.6084546825910605 0.37989672713932537 0 0.65481233915350323 0.35652751921065562 0 0.63912439215427275 0.41063340167983359 0 0.19901705110390991 0.9175543425573498 0 0.18474005699953849 0.96231585248064622 0 0.14617343800780541 0.93808063414349496 0 0.19922788606653311 0.085920220746880993 0 0.14618258501891079 0.062070108745602003 0 0.184418230509967 0.038773194583122873 0 0.38244435121258652 0.51653317813019495 0 0.35024835142131061 0.48654922671676981 0 0.3908716102680424 0.47010282357248828 0 0.82709327591102189 0.14937141670914489 0 0.77144070960558853 0.14311854477243749 0 0.80076557130237269 0.1154587552654202 0 0.82709327591091286 0.84937141670920724 0 0.76901770135486491 0.84293557325473656 0 0.80041942726660109 0.81543261647703358 0 0.43698630808430822 0.080423614171545449 0 0.44288491854585582 0.14116182884956319 0 0.39823268594401579 0.1116623613130045 0 0.39801143831225599 0.16651381068160659 0 0.39823268594401579 0.1116623613130045 0 0.44288491854585582 0.14116182884956319 0 0.36575549820117997 0.31677992835137742 0 0.3786248352540974 0.27082301512024259 0 0.41914690343363781 0.30688979866601612 0 0.42377727103934271 0.25099357235810238 0 0.41914690343363781 0.30688979866601612 0 0.3786248352540974 0.27082301512024259 0 0.049706944316475897 0.72477277076253799 0 0.1020579365089687 0.69352219419301997 0 0.090953281884486245 0.7564451946902494 0 0.1215415378367805 0.72939333680004137 0 0.090953281884486245 0.7564451946902494 0 0.1020579365089687 0.69352219419301997 0 0.1247745017231483 0.27198077544791172 0 0.093851963071650835 0.30582068233324772 0 0.095326043202144745 0.24554465089224409 0 0.049706944316556423 0.27522722923869108 0 0.095326043202144745 0.24554465089224409 0 0.093851963071650835 0.30582068233324772 0 0.77354604466818633 0.40378688774472771 0 0.81973119833356312 0.43505687159469048 0 0.77972660463949339 0.45529290596363098 0 0.43249999999999988 0.43937499999999979 0 0.43507373378304309 0.49699695397193322 0 0.3908716102680424 0.47010282357248828 0 0.26573297623774761 0.59828298563722948 0 0.2459498854893499 0.63248470766216769 0 0.22549374774072969 0.58452645269293457 0 0.72500000000000064 0.7952620967744265 0 0.77094201086366854 0.79647480515688507 0 0.76901770135486491 0.84293557325473656 0 0.72525833953073282 0.1032114801687094 0 0.76878382444651716 0.097147941686331368 0 0.77144070960558853 0.14311854477243749 0 0.72500000000000064 0.7952620967744265 0 0.68697391633157634 0.84450604838764298 0 0.68024162096458085 0.79868546898116533 0 0.31378396441836959 0.70157213313026345 0 0.29904318922293632 0.74132814928635593 0 0.26439878998046262 0.7048065392091396 0 0.31378396441836959 0.70157213313026345 0 0.35415581127540569 0.73730480045900215 0 0.29904318922293632 0.74132814928635593 0 0.61343887413683884 0.856862479058357 0 0.65005442820240822 0.82644988530054031 0 0.66412543161245952 0.88015090885499059 0 0.68697391633157634 0.84450604838764298 0 0.66412543161245952 0.88015090885499059 0 0.65005442820240822 0.82644988530054031 0 0.083411279318375747 0.91030024466934134 0 0.065374659239661639 0.8551091961254178 0 0.10562472963403439 0.87143394428979881 0 0.083411279318303222 0.089699755330707398 0 0.1053400320299198 0.12877248826361379 0 0.065374659239632718 0.1448908038746782 0 0.55306006949600994 0.20198184231352201 0 0.59443395090188023 0.18455690917515069 0 0.59814117807200873 0.23398510860739519 0 0.84999999999999987 0.29999999999999999 0 0.89999999999999991 0.29999999999999999 0 0.87430060258887643 0.34056085888204451 0 0.84999999999999987 0.69999999999999996 0 0.87712158428786946 0.65709029563313581 0 0.89999999999999991 0.69999999999999996 0 0.34258405725730701 0.4444034294386992 0 0.3908716102680424 0.47010282357248828 0 0.35024835142131061 0.48654922671676981 0 0.26573297623774761 0.59828298563722948 0 0.31502927232353312 0.6134992213375432 0 0.27820712747429932 0.65530134213254643 0 0.91696753777131557 0.497780560203536 0 0.86907294890112186 0.52008116128001669 0 0.88594198078881503 0.46167788676578442 0 0.84723782639812573 0.48638347960178252 0 0.88594198078881503 0.46167788676578442 0 0.86907294890112186 0.52008116128001669 0 0.7152569930854884 0.5237994455134295 0 0.77151014687832564 0.54436834383023036 0 0.71809016091162536 0.58185040402320831 0 0.90416666666660628 0.9041666666666166 0 0.89898474358632463 0.95391965591118966 0 0.85170973911348691 0.93569607295217616 0 0.90416666666668166 0.20416666666667119 0 0.89898474358614167 0.25391965591104898 0 0.8517097391133297 0.2356960729520409 0 0.91750694127107502 0.36982372220068471 0 0.95780851984364423 0.34215720972155339 0 0.95871855522754235 0.40006508612975411 0 0.91750694127105259 0.63017627779935648 0 0.95867599106212187 0.60011091146651041 0 0.9578014258160763 0.65787212321113708 0 0.90299850604011456 0.79563452813489832 0 0.88088768115933802 0.84674609810493673 0 0.84725310900444062 0.80779732082917555 0 0.90299850604006393 0.09563452813493091 0 0.88088768115941807 0.14674609810479519 0 0.84725310900442086 0.10779732082922661 0 0.1216098864341134 0.50637075089503902 0 0.16618607197337229 0.50652878253548905 0 0.14934928745814749 0.55042914607228977 0 0.20050006573841939 0.53248514016039872 0 0.14934928745814749 0.55042914607228977 0 0.16618607197337229 0.50652878253548905 0 0.80185942888539485 0.77452061303608133 0 0.84725310900444062 0.80779732082917555 0 0.80041942726660109 0.81543261647703358 0 0.80185942888501827 0.074520613036224564 0 0.84725310900442086 0.10779732082922661 0 0.80076557130237269 0.1154587552654202 0 0.083105206071452636 0.79992298667296435 0 0.065374659239661639 0.8551091961254178 0 0.038512288486097702 0.8155852717111195 0 0.083105206071467416 0.20007701332709979 0 0.038512288486115001 0.1844147282893184 0 0.065374659239632718 0.1448908038746782 0 0.54782696902220018 0.79245182748204157 0 0.59636844454254345 0.75937156204589151 0 0.60294066490120068 0.80851322453934582 0 0.083411279318375747 0.91030024466934134 0 0.0443105827531413 0.89858748162559932 0 0.065374659239661639 0.8551091961254178 0 0.083411279318303222 0.089699755330707398 0 0.065374659239632718 0.1448908038746782 0 0.044310582753132287 0.101412518374475 0 0.84999999999965292 1 0 0.81486180804382891 0.96321394949790495 0 0.85170973911348691 0.93569607295217616 0 0.84999999999999987 0.29999999999999999 0 0.81486180804364938 0.26321394949780091 0 0.8517097391133297 0.2356960729520409 0 0.4656888918609538 0.78493261229743638 0 0.45677673713123867 0.84253684404072415 0 0.42609163930740518 0.80361684430568059 0 0.39536230704883951 0.84069429572832477 0 0.42609163930740518 0.80361684430568059 0 0.45677673713123867 0.84253684404072415 0 0.6236733212988993 0.14864538214901801 0 0.56202748619534593 0.15054058349222879 0 0.58516465772821369 0.11653801664834119 0 0.57412547362576272 0.58273804879550706 0 0.63065402604362242 0.59661356661633302 0 0.5991018319127801 0.62925360607495295 0 0.61343887413683884 0.856862479058357 0 0.5832743223239254 0.88483152652961872 0 0.55899371797446828 0.85003102233514438 0 0.50202631463681879 0.87892870825713787 0 0.55899371797446828 0.85003102233514438 0 0.54783390826260769 0.89287767010860219 0 0.51076801031701946 0.1202837388510348 0 0.54979595918804436 0.1060565713905809 0 0.56202748619534593 0.15054058349222879 0 0.55306006949600994 0.20198184231352201 0 0.59814117807200873 0.23398510860739519 0 0.54248833945060504 0.2520322959927106 0 0.83573492347052902 0.36590755630746369 0 0.82500000000000062 0.33010209762754811 0 0.87430060258887643 0.34056085888204451 0 0.83758014339878906 0.63222013025741819 0 0.87712158428786946 0.65709029563313581 0 0.82457059160610424 0.66831947184359608 0 0.49102375406324739 0.49123754822244059 0 0.53823865529665704 0.45873898050322898 0 0.53330375813596242 0.50827942741749099 0 0.52289427570932567 0.3932284363388488 0 0.57744073070774993 0.41535148636609359 0 0.53823865529665704 0.45873898050322898 0 0.4089290844030305 0.58728915500154233 0 0.37272913873093971 0.56192925302619479 0 0.42644501560315817 0.54603747078095544 0 0.49695729691142171 0.25014895411178018 0 0.4604742573284204 0.27846934318264788 0 0.46429753744194407 0.22870891180733599 0 0.90299850604011456 0.79563452813489832 0 0.85491058998424563 0.76004753345552634 0 0.89999166460796554 0.74528934923809909 0 0.90299850604006393 0.09563452813493091 0 0.85491058998398861 0.060047533455626502 0 0.899991664607802 0.045289349238254978 0 0.38244435121258652 0.51653317813019495 0 0.42644501560315817 0.54603747078095544 0 0.37272913873093971 0.56192925302619479 0 0.71406021706547751 0.63292083137662503 0 0.71809016091162536 0.58185040402320831 0 0.74994237037456724 0.62775548192980357 0 0.84723782639812573 0.48638347960178252 0 0.86907294890112186 0.52008116128001669 0 0.81441713509985358 0.51161854125224959 0 0.33122374654748771 0.57588941099433744 0 0.33190227185843768 0.52715113583864037 0 0.37272913873093971 0.56192925302619479 0 0.086179601630648681 0.64647209519980475 0 0.1241190223511371 0.64391885572885044 0 0.1020579365089687 0.69352219419301997 0 0.59999999999894682 0 0 0.64999999999907843 0 0 0.61940220174112337 0.047251958781050582 0 0.18269480424590959 0.75905448272264375 0 0.14335651144331049 0.75565258250209677 0 0.15332765547575641 0.71200081858233666 0 0.22549374774072969 0.58452645269293457 0 0.2459498854893499 0.63248470766216769 0 0.19914261668318661 0.62286739485272158 0 0.38244435121258652 0.51653317813019495 0 0.43507373378304309 0.49699695397193322 0 0.42644501560315817 0.54603747078095544 0 0.65000000000104008 1 0 0.60000000000138687 1 0 0.62065498684670595 0.95224934003983619 0 0.078358742472063481 0.43365249433908948 0 0.068743045408989428 0.48853989837882689 0 0.033550201249889847 0.46247875832467239 0 0.2236846579037573 0.67380363126050236 0 0.27820712747429932 0.65530134213254643 0 0.26439878998046262 0.7048065392091396 0 0.6879972333610942 0.43038561374960838 0 0.68128176404677243 0.38629093627004979 0 0.72622533758026719 0.40265885511101601 0 0.72525833953073282 0.1032114801687094 0 0.7010294155333181 0.056779085686491267 0 0.7527966693318906 0.053051678021508272 0 0.18269480424590959 0.75905448272264375 0 0.15332765547575641 0.71200081858233666 0 0.19068556247388771 0.71028988922845504 0 0.1216098864341134 0.50637075089503902 0 0.085622222639554768 0.53333248912060549 0 0.068743045408989428 0.48853989837882689 0 0.25676291524611189 0.7436741304886243 0 0.26439878998046262 0.7048065392091396 0 0.29904318922293632 0.74132814928635593 0 0.65481233915350323 0.35652751921065562 0 0.68128176404677243 0.38629093627004979 0 0.63912439215427275 0.41063340167983359 0 0.83573492347052902 0.36590755630746369 0 0.86844634540301924 0.38530937474099819 0 0.81308179852519835 0.39754945808726527 0 0.27270076654418179 0.87751467830216623 0 0.2401283238295133 0.85648409884788523 0 0.29209212897034281 0.84715728365233667 0 0.84999999999999987 0.69999999999999996 0 0.85491058998424563 0.76004753345552634 0 0.81864958914779962 0.73589050177899629 0 0.84999999999960507 0 0 0.85491058998398861 0.060047533455626502 0 0.81864958914740749 0.035890501779055867 0 0.18381867841758909 0.57774125163628387 0 0.19914261668318661 0.62286739485272158 0 0.15720202157091859 0.60665697304410315 0 0.22549374774072969 0.58452645269293457 0 0.19914261668318661 0.62286739485272158 0 0.18381867841758909 0.57774125163628387 0 0.79680861578988083 0.92656778056766709 0 0.85170973911348691 0.93569607295217616 0 0.81486180804382891 0.96321394949790495 0 0.79680861578956375 0.22656778056752541 0 0.8517097391133297 0.2356960729520409 0 0.81486180804364938 0.26321394949780091 0 0.20050006573841939 0.53248514016039872 0 0.23975172658309729 0.49475499200540818 0 0.25115337790845271 0.54719303014923271 0 0.28307294598219601 0.50789252727458634 0 0.25115337790845271 0.54719303014923271 0 0.23975172658309729 0.49475499200540818 0 0.20050006573841939 0.53248514016039872 0 0.18381867841758909 0.57774125163628387 0 0.14934928745814749 0.55042914607228977 0 0.19922788606653311 0.085920220746880993 0 0.22985637510995899 0.1298347970200906 0 0.18652628422869419 0.14162325200928061 0 0.33758650185219202 0.23837101504325639 0 0.38831533174504851 0.2189834941785925 0 0.3786248352540974 0.27082301512024259 0 0.42377727103934271 0.25099357235810238 0 0.3786248352540974 0.27082301512024259 0 0.38831533174504851 0.2189834941785925 0 0.19922788606653311 0.085920220746880993 0 0.18652628422869419 0.14162325200928061 0 0.16141998738593399 0.10404039647458049 0 0.54782696902220018 0.79245182748204157 0 0.55363780716230748 0.74348740161571747 0 0.59636844454254345 0.75937156204589151 0 0.82709327591091286 0.84937141670920724 0 0.88088768115933802 0.84674609810493673 0 0.85600844944837662 0.88483418979512773 0 0.82709327591102189 0.14937141670914489 0 0.88088768115941807 0.14674609810479519 0 0.85600844944842547 0.1848341897950983 0 0.27866744612395528 0.38416094670951489 0 0.22033343844674469 0.36963382230740238 0 0.25966125648670141 0.34351016742083729 0 0 0.50000000000205869 0 0.033550201249889847 0.46247875832467239 0 0.068743045408989428 0.48853989837882689 0 0.31378396441836959 0.70157213313026345 0 0.36622285152418499 0.69092437780804039 0 0.35415581127540569 0.73730480045900215 0 0.77293540622714185 0.59448302402785813 0 0.71809016091162536 0.58185040402320831 0 0.77151014687832564 0.54436834383023036 0 0.7152569930854884 0.5237994455134295 0 0.69385896817107129 0.48377516041410151 0 0.73947346780852752 0.49062440112282169 0 0.15801167086041079 0.46008690540259539 0 0.191953871957803 0.42546416763755879 0 0.19604738184454831 0.47787523520405789 0 0.57667858002728545 0.078486105337742612 0 0.61940220174112337 0.047251958781050582 0 0.61956000905586006 0.1043312481793135 0 0.65408113592120842 0.073941773121567966 0 0.61956000905586006 0.1043312481793135 0 0.61940220174112337 0.047251958781050582 0 0 0.55000000000173355 0 0 0.50000000000205869 0 0.044576108720083309 0.53509043209532614 0 0.65507451745379841 0.92229208810758578 0 0.62065498684670595 0.95224934003983619 0 0.61885627562261258 0.90282959257498208 0 0.57724883562309992 0.92155686857100794 0 0.61885627562261258 0.90282959257498208 0 0.62065498684670595 0.95224934003983619 0 0.91750694127107502 0.36982372220068471 0 0.86844634540301924 0.38530937474099819 0 0.87430060258887643 0.34056085888204451 0 0.91750694127105259 0.63017627779935648 0 0.87712158428786946 0.65709029563313581 0 0.87159648282691515 0.61285406320581504 0 0.33123028043633618 0.77629643437932982 0 0.29904318922293632 0.74132814928635593 0 0.35415581127540569 0.73730480045900215 0 0.86411095495256451 0.42388805655111889 0 0.84925632466077294 0.45359738909549091 0 0.81973119833356312 0.43505687159469048 0 0.43846182030517877 0.64845797726506715 0 0.47913475093885149 0.66010775372412711 0 0.43323420005758778 0.6913544522562407 0 0.18269480424590959 0.75905448272264375 0 0.19068556247388771 0.71028988922845504 0 0.2248999640082178 0.72584299459689172 0 0.39536230704883951 0.84069429572832477 0 0.38586766253264881 0.78219501014812498 0 0.42609163930740518 0.80361684430568059 0 0.59999999999999976 0.69999999999999996 0 0.63221990677827677 0.73442891067859706 0 0.59636844454254345 0.75937156204589151 0 0.27866744612395528 0.38416094670951489 0 0.24049127783545701 0.41270748208749802 0 0.22033343844674469 0.36963382230740238 0 0.82709327591091286 0.84937141670920724 0 0.84725310900444062 0.80779732082917555 0 0.88088768115933802 0.84674609810493673 0 0.82709327591102189 0.14937141670914489 0 0.84725310900442086 0.10779732082922661 0 0.88088768115941807 0.14674609810479519 0 0.1650278706801647 0.38791388161335733 0 0.18434624290945251 0.35208838264196463 0 0.22033343844674469 0.36963382230740238 0 0.4409427642593301 0.35743108089689513 0 0.49077833859261139 0.35229981449445641 0 0.46655310992796922 0.39650496622958609 0 0.80185942888539485 0.77452061303608133 0 0.81864958914779962 0.73589050177899629 0 0.85491058998424563 0.76004753345552634 0 0.80185942888501827 0.074520613036224564 0 0.81864958914740749 0.035890501779055867 0 0.85491058998398861 0.060047533455626502 0 0.29999999999926641 0 0 0.34999999999912063 0 0 0.32541448401678508 0.046215317981507749 0 0.35000000000145642 1 0 0.30000000000124832 1 0 0.32544832635163229 0.95485394099568932 0 0.4656888918609538 0.78493261229743638 0 0.50731287292894423 0.78963574450233831 0 0.50627822638148745 0.8263979829520941 0 0.2185883431182947 0.18019736283949719 0 0.25557216766470708 0.15874861286892261 0 0.26429849586623999 0.19346700179430079 0 1 0.29999999999999999 0 1 0.34999999999993492 0 0.95780851984364423 0.34215720972155339 0 1 0.29999999999999999 0 0.95780851984364423 0.34215720972155339 0 0.94999999999999996 0.29999999999999999 0 1 0.69999999999999996 0 0.94999999999999996 0.69999999999999996 0 0.9578014258160763 0.65787212321113708 0 1 0.69999999999999996 0 0.9578014258160763 0.65787212321113708 0 1 0.64999999999986979 0 0.91750694127107502 0.36982372220068471 0 0.90594285160987287 0.4141265964174129 0 0.86844634540301924 0.38530937474099819 0 0.91750694127105259 0.63017627779935648 0 0.87159648282691515 0.61285406320581504 0 0.91143117093204207 0.58709913730335972 0 0.74999999999999989 0.69999999999999996 0 0.7750489929959945 0.66593931409600093 0 0.79999999999999982 0.69999999999999996 0 0.74999999999999989 0.29999999999999999 0 0.79999999999999982 0.29999999999999999 0 0.78145581580700685 0.34881365920033602 0 0.54999999999999993 0.69999999999999996 0 0.57484956128872922 0.66573805030881994 0 0.59999999999999976 0.69999999999999996 0 0.90299850604011456 0.79563452813489832 0 0.94399509803918602 0.75600490196082126 0 0.95386563387742829 0.80414874155775029 0 0.90416666666660628 0.9041666666666166 0 0.95391631417670719 0.89584263333814784 0 0.94399509803919068 0.9439950980391687 0 0.90299850604006393 0.09563452813493091 0 0.94399509803922566 0.056004901960802607 0 0.95386563387744361 0.1041487415577465 0 0.90416666666668166 0.20416666666667119 0 0.95391631417672862 0.19584263333809451 0 0.94399509803921056 0.24399509803922639 0 0.22278230690790279 0.44824268025881547 0 0.19604738184454831 0.47787523520405789 0 0.191953871957803 0.42546416763755879 0 0.90299850604011456 0.79563452813489832 0 0.89999166460796554 0.74528934923809909 0 0.94399509803918602 0.75600490196082126 0 0.90299850604006393 0.09563452813493091 0 0.899991664607802 0.045289349238254978 0 0.94399509803922566 0.056004901960802607 0 0.49102375406324739 0.49123754822244059 0 0.47793794143994173 0.52940715638744962 0 0.43507373378304309 0.49699695397193322 0 0.90416666666660628 0.9041666666666166 0 0.94399509803919068 0.9439950980391687 0 0.89898474358632463 0.95391965591118966 0 0.90416666666668166 0.20416666666667119 0 0.94399509803921056 0.24399509803922639 0 0.89898474358614167 0.25391965591104898 0 0.65394964615507722 0.22666784374016369 0 0.62657463266645097 0.26524202571255862 0 0.59814117807200873 0.23398510860739519 0 0.6084546825910605 0.37989672713932537 0 0.63912439215427275 0.41063340167983359 0 0.57744073070774993 0.41535148636609359 0 0.61209567303293111 0.44669033081290321 0 0.57744073070774993 0.41535148636609359 0 0.63912439215427275 0.41063340167983359 0 0.25676291524611189 0.7436741304886243 0 0.22556077506376701 0.77837424984191617 0 0.2248999640082178 0.72584299459689172 0 0.61343887413683884 0.856862479058357 0 0.60294066490120068 0.80851322453934582 0 0.65005442820240822 0.82644988530054031 0 0.64999999999907843 0 0 0.66369801598854572 0.036327466368102787 0 0.61940220174112337 0.047251958781050582 0 0.40326160981139969 0.73346192995102844 0 0.38586766253264881 0.78219501014812498 0 0.35415581127540569 0.73730480045900215 0 0.33123028043633618 0.77629643437932982 0 0.35415581127540569 0.73730480045900215 0 0.38586766253264881 0.78219501014812498 0 0.26573297623774761 0.59828298563722948 0 0.29110487519241501 0.56588143995431495 0 0.31502927232353312 0.6134992213375432 0 0.77846603114747959 0.49850927265137401 0 0.81441713509985358 0.51161854125224959 0 0.77151014687832564 0.54436834383023036 0 0.82862096804812391 0.55037090955459045 0 0.77151014687832564 0.54436834383023036 0 0.81441713509985358 0.51161854125224959 0 0.50000000000205869 1 0 0.45000000000187229 1 0 0.47135117303824892 0.95556877749289892 0 0.44999999999882923 0 0 0.49999999999869432 0 0 0.47040171442036788 0.044141676406503738 0 0 0.7000000000006934 0 0 0.65000000000104008 0 0.046634677244967337 0.671418230738282 0 0 0.35000000000145642 0 0 0.30000000000124832 0 0.046389130980076937 0.32668781832131749 0 0.31378396441836959 0.70157213313026345 0 0.27820712747429932 0.65530134213254643 0 0.32263089806001177 0.66003674931826484 0 0.33122374654748771 0.57588941099433744 0 0.31502927232353312 0.6134992213375432 0 0.29110487519241501 0.56588143995431495 0 0.26573297623774761 0.59828298563722948 0 0.27820712747429932 0.65530134213254643 0 0.2459498854893499 0.63248470766216769 0 0.14474682429600511 0.85524784522713515 0 0.16206583317966519 0.89685560785156404 0 0.1241151115713819 0.9045666525468371 0 0.14332333627550789 0.14578431753966009 0 0.12372429750337779 0.095814237875728972 0 0.16141998738593399 0.10404039647458049 0 0.64753070846764316 0.77332939069435502 0 0.59636844454254345 0.75937156204589151 0 0.63221990677827677 0.73442891067859706 0 0.14474682429600511 0.85524784522713515 0 0.1241151115713819 0.9045666525468371 0 0.10562472963403439 0.87143394428979881 0 0.14332333627550789 0.14578431753966009 0 0.1053400320299198 0.12877248826361379 0 0.12372429750337779 0.095814237875728972 0 0.77354604466818633 0.40378688774472771 0 0.81308179852519835 0.39754945808726527 0 0.81973119833356312 0.43505687159469048 0 0.54782696902220018 0.79245182748204157 0 0.50945740445113552 0.75476055527778108 0 0.55363780716230748 0.74348740161571747 0 0.2236846579037573 0.67380363126050236 0 0.2459498854893499 0.63248470766216769 0 0.27820712747429932 0.65530134213254643 0 0.77293540622714185 0.59448302402785813 0 0.74994237037456724 0.62775548192980357 0 0.71809016091162536 0.58185040402320831 0 0 0.79999999999999982 0 0 0.75000000000034661 0 0.04408157711937423 0.7728941757575627 0 0 0.25000000000104028 0 0 0.20000000000083221 0 0.044081577119474857 0.2271058242433576 0 0.19999999999955789 0 0 0.24999999999941211 0 0 0.22668068146512929 0.045875643423131329 0 0.25000000000104028 1 0 0.20000000000083221 1 0 0.22850979588452081 0.95594428570238643 0 0.47357141910802508 0.1873585799078378 0 0.44288491854585582 0.14116182884956319 0 0.48466639505193998 0.1421439844745814 0 0.59999999999999976 0.29999999999999999 0 0.5794309697024993 0.27124795968204829 0 0.62657463266645097 0.26524202571255862 0 0.43249999999999988 0.43937499999999979 0 0.42161023666869668 0.39493916313643851 0 0.46655310992796922 0.39650496622958609 0 0.31068898841644388 0.47541502461811092 0 0.33190227185843768 0.52715113583864037 0 0.28307294598219601 0.50789252727458634 0 0.35024835142131061 0.48654922671676981 0 0.33190227185843768 0.52715113583864037 0 0.31068898841644388 0.47541502461811092 0 0.35864735590330371 0.63903383440414463 0 0.36622285152418499 0.69092437780804039 0 0.32263089806001177 0.66003674931826484 0 0.31378396441836959 0.70157213313026345 0 0.32263089806001177 0.66003674931826484 0 0.36622285152418499 0.69092437780804039 0 0.86956835336234861 0.571283299838105 0 0.90900154012161016 0.53607784105648792 0 0.91143117093204207 0.58709913730335972 0 0.6499999999999998 0.29999999999999999 0 0.65481233915350323 0.35652751921065562 0 0.61959173890754571 0.33832250091341232 0 0.4409427642593301 0.35743108089689513 0 0.46226845272279993 0.31901800744800313 0 0.49077833859261139 0.35229981449445641 0 0.5 0.29999999999999999 0 0.49077833859261139 0.35229981449445641 0 0.46226845272279993 0.31901800744800313 0 0.14999999999970359 0 0 0.19999999999955789 0 0 0.184418230509967 0.038773194583122873 0 0.20000000000083221 1 0 0.15000000000062411 1 0 0.18474005699953849 0.96231585248064622 0 1 0.49999999999950101 0 1 0.54999999999963112 0 0.95631871884947484 0.51827533208233789 0 0.38586766253264881 0.78219501014812498 0 0.42676259796334498 0.76772545931379299 0 0.42609163930740518 0.80361684430568059 0 0.20050006573841939 0.53248514016039872 0 0.22549374774072969 0.58452645269293457 0 0.18381867841758909 0.57774125163628387 0 0.065374659239661639 0.8551091961254178 0 0.1074251789111534 0.83564394292147814 0 0.10562472963403439 0.87143394428979881 0 0.065374659239632718 0.1448908038746782 0 0.1053400320299198 0.12877248826361379 0 0.106902708054812 0.16453234188234539 0 0.1650278706801647 0.38791388161335733 0 0.14223753364722069 0.3341983344262433 0 0.18434624290945251 0.35208838264196463 0 0.43249999999999988 0.43937499999999979 0 0.46111841286828259 0.46690301029591341 0 0.43507373378304309 0.49699695397193322 0 0.83758014339878906 0.63222013025741819 0 0.81723410853263523 0.59419663659258926 0 0.87159648282691515 0.61285406320581504 0 0.19670163708476801 0.31472518408333222 0 0.18434624290945251 0.35208838264196463 0 0.14223753364722069 0.3341983344262433 0 0.75000000000034661 1 0 0.7250000000005199 0.94981617647078953 0 0.770759834363826 0.95919399014344442 0 0.74999999999999989 0.29999999999999999 0 0.72500000000000064 0.2498161764706 0 0.77075983436335049 0.25919399014334171 0 0.69999999999999984 0.29999999999999999 0 0.67933712972090698 0.25920070958121938 0 0.72500000000000064 0.2498161764706 0 0.57611405284611883 0.50165903596042916 0 0.53330375813596242 0.50827942741749099 0 0.53823865529665704 0.45873898050322898 0 0.6499999999999998 0.29999999999999999 0 0.68887083591306764 0.33632058575757479 0 0.65481233915350323 0.35652751921065562 0 0.27866744612395528 0.38416094670951489 0 0.33277555741076909 0.36432196682010132 0 0.31778888742534622 0.40581751814196781 0 0.49102375406324739 0.49123754822244059 0 0.43507373378304309 0.49699695397193322 0 0.46111841286828259 0.46690301029591341 0 0.94999999999999996 0.69999999999999996 0 0.97166519676947294 0.73337114490064459 0 0.94399509803918602 0.75600490196082126 0 0.94999999999986839 0 0 0.97166519676946894 0.033371144900598393 0 0.94399509803922566 0.056004901960802607 0 0.94999999999999996 0.29999999999999999 0 0.94399509803921056 0.24399509803922639 0 0.97166519676951801 0.26662885509932011 0 0.94999999999979179 1 0 0.94399509803919068 0.9439950980391687 0 0.97166519676946206 0.96662885509935492 0 0.34258405725730701 0.4444034294386992 0 0.29124338931648802 0.43334555462578611 0 0.31778888742534622 0.40581751814196781 0 0.27866744612395528 0.38416094670951489 0 0.31778888742534622 0.40581751814196781 0 0.29124338931648802 0.43334555462578611 0 0.36575549820117997 0.31677992835137742 0 0.33277555741076909 0.36432196682010132 0 0.32752639306529541 0.32610012995269699 0 0.35752321586431363 0.9185439911803448 0 0.32544832635163229 0.95485394099568932 0 0.30864387279288652 0.89906554525974958 0 0.27609987656793722 0.94991445621608572 0 0.30864387279288652 0.89906554525974958 0 0.32544832635163229 0.95485394099568932 0 0.33123028043633618 0.77629643437932982 0 0.30857225866488791 0.81101973481716805 0 0.2792923945214143 0.77665808831789485 0 0.33758650185219202 0.23837101504325639 0 0.29132859388405002 0.27203693976649962 0 0.28040350263641872 0.23054717217092141 0 0.4409427642593301 0.35743108089689513 0 0.41914690343363781 0.30688979866601612 0 0.46226845272279993 0.31901800744800313 0 0.14332333627550789 0.14578431753966009 0 0.13737030665753211 0.20313708640667491 0 0.106902708054812 0.16453234188234539 0 0.083105206071467416 0.20007701332709979 0 0.106902708054812 0.16453234188234539 0 0.13737030665753211 0.20313708640667491 0 0.083105206071452636 0.79992298667296435 0 0.1382744753146134 0.79650574229207483 0 0.1074251789111534 0.83564394292147814 0 0.14474682429600511 0.85524784522713515 0 0.1074251789111534 0.83564394292147814 0 0.1382744753146134 0.79650574229207483 0 0.65408113592120842 0.073941773121567966 0 0.7010294155333181 0.056779085686491267 0 0.68330259535470161 0.10038702501083881 0 0.72525833953073282 0.1032114801687094 0 0.68330259535470161 0.10038702501083881 0 0.7010294155333181 0.056779085686491267 0 0.049706944316475897 0.72477277076253799 0 0.046634677244967337 0.671418230738282 0 0.1020579365089687 0.69352219419301997 0 0.086179601630648681 0.64647209519980475 0 0.1020579365089687 0.69352219419301997 0 0.046634677244967337 0.671418230738282 0 0.087545339447545459 0.35122518864182262 0 0.046389130980076937 0.32668781832131749 0 0.093851963071650835 0.30582068233324772 0 0.049706944316556423 0.27522722923869108 0 0.093851963071650835 0.30582068233324772 0 0.046389130980076937 0.32668781832131749 0 0.82709327591091286 0.84937141670920724 0 0.80041942726660109 0.81543261647703358 0 0.84725310900444062 0.80779732082917555 0 0.82709327591102189 0.14937141670914489 0 0.80076557130237269 0.1154587552654202 0 0.84725310900442086 0.10779732082922661 0 0.17933913398461551 0.2350063570234002 0 0.14377654328998779 0.2442024734791064 0 0.13737030665753211 0.20313708640667491 0 0.18269480424590959 0.75905448272264375 0 0.1382744753146134 0.79650574229207483 0 0.14335651144331049 0.75565258250209677 0 0.33758650185219202 0.23837101504325639 0 0.3786248352540974 0.27082301512024259 0 0.33402499257867951 0.28911035184473982 0 0.14332333627550789 0.14578431753966009 0 0.18124454140915969 0.18790916706335251 0 0.13737030665753211 0.20313708640667491 0 0.14474682429600511 0.85524784522713515 0 0.1382744753146134 0.79650574229207483 0 0.17777405986036951 0.81832336108265358 0 0.5 0.29999999999999999 0 0.52752007115234678 0.33170632466418198 0 0.49077833859261139 0.35229981449445641 0 0.27866744612395528 0.38416094670951489 0 0.29644548887253103 0.34914008784168082 0 0.33277555741076909 0.36432196682010132 0 0 0.84999999999965292 0 0 0.79999999999999982 0 0.038512288486097702 0.8155852717111195 0 0 0.20000000000083221 0 0 0.15000000000062411 0 0.038512288486115001 0.1844147282893184 0 0.40326160981139969 0.73346192995102844 0 0.35415581127540569 0.73730480045900215 0 0.36622285152418499 0.69092437780804039 0 0.91696753777131557 0.497780560203536 0 0.96228564064454991 0.48206450662049471 0 0.95631871884947484 0.51827533208233789 0 0.33758650185219202 0.23837101504325639 0 0.31255190597181792 0.19850845631528771 0 0.3572130504031617 0.1874703368446563 0 0.59814117807200873 0.23398510860739519 0 0.62657463266645097 0.26524202571255862 0 0.5794309697024993 0.27124795968204829 0 0.34258405725730701 0.4444034294386992 0 0.31068898841644388 0.47541502461811092 0 0.29124338931648802 0.43334555462578611 0 0.38083244760691543 0.38531983672244652 0 0.35221190152536241 0.40457127605439203 0 0.33277555741076909 0.36432196682010132 0 0.083411279318375747 0.91030024466934134 0 0.10266856499240549 0.95548163909968886 0 0.053064897599294662 0.95186845269532028 0 0.083411279318303222 0.089699755330707398 0 0.053064897599215843 0.048131547304697528 0 0.10266856499169109 0.044518360900210059 0 0.42377727103934271 0.25099357235810238 0 0.4604742573284204 0.27846934318264788 0 0.41914690343363781 0.30688979866601612 0 0.28307294598219601 0.50789252727458634 0 0.25982634974572738 0.46097799597715272 0 0.31068898841644388 0.47541502461811092 0 0.29348325746214782 0.31350119524708198 0 0.29132859388405002 0.27203693976649962 0 0.33402499257867951 0.28911035184473982 0 0.35312867752657662 0.084946736076730367 0 0.39823268594401579 0.1116623613130045 0 0.36246644853392812 0.1399454205365751 0 0.7000000000006934 1 0 0.68015064798562208 0.95924320340003011 0 0.7250000000005199 0.94981617647078953 0 0.42377727103934271 0.25099357235810238 0 0.38831533174504851 0.2189834941785925 0 0.42905200079338551 0.19982395548231649 0 0.53823865529665704 0.45873898050322898 0 0.57744073070774993 0.41535148636609359 0 0.57975577671020095 0.46172033326338591 0 0.33758650185219202 0.23837101504325639 0 0.3572130504031617 0.1874703368446563 0 0.38831533174504851 0.2189834941785925 0 0.29124338931648802 0.43334555462578611 0 0.31068898841644388 0.47541502461811092 0 0.25982634974572738 0.46097799597715272 0 0.6084546825910605 0.37989672713932537 0 0.61959173890754571 0.33832250091341232 0 0.65481233915350323 0.35652751921065562 0 0.40326160981139969 0.73346192995102844 0 0.43323420005758778 0.6913544522562407 0 0.45582236402875981 0.73896743678908217 0 0.33758650185219202 0.23837101504325639 0 0.28040350263641872 0.23054717217092141 0 0.31255190597181792 0.19850845631528771 0 0.79999999999999982 1 0 0.75000000000034661 1 0 0.770759834363826 0.95919399014344442 0 0.74999999999999989 0.29999999999999999 0 0.77075983436335049 0.25919399014334171 0 0.79999999999999982 0.29999999999999999 0 0.6499999999999998 0.29999999999999999 0 0.67933712972090698 0.25920070958121938 0 0.69999999999999984 0.29999999999999999 0 0.39536230704883951 0.84069429572832477 0 0.39767323751400468 0.89584229130535065 0 0.35864759629805099 0.87963482415279515 0 0.54999999999999993 0.69999999999999996 0 0.52584555706968406 0.66664215091846768 0 0.57484956128872922 0.66573805030881994 0 0.35312867752657662 0.084946736076730367 0 0.32541448401678508 0.046215317981507749 0 0.3615861437013822 0.03582617922508851 0 0.35752321586431363 0.9185439911803448 0 0.36184234618600131 0.96443954459096326 0 0.32544832635163229 0.95485394099568932 0 0.35312867752657662 0.084946736076730367 0 0.3615861437013822 0.03582617922508851 0 0.39591832466117061 0.056982757562006353 0 0.35752321586431363 0.9185439911803448 0 0.39641108128798319 0.94356127926187128 0 0.36184234618600131 0.96443954459096326 0 0.083411279318303222 0.089699755330707398 0 0.044310582753132287 0.101412518374475 0 0.053064897599215843 0.048131547304697528 0 0.083411279318375747 0.91030024466934134 0 0.053064897599294662 0.95186845269532028 0 0.0443105827531413 0.89858748162559932 0 0.38083244760691543 0.38531983672244652 0 0.40076539126862748 0.34589349467022118 0 0.42161023666869668 0.39493916313643851 0 0.4409427642593301 0.35743108089689513 0 0.42161023666869668 0.39493916313643851 0 0.40076539126862748 0.34589349467022118 0 0.79999999999999982 0.29999999999999999 0 0.82500000000000062 0.33010209762754811 0 0.78145581580700685 0.34881365920033602 0 0.79999999999999982 0.69999999999999996 0 0.7750489929959945 0.66593931409600093 0 0.82457059160610424 0.66831947184359608 0 0.59999999999999976 0.69999999999999996 0 0.57484956128872922 0.66573805030881994 0 0.62460753523532009 0.66851202781000296 0 0.74999999999999989 0.69999999999999996 0 0.72500000000000064 0.67022701834392062 0 0.7750489929959945 0.66593931409600093 0 0.74999999999999989 0.29999999999999999 0 0.78145581580700685 0.34881365920033602 0 0.73090396928863699 0.33699297293167962 0 0.33758650185219202 0.23837101504325639 0 0.33402499257867951 0.28911035184473982 0 0.29132859388405002 0.27203693976649962 0 0.36575549820117997 0.31677992835137742 0 0.41914690343363781 0.30688979866601612 0 0.40076539126862748 0.34589349467022118 0 0.4409427642593301 0.35743108089689513 0 0.40076539126862748 0.34589349467022118 0 0.41914690343363781 0.30688979866601612 0 0.34258405725730701 0.4444034294386992 0 0.38707855792647411 0.42299362914874578 0 0.3908716102680424 0.47010282357248828 0 0.7000000000006934 1 0 0.65000000000104008 1 0 0.68015064798562208 0.95924320340003011 0 0.49102375406324739 0.49123754822244059 0 0.46111841286828259 0.46690301029591341 0 0.48858720058566618 0.43964267759203868 0 0.4656888918609538 0.78493261229743638 0 0.42676259796334498 0.76772545931379299 0 0.45582236402875981 0.73896743678908217 0 0.40326160981139969 0.73346192995102844 0 0.45582236402875981 0.73896743678908217 0 0.42676259796334498 0.76772545931379299 0 0.59999999999999976 0.29999999999999999 0 0.62657463266645097 0.26524202571255862 0 0.6499999999999998 0.29999999999999999 0 0.40000000000166441 1 0 0.36184234618600131 0.96443954459096326 0 0.39641108128798319 0.94356127926187128 0 0.3999999999989749 0 0 0.39591832466117061 0.056982757562006353 0 0.3615861437013822 0.03582617922508851 0 0.43249999999999988 0.43937499999999979 0 0.48858720058566618 0.43964267759203868 0 0.46111841286828259 0.46690301029591341 0 0.7250000000005199 0.89375000000045834 0 0.7250000000005199 0.94981617647078953 0 0.68987011941058407 0.92105047536677087 0 0.7250000000005199 0.89375000000045834 0 0.75729602384198635 0.92353652857884294 0 0.7250000000005199 0.94981617647078953 0 0.72500000000001008 0.19776155966387679 0 0.75668890529066124 0.2244279804069782 0 0.72500000000000064 0.2498161764706 0 0.72500000000001008 0.19776155966387679 0 0.72500000000000064 0.2498161764706 0 0.69397719155551807 0.2245125647000914 0 0.79999999999999982 0.29999999999999999 0 0.81486180804364938 0.26321394949780091 0 0.84999999999999987 0.29999999999999999 0 0.84999999999965292 1 0 0.79999999999999982 1 0 0.81486180804382891 0.96321394949790495 0 0.1247745017231483 0.27198077544791172 0 0.095326043202144745 0.24554465089224409 0 0.14377654328998779 0.2442024734791064 0 0.1215415378367805 0.72939333680004137 0 0.14335651144331049 0.75565258250209677 0 0.090953281884486245 0.7564451946902494 0 0.72500000000001008 0.19776155966387679 0 0.72634814642510737 0.16106886917518889 0 0.76587607630038135 0.18880039518954719 0 0.72500000000001008 0.19776155966387679 0 0.6865991819015953 0.189116534044597 0 0.72634814642510737 0.16106886917518889 0 0.77144070960558853 0.14311854477243749 0 0.76587607630038135 0.18880039518954719 0 0.72634814642510737 0.16106886917518889 0 0.68391457121233579 0.14440470121196541 0 0.72634814642510737 0.16106886917518889 0 0.6865991819015953 0.189116534044597 0 0.7250000000005199 0.89375000000045834 0 0.72863726579783861 0.85390518901155588 0 0.76891166905518427 0.88835469571185499 0 0.76901770135486491 0.84293557325473656 0 0.76891166905518427 0.88835469571185499 0 0.72863726579783861 0.85390518901155588 0 0 0.20000000000083221 0 0.038512288486115001 0.1844147282893184 0 0.044081577119474857 0.2271058242433576 0 0 0.79999999999999982 0 0.04408157711937423 0.7728941757575627 0 0.038512288486097702 0.8155852717111195 0 0.52375890611712683 0.059318771819432882 0 0.47881186583059909 0.093591717165689425 0 0.47040171442036788 0.044141676406503738 0 0.52122150208832174 0.94089974453840242 0 0.47135117303824892 0.95556877749289892 0 0.47401147028110507 0.91529957330468115 0 0.27474541102162192 0.11822029332053539 0 0.3096713403101819 0.085471541595262421 0 0.32215584939770009 0.1218492143506909 0 0.22278230690790279 0.44824268025881547 0 0.24049127783545701 0.41270748208749802 0 0.25982634974572738 0.46097799597715272 0 0.93732437411268477 0.55911392101136159 0 0.91143117093204207 0.58709913730335972 0 0.90900154012161016 0.53607784105648792 0 0.19901705110390991 0.9175543425573498 0 0.24536017905392571 0.90704567837671446 0 0.22850979588452081 0.95594428570238643 0 0.27609987656793722 0.94991445621608572 0 0.22850979588452081 0.95594428570238643 0 0.24536017905392571 0.90704567837671446 0 0.15720202157091859 0.60665697304410315 0 0.1241190223511371 0.64391885572885044 0 0.1024350934457823 0.60772393977513839 0 0.6499999999999998 0.69999999999999996 0 0.675261390228442 0.65996937624687813 0 0.69999999999999984 0.69999999999999996 0 0.3999999999989749 0 0 0.4320097814748517 0.037406712692169303 0 0.39591832466117061 0.056982757562006353 0 0.40000000000166441 1 0 0.39641108128798319 0.94356127926187128 0 0.4308986359464303 0.96395712492906194 0 0.54999999999999993 0.29999999999999999 0 0.56836770495988642 0.3523062350852913 0 0.52752007115234678 0.33170632466418198 0 0.14474682429600511 0.85524784522713515 0 0.17777405986036951 0.81832336108265358 0 0.19741632902693801 0.86755867406447229 0 0.21858834311891909 0.81980263716112767 0 0.19741632902693801 0.86755867406447229 0 0.17777405986036951 0.81832336108265358 0 0.54782696902220018 0.79245182748204157 0 0.50731287292894423 0.78963574450233831 0 0.50945740445113552 0.75476055527778108 0 0.20000000000083221 1 0 0.18474005699953849 0.96231585248064622 0 0.22850979588452081 0.95594428570238643 0 0.19999999999955789 0 0 0.22668068146512929 0.045875643423131329 0 0.184418230509967 0.038773194583122873 0 0.77846603114747959 0.49850927265137401 0 0.73947346780852752 0.49062440112282169 0 0.77972660463949339 0.45529290596363098 0 0.73483647259922602 0.44789725365921768 0 0.77972660463949339 0.45529290596363098 0 0.73947346780852752 0.49062440112282169 0 0.34258405725730701 0.4444034294386992 0 0.35024835142131061 0.48654922671676981 0 0.31068898841644388 0.47541502461811092 0 0.33123028043633618 0.77629643437932982 0 0.2792923945214143 0.77665808831789485 0 0.29904318922293632 0.74132814928635593 0 0.26573297623774761 0.59828298563722948 0 0.25115337790845271 0.54719303014923271 0 0.29110487519241501 0.56588143995431495 0 0.4656888918609538 0.78493261229743638 0 0.50945740445113552 0.75476055527778108 0 0.50731287292894423 0.78963574450233831 0 0.35312867752657662 0.084946736076730367 0 0.36246644853392812 0.1399454205365751 0 0.32215584939770009 0.1218492143506909 0 0.29348325746214782 0.31350119524708198 0 0.25966125648670141 0.34351016742083729 0 0.24432083401701241 0.3006253385567515 0 0.59999999999999976 0.69999999999999996 0 0.6499999999999998 0.69999999999999996 0 0.63221990677827677 0.73442891067859706 0 0.69999999999921003 0 0 0.7010294155333181 0.056779085686491267 0 0.66369801598854572 0.036327466368102787 0 0.40000000000166441 1 0 0.35000000000145642 1 0 0.36184234618600131 0.96443954459096326 0 0.34999999999912063 0 0 0.3999999999989749 0 0 0.3615861437013822 0.03582617922508851 0 0.43507373378304309 0.49699695397193322 0 0.47793794143994173 0.52940715638744962 0 0.42644501560315817 0.54603747078095544 0 0.14474682429600511 0.85524784522713515 0 0.19741632902693801 0.86755867406447229 0 0.16206583317966519 0.89685560785156404 0 0.19901705110390991 0.9175543425573498 0 0.16206583317966519 0.89685560785156404 0 0.19741632902693801 0.86755867406447229 0 0.35864735590330371 0.63903383440414463 0 0.3977710372045391 0.65868194622830212 0 0.36622285152418499 0.69092437780804039 0 0.7527966693318906 0.053051678021508272 0 0.7010294155333181 0.056779085686491267 0 0.72683645290270404 0.027797073151180601 0 0.71508799138962864 0.36622814920737751 0 0.72622533758026719 0.40265885511101601 0 0.68128176404677243 0.38629093627004979 0 0.79999999999999982 0.69999999999999996 0 0.84999999999999987 0.69999999999999996 0 0.81864958914779962 0.73589050177899629 0 0.79999999999947335 0 0 0.84999999999960507 0 0 0.81864958914740749 0.035890501779055867 0 0.39536230704883951 0.84069429572832477 0 0.35642984951668422 0.80994399665655703 0 0.38586766253264881 0.78219501014812498 0 0.42377727103934271 0.25099357235810238 0 0.46429753744194407 0.22870891180733599 0 0.4604742573284204 0.27846934318264788 0 0.39801143831225599 0.16651381068160659 0 0.42905200079338551 0.19982395548231649 0 0.38831533174504851 0.2189834941785925 0 0.79999999999999982 1 0 0.770759834363826 0.95919399014344442 0 0.81486180804382891 0.96321394949790495 0 0.79999999999999982 0.29999999999999999 0 0.77075983436335049 0.25919399014334171 0 0.81486180804364938 0.26321394949780091 0 0.25195515620380449 0.25883339815888678 0 0.21049769590865089 0.26857363548218488 0 0.224700362040408 0.22206622194729711 0 0.40326160981139969 0.73346192995102844 0 0.42676259796334498 0.76772545931379299 0 0.38586766253264881 0.78219501014812498 0 0.35312867752657662 0.084946736076730367 0 0.3096713403101819 0.085471541595262421 0 0.32541448401678508 0.046215317981507749 0 0.59999999999999976 0.29999999999999999 0 0.6499999999999998 0.29999999999999999 0 0.61959173890754571 0.33832250091341232 0 0.2185883431182947 0.18019736283949719 0 0.18652628422869419 0.14162325200928061 0 0.22985637510995899 0.1298347970200906 0 0.64999999999907843 0 0 0.69999999999921003 0 0 0.66369801598854572 0.036327466368102787 0 0.27499999999933927 0.060310814194988557 0 0.24218496799700481 0.089025544070598317 0 0.22668068146512929 0.045875643423131329 0 0.19922788606653311 0.085920220746880993 0 0.22668068146512929 0.045875643423131329 0 0.24218496799700481 0.089025544070598317 0 0.65507451745379841 0.92229208810758578 0 0.66412543161245952 0.88015090885499059 0 0.68987011941058407 0.92105047536677087 0 0.049706944316475897 0.72477277076253799 0 0.090953281884486245 0.7564451946902494 0 0.04408157711937423 0.7728941757575627 0 0.083105206071452636 0.79992298667296435 0 0.04408157711937423 0.7728941757575627 0 0.090953281884486245 0.7564451946902494 0 0.083105206071467416 0.20007701332709979 0 0.095326043202144745 0.24554465089224409 0 0.044081577119474857 0.2271058242433576 0 0.049706944316556423 0.27522722923869108 0 0.044081577119474857 0.2271058242433576 0 0.095326043202144745 0.24554465089224409 0 0.36575549820117997 0.31677992835137742 0 0.33402499257867951 0.28911035184473982 0 0.3786248352540974 0.27082301512024259 0 0.53245488764484505 0.55078124999999989 0 0.53330375813596242 0.50827942741749099 0 0.57435499076887508 0.54267261987897775 0 0.57611405284611883 0.50165903596042916 0 0.57435499076887508 0.54267261987897775 0 0.53330375813596242 0.50827942741749099 0 0.6499999999999998 0.29999999999999999 0 0.69999999999999984 0.29999999999999999 0 0.68887083591306764 0.33632058575757479 0 0.57611405284611883 0.50165903596042916 0 0.53823865529665704 0.45873898050322898 0 0.57975577671020095 0.46172033326338591 0 0.7750489929959945 0.66593931409600093 0 0.72500000000000064 0.67022701834392062 0 0.74994237037456724 0.62775548192980357 0 0.78145581580700685 0.34881365920033602 0 0.74764719760526988 0.3719647154012321 0 0.73090396928863699 0.33699297293167962 0 0.3999999999989749 0 0 0.44999999999882923 0 0 0.4320097814748517 0.037406712692169303 0 0.45000000000187229 1 0 0.40000000000166441 1 0 0.4308986359464303 0.96395712492906194 0 0.57484956128872922 0.66573805030881994 0 0.5991018319127801 0.62925360607495295 0 0.62460753523532009 0.66851202781000296 0 0.7750489929959945 0.66593931409600093 0 0.79884539758237771 0.62875045078114233 0 0.82457059160610424 0.66831947184359608 0 0.39801143831225599 0.16651381068160659 0 0.36246644853392812 0.1399454205365751 0 0.39823268594401579 0.1116623613130045 0 0.078358742472063481 0.43365249433908948 0 0.033550201249889847 0.46247875832467239 0 0.035463093262830522 0.42673416072819947 0 0.25676291524611189 0.7436741304886243 0 0.2792923945214143 0.77665808831789485 0 0.22556077506376701 0.77837424984191617 0 0.2236846579037573 0.67380363126050236 0 0.2248999640082178 0.72584299459689172 0 0.19068556247388771 0.71028988922845504 0 0.50715858906372158 0.63295939104129484 0 0.5166924242153631 0.59825134841919447 0 0.5498280205245758 0.6290146943450976 0 0.14618258501891079 0.062070108745602003 0 0.12372429750337779 0.095814237875728972 0 0.10266856499169109 0.044518360900210059 0 0.083411279318303222 0.089699755330707398 0 0.10266856499169109 0.044518360900210059 0 0.12372429750337779 0.095814237875728972 0 0.083411279318375747 0.91030024466934134 0 0.1241151115713819 0.9045666525468371 0 0.10266856499240549 0.95548163909968886 0 0.14617343800780541 0.93808063414349496 0 0.10266856499240549 0.95548163909968886 0 0.1241151115713819 0.9045666525468371 0 0.5499999999988151 0 0 0.59999999999894682 0 0 0.57396793757665954 0.037011367187645222 0 0.54782696902220018 0.79245182748204157 0 0.50627822638148745 0.8263979829520941 0 0.50731287292894423 0.78963574450233831 0 0.6499999999999998 0.29999999999999999 0 0.62657463266645097 0.26524202571255862 0 0.67933712972090698 0.25920070958121938 0 0.86956835336234861 0.571283299838105 0 0.86907294890112186 0.52008116128001669 0 0.90900154012161016 0.53607784105648792 0 0.17933913398461551 0.2350063570234002 0 0.224700362040408 0.22206622194729711 0 0.21049769590865089 0.26857363548218488 0 0.43249999999999988 0.43937499999999979 0 0.3908716102680424 0.47010282357248828 0 0.38707855792647411 0.42299362914874578 0 0.27474541102162192 0.11822029332053539 0 0.22985637510995899 0.1298347970200906 0 0.24218496799700481 0.089025544070598317 0 0.64753070846764316 0.77332939069435502 0 0.66427993341343905 0.73232764502436276 0 0.6916490518212759 0.75387992374886192 0 0 0.40000000000166441 0 0.050583896093752537 0.38543522283434112 0 0.035463093262830522 0.42673416072819947 0 0.73483647259922602 0.44789725365921768 0 0.73947346780852752 0.49062440112282169 0 0.69385896817107129 0.48377516041410151 0 0.57484956128872922 0.66573805030881994 0 0.52584555706968406 0.66664215091846768 0 0.5498280205245758 0.6290146943450976 0 0.60000000000138687 1 0 0.55000000000173355 1 0 0.57382506491224949 0.9629411906298494 0 0.068743045408989428 0.48853989837882689 0 0.085622222639554768 0.53333248912060549 0 0.044576108720083309 0.53509043209532614 0 0.083105206071467416 0.20007701332709979 0 0.044081577119474857 0.2271058242433576 0 0.038512288486115001 0.1844147282893184 0 0.083105206071452636 0.79992298667296435 0 0.038512288486097702 0.8155852717111195 0 0.04408157711937423 0.7728941757575627 0 0.28307294598219601 0.50789252727458634 0 0.23975172658309729 0.49475499200540818 0 0.25982634974572738 0.46097799597715272 0 0.43698630808430822 0.080423614171545449 0 0.39591832466117061 0.056982757562006353 0 0.4320097814748517 0.037406712692169303 0 0.4367309254023824 0.92065556789053882 0 0.4308986359464303 0.96395712492906194 0 0.39641108128798319 0.94356127926187128 0 0.80185942888539485 0.77452061303608133 0 0.75841349681148107 0.75422312624214749 0 0.78578450296893509 0.73292684821144505 0 0.80185942888501827 0.074520613036224564 0 0.7527966693318906 0.053051678021508272 0 0.78393852574753176 0.032039079577822822 0 0.6499999999999998 0.69999999999999996 0 0.62460753523532009 0.66851202781000296 0 0.675261390228442 0.65996937624687813 0 0.33123028043633618 0.77629643437932982 0 0.38586766253264881 0.78219501014812498 0 0.35642984951668422 0.80994399665655703 0 0.6405463747586706 0.63290524857395714 0 0.675261390228442 0.65996937624687813 0 0.62460753523532009 0.66851202781000296 0 0.22278230690790279 0.44824268025881547 0 0.191953871957803 0.42546416763755879 0 0.24049127783545701 0.41270748208749802 0 0.077693244765132896 0.56932317963405099 0 0.050069554451969707 0.61308520079857043 0 0.034381862692950467 0.57372682250960894 0 0.25195515620380449 0.25883339815888678 0 0.24432083401701241 0.3006253385567515 0 0.21049769590865089 0.26857363548218488 0 0.46666084890304671 0.57634471035397938 0 0.5166924242153631 0.59825134841919447 0 0.47095389620662098 0.61892551373708504 0 0.50715858906372158 0.63295939104129484 0 0.47095389620662098 0.61892551373708504 0 0.5166924242153631 0.59825134841919447 0 0.72525833953073282 0.1032114801687094 0 0.7527966693318906 0.053051678021508272 0 0.76878382444651716 0.097147941686331368 0 0.80185942888501827 0.074520613036224564 0 0.76878382444651716 0.097147941686331368 0 0.7527966693318906 0.053051678021508272 0 0.72500000000000064 0.7952620967744265 0 0.75841349681148107 0.75422312624214749 0 0.77094201086366854 0.79647480515688507 0 0.80185942888539485 0.77452061303608133 0 0.77094201086366854 0.79647480515688507 0 0.75841349681148107 0.75422312624214749 0 0.72500000000000064 0.7952620967744265 0 0.68024162096458085 0.79868546898116533 0 0.6916490518212759 0.75387992374886192 0 0.64753070846764316 0.77332939069435502 0 0.6916490518212759 0.75387992374886192 0 0.68024162096458085 0.79868546898116533 0 0 0.50000000000205869 0 0 0.45000000000187229 0 0.033550201249889847 0.46247875832467239 0 0.69999999999999984 0.69999999999999996 0 0.675261390228442 0.65996937624687813 0 0.72500000000000064 0.67022701834392062 0 0.71406021706547751 0.63292083137662503 0 0.72500000000000064 0.67022701834392062 0 0.675261390228442 0.65996937624687813 0 0.65408113592120842 0.073941773121567966 0 0.61940220174112337 0.047251958781050582 0 0.66369801598854572 0.036327466368102787 0 0.59999999999894682 0 0 0.61940220174112337 0.047251958781050582 0 0.57396793757665954 0.037011367187645222 0 0.60000000000138687 1 0 0.57382506491224949 0.9629411906298494 0 0.62065498684670595 0.95224934003983619 0 0.33122374654748771 0.57588941099433744 0 0.35765792684946668 0.6000687869219653 0 0.31502927232353312 0.6134992213375432 0 0.35864735590330371 0.63903383440414463 0 0.31502927232353312 0.6134992213375432 0 0.35765792684946668 0.6000687869219653 0 0.15801167086041079 0.46008690540259539 0 0.19604738184454831 0.47787523520405789 0 0.16618607197337229 0.50652878253548905 0 0.078358742472063481 0.43365249433908948 0 0.035463093262830522 0.42673416072819947 0 0.050583896093752537 0.38543522283434112 0 0.19901705110390991 0.9175543425573498 0 0.22850979588452081 0.95594428570238643 0 0.18474005699953849 0.96231585248064622 0 0.19922788606653311 0.085920220746880993 0 0.184418230509967 0.038773194583122873 0 0.22668068146512929 0.045875643423131329 0 0.19922788606653311 0.085920220746880993 0 0.24218496799700481 0.089025544070598317 0 0.22985637510995899 0.1298347970200906 0 0.74999999999999989 0.69999999999999996 0 0.78578450296893509 0.73292684821144505 0 0.75841349681148107 0.75422312624214749 0 0.74999999999934175 0 0 0.78393852574753176 0.032039079577822822 0 0.7527966693318906 0.053051678021508272 0 0 0.60000000000138687 0 0.034381862692950467 0.57372682250960894 0 0.050069554451969707 0.61308520079857043 0 0.2236846579037573 0.67380363126050236 0 0.26439878998046262 0.7048065392091396 0 0.2248999640082178 0.72584299459689172 0 0.6236733212988993 0.14864538214901801 0 0.58516465772821369 0.11653801664834119 0 0.61956000905586006 0.1043312481793135 0 0.26104540868854792 0.81401944968719064 0 0.2792923945214143 0.77665808831789485 0 0.30857225866488791 0.81101973481716805 0 0.42377727103934271 0.25099357235810238 0 0.42905200079338551 0.19982395548231649 0 0.46429753744194407 0.22870891180733599 0 0.27820712747429932 0.65530134213254643 0 0.31502927232353312 0.6134992213375432 0 0.32263089806001177 0.66003674931826484 0 0.61343887413683884 0.856862479058357 0 0.61885627562261258 0.90282959257498208 0 0.5832743223239254 0.88483152652961872 0 0.43698630808430822 0.080423614171545449 0 0.47040171442036788 0.044141676406503738 0 0.47881186583059909 0.093591717165689425 0 0.4367309254023824 0.92065556789053882 0 0.47401147028110507 0.91529957330468115 0 0.47135117303824892 0.95556877749289892 0 0.91696753777131557 0.497780560203536 0 0.95631871884947484 0.51827533208233789 0 0.90900154012161016 0.53607784105648792 0 0.93732437411268477 0.55911392101136159 0 0.90900154012161016 0.53607784105648792 0 0.95631871884947484 0.51827533208233789 0 0.27474541102162192 0.11822029332053539 0 0.25557216766470708 0.15874861286892261 0 0.22985637510995899 0.1298347970200906 0 0.2185883431182947 0.18019736283949719 0 0.22985637510995899 0.1298347970200906 0 0.25557216766470708 0.15874861286892261 0 0.29348325746214782 0.31350119524708198 0 0.33402499257867951 0.28911035184473982 0 0.32752639306529541 0.32610012995269699 0 0.27499999999933927 0.060310814194988557 0 0.32541448401678508 0.046215317981507749 0 0.3096713403101819 0.085471541595262421 0 0.27270076654418179 0.87751467830216623 0 0.24536017905392571 0.90704567837671446 0 0.2401283238295133 0.85648409884788523 0 1 0.44999999999963131 0 1 0.49999999999950101 0 0.96228564064454991 0.48206450662049471 0 0.61343887413683884 0.856862479058357 0 0.66412543161245952 0.88015090885499059 0 0.61885627562261258 0.90282959257498208 0 0 0.45000000000187229 0 0 0.40000000000166441 0 0.035463093262830522 0.42673416072819947 0 0.69999999999999984 0.69999999999999996 0 0.6916490518212759 0.75387992374886192 0 0.66427993341343905 0.73232764502436276 0 0.43846182030517877 0.64845797726506715 0 0.43323420005758778 0.6913544522562407 0 0.3977710372045391 0.65868194622830212 0 0.4367309254023824 0.92065556789053882 0 0.44003836461056539 0.88093474584252718 0 0.47401147028110507 0.91529957330468115 0 0.43846182030517877 0.64845797726506715 0 0.39743091024207589 0.6239520004230239 0 0.43545892161006339 0.61093128915313821 0 0.43846182030517877 0.64845797726506715 0 0.3977710372045391 0.65868194622830212 0 0.39743091024207589 0.6239520004230239 0 0.26429849586623999 0.19346700179430079 0 0.29336099386129338 0.15892013001050981 0 0.31255190597181792 0.19850845631528771 0 0.19670163708476801 0.31472518408333222 0 0.21049769590865089 0.26857363548218488 0 0.24432083401701241 0.3006253385567515 0 0.57724883562309992 0.92155686857100794 0 0.62065498684670595 0.95224934003983619 0 0.57382506491224949 0.9629411906298494 0 0.4409427642593301 0.35743108089689513 0 0.46655310992796922 0.39650496622958609 0 0.42161023666869668 0.39493916313643851 0 0.46666084890304671 0.57634471035397938 0 0.47095389620662098 0.61892551373708504 0 0.43545892161006339 0.61093128915313821 0 0.6879972333610942 0.43038561374960838 0 0.65178832218679827 0.45929119821019959 0 0.63912439215427275 0.41063340167983359 0 0.43698630808430822 0.080423614171545449 0 0.4320097814748517 0.037406712692169303 0 0.47040171442036788 0.044141676406503738 0 0.4367309254023824 0.92065556789053882 0 0.47135117303824892 0.95556877749289892 0 0.4308986359464303 0.96395712492906194 0 0.79680861578988083 0.92656778056766709 0 0.81486180804382891 0.96321394949790495 0 0.770759834363826 0.95919399014344442 0 0.79680861578956375 0.22656778056752541 0 0.81486180804364938 0.26321394949780091 0 0.77075983436335049 0.25919399014334171 0 0.71508799138962864 0.36622814920737751 0 0.68128176404677243 0.38629093627004979 0 0.68887083591306764 0.33632058575757479 0 0.35864735590330371 0.63903383440414463 0 0.32263089806001177 0.66003674931826484 0 0.31502927232353312 0.6134992213375432 0 0.21858834311891909 0.81980263716112767 0 0.2401283238295133 0.85648409884788523 0 0.19741632902693801 0.86755867406447229 0 0.35312867752657662 0.084946736076730367 0 0.32215584939770009 0.1218492143506909 0 0.3096713403101819 0.085471541595262421 0 0.35752321586431363 0.9185439911803448 0 0.35864759629805099 0.87963482415279515 0 0.39767323751400468 0.89584229130535065 0 0.41914690343363781 0.30688979866601612 0 0.4604742573284204 0.27846934318264788 0 0.46226845272279993 0.31901800744800313 0 0.33084213324567391 0.16272720141332131 0 0.32215584939770009 0.1218492143506909 0 0.36246644853392812 0.1399454205365751 0 0.46666084890304671 0.57634471035397938 0 0.42644501560315817 0.54603747078095544 0 0.47793794143994173 0.52940715638744962 0 0 0.60000000000138687 0 0 0.55000000000173355 0 0.034381862692950467 0.57372682250960894 0 0.77354604466818633 0.40378688774472771 0 0.74764719760526988 0.3719647154012321 0 0.78145581580700685 0.34881365920033602 0 0.34999999999912063 0 0 0.3615861437013822 0.03582617922508851 0 0.32541448401678508 0.046215317981507749 0 0.35000000000145642 1 0 0.32544832635163229 0.95485394099568932 0 0.36184234618600131 0.96443954459096326 0 0.57667858002728545 0.078486105337742612 0 0.57396793757665954 0.037011367187645222 0 0.61940220174112337 0.047251958781050582 0 0.47357141910802508 0.1873585799078378 0 0.50760557329222289 0.20700468884612061 0 0.46429753744194407 0.22870891180733599 0 0.49695729691142171 0.25014895411178018 0 0.46429753744194407 0.22870891180733599 0 0.50760557329222289 0.20700468884612061 0 0.33084213324567391 0.16272720141332131 0 0.3572130504031617 0.1874703368446563 0 0.31255190597181792 0.19850845631528771 0 0.6879972333610942 0.43038561374960838 0 0.63912439215427275 0.41063340167983359 0 0.68128176404677243 0.38629093627004979 0 0.65408113592120842 0.073941773121567966 0 0.65290632656860115 0.11434202593454081 0 0.61956000905586006 0.1043312481793135 0 0.33084213324567391 0.16272720141332131 0 0.31255190597181792 0.19850845631528771 0 0.29336099386129338 0.15892013001050981 0 0.61209567303293111 0.44669033081290321 0 0.63912439215427275 0.41063340167983359 0 0.65178832218679827 0.45929119821019959 0 0.086179601630648681 0.64647209519980475 0 0.1024350934457823 0.60772393977513839 0 0.1241190223511371 0.64391885572885044 0 0.44999999999882923 0 0 0.47040171442036788 0.044141676406503738 0 0.4320097814748517 0.037406712692169303 0 0.45000000000187229 1 0 0.4308986359464303 0.96395712492906194 0 0.47135117303824892 0.95556877749289892 0 0.74999999999934175 0 0 0.7527966693318906 0.053051678021508272 0 0.72683645290270404 0.027797073151180601 0 0.74999999999999989 0.69999999999999996 0 0.75841349681148107 0.75422312624214749 0 0.72501250972655151 0.74067302935308721 0 0.69999999999999984 0.69999999999999996 0 0.72501250972655151 0.74067302935308721 0 0.6916490518212759 0.75387992374886192 0 0.74999999999934175 0 0 0.79999999999947335 0 0 0.78393852574753176 0.032039079577822822 0 0.74999999999999989 0.69999999999999996 0 0.79999999999999982 0.69999999999999996 0 0.78578450296893509 0.73292684821144505 0 0.6405463747586706 0.63290524857395714 0 0.5991018319127801 0.62925360607495295 0 0.63065402604362242 0.59661356661633302 0 0.65481233915350323 0.35652751921065562 0 0.68887083591306764 0.33632058575757479 0 0.68128176404677243 0.38629093627004979 0 0.89999999999999991 0.29999999999999999 0 0.94999999999999996 0.29999999999999999 0 0.92012390126144183 0.33123581297173937 0 0.89999999999999991 0.69999999999999996 0 0.92057473616084773 0.66770436535372446 0 0.94999999999999996 0.69999999999999996 0 0.4367309254023824 0.92065556789053882 0 0.39767323751400468 0.89584229130535065 0 0.44003836461056539 0.88093474584252718 0 0.2185883431182947 0.18019736283949719 0 0.18124454140915969 0.18790916706335251 0 0.18652628422869419 0.14162325200928061 0 0.20050006573841939 0.53248514016039872 0 0.19604738184454831 0.47787523520405789 0 0.23975172658309729 0.49475499200540818 0 0.65507451745379841 0.92229208810758578 0 0.61885627562261258 0.90282959257498208 0 0.66412543161245952 0.88015090885499059 0 0.65394964615507722 0.22666784374016369 0 0.67933712972090698 0.25920070958121938 0 0.62657463266645097 0.26524202571255862 0 0.077693244765132896 0.56932317963405099 0 0.034381862692950467 0.57372682250960894 0 0.044576108720083309 0.53509043209532614 0 0.39801143831225599 0.16651381068160659 0 0.38831533174504851 0.2189834941785925 0 0.3572130504031617 0.1874703368446563 0 0.6499999999999998 0.69999999999999996 0 0.69999999999999984 0.69999999999999996 0 0.66427993341343905 0.73232764502436276 0 0.1215415378367805 0.72939333680004137 0 0.15332765547575641 0.71200081858233666 0 0.14335651144331049 0.75565258250209677 0 0.6405463747586706 0.63290524857395714 0 0.63065402604362242 0.59661356661633302 0 0.67529834988829951 0.61613270668143583 0 0.67323294229744413 0.57556450033612505 0 0.67529834988829951 0.61613270668143583 0 0.63065402604362242 0.59661356661633302 0 0.91750694127107502 0.36982372220068471 0 0.87430060258887643 0.34056085888204451 0 0.92012390126144183 0.33123581297173937 0 0.89999999999999991 0.29999999999999999 0 0.92012390126144183 0.33123581297173937 0 0.87430060258887643 0.34056085888204451 0 0.89999999999999991 0.69999999999999996 0 0.87712158428786946 0.65709029563313581 0 0.92057473616084773 0.66770436535372446 0 0.91750694127105259 0.63017627779935648 0 0.92057473616084773 0.66770436535372446 0 0.87712158428786946 0.65709029563313581 0 0.33122374654748771 0.57588941099433744 0 0.29110487519241501 0.56588143995431495 0 0.33190227185843768 0.52715113583864037 0 0.57484956128872922 0.66573805030881994 0 0.5498280205245758 0.6290146943450976 0 0.5991018319127801 0.62925360607495295 0 0.57412547362576272 0.58273804879550706 0 0.5991018319127801 0.62925360607495295 0 0.5498280205245758 0.6290146943450976 0 0.65408113592120842 0.073941773121567966 0 0.66369801598854572 0.036327466368102787 0 0.7010294155333181 0.056779085686491267 0 0.27474541102162192 0.11822029332053539 0 0.32215584939770009 0.1218492143506909 0 0.29336099386129338 0.15892013001050981 0 0.33084213324567391 0.16272720141332131 0 0.29336099386129338 0.15892013001050981 0 0.32215584939770009 0.1218492143506909 0 0.5 0.29999999999999999 0 0.54999999999999993 0.29999999999999999 0 0.52752007115234678 0.33170632466418198 0 0.83573492347052902 0.36590755630746369 0 0.87430060258887643 0.34056085888204451 0 0.86844634540301924 0.38530937474099819 0 0.83758014339878906 0.63222013025741819 0 0.87159648282691515 0.61285406320581504 0 0.87712158428786946 0.65709029563313581 0 0.22278230690790279 0.44824268025881547 0 0.23975172658309729 0.49475499200540818 0 0.19604738184454831 0.47787523520405789 0 1 0.49999999999950101 0 0.95631871884947484 0.51827533208233789 0 0.96228564064454991 0.48206450662049471 0 0.1650278706801647 0.38791388161335733 0 0.13773355295499351 0.42497777642586831 0 0.1117088112799664 0.38831403004970022 0 0.61209567303293111 0.44669033081290321 0 0.57975577671020095 0.46172033326338591 0 0.57744073070774993 0.41535148636609359 0 0.077693244765132896 0.56932317963405099 0 0.1154888278694548 0.56733818459978413 0 0.1024350934457823 0.60772393977513839 0 0.68697391633157634 0.84450604838764298 0 0.65005442820240822 0.82644988530054031 0 0.68024162096458085 0.79868546898116533 0 0.76901770135486491 0.84293557325473656 0 0.77094201086366854 0.79647480515688507 0 0.80041942726660109 0.81543261647703358 0 0.77144070960558853 0.14311854477243749 0 0.76878382444651716 0.097147941686331368 0 0.80076557130237269 0.1154587552654202 0 0.5 0.69999999999999996 0 0.52584555706968406 0.66664215091846768 0 0.54999999999999993 0.69999999999999996 0 0.077693244765132896 0.56932317963405099 0 0.044576108720083309 0.53509043209532614 0 0.085622222639554768 0.53333248912060549 0 0.69999999999921003 0 0 0.72683645290270404 0.027797073151180601 0 0.7010294155333181 0.056779085686491267 0 1 0 0 0.97166519676946894 0.033371144900598393 0 0.94999999999986839 0 0 1 0.69999999999999996 0 0.97166519676947294 0.73337114490064459 0 0.94999999999999996 0.69999999999999996 0 1 0.69999999999999996 0 1 0.74999999999993494 0 0.97166519676947294 0.73337114490064459 0 1 0.29999999999999999 0 0.97166519676951801 0.26662885509932011 0 1 0.24999999999987299 0 1 1 0 0.94999999999979179 1 0 0.97166519676946206 0.96662885509935492 0 1 0 0 1 0.049999999999896842 0 0.97166519676946894 0.033371144900598393 0 1 0.29999999999999999 0 0.94999999999999996 0.29999999999999999 0 0.97166519676951801 0.26662885509932011 0 1 1 0 0.97166519676946206 0.96662885509935492 0 1 0.94999999999997109 0 0 0.55000000000173355 0 0.044576108720083309 0.53509043209532614 0 0.034381862692950467 0.57372682250960894 0 0.6879972333610942 0.43038561374960838 0 0.69385896817107129 0.48377516041410151 0 0.65178832218679827 0.45929119821019959 0 0.33084213324567391 0.16272720141332131 0 0.36246644853392812 0.1399454205365751 0 0.3572130504031617 0.1874703368446563 0 0.65408113592120842 0.073941773121567966 0 0.68330259535470161 0.10038702501083881 0 0.65290632656860115 0.11434202593454081 0 0.16500388252850301 0.66612077714085194 0 0.19068556247388771 0.71028988922845504 0 0.15332765547575641 0.71200081858233666 0 0.82709327591091286 0.84937141670920724 0 0.85600844944837662 0.88483418979512773 0 0.81159157511211755 0.88795995483179491 0 0.82709327591102189 0.14937141670914489 0 0.85600844944842547 0.1848341897950983 0 0.81283102246527783 0.1881007222486438 0 0.79999999999999982 0.29999999999999999 0 0.84999999999999987 0.29999999999999999 0 0.82500000000000062 0.33010209762754811 0 0.79999999999999982 0.69999999999999996 0 0.82457059160610424 0.66831947184359608 0 0.84999999999999987 0.69999999999999996 0 0.59999999999999976 0.69999999999999996 0 0.62460753523532009 0.66851202781000296 0 0.6499999999999998 0.69999999999999996 0 0.39801143831225599 0.16651381068160659 0 0.3572130504031617 0.1874703368446563 0 0.36246644853392812 0.1399454205365751 0 0.69999999999999984 0.29999999999999999 0 0.74999999999999989 0.29999999999999999 0 0.73090396928863699 0.33699297293167962 0 0.69999999999999984 0.69999999999999996 0 0.72500000000000064 0.67022701834392062 0 0.74999999999999989 0.69999999999999996 0 0.6236733212988993 0.14864538214901801 0 0.64011864159029941 0.18789607982138171 0 0.59443395090188023 0.18455690917515069 0 0.20050006573841939 0.53248514016039872 0 0.16618607197337229 0.50652878253548905 0 0.19604738184454831 0.47787523520405789 0 0.79680861578956375 0.22656778056752541 0 0.76587607630038135 0.18880039518954719 0 0.81283102246527783 0.1881007222486438 0 0.79680861578988083 0.92656778056766709 0 0.76891166905518427 0.88835469571185499 0 0.81159157511211755 0.88795995483179491 0 0.71406021706547751 0.63292083137662503 0 0.675261390228442 0.65996937624687813 0 0.67529834988829951 0.61613270668143583 0 0.6405463747586706 0.63290524857395714 0 0.67529834988829951 0.61613270668143583 0 0.675261390228442 0.65996937624687813 0 0.19670163708476801 0.31472518408333222 0 0.168349569971391 0.28054490850913671 0 0.21049769590865089 0.26857363548218488 0 0.47357141910802508 0.1873585799078378 0 0.46429753744194407 0.22870891180733599 0 0.42905200079338551 0.19982395548231649 0 0.59814117807200873 0.23398510860739519 0 0.5794309697024993 0.27124795968204829 0 0.54248833945060504 0.2520322959927106 0 0.6541250972820879 0.49999999999999989 0 0.65178832218679827 0.45929119821019959 0 0.69385896817107129 0.48377516041410151 0 0.54999999999999993 0.29999999999999999 0 0.5794309697024993 0.27124795968204829 0 0.59999999999999976 0.29999999999999999 0 0.7750489929959945 0.66593931409600093 0 0.74994237037456724 0.62775548192980357 0 0.79884539758237771 0.62875045078114233 0 0.77293540622714185 0.59448302402785813 0 0.79884539758237771 0.62875045078114233 0 0.74994237037456724 0.62775548192980357 0 0.14332333627550789 0.14578431753966009 0 0.16141998738593399 0.10404039647458049 0 0.18652628422869419 0.14162325200928061 0 0.38083244760691543 0.38531983672244652 0 0.42161023666869668 0.39493916313643851 0 0.38707855792647411 0.42299362914874578 0 0.43249999999999988 0.43937499999999979 0 0.38707855792647411 0.42299362914874578 0 0.42161023666869668 0.39493916313643851 0 0.43846182030517877 0.64845797726506715 0 0.47095389620662098 0.61892551373708504 0 0.47913475093885149 0.66010775372412711 0 0.50715858906372158 0.63295939104129484 0 0.47913475093885149 0.66010775372412711 0 0.47095389620662098 0.61892551373708504 0 0.69999999999999984 0.69999999999999996 0 0.74999999999999989 0.69999999999999996 0 0.72501250972655151 0.74067302935308721 0 0.4089290844030305 0.58728915500154233 0 0.35765792684946668 0.6000687869219653 0 0.37272913873093971 0.56192925302619479 0 0.69999999999921003 0 0 0.74999999999934175 0 0 0.72683645290270404 0.027797073151180601 0 0.17933913398461551 0.2350063570234002 0 0.21049769590865089 0.26857363548218488 0 0.168349569971391 0.28054490850913671 0 0.14474682429600511 0.85524784522713515 0 0.10562472963403439 0.87143394428979881 0 0.1074251789111534 0.83564394292147814 0 0.14332333627550789 0.14578431753966009 0 0.106902708054812 0.16453234188234539 0 0.1053400320299198 0.12877248826361379 0 0.2236846579037573 0.67380363126050236 0 0.19914261668318661 0.62286739485272158 0 0.2459498854893499 0.63248470766216769 0 0.049999999999899652 0 0 0.053064897599215843 0.048131547304697528 0 0.02576622439977887 0.024532886826226379 0 0 0.050000000000207989 0 0.02576622439977887 0.024532886826226379 0 0.053064897599215843 0.048131547304697528 0 0.050000000000207989 1 0 0.025766224399875661 0.97546711317377799 0 0.053064897599294662 0.95186845269532028 0 0 0.94999999999979179 0 0.053064897599294662 0.95186845269532028 0 0.025766224399875661 0.97546711317377799 0 0.47357141910802508 0.1873585799078378 0 0.48466639505193998 0.1421439844745814 0 0.51729576145820033 0.1683240575987815 0 0.077693244765132896 0.56932317963405099 0 0.085622222639554768 0.53333248912060549 0 0.1154888278694548 0.56733818459978413 0 0.64753070846764316 0.77332939069435502 0 0.63221990677827677 0.73442891067859706 0 0.66427993341343905 0.73232764502436276 0 0.4656888918609538 0.78493261229743638 0 0.42609163930740518 0.80361684430568059 0 0.42676259796334498 0.76772545931379299 0 0.4089290844030305 0.58728915500154233 0 0.39743091024207589 0.6239520004230239 0 0.35765792684946668 0.6000687869219653 0 0.55306006949600994 0.20198184231352201 0 0.50760557329222289 0.20700468884612061 0 0.51729576145820033 0.1683240575987815 0 1 0.8999999999998336 0 1 0.94999999999997109 0 0.97435614836744289 0.92499999999990257 0 1 0.19999999999974799 0 1 0.24999999999987299 0 0.97435614836740092 0.22499999999981049 0 1 0.74999999999993494 0 1 0.7999999999998193 0 0.97435614836745565 0.77499999999987745 0 1 0.049999999999896842 0 1 0.099999999999753911 0 0.97435614836748241 0.074999999999825387 0 0.86411095495256451 0.42388805655111889 0 0.86844634540301924 0.38530937474099819 0 0.90594285160987287 0.4141265964174129 0 0.86956835336234861 0.571283299838105 0 0.91143117093204207 0.58709913730335972 0 0.87159648282691515 0.61285406320581504 0 0 0 0 0.02576622439977887 0.024532886826226379 0 0 0.050000000000207989 0 0 1 0 0 0.94999999999979179 0 0.025766224399875661 0.97546711317377799 0 0 1 0 0.025766224399875661 0.97546711317377799 0 0.050000000000207989 1 0 0 0 0 0.049999999999899652 0 0 0.02576622439977887 0.024532886826226379 0 0.65394964615507722 0.22666784374016369 0 0.64011864159029941 0.18789607982138171 0 0.6865991819015953 0.189116534044597 0 0.25195515620380449 0.25883339815888678 0 0.28040350263641872 0.23054717217092141 0 0.29132859388405002 0.27203693976649962 0 0.61209567303293111 0.44669033081290321 0 0.65178832218679827 0.45929119821019959 0 0.61547661924074692 0.48539576058873962 0 0.6541250972820879 0.49999999999999989 0 0.61547661924074692 0.48539576058873962 0 0.65178832218679827 0.45929119821019959 0 0.19670163708476801 0.31472518408333222 0 0.24432083401701241 0.3006253385567515 0 0.22615676742807109 0.33458786033114157 0 0.15801167086041079 0.46008690540259539 0 0.13773355295499351 0.42497777642586831 0 0.191953871957803 0.42546416763755879 0 0.1650278706801647 0.38791388161335733 0 0.191953871957803 0.42546416763755879 0 0.13773355295499351 0.42497777642586831 0 0.50715858906372158 0.63295939104129484 0 0.52584555706968406 0.66664215091846768 0 0.47913475093885149 0.66010775372412711 0 0.5 0.69999999999999996 0 0.47913475093885149 0.66010775372412711 0 0.52584555706968406 0.66664215091846768 0 0.51076801031701946 0.1202837388510348 0 0.51729576145820033 0.1683240575987815 0 0.48466639505193998 0.1421439844745814 0 0.71406021706547751 0.63292083137662503 0 0.74994237037456724 0.62775548192980357 0 0.72500000000000064 0.67022701834392062 0 0.71508799138962864 0.36622814920737751 0 0.73090396928863699 0.33699297293167962 0 0.74764719760526988 0.3719647154012321 0 0.22278230690790279 0.44824268025881547 0 0.25982634974572738 0.46097799597715272 0 0.23975172658309729 0.49475499200540818 0 0.80185942888539485 0.77452061303608133 0 0.78578450296893509 0.73292684821144505 0 0.81864958914779962 0.73589050177899629 0 0.80185942888501827 0.074520613036224564 0 0.78393852574753176 0.032039079577822822 0 0.81864958914740749 0.035890501779055867 0 0.5 0.29999999999999999 0 0.46226845272279993 0.31901800744800313 0 0.4604742573284204 0.27846934318264788 0 0.6405463747586706 0.63290524857395714 0 0.62460753523532009 0.66851202781000296 0 0.5991018319127801 0.62925360607495295 0 0.79680861578988083 0.92656778056766709 0 0.770759834363826 0.95919399014344442 0 0.75729602384198635 0.92353652857884294 0 0.79680861578956375 0.22656778056752541 0 0.77075983436335049 0.25919399014334171 0 0.75668890529066124 0.2244279804069782 0 0.65394964615507722 0.22666784374016369 0 0.69397719155551807 0.2245125647000914 0 0.67933712972090698 0.25920070958121938 0 0.81973119833356312 0.43505687159469048 0 0.84925632466077294 0.45359738909549091 0 0.81400510706333218 0.47357325943904899 0 0.83758014339878906 0.63222013025741819 0 0.82457059160610424 0.66831947184359608 0 0.79884539758237771 0.62875045078114233 0 0.25676291524611189 0.7436741304886243 0 0.2248999640082178 0.72584299459689172 0 0.26439878998046262 0.7048065392091396 0 0.91696753777131557 0.497780560203536 0 0.90900154012161016 0.53607784105648792 0 0.86907294890112186 0.52008116128001669 0 0.17933913398461551 0.2350063570234002 0 0.168349569971391 0.28054490850913671 0 0.14377654328998779 0.2442024734791064 0 0.1247745017231483 0.27198077544791172 0 0.14377654328998779 0.2442024734791064 0 0.168349569971391 0.28054490850913671 0 0.34258405725730701 0.4444034294386992 0 0.35221190152536241 0.40457127605439203 0 0.38707855792647411 0.42299362914874578 0 0.47357141910802508 0.1873585799078378 0 0.51729576145820033 0.1683240575987815 0 0.50760557329222289 0.20700468884612061 0 0.19670163708476801 0.31472518408333222 0 0.22615676742807109 0.33458786033114157 0 0.18434624290945251 0.35208838264196463 0 0.22033343844674469 0.36963382230740238 0 0.18434624290945251 0.35208838264196463 0 0.22615676742807109 0.33458786033114157 0 0.24432083401701241 0.3006253385567515 0 0.25966125648670141 0.34351016742083729 0 0.22615676742807109 0.33458786033114157 0 0.93814194660195893 0.44426664081746747 0 0.90594285160987287 0.4141265964174129 0 0.95871855522754235 0.40006508612975411 0 0.91750694127107502 0.36982372220068471 0 0.95871855522754235 0.40006508612975411 0 0.90594285160987287 0.4141265964174129 0 0.91750694127105259 0.63017627779935648 0 0.91143117093204207 0.58709913730335972 0 0.95867599106212187 0.60011091146651041 0 0.93732437411268477 0.55911392101136159 0 0.95867599106212187 0.60011091146651041 0 0.91143117093204207 0.58709913730335972 0 0.50715858906372158 0.63295939104129484 0 0.5498280205245758 0.6290146943450976 0 0.52584555706968406 0.66664215091846768 0 0.94399509803918602 0.75600490196082126 0 0.97435614836745565 0.77499999999987745 0 0.95386563387742829 0.80414874155775029 0 0.94399509803922566 0.056004901960802607 0 0.97435614836748241 0.074999999999825387 0 0.95386563387744361 0.1041487415577465 0 0.94399509803921056 0.24399509803922639 0 0.95391631417672862 0.19584263333809451 0 0.97435614836740092 0.22499999999981049 0 0.94399509803919068 0.9439950980391687 0 0.95391631417670719 0.89584263333814784 0 0.97435614836744289 0.92499999999990257 0 0.79680861578988083 0.92656778056766709 0 0.75729602384198635 0.92353652857884294 0 0.76891166905518427 0.88835469571185499 0 0.79680861578956375 0.22656778056752541 0 0.75668890529066124 0.2244279804069782 0 0.76587607630038135 0.18880039518954719 0 0.65394964615507722 0.22666784374016369 0 0.6865991819015953 0.189116534044597 0 0.69397719155551807 0.2245125647000914 0 0.38083244760691543 0.38531983672244652 0 0.38707855792647411 0.42299362914874578 0 0.35221190152536241 0.40457127605439203 0 1 0.7999999999998193 0 0.95386563387742829 0.80414874155775029 0 0.97435614836745565 0.77499999999987745 0 1 0.099999999999753911 0 0.95386563387744361 0.1041487415577465 0 0.97435614836748241 0.074999999999825387 0 1 0.8999999999998336 0 0.97435614836744289 0.92499999999990257 0 0.95391631417670719 0.89584263333814784 0 1 0.19999999999974799 0 0.97435614836740092 0.22499999999981049 0 0.95391631417672862 0.19584263333809451 0 0.84723782639812573 0.48638347960178252 0 0.81400510706333218 0.47357325943904899 0 0.84925632466077294 0.45359738909549091 0 0.54999999999999993 0.29999999999999999 0 0.54248833945060504 0.2520322959927106 0 0.5794309697024993 0.27124795968204829 0 0.94999999999999996 0.29999999999999999 0 0.95780851984364423 0.34215720972155339 0 0.92012390126144183 0.33123581297173937 0 0.94999999999999996 0.69999999999999996 0 0.92057473616084773 0.66770436535372446 0 0.9578014258160763 0.65787212321113708 0 0.15801167086041079 0.46008690540259539 0 0.113541300460994 0.46208784312094731 0 0.13773355295499351 0.42497777642586831 0 0.7250000000005199 0.94981617647078953 0 0.68015064798562208 0.95924320340003011 0 0.68987011941058407 0.92105047536677087 0 0.65507451745379841 0.92229208810758578 0 0.68987011941058407 0.92105047536677087 0 0.68015064798562208 0.95924320340003011 0 0.77846603114747959 0.49850927265137401 0 0.77972660463949339 0.45529290596363098 0 0.81400510706333218 0.47357325943904899 0 0.27866744612395528 0.38416094670951489 0 0.25966125648670141 0.34351016742083729 0 0.29644548887253103 0.34914008784168082 0 0.61209567303293111 0.44669033081290321 0 0.61547661924074692 0.48539576058873962 0 0.57975577671020095 0.46172033326338591 0 0.57611405284611883 0.50165903596042916 0 0.57975577671020095 0.46172033326338591 0 0.61547661924074692 0.48539576058873962 0 0.7250000000005199 0.89375000000045834 0 0.76891166905518427 0.88835469571185499 0 0.75729602384198635 0.92353652857884294 0 0.72500000000001008 0.19776155966387679 0 0.76587607630038135 0.18880039518954719 0 0.75668890529066124 0.2244279804069782 0 0.72500000000001008 0.19776155966387679 0 0.69397719155551807 0.2245125647000914 0 0.6865991819015953 0.189116534044597 0 0.083411279318303222 0.089699755330707398 0 0.12372429750337779 0.095814237875728972 0 0.1053400320299198 0.12877248826361379 0 0.083411279318375747 0.91030024466934134 0 0.10562472963403439 0.87143394428979881 0 0.1241151115713819 0.9045666525468371 0 0.14617343800780541 0.93808063414349496 0 0.1241151115713819 0.9045666525468371 0 0.16206583317966519 0.89685560785156404 0 0.14618258501891079 0.062070108745602003 0 0.16141998738593399 0.10404039647458049 0 0.12372429750337779 0.095814237875728972 0 0.33277555741076909 0.36432196682010132 0 0.35221190152536241 0.40457127605439203 0 0.31778888742534622 0.40581751814196781 0 0.7250000000005199 0.94981617647078953 0 0.75729602384198635 0.92353652857884294 0 0.770759834363826 0.95919399014344442 0 0.72500000000000064 0.2498161764706 0 0.75668890529066124 0.2244279804069782 0 0.77075983436335049 0.25919399014334171 0 0.72500000000000064 0.2498161764706 0 0.67933712972090698 0.25920070958121938 0 0.69397719155551807 0.2245125647000914 0 0.6236733212988993 0.14864538214901801 0 0.61956000905586006 0.1043312481793135 0 0.65290632656860115 0.11434202593454081 0 0.81973119833356312 0.43505687159469048 0 0.81400510706333218 0.47357325943904899 0 0.77972660463949339 0.45529290596363098 0 0.25676291524611189 0.7436741304886243 0 0.29904318922293632 0.74132814928635593 0 0.2792923945214143 0.77665808831789485 0 0.36575549820117997 0.31677992835137742 0 0.32752639306529541 0.32610012995269699 0 0.33402499257867951 0.28911035184473982 0 0.14332333627550789 0.14578431753966009 0 0.18652628422869419 0.14162325200928061 0 0.18124454140915969 0.18790916706335251 0 0.57724883562309992 0.92155686857100794 0 0.5832743223239254 0.88483152652961872 0 0.61885627562261258 0.90282959257498208 0 0.57667858002728545 0.078486105337742612 0 0.61956000905586006 0.1043312481793135 0 0.58516465772821369 0.11653801664834119 0 0.80185942888539485 0.77452061303608133 0 0.80041942726660109 0.81543261647703358 0 0.77094201086366854 0.79647480515688507 0 0.80185942888501827 0.074520613036224564 0 0.80076557130237269 0.1154587552654202 0 0.76878382444651716 0.097147941686331368 0 0.64753070846764316 0.77332939069435502 0 0.68024162096458085 0.79868546898116533 0 0.65005442820240822 0.82644988530054031 0 0.26429849586623999 0.19346700179430079 0 0.25557216766470708 0.15874861286892261 0 0.29336099386129338 0.15892013001050981 0 0.29348325746214782 0.31350119524708198 0 0.29644548887253103 0.34914008784168082 0 0.25966125648670141 0.34351016742083729 0 0.68391457121233579 0.14440470121196541 0 0.65290632656860115 0.11434202593454081 0 0.68330259535470161 0.10038702501083881 0 0.91750694127107502 0.36982372220068471 0 0.92012390126144183 0.33123581297173937 0 0.95780851984364423 0.34215720972155339 0 0.91750694127105259 0.63017627779935648 0 0.9578014258160763 0.65787212321113708 0 0.92057473616084773 0.66770436535372446 0 0.22033343844674469 0.36963382230740238 0 0.22615676742807109 0.33458786033114157 0 0.25966125648670141 0.34351016742083729 0 1 0.94999999999997109 0 0.97166519676946206 0.96662885509935492 0 0.97435614836744289 0.92499999999990257 0 0.94399509803919068 0.9439950980391687 0 0.97435614836744289 0.92499999999990257 0 0.97166519676946206 0.96662885509935492 0 0.94399509803921056 0.24399509803922639 0 0.97435614836740092 0.22499999999981049 0 0.97166519676951801 0.26662885509932011 0 1 0.24999999999987299 0 0.97166519676951801 0.26662885509932011 0 0.97435614836740092 0.22499999999981049 0 1 0.74999999999993494 0 0.97435614836745565 0.77499999999987745 0 0.97166519676947294 0.73337114490064459 0 1 0.049999999999896842 0 0.97435614836748241 0.074999999999825387 0 0.97166519676946894 0.033371144900598393 0 0.94399509803918602 0.75600490196082126 0 0.97166519676947294 0.73337114490064459 0 0.97435614836745565 0.77499999999987745 0 0.94399509803922566 0.056004901960802607 0 0.97166519676946894 0.033371144900598393 0 0.97435614836748241 0.074999999999825387 0 0.77846603114747959 0.49850927265137401 0 0.81400510706333218 0.47357325943904899 0 0.81441713509985358 0.51161854125224959 0 0.77354604466818633 0.40378688774472771 0 0.72622533758026719 0.40265885511101601 0 0.74764719760526988 0.3719647154012321 0 0.71508799138962864 0.36622814920737751 0 0.74764719760526988 0.3719647154012321 0 0.72622533758026719 0.40265885511101601 0 0.84723782639812573 0.48638347960178252 0 0.84925632466077294 0.45359738909549091 0 0.88594198078881503 0.46167788676578442 0 0.86411095495256451 0.42388805655111889 0 0.88594198078881503 0.46167788676578442 0 0.84925632466077294 0.45359738909549091 0 0.43846182030517877 0.64845797726506715 0 0.43545892161006339 0.61093128915313821 0 0.47095389620662098 0.61892551373708504 0 0.33123028043633618 0.77629643437932982 0 0.35642984951668422 0.80994399665655703 0 0.30857225866488791 0.81101973481716805 0 0.33403534827021109 0.84402799729020661 0 0.30857225866488791 0.81101973481716805 0 0.35642984951668422 0.80994399665655703 0 0.26429849586623999 0.19346700179430079 0 0.31255190597181792 0.19850845631528771 0 0.28040350263641872 0.23054717217092141 0 0.57724883562309992 0.92155686857100794 0 0.54783390826260769 0.89287767010860219 0 0.5832743223239254 0.88483152652961872 0 0.55899371797446828 0.85003102233514438 0 0.5832743223239254 0.88483152652961872 0 0.54783390826260769 0.89287767010860219 0 0.4089290844030305 0.58728915500154233 0 0.43545892161006339 0.61093128915313821 0 0.39743091024207589 0.6239520004230239 0 0.77293540622714185 0.59448302402785813 0 0.81723410853263523 0.59419663659258926 0 0.79884539758237771 0.62875045078114233 0 0.83758014339878906 0.63222013025741819 0 0.79884539758237771 0.62875045078114233 0 0.81723410853263523 0.59419663659258926 0 0.35864735590330371 0.63903383440414463 0 0.39743091024207589 0.6239520004230239 0 0.3977710372045391 0.65868194622830212 0 0.56202748619534593 0.15054058349222879 0 0.54979595918804436 0.1060565713905809 0 0.58516465772821369 0.11653801664834119 0 0.57667858002728545 0.078486105337742612 0 0.58516465772821369 0.11653801664834119 0 0.54979595918804436 0.1060565713905809 0 0.33122374654748771 0.57588941099433744 0 0.37272913873093971 0.56192925302619479 0 0.35765792684946668 0.6000687869219653 0 0.35864735590330371 0.63903383440414463 0 0.35765792684946668 0.6000687869219653 0 0.39743091024207589 0.6239520004230239 0 0.71508799138962864 0.36622814920737751 0 0.68887083591306764 0.33632058575757479 0 0.73090396928863699 0.33699297293167962 0 0.29348325746214782 0.31350119524708198 0 0.32752639306529541 0.32610012995269699 0 0.29644548887253103 0.34914008784168082 0 0.33277555741076909 0.36432196682010132 0 0.29644548887253103 0.34914008784168082 0 0.32752639306529541 0.32610012995269699 0 0.34258405725730701 0.4444034294386992 0 0.31778888742534622 0.40581751814196781 0 0.35221190152536241 0.40457127605439203 0 0.79999999999999982 0.69999999999999996 0 0.81864958914779962 0.73589050177899629 0 0.78578450296893509 0.73292684821144505 0 0.79999999999947335 0 0 0.81864958914740749 0.035890501779055867 0 0.78393852574753176 0.032039079577822822 0 0.27474541102162192 0.11822029332053539 0 0.29336099386129338 0.15892013001050981 0 0.25557216766470708 0.15874861286892261 0 0 0.45000000000187229 0 0.035463093262830522 0.42673416072819947 0 0.033550201249889847 0.46247875832467239 0 0.6499999999999998 0.69999999999999996 0 0.66427993341343905 0.73232764502436276 0 0.63221990677827677 0.73442891067859706 0 0.84723782639812573 0.48638347960178252 0 0.81441713509985358 0.51161854125224959 0 0.81400510706333218 0.47357325943904899 0 0.26104540868854792 0.81401944968719064 0 0.30857225866488791 0.81101973481716805 0 0.29209212897034281 0.84715728365233667 0 0.33403534827021109 0.84402799729020661 0 0.29209212897034281 0.84715728365233667 0 0.30857225866488791 0.81101973481716805 0 0.69999999999999984 0.29999999999999999 0 0.73090396928863699 0.33699297293167962 0 0.68887083591306764 0.33632058575757479 0 
</DataArray>
</Points>
<Cells>
<DataArray type="UInt32" Name="connectivity" format="ascii">
0 1 2 3 4 5 6 7 8 9 10 11 12 13 14 15 16 17 18 19 20 21 22 23 24 25 26 27 28 29 30 31 32 33 34 35 36 37 38 39 40 41 42 43 44 45 46 47 48 49 50 51 52 53 54 55 56 57 58 59 60 61 62 63 64 65 66 67 68 69 70 71 72 73 74 75 76 77 78 79 80 81 82 83 84 85 86 87 88 89 90 91 92 93 94 95 96 97 98 99 100 101 102 103 104 105 106 107 108 109 110 111 112 113 114 115 116 117 118 119 120 121 122 123 124 125 126 127 128 129 130 131 132 133 134 135 136 137 138 139 140 141 142 143 144 145 146 147 148 149 150 151 152 153 154 155 156 157 158 159 160 161 162 163 164 165 166 167 168 169 170 171 172 173 174 175 176 177 178 179 180 181 182 183 184 185 186 187 188 189 190 191 192 193 194 195 196 197 198 199 200 201 202 203 204 205 206 207 208 209 210 211 212 213 214 215 216 217 218 219 220 221 222 223 224 225 226 227 228 229 230 231 232 233 234 235 236 237 238 239 240 241 242 243 244 245 246 247 248 249 250 251 252 253 254 255 256 257 258 259 260 261 262 263 264 265 266 267 268 269 270 271 272 273 274 275 276 277 278 279 280 281 282 283 284 285 286 287 288 289 290 291 292 293 294 295 296 297 298 299 300 301 302 303 304 305 306 307 308 309 310 311 312 313 314 315 316 317 318 319 320 321 322 323 324 325 326 327 328 329 330 331 332 333 334 335 336 337 338 339 340 341 342 343 344 345 346 347 348 349 350 351 352 353 354 355 356 357 358 359 360 361 362 363 364 365 366 367 368 369 370 371 372 373 374 375 376 377 378 379 380 381 382 383 384 385 386 387 388 389 390 391 392 393 394 395 396 397 398 399 400 401 402 403 404 405 406 407 408 409 410 411 412 413 414 415 416 417 418 419 420 421 422 423 424 425 426 427 428 429 430 431 432 433 434 435 436 437 438 439 440 441 442 443 444 445 446 447 448 449 450 451 452 453 454 455 456 457 458 459 460 461 462 463 464 465 466 467 468 469 470 471 472 473 474 475 476 477 478 479 480 481 482 483 484 485 486 487 488 489 490 491 492 493 494 495 496 497 498 499 500 501 502 503 504 505 506 507 508 509 510 511 512 513 514 515 516 517 518 519 520 521 522 523 524 525 526 527 528 529 530 531 532 533 534 535 536 537 538 539 540 541 542 543 544 545 546 547 548 549 550 551 552 553 554 555 556 557 558 559 560 561 562 563 564 565 566 567 568 569 570 571 572 573 574 575 576 577 578 579 580 581 582 583 584 585 586 587 588 589 590 591 592 593 594 595 596 597 598 599 600 601 602 603 604 605 606 607 608 609 610 611 612 613 614 615 616 617 618 619 620 621 622 623 624 625 626 627 628 629 630 631 632 633 634 635 636 637 638 639 640 641 642 643 644 645 646 647 648 649 650 651 652 653 654 655 656 657 658 659 660 661 662 663 664 665 666 667 668 669 670 671 672 673 674 675 676 677 678 679 680 681 682 683 684 685 686 687 688 689 690 691 692 693 694 695 696 697 698 699 700 701 702 703 704 705 706 707 708 709 710 711 712 713 714 715 716 717 718 719 720 721 722 723 724 725 726 727 728 729 730 731 732 733 734 735 736 737 738 739 740 741 742 743 744 745 746 747 748 749 750 751 752 753 754 755 756 757 758 759 760 761 762 763 764 765 766 767 768 769 770 771 772 773 774 775 776 777 778 779 780 781 782 783 784 785 786 787 788 789 790 791 792 793 794 795 796 797 798 799 800 801 802 803 804 805 806 807 808 809 810 811 812 813 814 815 816 817 818 819 820 821 822 823 824 825 826 827 828 829 830 831 832 833 834 835 836 837 838 839 840 841 842 843 844 845 846 847 848 849 850 851 852 853 854 855 856 857 858 859 860 861 862 863 864 865 866 867 868 869 870 871 872 873 874 875 876 877 878 879 880 881 882 883 884 885 886 887 888 889 890 891 892 893 894 895 896 897 898 899 900 901 902 903 904 905 906 907 908 909 910 911 912 913 914 915 916 917 918 919 920 921 922 923 924 925 926 927 928 929 930 931 932 933 934 935 936 937 938 939 940 941 942 943 944 945 946 947 948 949 950 951 952 953 954 955 956 957 958 959 960 961 962 963 964 965 966 967 968 969 970 971 972 973 974 975 976 977 978 979 980 981 982 983 984 985 986 987 988 989 990 991 992 993 994 995 996 997 998 999 1000 1001 1002 1003 1004 1005 1006 1007 1008 1009 1010 1011 1012 1013 1014 1015 1016 1017 1018 1019 1020 1021 1022 1023 1024 1025 1026 1027 1028 1029 1030 1031 1032 1033 1034 1035 1036 1037 1038 1039 1040 1041 1042 1043 1044 1045 1046 1047 1048 1049 1050 1051 1052 1053 1054 1055 1056 1057 1058 1059 1060 1061 1062 1063 1064 1065 1066 1067 1068 1069 1070 1071 1072 1073 1074 1075 1076 1077 1078 1079 1080 1081 1082 1083 1084 1085 1086 1087 1088 1089 1090 1091 1092 1093 1094 1095 1096 1097 1098 1099 1100 1101 1102 1103 1104 1105 1106 1107 1108 1109 1110 1111 1112 1113 1114 1115 1116 1117 1118 1119 1120 1121 1122 1123 1124 1125 1126 1127 1128 1129 1130 1131 1132 1133 1134 1135 1136 1137 1138 1139 1140 1141 1142 1143 1144 1145 1146 1147 1148 1149 1150 1151 1152 1153 1154 1155 1156 1157 1158 1159 1160 1161 1162 1163 1164 1165 1166 1167 1168 1169 1170 1171 1172 1173 1174 1175 1176 1177 1178 1179 1180 1181 1182 1183 1184 1185 1186 1187 1188 1189 1190 1191 1192 1193 1194 1195 1196 1197 1198 1199 1200 1201 1202 1203 1204 1205 1206 1207 1208 1209 1210 1211 1212 1213 1214 1215 1216 1217 1218 1219 1220 1221 1222 1223 1224 1225 1226 1227 1228 1229 1230 1231 1232 1233 1234 1235 1236 1237 1238 1239 1240 1241 1242 1243 1244 1245 1246 1247 1248 1249 1250 1251 1252 1253 1254 1255 1256 1257 1258 1259 1260 1261 1262 1263 1264 1265 1266 1267 1268 1269 1270 1271 1272 1273 1274 1275 1276 1277 1278 1279 1280 1281 1282 1283 1284 1285 1286 1287 1288 1289 1290 1291 1292 1293 1294 1295 1296 1297 1298 1299 1300 1301 1302 1303 1304 1305 1306 1307 1308 1309 1310 1311 1312 1313 1314 1315 1316 1317 1318 1319 1320 1321 1322 1323 1324 1325 1326 1327 1328 1329 1330 1331 1332 1333 1334 1335 1336 1337 1338 1339 1340 1341 1342 1343 1344 1345 1346 1347 1348 1349 1350 1351 1352 1353 1354 1355 1356 1357 1358 1359 1360 1361 1362 1363 1364 1365 1366 1367 1368 1369 1370 1371 1372 1373 1374 1375 1376 1377 1378 1379 1380 1381 1382 1383 1384 1385 1386 1387 1388 1389 1390 1391 1392 1393 1394 1395 1396 1397 1398 1399 1400 1401 1402 1403 1404 1405 1406 1407 1408 1409 1410 1411 1412 1413 1414 1415 1416 1417 1418 1419 1420 1421 1422 1423 1424 1425 1426 1427 1428 1429 1430 1431 1432 1433 1434 1435 1436 1437 1438 1439 1440 1441 1442 1443 1444 1445 1446 1447 1448 1449 1450 1451 1452 1453 1454 1455 1456 1457 1458 1459 1460 1461 1462 1463 1464 1465 1466 1467 1468 1469 1470 1471 1472 1473 1474 1475 1476 1477 1478 1479 1480 1481 1482 1483 1484 1485 1486 1487 1488 1489 1490 1491 1492 1493 1494 1495 1496 1497 1498 1499 1500 1501 1502 1503 1504 1505 1506 1507 1508 1509 1510 1511 1512 1513 1514 1515 1516 1517 1518 1519 1520 1521 1522 1523 1524 1525 1526 1527 1528 1529 1530 1531 1532 1533 1534 1535 1536 1537 1538 1539 1540 1541 1542 1543 1544 1545 1546 1547 1548 1549 1550 1551 1552 1553 1554 1555 1556 1557 1558 1559 1560 1561 1562 1563 1564 1565 1566 1567 1568 1569 1570 1571 1572 1573 1574 1575 1576 1577 1578 1579 1580 1581 1582 1583 1584 1585 1586 1587 1588 1589 1590 1591 1592 1593 1594 1595 1596 1597 1598 1599 1600 1601 1602 1603 1604 1605 1606 1607 1608 1609 1610 1611 1612 1613 1614 1615 1616 1617 1618 1619 1620 1621 1622 1623 1624 1625 1626 1627 1628 1629 1630 1631 1632 1633 1634 1635 1636 1637 1638 1639 1640 1641 1642 1643 1644 1645 1646 1647 1648 1649 1650 1651 1652 1653 1654 1655 1656 1657 1658 1659 1660 1661 1662 1663 1664 1665 1666 1667 1668 1669 1670 1671 1672 1673 1674 1675 1676 1677 1678 1679 1680 1681 1682 1683 1684 1685 1686 1687 1688 1689 1690 1691 1692 1693 1694 1695 1696 1697 1698 1699 1700 1701 1702 1703 1704 1705 1706 1707 1708 1709 1710 1711 1712 1713 1714 1715 1716 1717 1718 1719 1720 1721 1722 1723 1724 1725 1726 1727 1728 1729 1730 1731 1732 1733 1734 1735 1736 1737 1738 1739 1740 1741 1742 1743 1744 1745 1746 1747 1748 1749 1750 1751 1752 1753 1754 1755 1756 1757 1758 1759 1760 1761 1762 1763 1764 1765 1766 1767 1768 1769 1770 1771 1772 1773 1774 1775 1776 1777 1778 1779 1780 1781 1782 1783 1784 1785 1786 1787 1788 1789 1790 1791 1792 1793 1794 1795 1796 1797 1798 1799 1800 1801 1802 1803 1804 1805 1806 1807 1808 1809 1810 1811 1812 1813 1814 1815 1816 1817 1818 1819 1820 1821 1822 1823 1824 1825 1826 1827 1828 1829 1830 1831 1832 1833 1834 1835 1836 1837 1838 1839 1840 1841 1842 1843 1844 1845 1846 1847 1848 1849 1850 1851 1852 1853 1854 1855 1856 1857 1858 1859 1860 1861 1862 1863 1864 1865 1866 1867 1868 1869 1870 1871 1872 1873 1874 1875 1876 1877 1878 1879 1880 1881 1882 1883 1884 1885 1886 1887 1888 1889 1890 1891 1892 1893 1894 1895 1896 1897 1898 1899 1900 1901 1902 1903 1904 1905 1906 1907 1908 1909 1910 1911 1912 1913 1914 1915 1916 1917 1918 1919 1920 1921 1922 1923 1924 1925 1926 1927 1928 1929 1930 1931 1932 1933 1934 1935 1936 1937 1938 1939 1940 1941 1942 1943 1944 1945 1946 1947 1948 1949 1950 1951 1952 1953 1954 1955 1956 1957 1958 1959 1960 1961 1962 1963 1964 1965 1966 1967 1968 1969 1970 1971 1972 1973 1974 1975 1976 1977 1978 1979 1980 1981 1982 1983 1984 1985 1986 1987 1988 1989 1990 1991 1992 1993 1994 1995 1996 1997 1998 1999 2000 2001 2002 2003 2004 2005 2006 2007 2008 2009 2010 2011 2012 2013 2014 2015 2016 2017 2018 2019 2020 2021 2022 2023 2024 2025 2026 2027 2028 2029 2030 2031 2032 2033 2034 2035 2036 2037 2038 2039 2040 2041 2042 2043 2044 2045 2046 2047 2048 2049 2050 2051 2052 2053 2054 2055 2056 2057 2058 2059 2060 2061 2062 2063 2064 2065 2066 2067 2068 2069 2070 2071 2072 2073 2074 2075 2076 2077 2078 2079 2080 2081 2082 2083 2084 2085 2086 2087 2088 2089 2090 2091 2092 2093 2094 2095 2096 2097 2098 2099 2100 2101 2102 2103 2104 2105 2106 2107 2108 2109 2110 2111 2112 2113 2114 2115 2116 2117 2118 2119 2120 2121 2122 2123 2124 2125 2126 2127 2128 2129 2130 2131 2132 2133 2134 2135 2136 2137 2138 2139 2140 2141 2142 2143 2144 2145 2146 2147 2148 2149 2150 2151 2152 2153 2154 2155 2156 2157 2158 2159 2160 2161 2162 2163 2164 2165 2166 2167 2168 2169 2170 2171 2172 2173 2174 2175 2176 2177 2178 2179 2180 2181 2182 2183 2184 2185 2186 2187 2188 2189 2190 2191 2192 2193 2194 2195 2196 2197 2198 2199 2200 2201 2202 2203 2204 2205 2206 2207 2208 2209 2210 2211 2212 2213 2214 2215 2216 2217 2218 2219 2220 2221 2222 2223 2224 2225 2226 2227 2228 2229 2230 2231 2232 2233 2234 2235 2236 2237 2238 2239 2240 2241 2242 2243 2244 2245 2246 2247 2248 2249 2250 2251 2252 2253 2254 2255 2256 2257 2258 2259 2260 2261 2262 2263 2264 2265 2266 2267 2268 2269 2270 2271 2272 2273 2274 2275 2276 2277 2278 2279 2280 2281 2282 2283 2284 2285 2286 2287 2288 2289 2290 2291 2292 2293 2294 2295 2296 2297 2298 2299 2300 2301 2302 2303 2304 2305 2306 2307 2308 2309 2310 2311 2312 2313 2314 2315 2316 2317 2318 2319 2320 2321 2322 2323 2324 2325 2326 2327 2328 2329 2330 2331 2332 2333 2334 2335 2336 2337 2338 2339 2340 2341 2342 2343 2344 2345 2346 2347 2348 2349 2350 2351 2352 2353 2354 2355 2356 2357 2358 2359 2360 2361 2362 2363 2364 2365 2366 2367 2368 2369 2370 2371 2372 2373 2374 2375 2376 2377 2378 2379 2380 2381 2382 2383 2384 2385 2386 2387 2388 2389 2390 2391 2392 2393 2394 2395 2396 2397 2398 2399 2400 2401 2402 2403 2404 2405 2406 2407 2408 2409 2410 2411 2412 2413 2414 2415 2416 2417 2418 2419 2420 2421 2422 2423 2424 2425 2426 2427 2428 2429 2430 2431 2432 2433 2434 2435 2436 2437 2438 2439 2440 2441 2442 2443 2444 2445 2446 2447 2448 2449 2450 2451 2452 2453 2454 2455 2456 2457 2458 2459 2460 2461 2462 2463 2464 2465 2466 2467 2468 2469 2470 2471 2472 2473 2474 2475 2476 2477 2478 2479 2480 2481 2482 2483 2484 2485 2486 2487 2488 2489 2490 2491 2492 2493 2494 2495 2496 2497 2498 2499 2500 2501 2502 2503 2504 2505 2506 2507 2508 2509 2510 2511 2512 2513 2514 2515 2516 2517 2518 2519 2520 2521 2522 2523 2524 2525 2526 2527 2528 2529 2530 2531 2532 2533 2534 2535 2536 2537 2538 2539 2540 2541 2542 2543 2544 2545 2546 2547 2548 2549 2550 2551 2552 2553 2554 2555 2556 2557 2558 2559 2560 2561 2562 2563 2564 2565 2566 2567 2568 2569 2570 2571 2572 2573 2574 2575 2576 2577 2578 2579 2580 2581 2582 2583 2584 2585 2586 2587 2588 2589 2590 2591 2592 2593 2594 2595 2596 2597 2598 2599 2600 2601 2602 2603 2604 2605 2606 2607 2608 2609 2610 2611 2612 2613 2614 2615 2616 2617 2618 2619 2620 2621 2622 2623 2624 2625 2626 2627 2628 2629 2630 2631 2632 2633 2634 2635 2636 2637 2638 2639 2640 2641 2642 2643 2644 2645 2646 2647 2648 2649 2650 2651 2652 2653 2654 2655 2656 2657 2658 2659 2660 2661 2662 2663 2664 2665 2666 2667 2668 2669 2670 2671 2672 2673 2674 2675 2676 2677 2678 2679 2680 2681 2682 2683 2684 2685 2686 2687 2688 2689 2690 2691 2692 2693 2694 2695 2696 2697 2698 2699 2700 2701 2702 2703 2704 2705 2706 2707 2708 2709 2710 2711 2712 2713 2714 2715 2716 2717 2718 2719 2720 2721 2722 2723 2724 2725 2726 2727 2728 2729 2730 2731 2732 2733 2734 2735 2736 2737 2738 2739 2740 2741 2742 2743 2744 2745 2746 2747 2748 2749 2750 2751 2752 2753 2754 2755 2756 2757 2758 2759 2760 2761 2762 2763 2764 2765 2766 2767 2768 2769 2770 2771 2772 2773 2774 2775 2776 2777 2778 2779 2780 2781 2782 2783 2784 2785 2786 2787 2788 2789 2790 2791 2792 2793 2794 2795 2796 2797 2798 2799 2800 2801 2802 2803 2804 2805 2806 2807 2808 2809 2810 2811 2812 2813 2814 2815 2816 2817 2818 2819 2820 2821 2822 2823 2824 2825 2826 2827 2828 2829 2830 2831 2832 2833 2834 2835 2836 2837 2838 2839 2840 2841 2842 2843 2844 2845 2846 2847 2848 2849 2850 2851 2852 2853 2854 2855 2856 2857 2858 2859 2860 2861 2862 2863 2864 2865 2866 2867 2868 2869 2870 2871 2872 2873 2874 2875 2876 2877 2878 2879 2880 2881 2882 2883 2884 2885 2886 2887 2888 2889 2890 2891 2892 2893 2894 2895 2896 2897 2898 2899 2900 2901 2902 2903 2904 2905 2906 2907 2908 2909 2910 2911 2912 2913 2914 2915 2916 2917 2918 2919 2920 2921 2922 2923 2924 2925 2926 2927 2928 2929 2930 2931 2932 2933 2934 2935 2936 2937 2938 2939 2940 2941 2942 2943 2944 2945 2946 2947 2948 2949 2950 2951 2952 2953 2954 2955 2956 2957 2958 2959 2960 2961 2962 2963 2964 2965 2966 2967 2968 2969 2970 2971 2972 2973 2974 2975 2976 2977 2978 2979 2980 2981 2982 2983 2984 2985 2986 2987 2988 2989 2990 2991 2992 2993 2994 2995 2996 2997 2998 2999 3000 3001 3002 3003 3004 3005 3006 3007 3008 3009 3010 3011 3012 3013 3014 3015 3016 3017 3018 3019 3020 3021 3022 3023 3024 3025 3026 3027 3028 3029 3030 3031 3032 3033 3034 3035 3036 3037 3038 3039 3040 3041 3042 3043 3044 3045 3046 3047 3048 3049 3050 3051 3052 3053 3054 3055 3056 3057 3058 3059 3060 3061 3062 3063 3064 3065 3066 3067 3068 3069 3070 3071 3072 3073 3074 3075 3076 3077 3078 3079 3080 3081 3082 3083 3084 3085 3086 3087 3088 3089 3090 3091 3092 3093 3094 3095 3096 3097 3098 3099 3100 3101 3102 3103 3104 3105 3106 3107 3108 3109 3110 3111 3112 3113 3114 3115 3116 3117 3118 3119 3120 3121 3122 3123 3124 3125 3126 3127 3128 3129 3130 3131 3132 3133 3134 3135 3136 3137 3138 3139 3140 3141 
</DataArray>
<DataArray type="UInt32" Name="offsets" format="ascii">
2 4 6 8 10 12 14 16 18 20 22 24 26 28 30 32 34 36 38 40 43 46 49 52 55 58 61 64 67 70 73 76 79 82 85 88 91 94 97 100 103 106 109 112 115 118 121 124 127 130 133 136 139 142 145 148 151 154 157 160 163 166 169 172 175 178 181 184 187 190 193 196 199 202 205 208 211 214 217 220 223 226 229 232 235 238 241 244 247 250 253 256 259 262 265 268 271 274 277 280 283 286 289 292 295 298 301 304 307 310 313 316 319 322 325 328 331 334 337 340 343 346 349 352 355 358 361 364 367 370 373 376 379 382 385 388 391 394 397 400 403 406 409 412 415 418 421 424 427 430 433 436 439 442 445 448 451 454 457 460 463 466 469 472 475 478 481 484 487 490 493 496 499 502 505 508 511 514 517 520 523 526 529 532 535 538 541 544 547 550 553 556 559 562 565 568 571 574 577 580 583 586 589 592 595 598 601 604 607 610 613 616 619 622 625 628 631 634 637 640 643 646 649 652 655 658 661 664 667 670 673 676 679 682 685 688 691 694 697 700 703 706 709 712 715 718 721 724 727 730 733 736 739 742 745 748 751 754 757 760 763 766 769 772 775 778 781 784 787 790 793 796 799 802 805 808 811 814 817 820 823 826 829 832 835 838 841 844 847 850 853 856 859 862 865 868 871 874 877 880 883 886 889 892 895 898 901 904 907 910 913 916 919 922 925 928 931 934 937 940 943 946 949 952 955 958 961 964 967 970 973 976 979 982 985 988 991 994 997 1000 1003 1006 1009 1012 1015 1018 1021 1024 1027 1030 1033 1036 1039 1042 1045 1048 1051 1054 1057 1060 1063 1066 1069 1072 1075 1078 1081 1084 1087 1090 1093 1096 1099 1102 1105 1108 1111 1114 1117 1120 1123 1126 1129 1132 1135 1138 1141 1144 1147 1150 1153 1156 1159 1162 1165 1168 1171 1174 1177 1180 1183 1186 1189 1192 1195 1198 1201 1204 1207 1210 1213 1216 1219 1222 1225 1228 1231 1234 1237 1240 1243 1246 1249 1252 1255 1258 1261 1264 1267 1270 1273 1276 1279 1282 1285 1288 1291 1294 1297 1300 1303 1306 1309 1312 1315 1318 1321 1324 1327 1330 1333 1336 1339 1342 1345 1348 1351 1354 1357 1360 1363 1366 1369 1372 1375 1378 1381 1384 1387 1390 1393 1396 1399 1402 1405 1408 1411 1414 1417 1420 1423 1426 1429 1432 1435 1438 1441 1444 1447 1450 1453 1456 1459 1462 1465 1468 1471 1474 1477 1480 1483 1486 1489 1492 1495 1498 1501 1504 1507 1510 1513 1516 1519 1522 1525 1528 1531 1534 1537 1540 1543 1546 1549 1552 1555 1558 1561 1564 1567 1570 1573 1576 1579 1582 1585 1588 1591 1594 1597 1600 1603 1606 1609 1612 1615 1618 1621 1624 1627 1630 1633 1636 1639 1642 1645 1648 1651 1654 1657 1660 1663 1666 1669 1672 1675 1678 1681 1684 1687 1690 1693 1696 1699 1702 1705 1708 1711 1714 1717 1720 1723 1726 1729 1732 1735 1738 1741 1744 1747 1750 1753 1756 1759 1762 1765 1768 1771 1774 1777 1780 1783 1786 1789 1792 1795 1798 1801 1804 1807 1810 1813 1816 1819 1822 1825 1828 1831 1834 1837 1840 1843 1846 1849 1852 1855 1858 1861 1864 1867 1870 1873 1876 1879 1882 1885 1888 1891 1894 1897 1900 1903 1906 1909 1912 1915 1918 1921 1924 1927 1930 1933 1936 1939 1942 1945 1948 1951 1954 1957 1960 1963 1966 1969 1972 1975 1978 1981 1984 1987 1990 1993 1996 1999 2002 2005 2008 2011 2014 2017 2020 2023 2026 2029 2032 2035 2038 2041 2044 2047 2050 2053 2056 2059 2062 2065 2068 2071 2074 2077 2080 2083 2086 2089 2092 2095 2098 2101 2104 2107 2110 2113 2116 2119 2122 2125 2128 2131 2134 2137 2140 2143 2146 2149 2152 2155 2158 2161 2164 2167 2170 2173 2176 2179 2182 2185 2188 2191 2194 2197 2200 2203 2206 2209 2212 2215 2218 2221 2224 2227 2230 2233 2236 2239 2242 2245 2248 2251 2254 2257 2260 2263 2266 2269 2272 2275 2278 2281 2284 2287 2290 2293 2296 2299 2302 2305 2308 2311 2314 2317 2320 2323 2326 2329 2332 2335 2338 2341 2344 2347 2350 2353 2356 2359 2362 2365 2368 2371 2374 2377 2380 2383 2386 2389 2392 2395 2398 2401 2404 2407 2410 2413 2416 2419 2422 2425 2428 2431 2434 2437 2440 2443 2446 2449 2452 2455 2458 2461 2464 2467 2470 2473 2476 2479 2482 2485 2488 2491 2494 2497 2500 2503 2506 2509 2512 2515 2518 2521 2524 2527 2530 2533 2536 2539 2542 2545 2548 2551 2554 2557 2560 2563 2566 2569 2572 2575 2578 2581 2584 2587 2590 2593 2596 2599 2602 2605 2608 2611 2614 2617 2620 2623 2626 2629 2632 2635 2638 2641 2644 2647 2650 2653 2656 2659 2662 2665 2668 2671 2674 2677 2680 2683 2686 2689 2692 2695 2698 2701 2704 2707 2710 2713 2716 2719 2722 2725 2728 2731 2734 2737 2740 2743 2746 2749 2752 2755 2758 2761 2764 2767 2770 2773 2776 2779 2782 2785 2788 2791 2794 2797 2800 2803 2806 2809 2812 2815 2818 2821 2824 2827 2830 2833 2836 2839 2842 2845 2848 2851 2854 2857 2860 2863 2866 2869 2872 2875 2878 2881 2884 2887 2890 2893 2896 2899 2902 2905 2908 2911 2914 2917 2920 2923 2926 2929 2932 2935 2938 2941 2944 2947 2950 2953 2956 2959 2962 2965 2968 2971 2974 2977 2980 2983 2986 2989 2992 2995 2998 3001 3004 3007 3010 3013 3016 3019 3022 3025 3028 3031 3034 3037 3040 3043 3046 3049 3052 3055 3058 3061 3064 3067 3070 3073 3076 3079 3082 3085 3088 3091 3094 3097 3100 3103 3106 3109 3112 3115 3118 3121 3124 3127 3130 3133 3136 3139 3142 
</DataArray>
<DataArray type="UInt32" Name="types" format="ascii">
3 3 3 3 3 3 3 3 3 3 3 3 3 3 3 3 3 3 3 3 5 5 5 5 5 5 5 5 5 5 5 5 5 5 5 5 5 5 5 5 5 5 5 5 5 5 5 5 5 5 5 5 5 5 5 5 5 5 5 5 5 5 5 5 5 5 5 5 5 5 5 5 5 5 5 5 5 5 5 5 5 5 5 5 5 5 5 5 5 5 5 5 5 5 5 5 5 5 5 5 5 5 5 5 5 5 5 5 5 5 5 5 5 5 5 5 5 5 5 5 5 5 5 5 5 5 5 5 5 5 5 5 5 5 5 5 5 5 5 5 5 5 5 5 5 5 5 5 5 5 5 5 5 5 5 5 5 5 5 5 5 5 5 5 5 5 5 5 5 5 5 5 5 5 5 5 5 5 5 5 5 5 5 5 5 5 5 5 5 5 5 5 5 5 5 5 5 5 5 5 5 5 5 5 5 5 5 5 5 5 5 5 5 5 5 5 5 5 5 5 5 5 5 5 5 5 5 5 5 5 5 5 5 5 5 5 5 5 5 5 5 5 5 5 5 5 5 5 5 5 5 5 5 5 5 5 5 5 5 5 5 5 5 5 5 5 5 5 5 5 5 5 5 5 5 5 5 5 5 5 5 5 5 5 5 5 5 5 5 5 5 5 5 5 5 5 5 5 5 5 5 5 5 5 5 5 5 5 5 5 5 5 5 5 5 5 5 5 5 5 5 5 5 5 5 5 5 5 5 5 5 5 5 5 5 5 5 5 5 5 5 5 5 5 5 5 5 5 5 5 5 5 5 5 5 5 5 5 5 5 5 5 5 5 5 5 5 5 5 5 5 5 5 5 5 5 5 5 5 5 5 5 5 5 5 5 5 5 5 5 5 5 5 5 5 5 5 5 5 5 5 5 5 5 5 5 5 5 5 5 5 5 5 5 5 5 5 5 5 5 5 5 5 5 5 5 5 5 5 5 5 5 5 5 5 5 5 5 5 5 5 5 5 5 5 5 5 5 5 5 5 5 5 5 5 5 5 5 5 5 5 5 5 5 5 5 5 5 5 5 5 5 5 5 5 5 5 5 5 5 5 5 5 5 5 5 5 5 5 5 5 5 5 5 5 5 5 5 5 5 5 5 5 5 5 5 5 5 5 5 5 5 5 5 5 5 5 5 5 5 5 5 5 5 5 5 5 5 5 5 5 5 5 5 5 5 5 5 5 5 5 5 5 5 5 5 5 5 5 5 5 5 5 5 5 5 5 5 5 5 5 5 5 5 5 5 5 5 5 5 5 5 5 5 5 5 5 5 5 5 5 5 5 5 5 5 5 5 5 5 5 5 5 5 5 5 5 5 5 5 5 5 5 5 5 5 5 5 5 5 5 5 5 5 5 5 5 5 5 5 5 5 5 5 5 5 5 5 5 5 5 5 5 5 5 5 5 5 5 5 5 5 5 5 5 5 5 5 5 5 5 5 5 5 5 5 5 5 5 5 5 5 5 5 5 5 5 5 5 5 5 5 5 5 5 5 5 5 5 5 5 5 5 5 5 5 5 5 5 5 5 5 5 5 5 5 5 5 5 5 5 5 5 5 5 5 5 5 5 5 5 5 5 5 5 5 5 5 5 5 5 5 5 5 5 5 5 5 5 5 5 5 5 5 5 5 5 5 5 5 5 5 5 5 5 5 5 5 5 5 5 5 5 5 5 5 5 5 5 5 5 5 5 5 5 5 5 5 5 5 5 5 5 5 5 5 5 5 5 5 5 5 5 5 5 5 5 5 5 5 5 5 5 5 5 5 5 5 5 5 5 5 5 5 5 5 5 5 5 5 5 5 5 5 5 5 5 5 5 5 5 5 5 5 5 5 5 5 5 5 5 5 5 5 5 5 5 5 5 5 5 5 5 5 5 5 5 5 5 5 5 5 5 5 5 5 5 5 5 5 5 5 5 5 5 5 5 5 5 5 5 5 5 5 5 5 5 5 5 5 5 5 5 5 5 5 5 5 5 5 5 5 5 5 5 5 5 5 5 5 5 5 5 5 5 5 5 5 5 5 5 5 5 5 5 5 5 5 5 5 5 5 5 5 5 5 5 5 5 5 5 5 5 5 5 5 5 5 5 5 5 5 5 5 5 5 5 5 5 5 5 5 5 5 5 5 5 5 5 5 5 5 5 5 5 5 5 5 5 5 5 5 5 5 5 5 5 5 5 5 5 5 5 5 5 5 5 5 5 5 5 5 5 5 5 5 5 5 5 5 5 5 5 5 5 5 5 5 5 5 5 5 5 5 5 5 5 5 5 5 5 5 5 5 5 5 5 5 5 5 5 5 5 5 5 5 5 5 5 5 5 5 5 5 5 5 5 5 5 5 5 5 5 5 
</DataArray>
</Cells>
<PointData Scalars="" Vectors="displacement," Tensors="">
<DataArray type="Float64" Name="displacement" NumberOfComponents="3" format="ascii">
-2.5234488548278736e-05 -2.1534345753401927e-05 0 -2.730734098102774e-05 -2.6616780998073942e-05 0 -2.730734098102774e-05 -2.6616780998073942e-05 0 -2.9567196933667517e-05 -3.3786695449945913e-05 0 -2.9567196933667517e-05 -3.3786695449945913e-05 0 -3.2101668810552231e-05 -4.2807361781771769e-05 0 -3.2101668810552231e-05 -4.2807361781771769e-05 0 -3.4458085367322872e-05 -5.1979051377551497e-05 0 -3.4458085367322872e-05 -5.1979051377551497e-05 0 -3.6553815124710887e-05 -5.9894052792865328e-05 0 -3.6553815124710887e-05 -5.9894052792865328e-05 0 -3.8527949906639782e-05 -6.8463052867189466e-05 0 -3.8527949906639782e-05 -6.8463052867189466e-05 0 -4.0527391358393934e-05 -7.5817416348230614e-05 0 -4.0527391358393934e-05 -7.5817416348230614e-05 0 -4.2318006090278574e-05 -8.4116651949728651e-05 0 -4.2318006090278574e-05 -8.4116651949728651e-05 0 -4.3633382557734433e-05 -9.0560439226931478e-05 0 -4.3633382557734433e-05 -9.0560439226931478e-05 0 -4.5283469423326402e-05 -9.2209444037413729e-05 0 -6.2797459359165579e-06 2.8582239833561788e-05 0 -3.2058111579669144e-06 3.8007158766049411e-05 0 -3.2058111579669144e-06 3.8007158766049411e-05 0 -4.7289884584386557e-06 4.7853101101784717e-05 0 -4.7289884584386557e-06 4.7853101101784717e-05 0 -6.697522661865919e-06 5.4958462065089984e-05 0 -6.697522661865919e-06 5.4958462065089984e-05 0 -9.0177594107928883e-06 6.8586970821958695e-05 0 -9.0177594107928883e-06 6.8586970821958695e-05 0 -1.1641998607440865e-05 7.9722195170472631e-05 0 -1.1641998607440865e-05 7.9722195170472631e-05 0 -1.4486275113140466e-05 9.091817276095463e-05 0 -1.4486275113140466e-05 9.091817276095463e-05 0 -1.7398895106915389e-05 0.00010147204652212959 0 -1.7398895106915389e-05 0.00010147204652212959 0 -2.096581814649973e-05 0.00011587408641882335 0 -2.096581814649973e-05 0.00011587408641882335 0 -2.1198046994861374e-05 0.00012560382566777483 0 -2.1198046994861374e-05 0.00012560382566777483 0 -3.2708257080406855e-05 0.00012467152856774128 0 -2.0766488835137463e-05 -9.4755546728573052e-06 0 -1.6062292785293006e-05 -4.7615746888263949e-06 0 -1.908839217198798e-05 -8.6341378070594995e-06 0 -1.8896961921737762e-05 -6.2019107267381384e-06 0 -1.6062292785293006e-05 -4.7615746888263949e-06 0 -2.0766488835137463e-05 -9.4755546728573052e-06 0 -3.4418963469882585e-05 -1.5791662720924798e-05 0 -3.0668672839571275e-05 -1.2118933914076664e-05 0 -3.1223878856607941e-05 -1.5775647830373382e-05 0 -3.1223878856607941e-05 -1.5775647830373382e-05 0 -3.0668672839571275e-05 -1.2118933914076666e-05 0 -2.8151612099238959e-05 -1.4343817560699527e-05 0 -1.571796790981192e-05 5.7832039984345909e-06 0 -6.833508941068359e-06 1.7803464277795114e-06 0 -1.4164112460022103e-05 3.6826146915834174e-06 0 -1.1887650271799935e-05 -5.6891887197339006e-06 0 -1.0537949434796379e-05 -4.2446055163417584e-06 0 -5.1361945779127603e-06 -2.1350701959356441e-06 0 -8.1948537162741366e-06 4.0310100876824391e-06 0 -6.833508941068359e-06 1.7803464277795114e-06 0 -1.571796790981192e-05 5.7832039984345909e-06 0 -6.4050632628424427e-06 -3.7395593604340715e-06 0 -1.1887650271799935e-05 -5.6891887197339006e-06 0 -5.1361945779127603e-06 -2.1350701959356441e-06 0 -2.8871411724781068e-05 -1.1723094931091685e-05 0 -3.4894764877283873e-05 -1.4639559747193784e-05 0 -2.7933943825024051e-05 -1.0779837175278353e-05 0 -5.1680226344156918e-05 1.7962085130899182e-05 0 -4.1537718377420158e-05 1.3127408933193018e-05 0 -4.0830230488918472e-05 1.2283128500367755e-05 0 -5.1027605397205038e-06 7.8584699618982132e-07 0 -6.5615876140879772e-06 1.7640807474804359e-06 0 -6.3268180565117921e-06 7.5743163138812872e-07 0 -8.4573733586438999e-06 2.6376533913779361e-06 0 -6.3268180565117921e-06 7.5743163138812872e-07 0 -6.5615876140879772e-06 1.7640807474804359e-06 0 -6.757049849069675e-06 -5.6322899465054004e-07 0 -9.0116724782724362e-06 -1.2961211982833893e-06 0 -6.5511586902615798e-06 -2.5303537822346668e-07 0 -2.9530363361596843e-09 -5.1107899374949433e-10 0 -2.4274161616927516e-09 -3.6096995257744193e-10 0 -2.6242957438215639e-06 -7.1469907916638899e-07 0 -2.4045437293475335e-09 1.760367729056278e-10 0 -2.724413491379024e-09 1.6420236142311358e-10 0 -2.5923360943834988e-06 1.673207760246084e-07 0 -3.832782504235157e-05 -2.0566588819573438e-05 0 -3.8585010614823328e-05 -2.0154501762981649e-05 0 -3.4418963469882585e-05 -1.5791662720924798e-05 0 -7.8993206196211151e-06 2.8074839185976537e-05 0 -1.1911902413345802e-05 1.8754827897657456e-05 0 -1.433174537273475e-05 1.8763297671231939e-05 0 -5.8093651469634363e-05 -0.0001481355852598497 0 -5.0392805618342952e-05 -0.00013906327571541589 0 -5.7724612525556702e-05 -0.00013617752520760112 0 -7.2548476249135503e-05 0.00031318589152816618 0 -9.1964545987653813e-05 0.00029305806881183612 0 -7.1862372511921792e-05 0.00028469050688037121 0 -7.2548476249135503e-05 0.00031318589152816618 0 -7.1862372511921792e-05 0.00028469050688037121 0 -5.2889058920364743e-05 0.00029135729694656489 0 -5.8093651469634363e-05 -0.0001481355852598497 0 -5.7724612525556702e-05 -0.00013617752520760112 0 -6.5839473062776551e-05 -0.00013970546617419154 0 -9.5237194166451549e-05 0.00026922644879578603 0 -6.9403852244729486e-05 0.00025702933160320825 0 -7.1862372511921792e-05 0.00028469050688037121 0 -4.822866995710867e-05 -0.00012837695741740768 0 -5.7530903679064569e-05 -0.00012373915194662706 0 -5.7724612525556702e-05 -0.00013617752520760112 0 -6.757049849069675e-06 -5.6322899465054004e-07 0 -6.5511586902615798e-06 -2.5303537822346668e-07 0 -4.5862983124585983e-06 4.3552119595894329e-08 0 -7.8993206196211151e-06 2.8074839185976537e-05 0 -1.688185070762355e-05 2.5975199740952664e-05 0 -1.1911902413345802e-05 1.8754827897657456e-05 0 -0.00011062864183658262 8.5454499403345174e-05 0 -9.9883610737066042e-05 6.4880513037368653e-05 0 -8.2368423916673501e-05 6.904042216827346e-05 0 -6.1449362792805807e-05 -3.7036534674231907e-05 0 -6.744295381623885e-05 -4.6164701707560744e-05 0 -5.4380584353984219e-05 -3.8869498582296058e-05 0 -3.3021854853856967e-05 -1.7448672674642767e-05 0 -3.832782504235157e-05 -2.0566588819573438e-05 0 -3.4418963469882585e-05 -1.5791662720924798e-05 0 -5.9533290060902625e-05 5.6804133005117459e-05 0 -5.1960848696210488e-05 3.6076852786979784e-05 0 -4.3830581039217905e-05 3.7981053572076213e-05 0 -3.1520140696687072e-05 1.3424985377804281e-05 0 -4.1070993739610251e-05 1.8661438607276353e-05 0 -3.818431167253181e-05 1.2834940282646227e-05 0 -2.6602998205206515e-05 -3.5237025399203858e-06 0 -2.327363017238725e-05 1.5767698260391385e-07 0 -2.8196125983807092e-05 -6.3898842656365558e-06 0 -5.5842259049784389e-05 -0.00011064650696068713 0 -4.8563017466878857e-05 -0.00010638227856953579 0 -5.5222900356121561e-05 -9.6499360508817039e-05 0 -6.9063269547857206e-05 0.000228915504540365 0 -8.5698692225087233e-05 0.00022108665800527302 0 -6.4161347812211674e-05 0.0001971392129408591 0 -5.5222900356121561e-05 -9.6499360508817039e-05 0 -4.8563017466878857e-05 -0.00010638227856953579 0 -4.682108503989205e-05 -9.4138165530072395e-05 0 -6.4161347812211674e-05 0.0001971392129408591 0 -8.5698692225087233e-05 0.00022108665800527302 0 -8.4158985477725943e-05 0.00019773435725442171 0 -3.1520140696687072e-05 1.3424985377804281e-05 0 -3.818431167253181e-05 1.2834940282646227e-05 0 -2.7848693978157802e-05 9.156326944744449e-06 0 -2.7525403136578195e-05 -7.7437863979275087e-06 0 -2.3393086654259758e-05 2.6039698703050874e-06 0 -2.6602998205206515e-05 -3.5237025399203858e-06 0 -5.9533290060902625e-05 5.6804133005117459e-05 0 -6.6590364992512272e-05 4.9512741056751218e-05 0 -5.1960848696210495e-05 3.6076852786979784e-05 0 -7.8993206196211151e-06 2.8074839185976537e-05 0 2.0255087433447115e-06 6.8825616283323994e-05 0 -1.9671357359216375e-05 7.2138778059584825e-05 0 -5.1782861449260097e-05 -4.5554390000841773e-05 0 -4.8080263598672289e-05 -4.2144455101357826e-05 0 -5.1922566588553712e-05 -4.3764957048004889e-05 0 -3.8039989058647299e-05 -4.150963868613947e-05 0 -3.68683469246798e-05 -3.8930222274560955e-05 0 -3.8446576344751022e-05 -4.2946211756800651e-05 0 -2.0229018491315222e-05 5.7319736466355591e-06 0 -2.327363017238725e-05 1.5767698260391385e-07 0 -2.6602998205206515e-05 -3.5237025399203858e-06 0 -3.3212879231627425e-05 -0.00013241249673677806 0 -3.9651791486604776e-05 -0.00012513602118197081 0 -4.2539355327325086e-05 -0.00013544912179729851 0 -0.00014043253424114377 0.00029134536552870511 0 -0.00011829477120195766 0.00026675637805849233 0 -0.00011390981035548936 0.00028844569518203154 0 -2.0878974007435293e-09 -2.8065531767349029e-10 0 -1.7999513528522319e-06 -2.4506939018452345e-07 0 -1.9680748913851289e-06 -4.7986625051688864e-07 0 -2.1711246775357922e-09 1.9568466239629332e-10 0 -2.1255855133127206e-06 2.5509882261420716e-07 0 -2.0416123637254237e-06 3.2518485041618611e-07 0 -5.9533290060902625e-05 5.6804133005117459e-05 0 -4.4434018994706261e-05 5.4166191446523683e-05 0 -5.6491884738549639e-05 8.0875314893943102e-05 0 -3.7118139986140937e-05 7.1566332272982334e-05 0 -5.6491884738549639e-05 8.0875314893943102e-05 0 -4.4434018994706261e-05 5.4166191446523683e-05 0 -2.3690823097474105e-05 4.5675206105451728e-05 0 -7.8993206196211151e-06 2.8074839185976537e-05 0 -1.9671357359216375e-05 7.2138778059584825e-05 0 -0.00014023024391359955 0.00024218113743941882 0 -0.0001088127714153423 0.00024273933545717862 0 -0.00011829477120195766 0.00026675637805849233 0 -2.888056395896801e-05 -0.00011014759121858192 0 -4.1385113356051343e-05 -0.00011474768208063361 0 -3.9651791486604769e-05 -0.00012513602118197079 0 -3.7736987418877761e-05 -3.795615840444163e-05 0 -3.7708977306176564e-05 -3.5173490060677988e-05 0 -4.0036798837292777e-05 -3.8049888501251049e-05 0 -2.5627018070272624e-05 -3.901502125686044e-06 0 -2.8196125983807092e-05 -6.3898842656365558e-06 0 -2.327363017238725e-05 1.5767698260391385e-07 0 -3.1088814330732293e-05 -1.1183832434611937e-05 0 -3.3569493599123106e-05 -1.5856956954051864e-05 0 -3.144387309658312e-05 -1.53070255835542e-05 0 -2.8336549671709544e-05 -2.3503088626572896e-05 0 -2.8097575220731082e-05 -2.0497303977323673e-05 0 -3.2250314236883081e-05 -2.5557641450793397e-05 0 -0.00012787547633238413 0.00013499308182259584 0 -0.00010129974118234825 0.00011751761891921757 0 -0.00011098928757579452 0.00014984646148482721 0 -8.6219282200031378e-05 -0.00011714616500692435 0 -7.6940050686314567e-05 -0.00012838505442757287 0 -7.3335873520676855e-05 -0.00011805950941362061 0 -2.818124669550478e-06 0.00023034905761879179 0 -2.6211833903153683e-05 0.00026142083586022018 0 -3.0817982553547645e-05 0.00023995875508457375 0 -3.1158433825595797e-05 -0.00012124880255605846 0 -3.9651791486604769e-05 -0.00012513602118197079 0 -3.3212879231627425e-05 -0.00013241249673677806 0 -0.00014043253424114377 0.00029134536552870511 0 -0.00014050956400003394 0.00026716940950044949 0 -0.00011829477120195766 0.00026675637805849233 0 -4.5312803549537072e-05 -3.7313354554652971e-05 0 -4.5527341247963616e-05 -3.4526642356888954e-05 0 -4.7749427411771326e-05 -3.8081802218062992e-05 0 -2.5469997909776276e-05 -2.0699259073773756e-05 0 -2.8483109254030737e-05 -2.4924036826226053e-05 0 -2.9884762071057003e-05 -3.4851184963323197e-05 0 -4.5312803549537072e-05 -3.7313354554652971e-05 0 -4.3549224176130248e-05 -3.4509031854439589e-05 0 -4.5527341247963616e-05 -3.4526642356888954e-05 0 -3.1096427589353425e-05 -2.104166701074595e-05 0 -3.2250314236883081e-05 -2.5557641450793397e-05 0 -2.8097575220731082e-05 -2.0497303977323673e-05 0 -4.7807006840696451e-05 -5.8113678557772306e-05 0 -5.1421866618948811e-05 -7.3550595238651201e-05 0 -4.219549338751136e-05 -6.1322030393319094e-05 0 -3.8373533972720825e-09 2.3717727910747582e-10 0 -5.1361945779127603e-06 -2.1350701959356441e-06 0 -3.5882487017884083e-06 -9.0728616992891763e-07 0 -5.1907452074287964e-09 -5.9527170982542759e-10 0 -4.6741645027193726e-06 2.6003654584747749e-07 0 -6.833508941068359e-06 1.7803464277795114e-06 0 -5.1782861449260097e-05 -4.5554390000841773e-05 0 -4.8201945245106649e-05 -4.4800170237454292e-05 0 -4.8080263598672289e-05 -4.2144455101357826e-05 0 -3.8977835441801476e-05 -4.4054245972101576e-05 0 -3.8039989058647299e-05 -4.150963868613947e-05 0 -3.8446576344751022e-05 -4.2946211756800651e-05 0 -4.0408229310135681e-09 -8.0764521600775753e-10 0 -6.1316686820420651e-06 -1.939035357248846e-07 0 -4.6741645027193718e-06 2.6003654584747706e-07 0 -3.2687681610893809e-09 2.4615617940304608e-10 0 -3.5882487017884083e-06 -9.0728616992891763e-07 0 -4.9028421414958016e-06 -8.3795108091514049e-07 0 -6.3268180565117921e-06 7.5743163138812872e-07 0 -4.5761428508669428e-06 -4.7330553241353529e-07 0 -4.5468429468176688e-06 1.3019652832551542e-07 0 -1.7318762603335246e-05 -7.4592168499791812e-06 0 -1.4449037242418134e-05 -5.1648248159940389e-06 0 -1.0537949434796379e-05 -4.2446055163417584e-06 0 -2.3605885396321145e-05 7.5197226002756169e-06 0 -1.4164112460022105e-05 3.6826146915834174e-06 0 -1.9589420385655277e-05 4.3041721265361034e-06 0 -3.5614073468067996e-05 -2.5718959687412641e-05 0 -3.36750771739103e-05 -2.1703935970162528e-05 0 -3.6860865009907374e-05 -2.3829724101579131e-05 0 -3.4618248356041183e-05 -1.9656200700836419e-05 0 -3.144387309658312e-05 -1.53070255835542e-05 0 -3.3569493599123106e-05 -1.5856956954051864e-05 0 -8.7238762532101783e-06 0.00027863461220766866 0 -3.2566991572090583e-05 0.00028361819767915735 0 -2.6211833903153683e-05 0.00026142083586022018 0 -8.6445682670996694e-05 -0.0001389485016402307 0 -7.5012169695380041e-05 -0.00013767463260767968 0 -7.6940050686314567e-05 -0.00012838505442757287 0 -3.4618248356041183e-05 -1.9656200700836419e-05 0 -3.6860865009907374e-05 -2.3829724101579131e-05 0 -3.36750771739103e-05 -2.1703935970162528e-05 0 -3.7708977306176564e-05 -3.5173490060677988e-05 0 -3.5117472297613653e-05 -3.3682401477832831e-05 0 -3.6302304586803545e-05 -3.0776368211253478e-05 0 -8.4350791592250926e-05 0.00017337500689667629 0 -7.4967663431342824e-05 0.0001389307882914746 0 -6.1549994887499955e-05 0.00015102112012946089 0 -5.1907452074287964e-09 -5.9527170982542759e-10 0 -5.5947016943529569e-09 4.9530262468584171e-10 0 -4.6741645027193718e-06 2.6003654584747706e-07 0 -4.2901166906240581e-09 -6.310780727862259e-10 0 -3.8373533972720825e-09 2.3717727910747582e-10 0 -3.5882487017884083e-06 -9.0728616992891763e-07 0 -6.3268180565117921e-06 7.5743163138812872e-07 0 -7.2410469628116656e-06 4.0019286337731379e-07 0 -4.5761428508669428e-06 -4.7330553241353529e-07 0 -4.8028406473832486e-05 0.00026678434321404843 0 -7.1862372511921792e-05 0.00028469050688037121 0 -6.9403852244729486e-05 0.00025702933160320825 0 -6.7086850714331459e-05 -0.0001290133759715025 0 -5.7724612525556702e-05 -0.00013617752520760112 0 -5.7530903679064569e-05 -0.00012373915194662706 0 -5.1421866618948811e-05 -7.3550595238651201e-05 0 -4.3791794408740756e-05 -7.334479536677092e-05 0 -4.219549338751136e-05 -6.1322030393319094e-05 0 -2.7628062760384379e-06 2.5879344281753926e-07 0 -3.9277150926629335e-06 5.2422278481480764e-07 0 -3.6686871133781149e-06 3.5809124735112175e-07 0 -1.8107458670247119e-05 3.5631190252721726e-06 0 -1.4831869328114859e-05 3.1669244147880129e-06 0 -2.0849253159393093e-05 5.872874993189867e-06 0 -3.5117472297613653e-05 -3.3682401477832831e-05 0 -3.3498814710811669e-05 -3.0045441995093575e-05 0 -3.6302304586803545e-05 -3.0776368211253478e-05 0 -3.6686871133781149e-06 3.5809124735112175e-07 0 -3.9277150926629335e-06 5.2422278481480764e-07 0 -4.6984774788124222e-06 7.5604301940647346e-07 0 -3.9277150926629335e-06 5.2422278481480764e-07 0 -2.2854790848637211e-06 2.963736536258212e-07 0 -3.9412171927402273e-06 4.569579009563887e-07 0 -2.8495925396819055e-06 3.8386668723607116e-07 0 -3.9412171927402273e-06 4.569579009563887e-07 0 -2.2854790848637211e-06 2.963736536258212e-07 0 -4.7971018242034821e-05 -3.6796910249034152e-05 0 -4.5527341247963616e-05 -3.4526642356888954e-05 0 -4.7041023335825791e-05 -3.3927470348312912e-05 0 -3.1088814330732293e-05 -1.1183832434611937e-05 0 -3.1443873096583113e-05 -1.53070255835542e-05 0 -2.9305804738350815e-05 -9.4251108554905573e-06 0 -3.7736987418877761e-05 -3.795615840444163e-05 0 -3.5117472297613653e-05 -3.3682401477832831e-05 0 -3.7708977306176564e-05 -3.5173490060677988e-05 0 -2.0229018491315222e-05 5.7319736466355591e-06 0 -2.6602998205206515e-05 -3.5237025399203846e-06 0 -2.3393086654259758e-05 2.6039698703050874e-06 0 -5.8646923225027469e-06 0.00025428405872688091 0 -8.7238762532101783e-06 0.00027863461220766866 0 -2.6211833903153683e-05 0.00026142083586022018 0 -8.6477527323155281e-05 -0.00012834078316678583 0 -8.6445682670996694e-05 -0.0001389485016402307 0 -7.6940050686314567e-05 -0.00012838505442757287 0 -8.6219282200031378e-05 -0.00011714616500692435 0 -8.6477527323155281e-05 -0.00012834078316678583 0 -7.6940050686314567e-05 -0.00012838505442757287 0 -2.818124669550478e-06 0.00023034905761879179 0 -5.8646923225027469e-06 0.00025428405872688091 0 -2.6211833903153683e-05 0.00026142083586022018 0 -1.5697993237453864e-05 1.0322331275380046e-05 0 -1.5110020446694313e-05 7.9823765616759391e-06 0 -2.0229018491315222e-05 5.7319736466355591e-06 0 -6.7817116267672503e-06 -6.1597646845570194e-08 0 -4.4752485822049737e-06 2.9314472697405357e-07 0 -6.5511586902615798e-06 -2.5303537822346668e-07 0 -3.8194311188026525e-06 2.5915431547821413e-07 0 -6.5511586902615798e-06 -2.5303537822346668e-07 0 -4.4752485822049737e-06 2.9314472697405357e-07 0 -2.2094048263621919e-05 0.00015134443584575378 0 -1.6651916308685273e-05 0.00016891250131615405 0 -4.1734532112286461e-05 0.00017149490174373061 0 -1.6651916308685273e-05 0.00016891250131615405 0 -2.4156084111306096e-05 0.00018800925335210735 0 -4.1734532112286461e-05 0.00017149490174373061 0 -2.7525403136578195e-05 -7.7437863979275087e-06 0 -2.6602998205206515e-05 -3.5237025399203867e-06 0 -2.9305804738350815e-05 -9.4251108554905573e-06 0 -4.0059553822827629e-05 -4.5226458427138349e-05 0 -3.8446576344751022e-05 -4.2946211756800651e-05 0 -3.9382400625481977e-05 -4.2393528977547812e-05 0 -4.467653818855224e-05 -4.4747572537546768e-05 0 -4.4953077064234492e-05 -4.1216919689143431e-05 0 -4.8080263598672289e-05 -4.2144455101357826e-05 0 -1.5110020446694313e-05 7.9823765616759391e-06 0 -1.8198420773188771e-05 4.0093579132228385e-06 0 -2.0229018491315222e-05 5.7319736466355591e-06 0 -0.00014050956400003394 0.00026716940950044949 0 -0.00014023024391359955 0.00024218113743941882 0 -0.00011829477120195766 0.00026675637805849233 0 -2.888056395896801e-05 -0.00011014759121858192 0 -3.9651791486604769e-05 -0.00012513602118197079 0 -3.1158433825595797e-05 -0.00012124880255605846 0 -3.4894764877283873e-05 -1.4639559747193784e-05 0 -3.4515839598533856e-05 -1.4508209471084237e-05 0 -2.7933943825024051e-05 -1.0779837175278353e-05 0 -5.1680226344156918e-05 1.7962085130899182e-05 0 -4.0830230488918472e-05 1.2283128500367755e-05 0 -5.0222867655515687e-05 1.8093558443923965e-05 0 -2.7525403136578195e-05 -7.7437863979275087e-06 0 -3.144387309658312e-05 -1.53070255835542e-05 0 -2.8209490659664402e-05 -1.5795173561731685e-05 0 -2.5469997909776276e-05 -2.0699259073773756e-05 0 -2.9884762071057003e-05 -3.4851184963323197e-05 0 -2.1768551442896601e-05 -3.6202406831597006e-05 0 -3.1096427589353425e-05 -2.104166701074595e-05 0 -3.144387309658312e-05 -1.53070255835542e-05 0 -3.36750771739103e-05 -2.1703935970162528e-05 0 -3.4618248356041183e-05 -1.9656200700836419e-05 0 -3.36750771739103e-05 -2.1703935970162528e-05 0 -3.144387309658312e-05 -1.53070255835542e-05 0 -5.8093651469634363e-05 -0.0001481355852598497 0 -5.0205359788194827e-05 -0.00014717731054096286 0 -5.0392805618342952e-05 -0.00013906327571541589 0 -7.2548476249135503e-05 0.00031318589152816618 0 -9.4090137703884457e-05 0.000313911203825965 0 -9.19645459876538e-05 0.00029305806881183612 0 -5.2066868139371737e-05 0.00031123164130397491 0 -7.2548476249135503e-05 0.00031318589152816618 0 -5.2889058920364743e-05 0.00029135729694656489 0 -6.6755809788083547e-05 -0.00014846789452518231 0 -5.8093651469634363e-05 -0.0001481355852598497 0 -6.5839473062776551e-05 -0.00013970546617419154 0 -2.9123622280510787e-05 3.4954750527708264e-05 0 -4.4434018994706261e-05 5.4166191446523683e-05 0 -4.3830581039217905e-05 3.7981053572076213e-05 0 -3.8910944700789918e-05 -2.379328725552638e-05 0 -4.1864616499264017e-05 -2.7765963759845214e-05 0 -4.0037796679468187e-05 -2.7838982030648166e-05 0 -3.1096427589353425e-05 -2.104166701074595e-05 0 -3.36750771739103e-05 -2.1703935970162528e-05 0 -3.2250314236883081e-05 -2.5557641450793397e-05 0 -3.5614073468067996e-05 -2.5718959687412641e-05 0 -3.2250314236883081e-05 -2.5557641450793397e-05 0 -3.36750771739103e-05 -2.1703935970162528e-05 0 -3.6073648418770742e-05 -6.3944073907519613e-05 0 -3.3403300701690021e-05 -4.9491845497118401e-05 0 -4.219549338751136e-05 -6.1322030393319094e-05 0 -0.00011062864183658262 8.5454499403345174e-05 0 -8.2368423916673501e-05 6.904042216827346e-05 0 -9.9413019604642147e-05 9.4373495952134422e-05 0 -3.0215986756220538e-05 -1.6555017332172017e-05 0 -3.6338821920902829e-05 -2.2720053247703887e-05 0 -2.927300143828051e-05 -1.8555175324592983e-05 0 -3.3587212228518724e-05 -2.5015546793529719e-05 0 -2.927300143828051e-05 -1.8555175324592983e-05 0 -3.6338821920902829e-05 -2.2720053247703887e-05 0 -4.6618078154051935e-05 -3.9502375602902298e-05 0 -4.3420571717060535e-05 -3.8592789116561956e-05 0 -4.5312803549537072e-05 -3.7313354554652971e-05 0 -9.2024174743862851e-05 0.00013502943527764544 0 -0.00011098928757579452 0.00014984646148482721 0 -0.00010129974118234825 0.00011751761891921757 0 -3.402347187346719e-05 -1.5251477177446674e-05 0 -4.1284881949454663e-05 -2.0402425784889018e-05 0 -3.5707718889130193e-05 -1.8582864982941233e-05 0 -4.2879303987649073e-05 -2.4317864663978358e-05 0 -3.5707718889130193e-05 -1.8582864982941233e-05 0 -4.1284881949454663e-05 -2.0402425784889018e-05 0 -6.2174556497161468e-05 3.8043323343282211e-05 0 -6.1076478346865708e-05 2.9698222741472845e-05 0 -4.9924533282004085e-05 2.6884618070190377e-05 0 -4.8942807712719699e-05 2.0582878613349482e-05 0 -4.9924533282004085e-05 2.6884618070190377e-05 0 -6.1076478346865708e-05 2.9698222741472845e-05 0 -4.3734144532498862e-05 -3.1584000638440623e-05 0 -4.1243547717368792e-05 -3.1529654646993409e-05 0 -4.0037796679468187e-05 -2.7838982030648166e-05 0 -6.744295381623885e-05 -4.6164701707560744e-05 0 -6.3084314051476266e-05 -4.9831530971857659e-05 0 -5.4380584353984219e-05 -3.8869498582296058e-05 0 -3.0521093816136142e-05 0.00012737508506634993 0 -4.4259977321113487e-05 0.0001029314042495581 0 -2.4990299752807976e-05 9.7773772546371642e-05 0 -2.5627018070272624e-05 -3.901502125686044e-06 0 -2.6843225626558476e-05 -7.4242781512291998e-06 0 -3.0158999283392624e-05 -9.5525350648635261e-06 0 -1.010691234903793e-05 1.7963077929491542e-06 0 -9.5046529013120901e-06 3.8290780003601992e-06 0 -8.1279876160615928e-06 2.3714132593395096e-06 0 -0.00010287431047288947 0.00021354150598757398 0 -8.5698692225087233e-05 0.00022108665800527302 0 -0.0001088127714153423 0.00024273933545717862 0 -4.1086839554517011e-05 -0.00010110951676102894 0 -4.8563017466878857e-05 -0.00010638227856953579 0 -4.1385113356051343e-05 -0.00011474768208063361 0 -2.7525403136578195e-05 -7.7437863979275087e-06 0 -2.9305804738350815e-05 -9.4251108554905556e-06 0 -3.144387309658312e-05 -1.53070255835542e-05 0 -4.4953077064234492e-05 -4.1216919689143431e-05 0 -4.3420571717060535e-05 -3.8592789116561956e-05 0 -4.6618078154051935e-05 -3.9502375602902298e-05 0 -3.5614073468067996e-05 -2.5718959687412641e-05 0 -3.8128545376570739e-05 -2.8047626743261196e-05 0 -3.6302304586803545e-05 -3.0776368211253478e-05 0 -2.4274161616927516e-09 -3.6096995257744193e-10 0 -1.9680748913851289e-06 -4.7986625051688864e-07 0 -2.6242957438215639e-06 -7.1469907916638899e-07 0 -2.4045437293475335e-09 1.760367729056278e-10 0 -2.5923360943834988e-06 1.673207760246084e-07 0 -2.1255855133127206e-06 2.5509882261420716e-07 0 -3.3403300701690021e-05 -4.9491845497118401e-05 0 -4.0869329668534846e-05 -5.003982746996474e-05 0 -4.219549338751136e-05 -6.1322030393319094e-05 0 -1.8107458670247119e-05 3.5631190252721726e-06 0 -2.0849253159393093e-05 5.872874993189867e-06 0 -2.399939807919403e-05 5.6329183026913817e-06 0 -3.6785538821471268e-05 2.2577672365018599e-05 0 -4.3830581039217898e-05 3.7981053572076206e-05 0 -5.1960848696210495e-05 3.6076852786979784e-05 0 -3.2726102336301641e-06 -3.0671144486311479e-07 0 -1.7999513528522319e-06 -2.4506939018452345e-07 0 -3.4618641249865602e-06 3.3987710358234466e-08 0 -2.5339813095412965e-06 7.476106051269951e-08 0 -3.4618641249865602e-06 3.3987710358234466e-08 0 -1.7999513528522319e-06 -2.4506939018452345e-07 0 -2.8495925396819055e-06 3.8386668723607116e-07 0 -2.0416123637254237e-06 3.2518485041618606e-07 0 -4.4752485822049737e-06 2.9314472697405357e-07 0 -3.8194311188026525e-06 2.5915431547821413e-07 0 -4.4752485822049737e-06 2.9314472697405357e-07 0 -2.0416123637254237e-06 3.2518485041618611e-07 0 -3.1520140696687072e-05 1.3424985377804281e-05 0 -2.7140579580139582e-05 1.4921890775779046e-05 0 -3.6785538821471268e-05 2.2577672365018599e-05 0 -1.010691234903793e-05 1.7963077929491542e-06 0 -1.2238251098025248e-05 3.0406182488295013e-06 0 -9.5046529013120901e-06 3.8290780003601992e-06 0 -8.4573733586438999e-06 2.6376533913779361e-06 0 -8.7649443712742496e-06 1.5003078029437031e-06 0 -6.3268180565117921e-06 7.5743163138812872e-07 0 -2.0849253159393093e-05 5.872874993189867e-06 0 -1.4831869328114859e-05 3.1669244147880129e-06 0 -1.7767573045695105e-05 6.4295176340750541e-06 0 -1.5903478609377038e-05 2.32409061270721e-06 0 -1.3683643249236072e-05 5.5032920890443488e-06 0 -1.2238251098025248e-05 3.0406182488295009e-06 0 -1.4670567691299695e-05 -4.2632195433095011e-06 0 -1.6457874053439884e-05 -5.7083982271361248e-06 0 -1.2728661429972946e-05 -3.0724155911857814e-06 0 -1.5087116473616579e-05 -4.754484038839008e-06 0 -1.2728661429972946e-05 -3.0724155911857814e-06 0 -1.6457874053439884e-05 -5.7083982271361248e-06 0 -5.5947016943528692e-09 4.9530262468583706e-10 0 -4.0408229310135681e-09 -8.0764521600775753e-10 0 -4.6741645027193718e-06 2.6003654584747706e-07 0 -3.2687681610893809e-09 2.4615617940304608e-10 0 -4.2901166906240581e-09 -6.310780727862259e-10 0 -3.5882487017884083e-06 -9.0728616992891763e-07 0 4.3763883377173841e-06 9.8339948873445279e-05 0 -2.4990299752807976e-05 9.7773772546371642e-05 0 -1.9671357359216375e-05 7.2138778059584825e-05 0 -6.7817116267672503e-06 -6.1597646845570194e-08 0 -9.6938011744582343e-06 -1.1190803128180805e-06 0 -7.3623687578976051e-06 1.1308363406479648e-07 0 -3.0668672839571275e-05 -1.2118933914076664e-05 0 -2.5647484215554165e-05 -9.6586978764660679e-06 0 -2.8151612099238959e-05 -1.4343817560699527e-05 0 -4.1762074141412672e-05 -4.076975365779063e-05 0 -4.3420571717060535e-05 -3.8592789116561956e-05 0 -4.4953077064234492e-05 -4.1216919689143431e-05 0 -2.8871411724781068e-05 -1.1723094931091685e-05 0 -2.7933943825024051e-05 -1.0779837175278353e-05 0 -2.3613035474252776e-05 -8.8538583379813758e-06 0 -4.1537718377420158e-05 1.3127408933193018e-05 0 -3.3549276142569166e-05 9.008994551890378e-06 0 -4.0830230488918472e-05 1.2283128500367755e-05 0 -3.8922108578190334e-05 -3.1370956434472575e-05 0 -3.6302304586803545e-05 -3.0776368211253478e-05 0 -3.8128545376570739e-05 -2.8047626743261196e-05 0 -2.7933943825024051e-05 -1.0779837175278353e-05 0 -2.397250729500263e-05 -8.8529023683877239e-06 0 -2.2750593014731217e-05 -8.1223367552812884e-06 0 -3.0300076481744381e-05 8.6468444257586599e-06 0 -2.7848693978157802e-05 9.156326944744449e-06 0 -3.818431167253181e-05 1.2834940282646227e-05 0 -2.9649816130658677e-05 -1.2024970346034052e-05 0 -2.397250729500263e-05 -8.8529023683877239e-06 0 -2.7933943825024051e-05 -1.0779837175278353e-05 0 -1.0963602384886858e-05 -2.2105795310075776e-06 0 -1.2710119747818768e-05 -3.1017211742477476e-06 0 -1.4418501555013042e-05 -3.9086407477792973e-06 0 -1.0908834761918036e-05 1.2370154212287331e-06 0 -1.4831869328114859e-05 3.1669244147880129e-06 0 -1.4588792106500649e-05 1.6597425966222144e-06 0 -4.1070993739610251e-05 1.8661438607276353e-05 0 -3.1520140696687072e-05 1.3424985377804281e-05 0 -3.6785538821471268e-05 2.2577672365018599e-05 0 -4.3734144532498862e-05 -3.1584000638440623e-05 0 -4.0037796679468187e-05 -2.7838982030648166e-05 0 -4.1864616499264017e-05 -2.7765963759845214e-05 0 -3.5153931216374506e-05 0.00021283764250765191 0 -3.0817982553547645e-05 0.00023995875508457375 0 -5.154519398492988e-05 0.00023855597515291056 0 -6.9203715085530267e-05 -0.00010507413064939757 0 -7.3335873520676855e-05 -0.00011805950941362061 0 -6.3917184725603539e-05 -0.00011599215787590207 0 -3.2726102336301641e-06 -3.0671144486311479e-07 0 -1.9680748913851289e-06 -4.7986625051688864e-07 0 -1.7999513528522319e-06 -2.4506939018452345e-07 0 -3.8194311188026525e-06 2.5915431547821413e-07 0 -2.0416123637254237e-06 3.2518485041618611e-07 0 -2.1255855133127206e-06 2.5509882261420716e-07 0 -2.9530363361596843e-09 -5.1107899374949433e-10 0 -2.6242957438215639e-06 -7.1469907916638899e-07 0 -2.8678717275585637e-06 -7.0742386843712159e-07 0 -2.724413491379024e-09 1.6420236142311358e-10 0 -2.608788151247729e-06 1.415849742742003e-08 0 -2.5923360943834988e-06 1.673207760246084e-07 0 -3.0668672839571275e-05 -1.2118933914076664e-05 0 -3.4418963469882585e-05 -1.5791662720924798e-05 0 -3.3847421729913039e-05 -1.4154204340368274e-05 0 -3.6550650219794464e-05 -1.7699536415493168e-05 0 -3.3847421729913039e-05 -1.4154204340368274e-05 0 -3.4418963469882585e-05 -1.5791662720924798e-05 0 -6.2536715620377625e-05 0.00011030098404847157 0 -5.6491884738549639e-05 8.0875314893943102e-05 0 -4.4259977321113487e-05 0.0001029314042495581 0 -3.7118139986140937e-05 7.1566332272982334e-05 0 -4.4259977321113494e-05 0.0001029314042495581 0 -5.6491884738549639e-05 8.0875314893943102e-05 0 -1.6202455671048723e-05 1.7743680055526706e-05 0 -1.2260332695710135e-05 1.1885345786377031e-05 0 -1.1911902413345802e-05 1.8754827897657456e-05 0 -3.0668672839571275e-05 -1.2118933914076664e-05 0 -2.6843225626558476e-05 -7.4242781512291998e-06 0 -2.5647484215554165e-05 -9.6586978764660679e-06 0 -5.1027605397205038e-06 7.8584699618982132e-07 0 -3.6686871133781149e-06 3.5809124735112175e-07 0 -4.6984774788124222e-06 7.5604301940647346e-07 0 -3.8910944700789918e-05 -2.379328725552638e-05 0 -4.0037796679468187e-05 -2.7838982030648166e-05 0 -3.6860865009907374e-05 -2.3829724101579131e-05 0 -8.4350791592250926e-05 0.00017337500689667629 0 -9.4292793692740218e-05 0.00015422842692805252 0 -7.4967663431342824e-05 0.0001389307882914746 0 -4.7971018242034821e-05 -3.6796910249034152e-05 0 -4.7041023335825791e-05 -3.3927470348312912e-05 0 -4.9614733950974198e-05 -3.7882292723110387e-05 0 -3.7708977306176564e-05 -3.5173490060677988e-05 0 -3.9255220683068793e-05 -3.4172200050686937e-05 0 -4.0036798837292777e-05 -3.8049888501251049e-05 0 -9.7407925338225536e-06 -1.4761133506868117e-06 0 -6.5511586902615798e-06 -2.5303537822346668e-07 0 -9.0116724782724362e-06 -1.2961211982833893e-06 0 -5.9533290060902625e-05 5.6804133005117459e-05 0 -4.3830581039217905e-05 3.7981053572076213e-05 0 -4.4434018994706261e-05 5.4166191446523683e-05 0 -1.1887650271799935e-05 -5.6891887197339006e-06 0 -1.7318762603335246e-05 -7.4592168499791812e-06 0 -1.0537949434796379e-05 -4.2446055163417584e-06 0 -2.3605885396321145e-05 7.5197226002756169e-06 0 -1.571796790981192e-05 5.7832039984345909e-06 0 -1.4164112460022103e-05 3.6826146915834174e-06 0 -3.1096427589353425e-05 -2.104166701074595e-05 0 -2.8209490659664402e-05 -1.5795173561731685e-05 0 -3.144387309658312e-05 -1.53070255835542e-05 0 -5.431320802264391e-06 -5.7197809425102778e-07 0 -9.0478687723777547e-06 -1.5890417818024868e-06 0 -5.4738923417074846e-06 -3.3043681815166372e-07 0 -6.2245391266945544e-06 -5.7847709916379234e-07 0 -5.4475270242043854e-06 -7.02460731652023e-07 0 -1.0145443168952922e-05 2.1396693470431983e-07 0 -9.9883610737066042e-05 6.4880513037368653e-05 0 -7.8448971373178594e-05 5.1209072304049701e-05 0 -8.2368423916673501e-05 6.904042216827346e-05 0 -6.1449362792805807e-05 -3.7036534674231907e-05 0 -5.4380584353984219e-05 -3.8869498582296058e-05 0 -5.108673146972838e-05 -3.0411396216915736e-05 0 -2.9123622280510787e-05 3.4954750527708264e-05 0 -1.688185070762355e-05 2.5975199740952664e-05 0 -2.3690823097474105e-05 4.5675206105451728e-05 0 -7.8993206196211151e-06 2.8074839185976537e-05 0 -2.3690823097474105e-05 4.5675206105451728e-05 0 -1.688185070762355e-05 2.5975199740952664e-05 0 -3.6518259232373691e-05 -3.946453157605739e-05 0 -4.4033613338669068e-05 -4.3449459100807918e-05 0 -4.0869329668534846e-05 -5.003982746996474e-05 0 -4.7807006840696451e-05 -5.8113678557772306e-05 0 -4.0869329668534846e-05 -5.003982746996474e-05 0 -4.4033613338669068e-05 -4.3449459100807918e-05 0 -2.7525403136578195e-05 -7.7437863979275087e-06 0 -2.3387454558926857e-05 -6.6814269605432053e-07 0 -2.3393086654259758e-05 2.6039698703050874e-06 0 -4.1762074141412672e-05 -4.076975365779063e-05 0 -4.4953077064234492e-05 -4.1216919689143431e-05 0 -4.2755852118949884e-05 -4.3011744524270196e-05 0 -5.1027605397205038e-06 7.8584699618982132e-07 0 -6.3268180565117921e-06 7.5743163138812872e-07 0 -4.5468429468176688e-06 1.3019652832551542e-07 0 -3.6338821920902829e-05 -2.2720053247703887e-05 0 -4.5213694239691961e-05 -2.9832785367273099e-05 0 -3.961628679051257e-05 -2.8870869660445481e-05 0 -4.0059553822827629e-05 -4.5226458427138349e-05 0 -3.9382400625481977e-05 -4.2393528977547812e-05 0 -4.0982748761041432e-05 -4.3192081124740513e-05 0 -8.3465832241079926e-05 9.3806016781305975e-05 0 -9.9413019604642147e-05 9.4373495952134422e-05 0 -8.2368423916673501e-05 6.904042216827346e-05 0 -0.0001088127714153423 0.00024273933545717862 0 -8.5698692225087233e-05 0.00022108665800527302 0 -8.5612906852968349e-05 0.00024462855432915353 0 -4.1385113356051343e-05 -0.00011474768208063361 0 -4.8563017466878857e-05 -0.00010638227856953579 0 -5.0417956259081544e-05 -0.00011721397622877949 0 -1.2428573873959811e-05 -2.1129174034225939e-06 0 -1.2100882970533933e-05 -8.1687641037376233e-07 0 -9.8460325391622778e-06 -6.059509592118047e-07 0 -3.6550650219794464e-05 -1.7699536415493168e-05 0 -3.4418963469882585e-05 -1.5791662720924798e-05 0 -3.8585010614823328e-05 -2.0154501762981649e-05 0 -6.412805135160691e-06 1.3454024664736165e-06 0 -8.1279876160615928e-06 2.3714132593395096e-06 0 -7.0618865898760028e-06 2.3242525458594984e-06 0 -8.3888255327260901e-06 3.697748840055085e-06 0 -7.0618865898760028e-06 2.3242525458594984e-06 0 -8.1279876160615928e-06 2.3714132593395096e-06 0 -2.0849253159393093e-05 5.872874993189867e-06 0 -2.7848693978157802e-05 9.156326944744449e-06 0 -2.399939807919403e-05 5.6329183026913817e-06 0 -4.7807006840696451e-05 -5.8113678557772306e-05 0 -5.5068546769370979e-05 -6.6264052347303915e-05 0 -5.1421866618948811e-05 -7.3550595238651201e-05 0 -2.5433822289072271e-05 5.5810567673014169e-06 0 -2.0582629769133676e-05 3.5761336476181428e-06 0 -3.0616363553348958e-05 7.6650651445932266e-06 0 -4.1734532112286461e-05 0.00017149490174373061 0 -6.4161347812211674e-05 0.0001971392129408591 0 -6.7354189041105462e-05 0.000174787539450582 0 -4.1734532112286461e-05 0.00017149490174373061 0 -6.7354189041105462e-05 0.000174787539450582 0 -6.1549994887499955e-05 0.00015102112012946089 0 -8.4350791592250926e-05 0.00017337500689667629 0 -6.1549994887499955e-05 0.00015102112012946087 0 -6.7354189041105462e-05 0.000174787539450582 0 -6.071677602065114e-05 -8.5059217115332847e-05 0 -5.5222900356121561e-05 -9.6499360508817039e-05 0 -5.0260969381529803e-05 -8.4356322662422216e-05 0 -6.071677602065114e-05 -8.5059217115332847e-05 0 -5.0260969381529803e-05 -8.4356322662422216e-05 0 -5.1421866618948811e-05 -7.3550595238651201e-05 0 -1.2260332695710135e-05 1.1885345786377031e-05 0 -1.1928640476268672e-05 1.3253555992004662e-05 0 -1.1911902413345802e-05 1.8754827897657456e-05 0 -2.0878974007435293e-09 -2.8065531767349029e-10 0 -1.7512093303351143e-09 -8.7313470280778113e-12 0 -1.7999513528522319e-06 -2.4506939018452345e-07 0 -1.9346755245347523e-09 1.5000215671616313e-10 0 -2.1711246775357922e-09 1.9568466239629332e-10 0 -2.0416123637254237e-06 3.2518485041618611e-07 0 -9.6938011744582343e-06 -1.1190803128180805e-06 0 -9.8460325391622795e-06 -6.059509592118048e-07 0 -7.3623687578976051e-06 1.1308363406479648e-07 0 -2.5469997909776276e-05 -2.0699259073773756e-05 0 -2.495118348910385e-05 -1.8145380764482535e-05 0 -2.8483109254030737e-05 -2.4924036826226053e-05 0 -2.0582629769133676e-05 3.5761336476181428e-06 0 -2.399939807919403e-05 5.6329183026913809e-06 0 -3.0616363553348958e-05 7.6650651445932266e-06 0 -1.7187824481325276e-09 1.1608501800868592e-10 0 -2.2854790848637211e-06 2.963736536258212e-07 0 -1.4715624205185812e-06 8.9015879554606038e-08 0 -2.3605885396321145e-05 7.5197226002756169e-06 0 -1.9589420385655277e-05 4.3041721265361034e-06 0 -2.7019040189239625e-05 7.0357326522235605e-06 0 -1.7318762603335246e-05 -7.4592168499791812e-06 0 -1.9452817497346529e-05 -7.3528314088316463e-06 0 -1.4449037242418132e-05 -5.1648248159940389e-06 0 -5.607633571121055e-05 -4.9060367840645599e-05 0 -5.4380584353984219e-05 -3.8869498582296058e-05 0 -6.3084314051476266e-05 -4.9831530971857659e-05 0 -3.9412171927402273e-06 4.569579009563887e-07 0 -2.8495925396819055e-06 3.8386668723607116e-07 0 -5.1564705561350941e-06 3.6627475970502297e-07 0 -4.3734144532498862e-05 -3.1584000638440623e-05 0 -4.7041023335825791e-05 -3.3927470348312912e-05 0 -4.5527341247963616e-05 -3.4526642356888954e-05 0 -1.5903478609377038e-05 2.32409061270721e-06 0 -1.2238251098025248e-05 3.0406182488295009e-06 0 -1.4496561076584659e-05 7.4770157008434535e-07 0 -3.0521093816136142e-05 0.00012737508506634993 0 -5.2638862861194943e-05 0.00012988469214892515 0 -4.4259977321113487e-05 0.0001029314042495581 0 -5.1027605397205038e-06 7.8584699618982132e-07 0 -3.4618641249865602e-06 3.3987710358234466e-08 0 -3.6686871133781149e-06 3.5809124735112175e-07 0 -9.5237194166451549e-05 0.00026922644879578603 0 -8.5612906852968349e-05 0.00024462855432915353 0 -6.9403852244729486e-05 0.00025702933160320825 0 -4.822866995710867e-05 -0.00012837695741740768 0 -5.0417956259081544e-05 -0.00011721397622877949 0 -5.7530903679064569e-05 -0.00012373915194662706 0 -2.8495925396819055e-06 3.8386668723607116e-07 0 -4.4752485822049737e-06 2.9314472697405357e-07 0 -5.1564705561350941e-06 3.6627475970502297e-07 0 -1.5903478609377038e-05 2.32409061270721e-06 0 -1.7900174458723202e-05 -1.1558345124222309e-06 0 -2.0752059906617465e-05 -4.4931832513388977e-07 0 -4.8028406473832486e-05 0.00026678434321404843 0 -5.2889058920364743e-05 0.00029135729694656489 0 -7.1862372511921792e-05 0.00028469050688037121 0 -9.5237194166451549e-05 0.00026922644879578603 0 -7.1862372511921792e-05 0.00028469050688037116 0 -9.19645459876538e-05 0.00029305806881183612 0 -6.7086850714331459e-05 -0.0001290133759715025 0 -6.5839473062776551e-05 -0.00013970546617419154 0 -5.7724612525556702e-05 -0.00013617752520760112 0 -4.822866995710867e-05 -0.00012837695741740768 0 -5.7724612525556702e-05 -0.00013617752520760112 0 -5.0392805618342952e-05 -0.00013906327571541589 0 -3.6785538821471268e-05 2.2577672365018599e-05 0 -5.1960848696210495e-05 3.6076852786979784e-05 0 -4.9924533282004085e-05 2.6884618070190377e-05 0 -4.4446180263731711e-05 -3.4210434711635964e-05 0 -5.4380584353984219e-05 -3.8869498582296058e-05 0 -4.9584339055759378e-05 -4.2533996124481919e-05 0 -5.607633571121055e-05 -4.9060367840645599e-05 0 -4.9584339055759378e-05 -4.2533996124481919e-05 0 -5.4380584353984219e-05 -3.8869498582296058e-05 0 -8.3465832241079926e-05 9.3806016781305975e-05 0 -8.2368423916673501e-05 6.904042216827346e-05 0 -6.9593131740663703e-05 7.8364765908312396e-05 0 -5.9533290060902625e-05 5.6804133005117459e-05 0 -6.9593131740663703e-05 7.8364765908312396e-05 0 -8.2368423916673501e-05 6.904042216827346e-05 0 -3.8194311188026525e-06 2.5915431547821413e-07 0 -4.5862983124585983e-06 4.3552119595894329e-08 0 -6.5511586902615798e-06 -2.5303537822346668e-07 0 2.0255087433447115e-06 6.8825616283323994e-05 0 4.3763883377173841e-06 9.8339948873445279e-05 0 -1.9671357359216375e-05 7.2138778059584825e-05 0 -6.2245391266945544e-06 -5.7847709916379234e-07 0 -9.4835402969841112e-06 8.3274502032880022e-08 0 -6.1316686820420643e-06 -1.9390353572488449e-07 0 -5.431320802264391e-06 -5.7197809425102778e-07 0 -4.9028421414958016e-06 -8.3795108091514049e-07 0 -7.7863393789978571e-06 -1.4674906241501086e-06 0 -3.0668672839571275e-05 -1.2118933914076664e-05 0 -3.0158999283392624e-05 -9.5525350648635261e-06 0 -2.6843225626558476e-05 -7.4242781512291998e-06 0 -9.0478687723777547e-06 -1.5890417818024868e-06 0 -8.4976858342876855e-06 -1.2283679651459617e-06 0 -5.4738923417074846e-06 -3.3043681815166372e-07 0 -1.0145443168952922e-05 2.1396693470431983e-07 0 -5.4475270242043854e-06 -7.02460731652023e-07 0 -8.5666047271906597e-06 2.3481013809913885e-07 0 -3.0300076481744381e-05 8.6468444257586599e-06 0 -3.818431167253181e-05 1.2834940282646227e-05 0 -3.0616363553348958e-05 7.6650651445932266e-06 0 -4.0830230488918472e-05 1.2283128500367755e-05 0 -3.0616363553348958e-05 7.6650651445932266e-06 0 -3.818431167253181e-05 1.2834940282646227e-05 0 -4.8028406473832486e-05 0.00026678434321404843 0 -5.154519398492988e-05 0.00023855597515291056 0 -3.0817982553547645e-05 0.00023995875508457375 0 -6.7086850714331459e-05 -0.0001290133759715025 0 -6.3917184725603539e-05 -0.00011599215787590207 0 -7.3335873520676855e-05 -0.00011805950941362061 0 -4.0059553822827629e-05 -4.5226458427138349e-05 0 -3.8977835441801476e-05 -4.4054245972101576e-05 0 -3.8446576344751022e-05 -4.2946211756800651e-05 0 -4.8201945245106649e-05 -4.4800170237454292e-05 0 -4.467653818855224e-05 -4.4747572537546768e-05 0 -4.8080263598672289e-05 -4.2144455101357826e-05 0 -1.7706367706133492e-05 -6.1602828761947823e-06 0 -1.4670567691299695e-05 -4.2632195433095011e-06 0 -1.4418501555013042e-05 -3.9086407477792973e-06 0 -5.1752688567611005e-05 -4.1578202709644312e-05 0 -5.0443702738293756e-05 -4.0027614395552698e-05 0 -4.9614733950974198e-05 -3.7882292723110387e-05 0 -3.0415342402126244e-05 -2.6760334753953186e-05 0 -3.1128477526043817e-05 -2.9398800968990659e-05 0 -3.4097993118439233e-05 -3.4172547192117488e-05 0 -3.7736987418877761e-05 -3.795615840444163e-05 0 -3.6011889032024781e-05 -3.6907921944016218e-05 0 -3.5117472297613653e-05 -3.3682401477832831e-05 0 -4.2879303987649073e-05 -2.4317864663978358e-05 0 -4.5213694239691961e-05 -2.9832785367273099e-05 0 -3.6338821920902829e-05 -2.2720053247703887e-05 0 -4.467653818855224e-05 -4.4747572537546768e-05 0 -4.2755852118949884e-05 -4.3011744524270196e-05 0 -4.4953077064234492e-05 -4.1216919689143431e-05 0 -4.8942807712719699e-05 2.0582878613349482e-05 0 -3.818431167253181e-05 1.2834940282646227e-05 0 -4.1070993739610251e-05 1.8661438607276353e-05 0 -1.2100882970533933e-05 -8.1687641037376244e-07 0 -9.8728848482465061e-06 3.9597006213510316e-07 0 -9.8460325391622778e-06 -6.059509592118047e-07 0 -4.4446180263731711e-05 -3.4210434711635964e-05 0 -4.4033613338669068e-05 -4.3449459100807918e-05 0 -3.875558567525011e-05 -3.3441151715649843e-05 0 -3.6518259232373691e-05 -3.946453157605739e-05 0 -3.875558567525011e-05 -3.3441151715649843e-05 0 -4.4033613338669068e-05 -4.3449459100807918e-05 0 -1.8530755561914819e-05 -6.2627496628755154e-06 0 -1.7706367706133492e-05 -6.1602828761947823e-06 0 -1.4418501555013042e-05 -3.9086407477792973e-06 0 -4.4446180263731711e-05 -3.4210434711635964e-05 0 -3.961628679051257e-05 -2.8870869660445481e-05 0 -4.5213694239691961e-05 -2.9832785367273099e-05 0 -1.5824070100585421e-05 -4.5938702668777808e-06 0 -1.8530755561914819e-05 -6.2627496628755154e-06 0 -1.4418501555013042e-05 -3.9086407477792973e-06 0 -1.0908834761918036e-05 1.2370154212287331e-06 0 -1.0903775414760969e-05 2.8051398638513133e-06 0 -1.4831869328114859e-05 3.1669244147880129e-06 0 -4.4446180263731711e-05 -3.4210434711635964e-05 0 -4.5213694239691961e-05 -2.9832785367273099e-05 0 -5.4380584353984219e-05 -3.8869498582296058e-05 0 -5.9533290060902625e-05 5.6804133005117459e-05 0 -8.2368423916673501e-05 6.904042216827346e-05 0 -6.6590364992512272e-05 4.9512741056751218e-05 0 -4.0408229310135681e-09 -8.0764521600775753e-10 0 -3.01894081969666e-06 -4.9953073383228508e-07 0 -6.1316686820420643e-06 -1.9390353572488449e-07 0 -3.2687681610893809e-09 2.4615617940304608e-10 0 -4.9028421414958016e-06 -8.3795108091514049e-07 0 -2.5485157174711256e-06 -1.8041782276249264e-07 0 -1.5824070100585421e-05 -4.5938702668777808e-06 0 -1.4418501555013042e-05 -3.9086407477792973e-06 0 -1.2710119747818768e-05 -3.1017211742477476e-06 0 -1.8107458670247119e-05 3.5631190252721726e-06 0 -1.4588792106500649e-05 1.6597425966222144e-06 0 -1.4831869328114859e-05 3.1669244147880129e-06 0 -6.371551105255976e-06 -2.6450976098743735e-07 0 -4.5761428508669428e-06 -4.7330553241353529e-07 0 -7.2410469628116656e-06 4.0019286337731379e-07 0 -2.8483109254030737e-05 -2.4924036826226053e-05 0 -3.3638888197910354e-05 -2.9657932095653564e-05 0 -2.9884762071057003e-05 -3.4851184963323197e-05 0 -5.1027605397205038e-06 7.8584699618982132e-07 0 -4.6984774788124222e-06 7.5604301940647357e-07 0 -5.7660512522058327e-06 1.3071811257461613e-06 0 -9.5237194166451549e-05 0.00026922644879578603 0 -0.0001088127714153423 0.00024273933545717862 0 -8.5612906852968349e-05 0.00024462855432915353 0 -4.822866995710867e-05 -0.00012837695741740768 0 -4.1385113356051343e-05 -0.00011474768208063361 0 -5.0417956259081544e-05 -0.00011721397622877949 0 -1.0963602384886858e-05 -2.2105795310075776e-06 0 -9.0478687723777547e-06 -1.5890417818024868e-06 0 -1.2710119747818768e-05 -3.1017211742477476e-06 0 -1.0908834761918036e-05 1.2370154212287331e-06 0 -1.4588792106500649e-05 1.6597425966222144e-06 0 -1.0145443168952922e-05 2.1396693470431983e-07 0 -3.9277150926629335e-06 5.2422278481480764e-07 0 -5.542559323308702e-06 5.3578886369630837e-07 0 -5.4279145466339053e-06 8.0668007402083878e-07 0 -3.3638888197910354e-05 -2.9657932095653564e-05 0 -3.6518259232373691e-05 -3.946453157605739e-05 0 -2.9884762071057003e-05 -3.4851184963323197e-05 0 -0.00013714291469176315 0.00018917095468069743 0 -0.00013345404034052931 0.00016202002538156301 0 -0.00010998453723796307 0.00017444081258816593 0 -2.2708127214514601e-05 -7.2699087655496336e-05 0 -3.4030268522914724e-05 -8.154925753195926e-05 0 -2.4393825303789405e-05 -8.5122490487234422e-05 0 -6.071677602065114e-05 -8.5059217115332847e-05 0 -5.1421866618948811e-05 -7.3550595238651187e-05 0 -5.9203153485354514e-05 -7.4274255564627268e-05 0 -2.2030529017737071e-05 -4.8362147940064295e-06 0 -2.5647484215554165e-05 -9.6586978764660679e-06 0 -2.6843225626558476e-05 -7.4242781512291998e-06 0 -2.5433822289072271e-05 5.5810567673014169e-06 0 -1.9589420385655274e-05 4.3041721265361025e-06 0 -1.88599951729334e-05 3.1924052539761716e-06 0 -1.8710851728500925e-05 -6.3410117812998821e-06 0 -1.4315439107765187e-05 -4.4366661715868045e-06 0 -1.4449037242418132e-05 -5.1648248159940389e-06 0 -1.2139516196993133e-05 7.904855810370349e-06 0 -1.10688149551495e-05 4.7456378415990711e-06 0 -9.3555987796704839e-06 5.0970646969845679e-06 0 -3.9277150926629335e-06 5.2422278481480764e-07 0 -3.9412171927402273e-06 4.569579009563887e-07 0 -5.542559323308702e-06 5.3578886369630837e-07 0 -3.6550650219794464e-05 -1.7699536415493168e-05 0 -4.0148389440012488e-05 -2.2608101263925089e-05 0 -3.7298547558270034e-05 -1.9572410794946601e-05 0 -2.5433822289072271e-05 5.5810567673014169e-06 0 -2.7019040189239625e-05 7.0357326522235605e-06 0 -1.9589420385655277e-05 4.3041721265361034e-06 0 -1.8710851728500925e-05 -6.3410117812998821e-06 0 -1.444903724241813e-05 -5.1648248159940389e-06 0 -1.9452817497346533e-05 -7.3528314088316472e-06 0 -1.5903478609377038e-05 2.32409061270721e-06 0 -1.4496561076584659e-05 7.4770157008434535e-07 0 -1.7900174458723202e-05 -1.1558345124222309e-06 0 -5.5842259049784389e-05 -0.00011064650696068713 0 -5.5222900356121561e-05 -9.6499360508817039e-05 0 -6.1271856315298594e-05 -0.00010438878920156363 0 -6.9063269547857206e-05 0.000228915504540365 0 -6.4161347812211674e-05 0.0001971392129408591 0 -5.3263245484705278e-05 0.00021365770266512779 0 -4.2879303987649073e-05 -2.4317864663978358e-05 0 -3.6338821920902829e-05 -2.2720053247703887e-05 0 -3.5707718889130193e-05 -1.8582864982941233e-05 0 -3.0215986756220538e-05 -1.6555017332172017e-05 0 -3.5707718889130186e-05 -1.8582864982941233e-05 0 -3.6338821920902829e-05 -2.2720053247703887e-05 0 -1.908839217198798e-05 -8.6341378070594995e-06 0 -2.1460944689071332e-05 -1.1215821660195846e-05 0 -2.215883907450997e-05 -1.2890396255061101e-05 0 -2.4858654323978044e-05 -1.5775569117941356e-05 0 -2.215883907450997e-05 -1.2890396255061101e-05 0 -2.1460944689071332e-05 -1.1215821660195846e-05 0 -2.6242957438215639e-06 -7.1469907916638899e-07 0 -4.5761428508669428e-06 -4.7330553241353529e-07 0 -5.4475270242043854e-06 -7.02460731652023e-07 0 -6.371551105255976e-06 -2.6450976098743735e-07 0 -5.4475270242043854e-06 -7.02460731652023e-07 0 -4.5761428508669428e-06 -4.7330553241353529e-07 0 -6.757049849069675e-06 -5.6322899465054004e-07 0 -4.5862983124585983e-06 4.3552119595894329e-08 0 -5.4738923417074846e-06 -3.3043681815166372e-07 0 -2.5923360943834988e-06 1.673207760246084e-07 0 -5.4738923417074846e-06 -3.3043681815166372e-07 0 -4.5862983124585983e-06 4.3552119595894329e-08 0 -4.3734144532498862e-05 -3.1584000638440623e-05 0 -4.3549224176130241e-05 -3.4509031854439589e-05 0 -4.1243547717368792e-05 -3.1529654646993409e-05 0 -2.2030529017737071e-05 -4.8362147940064295e-06 0 -2.0752059906617465e-05 -4.4931832513388977e-07 0 -1.7900174458723202e-05 -1.1558345124222309e-06 0 -8.3888255327260901e-06 3.697748840055085e-06 0 -8.0778515082586695e-06 3.426008073694929e-06 0 -7.0618865898760028e-06 2.3242525458594984e-06 0 -4.1734532112286461e-05 0.00017149490174373061 0 -4.3863774796321553e-05 0.00019695279234174118 0 -6.4161347812211674e-05 0.0001971392129408591 0 -6.071677602065114e-05 -8.5059217115332847e-05 0 -6.3641112142921478e-05 -9.646118341410706e-05 0 -5.5222900356121561e-05 -9.6499360508817039e-05 0 -4.1734532112286461e-05 0.00017149490174373061 0 -6.1549994887499955e-05 0.00015102112012946089 0 -4.1934783127640104e-05 0.00014631759165698336 0 -1.2139516196993133e-05 7.904855810370349e-06 0 -1.4907626935049874e-05 7.3685399593649785e-06 0 -1.10688149551495e-05 4.7456378415990711e-06 0 -1.2139516196993133e-05 7.904855810370349e-06 0 -1.5960401029624594e-05 1.214709462189392e-05 0 -1.4907626935049874e-05 7.3685399593649785e-06 0 -6.2536715620377625e-05 0.00011030098404847157 0 -5.2638862861194936e-05 0.00012988469214892515 0 -7.4967663431342824e-05 0.0001389307882914746 0 -6.1549994887499955e-05 0.00015102112012946089 0 -7.4967663431342824e-05 0.0001389307882914746 0 -5.2638862861194936e-05 0.00012988469214892515 0 -9.625569609363505e-06 1.2995164707458841e-06 0 -6.1316686820420651e-06 -1.9390353572488441e-07 0 -1.083345075082338e-05 7.4844629918998963e-07 0 -7.3138481373513719e-06 -2.2364577609593192e-06 0 -8.4916490790390948e-06 -2.0566736665168219e-06 0 -4.9028421414958016e-06 -8.3795108091514049e-07 0 -3.6518259232373691e-05 -3.946453157605739e-05 0 -4.0869329668534846e-05 -5.003982746996474e-05 0 -3.3403300701690021e-05 -4.9491845497118401e-05 0 -5.1752688567611005e-05 -4.1578202709644312e-05 0 -5.2793113617464064e-05 -4.444768092162047e-05 0 -5.0443702738293756e-05 -4.0027614395552698e-05 0 -3.0415342402126244e-05 -2.6760334753953186e-05 0 -3.4097993118439233e-05 -3.4172547192117488e-05 0 -3.2593031420248901e-05 -2.9423203448142616e-05 0 -1.4988527556078351e-05 -1.431213514898781e-06 0 -1.7900174458723202e-05 -1.1558345124222309e-06 0 -1.4496561076584659e-05 7.4770157008434535e-07 0 -8.3888255327260901e-06 3.697748840055085e-06 0 -9.9459935586430063e-06 6.1353609769884837e-06 0 -9.3555987796704839e-06 5.0970646969845679e-06 0 -4.1762074141412672e-05 -4.076975365779063e-05 0 -4.0036798837292777e-05 -3.8049888501251049e-05 0 -4.3420571717060535e-05 -3.8592789116561956e-05 0 -4.1394877349915541e-05 -3.6385173991318672e-05 0 -4.3420571717060535e-05 -3.8592789116561956e-05 0 -4.0036798837292777e-05 -3.8049888501251049e-05 0 -3.5614073468067996e-05 -2.5718959687412641e-05 0 -3.6302304586803545e-05 -3.0776368211253478e-05 0 -3.2250314236883081e-05 -2.5557641450793397e-05 0 -9.5237194166451549e-05 0.00026922644879578603 0 -0.00011829477120195766 0.00026675637805849233 0 -0.0001088127714153423 0.00024273933545717862 0 -4.822866995710867e-05 -0.00012837695741740768 0 -3.9651791486604769e-05 -0.00012513602118197079 0 -4.1385113356051343e-05 -0.00011474768208063361 0 -4.9641723132535786e-05 -4.0777958987304233e-05 0 -5.1922566588553712e-05 -4.3764957048004889e-05 0 -4.8080263598672289e-05 -4.2144455101357826e-05 0 -3.6640209671090441e-05 -3.9042913841233049e-05 0 -3.8446576344751022e-05 -4.2946211756800651e-05 0 -3.68683469246798e-05 -3.8930222274560955e-05 0 -4.8028406473832486e-05 0.00026678434321404843 0 -6.9403852244729486e-05 0.00025702933160320825 0 -5.154519398492988e-05 0.00023855597515291056 0 -6.7086850714331459e-05 -0.0001290133759715025 0 -5.7530903679064569e-05 -0.00012373915194662706 0 -6.3917184725603539e-05 -0.00011599215787590207 0 -3.9277150926629335e-06 5.2422278481480764e-07 0 -5.4279145466339053e-06 8.0668007402083878e-07 0 -4.6984774788124222e-06 7.5604301940647346e-07 0 -6.412805135160691e-06 1.3454024664736165e-06 0 -4.6984774788124222e-06 7.5604301940647346e-07 0 -5.4279145466339053e-06 8.0668007402083878e-07 0 -3.5153931216374506e-05 0.00021283764250765191 0 -5.154519398492988e-05 0.00023855597515291056 0 -5.3263245484705278e-05 0.00021365770266512779 0 -6.9203715085530267e-05 -0.00010507413064939757 0 -6.3917184725603539e-05 -0.00011599215787590207 0 -6.1271856315298594e-05 -0.00010438878920156363 0 -6.2245391266945544e-06 -5.7847709916379234e-07 0 -6.1316686820420643e-06 -1.9390353572488441e-07 0 -3.01894081969666e-06 -4.9953073383228508e-07 0 -5.431320802264391e-06 -5.7197809425102778e-07 0 -2.5485157174711256e-06 -1.8041782276249264e-07 0 -4.9028421414958016e-06 -8.3795108091514049e-07 0 -3.7118139986140937e-05 7.1566332272982334e-05 0 -2.4990299752807976e-05 9.7773772546371642e-05 0 -4.4259977321113487e-05 0.0001029314042495581 0 -9.625569609363505e-06 1.2995164707458841e-06 0 -4.6741645027193718e-06 2.6003654584747706e-07 0 -6.1316686820420643e-06 -1.9390353572488449e-07 0 -7.3138481373513719e-06 -2.2364577609593192e-06 0 -4.9028421414958016e-06 -8.3795108091514049e-07 0 -3.5882487017884083e-06 -9.0728616992891763e-07 0 -0.00014023024391359955 0.00024218113743941882 0 -0.0001211755880303189 0.00022355591855952519 0 -0.0001088127714153423 0.00024273933545717862 0 -2.888056395896801e-05 -0.00011014759121858192 0 -3.4736603844561017e-05 -0.0001040441544822627 0 -4.1385113356051343e-05 -0.00011474768208063361 0 -2.9123622280510787e-05 3.4954750527708264e-05 0 -4.3830581039217905e-05 3.7981053572076213e-05 0 -3.0883472008930851e-05 2.6583417634528342e-05 0 -3.6785538821471268e-05 2.2577672365018599e-05 0 -3.0883472008930851e-05 2.6583417634528342e-05 0 -4.3830581039217905e-05 3.7981053572076213e-05 0 -4.7807006840696451e-05 -5.8113678557772306e-05 0 -4.4033613338669068e-05 -4.3449459100807918e-05 0 -5.0570348689865324e-05 -4.9869046819471009e-05 0 -2.7525403136578195e-05 -7.7437863979275087e-06 0 -2.8209490659664402e-05 -1.5795173561731685e-05 0 -2.4455649730894587e-05 -1.054128055554219e-05 0 -6.2536715620377625e-05 0.00011030098404847157 0 -7.0594840132861183e-05 9.5217897727672615e-05 0 -5.6491884738549639e-05 8.0875314893943102e-05 0 -5.9533290060902625e-05 5.6804133005117459e-05 0 -5.6491884738549639e-05 8.0875314893943102e-05 0 -6.9593131740663703e-05 7.8364765908312396e-05 0 -4.4446180263731711e-05 -3.4210434711635964e-05 0 -4.9584339055759378e-05 -4.2533996124481919e-05 0 -4.4033613338669068e-05 -4.3449459100807918e-05 0 -3.6518259232373691e-05 -3.946453157605739e-05 0 -3.3403300701690021e-05 -4.9491845497118401e-05 0 -2.9884762071057003e-05 -3.4851184963323197e-05 0 -4.7971018242034821e-05 -3.6796910249034152e-05 0 -4.9614733950974198e-05 -3.7882292723110387e-05 0 -5.0443702738293756e-05 -4.0027614395552698e-05 0 -3.3867477528122167e-05 -3.3419440064349462e-05 0 -3.4097993118439233e-05 -3.4172547192117488e-05 0 -3.1128477526043817e-05 -2.9398800968990659e-05 0 -2.5627018070272624e-05 -3.901502125686044e-06 0 -3.0158999283392624e-05 -9.5525350648635261e-06 0 -2.8196125983807092e-05 -6.3898842656365558e-06 0 -3.0668672839571275e-05 -1.2118933914076664e-05 0 -3.3847421729913039e-05 -1.4154204340368274e-05 0 -3.0158999283392624e-05 -9.5525350648635261e-06 0 -1.5110020446694313e-05 7.9823765616759391e-06 0 -1.3683643249236072e-05 5.5032920890443488e-06 0 -1.8198420773188774e-05 4.0093579132228385e-06 0 -2.8483109254030737e-05 -2.4924036826226053e-05 0 -2.495118348910385e-05 -1.8145380764482535e-05 0 -2.8766526709220986e-05 -2.1457120637137972e-05 0 -4.8028406473832486e-05 0.00026678434321404843 0 -3.0817982553547645e-05 0.00023995875508457375 0 -2.6211833903153683e-05 0.00026142083586022018 0 -6.7086850714331459e-05 -0.0001290133759715025 0 -7.3335873520676855e-05 -0.00011805950941362061 0 -7.6940050686314567e-05 -0.00012838505442757287 0 -1.5903478609377038e-05 2.32409061270721e-06 0 -1.8198420773188774e-05 4.0093579132228385e-06 0 -1.3683643249236072e-05 5.5032920890443488e-06 0 -2.8336549671709544e-05 -2.3503088626572896e-05 0 -3.2250314236883081e-05 -2.5557641450793397e-05 0 -3.033600135829896e-05 -2.6913211841288192e-05 0 -4.1394877349915541e-05 -3.6385173991318672e-05 0 -4.0036798837292777e-05 -3.8049888501251049e-05 0 -3.9255220683068793e-05 -3.4172200050686937e-05 0 -1.1130847451867111e-05 5.3147119515445388e-06 0 -1.2238251098025246e-05 3.0406182488295009e-06 0 -1.3683643249236072e-05 5.5032920890443488e-06 0 -3.2726102336301641e-06 -3.0671144486311479e-07 0 -4.5468429468176688e-06 1.3019652832551542e-07 0 -4.5761428508669428e-06 -4.7330553241353529e-07 0 -7.3055282603490723e-05 -5.6775979779570184e-05 0 -7.7593160239473668e-05 -6.8268100585862086e-05 0 -6.5035381880709214e-05 -5.9756723048142635e-05 0 -1.0908834761918036e-05 1.2370154212287331e-06 0 -8.5666047271906597e-06 2.3481013809913885e-07 0 -7.2410469628116656e-06 4.0019286337731379e-07 0 -7.0618865898760028e-06 2.3242525458594984e-06 0 -8.0778515082586695e-06 3.426008073694929e-06 0 -6.5615876140879772e-06 1.7640807474804359e-06 0 -1.5903478609377038e-05 2.32409061270721e-06 0 -2.0752059906617465e-05 -4.4931832513388977e-07 0 -1.8198420773188774e-05 4.0093579132228385e-06 0 -0.00012787547633238413 0.00013499308182259584 0 -0.00012042751585129456 0.00010935672582314459 0 -0.00010129974118234825 0.00011751761891921757 0 -2.8495925396819055e-06 3.8386668723607116e-07 0 -2.2854790848637211e-06 2.963736536258212e-07 0 -1.1735532582373371e-06 2.0349879242425387e-07 0 -8.4573733586438999e-06 2.6376533913779361e-06 0 -9.3555987796704839e-06 5.0970646969845679e-06 0 -1.10688149551495e-05 4.7456378415990711e-06 0 -3.8910944700789918e-05 -2.379328725552638e-05 0 -4.0420461174755139e-05 -2.4098199916095443e-05 0 -4.1864616499264017e-05 -2.7765963759845214e-05 0 -6.071677602065114e-05 -8.5059217115332847e-05 0 -6.8589774340900079e-05 -7.9639653288506978e-05 0 -7.1842867990607782e-05 -9.2893950859049287e-05 0 -1.0908834761918036e-05 1.2370154212287331e-06 0 -7.2410469628116656e-06 4.0019286337731379e-07 0 -8.7649443712742496e-06 1.5003078029437029e-06 0 -3.9277150926629335e-06 5.2422278481480764e-07 0 -2.7628062760384379e-06 2.5879344281753926e-07 0 -2.2854790848637211e-06 2.963736536258212e-07 0 -1.3557808981579934e-05 4.6148072977806882e-06 0 -1.10688149551495e-05 4.7456378415990711e-06 0 -1.4907626935049874e-05 7.3685399593649785e-06 0 -4.0148389440012488e-05 -2.2608101263925089e-05 0 -4.0420461174755139e-05 -2.4098199916095443e-05 0 -3.7298547558270034e-05 -1.9572410794946601e-05 0 -4.7971018242034821e-05 -3.6796910249034152e-05 0 -4.7749427411771326e-05 -3.8081802218062992e-05 0 -4.5527341247963616e-05 -3.4526642356888954e-05 0 -3.0300076481744381e-05 8.6468444257586599e-06 0 -2.399939807919403e-05 5.6329183026913817e-06 0 -2.7848693978157802e-05 9.156326944744449e-06 0 -2.818124669550478e-06 0.00023034905761879179 0 -3.0817982553547645e-05 0.00023995875508457375 0 -1.7992608499369439e-05 0.00021877214951828366 0 -8.6219282200031378e-05 -0.00011714616500692435 0 -7.3335873520676855e-05 -0.00011805950941362061 0 -7.7762076962557697e-05 -0.0001094704900640093 0 -5.7660512522058327e-06 1.3071811257461613e-06 0 -6.5615876140879772e-06 1.7640807474804359e-06 0 -5.1027605397205038e-06 7.8584699618982132e-07 0 -7.0618865898760028e-06 2.3242525458594984e-06 0 -6.5615876140879772e-06 1.7640807474804359e-06 0 -5.7660512522058327e-06 1.3071811257461613e-06 0 -0.00010287431047288947 0.00021354150598757398 0 -0.0001088127714153423 0.00024273933545717862 0 -0.0001211755880303189 0.00022355591855952519 0 -4.1086839554517011e-05 -0.00010110951676102894 0 -4.1385113356051343e-05 -0.00011474768208063361 0 -3.4736603844561017e-05 -0.0001040441544822627 0 -6.412805135160691e-06 1.3454024664736165e-06 0 -8.3751545943031032e-06 1.1869461148569299e-06 0 -8.1279876160615928e-06 2.3714132593395096e-06 0 -1.010691234903793e-05 1.7963077929491542e-06 0 -8.1279876160615928e-06 2.3714132593395096e-06 0 -8.3751545943031032e-06 1.1869461148569299e-06 0 -6.412805135160691e-06 1.3454024664736165e-06 0 -5.7660512522058327e-06 1.3071811257461613e-06 0 -4.6984774788124222e-06 7.5604301940647346e-07 0 -1.8710851728500925e-05 -6.3410117812998821e-06 0 -1.9295097517746984e-05 -6.3335842209903634e-06 0 -1.4977065647563288e-05 -4.3224787159634988e-06 0 -2.0833633955636995e-05 -9.2667408817955148e-06 0 -2.5130535737398791e-05 -1.3760325624354058e-05 0 -2.1460944689071332e-05 -1.1215821660195846e-05 0 -2.4858654323978044e-05 -1.5775569117941356e-05 0 -2.1460944689071332e-05 -1.1215821660195847e-05 0 -2.5130535737398791e-05 -1.3760325624354058e-05 0 -1.8710851728500925e-05 -6.3410117812998821e-06 0 -1.4977065647563288e-05 -4.3224787159634988e-06 0 -1.4315439107765187e-05 -4.4366661715868045e-06 0 -3.7118139986140937e-05 7.1566332272982334e-05 0 -1.9671357359216375e-05 7.2138778059584825e-05 0 -2.4990299752807976e-05 9.7773772546371642e-05 0 -6.9063269547857206e-05 0.000228915504540365 0 -6.9403852244729486e-05 0.00025702933160320825 0 -8.5612906852968349e-05 0.00024462855432915353 0 -5.5842259049784389e-05 -0.00011064650696068713 0 -5.7530903679064569e-05 -0.00012373915194662706 0 -5.0417956259081544e-05 -0.00011721397622877949 0 -1.2428573873959811e-05 -2.1129174034225939e-06 0 -9.6938011744582343e-06 -1.1190803128180805e-06 0 -1.2335866450383646e-05 -2.6590876409671106e-06 0 -1.7187824481325276e-09 1.1608501800868592e-10 0 -1.1735532582373371e-06 2.0349879242425387e-07 0 -2.2854790848637211e-06 2.963736536258212e-07 0 -1.2139516196993133e-05 7.904855810370349e-06 0 -1.2260332695710135e-05 1.1885345786377031e-05 0 -1.5960401029624594e-05 1.214709462189392e-05 0 -3.3498814710811669e-05 -3.0045441995093575e-05 0 -3.2250314236883081e-05 -2.5557641450793397e-05 0 -3.6302304586803545e-05 -3.0776368211253478e-05 0 -3.5614073468067996e-05 -2.5718959687412641e-05 0 -3.6860865009907374e-05 -2.3829724101579131e-05 0 -3.8128545376570739e-05 -2.8047626743261196e-05 0 -5.542559323308702e-06 5.3578886369630837e-07 0 -7.3623687578976051e-06 1.1308363406479648e-07 0 -6.8191474605275451e-06 7.070971943207364e-07 0 -5.607633571121055e-05 -4.9060367840645599e-05 0 -6.5035381880709214e-05 -5.9756723048142635e-05 0 -5.4766068066289879e-05 -5.8284658510912764e-05 0 -6.2483463152824271e-05 -6.745705286941825e-05 0 -5.4766068066289879e-05 -5.8284658510912764e-05 0 -6.5035381880709214e-05 -5.9756723048142635e-05 0 -1.7164944230295421e-09 -6.5268874824224302e-11 0 -1.7187824481326078e-09 1.1608501800869078e-10 0 -1.4715624205185812e-06 8.9015879554606038e-08 0 -9.2024174743862851e-05 0.00013502943527764544 0 -0.00010129974118234825 0.00011751761891921757 0 -8.0629543469313704e-05 0.00011466008077936233 0 -8.3465832241079926e-05 9.3806016781305975e-05 0 -8.0629543469313704e-05 0.00011466008077936233 0 -0.00010129974118234825 0.00011751761891921757 0 -4.9641723132535786e-05 -4.0777958987304233e-05 0 -4.7749427411771326e-05 -3.8081802218062992e-05 0 -5.0443702738293756e-05 -4.0027614395552698e-05 0 -3.6640209671090441e-05 -3.9042913841233049e-05 0 -3.4097993118439233e-05 -3.4172547192117488e-05 0 -3.6011889032024781e-05 -3.6907921944016218e-05 0 -2.0299821933649563e-05 1.0863393050723292e-05 0 -1.4907626935049874e-05 7.3685399593649785e-06 0 -1.5960401029624594e-05 1.214709462189392e-05 0 -4.5312803549537072e-05 -3.7313354554652971e-05 0 -4.3206246786219809e-05 -3.6362144740885457e-05 0 -4.3549224176130248e-05 -3.4509031854439589e-05 0 -1.3414644656990117e-05 1.4675881137290555e-05 0 -1.433174537273475e-05 1.8763297671231939e-05 0 -1.1911902413345802e-05 1.8754827897657456e-05 0 -1.0908834761918036e-05 1.2370154212287331e-06 0 -8.7649443712742496e-06 1.5003078029437029e-06 0 -1.0903775414760969e-05 2.8051398638513133e-06 0 -3.6785538821471268e-05 2.2577672365018599e-05 0 -2.3597017018170078e-05 1.7678009385925718e-05 0 -3.0883472008930851e-05 2.6583417634528342e-05 0 4.3763883377173841e-06 9.8339948873445279e-05 0 -1.2256794759537613e-05 0.00011766571871783785 0 -2.4990299752807976e-05 9.7773772546371642e-05 0 -1.2428573873959811e-05 -2.1129174034225939e-06 0 -9.8460325391622778e-06 -6.059509592118048e-07 0 -9.6938011744582343e-06 -1.1190803128180805e-06 0 -6.9063269547857206e-05 0.000228915504540365 0 -5.154519398492988e-05 0.00023855597515291056 0 -6.9403852244729486e-05 0.00025702933160320825 0 -5.5842259049784389e-05 -0.00011064650696068713 0 -6.3917184725603539e-05 -0.00011599215787590207 0 -5.7530903679064569e-05 -0.00012373915194662706 0 -6.7817116267672503e-06 -6.1597646845570194e-08 0 -8.2961335691372975e-06 -7.5656269143595247e-07 0 -9.6938011744582343e-06 -1.1190803128180805e-06 0 -2.358851528662316e-05 -1.1459046941870734e-05 0 -2.8151612099238959e-05 -1.4343817560699527e-05 0 -2.5647484215554165e-05 -9.6586978764660679e-06 0 -3.5153931216374506e-05 0.00021283764250765191 0 -1.7992608499369439e-05 0.00021877214951828366 0 -3.0817982553547645e-05 0.00023995875508457375 0 -6.9203715085530267e-05 -0.00010507413064939757 0 -7.7762076962557684e-05 -0.0001094704900640093 0 -7.3335873520676855e-05 -0.00011805950941362061 0 -3.4894764877283873e-05 -1.4639559747193784e-05 0 -4.1323883921252521e-05 -1.8361100479173327e-05 0 -3.4515839598533856e-05 -1.4508209471084237e-05 0 -6.2847100240914829e-05 2.496803534274881e-05 0 -5.1680226344156918e-05 1.7962085130899182e-05 0 -5.0222867655515687e-05 1.8093558443923965e-05 0 -2.9123622280510787e-05 3.4954750527708264e-05 0 -3.3497579417793613e-05 5.0489212168842171e-05 0 -4.4434018994706261e-05 5.4166191446523683e-05 0 -1.5824070100585421e-05 -4.5938702668777808e-06 0 -1.9827958373713409e-05 -6.7412053071856169e-06 0 -1.8530755561914819e-05 -6.2627496628755154e-06 0 -5.3877852665412505e-05 -4.8909261117451475e-05 0 -5.1782861449260097e-05 -4.5554390000841773e-05 0 -5.1922566588553712e-05 -4.3764957048004889e-05 0 -5.3877852665412505e-05 -4.8909261117451475e-05 0 -5.1922566588553712e-05 -4.3764957048004889e-05 0 -5.3573033708314552e-05 -4.6932390127425195e-05 0 -3.5657232219997559e-05 -3.4814480662209567e-05 0 -3.4507123362380437e-05 -3.1967185655339003e-05 0 -3.68683469246798e-05 -3.8930222274560955e-05 0 -3.5657232219997559e-05 -3.4814480662209567e-05 0 -3.68683469246798e-05 -3.8930222274560955e-05 0 -3.8039989058647299e-05 -4.150963868613947e-05 0 -4.9641723132535786e-05 -4.0777958987304233e-05 0 -4.6618078154051935e-05 -3.9502375602902298e-05 0 -4.7749427411771326e-05 -3.8081802218062992e-05 0 -3.6640209671090441e-05 -3.9042913841233049e-05 0 -3.6011889032024781e-05 -3.6907921944016218e-05 0 -3.8004242036343093e-05 -4.045138752474026e-05 0 -2.4928856096033029e-05 -2.0553234568520293e-05 0 -2.8866295901012973e-05 -2.6169902166028507e-05 0 -2.7745958405255263e-05 -2.3768462029421236e-05 0 -4.8493835214913193e-05 -3.4398985741158572e-05 0 -5.0297388891544743e-05 -3.8335782876790113e-05 0 -4.7041023335825791e-05 -3.3927470348312912e-05 0 -9.9629844702260315e-06 2.4932205756530661e-06 0 -1.8994080543782823e-05 -5.1361565512768236e-06 0 -1.4322662233184654e-05 -7.1379293095858497e-06 0 -4.8028406473832486e-05 0.00026678434321404843 0 -3.2566991572090583e-05 0.00028361819767915741 0 -5.2889058920364743e-05 0.00029135729694656489 0 -9.5237194166451549e-05 0.00026922644879578603 0 -9.19645459876538e-05 0.00029305806881183612 0 -0.00011390981035548936 0.00028844569518203154 0 -6.7086850714331459e-05 -0.0001290133759715025 0 -7.5012169695380041e-05 -0.00013767463260767968 0 -6.5839473062776551e-05 -0.00013970546617419154 0 -4.822866995710867e-05 -0.00012837695741740768 0 -5.0392805618342952e-05 -0.00013906327571541586 0 -4.2539355327325086e-05 -0.00013544912179729851 0 -8.3599175638577518e-06 2.6960787264084443e-07 0 -6.8191474605275451e-06 7.070971943207364e-07 0 -7.3623687578976051e-06 1.1308363406479648e-07 0 -4.8028406473832486e-05 0.00026678434321404843 0 -2.621183390315368e-05 0.00026142083586022018 0 -3.2566991572090583e-05 0.00028361819767915741 0 -6.7086850714331459e-05 -0.0001290133759715025 0 -7.6940050686314567e-05 -0.00012838505442757287 0 -7.5012169695380041e-05 -0.00013767463260767968 0 -2.5627018070272624e-05 -3.901502125686044e-06 0 -2.327363017238725e-05 1.5767698260391385e-07 0 -2.0752059906617465e-05 -4.4931832513388977e-07 0 -9.5237194166451549e-05 0.00026922644879578603 0 -0.00011390981035548936 0.00028844569518203154 0 -0.00011829477120195766 0.00026675637805849233 0 -4.822866995710867e-05 -0.00012837695741740768 0 -4.2539355327325086e-05 -0.00013544912179729851 0 -3.9651791486604769e-05 -0.00012513602118197079 0 -3.6073648418770742e-05 -6.3944073907519613e-05 0 -2.8228378747221907e-05 -5.5888421299122261e-05 0 -3.3403300701690021e-05 -4.9491845497118401e-05 0 -3.6550650219794464e-05 -1.7699536415493168e-05 0 -3.7298547558270034e-05 -1.9572410794946601e-05 0 -3.3847421729913039e-05 -1.4154204340368274e-05 0 -3.4740350906876415e-05 -1.635169451551746e-05 0 -3.3847421729913039e-05 -1.4154204340368274e-05 0 -3.7298547558270034e-05 -1.9572410794946601e-05 0 -1.3557808981579934e-05 4.6148072977806882e-06 0 -1.4831869328114859e-05 3.1669244147880129e-06 0 -1.0903775414760969e-05 2.8051398638513133e-06 0 -6.2536715620377625e-05 0.00011030098404847157 0 -4.4259977321113487e-05 0.0001029314042495581 0 -5.2638862861194936e-05 0.00012988469214892515 0 -7.7593160239473668e-05 -6.8268100585862086e-05 0 -7.063045204453709e-05 -7.071656289317141e-05 0 -6.5035381880709214e-05 -5.9756723048142635e-05 0 -1.6202455671048723e-05 1.7743680055526706e-05 0 -2.3597017018170078e-05 1.7678009385925718e-05 0 -1.5960401029624594e-05 1.214709462189392e-05 0 -2.0299821933649563e-05 1.0863393050723292e-05 0 -1.5960401029624594e-05 1.214709462189392e-05 0 -2.3597017018170078e-05 1.7678009385925718e-05 0 -8.3888255327260901e-06 3.697748840055085e-06 0 -9.5046529013120901e-06 3.8290780003601992e-06 0 -9.9459935586430063e-06 6.1353609769884837e-06 0 -3.8922108578190334e-05 -3.1370956434472575e-05 0 -3.9255220683068793e-05 -3.4172200050686937e-05 0 -3.6302304586803545e-05 -3.0776368211253478e-05 0 -3.7708977306176564e-05 -3.5173490060677988e-05 0 -3.6302304586803545e-05 -3.0776368211253478e-05 0 -3.9255220683068793e-05 -3.4172200050686937e-05 0 -9.9883610737066042e-05 6.4880513037368653e-05 0 -8.7723422000331191e-05 4.7780677812323643e-05 0 -7.8448971373178594e-05 5.1209072304049701e-05 0 -5.4845837841016192e-05 -2.9330510467929759e-05 0 -6.1449362792805807e-05 -3.7036534674231907e-05 0 -5.108673146972838e-05 -3.0411396216915736e-05 0 -2.4274161616927516e-09 -3.6096995257744193e-10 0 -2.0878974007435293e-09 -2.8065531767349029e-10 0 -1.9680748913851289e-06 -4.7986625051688864e-07 0 -2.1711246775357922e-09 1.9568466239629332e-10 0 -2.4045437293475335e-09 1.760367729056278e-10 0 -2.1255855133127206e-06 2.5509882261420716e-07 0 -1.2139516196993133e-05 7.904855810370349e-06 0 -9.3555987796704822e-06 5.0970646969845679e-06 0 -1.0618862096372255e-05 7.7764511485685914e-06 0 -1.1130847451867111e-05 5.3147119515445388e-06 0 -9.9459935586430063e-06 6.1353609769884837e-06 0 -9.5046529013120901e-06 3.8290780003601992e-06 0 -8.3888255327260901e-06 3.697748840055085e-06 0 -9.3555987796704822e-06 5.0970646969845671e-06 0 -8.0778515082586695e-06 3.426008073694929e-06 0 -1.4096236769260836e-05 1.3446748257491823e-06 0 -1.88599951729334e-05 3.1924052539761716e-06 0 -1.46529805555319e-05 2.2183568073283866e-06 0 -1.1206202380595745e-05 -2.7932979061089105e-06 0 -1.1066993729077218e-05 -3.4058225750369161e-06 0 -1.4315439107765187e-05 -4.4366661715868045e-06 0 -3.0521093816136142e-05 0.00012737508506634993 0 -2.4990299752807976e-05 9.7773772546371642e-05 0 -1.2256794759537613e-05 0.00011766571871783785 0 -1.4096236769260836e-05 1.3446748257491823e-06 0 -1.46529805555319e-05 2.2183568073283861e-06 0 -1.083345075082338e-05 7.4844629918998963e-07 0 -1.1206202380595745e-05 -2.7932979061089105e-06 0 -8.4916490790390948e-06 -2.0566736665168219e-06 0 -1.1066993729077218e-05 -3.4058225750369161e-06 0 -4.3734144532498862e-05 -3.1584000638440623e-05 0 -4.5527341247963616e-05 -3.4526642356888954e-05 0 -4.3549224176130248e-05 -3.4509031854439589e-05 0 -3.7118139986140937e-05 7.1566332272982334e-05 0 -2.3690823097474105e-05 4.5675206105451728e-05 0 -1.9671357359216375e-05 7.2138778059584825e-05 0 -8.4573733586438999e-06 2.6376533913779361e-06 0 -8.0778515082586695e-06 3.426008073694929e-06 0 -9.3555987796704839e-06 5.0970646969845679e-06 0 -3.3498814710811669e-05 -3.0045441995093575e-05 0 -3.033600135829896e-05 -2.6913211841288192e-05 0 -3.2250314236883081e-05 -2.5557641450793397e-05 0 -3.6805084103307969e-09 -2.9171487080723677e-10 0 -2.9530363361596843e-09 -5.1107899374949433e-10 0 -2.8678717275585637e-06 -7.0742386843712159e-07 0 -2.724413491379024e-09 1.6420236142311358e-10 0 -3.1555621655946352e-09 -4.3851380063336868e-11 0 -2.608788151247729e-06 1.415849742742003e-08 0 -2.2977749931627879e-05 -9.3905144073959993e-06 0 -2.8871411724781068e-05 -1.1723094931091685e-05 0 -2.3613035474252776e-05 -8.8538583379813758e-06 0 -4.1537718377420158e-05 1.3127408933193018e-05 0 -3.2170473407063224e-05 9.8520750126130016e-06 0 -3.3549276142569166e-05 9.008994551890378e-06 0 -3.3587212228518724e-05 -2.5015546793529719e-05 0 -3.6338821920902829e-05 -2.2720053247703887e-05 0 -3.961628679051257e-05 -2.8870869660445481e-05 0 -2.0803202823847294e-05 -4.8205180375158213e-05 0 -2.6581628612319951e-05 -4.3873707084885616e-05 0 -2.8228378747221907e-05 -5.5888421299122261e-05 0 -2.2030529017737071e-05 -4.8362147940064295e-06 0 -2.1805100838906133e-05 -7.5992705820448331e-06 0 -2.5647484215554165e-05 -9.6586978764660679e-06 0 -1.2272091279433609e-05 5.9126332047102686e-07 0 -1.2238251098025248e-05 3.0406182488295009e-06 0 -1.010691234903793e-05 1.7963077929491542e-06 0 -1.4496561076584659e-05 7.4770157008434535e-07 0 -1.2238251098025248e-05 3.0406182488295009e-06 0 -1.2272091279433609e-05 5.9126332047102686e-07 0 -1.1155480061043668e-05 9.4224144966558998e-06 0 -1.2260332695710135e-05 1.1885345786377031e-05 0 -1.0618862096372255e-05 7.7764511485685914e-06 0 -1.2139516196993133e-05 7.904855810370349e-06 0 -1.0618862096372255e-05 7.7764511485685914e-06 0 -1.2260332695710135e-05 1.1885345786377031e-05 0 -3.7736987418877761e-05 -3.795615840444163e-05 0 -3.992138666215716e-05 -4.0695756802751153e-05 0 -3.8004242036343093e-05 -4.045138752474026e-05 0 -4.2722219971603522e-05 -2.4964708786730422e-05 0 -4.0148389440012488e-05 -2.2608101263925089e-05 0 -3.8585010614823328e-05 -2.0154501762981649e-05 0 -2.358851528662316e-05 -1.1459046941870734e-05 0 -2.4387786384109779e-05 -1.5849049557349347e-05 0 -2.8151612099238959e-05 -1.4343817560699527e-05 0 -2.5469997909776276e-05 -2.0699259073773756e-05 0 -2.8151612099238962e-05 -1.4343817560699527e-05 0 -2.4387786384109779e-05 -1.5849049557349347e-05 0 -1.7318762603335246e-05 -7.4592168499791812e-06 0 -2.2977749931627882e-05 -9.3905144073959993e-06 0 -1.9452817497346533e-05 -7.3528314088316472e-06 0 -3.2170473407063224e-05 9.8520750126130016e-06 0 -2.3605885396321145e-05 7.5197226002756169e-06 0 -2.7019040189239625e-05 7.0357326522235605e-06 0 -4.176069360516631e-05 -4.5090118459686698e-05 0 -4.0059553822827629e-05 -4.5226458427138349e-05 0 -4.0982748761041432e-05 -4.3192081124740513e-05 0 -2.3597017018170078e-05 1.7678009385925718e-05 0 -2.2499961374931821e-05 2.3552584757272661e-05 0 -3.0883472008930851e-05 2.6583417634528342e-05 0 -6.412805135160691e-06 1.3454024664736165e-06 0 -7.0618865898760019e-06 2.3242525458594984e-06 0 -5.7660512522058327e-06 1.3071811257461613e-06 0 -6.1316686820420643e-06 -1.9390353572488449e-07 0 -9.4835402969841112e-06 8.3274502032879876e-08 0 -1.083345075082338e-05 7.4844629918998963e-07 0 -4.9028421414958016e-06 -8.3795108091514049e-07 0 -8.4916490790390948e-06 -2.0566736665168219e-06 0 -7.7863393789978571e-06 -1.4674906241501086e-06 0 -6.7817116267672503e-06 -6.1597646845570194e-08 0 -6.5511586902615798e-06 -2.5303537822346668e-07 0 -8.2961335691372975e-06 -7.5656269143595257e-07 0 -2.2030529017737071e-05 -4.8362147940064295e-06 0 -2.3816541434980445e-05 -4.0984426032323649e-06 0 -2.0752059906617465e-05 -4.4931832513388977e-07 0 -3.3867477528122167e-05 -3.3419440064349462e-05 0 -3.5117472297613653e-05 -3.3682401477832831e-05 0 -3.6011889032024781e-05 -3.6907921944016218e-05 0 -9.7407925338225536e-06 -1.4761133506868117e-06 0 -8.2961335691372958e-06 -7.5656269143595247e-07 0 -6.5511586902615798e-06 -2.5303537822346668e-07 0 -0.00013714291469176315 0.00018917095468069743 0 -0.00010998453723796307 0.00017444081258816593 0 -0.00011738531234167763 0.00019981938381338798 0 -2.4393825303789405e-05 -8.5122490487234422e-05 0 -3.4030268522914724e-05 -8.154925753195926e-05 0 -3.382432270583879e-05 -9.2938330555459981e-05 0 -2.2708127214514601e-05 -7.2699087655496336e-05 0 -3.0639278851099901e-05 -6.9419429232017423e-05 0 -3.4030268522914724e-05 -8.154925753195926e-05 0 -3.1088814330732293e-05 -1.1183832434611937e-05 0 -2.8196125983807092e-05 -6.3898842656365558e-06 0 -3.0158999283392624e-05 -9.5525350648635261e-06 0 -4.2722219971603522e-05 -2.4964708786730422e-05 0 -4.3179768078041477e-05 -2.6674142087708999e-05 0 -4.0148389440012488e-05 -2.2608101263925089e-05 0 -1.2428573873959811e-05 -2.1129174034225939e-06 0 -1.6062292785293006e-05 -4.7615746888263949e-06 0 -1.4264120697483459e-05 -2.5617691257240098e-06 0 -2.5627018070272624e-05 -3.901502125686044e-06 0 -2.0752059906617465e-05 -4.4931832513388977e-07 0 -2.3816541434980445e-05 -4.0984426032323641e-06 0 -8.7238762532101783e-06 0.00027863461220766866 0 -2.3947827788693087e-05 0.00029362613767636972 0 -3.2566991572090583e-05 0.00028361819767915741 0 -8.6445682670996694e-05 -0.0001389485016402307 0 -7.9646911284037098e-05 -0.00014329731987066231 0 -7.5012169695380041e-05 -0.00013767463260767968 0 -3.3212879231627425e-05 -0.00013241249673677806 0 -4.2539355327325086e-05 -0.00013544912179729848 0 -3.9373035201100549e-05 -0.00013948876381586015 0 -0.00014043253424114377 0.00029134536552870511 0 -0.00011390981035548936 0.00028844569518203154 0 -0.00012464587463644064 0.00030148653822718901 0 -1.4988527556078351e-05 -1.431213514898781e-06 0 -1.2100882970533933e-05 -8.1687641037376244e-07 0 -1.4264120697483459e-05 -2.5617691257240098e-06 0 -1.2428573873959811e-05 -2.1129174034225939e-06 0 -1.4264120697483459e-05 -2.5617691257240098e-06 0 -1.2100882970533933e-05 -8.1687641037376244e-07 0 -1.908839217198798e-05 -8.6341378070594995e-06 0 -1.6062292785293006e-05 -4.7615746888263941e-06 0 -1.6649778691931549e-05 -5.9982018625708864e-06 0 -4.8942807712719699e-05 2.0582878613349482e-05 0 -5.0222867655515687e-05 1.8093558443923965e-05 0 -3.818431167253181e-05 1.2834940282646227e-05 0 -4.0830230488918472e-05 1.2283128500367755e-05 0 -3.818431167253181e-05 1.2834940282646227e-05 0 -5.0222867655515687e-05 1.8093558443923965e-05 0 -2.0299821933649563e-05 1.0863393050723292e-05 0 -2.3964607883068097e-05 9.5454133463158129e-06 0 -1.7767573045695105e-05 6.4295176340750541e-06 0 -2.0833633955636995e-05 -9.2667408817955148e-06 0 -1.6457874053439884e-05 -5.7083982271361248e-06 0 -1.7706367706133492e-05 -6.1602828761947823e-06 0 -2.358851528662316e-05 -1.1459046941870734e-05 0 -2.215883907450997e-05 -1.2890396255061101e-05 0 -2.4387786384109779e-05 -1.5849049557349347e-05 0 -1.1206202380595745e-05 -2.7932979061089105e-06 0 -9.0478687723777547e-06 -1.5890417818024866e-06 0 -7.7863393789978571e-06 -1.4674906241501086e-06 0 -5.431320802264391e-06 -5.7197809425102778e-07 0 -7.7863393789978571e-06 -1.4674906241501086e-06 0 -9.0478687723777547e-06 -1.5890417818024868e-06 0 -6.2245391266945544e-06 -5.7847709916379234e-07 0 -1.0145443168952922e-05 2.1396693470431983e-07 0 -9.4835402969841112e-06 8.3274502032880022e-08 0 -1.4096236769260836e-05 1.3446748257491823e-06 0 -9.4835402969841095e-06 8.327450203287985e-08 0 -1.0145443168952922e-05 2.1396693470431983e-07 0 -6.2483463152824271e-05 -6.745705286941825e-05 0 -6.8589774340900093e-05 -7.9639653288506978e-05 0 -5.9203153485354514e-05 -7.4274255564627268e-05 0 -6.071677602065114e-05 -8.5059217115332847e-05 0 -5.9203153485354514e-05 -7.4274255564627268e-05 0 -6.8589774340900093e-05 -7.9639653288506978e-05 0 -2.6242957438215639e-06 -7.1469907916638899e-07 0 -1.9680748913851289e-06 -4.7986625051688864e-07 0 -4.5761428508669428e-06 -4.7330553241353529e-07 0 -3.2726102336301641e-06 -3.0671144486311479e-07 0 -4.5761428508669428e-06 -4.7330553241353529e-07 0 -1.9680748913851289e-06 -4.7986625051688864e-07 0 -3.8194311188026525e-06 2.5915431547821413e-07 0 -2.1255855133127206e-06 2.5509882261420716e-07 0 -4.5862983124585983e-06 4.3552119595894329e-08 0 -2.5923360943834988e-06 1.673207760246084e-07 0 -4.5862983124585983e-06 4.3552119595894329e-08 0 -2.1255855133127206e-06 2.5509882261420716e-07 0 -6.9063269547857206e-05 0.000228915504540365 0 -5.3263245484705285e-05 0.00021365770266512779 0 -5.154519398492988e-05 0.00023855597515291056 0 -5.5842259049784389e-05 -0.00011064650696068713 0 -6.1271856315298594e-05 -0.00010438878920156363 0 -6.3917184725603539e-05 -0.00011599215787590207 0 -1.0963602384886858e-05 -2.2105795310075776e-06 0 -8.4976858342876838e-06 -1.2283679651459615e-06 0 -9.0478687723777547e-06 -1.5890417818024868e-06 0 -1.0908834761918036e-05 1.2370154212287331e-06 0 -1.0145443168952922e-05 2.1396693470431983e-07 0 -8.5666047271906597e-06 2.3481013809913885e-07 0 -2.0833633955636995e-05 -9.2667408817955148e-06 0 -2.1460944689071332e-05 -1.1215821660195846e-05 0 -1.8225722671665818e-05 -7.5766493730030831e-06 0 -1.1206202380595745e-05 -2.7932979061089105e-06 0 -1.2710119747818768e-05 -3.1017211742477476e-06 0 -9.0478687723777547e-06 -1.5890417818024868e-06 0 -1.4096236769260836e-05 1.3446748257491823e-06 0 -1.0145443168952922e-05 2.1396693470431983e-07 0 -1.4588792106500649e-05 1.6597425966222144e-06 0 -2.5469997909776276e-05 -2.0699259073773756e-05 0 -3.1223878856607941e-05 -1.5775647830373382e-05 0 -2.8151612099238959e-05 -1.4343817560699527e-05 0 -1.2428573873959811e-05 -2.1129174034225939e-06 0 -1.4279812882952214e-05 -3.8691524199074819e-06 0 -1.6062292785293006e-05 -4.7615746888263949e-06 0 -4.0408229310135681e-09 -8.0764521600775753e-10 0 -3.6805084103307969e-09 -2.9171487080723677e-10 0 -3.01894081969666e-06 -4.9953073383228508e-07 0 -3.1555621655946352e-09 -4.3851380063336868e-11 0 -3.2687681610893809e-09 2.4615617940304608e-10 0 -2.5485157174711256e-06 -1.8041782276249264e-07 0 -1.6202455671048723e-05 1.7743680055526706e-05 0 -1.5960401029624594e-05 1.214709462189392e-05 0 -1.2260332695710135e-05 1.1885345786377031e-05 0 -4.1762074141412672e-05 -4.076975365779063e-05 0 -4.2755852118949884e-05 -4.3011744524270196e-05 0 -4.0982748761041432e-05 -4.3192081124740513e-05 0 -2.0833633955636995e-05 -9.2667408817955148e-06 0 -2.1661528074214305e-05 -8.8002242903270359e-06 0 -2.5496105072286563e-05 -1.222429255874748e-05 0 -3.3403300701690021e-05 -4.9491845497118401e-05 0 -2.8228378747221907e-05 -5.5888421299122261e-05 0 -2.6581628612319951e-05 -4.3873707084885616e-05 0 -1.4988527556078351e-05 -1.431213514898781e-06 0 -1.2272091279433609e-05 5.9126332047102686e-07 0 -1.2100882970533933e-05 -8.1687641037376244e-07 0 -1.8896961921737762e-05 -6.2019107267381384e-06 0 -1.6517452364045617e-05 -3.8244950016289444e-06 0 -1.6062292785293006e-05 -4.7615746888263949e-06 0 -9.625569609363505e-06 1.2995164707458841e-06 0 -1.4164112460022103e-05 3.6826146915834174e-06 0 -6.833508941068359e-06 1.7803464277795114e-06 0 -7.3138481373513719e-06 -2.2364577609593192e-06 0 -5.1361945779127603e-06 -2.1350701959356441e-06 0 -1.0537949434796379e-05 -4.2446055163417584e-06 0 -2.4858654323978044e-05 -1.5775569117941356e-05 0 -2.495118348910385e-05 -1.8145380764482535e-05 0 -2.215883907450997e-05 -1.2890396255061101e-05 0 -1.010691234903793e-05 1.7963077929491542e-06 0 -9.8728848482465061e-06 3.9597006213510316e-07 0 -1.2272091279433609e-05 5.9126332047102686e-07 0 -1.5087116473616579e-05 -4.754484038839008e-06 0 -1.6457874053439884e-05 -5.7083982271361257e-06 0 -1.8225722671665818e-05 -7.5766493730030831e-06 0 -3.402347187346719e-05 -1.5251477177446674e-05 0 -3.5707718889130193e-05 -1.8582864982941233e-05 0 -2.9866932627800916e-05 -1.4195466839018381e-05 0 -0.00013345404034052931 0.00016202002538156301 0 -0.00011098928757579452 0.00014984646148482721 0 -0.00010998453723796307 0.00017444081258816593 0 -2.4858654323978044e-05 -1.5775569117941356e-05 0 -2.5130535737398791e-05 -1.3760325624354058e-05 0 -2.927300143828051e-05 -1.8555175324592983e-05 0 -3.0158999283392624e-05 -9.5525350648635261e-06 0 -3.3847421729913039e-05 -1.4154204340368274e-05 0 -3.2500826559931777e-05 -1.2899043518846162e-05 0 -2.0833633955636995e-05 -9.2667408817955148e-06 0 -2.5496105072286563e-05 -1.222429255874748e-05 0 -2.5130535737398791e-05 -1.3760325624354058e-05 0 -1.2100882970533933e-05 -8.1687641037376244e-07 0 -1.2272091279433609e-05 5.9126332047102686e-07 0 -9.8728848482465061e-06 3.9597006213510316e-07 0 -3.6550650219794464e-05 -1.7699536415493168e-05 0 -3.8585010614823328e-05 -2.0154501762981649e-05 0 -4.0148389440012488e-05 -2.2608101263925089e-05 0 -1.6202455671048723e-05 1.7743680055526706e-05 0 -1.1911902413345802e-05 1.8754827897657456e-05 0 -1.688185070762355e-05 2.5975199740952664e-05 0 -2.0833633955636995e-05 -9.2667408817955148e-06 0 -1.7706367706133492e-05 -6.1602828761947823e-06 0 -2.1661528074214305e-05 -8.8002242903270359e-06 0 -0.00013933698405731244 0.0002160154954092232 0 -0.00013714291469176315 0.00018917095468069743 0 -0.00011738531234167763 0.00019981938381338798 0 -2.4393825303789405e-05 -8.5122490487234422e-05 0 -3.382432270583879e-05 -9.2938330555459981e-05 0 -2.6444229263865433e-05 -9.7659774821214399e-05 0 -2.141571149261494e-05 -6.0414151695115848e-05 0 -3.0639278851099901e-05 -6.9419429232017423e-05 0 -2.2708127214514601e-05 -7.2699087655496336e-05 0 -3.6785538821471268e-05 2.2577672365018599e-05 0 -4.9924533282004085e-05 2.6884618070190377e-05 0 -4.1070993739610251e-05 1.8661438607276353e-05 0 -9.9629844702260315e-06 2.4932205756530661e-06 0 -1.8382195937670739e-05 9.4481413129254658e-06 0 -1.8994080543782823e-05 -5.1361565512768236e-06 0 -3.402347187346719e-05 -1.5251477177446674e-05 0 -3.4515839598533856e-05 -1.4508209471084237e-05 0 -3.9564612380799555e-05 -1.786598593843874e-05 0 -4.8942807712719699e-05 2.0582878613349482e-05 0 -5.895827031045606e-05 2.4326158685544919e-05 0 -5.0222867655515687e-05 1.8093558443923965e-05 0 -3.402347187346719e-05 -1.5251477177446674e-05 0 -3.9564612380799555e-05 -1.786598593843874e-05 0 -4.1284881949454663e-05 -2.0402425784889018e-05 0 -4.8942807712719699e-05 2.0582878613349482e-05 0 -6.1076478346865708e-05 2.9698222741472845e-05 0 -5.895827031045606e-05 2.4326158685544919e-05 0 -7.3138481373513719e-06 -2.2364577609593192e-06 0 -3.5882487017884083e-06 -9.0728616992891763e-07 0 -5.1361945779127603e-06 -2.1350701959356441e-06 0 -9.625569609363505e-06 1.2995164707458841e-06 0 -6.833508941068359e-06 1.7803464277795114e-06 0 -4.6741645027193718e-06 2.6003654584747706e-07 0 -1.8896961921737762e-05 -6.2019107267381384e-06 0 -2.0766488835137463e-05 -9.4755546728573052e-06 0 -2.1805100838906133e-05 -7.5992705820448331e-06 0 -2.358851528662316e-05 -1.1459046941870734e-05 0 -2.1805100838906133e-05 -7.5992705820448331e-06 0 -2.0766488835137463e-05 -9.4755546728573052e-06 0 -5.0297388891544743e-05 -3.8335782876790113e-05 0 -4.9614733950974198e-05 -3.7882292723110387e-05 0 -4.7041023335825791e-05 -3.3927470348312912e-05 0 -2.7745958405255263e-05 -2.3768462029421236e-05 0 -2.8866295901012973e-05 -2.6169902166028507e-05 0 -3.1128477526043817e-05 -2.9398800968990659e-05 0 -1.4322662233184654e-05 -7.1379293095858497e-06 0 -1.8994080543782823e-05 -5.1361565512768227e-06 0 -2.0549768597333482e-05 -1.2702823921029477e-05 0 -2.4928856096033029e-05 -2.0553234568520293e-05 0 -2.5923325314010612e-05 -2.1979373814476295e-05 0 -2.8866295901012973e-05 -2.6169902166028507e-05 0 -4.8493835214913193e-05 -3.4398985741158572e-05 0 -4.7041023335825791e-05 -3.3927470348312912e-05 0 -4.541331058616465e-05 -3.049414554488261e-05 0 -2.0833633955636995e-05 -9.2667408817955148e-06 0 -1.8225722671665818e-05 -7.5766493730030831e-06 0 -1.6457874053439884e-05 -5.7083982271361248e-06 0 -1.908839217198798e-05 -8.6341378070594995e-06 0 -2.215883907450997e-05 -1.2890396255061101e-05 0 -2.0766488835137463e-05 -9.4755546728573052e-06 0 -2.358851528662316e-05 -1.1459046941870734e-05 0 -2.0766488835137463e-05 -9.4755546728573052e-06 0 -2.215883907450997e-05 -1.2890396255061101e-05 0 -1.4988527556078351e-05 -1.431213514898781e-06 0 -1.8662392842832857e-05 -4.1357283588164574e-06 0 -1.7900174458723202e-05 -1.1558345124222309e-06 0 -0.00013345404034052931 0.00016202002538156301 0 -0.00012787547633238413 0.00013499308182259584 0 -0.00011098928757579452 0.00014984646148482721 0 -2.5627018070272624e-05 -3.901502125686044e-06 0 -2.3816541434980445e-05 -4.0984426032323641e-06 0 -2.6843225626558476e-05 -7.4242781512291998e-06 0 -2.9123622280510787e-05 3.4954750527708264e-05 0 -2.2499961374931821e-05 2.3552584757272661e-05 0 -1.688185070762355e-05 2.5975199740952664e-05 0 -1.6202455671048723e-05 1.7743680055526706e-05 0 -1.688185070762355e-05 2.5975199740952664e-05 0 -2.2499961374931821e-05 2.3552584757272661e-05 0 -2.0803202823847294e-05 -4.8205180375158213e-05 0 -2.8228378747221907e-05 -5.5888421299122261e-05 0 -2.141571149261494e-05 -6.0414151695115848e-05 0 -7.5037621007840685e-05 3.4447660181822984e-05 0 -5.895827031045606e-05 2.4326158685544919e-05 0 -6.1076478346865708e-05 2.9698222741472845e-05 0 -4.8036068613550651e-05 -2.3107186498247425e-05 0 -4.1284881949454656e-05 -2.0402425784889014e-05 0 -3.9564612380799555e-05 -1.786598593843874e-05 0 -2.2030529017737071e-05 -4.8362147940064295e-06 0 -2.6843225626558476e-05 -7.4242781512291989e-06 0 -2.3816541434980445e-05 -4.0984426032323641e-06 0 -8.4350791592250926e-05 0.00017337500689667629 0 -0.00010998453723796307 0.00017444081258816593 0 -9.4292793692740218e-05 0.0001542284269280525 0 -8.4350791592250926e-05 0.00017337500689667629 0 -9.9673425999812716e-05 0.00019180503237306015 0 -0.00010998453723796307 0.00017444081258816593 0 -4.3715002853162013e-05 -8.3198692693906627e-05 0 -3.9971356186797986e-05 -9.0701723355090139e-05 0 -3.4030268522914724e-05 -8.154925753195926e-05 0 -4.3715002853162013e-05 -8.3198692693906627e-05 0 -3.4030268522914717e-05 -8.1549257531959247e-05 0 -3.7729193412421445e-05 -7.4370809455557874e-05 0 -2.6444229263865433e-05 -9.7659774821214399e-05 0 -3.4736603844561017e-05 -0.0001040441544822627 0 -2.888056395896801e-05 -0.00011014759121858192 0 -0.00014023024391359955 0.00024218113743941882 0 -0.00013933698405731244 0.0002160154954092232 0 -0.0001211755880303189 0.00022355591855952519 0 -6.757049849069675e-06 -5.6322899465054004e-07 0 -5.4738923417074846e-06 -3.3043681815166377e-07 0 -8.4976858342876855e-06 -1.2283679651459617e-06 0 -6.371551105255976e-06 -2.6450976098743735e-07 0 -8.5666047271906597e-06 2.3481013809913885e-07 0 -5.4475270242043854e-06 -7.02460731652023e-07 0 -4.3715002853162013e-05 -8.3198692693906627e-05 0 -5.0260969381529803e-05 -8.4356322662422216e-05 0 -4.682108503989205e-05 -9.4138165530072395e-05 0 -4.3715002853162013e-05 -8.3198692693906627e-05 0 -4.3791794408740756e-05 -7.334479536677092e-05 0 -5.0260969381529803e-05 -8.4356322662422216e-05 0 -5.5222900356121561e-05 -9.6499360508817039e-05 0 -4.682108503989205e-05 -9.4138165530072395e-05 0 -5.0260969381529803e-05 -8.4356322662422216e-05 0 -5.1421866618948811e-05 -7.3550595238651201e-05 0 -5.0260969381529803e-05 -8.4356322662422216e-05 0 -4.3791794408740756e-05 -7.334479536677092e-05 0 -8.4350791592250926e-05 0.00017337500689667629 0 -6.7354189041105462e-05 0.000174787539450582 0 -8.4158985477725943e-05 0.00019773435725442171 0 -6.4161347812211674e-05 0.0001971392129408591 0 -8.4158985477725943e-05 0.00019773435725442171 0 -6.7354189041105462e-05 0.000174787539450582 0 -3.1555621655946352e-09 -4.3851380063336868e-11 0 -2.5485157174711256e-06 -1.8041782276249264e-07 0 -2.608788151247729e-06 1.415849742742003e-08 0 -3.6805084103307969e-09 -2.9171487080723677e-10 0 -2.8678717275585637e-06 -7.0742386843712159e-07 0 -3.01894081969666e-06 -4.9953073383228508e-07 0 -5.4380584353984219e-05 -3.8869498582296058e-05 0 -4.5213694239691961e-05 -2.9832785367273099e-05 0 -5.108673146972838e-05 -3.0411396216915736e-05 0 -8.2368423916673501e-05 6.904042216827346e-05 0 -7.8448971373178594e-05 5.1209072304049701e-05 0 -6.6590364992512272e-05 4.9512741056751218e-05 0 -2.397250729500263e-05 -8.8529023683877239e-06 0 -2.964981613065868e-05 -1.2024970346034054e-05 0 -2.793041516467093e-05 -1.1654579056419602e-05 0 -8.3599175638577518e-06 2.6960787264084443e-07 0 -9.8460325391622778e-06 -6.059509592118047e-07 0 -9.8728848482465061e-06 3.9597006213510316e-07 0 -3.9382400625481977e-05 -4.2393528977547812e-05 0 -3.8004242036343093e-05 -4.045138752474026e-05 0 -3.992138666215716e-05 -4.0695756802751153e-05 0 -2.5433822289072271e-05 5.5810567673014169e-06 0 -3.0616363553348958e-05 7.6650651445932266e-06 0 -3.3549276142569166e-05 9.008994551890378e-06 0 -4.0830230488918472e-05 1.2283128500367755e-05 0 -3.3549276142569166e-05 9.008994551890378e-06 0 -3.0616363553348958e-05 7.6650651445932266e-06 0 -5.1027605397205038e-06 7.8584699618982132e-07 0 -4.5468429468176688e-06 1.3019652832551542e-07 0 -3.4618641249865602e-06 3.3987710358234466e-08 0 -1.8383379724811484e-05 -1.2876121633209588e-05 0 -2.4115122207645633e-05 -1.859232055978547e-05 0 -2.1734202433901983e-05 -1.6950114954141978e-05 0 -4.8036068613550651e-05 -2.3107186498247425e-05 0 -4.7635969120464359e-05 -2.5371619550116713e-05 0 -4.1284881949454663e-05 -2.0402425784889018e-05 0 -7.5037621007840685e-05 3.4447660181822984e-05 0 -6.1076478346865708e-05 2.9698222741472845e-05 0 -7.2917424875569196e-05 3.9511394657688415e-05 0 -3.3021854853856967e-05 -1.7448672674642767e-05 0 -3.4418963469882578e-05 -1.5791662720924794e-05 0 -3.1223878856607941e-05 -1.5775647830373382e-05 0 -1.4096236769260836e-05 1.3446748257491823e-06 0 -1.4588792106500649e-05 1.6597425966222144e-06 0 -2.0582629769133676e-05 3.5761336476181428e-06 0 -1.8107458670247119e-05 3.5631190252721726e-06 0 -2.0582629769133676e-05 3.5761336476181432e-06 0 -1.4588792106500649e-05 1.6597425966222144e-06 0 -3.7118139986140937e-05 7.1566332272982334e-05 0 -3.3497579417793613e-05 5.0489212168842178e-05 0 -2.3690823097474105e-05 4.5675206105451728e-05 0 -3.2170473407063224e-05 9.8520750126130016e-06 0 -2.7019040189239625e-05 7.0357326522235605e-06 0 -3.3549276142569166e-05 9.008994551890378e-06 0 -2.2977749931627879e-05 -9.3905144073959993e-06 0 -2.3613035474252776e-05 -8.8538583379813758e-06 0 -1.9452817497346533e-05 -7.3528314088316472e-06 0 -3.8922108578190334e-05 -3.1370956434472575e-05 0 -3.8128545376570739e-05 -2.8047626743261196e-05 0 -4.1243547717368792e-05 -3.1529654646993409e-05 0 -4.0037796679468187e-05 -2.7838982030648166e-05 0 -4.1243547717368792e-05 -3.1529654646993409e-05 0 -3.8128545376570739e-05 -2.8047626743261196e-05 0 -1.4988527556078351e-05 -1.431213514898781e-06 0 -1.4496561076584659e-05 7.4770157008434535e-07 0 -1.2272091279433609e-05 5.9126332047102686e-07 0 -2.0299821933649563e-05 1.0863393050723292e-05 0 -1.7767573045695105e-05 6.4295176340750533e-06 0 -1.4907626935049874e-05 7.3685399593649785e-06 0 -8.3888255327260901e-06 3.697748840055085e-06 0 -8.1279876160615928e-06 2.3714132593395096e-06 0 -9.5046529013120901e-06 3.8290780003601992e-06 0 -2.9123622280510787e-05 3.4954750527708264e-05 0 -2.3690823097474105e-05 4.5675206105451728e-05 0 -3.3497579417793613e-05 5.0489212168842171e-05 0 -3.402347187346719e-05 -1.5251477177446674e-05 0 -2.9866932627800916e-05 -1.4195466839018381e-05 0 -2.793041516467093e-05 -1.1654579056419602e-05 0 -1.5087116473616579e-05 -4.754484038839008e-06 0 -1.2335866450383646e-05 -2.6590876409671106e-06 0 -1.2728661429972946e-05 -3.0724155911857814e-06 0 4.3763883377173841e-06 9.8339948873445279e-05 0 4.9305358222324006e-06 0.00012516083703291501 0 -1.2256794759537613e-05 0.00011766571871783785 0 -8.1141245466561615e-05 -8.051070539025627e-05 0 -6.8589774340900093e-05 -7.9639653288506978e-05 0 -7.063045204453709e-05 -7.071656289317141e-05 0 -7.5037621007840685e-05 3.4447660181822984e-05 0 -6.2847100240914829e-05 2.496803534274881e-05 0 -5.895827031045606e-05 2.4326158685544919e-05 0 -4.1323883921252521e-05 -1.8361100479173327e-05 0 -4.8036068613550651e-05 -2.3107186498247425e-05 0 -3.9564612380799555e-05 -1.786598593843874e-05 0 -2.0752059906617465e-05 -4.4931832513388977e-07 0 -2.327363017238725e-05 1.5767698260391385e-07 0 -1.8198420773188774e-05 4.0093579132228385e-06 0 -1.4096236769260836e-05 1.3446748257491823e-06 0 -2.0582629769133676e-05 3.5761336476181428e-06 0 -1.88599951729334e-05 3.1924052539761716e-06 0 -2.5433822289072271e-05 5.5810567673014169e-06 0 -1.88599951729334e-05 3.1924052539761716e-06 0 -2.0582629769133676e-05 3.5761336476181428e-06 0 -1.1155480061043668e-05 9.4224144966558998e-06 0 -1.1928640476268672e-05 1.3253555992004662e-05 0 -1.2260332695710135e-05 1.1885345786377031e-05 0 -7.1842867990607782e-05 -9.2893950859049287e-05 0 -6.8589774340900093e-05 -7.9639653288506978e-05 0 -7.6351338977791882e-05 -8.6660385349631694e-05 0 -4.3120281434400829e-05 -2.7825534671625657e-05 0 -4.1864616499264017e-05 -2.7765963759845214e-05 0 -4.0420461174755139e-05 -2.4098199916095443e-05 0 1.2007256347837191e-07 0.00020449342852340752 0 -2.818124669550478e-06 0.00023034905761879179 0 -1.7992608499369439e-05 0.00021877214951828366 0 -8.5444729584803451e-05 -0.00010525877134703483 0 -8.6219282200031391e-05 -0.00011714616500692435 0 -7.7762076962557697e-05 -0.0001094704900640093 0 -3.6785538821471268e-05 2.2577672365018599e-05 0 -2.7140579580139582e-05 1.4921890775779046e-05 0 -2.3597017018170078e-05 1.7678009385925718e-05 0 -2.4858654323978044e-05 -1.5775569117941356e-05 0 -2.8766526709220986e-05 -2.1457120637137972e-05 0 -2.495118348910385e-05 -1.8145380764482535e-05 0 -3.0215986756220538e-05 -1.6555017332172017e-05 0 -2.927300143828051e-05 -1.8555175324592983e-05 0 -2.5130535737398791e-05 -1.3760325624354058e-05 0 -0.00013933698405731244 0.0002160154954092232 0 -0.00011738531234167763 0.00019981938381338798 0 -0.0001211755880303189 0.00022355591855952519 0 -2.6444229263865433e-05 -9.7659774821214399e-05 0 -3.382432270583879e-05 -9.2938330555459981e-05 0 -3.4736603844561017e-05 -0.0001040441544822627 0 -1.4670567691299695e-05 -4.2632195433095011e-06 0 -1.180234524530505e-05 -2.5783637757583576e-06 0 -1.4418501555013042e-05 -3.9086407477792973e-06 0 -1.6202455671048723e-05 1.7743680055526706e-05 0 -2.2499961374931821e-05 2.3552584757272661e-05 0 -2.3597017018170078e-05 1.7678009385925718e-05 0 -3.402347187346719e-05 -1.5251477177446674e-05 0 -2.9649816130658677e-05 -1.2024970346034052e-05 0 -3.4515839598533856e-05 -1.4508209471084237e-05 0 -3.832782504235157e-05 -2.0566588819573438e-05 0 -4.2722219971603522e-05 -2.4964708786730422e-05 0 -3.8585010614823328e-05 -2.0154501762981649e-05 0 -1.5824070100585421e-05 -4.5938702668777808e-06 0 -1.4977065647563288e-05 -4.3224787159634988e-06 0 -1.9295097517746984e-05 -6.3335842209903634e-06 0 -7.7593160239473668e-05 -6.8268100585862086e-05 0 -8.1141245466561615e-05 -8.051070539025627e-05 0 -7.063045204453709e-05 -7.071656289317141e-05 0 -2.7933943825024051e-05 -1.0779837175278353e-05 0 -2.2750593014731217e-05 -8.1223367552812884e-06 0 -2.3613035474252776e-05 -8.8538583379813758e-06 0 -1.8710851728500925e-05 -6.3410117812998821e-06 0 -2.3613035474252776e-05 -8.8538583379813758e-06 0 -2.2750593014731217e-05 -8.1223367552812884e-06 0 -9.2024174743862851e-05 0.00013502943527764544 0 -7.4967663431342824e-05 0.0001389307882914746 0 -9.4292793692740218e-05 0.0001542284269280525 0 -2.6242957438215639e-06 -7.1469907916638899e-07 0 -5.4475270242043854e-06 -7.02460731652023e-07 0 -2.8678717275585637e-06 -7.0742386843712159e-07 0 -6.2245391266945544e-06 -5.7847709916379234e-07 0 -2.8678717275585637e-06 -7.0742386843712159e-07 0 -5.4475270242043854e-06 -7.02460731652023e-07 0 -5.431320802264391e-06 -5.7197809425102778e-07 0 -5.4738923417074846e-06 -3.3043681815166372e-07 0 -2.608788151247729e-06 1.415849742742003e-08 0 -2.5923360943834988e-06 1.673207760246084e-07 0 -2.608788151247729e-06 1.415849742742003e-08 0 -5.4738923417074846e-06 -3.3043681815166372e-07 0 -1.908839217198798e-05 -8.6341378070594995e-06 0 -1.8225722671665818e-05 -7.5766493730030831e-06 0 -2.1460944689071332e-05 -1.1215821660195846e-05 0 -2.6602998205206515e-05 -3.5237025399203858e-06 0 -2.8196125983807092e-05 -6.3898842656365558e-06 0 -2.9305804738350815e-05 -9.4251108554905573e-06 0 -3.1088814330732293e-05 -1.1183832434611937e-05 0 -2.9305804738350815e-05 -9.4251108554905573e-06 0 -2.8196125983807092e-05 -6.3898842656365558e-06 0 -4.2722219971603522e-05 -2.4964708786730422e-05 0 -4.6061040397245809e-05 -2.9882280429032754e-05 0 -4.3179768078041477e-05 -2.6674142087708999e-05 0 -3.1088814330732293e-05 -1.1183832434611937e-05 0 -3.0158999283392624e-05 -9.5525350648635261e-06 0 -3.2500826559931777e-05 -1.2899043518846162e-05 0 -2.8866295901012973e-05 -2.6169902166028507e-05 0 -2.5923325314010612e-05 -2.1979373814476295e-05 0 -3.033600135829896e-05 -2.6913211841288192e-05 0 -4.7041023335825791e-05 -3.3927470348312912e-05 0 -4.4382913399560505e-05 -3.0365016031766302e-05 0 -4.541331058616465e-05 -3.049414554488261e-05 0 -4.8036068613550651e-05 -2.3107186498247425e-05 0 -5.4845837841016192e-05 -2.9330510467929759e-05 0 -4.7635969120464359e-05 -2.5371619550116713e-05 0 -8.7723422000331191e-05 4.7780677812323643e-05 0 -7.5037621007840685e-05 3.4447660181822984e-05 0 -7.2917424875569196e-05 3.9511394657688415e-05 0 -1.8994080543782823e-05 -5.1361565512768236e-06 0 -2.4455649730894587e-05 -1.054128055554219e-05 0 -2.0549768597333482e-05 -1.2702823921029477e-05 0 -2.8866295901012973e-05 -2.6169902166028507e-05 0 -3.2433189338598889e-05 -3.0753525060459509e-05 0 -3.1128477526043817e-05 -2.9398800968990659e-05 0 -3.0215986756220538e-05 -1.6555017332172017e-05 0 -2.9866932627800916e-05 -1.4195466839018381e-05 0 -3.5707718889130193e-05 -1.8582864982941233e-05 0 -2.8495925396819055e-06 3.8386668723607116e-07 0 -1.1735532582373371e-06 2.0349879242425387e-07 0 -1.3164863619079026e-06 2.3838383986381891e-07 0 -1.3557808981579934e-05 4.6148072977806882e-06 0 -1.7767573045695105e-05 6.4295176340750541e-06 0 -1.4831869328114859e-05 3.1669244147880129e-06 0 -8.4573733586438999e-06 2.6376533913779361e-06 0 -1.0903775414760969e-05 2.8051398638513133e-06 0 -8.7649443712742496e-06 1.5003078029437029e-06 0 -2.0212388202804262e-05 8.4068431111901978e-06 0 -2.3393086654259758e-05 2.6039698703050874e-06 0 -2.3387454558926857e-05 -6.6814269605432222e-07 0 -1.4449037242418132e-05 -5.1648248159940389e-06 0 -1.1066993729077218e-05 -3.4058225750369161e-06 0 -1.0537949434796379e-05 -4.2446055163417584e-06 0 -7.3138481373513719e-06 -2.2364577609593192e-06 0 -1.0537949434796379e-05 -4.2446055163417584e-06 0 -1.1066993729077218e-05 -3.4058225750369161e-06 0 -9.625569609363505e-06 1.2995164707458841e-06 0 -1.46529805555319e-05 2.2183568073283866e-06 0 -1.4164112460022103e-05 3.6826146915834174e-06 0 -1.9589420385655277e-05 4.3041721265361034e-06 0 -1.4164112460022103e-05 3.6826146915834174e-06 0 -1.46529805555319e-05 2.2183568073283866e-06 0 -6.744295381623885e-05 -4.6164701707560744e-05 0 -7.3055282603490723e-05 -5.6775979779570184e-05 0 -6.3084314051476266e-05 -4.9831530971857659e-05 0 -3.7118139986140937e-05 7.1566332272982334e-05 0 -4.4434018994706261e-05 5.416619144652369e-05 0 -3.3497579417793613e-05 5.0489212168842171e-05 0 -2.141571149261494e-05 -6.0414151695115848e-05 0 -2.8228378747221907e-05 -5.5888421299122261e-05 0 -3.0639278851099901e-05 -6.9419429232017423e-05 0 -3.7736987418877761e-05 -3.795615840444163e-05 0 -4.0036798837292777e-05 -3.8049888501251049e-05 0 -3.992138666215716e-05 -4.0695756802751153e-05 0 -1.0963602384886858e-05 -2.2105795310075776e-06 0 -1.4418501555013042e-05 -3.9086407477792973e-06 0 -1.180234524530505e-05 -2.5783637757583576e-06 0 -2.2030529017737071e-05 -4.8362147940064295e-06 0 -1.7900174458723202e-05 -1.1558345124222309e-06 0 -1.8662392842832857e-05 -4.1357283588164574e-06 0 -2.397250729500263e-05 -8.8529023683877239e-06 0 -1.9295097517746984e-05 -6.3335842209903634e-06 0 -2.2750593014731217e-05 -8.1223367552812884e-06 0 -3.0521093816136142e-05 0.00012737508506634993 0 -1.1317306588780409e-05 0.00013517637478777599 0 -2.2094048263621919e-05 0.00015134443584575378 0 -1.9346755245347523e-09 1.5000215671616313e-10 0 -2.0416123637254237e-06 3.2518485041618611e-07 0 -1.3164863619079026e-06 2.3838383986381891e-07 0 -4.0037796679468187e-05 -2.7838982030648166e-05 0 -3.8128545376570739e-05 -2.8047626743261196e-05 0 -3.6860865009907374e-05 -2.3829724101579131e-05 0 -1.8994080543782823e-05 -5.1361565512768236e-06 0 -1.8382195937670739e-05 9.4481413129254658e-06 0 -2.3387454558926857e-05 -6.6814269605432222e-07 0 -0.00012042751585129456 0.00010935672582314459 0 -0.00011062864183658262 8.5454499403345174e-05 0 -9.9413019604642147e-05 9.4373495952134422e-05 0 -2.2854790848637211e-06 2.963736536258212e-07 0 -2.7628062760384383e-06 2.5879344281753931e-07 0 -1.4715624205185812e-06 8.9015879554606038e-08 0 -5.431320802264391e-06 -5.7197809425102778e-07 0 -2.608788151247729e-06 1.415849742742003e-08 0 -2.5485157174711256e-06 -1.8041782276249264e-07 0 -6.2245391266945544e-06 -5.7847709916379234e-07 0 -3.01894081969666e-06 -4.9953073383228508e-07 0 -2.8678717275585637e-06 -7.0742386843712159e-07 0 -1.010691234903793e-05 1.7963077929491542e-06 0 -8.3751545943031032e-06 1.1869461148569299e-06 0 -9.8728848482465061e-06 3.9597006213510316e-07 0 -4.2879303987649073e-05 -2.4317864663978358e-05 0 -4.1284881949454663e-05 -2.0402425784889018e-05 0 -4.7635969120464359e-05 -2.5371619550116713e-05 0 -6.2174556497161468e-05 3.8043323343282211e-05 0 -7.2917424875569196e-05 3.9511394657688415e-05 0 -6.1076478346865708e-05 2.9698222741472845e-05 0 -3.5153931216374506e-05 0.00021283764250765191 0 -2.4156084111306096e-05 0.00018800925335210735 0 -1.5098358564628796e-05 0.000201048198631658 0 -6.9203715085530267e-05 -0.00010507413064939757 0 -7.1842867990607782e-05 -9.2893950859049287e-05 0 -7.763252450345707e-05 -0.00010100900855863471 0 -1.8383379724811484e-05 -1.2876121633209588e-05 0 -2.0549768597333482e-05 -1.2702823921029475e-05 0 -2.4115122207645633e-05 -1.859232055978547e-05 0 -2.0299821933649563e-05 1.0863393050723292e-05 0 -2.3597017018170078e-05 1.7678009385925718e-05 0 -2.7140579580139582e-05 1.4921890775779046e-05 0 -2.5307857190736893e-05 -1.6154090589439075e-05 0 -2.4115122207645633e-05 -1.859232055978547e-05 0 -2.0549768597333482e-05 -1.2702823921029477e-05 0 -8.3599175638577518e-06 2.6960787264084443e-07 0 -7.3623687578976051e-06 1.1308363406479648e-07 0 -9.8460325391622778e-06 -6.059509592118047e-07 0 -2.5339813095412965e-06 7.476106051269951e-08 0 -1.7999513528522319e-06 -2.4506939018452345e-07 0 -1.1766435970535712e-06 -6.3211860704439032e-08 0 -1.4670567691299695e-05 -4.2632195433095011e-06 0 -1.2728661429972947e-05 -3.0724155911857818e-06 0 -1.180234524530505e-05 -2.5783637757583576e-06 0 -2.0229018491315222e-05 5.7319736466355591e-06 0 -2.3393086654259758e-05 2.6039698703050874e-06 0 -1.7864419378620871e-05 1.111925690189425e-05 0 -2.0212388202804262e-05 8.4068431111901978e-06 0 -1.7864419378620871e-05 1.111925690189425e-05 0 -2.3393086654259758e-05 2.6039698703050874e-06 0 -6.071677602065114e-05 -8.5059217115332847e-05 0 -7.1842867990607782e-05 -9.2893950859049287e-05 0 -6.3641112142921478e-05 -9.646118341410706e-05 0 -6.9203715085530267e-05 -0.00010507413064939757 0 -6.3641112142921478e-05 -9.646118341410706e-05 0 -7.1842867990607782e-05 -9.2893950859049287e-05 0 -4.1734532112286461e-05 0.00017149490174373061 0 -2.4156084111306096e-05 0.00018800925335210735 0 -4.3863774796321553e-05 0.00019695279234174118 0 -3.5153931216374506e-05 0.00021283764250765191 0 -4.3863774796321553e-05 0.00019695279234174118 0 -2.4156084111306096e-05 0.00018800925335210735 0 -4.1734532112286461e-05 0.00017149490174373061 0 -4.1934783127640104e-05 0.00014631759165698336 0 -2.2094048263621919e-05 0.00015134443584575378 0 -3.0521093816136142e-05 0.00012737508506634993 0 -2.2094048263621919e-05 0.00015134443584575378 0 -4.1934783127640104e-05 0.00014631759165698336 0 -1.7187824481325276e-09 1.1608501800868592e-10 0 -1.7808810823736936e-09 1.2794970864330684e-10 0 -1.1735532582373371e-06 2.0349879242425387e-07 0 -2.1734202433901983e-05 -1.6950114954141978e-05 0 -2.4115122207645633e-05 -1.8592320559785474e-05 0 -2.5923325314010612e-05 -2.1979373814476295e-05 0 -2.8336549671709544e-05 -2.3503088626572896e-05 0 -2.5923325314010612e-05 -2.1979373814476295e-05 0 -2.4115122207645633e-05 -1.859232055978547e-05 0 -6.2483463152824271e-05 -6.745705286941825e-05 0 -6.5035381880709214e-05 -5.9756723048142635e-05 0 -7.063045204453709e-05 -7.071656289317141e-05 0 -7.3055282603490723e-05 -5.6775979779570184e-05 0 -6.5035381880709214e-05 -5.9756723048142635e-05 0 -6.3084314051476266e-05 -4.9831530971857659e-05 0 -0.00012042751585129456 0.00010935672582314459 0 -9.9413019604642147e-05 9.4373495952134422e-05 0 -0.00010129974118234825 0.00011751761891921757 0 -1.1130847451867111e-05 5.3147119515445388e-06 0 -1.1802338175043302e-05 7.4721277052262569e-06 0 -9.9459935586430063e-06 6.1353609769884837e-06 0 -1.1155480061043668e-05 9.4224144966558998e-06 0 -9.9459935586430063e-06 6.1353609769884837e-06 0 -1.1802338175043302e-05 7.4721277052262569e-06 0 -5.542559323308702e-06 5.3578886369630837e-07 0 -6.8191474605275451e-06 7.070971943207364e-07 0 -5.4279145466339053e-06 8.0668007402083878e-07 0 -2.8495925396819055e-06 3.8386668723607116e-07 0 -1.3164863619079024e-06 2.3838383986381889e-07 0 -2.0416123637254237e-06 3.2518485041618611e-07 0 -2.5433822289072271e-05 5.5810567673014169e-06 0 -3.3549276142569166e-05 9.008994551890378e-06 0 -2.7019040189239625e-05 7.0357326522235605e-06 0 -1.8710851728500925e-05 -6.3410117812998821e-06 0 -1.9452817497346533e-05 -7.3528314088316472e-06 0 -2.3613035474252776e-05 -8.8538583379813758e-06 0 -1.8710851728500925e-05 -6.3410117812998821e-06 0 -2.2750593014731217e-05 -8.1223367552812867e-06 0 -1.9295097517746984e-05 -6.3335842209903634e-06 0 2.4337580938543384e-06 0.00017848974549413264 0 -1.5098358564628796e-05 0.000201048198631658 0 -2.4156084111306096e-05 0.00018800925335210735 0 -8.3782178760234146e-05 -9.2888018416896842e-05 0 -7.763252450345707e-05 -0.00010100900855863473 0 -7.1842867990607782e-05 -9.2893950859049287e-05 0 -1.7512093303351143e-09 -8.7313470280778113e-12 0 -1.1766435970535712e-06 -6.3211860704439046e-08 0 -1.7999513528522319e-06 -2.4506939018452345e-07 0 -8.4573733586438999e-06 2.6376533913779361e-06 0 -1.10688149551495e-05 4.745637841599072e-06 0 -1.0903775414760969e-05 2.8051398638513133e-06 0 -4.7807006840696451e-05 -5.8113678557772306e-05 0 -5.0570348689865324e-05 -4.9869046819471009e-05 0 -5.4766068066289879e-05 -5.8284658510912764e-05 0 -2.0849253159393093e-05 5.872874993189867e-06 0 -1.7767573045695102e-05 6.4295176340750541e-06 0 -2.3964607883068097e-05 9.5454133463158129e-06 0 -2.4858654323978044e-05 -1.5775569117941356e-05 0 -2.927300143828051e-05 -1.8555175324592983e-05 0 -2.8766526709220986e-05 -2.1457120637137972e-05 0 -9.3555987796704839e-06 5.0970646969845679e-06 0 -9.9459935586430063e-06 6.1353609769884837e-06 0 -1.0618862096372255e-05 7.7764511485685914e-06 0 -6.2536715620377625e-05 0.00011030098404847157 0 -8.0629543469313704e-05 0.00011466008077936233 0 -7.0594840132861183e-05 9.5217897727672615e-05 0 -4.2879303987649073e-05 -2.4317864663978358e-05 0 -5.108673146972838e-05 -3.0411396216915736e-05 0 -4.5213694239691961e-05 -2.9832785367273099e-05 0 -6.2174556497161468e-05 3.8043323343282211e-05 0 -6.6590364992512272e-05 4.9512741056751218e-05 0 -7.8448971373178594e-05 5.1209072304049701e-05 0 -4.1762074141412672e-05 -4.076975365779063e-05 0 -4.0982748761041432e-05 -4.3192081124740513e-05 0 -3.992138666215716e-05 -4.0695756802751153e-05 0 -3.9382400625481977e-05 -4.2393528977547812e-05 0 -3.992138666215716e-05 -4.0695756802751153e-05 0 -4.0982748761041432e-05 -4.3192081124740513e-05 0 -2.397250729500263e-05 -8.8529023683877239e-06 0 -1.9827958373713409e-05 -6.7412053071856169e-06 0 -1.9295097517746984e-05 -6.3335842209903634e-06 0 -1.5824070100585421e-05 -4.5938702668777808e-06 0 -1.9295097517746984e-05 -6.3335842209903634e-06 0 -1.9827958373713409e-05 -6.7412053071856169e-06 0 -1.5087116473616579e-05 -4.754484038839008e-06 0 -1.8225722671665818e-05 -7.5766493730030831e-06 0 -1.6649778691931549e-05 -5.9982018625708864e-06 0 -2.7933943825024051e-05 -1.0779837175278353e-05 0 -3.4515839598533856e-05 -1.4508209471084237e-05 0 -2.9649816130658677e-05 -1.2024970346034052e-05 0 -3.0300076481744381e-05 8.6468444257586599e-06 0 -3.0616363553348958e-05 7.6650651445932266e-06 0 -2.399939807919403e-05 5.6329183026913817e-06 0 -4.467653818855224e-05 -4.4747572537546768e-05 0 -4.176069360516631e-05 -4.5090118459686698e-05 0 -4.2755852118949884e-05 -4.3011744524270196e-05 0 -6.2536715620377625e-05 0.00011030098404847157 0 -7.4967663431342824e-05 0.0001389307882914746 0 -8.0629543469313704e-05 0.00011466008077936233 0 -1.7808810823736936e-09 1.2794970864330684e-10 0 -1.9346755245347523e-09 1.5000215671616313e-10 0 -1.3164863619079026e-06 2.3838383986381891e-07 0 4.0712537856087709e-06 0.00015188770774839937 0 -2.2094048263621919e-05 0.00015134443584575378 0 -1.1317306588780409e-05 0.00013517637478777599 0 -1.3414644656990117e-05 1.4675881137290555e-05 0 -1.1911902413345802e-05 1.8754827897657456e-05 0 -1.1928640476268672e-05 1.3253555992004662e-05 0 -6.2174556497161468e-05 3.8043323343282211e-05 0 -5.1960848696210495e-05 3.6076852786979784e-05 0 -6.6590364992512272e-05 4.9512741056751218e-05 0 -1.3414644656990117e-05 1.4675881137290555e-05 0 -1.2862563402412102e-05 1.0654158185789708e-05 0 -1.5697993237453864e-05 1.0322331275380046e-05 0 -1.3414644656990117e-05 1.4675881137290555e-05 0 -1.192864047626867e-05 1.325355599200466e-05 0 -1.2862563402412102e-05 1.0654158185789708e-05 0 -1.8530755561914819e-05 -6.2627496628755154e-06 0 -2.2819748875505688e-05 -8.7332781902005094e-06 0 -2.1661528074214305e-05 -8.8002242903270359e-06 0 -9.7407925338225536e-06 -1.4761133506868117e-06 0 -1.180234524530505e-05 -2.5783637757583576e-06 0 -1.2728661429972946e-05 -3.0724155911857814e-06 0 -8.3465832241079926e-05 9.3806016781305975e-05 0 -0.00010129974118234825 0.00011751761891921757 0 -9.9413019604642147e-05 9.4373495952134422e-05 0 -2.358851528662316e-05 -1.1459046941870734e-05 0 -2.5647484215554165e-05 -9.6586978764660662e-06 0 -2.1805100838906133e-05 -7.5992705820448331e-06 0 -2.0229018491315222e-05 5.7319736466355591e-06 0 -1.7864419378620871e-05 1.111925690189425e-05 0 -1.5697993237453864e-05 1.0322331275380046e-05 0 -3.8910944700789918e-05 -2.379328725552638e-05 0 -3.6184760602810353e-05 -1.991763234372691e-05 0 -3.7298547558270034e-05 -1.9572410794946601e-05 0 -4.2879303987649073e-05 -2.4317864663978358e-05 0 -4.7635969120464359e-05 -2.5371619550116713e-05 0 -5.108673146972838e-05 -3.0411396216915736e-05 0 -6.2174556497161468e-05 3.8043323343282211e-05 0 -7.8448971373178594e-05 5.1209072304049701e-05 0 -7.2917424875569196e-05 3.9511394657688415e-05 0 -0.00010287431047288947 0.00021354150598757398 0 -0.0001211755880303189 0.00022355591855952519 0 -0.00011738531234167763 0.00019981938381338798 0 -4.1086839554517011e-05 -0.00010110951676102894 0 -3.4736603844561017e-05 -0.0001040441544822627 0 -3.382432270583879e-05 -9.2938330555459981e-05 0 -4.3120281434400829e-05 -2.7825534671625657e-05 0 -4.0420461174755139e-05 -2.4098199916095443e-05 0 -4.3179768078041477e-05 -2.6674142087708999e-05 0 -1.1155480061043668e-05 9.4224144966558998e-06 0 -1.0618862096372255e-05 7.7764511485685914e-06 0 -9.9459935586430063e-06 6.1353609769884837e-06 0 -1.8107458670247119e-05 3.5631190252721726e-06 0 -2.399939807919403e-05 5.6329183026913817e-06 0 -2.0582629769133676e-05 3.5761336476181428e-06 0 -3.402347187346719e-05 -1.5251477177446674e-05 0 -2.793041516467093e-05 -1.1654579056419602e-05 0 -2.9649816130658677e-05 -1.2024970346034052e-05 0 -4.8942807712719699e-05 2.0582878613349482e-05 0 -4.1070993739610251e-05 1.8661438607276349e-05 0 -4.9924533282004085e-05 2.6884618070190377e-05 0 -2.215883907450997e-05 -1.2890396255061101e-05 0 -2.495118348910385e-05 -1.8145380764482535e-05 0 -2.4387786384109779e-05 -1.5849049557349347e-05 0 -2.548177372368103e-05 -1.1040207166234159e-05 0 -2.793041516467093e-05 -1.1654579056419602e-05 0 -2.9866932627800916e-05 -1.4195466839018381e-05 0 -2.0229018491315222e-05 5.7319736466355591e-06 0 -1.8198420773188774e-05 4.0093579132228385e-06 0 -2.327363017238725e-05 1.5767698260391385e-07 0 -1.7512093303351143e-09 -8.7313470280778113e-12 0 -1.7164944230293267e-09 -6.5268874824212721e-11 0 -1.1766435970535712e-06 -6.3211860704439032e-08 0 -4.3734144532498862e-05 -3.1584000638440623e-05 0 -4.4382913399560505e-05 -3.0365016031766302e-05 0 -4.7041023335825791e-05 -3.3927470348312912e-05 0 -4.1323883921252521e-05 -1.8361100479173327e-05 0 -3.9564612380799555e-05 -1.786598593843874e-05 0 -3.4515839598533856e-05 -1.4508209471084237e-05 0 -6.2847100240914829e-05 2.496803534274881e-05 0 -5.0222867655515687e-05 1.8093558443923965e-05 0 -5.895827031045606e-05 2.4326158685544919e-05 0 -5.607633571121055e-05 -4.9060367840645599e-05 0 -6.3084314051476266e-05 -4.9831530971857659e-05 0 -6.5035381880709214e-05 -5.9756723048142635e-05 0 -3.3587212228518724e-05 -2.5015546793529719e-05 0 -3.3638888197910354e-05 -2.9657932095653564e-05 0 -2.8766526709220986e-05 -2.1457120637137972e-05 0 -2.8483109254030737e-05 -2.4924036826226053e-05 0 -2.8766526709220986e-05 -2.1457120637137972e-05 0 -3.3638888197910354e-05 -2.9657932095653564e-05 0 -2.548177372368103e-05 -1.1040207166234159e-05 0 -2.5496105072286563e-05 -1.222429255874748e-05 0 -2.1661528074214305e-05 -8.8002242903270359e-06 0 -3.8910944700789918e-05 -2.379328725552638e-05 0 -3.7298547558270034e-05 -1.9572410794946601e-05 0 -4.0420461174755139e-05 -2.4098199916095443e-05 0 -6.2483463152824271e-05 -6.745705286941825e-05 0 -5.5068546769370979e-05 -6.6264052347303915e-05 0 -5.4766068066289879e-05 -5.8284658510912764e-05 0 -2.548177372368103e-05 -1.1040207166234159e-05 0 -2.1661528074214305e-05 -8.8002242903270359e-06 0 -2.2819748875505688e-05 -8.7332781902005094e-06 0 -3.4740350906876415e-05 -1.635169451551746e-05 0 -3.7298547558270034e-05 -1.9572410794946601e-05 0 -3.6184760602810353e-05 -1.991763234372691e-05 0 -3.2726102336301641e-06 -3.0671144486311479e-07 0 -3.4618641249865602e-06 3.3987710358234506e-08 0 -4.5468429468176688e-06 1.3019652832551542e-07 0 -5.4845837841016192e-05 -2.9330510467929759e-05 0 -5.108673146972838e-05 -3.0411396216915736e-05 0 -4.7635969120464359e-05 -2.5371619550116713e-05 0 -8.7723422000331191e-05 4.7780677812323643e-05 0 -7.2917424875569196e-05 3.9511394657688415e-05 0 -7.8448971373178594e-05 5.1209072304049701e-05 0 -8.3782178760234146e-05 -9.2888018416896842e-05 0 -7.1842867990607782e-05 -9.2893950859049287e-05 0 -7.6351338977791882e-05 -8.6660385349631694e-05 0 2.4337580938543384e-06 0.00017848974549413264 0 -2.4156084111306096e-05 0.00018800925335210735 0 -1.6651916308685273e-05 0.00016891250131615405 0 4.0712537856087709e-06 0.00015188770774839937 0 -1.6651916308685273e-05 0.00016891250131615405 0 -2.2094048263621919e-05 0.00015134443584575378 0 -8.3782178760234146e-05 -9.2888018416896842e-05 0 -8.5444729584803451e-05 -0.00010525877134703483 0 -7.763252450345707e-05 -0.00010100900855863471 0 2.4337580938543384e-06 0.00017848974549413264 0 1.2007256347837191e-07 0.00020449342852340752 0 -1.5098358564628796e-05 0.000201048198631658 0 -2.5307857190736893e-05 -1.6154090589439075e-05 0 -2.4455649730894587e-05 -1.054128055554219e-05 0 -2.8209490659664402e-05 -1.5795173561731685e-05 0 -4.0148389440012488e-05 -2.2608101263925089e-05 0 -4.3179768078041477e-05 -2.6674142087708999e-05 0 -4.0420461174755139e-05 -2.4098199916095443e-05 0 -5.2793113617464064e-05 -4.444768092162047e-05 0 -5.3573033708314552e-05 -4.6932390127425201e-05 0 -5.1861123274222207e-05 -4.2834331049839834e-05 0 -3.2593031420248901e-05 -2.9423203448142616e-05 0 -3.5208454747916656e-05 -3.5549520268014388e-05 0 -3.4507123362380437e-05 -3.1967185655339003e-05 0 -6.2174556497161468e-05 3.8043323343282211e-05 0 -4.9924533282004085e-05 2.6884618070190377e-05 0 -5.1960848696210495e-05 3.6076852786979784e-05 0 -1.5824070100585421e-05 -4.5938702668777808e-06 0 -1.2710119747818768e-05 -3.1017211742477476e-06 0 -1.4977065647563288e-05 -4.3224787159634988e-06 0 -6.412805135160691e-06 1.3454024664736165e-06 0 -6.8191474605275451e-06 7.070971943207364e-07 0 -8.3751545943031032e-06 1.1869461148569299e-06 0 -9.2024174743862851e-05 0.00013502943527764544 0 -8.0629543469313704e-05 0.00011466008077936233 0 -7.4967663431342824e-05 0.0001389307882914746 0 -3.6073648418770742e-05 -6.3944073907519613e-05 0 -3.0639278851099901e-05 -6.9419429232017423e-05 0 -2.8228378747221907e-05 -5.5888421299122261e-05 0 -2.5339813095412965e-06 7.476106051269951e-08 0 -1.1766435970535712e-06 -6.3211860704439032e-08 0 -1.4715624205185812e-06 8.9015879554606038e-08 0 -3.0215986756220538e-05 -1.6555017332172017e-05 0 -2.5130535737398791e-05 -1.3760325624354056e-05 0 -2.5496105072286563e-05 -1.222429255874748e-05 0 4.9305358222324006e-06 0.00012516083703291501 0 4.0712537856087726e-06 0.00015188770774839935 0 -1.1317306588780409e-05 0.00013517637478777599 0 -6.371551105255976e-06 -2.6450976098743735e-07 0 -7.2410469628116656e-06 4.0019286337731379e-07 0 -8.5666047271906597e-06 2.3481013809913885e-07 0 -2.5307857190736893e-05 -1.6154090589439075e-05 0 -2.8209490659664402e-05 -1.5795173561731685e-05 0 -2.8097575220731082e-05 -2.0497303977323673e-05 0 -3.1096427589353425e-05 -2.104166701074595e-05 0 -2.8097575220731082e-05 -2.0497303977323673e-05 0 -2.8209490659664402e-05 -1.5795173561731685e-05 0 -4.9641723132535786e-05 -4.0777958987304233e-05 0 -5.0443702738293756e-05 -4.0027614395552698e-05 0 -5.1861123274222207e-05 -4.2834331049839834e-05 0 -5.2793113617464064e-05 -4.444768092162047e-05 0 -5.1861123274222207e-05 -4.2834331049839834e-05 0 -5.0443702738293756e-05 -4.0027614395552698e-05 0 -3.2593031420248901e-05 -2.9423203448142616e-05 0 -3.4097993118439227e-05 -3.4172547192117481e-05 0 -3.5208454747916656e-05 -3.5549520268014388e-05 0 -3.6640209671090441e-05 -3.9042913841233049e-05 0 -3.5208454747916656e-05 -3.5549520268014388e-05 0 -3.4097993118439233e-05 -3.4172547192117488e-05 0 -1.1130847451867111e-05 5.3147119515445388e-06 0 -9.5046529013120901e-06 3.8290780003601992e-06 0 -1.2238251098025248e-05 3.0406182488295009e-06 0 -1.8994080543782823e-05 -5.1361565512768236e-06 0 -2.3387454558926857e-05 -6.6814269605432222e-07 0 -2.4455649730894587e-05 -1.054128055554219e-05 0 -2.7525403136578195e-05 -7.7437863979275087e-06 0 -2.4455649730894587e-05 -1.0541280555542192e-05 0 -2.3387454558926857e-05 -6.6814269605432222e-07 0 -6.2483463152824271e-05 -6.745705286941825e-05 0 -7.063045204453709e-05 -7.071656289317141e-05 0 -6.8589774340900093e-05 -7.9639653288506978e-05 0 -2.397250729500263e-05 -8.8529023683877239e-06 0 -2.793041516467093e-05 -1.1654579056419602e-05 0 -2.2819748875505688e-05 -8.7332781902005094e-06 0 -2.548177372368103e-05 -1.1040207166234159e-05 0 -2.2819748875505688e-05 -8.7332781902005094e-06 0 -2.793041516467093e-05 -1.1654579056419602e-05 0 -2.5469997909776276e-05 -2.0699259073773756e-05 0 -3.3021854853856967e-05 -1.7448672674642767e-05 0 -3.1223878856607941e-05 -1.5775647830373382e-05 0 -4.7971018242034821e-05 -3.6796910249034152e-05 0 -5.0443702738293756e-05 -4.0027614395552698e-05 0 -4.7749427411771326e-05 -3.8081802218062992e-05 0 -3.3867477528122167e-05 -3.3419440064349462e-05 0 -3.6011889032024781e-05 -3.6907921944016218e-05 0 -3.4097993118439233e-05 -3.4172547192117488e-05 0 -8.3599175638577518e-06 2.6960787264084443e-07 0 -8.3751545943031032e-06 1.1869461148569299e-06 0 -6.8191474605275451e-06 7.070971943207364e-07 0 -4.176069360516631e-05 -4.5090118459686698e-05 0 -4.0982748761041432e-05 -4.3192081124740513e-05 0 -4.2755852118949884e-05 -4.3011744524270196e-05 0 -6.7817116267672503e-06 -6.1597646845570194e-08 0 -5.1564705561350941e-06 3.6627475970502297e-07 0 -4.4752485822049737e-06 2.9314472697405357e-07 0 -3.4740350906876415e-05 -1.635169451551746e-05 0 -3.2500826559931777e-05 -1.289904351884616e-05 0 -3.3847421729913039e-05 -1.4154204340368274e-05 0 -2.5339813095412965e-06 7.476106051269951e-08 0 -3.6686871133781149e-06 3.5809124735112175e-07 0 -3.4618641249865602e-06 3.3987710358234466e-08 0 -6.1549994887499955e-05 0.00015102112012946089 0 -5.2638862861194936e-05 0.00012988469214892515 0 -4.1934783127640104e-05 0.00014631759165698336 0 -6.4161347812211674e-05 0.0001971392129408591 0 -4.3863774796321546e-05 0.00019695279234174118 0 -5.3263245484705278e-05 0.00021365770266512779 0 -5.5222900356121561e-05 -9.6499360508817039e-05 0 -6.3641112142921478e-05 -9.646118341410706e-05 0 -6.1271856315298594e-05 -0.00010438878920156363 0 -7.8993206196211151e-06 2.8074839185976537e-05 0 -1.8382195937670739e-05 9.4481413129254658e-06 0 -9.9629844702260315e-06 2.4932205756530661e-06 0 -2.5339813095412965e-06 7.476106051269951e-08 0 -1.4715624205185812e-06 8.9015879554606038e-08 0 -2.7628062760384379e-06 2.5879344281753926e-07 0 -8.1141245466561615e-05 -8.051070539025627e-05 0 -7.6351338977791882e-05 -8.6660385349631694e-05 0 -6.8589774340900093e-05 -7.9639653288506978e-05 0 -8.6384708500878766e-05 -0.00014897744661074264 0 -7.9646911284037098e-05 -0.00014329731987066231 0 -8.6445682670996694e-05 -0.0001389485016402307 0 -1.0788594768712433e-05 0.00030018382455323703 0 -2.3947827788693084e-05 0.00029362613767636972 0 -8.7238762532101783e-06 0.00027863461220766866 0 -1.0788594768712433e-05 0.00030018382455323703 0 -3.1950066228727178e-05 0.00030766570184371069 0 -2.3947827788693087e-05 0.00029362613767636972 0 -3.4368079227106545e-05 -0.00014132066895211116 0 -3.9373035201100549e-05 -0.00013948876381586015 0 -4.2616802712943715e-05 -0.00014538810900552397 0 -0.00014034267312800029 0.00031475059945072694 0 -0.00014043253424114377 0.00029134536552870511 0 -0.00012464587463644064 0.00030148653822718901 0 -8.6384708500878766e-05 -0.00014897744661074264 0 -7.6353253133946047e-05 -0.00014886600733005485 0 -7.9646911284037098e-05 -0.00014329731987066231 0 -3.4368079227106545e-05 -0.00014132066895211116 0 -3.3212879231627425e-05 -0.00013241249673677806 0 -3.9373035201100549e-05 -0.00013948876381586015 0 -0.00014034267312800029 0.00031475059945072694 0 -0.00012464587463644064 0.00030148653822718901 0 -0.00011691734243121329 0.00031458032244845499 0 -1.7164944230295421e-09 -6.5268874824224302e-11 0 -1.4715624205185812e-06 8.9015879554606038e-08 0 -1.1766435970535712e-06 -6.3211860704439032e-08 0 -3.8910944700789918e-05 -2.379328725552638e-05 0 -3.6860865009907374e-05 -2.3829724101579131e-05 0 -3.6184760602810353e-05 -1.991763234372691e-05 0 -2.548177372368103e-05 -1.1040207166234159e-05 0 -2.9866932627800916e-05 -1.4195466839018381e-05 0 -2.5496105072286563e-05 -1.222429255874748e-05 0 -6.2483463152824271e-05 -6.745705286941825e-05 0 -5.9203153485354514e-05 -7.4274255564627268e-05 0 -5.5068546769370979e-05 -6.6264052347303915e-05 0 -6.3268180565117921e-06 7.5743163138812872e-07 0 -8.7649443712742496e-06 1.5003078029437029e-06 0 -7.2410469628116656e-06 4.0019286337731379e-07 0 -6.9063269547857206e-05 0.000228915504540365 0 -8.5612906852968349e-05 0.00024462855432915353 0 -8.5698692225087233e-05 0.00022108665800527302 0 -5.5842259049784389e-05 -0.00011064650696068713 0 -5.0417956259081544e-05 -0.00011721397622877949 0 -4.8563017466878857e-05 -0.00010638227856953579 0 -5.0297388891544743e-05 -3.8335782876790113e-05 0 -5.1752688567611005e-05 -4.1578202709644312e-05 0 -4.9614733950974198e-05 -3.7882292723110387e-05 0 -2.7745958405255263e-05 -2.3768462029421236e-05 0 -3.1128477526043817e-05 -2.9398800968990659e-05 0 -3.0415342402126244e-05 -2.6760334753953186e-05 0 -1.4322662233184654e-05 -7.1379293095858497e-06 0 -2.0549768597333482e-05 -1.2702823921029477e-05 0 -1.8383379724811484e-05 -1.2876121633209588e-05 0 -3.0215986756220538e-05 -1.6555017332172017e-05 0 -2.5496105072286563e-05 -1.222429255874748e-05 0 -2.9866932627800916e-05 -1.4195466839018381e-05 0 -4.6061040397245809e-05 -2.9882280429032754e-05 0 -4.84938352149132e-05 -3.4398985741158572e-05 0 -4.541331058616465e-05 -3.049414554488261e-05 0 -2.1734202433901983e-05 -1.6950114954141978e-05 0 -2.5923325314010612e-05 -2.1979373814476295e-05 0 -2.4928856096033029e-05 -2.0553234568520293e-05 0 -4.7807006840696451e-05 -5.8113678557772306e-05 0 -4.219549338751136e-05 -6.1322030393319094e-05 0 -4.0869329668534846e-05 -5.003982746996474e-05 0 -6.412805135160691e-06 1.3454024664736165e-06 0 -5.4279145466339044e-06 8.0668007402083878e-07 0 -6.8191474605275451e-06 7.070971943207364e-07 0 -4.1086839554517011e-05 -0.00010110951676102894 0 -4.682108503989205e-05 -9.4138165530072395e-05 0 -4.8563017466878857e-05 -0.00010638227856953579 0 -0.00010287431047288947 0.00021354150598757398 0 -8.4158985477725943e-05 0.00019773435725442171 0 -8.5698692225087233e-05 0.00022108665800527302 0 -2.8336549671709544e-05 -2.3503088626572896e-05 0 -2.4115122207645633e-05 -1.859232055978547e-05 0 -2.8097575220731082e-05 -2.0497303977323673e-05 0 -2.5307857190736893e-05 -1.6154090589439075e-05 0 -2.8097575220731086e-05 -2.0497303977323673e-05 0 -2.4115122207645633e-05 -1.859232055978547e-05 0 -9.7407925338225536e-06 -1.4761133506868117e-06 0 -9.0116724782724362e-06 -1.2961211982833893e-06 0 -1.180234524530505e-05 -2.5783637757583576e-06 0 -3.3587212228518724e-05 -2.5015546793529719e-05 0 -2.8766526709220986e-05 -2.1457120637137972e-05 0 -2.927300143828051e-05 -1.8555175324592983e-05 0 -3.3403300701690021e-05 -4.9491845497118401e-05 0 -2.6581628612319951e-05 -4.3873707084885616e-05 0 -2.9884762071057003e-05 -3.4851184963323197e-05 0 -3.4618248356041183e-05 -1.9656200700836419e-05 0 -3.6184760602810353e-05 -1.991763234372691e-05 0 -3.6860865009907374e-05 -2.3829724101579131e-05 0 -2.1768551442896601e-05 -3.6202406831597006e-05 0 -2.6581628612319951e-05 -4.3873707084885616e-05 0 -2.0803202823847294e-05 -4.8205180375158213e-05 0 -2.8866295901012973e-05 -2.6169902166028507e-05 0 -3.033600135829896e-05 -2.6913211841288192e-05 0 -3.2433189338598889e-05 -3.0753525060459509e-05 0 -3.3498814710811669e-05 -3.0045441995093575e-05 0 -3.2433189338598889e-05 -3.0753525060459509e-05 0 -3.033600135829896e-05 -2.6913211841288192e-05 0 -1.1206202380595745e-05 -2.7932979061089105e-06 0 -1.4315439107765187e-05 -4.4366661715868045e-06 0 -1.4977065647563288e-05 -4.3224787159634988e-06 0 -1.8896961921737762e-05 -6.2019107267381384e-06 0 -2.1805100838906133e-05 -7.5992705820448331e-06 0 -1.8662392842832857e-05 -4.1357283588164574e-06 0 -2.2030529017737071e-05 -4.8362147940064295e-06 0 -1.8662392842832857e-05 -4.1357283588164574e-06 0 -2.1805100838906133e-05 -7.5992705820448331e-06 0 -1.3414644656990117e-05 1.4675881137290555e-05 0 -1.7864419378620871e-05 1.111925690189425e-05 0 -1.433174537273475e-05 1.8763297671231939e-05 0 -2.0212388202804262e-05 8.4068431111901978e-06 0 -1.433174537273475e-05 1.8763297671231939e-05 0 -1.7864419378620871e-05 1.111925690189425e-05 0 4.0712537856087709e-06 0.00015188770774839937 0 2.4337580938543384e-06 0.00017848974549413264 0 -1.6651916308685273e-05 0.00016891250131615405 0 -1.5110020446694313e-05 7.9823765616759391e-06 0 -1.1802338175043302e-05 7.4721277052262569e-06 0 -1.3683643249236072e-05 5.5032920890443488e-06 0 -8.1141245466561615e-05 -8.051070539025627e-05 0 -8.3782178760234146e-05 -9.2888018416896842e-05 0 -7.6351338977791882e-05 -8.6660385349631694e-05 0 -1.0963602384886858e-05 -2.2105795310075776e-06 0 -1.180234524530505e-05 -2.5783637757583576e-06 0 -9.0116724782724362e-06 -1.2961211982833893e-06 0 -1.4096236769260836e-05 1.3446748257491823e-06 0 -1.083345075082338e-05 7.4844629918998963e-07 0 -9.4835402969841112e-06 8.3274502032880022e-08 0 -1.1206202380595745e-05 -2.7932979061089105e-06 0 -7.7863393789978571e-06 -1.4674906241501086e-06 0 -8.4916490790390948e-06 -2.0566736665168219e-06 0 -8.4573733586438999e-06 2.6376533913779361e-06 0 -6.5615876140879772e-06 1.7640807474804359e-06 0 -8.0778515082586695e-06 3.426008073694929e-06 0 -6.4050632628424427e-06 -3.7395593604340715e-06 0 -5.1361945779127603e-06 -2.1350701959356441e-06 0 -2.6516374261013422e-06 -1.285896247127894e-06 0 -3.8373533972720825e-09 2.3717727910747582e-10 0 -2.6516374261013422e-06 -1.285896247127894e-06 0 -5.1361945779127603e-06 -2.1350701959356441e-06 0 -8.1948537162741366e-06 4.0310100876824391e-06 0 -3.4398746183984362e-06 1.2516008800377097e-06 0 -6.833508941068359e-06 1.7803464277795114e-06 0 -5.1907452074287964e-09 -5.9527170982542759e-10 0 -6.833508941068359e-06 1.7803464277795114e-06 0 -3.4398746183984362e-06 1.2516008800377097e-06 0 -3.3587212228518724e-05 -2.5015546793529719e-05 0 -3.961628679051257e-05 -2.8870869660445481e-05 0 -3.875558567525011e-05 -3.3441151715649843e-05 0 -2.5339813095412965e-06 7.476106051269951e-08 0 -2.7628062760384379e-06 2.5879344281753926e-07 0 -3.6686871133781149e-06 3.5809124735112175e-07 0 -3.0521093816136142e-05 0.00012737508506634993 0 -1.2256794759537613e-05 0.00011766571871783785 0 -1.1317306588780409e-05 0.00013517637478777599 0 -2.9123622280510787e-05 3.4954750527708264e-05 0 -3.0883472008930851e-05 2.6583417634528339e-05 0 -2.2499961374931821e-05 2.3552584757272661e-05 0 -1.5110020446694313e-05 7.9823765616759391e-06 0 -1.2862563402412102e-05 1.0654158185789708e-05 0 -1.1802338175043302e-05 7.4721277052262569e-06 0 -3.6518259232373691e-05 -3.946453157605739e-05 0 -3.3638888197910354e-05 -2.9657932095653564e-05 0 -3.875558567525011e-05 -3.3441151715649843e-05 0 -9.4090137703884457e-05 0.000313911203825965 0 -0.00011691734243121329 0.00031458032244845499 0 -0.00010528766769648504 0.00030256119373684218 0 -5.0205359788194827e-05 -0.00014717731054096286 0 -4.2616802712943715e-05 -0.00014538810900552397 0 -4.6084044123503843e-05 -0.00014208334924659409 0 -3.1950066228727178e-05 0.00030766570184371069 0 -5.2066868139371737e-05 0.00031123164130397491 0 -4.1365626385239407e-05 0.0002988571843025316 0 -7.6353253133946061e-05 -0.00014886600733005485 0 -6.6755809788083547e-05 -0.00014846789452518231 0 -7.1410384533989905e-05 -0.00014373109357161023 0 -4.5312803549537072e-05 -3.7313354554652971e-05 0 -4.7749427411771326e-05 -3.8081802218062992e-05 0 -4.6618078154051935e-05 -3.9502375602902298e-05 0 -3.7736987418877761e-05 -3.795615840444163e-05 0 -3.8004242036343093e-05 -4.045138752474026e-05 0 -3.6011889032024781e-05 -3.6907921944016218e-05 0 -7.6153497476126861e-09 -3.2603704636210356e-09 0 -2.6516374261013426e-06 -1.2858962471278942e-06 0 -3.8373533972720825e-09 2.3717727910747582e-10 0 -9.3151387428968493e-09 3.9779738906560587e-09 0 -5.1907452074287964e-09 -5.9527170982542759e-10 0 -3.4398746183984362e-06 1.2516008800377097e-06 0 -9.3151387428968493e-09 3.9779738906560587e-09 0 -3.4398746183984362e-06 1.2516008800377097e-06 0 -8.1948537162741366e-06 4.0310100876824391e-06 0 -7.6153497476126861e-09 -3.2603704636210356e-09 0 -6.4050632628424427e-06 -3.7395593604340715e-06 0 -2.6516374261013422e-06 -1.285896247127894e-06 0 -3.6073648418770742e-05 -6.3944073907519613e-05 0 -4.2195493387511353e-05 -6.132203039331908e-05 0 -4.3791794408740756e-05 -7.334479536677092e-05 0 -1.4670567691299695e-05 -4.2632195433095011e-06 0 -1.7706367706133492e-05 -6.1602828761947823e-06 0 -1.6457874053439884e-05 -5.7083982271361248e-06 0 -3.4740350906876415e-05 -1.635169451551746e-05 0 -3.6184760602810353e-05 -1.991763234372691e-05 0 -3.3569493599123106e-05 -1.5856956954051864e-05 0 -3.4618248356041183e-05 -1.9656200700836419e-05 0 -3.3569493599123106e-05 -1.5856956954051864e-05 0 -3.6184760602810353e-05 -1.991763234372691e-05 0 -9.7407925338225536e-06 -1.4761133506868117e-06 0 -1.2728661429972946e-05 -3.0724155911857814e-06 0 -1.0807282599967485e-05 -1.8968419243468492e-06 0 -5.542559323308702e-06 5.3578886369630837e-07 0 -5.1564705561350941e-06 3.6627475970502297e-07 0 -7.3623687578976051e-06 1.1308363406479648e-07 0 -6.7817116267672503e-06 -6.1597646845570194e-08 0 -7.3623687578976051e-06 1.1308363406479648e-07 0 -5.1564705561350941e-06 3.6627475970502297e-07 0 -2.0212388202804262e-05 8.4068431111901978e-06 0 -1.8382195937670739e-05 9.4481413129254658e-06 0 -1.433174537273475e-05 1.8763297671231939e-05 0 -7.8993206196211151e-06 2.8074839185976537e-05 0 -1.4331745372734748e-05 1.8763297671231942e-05 0 -1.8382195937670739e-05 9.4481413129254658e-06 0 -4.4446180263731711e-05 -3.4210434711635964e-05 0 -3.875558567525011e-05 -3.3441151715649843e-05 0 -3.961628679051257e-05 -2.8870869660445481e-05 0 -2.8336549671709544e-05 -2.3503088626572896e-05 0 -3.033600135829896e-05 -2.6913211841288192e-05 0 -2.5923325314010612e-05 -2.1979373814476295e-05 0 -4.3120281434400829e-05 -2.7825534671625657e-05 0 -4.541331058616465e-05 -3.049414554488261e-05 0 -4.4382913399560505e-05 -3.0365016031766302e-05 0 -8.3599175638577518e-06 2.6960787264084443e-07 0 -9.8728848482465061e-06 3.9597006213510316e-07 0 -8.3751545943031032e-06 1.1869461148569299e-06 0 -3.5153931216374506e-05 0.00021283764250765191 0 -1.5098358564628796e-05 0.000201048198631658 0 -1.7992608499369439e-05 0.00021877214951828366 0 -6.9203715085530267e-05 -0.00010507413064939757 0 -7.763252450345707e-05 -0.00010100900855863471 0 -7.7762076962557697e-05 -0.0001094704900640093 0 -2.5469997909776276e-05 -2.0699259073773756e-05 0 -2.4387786384109779e-05 -1.5849049557349347e-05 0 -2.495118348910385e-05 -1.8145380764482535e-05 0 -2.5307857190736893e-05 -1.6154090589439075e-05 0 -2.0549768597333482e-05 -1.2702823921029477e-05 0 -2.4455649730894587e-05 -1.054128055554219e-05 0 -0.00010287431047288947 0.00021354150598757398 0 -0.00011738531234167763 0.00019981938381338798 0 -9.9673425999812716e-05 0.00019180503237306015 0 -4.1086839554517011e-05 -0.00010110951676102894 0 -3.382432270583879e-05 -9.2938330555459981e-05 0 -3.9971356186797986e-05 -9.0701723355090139e-05 0 -3.6073648418770742e-05 -6.3944073907519613e-05 0 -3.7729193412421438e-05 -7.4370809455557874e-05 0 -3.0639278851099901e-05 -6.9419429232017423e-05 0 -4.3549224176130248e-05 -3.4509031854439589e-05 0 -4.3206246786219809e-05 -3.6362144740885457e-05 0 -4.1266500471921163e-05 -3.4059679513848944e-05 0 -3.3867477528122167e-05 -3.3419440064349462e-05 0 -3.1128477526043817e-05 -2.9398800968990659e-05 0 -3.2433189338598889e-05 -3.0753525060459509e-05 0 -1.3557808981579934e-05 4.6148072977806882e-06 0 -1.0903775414760969e-05 2.8051398638513133e-06 0 -1.10688149551495e-05 4.7456378415990711e-06 0 -4.1762074141412672e-05 -4.076975365779063e-05 0 -3.992138666215716e-05 -4.0695756802751153e-05 0 -4.0036798837292777e-05 -3.8049888501251049e-05 0 -1.0963602384886858e-05 -2.2105795310075776e-06 0 -9.0116724782724362e-06 -1.2961211982833893e-06 0 -8.4976858342876855e-06 -1.2283679651459617e-06 0 -6.757049849069675e-06 -5.6322899465054004e-07 0 -8.4976858342876855e-06 -1.2283679651459617e-06 0 -9.0116724782724362e-06 -1.2961211982833893e-06 0 -1.4988527556078351e-05 -1.431213514898781e-06 0 -1.6517452364045617e-05 -3.8244950016289444e-06 0 -1.8662392842832857e-05 -4.1357283588164574e-06 0 -3.3587212228518724e-05 -2.5015546793529719e-05 0 -3.875558567525011e-05 -3.3441151715649843e-05 0 -3.3638888197910354e-05 -2.9657932095653564e-05 0 -9.7407925338225536e-06 -1.4761133506868117e-06 0 -1.0807282599967485e-05 -1.8968419243468492e-06 0 -8.2961335691372975e-06 -7.5656269143595257e-07 0 -9.6938011744582343e-06 -1.1190803128180805e-06 0 -8.2961335691372975e-06 -7.5656269143595257e-07 0 -1.0807282599967485e-05 -1.8968419243468492e-06 0 -1.2728661429972946e-05 -3.0724155911857814e-06 0 -1.2335866450383646e-05 -2.6590876409671106e-06 0 -1.0807282599967485e-05 -1.8968419243468492e-06 0 -4.4953077064234492e-05 -4.1216919689143431e-05 0 -4.6618078154051935e-05 -3.9502375602902298e-05 0 -4.8080263598672289e-05 -4.2144455101357826e-05 0 -4.9641723132535786e-05 -4.0777958987304233e-05 0 -4.8080263598672289e-05 -4.2144455101357826e-05 0 -4.6618078154051935e-05 -3.9502375602902298e-05 0 -3.6640209671090441e-05 -3.9042913841233049e-05 0 -3.8004242036343093e-05 -4.045138752474026e-05 0 -3.8446576344751022e-05 -4.2946211756800651e-05 0 -3.9382400625481977e-05 -4.2393528977547812e-05 0 -3.8446576344751022e-05 -4.2946211756800651e-05 0 -3.8004242036343093e-05 -4.045138752474026e-05 0 -2.0212388202804262e-05 8.4068431111901978e-06 0 -2.3387454558926861e-05 -6.6814269605432233e-07 0 -1.8382195937670739e-05 9.4481413129254658e-06 0 -3.2566991572090583e-05 0.00028361819767915741 0 -4.1365626385239407e-05 0.0002988571843025316 0 -5.2889058920364743e-05 0.00029135729694656489 0 -7.5012169695380041e-05 -0.00013767463260767968 0 -7.1410384533989905e-05 -0.00014373109357161023 0 -6.5839473062776551e-05 -0.00013970546617419154 0 -4.2539355327325086e-05 -0.00013544912179729851 0 -5.0392805618342952e-05 -0.00013906327571541589 0 -4.6084044123503843e-05 -0.00014208334924659409 0 -0.00011390981035548936 0.00028844569518203154 0 -9.19645459876538e-05 0.00029305806881183612 0 -0.00010528766769648504 0.00030256119373684218 0 -0.00010287431047288947 0.00021354150598757398 0 -9.9673425999812716e-05 0.00019180503237306015 0 -8.4158985477725943e-05 0.00019773435725442171 0 -4.1086839554517011e-05 -0.00010110951676102894 0 -3.9971356186797986e-05 -9.0701723355090139e-05 0 -4.682108503989205e-05 -9.4138165530072395e-05 0 -3.6073648418770742e-05 -6.3944073907519613e-05 0 -4.3791794408740756e-05 -7.334479536677092e-05 0 -3.7729193412421445e-05 -7.4370809455557874e-05 0 -1.8896961921737762e-05 -6.2019107267381384e-06 0 -1.8662392842832857e-05 -4.1357283588164574e-06 0 -1.6517452364045617e-05 -3.8244950016289444e-06 0 -5.2066868139371737e-05 0.00031123164130397491 0 -5.2889058920364743e-05 0.00029135729694656489 0 -4.1365626385239407e-05 0.0002988571843025316 0 -6.6755809788083547e-05 -0.00014846789452518231 0 -6.5839473062776551e-05 -0.00013970546617419154 0 -7.1410384533989905e-05 -0.00014373109357161023 0 -9.4090137703884457e-05 0.000313911203825965 0 -0.00010528766769648504 0.00030256119373684218 0 -9.19645459876538e-05 0.00029305806881183612 0 -5.0205359788194827e-05 -0.00014717731054096286 0 -4.608404412350385e-05 -0.00014208334924659409 0 -5.0392805618342952e-05 -0.00013906327571541589 0 -4.1394877349915541e-05 -3.6385173991318672e-05 0 -4.1266500471921163e-05 -3.4059679513848944e-05 0 -4.3206246786219809e-05 -3.6362144740885457e-05 0 -2.1768551442896601e-05 -3.6202406831597006e-05 0 -2.9884762071057003e-05 -3.4851184963323197e-05 0 -2.6581628612319951e-05 -4.3873707084885616e-05 0 -5.3573033708314552e-05 -4.6932390127425195e-05 0 -5.1922566588553712e-05 -4.3764957048004889e-05 0 -5.1861123274222207e-05 -4.2834331049839834e-05 0 -3.4507123362380437e-05 -3.1967185655339003e-05 0 -3.5208454747916656e-05 -3.5549520268014388e-05 0 -3.68683469246798e-05 -3.8930222274560955e-05 0 -5.542559323308702e-06 5.3578886369630837e-07 0 -3.9412171927402273e-06 4.569579009563887e-07 0 -5.1564705561350941e-06 3.6627475970502297e-07 0 -0.00010998453723796307 0.00017444081258816593 0 -0.00011098928757579452 0.00014984646148482721 0 -9.4292793692740218e-05 0.0001542284269280525 0 -9.2024174743862851e-05 0.00013502943527764544 0 -9.4292793692740218e-05 0.0001542284269280525 0 -0.00011098928757579452 0.00014984646148482721 0 -3.8922108578190334e-05 -3.1370956434472575e-05 0 -4.1243547717368792e-05 -3.1529654646993409e-05 0 -4.1266500471921163e-05 -3.4059679513848944e-05 0 -1.2428573873959811e-05 -2.1129174034225939e-06 0 -1.2335866450383646e-05 -2.6590876409671106e-06 0 -1.4279812882952214e-05 -3.8691524199074819e-06 0 -3.4740350906876415e-05 -1.635169451551746e-05 0 -3.3569493599123106e-05 -1.5856956954051864e-05 0 -3.2500826559931777e-05 -1.2899043518846162e-05 0 -3.1088814330732293e-05 -1.1183832434611937e-05 0 -3.2500826559931777e-05 -1.2899043518846162e-05 0 -3.3569493599123106e-05 -1.5856956954051864e-05 0 -8.4350791592250926e-05 0.00017337500689667629 0 -8.4158985477725943e-05 0.00019773435725442171 0 -9.9673425999812716e-05 0.00019180503237306015 0 -4.3715002853162013e-05 -8.3198692693906627e-05 0 -4.682108503989205e-05 -9.4138165530072395e-05 0 -3.9971356186797986e-05 -9.0701723355090139e-05 0 -4.3715002853162013e-05 -8.3198692693906627e-05 0 -3.7729193412421445e-05 -7.4370809455557874e-05 0 -4.3791794408740756e-05 -7.334479536677092e-05 0 -7.3138481373513719e-06 -2.2364577609593192e-06 0 -1.1066993729077218e-05 -3.4058225750369166e-06 0 -8.4916490790390948e-06 -2.0566736665168219e-06 0 -9.625569609363505e-06 1.2995164707458841e-06 0 -1.083345075082338e-05 7.4844629918998963e-07 0 -1.46529805555319e-05 2.2183568073283866e-06 0 -1.9589420385655277e-05 4.3041721265361034e-06 0 -1.46529805555319e-05 2.2183568073283866e-06 0 -1.88599951729334e-05 3.1924052539761716e-06 0 -1.4449037242418132e-05 -5.1648248159940389e-06 0 -1.4315439107765187e-05 -4.4366661715868045e-06 0 -1.1066993729077218e-05 -3.4058225750369161e-06 0 -1.6062292785293006e-05 -4.7615746888263949e-06 0 -1.6517452364045617e-05 -3.8244950016289444e-06 0 -1.4264120697483459e-05 -2.5617691257240098e-06 0 -0.00010998453723796307 0.00017444081258816593 0 -9.9673425999812716e-05 0.00019180503237306015 0 -0.00011738531234167763 0.00019981938381338798 0 -3.4030268522914724e-05 -8.154925753195926e-05 0 -3.9971356186797986e-05 -9.0701723355090139e-05 0 -3.382432270583879e-05 -9.2938330555459981e-05 0 -3.4030268522914724e-05 -8.154925753195926e-05 0 -3.0639278851099901e-05 -6.9419429232017423e-05 0 -3.7729193412421445e-05 -7.4370809455557874e-05 0 -4.7807006840696451e-05 -5.8113678557772306e-05 0 -5.4766068066289879e-05 -5.8284658510912764e-05 0 -5.5068546769370979e-05 -6.6264052347303915e-05 0 -4.3549224176130248e-05 -3.4509031854439589e-05 0 -4.1266500471921163e-05 -3.4059679513848944e-05 0 -4.1243547717368792e-05 -3.1529654646993409e-05 0 -1.3557808981579934e-05 4.6148072977806882e-06 0 -1.4907626935049874e-05 7.3685399593649785e-06 0 -1.7767573045695105e-05 6.4295176340750541e-06 0 -1.908839217198798e-05 -8.6341378070594995e-06 0 -1.6649778691931546e-05 -5.9982018625708864e-06 0 -1.8225722671665818e-05 -7.5766493730030831e-06 0 -1.1206202380595745e-05 -2.7932979061089105e-06 0 -1.4977065647563288e-05 -4.3224787159634996e-06 0 -1.2710119747818768e-05 -3.1017211742477476e-06 0 -8.3465832241079926e-05 9.3806016781305975e-05 0 -7.0594840132861183e-05 9.5217897727672615e-05 0 -8.0629543469313704e-05 0.00011466008077936233 0 -5.607633571121055e-05 -4.9060367840645599e-05 0 -5.4766068066289879e-05 -5.8284658510912764e-05 0 -5.0570348689865324e-05 -4.9869046819471009e-05 0 -3.5153931216374506e-05 0.00021283764250765191 0 -5.3263245484705278e-05 0.00021365770266512779 0 -4.3863774796321553e-05 0.00019695279234174118 0 -6.9203715085530267e-05 -0.00010507413064939757 0 -6.1271856315298594e-05 -0.00010438878920156363 0 -6.3641112142921478e-05 -9.646118341410706e-05 0 -3.0521093816136142e-05 0.00012737508506634993 0 -4.1934783127640104e-05 0.00014631759165698336 0 -5.2638862861194936e-05 0.00012988469214892515 0 -1.8530755561914819e-05 -6.2627496628755154e-06 0 -1.9827958373713405e-05 -6.7412053071856169e-06 0 -2.2819748875505688e-05 -8.7332781902005094e-06 0 -1.5087116473616579e-05 -4.754484038839008e-06 0 -1.4279812882952214e-05 -3.8691524199074819e-06 0 -1.2335866450383646e-05 -2.6590876409671106e-06 0 -5.1421866618948811e-05 -7.3550595238651201e-05 0 -5.5068546769370979e-05 -6.6264052347303915e-05 0 -5.9203153485354514e-05 -7.4274255564627268e-05 0 -4.9641723132535786e-05 -4.0777958987304233e-05 0 -5.1861123274222207e-05 -4.2834331049839834e-05 0 -5.1922566588553712e-05 -4.3764957048004889e-05 0 -3.6640209671090441e-05 -3.9042913841233049e-05 0 -3.68683469246798e-05 -3.8930222274560955e-05 0 -3.5208454747916656e-05 -3.5549520268014388e-05 0 -9.6938011744582343e-06 -1.1190803128180805e-06 0 -1.0807282599967485e-05 -1.8968419243468492e-06 0 -1.2335866450383646e-05 -2.6590876409671106e-06 0 -0.00011691734243121329 0.00031458032244845499 0 -0.00012464587463644064 0.00030148653822718901 0 -0.00010528766769648504 0.00030256119373684218 0 -0.00011390981035548936 0.00028844569518203154 0 -0.00010528766769648504 0.00030256119373684218 0 -0.00012464587463644064 0.00030148653822718901 0 -4.2539355327325086e-05 -0.00013544912179729851 0 -4.6084044123503843e-05 -0.00014208334924659409 0 -3.9373035201100549e-05 -0.00013948876381586015 0 -4.2616802712943715e-05 -0.00014538810900552397 0 -3.9373035201100549e-05 -0.00013948876381586015 0 -4.6084044123503843e-05 -0.00014208334924659409 0 -3.1950066228727178e-05 0.00030766570184371069 0 -4.1365626385239407e-05 0.0002988571843025316 0 -2.3947827788693087e-05 0.00029362613767636972 0 -7.6353253133946061e-05 -0.00014886600733005485 0 -7.1410384533989905e-05 -0.00014373109357161023 0 -7.9646911284037098e-05 -0.00014329731987066231 0 -3.2566991572090583e-05 0.00028361819767915741 0 -2.3947827788693087e-05 0.00029362613767636972 0 -4.1365626385239407e-05 0.0002988571843025316 0 -7.5012169695380041e-05 -0.00013767463260767968 0 -7.9646911284037098e-05 -0.00014329731987066231 0 -7.1410384533989905e-05 -0.00014373109357161023 0 -3.8922108578190334e-05 -3.1370956434472575e-05 0 -4.1266500471921163e-05 -3.4059679513848944e-05 0 -3.9255220683068793e-05 -3.4172200050686937e-05 0 -4.3734144532498862e-05 -3.1584000638440623e-05 0 -4.1864616499264017e-05 -2.7765963759845214e-05 0 -4.4382913399560505e-05 -3.0365016031766302e-05 0 -4.3120281434400829e-05 -2.7825534671625657e-05 0 -4.4382913399560505e-05 -3.0365016031766302e-05 0 -4.1864616499264017e-05 -2.7765963759845214e-05 0 -4.1394877349915541e-05 -3.6385173991318672e-05 0 -4.3206246786219809e-05 -3.6362144740885457e-05 0 -4.3420571717060535e-05 -3.8592789116561956e-05 0 -4.5312803549537072e-05 -3.7313354554652971e-05 0 -4.3420571717060535e-05 -3.8592789116561956e-05 0 -4.3206246786219809e-05 -3.6362144740885457e-05 0 -1.3414644656990117e-05 1.4675881137290555e-05 0 -1.5697993237453864e-05 1.0322331275380046e-05 0 -1.7864419378620871e-05 1.111925690189425e-05 0 -2.0299821933649563e-05 1.0863393050723292e-05 0 -2.7140579580139582e-05 1.4921890775779046e-05 0 -2.3964607883068097e-05 9.5454133463158129e-06 0 -3.1520140696687072e-05 1.3424985377804281e-05 0 -2.3964607883068097e-05 9.5454133463158129e-06 0 -2.7140579580139582e-05 1.4921890775779046e-05 0 -1.8530755561914819e-05 -6.2627496628755154e-06 0 -2.1661528074214305e-05 -8.8002242903270359e-06 0 -1.7706367706133492e-05 -6.1602828761947823e-06 0 -8.3465832241079926e-05 9.3806016781305975e-05 0 -6.9593131740663703e-05 7.8364765908312396e-05 0 -7.0594840132861183e-05 9.5217897727672615e-05 0 -5.6491884738549639e-05 8.0875314893943102e-05 0 -7.0594840132861183e-05 9.5217897727672615e-05 0 -6.9593131740663703e-05 7.8364765908312396e-05 0 -1.5110020446694313e-05 7.9823765616759391e-06 0 -1.5697993237453864e-05 1.0322331275380046e-05 0 -1.2862563402412102e-05 1.0654158185789708e-05 0 -3.3498814710811669e-05 -3.0045441995093575e-05 0 -3.5117472297613653e-05 -3.3682401477832831e-05 0 -3.2433189338598889e-05 -3.0753525060459509e-05 0 -3.3867477528122167e-05 -3.3419440064349462e-05 0 -3.2433189338598889e-05 -3.0753525060459509e-05 0 -3.5117472297613653e-05 -3.3682401477832831e-05 0 -1.1155480061043668e-05 9.4224144966558998e-06 0 -1.2862563402412102e-05 1.0654158185789708e-05 0 -1.1928640476268672e-05 1.3253555992004662e-05 0 -4.4033613338669068e-05 -4.3449459100807918e-05 0 -4.9584339055759378e-05 -4.2533996124481919e-05 0 -5.0570348689865324e-05 -4.9869046819471009e-05 0 -5.607633571121055e-05 -4.9060367840645599e-05 0 -5.0570348689865324e-05 -4.9869046819471009e-05 0 -4.9584339055759378e-05 -4.2533996124481919e-05 0 -1.1130847451867111e-05 5.3147119515445388e-06 0 -1.3683643249236072e-05 5.5032920890443488e-06 0 -1.1802338175043302e-05 7.4721277052262569e-06 0 -1.1155480061043668e-05 9.4224144966558998e-06 0 -1.1802338175043302e-05 7.4721277052262569e-06 0 -1.2862563402412102e-05 1.0654158185789708e-05 0 -4.3120281434400829e-05 -2.7825534671625657e-05 0 -4.3179768078041477e-05 -2.6674142087708999e-05 0 -4.541331058616465e-05 -3.049414554488261e-05 0 -1.5087116473616579e-05 -4.754484038839008e-06 0 -1.6649778691931549e-05 -5.9982018625708864e-06 0 -1.4279812882952214e-05 -3.8691524199074819e-06 0 -1.6062292785293006e-05 -4.7615746888263949e-06 0 -1.4279812882952214e-05 -3.8691524199074819e-06 0 -1.6649778691931549e-05 -5.9982018625708864e-06 0 -1.4988527556078351e-05 -1.431213514898781e-06 0 -1.4264120697483459e-05 -2.5617691257240098e-06 0 -1.6517452364045617e-05 -3.8244950016289444e-06 0 1.2007256347837191e-07 0.00020449342852340752 0 -1.7992608499369439e-05 0.00021877214951828366 0 -1.5098358564628796e-05 0.000201048198631658 0 -8.5444729584803451e-05 -0.00010525877134703483 0 -7.7762076962557684e-05 -0.0001094704900640093 0 -7.763252450345707e-05 -0.00010100900855863471 0 -2.397250729500263e-05 -8.8529023683877239e-06 0 -2.2819748875505688e-05 -8.7332781902005094e-06 0 -1.9827958373713409e-05 -6.7412053071856169e-06 0 -1.7808810823736936e-09 1.2794970864330684e-10 0 -1.3164863619079026e-06 2.3838383986381894e-07 0 -1.1735532582373371e-06 2.0349879242425387e-07 0 4.9305358222324006e-06 0.00012516083703291501 0 -1.1317306588780409e-05 0.00013517637478777599 0 -1.2256794759537613e-05 0.00011766571871783785 0 -4.1394877349915541e-05 -3.6385173991318672e-05 0 -3.9255220683068793e-05 -3.4172200050686937e-05 0 -4.1266500471921163e-05 -3.4059679513848944e-05 0 -2.0849253159393093e-05 5.872874993189867e-06 0 -2.3964607883068094e-05 9.5454133463158129e-06 0 -2.7848693978157802e-05 9.156326944744449e-06 0 -3.1520140696687072e-05 1.3424985377804281e-05 0 -2.7848693978157802e-05 9.156326944744449e-06 0 -2.3964607883068097e-05 9.5454133463158129e-06 0 -4.6061040397245809e-05 -2.9882280429032754e-05 0 -4.541331058616465e-05 -3.049414554488261e-05 0 -4.3179768078041477e-05 -2.6674142087708999e-05 0 
</DataArray>
</PointData>
<CellData Scalars="region_id,cross_section_updated," Vectors="" Tensors="stress,">
<DataArray type="Float64" Name="region_id" format="ascii">
2 2 2 2 2 2 2 2 2 2 3 3 3 3 3 3 3 3 3 3 1 1 1 1 1 1 1 1 1 1 1 1 1 1 1 1 1 1 1 1 1 1 1 1 1 1 1 1 1 1 1 1 1 1 1 1 1 1 1 1 1 1 1 1 1 1 1 1 1 1 1 1 1 1 1 1 1 1 1 1 1 1 1 1 1 1 1 1 1 1 1 1 1 1 1 1 1 1 1 1 1 1 1 1 1 1 1 1 1 1 1 1 1 1 1 1 1 1 1 1 1 1 1 1 1 1 1 1 1 1 1 1 1 1 1 1 1 1 1 1 1 1 1 1 1 1 1 1 1 1 1 1 1 1 1 1 1 1 1 1 1 1 1 1 1 1 1 1 1 1 1 1 1 1 1 1 1 1 1 1 1 1 1 1 1 1 1 1 1 1 1 1 1 1 1 1 1 1 1 1 1 1 1 1 1 1 1 1 1 1 1 1 1 1 1 1 1 1 1 1 1 1 1 1 1 1 1 1 1 1 1 1 1 1 1 1 1 1 1 1 1 1 1 1 1 1 1 1 1 1 1 1 1 1 1 1 1 1 1 1 1 1 1 1 1 1 1 1 1 1 1 1 1 1 1 1 1 1 1 1 1 1 1 1 1 1 1 1 1 1 1 1 1 1 1 1 1 1 1 1 1 1 1 1 1 1 1 1 1 1 1 1 1 1 1 1 1 1 1 1 1 1 1 1 1 1 1 1 1 1 1 1 1 1 1 1 1 1 1 1 1 1 1 1 1 1 1 1 1 1 1 1 1 1 1 1 1 1 1 1 1 1 1 1 1 1 1 1 1 1 1 1 1 1 1 1 1 1 1 1 1 1 1 1 1 1 1 1 1 1 1 1 1 1 1 1 1 1 1 1 1 1 1 1 1 1 1 1 1 1 1 1 1 1 1 1 1 1 1 1 1 1 1 1 1 1 1 1 1 1 1 1 1 1 1 1 1 1 1 1 1 1 1 1 1 1 1 1 1 1 1 1 1 1 1 1 1 1 1 1 1 1 1 1 1 1 1 1 1 1 1 1 1 1 1 1 1 1 1 1 1 1 1 1 1 1 1 1 1 1 1 1 1 1 1 1 1 1 1 1 1 1 1 1 1 1 1 1 1 1 1 1 1 1 1 1 1 1 1 1 1 1 1 1 1 1 1 1 1 1 1 1 1 1 1 1 1 1 1 1 1 1 1 1 1 1 1 1 1 1 1 1 1 1 1 1 1 1 1 1 1 1 1 1 1 1 1 1 1 1 1 1 1 1 1 1 1 1 1 1 1 1 1 1 1 1 1 1 1 1 1 1 1 1 1 1 1 1 1 1 1 1 1 1 1 1 1 1 1 1 1 1 1 1 1 1 1 1 1 1 1 1 1 1 1 1 1 1 1 1 1 1 1 1 1 1 1 1 1 1 1 1 1 1 1 1 1 1 1 1 1 1 1 1 1 1 1 1 1 1 1 1 1 1 1 1 1 1 1 1 1 1 1 1 1 1 1 1 1 1 1 1 1 1 1 1 1 1 1 1 1 1 1 1 1 1 1 1 1 1 1 1 1 1 1 1 1 1 1 1 1 1 1 1 1 1 1 1 1 1 1 1 1 1 1 1 1 1 1 1 1 1 1 1 1 1 1 1 1 1 1 1 1 1 1 1 1 1 1 1 1 1 1 1 1 1 1 1 1 1 1 1 1 1 1 1 1 1 1 1 1 1 1 1 1 1 1 1 1 1 1 1 1 1 1 1 1 1 1 1 1 1 1 1 1 1 1 1 1 1 1 1 1 1 1 1 1 1 1 1 1 1 1 1 1 1 1 1 1 1 1 1 1 1 1 1 1 1 1 1 1 1 1 1 1 1 1 1 1 1 1 1 1 1 1 1 1 1 1 1 1 1 1 1 1 1 1 1 1 1 1 1 1 1 1 1 1 1 1 1 1 1 1 1 1 1 1 1 1 1 1 1 1 1 1 1 1 1 1 1 1 1 1 1 1 1 1 1 1 1 1 1 1 1 1 1 1 1 1 1 1 1 1 1 1 1 1 1 1 1 1 1 1 1 1 1 1 1 1 1 1 1 1 1 1 1 1 1 1 1 1 1 1 1 1 1 1 1 1 1 1 1 1 1 1 1 1 1 1 1 1 1 1 1 1 1 1 1 1 1 1 1 1 1 1 1 1 1 1 1 1 1 1 1 1 1 1 1 1 1 1 1 1 1 1 1 1 1 1 1 1 1 1 1 1 1 1 1 1 1 1 1 1 1 1 1 1 1 1 1 1 1 1 1 1 1 1 1 1 1 1 1 1 1 1 1 1 1 1 1 1 1 1 1 1 1 1 1 1 1 1 1 1 1 
</DataArray>
<DataArray type="Float64" Name="stress" NumberOfComponents="9" format="ascii">
-4.9748458385976161e-05 -4.0659481957376181e-05 0 -4.0659481957376181e-05 -1.6582819461992063e-05 0 0 0 -1.6582819461992063e-05 -5.4236542863354787e-05 -5.7359315614975985e-05 0 -5.7359315614975985e-05 -1.8078847621118272e-05 0 0 0 -1.8078847621118272e-05 -6.0827325045233085e-05 -7.2165330654606734e-05 0 -7.2165330654606734e-05 -2.0275775015077713e-05 0 0 0 -2.0275775015077713e-05 -5.6553997362495311e-05 -7.337351676623777e-05 0 -7.337351676623777e-05 -1.8851332454165068e-05 0 0 0 -1.8851332454165068e-05 -5.029751417731231e-05 -6.3320011322510594e-05 0 -6.3320011322510594e-05 -1.6765838059104121e-05 0 0 0 -1.6765838059104121e-05 -4.7379234766293599e-05 -6.8552000594593212e-05 0 -6.8552000594593212e-05 -1.5793078255431218e-05 0 0 0 -1.5793078255431218e-05 -4.7986594842099593e-05 -5.8834907848329078e-05 0 -5.8834907848329078e-05 -1.5995531614033216e-05 0 0 0 -1.5995531614033216e-05 -4.2974753565231359e-05 -6.6393884811984192e-05 0 -6.6393884811984192e-05 -1.4324917855077066e-05 0 0 0 -1.4324917855077066e-05 -3.1569035218940566e-05 -5.1550298217622613e-05 0 -5.1550298217622613e-05 -1.0523011739646873e-05 0 0 0 -1.0523011739646873e-05 -3.9602084774207312e-05 -1.3192038483858005e-05 0 -1.3192038483858005e-05 -1.3200694924735753e-05 0 0 0 -1.3200694924735753e-05 7.3774434670791564e-05 7.5399351459901114e-05 0 7.5399351459901114e-05 2.4591478223597189e-05 0 0 0 2.4591478223597189e-05 -3.6556255211321918e-05 7.8767538685882725e-05 0 7.8767538685882725e-05 -1.2185418403773975e-05 0 0 0 -1.2185418403773975e-05 -4.7244820882254285e-05 5.6842887706442082e-05 0 5.6842887706442082e-05 -1.5748273627418093e-05 0 0 0 -1.5748273627418093e-05 -5.5685681974247209e-05 0.00010902807005494963 0 0.00010902807005494963 -1.8561893991415734e-05 0 0 0 -1.8561893991415734e-05 -6.2981740719551355e-05 8.9081794788111379e-05 0 8.9081794788111379e-05 -2.0993913573183798e-05 0 0 0 -2.0993913573183798e-05 -6.826263613679052e-05 8.9567820723856096e-05 0 8.9567820723856096e-05 -2.275421204559684e-05 0 0 0 -2.275421204559684e-05 -6.9902879850598082e-05 8.4430990089399602e-05 0 8.4430990089399602e-05 -2.3300959950199352e-05 0 0 0 -2.3300959950199352e-05 -8.5606152950024126e-05 0.00011521631917354991 0 0.00011521631917354991 -2.8535384316674727e-05 0 0 0 -2.8535384316674727e-05 -5.5734923606793902e-06 7.7837913991611867e-05 0 7.7837913991611867e-05 -1.8578307868931301e-06 0 0 0 -1.8578307868931301e-06 -0.00027624504205309131 -7.4583768002684046e-06 0 -7.4583768002684046e-06 -9.2081680684363788e-05 0 0 0 -9.2081680684363788e-05 -0.060323567907780595 -0.015567583567265168 0 -0.015567583567265168 0.023714612011491193 0 0 0 -0.0091522389740723575 -0.056100844540662914 -0.015940536067768775 0 -0.015940536067768775 0.040603588675098112 0 0 0 -0.0038743139663911935 -0.072801181481618613 -0.010491674143771446 0 -0.010491674143771446 0.036786315315121443 0 0 0 -0.009003716541624282 -0.07482200588584581 -0.0012187818002604989 0 -0.0012187818002604989 0.037985647611693187 0 0 0 -0.0092090895685381664 -0.15382421971116805 -0.0035245837168023514 0 -0.0035245837168023514 0.0012782622509888014 0 0 0 -0.038136489365044789 -0.11353281198618063 -0.0013216841512693062 0 -0.0013216841512693062 -0.00067493646743185505 0 0 0 -0.02855193711340313 -0.16095786757311531 -0.001128409065207614 0 -0.001128409065207614 -0.0013942943349309362 0 0 0 -0.040588040477011554 -0.11725470795923688 -0.0022590881011284093 0 -0.0022590881011284093 -0.00087855530383458558 0 0 0 -0.029533315815767857 -0.12863304907261186 0.0028602308169860674 0 0.0028602308169860674 -0.00040454545653276219 0 0 0 -0.032259398632286169 -0.21652245410218654 -0.00925539941094752 0 -0.00925539941094752 -0.000446852438108436 0 0 0 -0.054242326635073751 -0.035402862495336723 0.0031550886220972833 0 0.0031550886220972833 -0.015776519248901985 0 0 0 -0.012794845436059677 -0.039530405133882729 0.0042996171369734364 0 0.0042996171369734364 -0.011227596509636513 0 0 0 -0.012689500410879802 -0.062431182295500397 1.3892204664898793e-05 0 1.3892204664898793e-05 -0.0098524730958126291 0 0 0 -0.018070913847828253 -0.063290737793530422 -0.0057520033561543468 0 -0.0057520033561543468 -0.021100114924055169 0 0 0 -0.021097713179396398 -0.062520901657667813 0.0013476474963130896 0 0.0013476474963130896 -0.020840048085110981 0 0 0 -0.0208402374356947 -0.068514104386183064 -0.016626984990493504 0 -0.016626984990493504 0.027984518756583643 0 0 0 -0.010132396407399866 0.11930593163536163 0.10262157306799975 0 0.10262157306799975 0.22329726028905106 0 0 0 0.085650797981103144 -0.0038961229095729744 -0.010807739973358932 0 -0.010807739973358932 0.0069898659621761006 0 0 0 0.00077343576315069829 -0.0074193555272836775 0.0065017345750240096 0 0.0065017345750240096 0.012467825726168336 0 0 0 0.0012621175497211645 -0.0039859799186197087 0.013141772375747825 0 0.013141772375747825 0.022767952552010584 0 0 0 0.0046954931583478299 -0.0044259658636134347 -0.0057317661102402563 0 -0.0057317661102402563 0.0054003370998154665 0 0 0 0.00024359280905073 -0.017053531466926009 0.020693279295236344 0 0.020693279295236344 0.0071645920226370841 0 0 0 -0.0024722348610726197 -0.011976653763374423 -0.022306810284647316 0 -0.022306810284647316 0.0063418445723113503 0 0 0 -0.0014087022977657959 -0.057909320964945762 0.0027069468926504462 0 0.0027069468926504462 -0.010740408467116372 0 0 0 -0.017162432358015532 0.1305266514874231 -0.0055140775962769645 0 -0.0055140775962769645 0.14059036961135152 0 0 0 0.067779255274693653 -0.22693462796668284 0.015180010077208705 0 0.015180010077208705 0.0068781064734855235 0 0 0 -0.055014130373299164 -0.12695749124173317 -0.0061540814281910161 0 -0.0061540814281910161 0.0027173517735887831 0 0 0 -0.031060034867036096 -0.10591265220293708 -0.020721566441951927 0 -0.020721566441951927 0.021844135454844982 0 0 0 -0.021017129187023018 -0.11801147786211946 0.02750075516465875 0 0.02750075516465875 0.064711508166234388 0 0 0 -0.013324992423971282 -0.13222742000354393 -0.017234510242446308 0 -0.017234510242446308 0.011856560922743092 0 0 0 -0.030092714770200216 -0.063983386292342945 -0.02290173840021846 0 -0.02290173840021846 0.048618341822176198 0 0 0 -0.0038412611175416972 -0.030823862118995821 -0.031774136077009962 0 -0.031774136077009962 0.0066171739950675601 0 0 0 -0.0060516720309821415 -0.035605202088416665 0.040069071960151303 0 0.040069071960151303 0.0054118508161118406 0 0 0 -0.0075483378180764005 -0.033319904754832597 -0.032295264407776192 0 -0.032295264407776192 0.010183792440023876 0 0 0 -0.0057840280787022635 -0.04242608013302207 0.042759159587102413 0 0.042759159587102413 0.0011977433760117506 0 0 0 -0.010307084189252524 -0.10500256738392091 -0.025060653200420543 0 -0.025060653200420543 0.0050239528130957001 0 0 0 -0.024994653642706345 -0.040336558795838334 -0.044633139513833041 0 -0.044633139513833041 0.067709729681221673 0 0 0 0.0068432927213458346 -0.1346507539596265 0.016311809209236777 0 0.016311809209236777 0.017559711815384293 0 0 0 -0.029272760536060538 0.24139952127537007 0.11979515264121786 0 0.11979515264121786 0.089009484596296762 0 0 0 0.082602251467916665 0.00063491747104310603 0.0074962662605570496 0 0.0074962662605570496 0.030861873416662466 0 0 0 0.0078741977219263792 0.00024007729387470755 -0.0085250449273592613 0 -0.0085250449273592613 0.073462700111250778 0 0 0 0.01842569435128133 -0.057382332333651309 -0.023358178854835175 0 -0.023358178854835175 0.080828730431205198 0 0 0 0.0058615995243884748 -0.0013735882508849606 -0.017101169640415081 0 -0.017101169640415081 0.081641656264053175 0 0 0 0.020067017003291943 -0.0081643345233541886 0.0036207710351443545 0 0.0036207710351443545 -0.0026086075330846725 0 0 0 -0.0026932355141093822 -0.04951341681313462 -0.0053745531911287992 0 -0.0053745531911287992 -0.021313785420941499 0 0 0 -0.017706800558519031 -0.051884743284232336 0.0041673549686021636 0 0.0041673549686021636 -0.016470468447728981 0 0 0 -0.017088802932990331 -0.080437869830414108 0.068784607570744338 0 0.068784607570744338 0.067089126432141349 0 0 0 -0.0033371858495682555 -0.074588951590208188 0.062241348956578457 0 0.062241348956578457 0.04921663162036799 0 0 0 -0.0063430799924601017 0.10349799631608107 0.14440189842759732 0 0.14440189842759732 0.25717479473373456 0 0 0 0.090168197762453869 -0.012620602948551461 0.0069146787508973517 0 0.0069146787508973517 0.00088974322857038324 0 0 0 -0.0029327149299952157 -0.019477794636722209 -0.020542951309336255 0 -0.020542951309336255 0.062870179489356456 0 0 0 0.01084809621315859 -0.02748870420845706 -0.0096352680177407002 0 -0.0096352680177407002 -0.0064957415021902332 0 0 0 -0.0084961114276618788 -0.059982942926017524 -0.021400971610299135 0 -0.021400971610299135 0.060759600951642616 0 0 0 0.00019416450640626082 -0.047713763785340285 -0.027975032594990352 0 -0.027975032594990352 0.0044581534064505046 0 0 0 -0.010813902594722466 -0.032473515214846371 -0.0072794632976171392 0 -0.0072794632976171392 0.024357899713865594 0 0 0 -0.0020289038752452082 -0.11221541498666665 0.018924833275389075 0 0.018924833275389075 -0.00056810971490195428 0 0 0 -0.028195881175392068 -0.0099772262488017072 -0.005037818055573573 0 -0.005037818055573573 0.00033152711699591109 0 0 0 -0.0024114247829514213 -0.011814240717986202 0.020965673490007886 0 0.020965673490007886 0.12186930230620074 0 0 0 0.027513765397053636 -0.013596028727492368 -0.015220927527154871 0 -0.015220927527154871 0.090696419803547465 0 0 0 0.019275097769013663 0.0011728126100374325 0.00055876797909056941 0 0.00055876797909056941 -0.0014114667388396285 0 0 0 -5.9663532200548985e-05 -0.026996071223043261 -0.00047599810483950344 0 -0.00047599810483950344 0.0048961515772649733 0 0 0 -0.0055249799114445164 -0.00072115931644085862 -0.063847027683042679 0 -0.063847027683042679 0.10461709437066262 0 0 0 0.02597398376355535 -0.025933125761706033 -0.0012585671683775779 0 -0.0012585671683775779 0.0032738596287635868 0 0 0 -0.0056648165332355838 -0.036138904950674317 -0.011008089564719291 0 -0.011008089564719291 0.0078760967120956593 0 0 0 -0.0070657020596446574 -0.048257561467222598 -0.036483219787107779 0 -0.036483219787107779 0.010464102110953943 0 0 0 -0.0094483648390671915 -0.1088918062602604 -0.010567923213310836 0 -0.010567923213310836 -0.018667781300035796 0 0 0 -0.03188989689007405 -0.1443291364269885 0.0052994143851811662 0 0.0052994143851811662 -0.02341270058544842 0 0 0 -0.041935459253109222 0.0026321246362998852 0.0029240695505499126 0 0.0029240695505499126 0.016967396497748276 0 0 0 0.0048998802835120954 0.0049901380020080377 -0.0031679234884468555 0 -0.0031679234884468555 0.055948334767719654 0 0 0 0.015234618192431881 -0.10793055887041311 -0.0060344069385410825 0 -0.0060344069385410825 -0.026717172515114608 0 0 0 -0.033661932846381928 -0.086377815790990353 -0.0025525764119327687 0 -0.0025525764119327687 -0.020769601752987869 0 0 0 -0.026786854385994551 -0.04349202887599174 0.00064273820303857674 0 0.00064273820303857674 -0.019088231893968979 0 0 0 -0.015645065192490176 -0.11316295600326598 0.0018142618211239442 0 0.0018142618211239442 -0.00060034280322016249 0 0 0 -0.028440824701621549 -0.15649333888967731 -0.0086271118433373789 0 -0.0086271118433373789 0.0009736205339271331 0 0 0 -0.038879929588937524 -0.039427841991474449 -0.019976405233460504 0 -0.019976405233460504 -0.0066076514682714693 0 0 0 -0.011508873364936528 -0.043517184271188614 -0.025902766952594608 0 -0.025902766952594608 0.0053526575640392426 0 0 0 -0.0095411316767873844 0.0081153624224461485 0.016200574742216478 0 0.016200574742216478 0.15143201827275632 0 0 0 0.039886845173800589 -0.0068595480263277803 -0.0030404798472283279 0 -0.0030404798472283279 -0.0021719489278478887 0 0 0 -0.0022578742385438028 -0.041578398582761217 -0.02147882075406328 0 -0.02147882075406328 -0.008556284183830587 0 0 0 -0.01253367069164793 -0.030572322482072103 -0.010838523572024555 0 -0.010838523572024555 0.0043650772556090289 0 0 0 -0.0065518113066157097 -0.065302702834673321 0.05821078119234302 0 0.05821078119234302 0.00016467313588552912 0 0 0 -0.01628450742469667 -0.12644059975501398 0.0023458813574326427 0 0.0023458813574326427 -0.042170132170807458 0 0 0 -0.042152682981455351 -0.09706581293253172 -0.0081879474479879914 0 -0.0081879474479879914 -0.032373793758350901 0 0 0 -0.032359901672720653 -0.050503242783095821 -0.004877048017761898 0 -0.004877048017761898 -0.020205675114593154 0 0 0 -0.017677229474422247 -0.013917141551688772 0.026848837720012009 0 0.026848837720012009 0.01955626622562967 0 0 0 0.0014097811684852246 -0.01410207425056087 -0.01681842387904553 0 -0.01681842387904553 0.0024899825306727852 0 0 0 -0.0029030229299720212 -0.038596516502794317 -0.034482832254940421 0 -0.034482832254940421 0.0086441831373393757 0 0 0 -0.0074880833413636799 -0.038730993493324338 0.0027391633100367092 0 0.0027391633100367092 -0.015199216521584305 0 0 0 -0.013482552503727159 -0.084875480615209165 -0.014013262792150059 0 -0.014013262792150059 -0.0078561026380360027 0 0 0 -0.023182895813311288 -0.036638808404947182 -0.010008498577803468 0 -0.010008498577803468 0.0058317627069515154 0 0 0 -0.0077017614244989374 -0.036391888424053893 0.0048795077442030117 0 0.0048795077442030117 -0.013865577007316167 0 0 0 -0.012564366357842508 -0.039535922355453466 0.0041606553301446608 0 0.0041606553301446608 -0.012344784371589024 0 0 0 -0.012970176681760624 -0.04177754680363692 0.0028759117261930823 0 0.0028759117261930823 -0.015075207258485383 0 0 0 -0.014213188515530582 -0.029527852375282493 -0.0034263765035841831 0 -0.0034263765035841831 0.019666277377517249 0 0 0 -0.0024653937494413247 -0.041036872463462069 -0.034568394671144975 0 -0.034568394671144975 0.026210249557738041 0 0 0 -0.0037066557264310018 -0.026939089069487554 -0.0093154633880375703 0 -0.0093154633880375703 0.0064326745465803636 0 0 0 -0.0051266036307268115 -0.059446088368248398 -0.025291257912272817 0 -0.025291257912272817 0.081064277306107907 0 0 0 0.0054045472344648841 -0.0055518414238355795 0.015092256474115828 0 0.015092256474115828 0.16633224729376916 0 0 0 0.040195101467483063 0.00035764491610024152 -0.00062576642739364786 0 -0.00062576642739364786 -0.00096512298984308131 0 0 0 -0.0001518695184354879 -0.0066053738300662079 -0.0053213910411197074 0 -0.0053213910411197074 -0.0032884336103116141 0 0 0 -0.0024734518600944 -0.01004966260875273 0.011767561592463949 0 0.011767561592463949 0.16483134196268612 0 0 0 0.03869541983848368 -0.045330663858089947 0.017946863777226117 0 0.017946863777226117 0.11041637362736063 0 0 0 0.016271427442317653 -0.049236500229281416 0.0029644662179092855 0 0.0029644662179092855 -0.0096212835191587867 0 0 0 -0.014714445937110045 -0.052988126838286104 0.0019217448400891315 0 0.0019217448400891315 -0.011439370646770104 0 0 0 -0.016106874371264058 -0.0035516859577571225 0.034342717972981718 0 0.034342717972981718 0.049409336378457347 0 0 0 0.011464412605175056 -0.0269432285287734 0.037204117390233216 0 0.037204117390233216 0.041613905208909063 0 0 0 0.0036676691700341379 -0.05068071339937355 -0.035501680398922181 0 -0.035501680398922181 0.027056626520825522 0 0 0 -0.0059060217196369585 -0.004608900529891824 -0.0069558763176250094 0 -0.0069558763176250094 0.008438370806110651 0 0 0 0.00095736756905473452 -0.0045425828884885222 0.005294681790766427 0 0.005294681790766427 -0.0072261275046130446 0 0 0 -0.0029421775982754195 -0.062497611182582999 0.0071757804444855314 0 0.0071757804444855314 0.071692851153113676 0 0 0 0.0022988099926326729 -0.0075227612652155607 0.0071201059236786846 0 0.0071201059236786846 -0.0046917982638214895 0 0 0 -0.0030536398822591515 -0.018969228912645297 -0.014681684325856814 0 -0.014681684325856814 0.088875984726241253 0 0 0 0.017476688953399044 -0.11831971241217168 0.002369263101819799 0 0.002369263101819799 0.00078664880863106579 0 0 0 -0.029383265900885067 -0.18850323215126305 -0.0081539897224710001 0 -0.0081539897224710001 0.0012391606335943328 0 0 0 -0.046816017879417117 -0.026290654602712793 -0.032566794838472253 0 -0.032566794838472253 0.011427206782947508 0 0 0 -0.0037158619549413352 0.096989083399639298 -0.060981677299528192 0 -0.060981677299528192 0.054074676318618398 0 0 0 0.037765939929564452 -0.034045770596862118 -0.021091674565001689 0 -0.021091674565001689 -0.0013364399775768199 0 0 0 -0.0088455526436097831 -0.035518566861745426 -0.026583691034379298 0 -0.026583691034379298 0.00072490024523846897 0 0 0 -0.0086984166541267671 -0.0045319043379713122 -0.0080139570944104399 0 -0.0080139570944104399 0.018932559223542089 0 0 0 0.0036001637213926383 -0.0029067011584849034 0.0081455642463912348 0 0.0081455642463912348 0.014504428633544286 0 0 0 0.0028994318687649567 -0.0071845762211522057 0.0098701067268129883 0 0.0098701067268129883 0.039295812709024602 0 0 0 0.0080278091219678771 -0.0024811807929822189 -0.0064367753818530549 0 -0.0064367753818530549 0.0062622040627869557 0 0 0 0.00094525581745129534 -0.07715752330200909 0.036604142077538149 0 0.036604142077538149 0.090120326741376822 0 0 0 0.0032407008598418774 -0.044201162249953241 -0.017574336438545335 0 -0.017574336438545335 0.0022937673297154237 0 0 0 -0.010476848730059496 -0.03715636196964528 -0.016238430234480128 0 -0.016238430234480128 -0.0015766377747645777 0 0 0 -0.0096832499361024227 -0.035528128109015962 -0.015924288567016887 0 -0.015924288567016887 -0.0037078477423882691 0 0 0 -0.0098089939628510699 -0.021661863190098551 -0.035486160283255783 0 -0.035486160283255783 0.018001056351297562 0 0 0 -0.00091520170970027515 -0.16470625403691153 0.022522081472056588 0 0.022522081472056588 0.0030275239150601152 0 0 0 -0.040419682530462797 -0.07687764107093803 -0.0041539405844486926 0 -0.0041539405844486926 0.021876917706021681 0 0 0 -0.013750180841229059 -0.065424822843904329 -0.011835867154055685 0 -0.011835867154055685 0.020196005967883346 0 0 0 -0.011307204219005218 -0.021918015822586817 0.0027736412624304041 0 0.0027736412624304041 -0.010714609063168845 0 0 0 -0.008158156221438978 -0.11968726838594135 0.040650054570203431 0 0.040650054570203431 -0.0025309592759799049 0 0 0 -0.030554556915480369 -0.10538747175904581 0.0041058540309398261 0 0.0041058540309398261 0.004699174517920901 0 0 0 -0.025172074310281234 -0.10403909673757702 -0.0043834194944652183 0 -0.0043834194944652183 0.0061052324006308778 0 0 0 -0.024483466084236544 -0.16876057941689154 0.002456159110182099 0 0.002456159110182099 0.013527088409780341 0 0 0 -0.038808372751777787 -0.16513313950398489 -0.017889098776793344 0 -0.017889098776793344 0.01329863770798323 0 0 0 -0.037958625449000472 -0.038178395773227229 -0.012572935784123551 0 -0.012572935784123551 -0.00084238454443427702 0 0 0 -0.009755195079415406 -0.0996405763159533 -0.010040039713858251 0 -0.010040039713858251 0.0018355605983668144 0 0 0 -0.024451253929396677 0.010046146951372958 0.071520154346058962 0 0.071520154346058962 0.033876197663110563 0 0 0 0.010980586153620742 -0.064059220185232732 -0.017272941451661063 0 -0.017272941451661063 0.055022809008242995 0 0 0 -0.002259102794247448 -0.037616851693324668 0.015075434622773221 0 0.015075434622773221 0.02167899994607346 0 0 0 -0.0039844629368128064 -0.035495765947968327 0.029343301407003697 0 0.029343301407003697 -0.0036030130238524638 0 0 0 -0.0097746947429552256 -0.029792821030383054 -0.029595998175027338 0 -0.029595998175027338 0.023590101331978475 0 0 0 -0.0015506799246012282 -0.039522823264391813 -0.033498889571357604 0 -0.033498889571357604 0.030806193030410094 0 0 0 -0.0021791575584954479 -0.010610370618453824 0.0051200277720093168 0 0.0051200277720093168 -0.0060383404835466781 0 0 0 -0.0041621777755001532 -0.036396927659424427 -0.015378277286247938 0 -0.015378277286247938 -0.0082874571240890149 0 0 0 -0.011171096195878388 -0.059064792932090465 -0.0088291552037975222 0 -0.0088291552037975222 -0.023613005086914753 0 0 0 -0.020669449504751303 -0.05820156514324698 0.004101162715626612 0 0.004101162715626612 -0.017281742697677231 0 0 0 -0.018870826960231055 -0.036438992192763128 -0.038025744490847391 0 -0.038025744490847391 0.019610523944631794 0 0 0 -0.0042071170620329029 -0.086997743894777463 -0.02245027590085753 0 -0.02245027590085753 -0.0048207430084150626 0 0 0 -0.022954621725798145 -0.10476587917801128 -0.0037290828785110641 0 -0.0037290828785110641 0.027979924178057169 0 0 0 -0.019196488749988583 -0.041906798887770005 -0.0016722551989257995 0 -0.0016722551989257995 -0.021276997799546143 0 0 0 -0.015795949171829041 -0.040199132453907986 0.00056488637757903825 0 0.00056488637757903825 -0.01789797664621539 0 0 0 -0.014524277275030844 -0.047511295428399457 0.00230073262708944 0 0.00230073262708944 -0.014171679111905698 0 0 0 -0.015420743635076291 -0.047739271382671068 0.0031730980423127927 0 0.0031730980423127927 -0.014528790499289158 0 0 0 -0.015567015470490058 -0.093079194984322738 -0.015783036564211456 0 -0.015783036564211456 0.028863028308504957 0 0 0 -0.016054041668954425 -0.047266071757941328 0.011884686081428479 0 0.011884686081428479 0.019814302014750373 0 0 0 -0.0068629424357977316 -0.038556181298137121 -0.0018399279640197142 0 -0.0018399279640197142 -0.01494332765335148 0 0 0 -0.013374877237872153 -0.063818030988137403 -0.019879198328298181 0 -0.019879198328298181 -0.0052831448858798036 0 0 0 -0.017275293968504309 -0.050149905019723356 0.014204767427174199 0 0.014204767427174199 0.058112760228244666 0 0 0 0.0019907138021303082 -0.060734852861692612 -0.0030475991326820093 0 -0.0030475991326820093 0.0016547550075776268 0 0 0 -0.014770024463528743 -0.058844551850687619 -0.001901138043549808 0 -0.001901138043549808 0.0071857746647442655 0 0 0 -0.012914694296485833 -0.12642294944729079 0.0023308290748143261 0 0.0023308290748143261 -0.04211318692849543 0 0 0 -0.04213403409394656 -0.09705297680589596 -0.0081765996906131237 0 -0.0081765996906131237 -0.032332277937918701 0 0 0 -0.03234631368595367 0.080305526302822061 0.039590341164124854 0 0.039590341164124854 0.055094004986341344 0 0 0 0.033849882822290851 -0.050099573974660201 0.0015230762422448439 0 0.0015230762422448439 -0.00086577998908644784 0 0 0 -0.012741338490936666 -0.072479799224502289 -0.012269124322747103 0 -0.012269124322747103 0.066247383829676321 0 0 0 -0.0015581038487064991 -0.018406081656796885 0.00024391023971970238 0 0.00024391023971970238 -0.020310220738235518 0 0 0 -0.0096790755987580523 -0.11415243148991461 0.003688888434036558 0 0.003688888434036558 0.0011046291166127986 0 0 0 -0.028261950593325494 -0.17629630885630973 -0.0098147221755119363 0 -0.0098147221755119363 0.0014311415438662545 0 0 0 -0.043716291828110897 -0.037130333343121193 -0.013122046742993498 0 -0.013122046742993498 -0.012337524735195532 0 0 0 -0.012366964519579117 -0.10495239570571992 0.0063628386141200977 0 0.0063628386141200977 0.00026497864518632984 0 0 0 -0.026171854265133375 -0.13164550986580092 -0.027269499356616766 0 -0.027269499356616766 0.00057946253478005638 0 0 0 -0.032766511832755238 -0.10537582796630872 0.003241651751775057 0 0.003241651751775057 8.7250246552900146e-05 0 0 0 -0.026322144429938993 -0.072577423925936205 0.00079532196452983261 0 0.00079532196452983261 -0.00540836705057029 0 0 0 -0.019496447744126628 -0.069300619354737511 -0.010749786306551611 0 -0.010749786306551611 -0.011923476670895397 0 0 0 -0.020306024006408241 -0.099236762640439194 -0.019910166443295685 0 -0.019910166443295685 0.01205430273850705 0 0 0 -0.021795614975483005 -0.043262921383732028 -0.013157083801498409 0 -0.013157083801498409 0.00030631599087371786 0 0 0 -0.010739151348214654 -0.024039020226019669 0.034400355437826047 0 0.034400355437826047 0.050667227496471234 0 0 0 0.0066570518176125582 -0.028523763318483386 -0.020161819943823156 0 -0.020161819943823156 -0.0049987614252624546 0 0 0 -0.0083806311859364602 -0.04494460642843303 -0.001240109369634009 0 -0.001240109369634009 -0.019154989081908533 0 0 0 -0.016024898877585386 -0.052156400651452967 0.0015689412846854578 0 0.0015689412846854578 -0.016064183793318428 0 0 0 -0.01705514611119285 -0.071201488564112098 -0.010850866178535857 0 -0.010850866178535857 -0.025466973680948052 0 0 0 -0.024167115561265037 -0.065495176191876447 0.0034781802899701134 0 0.0034781802899701134 -0.018668349068646523 0 0 0 -0.021040881315130738 -0.065637551432487673 -0.012911391254834051 0 -0.012911391254834051 0.013625164429104747 0 0 0 -0.013003096750845738 -0.064565717423777272 -0.021644331871502331 0 -0.021644331871502331 0.017337292080688932 0 0 0 -0.011807106335772075 -0.064029917995193308 0.068848410951948436 0 0.068848410951948436 0.017113830792198748 0 0 0 -0.011729021800748751 -0.01834959594590202 0.089304194057717667 0 0.089304194057717667 0.051885305402554094 0 0 0 0.0083839273641629353 0.026485593345282651 0.0017807335902242649 0 0.0017807335902242649 0.060810670952948176 0 0 0 0.021824066074557683 -0.076953225026127073 -0.0088770733483271441 0 -0.0088770733483271441 0.051110533791397988 0 0 0 -0.0064606728086823023 -0.038559293271300366 0.0033932400968670661 0 0.0033932400968670661 -0.013961217910968847 0 0 0 -0.0131301277955673 -0.044398739058959913 -0.01880344175433557 0 -0.01880344175433557 -0.005010351944028324 0 0 0 -0.012352272750747073 -0.059524712203500085 0.049704899986389717 0 0.049704899986389717 0.0023336306111971794 0 0 0 -0.014297770398075782 -0.021471161323307286 -0.0050209884968125118 0 -0.0050209884968125118 0.047217182252297984 0 0 0 0.0064365052322476468 -0.025981673675640887 -0.0092466794022556531 0 -0.0092466794022556531 -0.008472771868521578 0 0 0 -0.0086136113860406371 -0.057138584388821849 0.00089682752766712375 0 0.00089682752766712375 -0.0080539839529804036 0 0 0 -0.016298142085450551 -0.09902365053299822 0.022559805469985039 0 0.022559805469985039 0.051003165172049725 0 0 0 -0.012005121340237124 -0.11651822721452193 0.0005713717962369956 0 0.0005713717962369956 -0.0019634924245336693 0 0 0 -0.029620429909763893 -0.16960336815033927 -0.0038519353711269329 0 -0.0038519353711269329 -0.0039833853165287814 0 0 0 -0.043396688366717028 -0.036417752485671653 -0.019927913203322822 0 -0.019927913203322822 0.0018811311334744341 0 0 0 -0.0086341553380493014 -0.076937889852237748 -0.00083880041041197199 0 -0.00083880041041197199 -0.014436049510130848 0 0 0 -0.022843484840592149 -0.085389851031774211 -0.0065369809843880871 0 -0.0065369809843880871 -0.022590212226438502 0 0 0 -0.026995015814553179 -0.19647007793471682 0.0054855839437950582 0 0.0054855839437950582 0.0036849789226500729 0 0 0 -0.048196274753016799 -0.11479570266039416 -0.0026352963954597297 0 -0.0026352963954597297 0.00096837902330365599 0 0 0 -0.028456830909272618 -0.012413255160431069 0.030186719721454314 0 0.030186719721454314 0.12852949615751705 0 0 0 0.029029060249271543 0.055570426363554214 0.0026166073743476292 0 0.0026166073743476292 0.30843675533243525 0 0 0 0.091001795423997361 -0.042305066379025605 -0.041103641334937935 0 -0.041103641334937935 0.023781433386945994 0 0 0 -0.0046309082480198299 -0.055251274794213184 -0.035946505303917298 0 -0.035946505303917298 0.015656215518044192 0 0 0 -0.009898764819042255 -0.039661592246856468 -0.04065853827622351 0 -0.04065853827622351 0.05924366331674899 0 0 0 0.0048955177674731339 -0.0069396980152854615 0.0020297554392872397 0 0.0020297554392872397 -0.016183615650217531 0 0 0 -0.0057808284163757551 -0.042881024582741727 0.00031362191656861445 0 0.00031362191656861445 -0.017154252500091591 0 0 0 -0.015008819270708336 -0.0825924329588478 -0.0091999325036348223 0 -0.0091999325036348223 0.012650619914686412 0 0 0 -0.017485453261040368 -0.0072015094606116548 -0.0035155103681372285 0 -0.0035155103681372285 -0.0040810354288494111 0 0 0 -0.0028206362223652248 -0.16782849223435536 0.024622031834499736 0 0.024622031834499736 -0.00073197112273831744 0 0 0 -0.042140115839273448 -0.033339568296928412 0.028745425603609487 0 0.028745425603609487 -0.0029023309464282221 0 0 0 -0.0090604748108393807 -0.024672820701120313 -0.029481217976905061 0 -0.029481217976905061 0.021069811987706633 0 0 0 -0.00090075217835339227 -0.050891713113055188 0.0014066928473070615 0 0.0014066928473070615 0.015669901437777866 0 0 0 -0.0088054529188193245 -0.072364260735163388 -0.018084634675045785 0 -0.018084634675045785 0.017577703746517237 0 0 0 -0.013696639247161524 -0.03794696416994757 0.0086382334597117499 0 0.0086382334597117499 -0.0013928557049470852 0 0 0 -0.0098349549687236672 -0.034339069254547147 0.01310361838177948 0 0.01310361838177948 0.0077255255208695667 0 0 0 -0.0066533859334193882 -0.10286454694922625 -0.019254407621500387 0 -0.019254407621500387 -0.0018192464870033093 0 0 0 -0.026170948359057394 -0.049400560391609005 -0.033606819428658119 0 -0.033606819428658119 0.0053447909979211783 0 0 0 -0.011013942348421901 -0.14408814092684299 -0.015642140152911474 0 -0.015642140152911474 -0.0070870001253806776 0 0 0 -0.037793785263055872 -0.038163845965665466 0.049958881898348517 0 0.049958881898348517 0.010162706626705376 0 0 0 -0.0070002848347399116 -0.04117452715728516 0.052551010423722566 0 0.052551010423722566 0.0087401744569791662 0 0 0 -0.0081085881750763839 -0.044136611619199906 0.054536826341199607 0 0.054536826341199607 0.0026603493709309589 0 0 0 -0.010369065562067181 -0.038541957074120337 -0.032423143844270919 0 -0.032423143844270919 0.0053851827759965332 0 0 0 -0.0082891935745310619 -0.045895357507092158 -0.031924070401014526 0 -0.031924070401014526 0.0029112974510651576 0 0 0 -0.010746015014006832 0.02928276217237015 0.038790300941541747 0 0.038790300941541747 0.071103533949009146 0 0 0 0.025096574030344834 -0.043096915512769306 -0.0019598868363102863 0 -0.0019598868363102863 -0.014371439548963581 0 0 0 -0.014367088765433222 -0.048385934048977376 0.0025720498154910964 0 0.0025720498154910964 -0.016129619243113635 0 0 0 -0.016128888323022755 -0.048958758385263118 0.0031093820651359868 0 0.0031093820651359868 0.0015806927449434679 0 0 0 -0.011844516410079917 -0.020464182807958892 -0.020494994305523373 0 -0.020494994305523373 0.091036692600412472 0 0 0 0.017643127448113416 -0.11942596560313828 -0.024937391111788675 0 -0.024937391111788675 -0.0032339721038495972 0 0 0 -0.030664984426746963 -0.040784908566683063 0.0016659507645488709 0 0.0016659507645488709 -0.016183943337974932 0 0 0 -0.014242212976164499 -0.16983210971436458 -0.0061455858572132399 0 -0.0061455858572132399 -0.0038367673574070584 0 0 0 -0.043417219267942897 -0.11413511569875165 0.0014475397864980588 0 0.0014475397864980588 -0.00098134329849511315 0 0 0 -0.028779114749311711 -0.10183180977120321 -0.011571053771121831 0 -0.011571053771121831 0.00012047580448859563 0 0 0 -0.025427833491678653 -0.044190796382154923 0.0033068125006225535 0 0.0033068125006225535 -0.012077055339436774 0 0 0 -0.014066962930397924 -0.03097427862587674 -0.0057612220737938702 0 -0.0057612220737938702 0.024514104156616701 0 0 0 -0.0016150436173150498 -0.058529145137119626 0.0090778376654593665 0 0.0090778376654593665 0.039496607739599413 0 0 0 -0.0047581343493800655 -0.015447035829580888 0.059550221430014649 0 0.059550221430014649 0.016646896509623144 0 0 0 0.0002999651700105882 -0.037505318872900512 0.0036263797287843123 0 0.0036263797287843123 -0.016353047170234357 0 0 0 -0.013464591510783717 -0.025025797380687109 0.027052246813143999 0 0.027052246813143999 -0.0015337372727382004 0 0 0 -0.0066398836633561054 -0.021744868937736861 -0.026659936849427024 0 -0.026659936849427024 0.009574531389178631 0 0 0 -0.0030425843871395575 -0.044394905320066902 0.0032593663630441716 0 0.0032593663630441716 -0.012667371717160234 0 0 0 -0.014265569259306783 -0.069955693127621357 0.00060358232297752024 0 0.00060358232297752024 0.051463518555018316 0 0 0 -0.0046230436431507569 -0.016649164146300688 0.021837717022519076 0 0.021837717022519076 0.029249727289426097 0 0 0 0.0031501407857814634 -0.0072835853392674288 0.017493851842044883 0 0.017493851842044883 0.00099952502133948684 0 0 0 -0.0015710150794820965 -0.0062906538537019774 -0.013913091902339553 0 -0.013913091902339553 -0.0035065043755517777 0 0 0 -0.0024492895573136053 -0.012368041243103534 -0.018496794153076257 0 -0.018496794153076257 0.013311615849870062 0 0 0 0.0002358936516915211 -0.128780873180079 0.0032410838762218508 0 0.0032410838762218508 0.029609588580817858 0 0 0 -0.024792821149815264 -0.080569013734105799 -0.021907399569267461 0 -0.021907399569267461 0.0089678739990081691 0 0 0 -0.017900284933774546 -0.089580551601563307 -0.021899953865806815 0 -0.021899953865806815 0.0087244902119474332 0 0 0 -0.020214015347404024 -0.14023022353735581 0.048527767231760943 0 0.048527767231760943 0.020250338161751813 0 0 0 -0.029994971343901167 -0.11949051617524825 0.048623932890386079 0 0.048623932890386079 0.021014667970259193 0 0 0 -0.024618962051247195 -0.054609368650979428 0.00086350438338325414 0 0.00086350438338325414 -0.014359367321041641 0 0 0 -0.017242183993005263 0.067144333296950465 0.034972203617440106 0 0.034972203617440106 0.050976705851000226 0 0 0 0.029530259786987534 -0.10699621433749024 -0.0066298929604508769 0 -0.0066298929604508769 -0.024279928231597202 0 0 0 -0.032819035642271864 -0.087272565585089792 -0.0022200383353092219 0 -0.0022200383353092219 -0.016902707194309072 0 0 0 -0.026043818194849706 -0.070382214752671424 -0.015170254170938757 0 -0.015170254170938757 0.034232923193352006 0 0 0 -0.0090373228898298647 -0.069476696068612967 0.0019292954756334876 0 0.0019292954756334876 -0.010760135589391057 0 0 0 -0.020059207914501002 -0.071575080323905804 -0.011290392504647914 0 -0.011290392504647914 -0.022025849410355038 0 0 0 -0.023400232433565215 -0.14511198398104058 -0.019893047240396193 0 -0.019893047240396193 0.0028200596141556289 0 0 0 -0.03557298109172119 -0.14664077605890849 -0.020993269420517907 0 -0.020993269420517907 -0.00080502656757697189 0 0 0 -0.036861450656621352 -0.017840205174498802 0.031505491053141321 0 0.031505491053141321 0.051341890865883144 0 0 0 0.0083754214228459745 -0.014769269100835869 -0.014924116160563605 0 -0.014924116160563605 0.0015281676207314909 0 0 0 -0.003310275370026039 -0.0059797531683352615 -0.002046414989888834 0 -0.002046414989888834 0.023013947984618272 0 0 0 0.0042585487040707245 -0.0029829523071095987 0.002471146705687377 0 0.002471146705687377 0.00012776682899406921 0 0 0 -0.00071379636952889625 -0.069266636901393952 -0.00092687909338569699 0 -0.00092687909338569699 0.0013435796816927276 0 0 0 -0.016980764304925306 -0.0030626098161533888 -0.0042520475652224055 0 -0.0042520475652224055 0.077551325335283305 0 0 0 0.018622178879782486 0.00037814994278870251 -0.0017674406118660113 0 -0.0017674406118660113 0.14234551559506659 0 0 0 0.035680916384463773 -0.026025756648635576 -0.010449885019522931 0 -0.010449885019522931 0.021819839905022585 0 0 0 -0.0010514791859032348 -0.094915174717049244 -0.011154684598418153 0 -0.011154684598418153 0.011396548313698018 0 0 0 -0.020879656600837709 -0.0058583248757001494 0.0011053656154021152 0 0.0011053656154021152 -0.014454662552316089 0 0 0 -0.0050782468570040873 -0.14413262385571513 -0.027618179657630568 0 -0.027618179657630568 0.0088613434118643974 0 0 0 -0.033817820110962737 -0.052650483602220646 0.0022187888097733844 0 0.0022187888097733844 0.011019155994028928 0 0 0 -0.010407831902047936 -0.063105292132072832 -0.03145554350546742 0 -0.03145554350546742 0.025937111023533355 0 0 0 -0.0092920452771348971 -0.060716509967080001 -0.028974734187053403 0 -0.028974734187053403 0.023842678850535703 0 0 0 -0.0092184577791361022 -0.071491303216879992 0.0030093500979051953 0 0.0030093500979051953 -0.0006210658332140781 0 0 0 -0.018028092262523519 -0.080287177673629168 -0.018302396705281082 0 -0.018302396705281082 0.016330269378257101 0 0 0 -0.015989227073843093 -0.077351261119899317 0.00039836601850815577 0 0.00039836601850815577 -0.0016174174082859566 0 0 0 -0.019742169632046315 -0.067233073549080605 -0.012755169385663356 0 -0.012755169385663356 -0.015630517248258216 0 0 0 -0.020715897699334698 -0.098148606557181772 -0.011121270099913177 0 -0.011121270099913177 0.010051689973082478 0 0 0 -0.022024229146024893 -0.16050250637962002 0.020000363874685956 0 0.020000363874685956 0.035380849056788954 0 0 0 -0.031280414330707801 -0.10687174055857887 -0.0078613546023490969 0 -0.0078613546023490969 -0.024651580765017219 0 0 0 -0.03288083033089903 -0.085733844090637515 -0.0012213180381188027 0 -0.0012213180381188027 -0.019653498908276959 0 0 0 -0.026346835749728618 -0.080439493566697134 0.0035591423287180991 0 0.0035591423287180991 -0.0038271415530734716 0 0 0 -0.021066658779942633 -0.092486164728572559 -0.01880026043781725 0 -0.01880026043781725 -0.01236844282431869 0 0 0 -0.026213651888222812 -0.052347221081762742 -0.0034218779773952652 0 -0.0034218779773952652 -0.022002551295288917 0 0 0 -0.018587443094262922 -0.020301355905533267 -0.043818973725348653 0 -0.043818973725348653 0.052268815065666691 0 0 0 0.0079918647900333456 -0.034869252896517058 0.0057141687211915773 0 0.0057141687211915773 -0.013665626608037005 0 0 0 -0.012133719876138514 -0.017095649399413215 0.020372159763522912 0 0.020372159763522912 0.00051725495526877552 0 0 0 -0.0041445986110359989 -0.018802140284052471 -0.02701387447845649 0 -0.02701387447845649 0.023546756625078213 0 0 0 0.0011861540852563524 -0.078816940472970387 0.0023513659997059337 0 0.0023513659997059337 -0.0073111574173470445 0 0 0 -0.021532024472579347 -0.085830675088768404 -0.014826454924949299 0 -0.014826454924949299 -0.018236623584567999 0 0 0 -0.026016824668334101 -0.038533182960203811 0.0058869061427785276 0 0.0058869061427785276 -0.0078091487406793461 0 0 0 -0.011585582925220789 -0.040750332551978352 -0.035387495774528606 0 -0.035387495774528606 0.037315343725504713 0 0 0 -0.00085874720661843762 -0.0793294015881012 0.01543771261601992 0 0.01543771261601992 -0.0019002462836983369 0 0 0 -0.020307411967949829 -0.019426324214927737 -0.015859970031366299 0 -0.015859970031366299 0.049605705068804351 0 0 0 0.007544845213469098 -0.04961346656328558 -0.032384081868378711 0 -0.032384081868378711 0.0048305025355876996 0 0 0 -0.011195741006924442 -0.072840973634901787 -0.012141924883864876 0 -0.012141924883864876 0.056307378767954497 0 0 0 -0.0041333987167368608 -0.14872183480982715 -0.012086150059704356 0 -0.012086150059704356 -0.0040556596560977209 0 0 0 -0.03819437361648121 -0.10513005331913949 0.0011367498993527791 0 0.0011367498993527791 -0.002665422682698787 0 0 0 -0.02694886900045957 -0.024893540996117392 0.0093108698446437033 0 0.0093108698446437033 0.0033761570381747041 0 0 0 -0.0053793459894856746 -0.042368818712647832 0.0034544729969875391 0 0.0034544729969875391 -0.012857588511480183 0 0 0 -0.013806601806032003 -0.059853881576089119 -0.022220640998872235 0 -0.022220640998872235 0.011786712400854382 0 0 0 -0.01201679229380867 -0.15197142274498943 -0.015479324097909919 0 -0.015479324097909919 -0.0017066370567607875 0 0 0 -0.038419514950437522 -0.1089142638864337 0.0042627741097165522 0 0.0042627741097165522 -0.00099719765832118057 0 0 0 -0.02747786538618871 -0.057280792671524333 0.0048707059920085217 0 0.0048707059920085217 0.057401460718894876 0 0 0 3.0167011842625185e-05 -0.032660349256629084 -0.028365046001215699 0 -0.028365046001215699 0.0040997999581868783 0 0 0 -0.007140137324610496 -0.034574098116188612 0.042995614161851325 0 0.042995614161851325 0.011304101598772931 0 0 0 -0.0058174991293538092 -0.094254920782093993 -0.00041767729394259767 0 -0.00041767729394259767 0.0088217036615069674 0 0 0 -0.021358304280146706 -0.081478058327609945 -0.0067877349682553267 0 -0.0067877349682553267 0.011772725117686046 0 0 0 -0.01742633330248099 -0.046400077786806063 -0.014255696814987312 0 -0.014255696814987312 0.022618415152772742 0 0 0 -0.0059454156585083268 -0.049339897769848248 -0.015047609896925523 0 -0.015047609896925523 0.031429589852091593 0 0 0 -0.0044775769794391899 -0.062361641420342277 -0.0080438874703286124 0 -0.0080438874703286124 -0.024159044987201426 0 0 0 -0.021630171601885927 -0.060897727255896775 -0.0038310517738830937 0 -0.0038310517738830937 -0.021708610473097779 0 0 0 -0.020651584432248647 -0.064333735296260214 7.2368542576058473e-05 0 7.2368542576058473e-05 -0.015170289307176017 0 0 0 -0.019876006150859056 -0.062927323167220037 0.0025634593845340163 0 0.0025634593845340163 -0.014539745075678005 0 0 0 -0.019366767060724512 -0.0337637935017292 -0.0070408767862696897 0 -0.0070408767862696897 -0.0012063768796684027 0 0 0 -0.0087425425953494007 -0.065227660031515894 -0.00216642333275225 0 -0.00216642333275225 0.060951100506144378 0 0 0 -0.0010691398813429073 -0.032212421808776613 0.0089727258778136525 0 0.0089727258778136525 -0.00023038910739619362 0 0 0 -0.0081107027290431878 -0.030957984672254302 0.046041639267967609 0 0.046041639267967609 0.018410217506305671 0 0 0 -0.0031369417914870468 -0.043933698226984341 -0.02978882752845291 0 -0.02978882752845291 0.00049712796838052853 0 0 0 -0.010859142564650814 -0.02563331086245757 0.056019547891839938 0 0.056019547891839938 0.012553941841225935 0 0 0 -0.0032698422553079087 -0.028079167786682749 -0.0059766429718437417 0 -0.0059766429718437417 0.0018228095174659537 0 0 0 -0.0065640895673042144 -0.022158630928241774 0.0037043657234146973 0 0.0037043657234146973 0.013069875858087276 0 0 0 -0.0022721887675386382 -0.064653872513559141 0.061803006961476004 0 0.061803006961476004 0.0032485254558620724 0 0 0 -0.015351336764424128 -0.043858098779389065 0.063112168487956977 0 0.063112168487956977 0.0079454110639045616 0 0 0 -0.0089781719288710704 -0.11712800086776239 -0.00585281306053664 0 -0.00585281306053664 -0.015177759136346405 0 0 0 -0.033076440001027198 -0.092681620480470545 -0.0027350652072924784 0 -0.0027350652072924784 -0.012005790421580639 0 0 0 -0.026171852725512802 -0.036600536489399593 -0.035672580926382369 0 -0.035672580926382369 0.019085954000508165 0 0 0 -0.0043786456222228987 0.0040744432080252468 -0.005060297913281107 0 -0.005060297913281107 0.078810532814670875 0 0 0 0.020721244005673989 0.0033665910359135798 0.002014882420074221 0 0.002014882420074221 0.14947187026759051 0 0 0 0.038209615325876023 -0.065928660559625304 0.00036576909446851043 0 0.00036576909446851043 0.0378543173178051 0 0 0 -0.007018585810455065 -0.028028492904948958 0.013653241947489141 0 0.013653241947489141 0.0063556777901521699 0 0 0 -0.0054182037786991988 -0.015825480147610649 -0.0022769550414568351 0 -0.0022769550414568351 -0.014033809749016579 0 0 0 -0.0074648224741567515 -0.026111772255849153 -0.0040624413758005573 0 -0.0040624413758005573 -0.018092528553128706 0 0 0 -0.011051075202244465 -0.037916400369197439 -0.013186724855988277 0 -0.013186724855988277 -0.0048554446329354128 0 0 0 -0.010692961250533234 -0.024036995536646538 0.016472659447508642 0 0.016472659447508642 -0.0046630711490356358 0 0 0 -0.0071750166714207586 -0.018116748607264518 -0.026398216174766898 0 -0.026398216174766898 0.037291973310017545 0 0 0 0.0047938061756881561 -0.001576963747603799 0.0048817261178932259 0 0.0048817261178932259 0.03023464254657926 0 0 0 0.0071644196997439069 -0.0014870839944246539 -0.0070286095049856834 0 -0.0070286095049856834 0.072947756551162923 0 0 0 0.01786516813918454 -0.024858181166411253 0.032604572825731148 0 0.032604572825731148 0.024931923024035463 0 0 0 1.8435464406163504e-05 -0.02034409852097907 -0.021512100916973642 0 -0.021512100916973642 -0.0042581137161858962 0 0 0 -0.0061505530592912416 -0.039891427562433225 0.0040141361773154355 0 0.0040141361773154355 -0.011937135925941322 0 0 0 -0.012957140872093636 -0.036879132048655602 0.0068769485244826803 0 0.0068769485244826803 -0.0082683593988546814 0 0 0 -0.011286872861877569 -0.027229125649912422 0.037636039902219531 0 0.037636039902219531 0.032502604386760225 0 0 0 0.0013183696842116177 -0.026053031528944004 -0.021940968418826534 0 -0.021940968418826534 0.0021062168532668402 0 0 0 -0.005986703668919402 -0.093550418427090359 -0.0093493565235841167 0 -0.0093493565235841167 -0.023488639690676723 0 0 0 -0.029259764529441762 -0.07944961378678414 0.00032481175969211427 0 0.00032481175969211427 -0.017296457108399631 0 0 0 -0.024186517723795944 -0.0071112836796256573 0.068142654202121122 0 0.068142654202121122 0.029643256762665882 0 0 0 0.005632993270759945 -0.1350774434001403 -0.0015265310304635993 0 -0.0015265310304635993 -0.023303422496141042 0 0 0 -0.039595216474070334 -0.1030295261619428 -0.0061442316619034053 0 -0.0061442316619034053 -0.017517141858863761 0 0 0 -0.030136667005201647 -0.033837697722505 0.014067568680357967 0 0.014067568680357967 -0.0056620090802335099 0 0 0 -0.0098749267006850161 -0.017064330173455433 -0.019340972090938879 0 -0.019340972090938879 0.063758394006820485 0 0 0 0.011673515958341096 -0.061633052893167915 -0.0052784838421268687 0 -0.0052784838421268687 0.077543714619218662 0 0 0 0.003977665431512685 -0.089760400422419062 -7.9292608898801076e-05 0 -7.9292608898801076e-05 0.073983082444807113 0 0 0 -0.0039443294944029872 -0.056775773569125221 -0.03328959275984697 0 -0.03328959275984697 0.010415841398613512 0 0 0 -0.011589983042627927 -0.031589570464949604 -0.025420916636618107 0 -0.025420916636618107 0.0095410297721185144 0 0 0 -0.0055121351732077828 -0.063775954569409099 0.070563081477796663 0 0.070563081477796663 0.019715790393332711 0 0 0 -0.011015041044019069 -0.11692666770929538 0.046529723518945243 0 0.046529723518945243 0.024273263823464841 0 0 0 -0.023163350971457608 -0.080141407492512973 -0.021738490097057417 0 -0.021738490097057417 0.010187497288395075 0 0 0 -0.017488477551029502 -0.010359237222956036 -0.048952523356022487 0 -0.048952523356022487 0.038466342275239929 0 0 0 0.0070267762630710495 -0.015506429177379877 0.00042810771185386454 0 0.00042810771185386454 0.044223006092011685 0 0 0 0.0071791442286579521 -0.018307171358494689 -0.0049973517377396026 0 -0.0049973517377396026 0.084778620609359034 0 0 0 0.01661786231271617 -0.066231305642513894 -0.019619503218165725 0 -0.019619503218165725 0.037377870327768514 0 0 0 -0.0072133588286863726 -0.06027803765397223 -0.014042648951279494 0 -0.014042648951279494 0.036381625285333952 0 0 0 -0.00597410309215958 -0.046294330926589827 0.018235074659324516 0 0.018235074659324516 0.087654232656872499 0 0 0 0.010339975432570661 -0.025349793483480015 -0.027608200031755209 0 -0.027608200031755209 0.05084981836969632 0 0 0 0.006375006221554097 -0.016070466061742117 0.028056026332056616 0 0.028056026332056616 0.076353507290565226 0 0 0 0.015070760307205333 -0.018218044569985103 -0.012806322309177443 0 -0.012806322309177443 -0.0048179986886061066 0 0 0 -0.0057590108146476915 -0.061778158260642833 0.010171684680997238 0 0.010171684680997238 0.052380080405822857 0 0 0 -0.0023495194637050132 -0.041002685082418111 -0.006881344617818641 0 -0.006881344617818641 0.021646097560060237 0 0 0 -0.0048391468805895031 -0.028921649861789384 -0.0061046826115080388 0 -0.0061046826115080388 -0.013706728948086222 0 0 0 -0.010657094702468867 -0.046162622299037288 0.016920163181486703 0 0.016920163181486703 0.034684311455874979 0 0 0 -0.0028695777107905817 -0.044500758871685191 -0.0019919799078583667 0 -0.0019919799078583667 -0.022579944943391779 0 0 0 -0.016770175953769246 -0.09639143905347658 -0.0091400003764472021 0 -0.0091400003764472021 0.0012498515417140865 0 0 0 -0.023785396877940623 -0.066178014489506123 -0.0071244655539592899 0 -0.0071244655539592899 -0.019935114045639177 0 0 0 -0.021528282133786318 -0.033449380580870255 0.010267183442853142 0 0.010267183442853142 -0.0019971778630097324 0 0 0 -0.0088616396109699978 -0.058520817604246766 0.0072385521969934082 0 0.0072385521969934082 0.073667858947661174 0 0 0 0.0037867603358536089 -0.15839967776835606 0.01908692509654028 0 0.01908692509654028 0.0014704374879714877 0 0 0 -0.039232310070096199 -0.042045342379305135 0.0030314986633171257 0 0.0030314986633171257 -0.015083653991243666 0 0 0 -0.014282249092637202 -0.034979668725057471 0.0015451682325526139 0 0.0015451682325526139 -0.0051997555844875976 0 0 0 -0.010044856077386276 -0.048471084639009801 -0.019056699543356037 0 -0.019056699543356037 0.0056877624495291906 0 0 0 -0.010695830547370125 -0.052049592238349651 -0.02393711575722024 0 -0.02393711575722024 6.6149105604207392e-06 0 0 0 -0.013010744331947433 -0.05198602918357751 -0.0086439435313166654 0 -0.0086439435313166654 -0.017945348048334968 0 0 0 -0.01748284430797812 -0.03889156318838858 0.0025854634478782368 0 0.0025854634478782368 -0.015973664627987993 0 0 0 -0.013716306954094143 -0.039230335407930861 -0.0021701141000486923 0 -0.0021701141000486923 -0.0029079241697408248 0 0 0 -0.010534564894417923 -0.050898106413194422 -0.021022868776600104 0 -0.021022868776600104 0.015036232093035451 0 0 0 -0.0089654685800397427 -0.020628151412649121 6.8392599741062821e-05 0 6.8392599741062821e-05 0.02578943561275937 0 0 0 0.0012903210500276319 -0.10806199855273566 -0.028587922913609704 0 -0.028587922913609704 -0.0040586540973928109 0 0 0 -0.028030163162532123 -0.0071494269205442107 0.017046958868566442 0 0.017046958868566442 0.12425293337172849 0 0 0 0.029275876612795959 -0.024727246846087361 -0.0093756926057975143 0 -0.0093756926057975143 -0.0035491686962682012 0 0 0 -0.0070691038855888594 -0.037618929213092567 0.00625883348143314 0 0.00625883348143314 -0.0098329335458286742 0 0 0 -0.011862965689730305 -0.035072286615062717 0.0066415941500556734 0 0.0066415941500556734 -0.0096159864380089208 0 0 0 -0.011172068263267908 -0.027935109526023183 0.017545485123558968 0 0.017545485123558968 0.0037903270872652328 0 0 0 -0.0060361956096901537 -0.026331720906064282 -0.025765157662032884 0 -0.025765157662032884 0.04036446698182683 0 0 0 0.0035081865189405814 -0.037361065467737695 0.011003842059390891 0 0.011003842059390891 0.0082493856609990521 0 0 0 -0.0072779199516846589 -0.044829200914299761 0.0088308482565974972 0 0.0088308482565974972 0.0073589767503508922 0 0 0 -0.0093675560409872162 -0.037718468154786036 0.0060471448531898659 0 0.0060471448531898659 -0.0084045565108919421 0 0 0 -0.011530756166419498 -0.093223232033489478 0.0033058359138830318 0 0.0033058359138830318 -0.0019002758610665166 0 0 0 -0.023780876973639023 -0.060491096079168236 -0.0064046802648277806 0 -0.0064046802648277806 0.017199652035394142 0 0 0 -0.010822861010943527 -0.044571027091271628 -0.0098958279694181459 0 -0.0098958279694181459 0.020245217045201047 0 0 0 -0.0060814525115176349 -0.10222826092837263 0.0033768365472652759 0 0.0033768365472652759 -0.0044344871472268566 0 0 0 -0.026665687018899847 0.031963181705304336 0.089330788968945973 0 0.089330788968945973 0.071443988810426684 0 0 0 0.025851792628932682 -0.027065850810095604 0.031824021314281498 0 0.031824021314281498 0.008378230518157892 0 0 0 -0.004671905072984206 -0.022513997754456394 -0.028416589763828111 0 -0.028416589763828111 0.0060910143435530806 0 0 0 -0.0041057458527258284 -0.053211132575363598 -0.00033694299442299427 0 -0.00033694299442299427 0.0080992439537604238 0 0 0 -0.011277972155400797 -0.040243957278910288 0.0023181722689923664 0 0.0023181722689923664 -0.015378848960809575 0 0 0 -0.01390570155992997 -0.012717947626861445 -0.0014032540006802818 0 -0.0014032540006802818 0.024356939033174485 0 0 0 0.0029097478515782704 -0.036251600887265506 -0.01151427466600239 0 -0.01151427466600239 0.0060747821003421798 0 0 0 -0.0075442046967309218 -0.041391609863899309 -0.017123435720492464 0 -0.017123435720492464 -0.011206492841991544 0 0 0 -0.013149525676472734 -0.043280306914508446 0.0050606107321043156 0 0.0050606107321043156 -0.0022685600696234712 0 0 0 -0.011387216746032986 -0.083040761204325741 -0.020364622647387864 0 -0.020364622647387864 0.00051022843359405101 0 0 0 -0.020632633192682881 -0.067436627570792385 -0.024927101431766907 0 -0.024927101431766907 0.0057451374479922102 0 0 0 -0.015422872530700127 -0.039570052560544369 0.00079889530645216073 0 0.00079889530645216073 -0.013193886403228581 0 0 0 -0.013190984740943235 -0.094734675033575577 0.050804573819661636 0 0.050804573819661636 0.0090588280145786904 0 0 0 -0.021418961754749111 -0.12620596183654609 0.041911923970382237 0 0.041911923970382237 -0.00053104563816441797 0 0 0 -0.031684251868677626 -0.009347647889576427 0.0058131727011349887 0 0.0058131727011349887 0.037264854388729729 0 0 0 0.0069793016247883255 -0.0093972788477670322 -0.010435594380965751 0 -0.010435594380965751 0.072589468040637151 0 0 0 0.015798047298217543 -0.02659071897825175 -0.015973869379693154 0 -0.015973869379693154 0.011260760909327483 0 0 0 -0.003832489517231058 -0.029861168271658717 -0.0018738801731976729 0 -0.0018738801731976729 -0.0094379814882697977 0 0 0 -0.0098247874399820245 0.0037060128866958364 0.040793303623754967 0 0.040793303623754967 0.11186448412925876 0 0 0 0.028892624253988641 -0.047178709593150944 -0.0050689524307500622 0 -0.0050689524307500622 -0.014882411056477751 0 0 0 -0.015515280162407181 -0.059294375116254232 -0.0084314347859288374 0 -0.0084314347859288374 0.03607244608043661 0 0 0 -0.005805482258954435 0.024046499382450626 0.031462125870210578 0 0.031462125870210578 0.035200871325342886 0 0 0 0.01481184267694835 -0.053479750933783619 -0.00072359824245656155 0 -0.00072359824245656155 0.0061832504130654026 0 0 0 -0.011824125130179546 -0.024232925317116405 0.035585915737734286 0 0.035585915737734286 0.015452075011644695 0 0 0 -0.0021952125763676777 -0.022604391057766016 -0.023803280595222964 0 -0.023803280595222964 0.0040039977616543876 0 0 0 -0.0046500983240277405 -0.052062966793153601 0.00056953233717336148 0 0.00056953233717336148 -0.0055579022911940411 0 0 0 -0.01440521727108691 -0.077546737470028715 -0.017170205773060838 0 -0.017170205773060838 0.058102397355658919 0 0 0 -0.0048610850285924351 -0.022609291508462803 0.027497000477313627 0 0.027497000477313627 0.075450231469533779 0 0 0 0.013210234990267633 -0.02038883243680395 -0.011812956381396456 0 -0.011812956381396456 0.0021825588995800782 0 0 0 -0.0045515683843057597 -0.13678976168612067 0.0017910630967358438 0 0.0017910630967358438 0.0010943337568311562 0 0 0 -0.033923856982322392 -0.23757644079491796 -0.0072219183554704351 0 -0.0072219183554704351 0.0019506070047792812 0 0 0 -0.05890645844753456 -0.041421166851303148 0.02450583197446167 0 0.02450583197446167 0.10371177030328438 0 0 0 0.015572650862995419 -0.080784269054816518 0.0050639432499138479 0 0.0050639432499138479 -0.00051244632403396606 0 0 0 -0.020324178844712625 0.02146613835555097 -0.0051939240424438982 0 -0.0051939240424438982 0.078725963272950575 0 0 0 0.025048025407125332 0.025667190236522364 0.00029682722449592136 0 0.00029682722449592136 0.096509983963835699 0 0 0 0.03054429355008953 0.034292530497303464 -0.0020626349822601697 0 -0.0020626349822601697 0.17648455837940591 0 0 0 0.052694272219177385 0.030911351267603748 0.0046036113762763509 0 0.0046036113762763509 0.15313382159933409 0 0 0 0.046011293216734472 -0.015970492413433249 0.0053678801780309149 0 0.0053678801780309149 0.011471008529856053 0 0 0 -0.0011248709708943233 -0.015903813822208679 -0.010665484674222458 0 -0.010665484674222458 0.038924895578832608 0 0 0 0.0057552704391559129 -0.020566148611703194 0.0039443860004376718 0 0.0039443860004376718 0.11859610195511361 0 0 0 0.02450748833585259 -0.01912632328956837 -0.010291648451481394 0 -0.010291648451481394 0.05804846543571418 0 0 0 0.009730535536536522 -0.071443493745877523 0.0030907175315187038 0 0.0030907175315187038 0.06468889559172003 0 0 0 -0.0016886495385393593 -0.0053845222372950197 0.022224381980548769 0 0.022224381980548769 0.066365378259797048 0 0 0 0.015245214005625396 -0.011809234982296246 0.0086221402739288799 0 0.0086221402739288799 -0.00071992963789480058 0 0 0 -0.0031322911550475396 -0.0087784303497420169 -0.0073053232210092967 0 -0.0073053232210092967 -0.0019185226234998964 0 0 0 -0.0026742382433105893 -0.0073890090815611487 -0.019931434066629089 0 -0.019931434066629089 0.031562479694307921 0 0 0 0.0060433676531865821 -0.046317639079745052 0.0040730175076556822 0 0.0040730175076556822 -0.0030583886906928657 0 0 0 -0.012344006942609497 -0.016353678786656445 0.02183314254887625 0 0.02183314254887625 0.077252271832227881 0 0 0 0.015224648261392748 -0.0046327618169546003 -0.0060783741866610175 0 -0.0060783741866610175 -0.001405501754175531 0 0 0 -0.0015095658927826161 -0.065163182906570027 -0.0078653068729276632 0 -0.0078653068729276632 0.072475317228737457 0 0 0 0.0018280335805418468 -0.0056308652208616472 0.0072188907908492528 0 0.0072188907908492528 -0.0012853014670231033 0 0 0 -0.0017290416719708546 -0.015209636443068164 -0.02008390404850513 0 -0.02008390404850513 0.039992986983298451 0 0 0 0.0061958376350575994 -0.016975135613872538 -0.027412834429645372 0 -0.027412834429645372 0.023812163133107633 0 0 0 0.0017092568798087182 -0.054524755701146552 -0.022671576721404657 0 -0.022671576721404657 0.008299781475341661 0 0 0 -0.011556243556451226 -0.054351481803462526 -0.022064078846060639 0 -0.022064078846060639 0.0084494846041433536 0 0 0 -0.0114754992998298 -0.047604866405269466 -0.0083738639726506411 0 -0.0083738639726506411 -0.0092375213545951296 0 0 0 -0.014210596939966173 -0.032086381764695804 0.076160167000916879 0 0.076160167000916879 0.022100352334549767 0 0 0 -0.0024965073575365926 -0.077302901239906435 -0.0090587364417206717 0 -0.0090587364417206717 -0.00049496985911112734 0 0 0 -0.019449467774754509 -0.0045593568180704244 -0.016307841293587394 0 -0.016307841293587394 0.041638679561720876 0 0 0 0.0092698306859126181 -0.03933729306404013 -0.0069560396633363136 0 -0.0069560396633363136 0.027419353367726829 0 0 0 -0.0029794849240783183 -0.029632266567090441 0.019457790418831257 0 0.019457790418831257 0.01990279646045584 0 0 0 -0.002432367526658645 -0.033788440382126056 -0.010205192472349675 0 -0.010205192472349675 -0.01010350799001114 0 0 0 -0.01097298709303432 -0.034984112008838997 -0.010545734692799541 0 -0.010545734692799541 -0.0090189208693687295 0 0 0 -0.011000758219551932 -0.25697142824115471 0.0065557068082747576 0 0.0065557068082747576 0.0073377944246644233 0 0 0 -0.062408408454122599 -0.13978629354415062 -0.0031676691077270674 0 -0.0031676691077270674 0.0032667162832239471 0 0 0 -0.03412989431523164 -0.050585529274239274 -0.0041159745198843271 0 -0.0041159745198843271 -0.016863556470291054 0 0 0 -0.016862271436132583 -0.054925783793883062 0.0021999020495048799 0 0.0021999020495048799 -0.018308175442985217 0 0 0 -0.018308489809217066 -0.022553495445948042 0.0067729129562465046 0 0.0067729129562465046 0.0091055265742601144 0 0 0 -0.0033619922179219872 -0.038798347406559824 0.016484407444681402 0 0.016484407444681402 0.02344286344591516 0 0 0 -0.0038388709901611747 -0.032958581168784903 0.012377578813160157 0 0.012377578813160157 0.0056817474611812122 0 0 0 -0.0068192084269009315 -0.13595317932363843 -0.012414125180339349 0 -0.012414125180339349 -0.01214966862658064 0 0 0 -0.037025711987554777 -0.10223839939271864 0.00043398618842346165 0 0.00043398618842346165 -0.0072689486362029487 0 0 0 -0.027376837007230398 0.036671821374838931 0.037426104989705333 0 0.037426104989705333 0.038362273195112095 0 0 0 0.018758523642487868 -0.1161518865422924 -0.011419826430596686 0 -0.011419826430596686 -0.0076423981547928902 0 0 0 -0.030948571174271317 -0.092580557593679183 0.00017530052682129815 0 0.00017530052682129815 -0.0051564787422043595 0 0 0 -0.024434259083970886 -0.037916623332840182 -0.0052824835879578466 0 -0.0052824835879578466 0.0015401444323350777 0 0 0 -0.0090941197251262484 0.024574071917293328 0.10332364264341753 0 0.10332364264341753 0.073523038568236165 0 0 0 0.024524277621382318 -0.026211966717004105 0.010069728078910142 0 0.010069728078910142 -0.0019136368119203051 0 0 0 -0.0070314008822311078 -0.033259822568643016 -0.008344916239566319 0 -0.008344916239566319 0.023505717840507701 0 0 0 -0.0024385261820338289 -0.077978728933895014 -0.0064213183032860409 0 -0.0064213183032860409 -0.025988229876675536 0 0 0 -0.025991739702642635 -0.070935897032258124 0.00013129905652802199 0 0.00013129905652802199 -0.023640860530934348 0 0 0 -0.023644189390798119 -0.12591586913582861 0.0032215794000545399 0 0.0032215794000545399 -0.00055325264458194745 0 0 0 -0.031617280445102626 -0.20020265657144545 -0.0097732483960903255 0 -0.0097732483960903255 -0.0011042916139873404 0 0 0 -0.050326737046358212 -0.077787062045897193 -0.0139688268429774 0 -0.0139688268429774 0.026189703701436917 0 0 0 -0.012899339586115055 0.001352728347805976 -0.017626319835727489 0 -0.017626319835727489 0.03141174538734437 0 0 0 0.0081911184337876142 -0.073646275793880778 -0.012954904539568671 0 -0.012954904539568671 0.054430173097964982 0 0 0 -0.0048040256739789663 -0.045247601590112436 0.01210174603180816 0 0.01210174603180816 0.031863689249483559 0 0 0 -0.0033459780851572357 -0.055855638967459674 0.0064843156899008847 0 0.0064843156899008847 0.036513890692543099 0 0 0 -0.0048354370687291679 -0.015170354928345314 0.020001949610513242 0 0.020001949610513242 0.035041193294696071 0 0 0 0.0049677095915877101 -0.0041616062746028665 0.016486280659232619 0 0.016486280659232619 0.020084920180904263 0 0 0 0.0039808284765753543 -0.022041484478327877 -0.0095864746392353983 0 -0.0095864746392353983 0.00093836759647358825 0 0 0 -0.0052757792204635723 -0.065334734400947836 -0.017531979118436458 0 -0.017531979118436458 0.031354716434966581 0 0 0 -0.0084950044914953206 -0.078959141420151896 -0.032304258202377742 0 -0.032304258202377742 0.066617057164595511 0 0 0 -0.0030855210638890684 -0.028414541655044791 -0.054274041486047142 0 -0.054274041486047142 0.10625786370105078 0 0 0 0.019460830511501513 -0.12100317040257297 0.0027208507877199001 0 0.0027208507877199001 -0.00083432219593537749 0 0 0 -0.030459373149627079 -0.18321168932314535 -0.0082759093594861142 0 -0.0082759093594861142 -0.0015014352842244727 0 0 0 -0.046178281151842457 -0.0053808948768381019 -0.0042280005003711429 0 -0.0042280005003711429 -0.0047022175979071022 0 0 0 -0.0025207781186863706 -0.032345568770214772 -0.02397848283078062 0 -0.02397848283078062 0.082775638193459011 0 0 0 0.01260751735581106 -0.03475827742018333 0.010328978323341679 0 0.010328978323341679 -0.0033838825703399571 0 0 0 -0.0095355399976308295 -0.11163696610891735 -0.010866108274180226 0 -0.010866108274180226 -0.016553101032698043 0 0 0 -0.032047516785403851 -0.089510906174098862 -7.9374745316121431e-05 0 -7.9374745316121431e-05 -0.01117002647894267 0 0 0 -0.025170233163260381 -0.053778454497524768 -8.8836707210668622e-05 0 -8.8836707210668622e-05 -0.0066870638255523904 0 0 0 -0.015116379580769286 -0.073672459579018287 -0.009394550690433174 0 -0.009394550690433174 0.059012660553106076 0 0 0 -0.0036649497564780549 -0.021824703899291142 -0.0098139561508924222 0 -0.0098139561508924222 0.043245257851565189 0 0 0 0.0053551384880685671 -0.055518681637184021 0.0016912341933594715 0 0.0016912341933594715 -0.004192849623811108 0 0 0 -0.014927882815248792 -0.060244557217729366 0.015075715690753277 0 0.015075715690753277 0.00039588712240989921 0 0 0 -0.01496216752382995 -0.023062463448600579 -0.019830609992125381 0 -0.019830609992125381 0.055018617564020378 0 0 0 0.0079890385288550747 -0.017673185027450966 -0.018170767259406029 0 -0.018170767259406029 0.04642184662258797 0 0 0 0.0071871653987842787 -0.053481058680860574 -0.028120367740299277 0 -0.028120367740299277 0.039249488891239609 0 0 0 -0.0035578924474052309 -0.051068186991580097 -0.015817090472510398 0 -0.015817090472510398 0.035627842819310529 0 0 0 -0.0038600860430673956 -0.054621188548846525 -0.0048107065122205781 0 -0.0048107065122205781 0.02523485311395085 0 0 0 -0.0073465838587239152 -0.071175340001968762 -0.010009931876021932 0 -0.010009931876021932 0.055736559393915711 0 0 0 -0.0038596951520132802 0.007684944065892374 0.018477650855262873 0 0.018477650855262873 0.15194653311907746 0 0 0 0.039907869296242016 -0.00024623449854921375 0.00069875476374825496 0 0.00069875476374825496 0.0010378924630387587 0 0 0 0.00019791449112216419 0.0019777593533390203 -0.015821470175594321 0 -0.015821470175594321 0.082357090406184663 0 0 0 0.021083712439880858 -0.00027298638990402857 -0.0013288575033056915 0 -0.0013288575033056915 0.0013615453487498819 0 0 0 0.00027213973971140781 -0.055531692304114685 -0.00042140767343686741 0 -0.00042140767343686741 0.027282207965142621 0 0 0 -0.0070623710847430195 -0.057096796832644368 -0.003448540203346037 0 -0.003448540203346037 0.017354390464382467 0 0 0 -0.0099356015920654683 -0.053529028240214965 -0.014294312230358402 0 -0.014294312230358402 0.025323199258247747 0 0 0 -0.0070514572454918045 -0.16174238978794156 -0.012974081593956438 0 -0.012974081593956438 0.0024682567550639301 0 0 0 -0.039818533258219421 -0.18452642905769823 -0.020683573412914075 0 -0.020683573412914075 0.0031541948511812912 0 0 0 -0.045343058551629248 -0.052527309419957251 -0.020996362756560211 0 -0.020996362756560211 0.0015097253175961473 0 0 0 -0.012754396025590316 -0.062749286761779821 -0.0046983865515277876 0 -0.0046983865515277876 0.0069640970486302689 0 0 0 -0.013946297428287409 -0.033363716422856751 -0.037588499746706722 0 -0.037588499746706722 0.059174903147267921 0 0 0 0.0064527966811027959 -0.087204452659825793 0.00096863952497159081 0 0.00096863952497159081 -0.0096646051067112611 0 0 0 -0.02421726444163427 -0.076511622436757742 0.00056732670610508754 0 0.00056732670610508754 -0.012505843471197077 0 0 0 -0.022254366476988696 -0.084983591967651123 -0.010492168900180275 0 -0.010492168900180275 -0.019376089838154604 0 0 0 -0.026089920451451424 -0.10583358987829847 -0.012716555380924827 0 -0.012716555380924827 -0.017700883956526609 0 0 0 -0.030883618458706276 -0.064165716410592655 -0.024493050690430618 0 -0.024493050690430618 0.00060313288340996252 0 0 0 -0.015890645881795784 -0.051844778823741278 -0.025211487032163908 0 -0.025211487032163908 0.0019706609782939033 0 0 0 -0.01246852946136201 -0.053576145225727317 -0.0031588880259003755 0 -0.0031588880259003755 -0.022671296301775275 0 0 0 -0.019061860381875646 -0.051584662562449798 -0.0047579614188498192 0 -0.0047579614188498192 -0.021608354204163082 0 0 0 -0.018298254191653218 -0.055010963811759975 0.0031180249082319107 0 0.0031180249082319107 -0.013645829594626412 0 0 0 -0.017164198351596594 -0.05852029965344404 0.00083168895720293033 0 0.00083168895720293033 -0.017949701346026654 0 0 0 -0.019117500249867681 -0.03045859914088056 0.039197121190982065 0 0.039197121190982065 0.019855565862907376 0 0 0 -0.0026507583194932405 -0.029186579251984979 -0.026856046893632635 0 -0.026856046893632635 -0.00098055251752526829 0 0 0 -0.0075417829423776173 -0.070951970074182705 -0.00043570584698248132 0 -0.00043570584698248132 -0.010227826660627479 0 0 0 -0.020294949183702546 -0.065668299804479205 -0.0081256612349474826 0 -0.0081256612349474826 -0.019083323508756293 0 0 0 -0.021187905828308897 -0.052227180604495126 -0.0089090829117258671 0 -0.0089090829117258671 0.012883462364624676 0 0 0 -0.009835929559967628 -0.080421791312533741 0.00073806167900285734 0 0.00073806167900285734 -0.0075329594128493126 0 0 0 -0.02198868768134575 -0.089788334174460777 -0.012305620952310744 0 -0.012305620952310744 -0.012647548814910729 0 0 0 -0.025608970747342887 -0.098725479702728519 -0.016368453429722277 0 -0.016368453429722277 0.10279394815462795 0 0 0 0.0010171171129748635 -0.058007288433444756 -0.0057967834133300922 0 -0.0057967834133300922 0.013820799936572606 0 0 0 -0.011046622124218034 -0.093952779714016443 -0.0051864560745049923 0 -0.0051864560745049923 -0.031328599752036508 0 0 0 -0.031320344866513243 -0.079311807035238838 -0.0018734505682837129 0 -0.0018734505682837129 -0.026443455839681537 0 0 0 -0.026438815718730094 0.00072628386219528163 0.01361832225479285 0 0.01361832225479285 0.038673305686276971 0 0 0 0.0098498973871180701 -0.011868516925940709 -0.0024804684837246294 0 -0.0024804684837246294 -0.018813039994437508 0 0 0 -0.0076703892300944987 -0.071236103594180006 -0.0016862054746713123 0 -0.0016862054746713123 0.009906894082990475 0 0 0 -0.01533230237779739 -0.0051362918533361945 -0.029962937053996885 0 -0.029962937053996885 0.02427567573423095 0 0 0 0.0047848459702236612 -0.056461890723202734 0.0012229565955572631 0 0.0012229565955572631 0.027381986922615387 0 0 0 -0.0072699759501468394 -0.063056100975261029 -0.011644359801710882 0 -0.011644359801710882 0.030023013378439545 0 0 0 -0.0082582718992053744 -0.15893421426636842 -0.0012201771992053374 0 -0.0012201771992053374 -0.012907567063192404 0 0 0 -0.042960445332390199 -0.11756237416954923 -0.0059222839164322083 0 -0.0059222839164322083 -0.010213164945634692 0 0 0 -0.031943884778795978 -0.026284894964118517 -0.020765121358257407 0 -0.020765121358257407 0.03770772677067985 0 0 0 0.0028557079516403211 -0.050883425361535721 0.0064011979967630497 0 0.0064011979967630497 0.017726827915008202 0 0 0 -0.0082891493616318781 -0.056614168155504831 -0.007248942922818552 0 -0.007248942922818552 0.0086655992387691758 0 0 0 -0.011987142229183904 -0.095426763681341301 -0.0014754824558225049 0 -0.0014754824558225049 0.0058333165361151851 0 0 0 -0.022398361786306539 -0.090257779263644311 0.017801015807261455 0 0.017801015807261455 0.00050780930016181003 0 0 0 -0.02243749249087057 -0.059338812174498962 -0.0068808960916450224 0 -0.0068808960916450224 0.02751402519289764 0 0 0 -0.0079561967454003235 -0.057960518283392964 -0.020349842394958767 0 -0.020349842394958767 0.013965484776910841 0 0 0 -0.010998758376620538 -0.058706688023009698 -0.0034880766567183807 0 -0.0034880766567183807 0.010391843600386974 0 0 0 -0.012078711105655657 -0.048963384001555331 0.0055582672550848981 0 0.0055582672550848981 0.02259476323570939 0 0 0 -0.0065921551914614809 -0.059256900059125185 -0.022185519165908885 0 -0.022185519165908885 0.018088954086083131 0 0 0 -0.010291986493260498 0.030041933768247611 0.017878529025379258 0 0.017878529025379258 0.096834618959131424 0 0 0 0.031719138181844755 -0.065717669436652554 0.0010462505716890697 0 0.0010462505716890697 0.0042499952561915189 0 0 0 -0.01536691854511528 -0.047782547104435524 0.012153103853684035 0 0.012153103853684035 -0.0029272019171795449 0 0 0 -0.01267743725540349 -0.02362129613095687 -0.016201088983719636 0 -0.016201088983719636 0.060361965051995758 0 0 0 0.0091851672302596388 -0.013398236189898938 -0.01528537756142212 0 -0.01528537756142212 0.042519897631881909 0 0 0 0.0072804153604956179 -0.12802330210075816 -0.020543616593895808 0 -0.020543616593895808 0.032520293460436701 0 0 0 -0.023875752160080334 -0.0065055946555009833 -0.015800471664109743 0 -0.015800471664109743 0.0052086820869815392 0 0 0 -0.00032422814212989398 -0.11963238587613381 0.0047270990422936809 0 0.0047270990422936809 0.0019154805639318706 0 0 0 -0.029429226328050506 -0.19778036128057888 -0.01881159532972862 0 -0.01881159532972862 0.0056550041617502295 0 0 0 -0.04803133927970718 -0.1151285234093636 -0.00090387051914825323 0 -0.00090387051914825323 0.0006856909541640005 0 0 0 -0.028610708113799913 -0.19389382969003788 -0.0029500349786072688 0 -0.0029500349786072688 0.0029275178482622843 0 0 0 -0.047741577960443926 -0.10192869038608277 -0.005760969652400352 0 -0.005760969652400352 -0.014390078505237235 0 0 0 -0.029079692222830002 -0.13433579423747177 -0.0007084545748507593 0 -0.0007084545748507593 -0.017667343338728228 0 0 0 -0.038000784394049997 -0.064971502864015845 -0.015185802731550305 0 -0.015185802731550305 0.040962172059818253 0 0 0 -0.0060023327010493774 -0.060703226509721091 -0.023544949420482547 0 -0.023544949420482547 0.051736575034386834 0 0 0 -0.0022416628688335938 -0.016976478248927063 -0.0037096346360530885 0 -0.0037096346360530885 0.065480310662285657 0 0 0 0.012125958103339718 -0.0097499926741605736 -0.00092658510045928733 0 -0.00092658510045928733 0.12750632083019581 0 0 0 0.029439082039008829 -0.026440258514126819 0.0043719200585299184 0 0.0043719200585299184 0.050358014893702119 0 0 0 0.005979439094893832 -0.018513992313935967 0.0011761813347093975 0 0.0011761813347093975 0.11145383008789572 0 0 0 0.023234959443489911 -0.03016512987282699 -0.0092611181939600828 0 -0.0092611181939600828 0.0570427357836224 0 0 0 0.0067194014776988387 -0.060554975246669709 -0.0033400308424701916 0 -0.0033400308424701916 0.01118818907128567 0 0 0 -0.012341696543845992 -0.045011162964916272 -0.024062401215486813 0 -0.024062401215486813 0.043410437099443255 0 0 0 -0.00040018146636827678 -0.062425894943541366 -0.025336830929765519 0 -0.025336830929765519 0.039588807922031011 0 0 0 -0.0057092717553775402 -0.060150301268782236 -0.0028951144383103505 0 -0.0028951144383103505 0.049930979488496403 0 0 0 -0.0025548304450714408 -0.11971153151230163 0.01747436330355823 0 0.01747436330355823 -0.002106498013138669 0 0 0 -0.030454507381359797 -0.071215712765843042 -0.009377176268313317 0 -0.009377176268313317 0.051656434976625837 0 0 0 -0.0048898194473042736 -0.010965069674071015 -0.01027101054535888 0 -0.01027101054535888 0.15247145830323172 0 0 0 0.035376597157290218 0.03494974053450256 -0.015548667742342717 0 -0.015548667742342717 0.083039311582094544 0 0 0 0.02949726302914929 -0.00095645701561924978 -0.015968136083016837 0 -0.015968136083016837 0.036331183754271468 0 0 0 0.0088436816846631516 -0.2148523717435627 -0.014346787673486933 0 -0.014346787673486933 0.0046739731206918433 0 0 0 -0.052544599655717783 -0.12533740365545695 0.004504743641053216 0 0.004504743641053216 0.0013050430495459842 0 0 0 -0.031008090151477728 -0.073050903866156217 -0.0088217743657279038 0 -0.0088217743657279038 0.055804322504117654 0 0 0 -0.0043116453405096442 -0.079156974882104603 0.041036211667681899 0 0.041036211667681899 -0.0061085594114813624 0 0 0 -0.021316383573396269 -0.055713341062640254 0.03836857585181952 0 0.03836857585181952 0.001705985195007198 0 0 0 -0.013501838966908375 -0.033434623790163598 -0.030954622351944572 0 -0.030954622351944572 0.022654192882866742 0 0 0 -0.0026951077268241308 -0.026346919106386372 -0.028475266027972901 0 -0.028475266027972901 0.025016761110793699 0 0 0 -0.0003325394988981683 -0.029411570676645349 -0.017608208129835323 0 -0.017608208129835323 0.067690708456628501 0 0 0 0.0095697844449957881 -0.018861696471916378 0.0089567367455623947 0 0.0089567367455623947 0.00058354138702298997 0 0 0 -0.0045695387712236801 -0.069621481152254874 0.00085617499964300327 0 0.00085617499964300327 -0.010957012020878079 0 0 0 -0.020144623293283245 -0.070394990359163676 -0.0063092112561835278 0 -0.0063092112561835278 -0.019086565275946134 0 0 0 -0.022370388908777454 -0.035855415024579125 -0.034316812750998738 0 -0.034316812750998738 0.011400414128118971 0 0 0 -0.0061137502241149846 -0.036643652982121577 -0.033814624892785805 0 -0.033814624892785805 0.011187839661075838 0 0 0 -0.0063639533302615181 -0.038502340943247101 -0.032873903410962746 0 -0.032873903410962746 0.0083361120157300905 0 0 0 -0.0075415572318793117 -0.040589950768666894 -0.03582500308124914 0 -0.03582500308124914 0.0082012588043003376 0 0 0 -0.0080971729910916945 -0.052161773837769265 0.050246847258152982 0 0.050246847258152982 -0.0010023085559416889 0 0 0 -0.013291020598427961 -0.042915802487902804 0.046821838811926142 0 0.046821838811926142 0.0010597968658453121 0 0 0 -0.010464001405514373 -0.074020895305752024 0.0016607894022110893 0 0.0016607894022110893 -0.0194367517117628 0 0 0 -0.023364411754378707 -0.086400897152920778 -0.0108991085176996 0 -0.0108991085176996 -0.025579813953246232 0 0 0 -0.027995177776541751 -0.10419376538750066 -0.013694765490859434 0 -0.013694765490859434 0.0086032380383495033 0 0 0 -0.023897631837287853 -0.17536521086671902 0.028664891159811801 0 0.028664891159811801 0.013063552662145428 0 0 0 -0.040575414551143441 -0.094825493302068825 0.0065899453015640236 0 0.0065899453015640236 0.0017613366727984303 0 0 0 -0.023266039157317592 -0.047577044344951469 0.0056030731233800693 0 0.0056030731233800693 0.0081266697480749592 0 0 0 -0.0098625936492191466 -0.011214467764153357 -0.011305869083601094 0 -0.011305869083601094 0.0047440377186750426 0 0 0 -0.0016176075113695787 -0.14462568771616446 -0.020530036813249511 0 -0.020530036813249511 0.001523121640955083 0 0 0 -0.035775641518802345 -0.18009789723372588 -0.01690601653784074 0 -0.01690601653784074 -0.0029349356469310361 0 0 0 -0.045758208220164222 -0.038432527185059455 0.00069337268703305386 0 0.00069337268703305386 -0.018679843923187642 0 0 0 -0.014278092777061782 -0.043868686031210039 0.0077652929992210462 0 0.0077652929992210462 0.082846595288161462 0 0 0 0.0097444773142378593 -0.12382060586596311 -0.0025239719202753697 0 -0.0025239719202753697 0.00045883405487090467 0 0 0 -0.030840442952772995 -0.21824025108038006 0.0038403309137350905 0 0.0038403309137350905 0.00046867761410229747 0 0 0 -0.054442893366569406 -0.078954833974288069 -0.007588192680057837 0 -0.007588192680057837 0.014923049354878842 0 0 0 -0.016007946154852321 -0.11560955393073627 -0.017353294099210673 0 -0.017353294099210673 -0.012632054833738693 0 0 0 -0.032060402191118734 -0.091352846749178762 -0.01709535291191502 0 -0.01709535291191502 -0.0084602333740686694 0 0 0 -0.024953270030811853 -0.0157064349181818 0.089201127911971184 0 0.089201127911971184 0.17535346230754922 0 0 0 0.039911756847341828 -0.17028400076475045 -0.0076765363808198595 0 -0.0076765363808198595 0.00012985759907252481 0 0 0 -0.042538535791419439 -0.11348255424649899 0.0026242391303768903 0 0.0026242391303768903 0.00042207811967520659 0 0 0 -0.028265119031705928 -0.03676544486124278 -0.013062699847674678 0 -0.013062699847674678 -0.010997373773034003 0 0 0 -0.011940704658569223 -0.040168701628119363 -0.013770788289985965 0 -0.013770788289985965 -0.0090025111008549263 0 0 0 -0.012292803182243683 -0.053780452393523873 0.0047647275722788361 0 0.0047647275722788361 0.039385633474349445 0 0 0 -0.0035987047297935813 -0.050922711811206327 -0.0092447943038606872 0 -0.0092447943038606872 0.0056694171410401895 0 0 0 -0.01131332366754155 -0.037235264143836939 0.013419333759262502 0 0.013419333759262502 0.0067286673070307626 0 0 0 -0.0076266492092015511 -0.023415563910802795 0.027789000114500362 0 0.027789000114500362 0.16272677287862725 0 0 0 0.034827802241956252 -0.093528083557554959 0.0052303519136354948 0 0.0052303519136354948 0.0033515577876046948 0 0 0 -0.022544131442487601 -0.057038841641838471 -0.0045984314872240147 0 -0.0045984314872240147 0.006734771350963363 0 0 0 -0.012576017572718791 0.037028893592359946 0.017171667915412997 0 0.017171667915412997 0.075621241768120129 0 0 0 0.028162533840119686 -0.072579629342369931 -0.011054293652951075 0 -0.011054293652951075 -0.0029964143655366315 0 0 0 -0.018894010926976724 -0.26009713660365374 -0.00038381673387277715 0 -0.00038381673387277715 -9.8080730951854989e-05 0 0 0 -0.065048804333651344 -0.14328544043235919 -0.00096068629290101874 0 -0.00096068629290101874 -0.00027650098874576479 0 0 0 -0.035890485355276197 -0.071026014030774035 -0.0045407846391388243 0 -0.0045407846391388243 0.064262657024115627 0 0 0 -0.0016908392516646088 -0.11627314790764598 -0.013844159243936578 0 -0.013844159243936578 -0.0071217149362971521 0 0 0 -0.03084871571098579 -0.1354788258176754 -0.020021683313306227 0 -0.020021683313306227 -0.003851026045616962 0 0 0 -0.034832462965823111 0.002573066244082961 0.024034219179612411 0 0.024034219179612411 0.039036093286038298 0 0 0 0.010402289882530336 -0.049756847804033999 -0.011430573919308976 0 -0.011430573919308976 -0.00033646219352023721 0 0 0 -0.012523327499388559 -0.048374552012389868 -0.01706524563568948 0 -0.01706524563568948 0.015783921866869527 0 0 0 -0.008147657536380068 -0.018862021962529063 0.017193099301586835 0 0.017193099301586835 0.13145855702626008 0 0 0 0.028149133765932532 -0.016113048414163833 -0.0062560962363916398 0 -0.0062560962363916398 0.0012322221319638338 0 0 0 -0.0037202065705499443 -0.072110660487494746 -0.025120287007431963 0 -0.025120287007431963 0.039390191289801646 0 0 0 -0.0081801172994233062 -0.044706195387956782 -0.014345694723165395 0 -0.014345694723165395 0.047222169335429776 0 0 0 0.00062899348686823453 -0.059928628812427734 -0.0063618830086261541 0 -0.0063618830086261541 0.016836108907387015 0 0 0 -0.010773129976260162 -0.042576614564123982 0.010986817660334491 0 0.010986817660334491 -0.001369817244939675 0 0 0 -0.010986607952266247 -0.020016051839373605 -0.019512114775803946 0 -0.019512114775803946 0.067211765140845703 0 0 0 0.011798928325367997 -0.065375775037348621 0.00051889493428183137 0 0.00051889493428183137 -0.0031848707519754188 0 0 0 -0.017140161447330993 -0.014036504912587566 0.000463561846994337 0 0.000463561846994337 0.056271250540796625 0 0 0 0.010558686407052237 -0.10609566510673618 0.0040647901922205385 0 0.0040647901922205385 0.00052289439276204108 0 0 0 -0.026393192678493521 -0.083176500627768601 -0.019896905410649104 0 -0.019896905410649104 0.031711773588818604 0 0 0 -0.012866181759737472 -0.093086913031726573 0.004092613251993539 0 0.004092613251993539 -0.0035887554963389551 0 0 0 -0.024168917132016396 -0.075183346026231002 -0.010571764269525663 0 -0.010571764269525663 0.0015274164543370716 0 0 0 -0.018413982392973427 -0.11422539173562885 0.0032237409045789631 0 0.0032237409045789631 -0.0007035616427588931 0 0 0 -0.028732238344596948 -0.10455811288295647 0.0045519364032826637 0 0.0045519364032826637 2.9691969640532889e-05 0 0 0 -0.026132105228328997 -0.085856156386397264 0.052285296248405277 0 0.052285296248405277 -0.00074891950391786644 0 0 0 -0.021651268972578908 -0.071023687763147533 -0.0047285840671481899 0 -0.0047285840671481899 -0.023492632122308069 0 0 0 -0.023629079971363903 -0.077319545705672815 -0.011402019765540384 0 -0.011402019765540384 -0.02250393345088474 0 0 0 -0.024955869789139384 -0.070675662211878723 0.002415771298601454 0 0.002415771298601454 -0.015150972039364063 0 0 0 -0.021456658562810704 -0.068535460314481697 -0.00041421925737751249 0 -0.00041421925737751249 -0.018425739734396821 0 0 0 -0.021740300012219622 -0.054581283084936386 -0.01231371237829932 0 -0.01231371237829932 0.021966012716460454 0 0 0 -0.0081538175921189865 -0.043019215231375127 -0.036781676929347931 0 -0.036781676929347931 0.054859618052734122 0 0 0 0.0029601007053397703 -0.058170729285854206 -0.026082688998013415 0 -0.026082688998013415 0.021498125460228574 0 0 0 -0.0091681509564063828 -0.056854872808312085 -0.015793522151963169 0 -0.015793522151963169 0.043119888816169682 0 0 0 -0.0034337459980355867 -0.056128117668687416 -0.021252152828891063 0 -0.021252152828891063 0.019012961781296966 0 0 0 -0.0092787889718475847 -0.034835037927206214 -0.0018582162481613138 0 -0.0018582162481613138 0.063637307751380434 0 0 0 0.0072005674560435828 -0.036510050280908535 -0.010765584440374343 0 -0.010765584440374343 0.031321388058843436 0 0 0 -0.0012971655555162331 -0.14504512296036254 0.0011099842630080778 0 0.0011099842630080778 0.00068986167797735476 0 0 0 -0.036088815320596296 -0.2692155683215488 -0.0038672751470829321 0 -0.0038672751470829321 0.004244558551369515 0 0 0 -0.066242752442544794 -0.027681343189704749 -0.012117212015822582 0 -0.012117212015822582 0.0391803229027263 0 0 0 0.0028747449282553877 -0.026908632100821755 -0.0017241498163330093 0 -0.0017241498163330093 0.075402283513270663 0 0 0 0.012123412853112248 -0.086644716609382 0.0024187134526750254 0 0.0024187134526750254 0.010149607436745145 0 0 0 -0.019123777293159228 -0.043603781513596569 0.0022347216197000745 0 0.0022347216197000745 -0.015374757926951912 0 0 0 -0.014744634860137117 -0.063649504227474771 -0.010895962597984192 0 -0.010895962597984192 -0.0070785923869018247 0 0 0 -0.017682024153594173 -0.048959772808724149 -0.0035888300889768323 0 -0.0035888300889768323 -0.013810270360951272 0 0 0 -0.015692510792418856 -0.036546408862252168 -0.051722597401793469 0 -0.051722597401793469 0.10686260892978311 0 0 0 0.017579050016882751 -0.1112761217660371 -0.00055743425788341155 0 -0.00055743425788341155 -0.0050926351515753199 0 0 0 -0.029092189229403122 -0.10508178248961436 -0.0015294273193197268 0 -0.0015294273193197268 -0.0028835256769570369 0 0 0 -0.026991327041642858 -0.13956534828706302 -0.0067184637102565585 0 -0.0067184637102565585 -0.003128443658567362 0 0 0 -0.035673447986407605 -0.157696242970714 -0.0082438094587905068 0 -0.0082438094587905068 -0.0079538881663896374 0 0 0 -0.041412532784275882 -0.11935163476272448 -0.0087086704084353497 0 -0.0087086704084353497 0.0011341380950002922 0 0 0 -0.029554374166931074 -0.036488341030471161 0.085146669505610173 0 0.085146669505610173 0.10990495324078053 0 0 0 0.018354153052577371 -0.010072014028165654 -0.016547673041507449 0 -0.016547673041507449 0.038857103805778781 0 0 0 0.0071962724444032955 -0.017203341715792329 -0.0088784351607689715 0 -0.0088784351607689715 -0.0030876710744311836 0 0 0 -0.0050727531975558226 -0.071500731234592191 0.0016293722219818353 0 0.0016293722219818353 -0.0037691442958100591 0 0 0 -0.018817468882600552 -0.072286335114793543 -0.0066262977108880183 0 -0.0066262977108880183 0.046758577270600614 0 0 0 -0.0063819394610482444 -0.0954599538633564 0.0036506151353222736 0 0.0036506151353222736 -0.00072021107029207609 0 0 0 -0.024045041233412126 -0.00718772598883477 0.03370129437966396 0 0.03370129437966396 0.038804665466438681 0 0 0 0.0079042348694009501 -0.047195648408869417 0.0038521406938126757 0 0.0038521406938126757 -0.015432769717403313 0 0 0 -0.015657104531568183 -0.039991850135550594 -0.017905556805155182 0 -0.017905556805155182 -0.0077440929051694751 0 0 0 -0.011933985760179986 0.019860641454884358 -0.067834133565244717 0 -0.067834133565244717 0.09206708247452132 0 0 0 0.027981930982351425 -0.20850784153329527 0.019762778767367761 0 0.019762778767367761 0.0016044123460270399 0 0 0 -0.051725857296816891 -0.038633276542718302 0.002085695583054365 0 0.002085695583054365 -0.01539463198369349 0 0 0 -0.013506977131602949 -0.078287321066162555 -0.0014084718005220576 0 -0.0014084718005220576 -0.019720153825625683 0 0 0 -0.024501868722947059 -0.090023787385591955 -0.005439876219924606 0 -0.005439876219924606 -0.024822325088630741 0 0 0 -0.028711528118555679 -0.043546571896945468 0.0093364773425772124 0 0.0093364773425772124 0.014204167811622582 0 0 0 -0.0073356010213307139 -0.11576046925646644 0.0024607486765140241 0 0.0024607486765140241 0.0019867643348372432 0 0 0 -0.028443426230407298 -0.19177371720889971 -0.011057864463809741 0 -0.011057864463809741 0.0074349567162681762 0 0 0 -0.046084690123158051 -0.010265692030381857 0.026706287467819223 0 0.026706287467819223 0.078039594569172976 0 0 0 0.01694347563469778 -0.044175612524234742 -0.015042901846606949 0 -0.015042901846606949 -0.0029046239188859069 0 0 0 -0.011770059110780329 -0.031018496393409964 0.0029450389225828266 0 0.0029450389225828266 0.072531982947819235 0 0 0 0.010378371638602293 -0.03829040677800144 -0.020196160153528629 0 -0.020196160153528629 0.018811764862760483 0 0 0 -0.0048696604788102116 -0.042691016444351901 0.00095112109950672152 0 0.00095112109950672152 0.037551852262621588 0 0 0 -0.0012847910454325401 -0.047538142819450131 0.0036740075720096701 0 0.0036740075720096701 0.0053352932826977208 0 0 0 -0.010550712384188103 -0.040263489437230189 -0.00024203425644980466 0 -0.00024203425644980466 -0.019459434404090589 0 0 0 -0.014930730960330194 -0.06425098345561614 -4.9477224371954204e-05 0 -4.9477224371954204e-05 0.002065090154159786 0 0 0 -0.015546473325364091 -0.054337531045307447 -0.023438552866512703 0 -0.023438552866512703 0.13010800458263769 0 0 0 0.018942618384332546 -0.055858044704174784 -0.023823036791119342 0 -0.023823036791119342 0.12271764470843714 0 0 0 0.016714900001065579 -0.041788950282843462 -0.023940870249124391 0 -0.023940870249124391 0.00036459699245083854 0 0 0 -0.010356088322598156 -0.035030300872004316 -0.022042491163867028 0 -0.022042491163867028 -0.00012783455222153961 0 0 0 -0.0087895338560564085 -0.022068997823358583 0.03864266482639156 0 0.03864266482639156 0.043561101622032083 0 0 0 0.0053730259496687083 -0.029464439773871476 0.037708520891745367 0 0.037708520891745367 0.042452350207482503 0 0 0 0.0032469776084027568 -0.023319002607332884 0.045793898696783839 0 0.045793898696783839 0.025975804114007239 0 0 0 0.00066420037666836684 0.0060887732144965234 0.044899070890163428 0 0.044899070890163428 0.033425611778165276 0 0 0 0.009878596248165783 -0.041911779442008981 0.0024252071785344758 0 0.0024252071785344758 -0.013970846260736528 0 0 0 -0.013970656425686376 -0.028767810305818625 0.0024693514712448572 0 0.0024693514712448572 0.092006706847777342 0 0 0 0.015809724135489631 -0.037581249835232124 -0.00049926857980961414 0 -0.00049926857980961414 0.056514939136193931 0 0 0 0.0047334223252404536 -0.083371053917021043 -0.017825389678909842 0 -0.017825389678909842 -0.0011539096028123641 0 0 0 -0.021131240879958324 -0.095642310704203898 -0.0074381457127184469 0 -0.0074381457127184469 -0.000593829457656736 0 0 0 -0.024059035040465221 -0.15639066711246097 0.016507493990049027 0 0.016507493990049027 -0.0013895171245577043 0 0 0 -0.039445046059254696 -0.030331325711918683 0.023595314555756468 0 0.023595314555756468 0.033480774955362919 0 0 0 0.00078736231086106584 -0.02606902049134098 0.025727948517099586 0 0.025727948517099586 0.043433002218718819 0 0 0 0.0043409954318444771 -0.043200951107148416 0.0044250870240369741 0 0.0044250870240369741 -0.0085418939793435698 0 0 0 -0.01293571127162301 -0.04403057811899444 0.0030981994221339943 0 0.0030981994221339943 -0.015543066601718652 0 0 0 -0.014893411180178276 -0.17457516128251238 -0.013921598597233284 0 -0.013921598597233284 -0.0057539824719473609 0 0 0 -0.045082285938614922 -0.1142849715957048 0.0031818628894485779 0 0.0031818628894485779 -0.0013641612229904065 0 0 0 -0.028912283204673806 -0.10537181287263883 0.0045518074788063502 0 0.0045518074788063502 -0.0024460427169145926 0 0 0 -0.026954463897388342 -0.017921782864224634 0.025429798035779383 0 0.025429798035779383 0.090767909641327194 0 0 0 0.018211531694275696 -0.034207811382111153 -0.0099686016591381543 0 -0.0099686016591381543 0.0026316331284896854 0 0 0 -0.0078940445634054779 -0.043756133376950258 -0.0023257724994647285 0 -0.0023257724994647285 -0.017764199977273312 0 0 0 -0.015380083338555893 -0.033809570926926609 0.0015523180486725699 0 0.0015523180486725699 -0.0090877787210685429 0 0 0 -0.01072433741199879 -0.066678700946327996 -0.029020582552342189 0 -0.029020582552342189 0.0052105449353565536 0 0 0 -0.015367039002742833 -0.078180165103593949 -0.015751259470803844 0 -0.015751259470803844 -0.000921873285999672 0 0 0 -0.019775509597398384 -0.04542543428677559 -0.014422841984006396 0 -0.014422841984006396 0.029939367623080818 0 0 0 -0.0038715166659237278 -0.022501562369627574 0.019027950450902678 0 0.019027950450902678 0.020085760944010767 0 0 0 -0.00060395035640420369 -0.092871193467472496 0.058729610677375366 0 0.058729610677375366 0.003564601873792983 0 0 0 -0.022326647898419955 -0.10375020973941659 -0.0030766586700513299 0 -0.0030766586700513299 0.0038770631647027098 0 0 0 -0.024968286643678478 -0.16953624907695342 0.0046017718499079679 0 0.0046017718499079679 0.01073857817609758 0 0 0 -0.039699417725214126 -0.0095838025722104758 -0.0037463284502045058 0 -0.0037463284502045058 -0.013657773061885425 0 0 0 -0.0058103939085240586 -0.013597564071571921 -0.0080706686780941395 0 -0.0080706686780941395 -0.010976340433355602 0 0 0 -0.0061434761262319504 -0.094652632022931144 0.0047066004133651806 0 0.0047066004133651806 -0.00049231026652019061 0 0 0 -0.023786235572362847 -0.084259965825249319 0.0030662470057196273 0 0.0030662470057196273 -0.0016686328266670505 0 0 0 -0.021482149662979077 -0.055869681982796092 -0.0066799650869390284 0 -0.0066799650869390284 0.01768692992411805 0 0 0 -0.0095456880146694706 -0.11447447169848544 0.0069063138938960031 0 0.0069063138938960031 0.0022065870494998863 0 0 0 -0.028066971162246379 -0.12696259646748465 -0.018977305947382554 0 -0.018977305947382554 -0.0073246718731824201 0 0 0 -0.033571817085166746 -0.0043562095596051901 0.0025866527230235525 0 0.0025866527230235525 -0.0087597161922062065 0 0 0 -0.0032789814379528492 -0.069760164788947643 0.066213117507476771 0 0.066213117507476771 0.0086187831647364099 0 0 0 -0.015285345406052864 -0.044484753372198121 0.0026884818822464416 0 0.0026884818822464416 -0.01482872157629159 0 0 0 -0.014828368737122425 0.016913857849949754 0.01854806865219838 0 0.01854806865219838 0.083093279957999644 0 0 0 0.025001784451987474 0.0066830077872207759 0.036900988634302079 0 0.036900988634302079 0.11154611885698557 0 0 0 0.02955728166105159 -0.15831238264002739 0.019336895931080567 0 0.019336895931080567 0.028332289553835016 0 0 0 -0.032495023271548122 -0.017315134548658781 0.038080201384755083 0 0.038080201384755083 0.11539938078115031 0 0 0 0.02452106155812285 -0.0058993647639369595 0.032324037353457395 0 0.032324037353457395 0.07730906536704818 0 0 0 0.017852425150777784 -0.075847434631324262 0.0034967579806639282 0 0.0034967579806639282 0.0014594948037873756 0 0 0 -0.018596984956884229 -0.059109294546831198 -0.00023594319990059842 0 -0.00023594319990059842 -0.0034805505682600872 0 0 0 -0.015647461278772805 -0.13462409547483145 0.044305036715916013 0 0.044305036715916013 0.014486006596976964 0 0 0 -0.030034522219463677 -0.071581506811363743 -0.01804671232685838 0 -0.01804671232685838 0.059220233870775046 0 0 0 -0.0030903182351471811 -0.039443543953272271 0.022774190884123663 0 0.022774190884123663 0.12247079673702566 0 0 0 0.020756813195938327 -0.049773937559872056 -0.023254138061101978 0 -0.023254138061101978 0.0017458174631366785 0 0 0 -0.012007030024183796 -0.11765124248055495 -0.0059585703851867677 0 -0.0059585703851867677 0.0039881049758778014 0 0 0 -0.028415784376169338 -0.2023350036331481 0.012216698259990555 0 0.012216698259990555 0.012496337636357269 0 0 0 -0.04745966649919775 -0.04738312998844274 0.023555305317277453 0 0.023555305317277453 -0.0067176385571152686 0 0 0 -0.013525192136389586 -0.027417973356595626 -0.025566613687071582 0 -0.025566613687071582 0.039973555456584542 0 0 0 0.0031388955249970762 -0.046806214463610912 -0.016078325191255599 0 -0.016078325191255599 0.025200475995985516 0 0 0 -0.0054014346169063698 -0.01540952105288923 0.019808889150557851 0 0.019808889150557851 0.0219368488405359 0 0 0 0.0016318319469116674 -0.11691147426570167 -0.01765734873660036 0 -0.01765734873660036 -0.01291238433711963 0 0 0 -0.032455964650705341 -0.10538441630366401 0.0030603216264383781 0 0.0030603216264383781 0.0027545558777854473 0 0 0 -0.025657465106469698 -0.14745403622017927 -0.0073774562683174838 0 -0.0073774562683174838 0.0093168603639962079 0 0 0 -0.034534293964045726 -0.043390314351759593 -0.027687933931715467 0 -0.027687933931715467 0.049983864469960115 0 0 0 0.0016483875295501271 -0.086830445857506558 0.00014575490168633465 0 0.00014575490168633465 0.0045719429714874971 0 0 0 -0.020564625721504817 -0.057262514907188512 0.0020554639926720769 0 0.0020554639926720769 0.097464008222246504 0 0 0 0.010050373328764507 -0.041006422968902362 -0.00073523988825470498 0 -0.00073523988825470498 -0.013667601522374463 0 0 0 -0.013668506122819208 -0.037637704935429478 -0.01213044251184317 0 -0.01213044251184317 0.019955643686305646 0 0 0 -0.0044205153122809648 -0.12172602101181808 0.0019711292175726702 0 0.0019711292175726702 0.0022135625470515452 0 0 0 -0.029878114616191567 -0.20541400310887453 -0.0083814464037417769 0 -0.0083814464037417769 0.0051570871710856503 0 0 0 -0.050064228984447137 -0.085341679145967034 -0.020650676701653325 0 -0.020650676701653325 0.0071391745884180902 0 0 0 -0.019550626139387309 -0.053469877784606712 -0.024733184672683442 0 -0.024733184672683442 0.034556547901999246 0 0 0 -0.0047283324706518526 -0.043299797072345853 -0.019462316377747729 0 -0.019462316377747729 0.062236301537737071 0 0 0 0.0047341261163477977 -0.070966913504061063 0.00077040783810854857 0 0.00077040783810854857 0.0049284343975047606 0 0 0 -0.016509619776639062 -0.051324731849323069 -0.021269625270011916 0 -0.021269625270011916 0.0057015644569561319 0 0 0 -0.011405791848091762 -0.067386798986956112 -0.025727781112258374 0 -0.025727781112258374 0.0014053174702192833 0 0 0 -0.016495370379184263 -0.081550908365201985 0.00097126238217791483 0 0.00097126238217791483 0.004393118374696886 0 0 0 -0.019289447497626268 -0.05000470763442548 -0.024079627827888139 0 -0.024079627827888139 0.0022692684755764581 0 0 0 -0.011933859789712217 -0.042698851934422376 0.00070738716886631988 0 0.00070738716886631988 -0.018581347775039472 0 0 0 -0.01532004992736547 -0.12113351690926866 -0.00011908890290662777 0 -0.00011908890290662777 0.001625525396278249 0 0 0 -0.029876997878247713 -0.21248576531766844 -0.00056765115366397279 0 -0.00056765115366397279 0.0023840414558778944 0 0 0 -0.052525430965447539 -0.051964520490278568 -0.010167699801747698 0 -0.010167699801747698 -0.0032153523402193573 0 0 0 -0.013794968207624395 0.004119256068798649 0.019210311885823561 0 0.019210311885823561 0.10023367582561438 0 0 0 0.026088232973603021 -0.0067414425326883798 0.026520732781710521 0 0.026520732781710521 0.079039169511889718 0 0 0 0.018074431744800279 -0.036456524139677704 -0.0081001829482422894 0 -0.0081001829482422894 -0.0029663196468789899 0 0 0 -0.0098557109466392845 -0.0075691016136456568 0.015162721302560103 0 0.015162721302560103 0.12536856910312544 0 0 0 0.029449866872369945 -0.022867675630691753 -0.020082299192676161 0 -0.020082299192676161 0.021913924390685069 0 0 0 -0.00023843781000162934 -0.059484955228531977 -0.020704896198124434 0 -0.020704896198124434 0.019347949509980311 0 0 0 -0.010034251429637792 0.014748512443718109 -0.0039230251489471516 0 -0.0039230251489471516 0.094160423145585037 0 0 0 0.027227233897325731 0.016974092481729292 0.0022863052241646753 0 0.0022863052241646753 0.17342416174160569 0 0 0 0.047599563555833696 -0.14343039105720129 -0.011019877511474513 0 -0.011019877511474513 0.026444817033720813 0 0 0 -0.029246393505870105 -0.081111712957776499 0.0020282620542807755 0 0.0020282620542807755 -0.0032066305524939137 0 0 0 -0.0210795858775676 -0.043215878247452787 0.0069421380726642657 0 0.0069421380726642657 -0.0025181706825785125 0 0 0 -0.011433512232507808 -0.094359469570182153 0.050147061082611799 0 0.050147061082611799 -0.0044730170941917891 0 0 0 -0.024708121666093597 -0.01758038272293494 -0.02681297545587441 0 -0.02681297545587441 0.02530026512478023 0 0 0 0.0019299706004611838 -0.038960527208409576 0.00088344322990174438 0 0.00088344322990174438 -0.016384097003245418 0 0 0 -0.013836156052913747 -0.072507351903197167 -0.0014350587967447981 0 -0.0014350587967447981 0.015485241103824543 0 0 0 -0.01425552769984316 0.0088551478666698547 0.015811893200329795 0 0.015811893200329795 0.081559493943920813 0 0 0 0.022603660452647611 -0.059849750277202657 -0.0081262658848341995 0 -0.0081262658848341995 -0.01874542556623434 0 0 0 -0.019648793960859244 -0.035662088880720852 -0.0098682459836212655 0 -0.0098682459836212655 0.010902663629402981 0 0 0 -0.0061898563128294642 -0.028906274825058375 -0.015299513787857183 0 -0.015299513787857183 0.010853425049137746 0 0 0 -0.0045132124439801842 -0.0034666781648594602 0.0020326246713920915 0 0.0020326246713920915 0.051990345110939806 0 0 0 0.012130916736520003 0.005845840982809436 -0.00034456469858618055 0 -0.00034456469858618055 0.087869876858660545 0 0 0 0.023428929460367454 0.011594262013341572 -0.004610990738635079 0 -0.004610990738635079 0.16032456308772991 0 0 0 0.042979706275267926 -0.0036510950067811451 -0.00579002696260289 0 -0.00579002696260289 0.10291874001412465 0 0 0 0.024816911251835806 -0.036446427915505661 0.018953533438297084 0 0.018953533438297084 0.037996862315451352 0 0 0 0.00038760859998643662 -0.020836337481557242 -0.026237803202033429 0 -0.026237803202033429 0.0089553247954154147 0 0 0 -0.0029702531715354516 -0.0074384713401305941 -0.049106595646506213 0 -0.049106595646506213 0.048264317497453746 0 0 0 0.010206461539330801 -0.058395930546532832 -0.019622929610713324 0 -0.019622929610713324 0.0044347994495257392 0 0 0 -0.013490282774251822 -0.094086383602520932 0.0029794491982783125 0 0.0029794491982783125 0.0017635180478178247 0 0 0 -0.023080716388675773 -0.08307875065549597 0.0048721489458663208 0 0.0048721489458663208 0.0029505013106039257 0 0 0 -0.020032062336222983 -0.14170060945973628 0.0058531516490498148 0 0.0058531516490498148 0.058217016041956171 0 0 0 -0.020870898354444972 -0.017990885549086011 -0.0014754872960049403 0 -0.0014754872960049403 0.031958650161557189 0 0 0 0.0034919411531177946 -0.015155287486663394 -0.0060535335956471981 0 -0.0060535335956471981 0.069283247024974792 0 0 0 0.013531989884577822 -0.042236646739642718 0.0074608278453351566 0 0.0074608278453351566 0.0054354350132655594 0 0 0 -0.0092003029315942935 -0.0017656671235095622 0.00021302012270582593 0 0.00021302012270582593 -0.014497110827208282 0 0 0 -0.004065694487679461 -0.049128050615045243 0.0021831011631620544 0 0.0021831011631620544 -0.0092489660196092768 0 0 0 -0.014594254158663634 -0.052720309092712095 -0.02411353126625837 0 -0.02411353126625837 0.016202107447642666 0 0 0 -0.0091295504112673259 -0.038599987577659457 0.001014069512291934 0 0.001014069512291934 -0.018945498972120584 0 0 0 -0.01438637163744501 -0.033388203263652771 0.05588502396119599 0 0.05588502396119599 0.010171954349428525 0 0 0 -0.0058040622285562282 -0.033594470948608735 0.04443205064171174 0 0.04443205064171174 0.017357533951177895 0 0 0 -0.0040592342493577793 -0.032595723513322378 -0.02836397925265266 0 -0.02836397925265266 0.0040229075947031401 0 0 0 -0.0071432039796544833 0.015263705502955359 -0.091742257805763755 0 -0.091742257805763755 0.17786560294758108 0 0 0 0.04828232711263411 -0.039476597834166766 0.0013506163637717035 0 0.0013506163637717035 -0.017683787172484269 0 0 0 -0.014290096251662762 -0.053794872035481944 -0.011097260937055098 0 -0.011097260937055098 0.0032617598251081237 0 0 0 -0.0126332780525934 0.0014245812115267764 0.00094457080356113998 0 0.00094457080356113998 0.00037139674704311787 0 0 0 0.00044899448964252908 0.018219880843244329 0.00063692002762660849 0 0.00063692002762660849 0.18680162752187801 0 0 0 0.051255377091280474 0.019011215869978434 -0.0062235759116289202 0 -0.0062235759116289202 0.1659504541536376 0 0 0 0.046240417505903894 0.011345896921103327 0.0018057139445823989 0 0.0018057139445823989 0.090554020112954436 0 0 0 0.025474979258514274 0.0021615484021775266 -0.0015166800932420255 0 -0.0015166800932420255 0.0007335339653735673 0 0 0 0.00072377059188788451 -0.00091153499562358442 0.001115753876466119 0 0.001115753876466119 0.0020735263228036371 0 0 0 0.00029049783179512423 0.010827320637966542 -0.0034270906981906817 0 -0.0034270906981906817 0.10641476162456431 0 0 0 0.029310520565632547 -0.0012718474197463969 -0.0017593665830166749 0 -0.0017593665830166749 0.003208626908551615 0 0 0 0.00048419487220074942 -0.04153555379836045 -0.00016952856399791939 0 -0.00016952856399791939 -0.017837780103060728 0 0 0 -0.014843333475355297 -0.045176945717230174 -0.022402847680564247 0 -0.022402847680564247 -0.0042033032699351769 0 0 0 -0.012345062246791372 -0.0811780238900707 0.0029324474489407781 0 0.0029324474489407781 0.0082282453247470855 0 0 0 -0.018237444641330897 -0.054089347132943555 -0.028536114663114676 0 -0.028536114663114676 0.0056099708647896485 0 0 0 -0.012119844067038255 -0.050753677207300792 -0.0004923106437070713 0 -0.0004923106437070713 -0.017233043501856574 0 0 0 -0.016996680177289329 -0.030947006367821661 0.035163049077232333 0 0.035163049077232333 0.00070404848988125934 0 0 0 -0.0075607394694849894 -0.028186704879113123 -0.028968605288782423 0 -0.028968605288782423 0.010048786737242299 0 0 0 -0.0045344795354675949 -0.0073583484090954943 -0.0071990729052981428 0 -0.0071990729052981428 0.071064134040954352 0 0 0 0.015926446407964701 -0.011539610770935765 0.0022104439368721973 0 0.0022104439368721973 0.13622174348693572 0 0 0 0.031170533178999926 -0.062639617711577347 0.0078117521087501529 0 0.0078117521087501529 0.071967066329384738 0 0 0 0.0023318621544518719 -0.074467497678537331 -0.002401746364357249 0 -0.002401746364357249 0.0088130969047141017 0 0 0 -0.016413600193455835 -0.03481700643048502 -0.012870952670271794 0 -0.012870952670271794 0.051247849039256499 0 0 0 0.0041077106521928974 -0.033307552038986804 0.0059958222596228072 0 0.0059958222596228072 0.10453517825942671 0 0 0 0.017806906555109969 -0.039903546699756876 -0.035426974135921885 0 -0.035426974135921885 0.010610715756252942 0 0 0 -0.0073232077358760805 -0.039467887130304101 0.0070932111218298555 0 0.0070932111218298555 -0.0013239588794641578 0 0 0 -0.01019796150244206 -0.029844169324468539 -0.032127367283110941 0 -0.032127367283110941 0.020597148867628867 0 0 0 -0.0023117551142098902 -0.042750380321510129 0.034785126631745822 0 0.034785126631745822 0.00081477859300438382 0 0 0 -0.010483900432126436 -0.037244518084917966 -0.0022087636146610745 0 -0.0022087636146610745 0.033852010075013816 0 0 0 -0.00084812700247602346 -0.026384934896679896 -0.0052917559084029453 0 -0.0052917559084029453 0.037464932704709297 0 0 0 0.0027699994520073157 -0.063723220324792315 0.00054114540890810164 0 0.00054114540890810164 -0.0040023198058501963 0 0 0 -0.016931385032660631 -0.059445261993871908 -0.011169540789251753 0 -0.011169540789251753 0.041086797543611955 0 0 0 -0.0045896161125649829 0.0033958963127263542 -0.030032157137798221 0 -0.030032157137798221 0.024931003924716033 0 0 0 0.0070817250593607217 -0.042887462860154005 -0.023721508304747813 0 -0.023721508304747813 -0.0013185673899766479 0 0 0 -0.011051507562532665 0.031602341718854121 -0.021157239230353675 0 -0.021157239230353675 0.033024713537406658 0 0 0 0.016156763814065167 -0.02428574474096698 -0.0049613605130661709 0 -0.0049613605130661709 0.068774235765328984 0 0 0 0.011122122756090508 -0.037309406896365555 -0.0059254990427511089 0 -0.0059254990427511089 0.029502942443483837 0 0 0 -0.0019516161132203946 -0.090291071184566668 0.0021045181785859166 0 0.0021045181785859166 -0.0033554722333604473 0 0 0 -0.023411635854481774 -0.065702065858978601 -0.012136636034555037 0 -0.012136636034555037 0.04528750830748185 0 0 0 -0.0051036393878742051 -0.066260318355742434 -0.010859076614400314 0 -0.010859076614400314 0.055092177197438891 0 0 0 -0.0027920352895759171 0.01030516602205811 0.058356618212151351 0 0.058356618212151351 0.19079043342751995 0 0 0 0.0502738998623945 -0.040656033414307388 -0.02088999173130357 0 -0.02088999173130357 0.21815391294227082 0 0 0 0.0443744698819908 -0.0027437898192950172 0.017069755691565647 0 0.017069755691565647 0.096568354814399626 0 0 0 0.02345614124877593 -0.044858786117727381 0.0206999744422178 0 0.0206999744422178 0.050779619288518624 0 0 0 0.0014802082926978349 -0.056279728919396366 -0.0096943930858530581 0 -0.0096943930858530581 0.00018054403640777039 0 0 0 -0.014024796220747149 -0.064144987972801951 0.00093022897150700848 0 0.00093022897150700848 -0.0067931002205897581 0 0 0 -0.017734522048347932 -0.11342601140651244 -0.0077547835200077889 0 -0.0077547835200077889 -0.016727687672447131 0 0 0 -0.032538424769739872 -0.09121669654791735 -0.0016017788881519841 0 -0.0016017788881519841 -0.011558205482389963 0 0 0 -0.025693725507576832 -0.032939626495727972 0.0046042356660653677 0 0.0046042356660653677 -0.010928998725901001 0 0 0 -0.010967156305407243 -0.1295697548680636 -0.011753385686291952 0 -0.011753385686291952 -0.0033247463041969016 0 0 0 -0.033223625293065141 -0.11173379848562044 -0.013416520369956685 0 -0.013416520369956685 -0.026416646465796424 0 0 0 -0.034537611237854218 -0.16860171088866491 0.0099864508756926408 0 0.0099864508756926408 -0.0020247218085183982 0 0 0 -0.042656608174295813 -0.14789926779214582 0.011262346577162212 0 0.011262346577162212 -0.032472693442574203 0 0 0 -0.045092990308679998 -0.063809709366210512 -0.022947620481627629 0 -0.022947620481627629 0.024089683503183357 0 0 0 -0.0099300064657567993 -0.037443892780966485 0.0028213039162342047 0 0.0028213039162342047 -0.016217143297526285 0 0 0 -0.013415259019623189 0.011782971408876519 0.031778274599370437 0 0.031778274599370437 0.039930347947941369 0 0 0 0.012928329839204333 -0.04395613996190062 0.0074692948910024537 0 0.0074692948910024537 0.080476942190082945 0 0 0 0.0091302005570455536 -0.031114848831843463 0.030020468852807833 0 0.030020468852807833 0.077564320688246841 0 0 0 0.011612367964100846 -0.042137733783489228 -0.036418687288164962 0 -0.036418687288164962 0.033958715399764916 0 0 0 -0.0020447545959311197 -0.0047581236074729777 -0.00035844262713347064 0 -0.00035844262713347064 0.012688489410589601 0 0 0 0.0019825914507793775 -0.00099003859163835565 -0.0047943483092582895 0 -0.0047943483092582895 0.037839619892055261 0 0 0 0.0092123953251042265 -0.0015541182948801884 0.0042745778576023241 0 0.0042745778576023241 0.075555335720851102 0 0 0 0.018500304356493281 -0.003560430317909109 -0.00021134253828369864 0 -0.00021134253828369864 0.0073062630646695843 0 0 0 0.00093645818668973034 -0.014522927095553674 0.0049179385538469789 0 0.0049179385538469789 0.010536513676710824 0 0 0 -0.00099660335471066924 -0.015510845445569965 -0.011134062402184536 0 -0.011134062402184536 0.025391627769050018 0 0 0 0.0024701955808700271 -0.1231973275299595 -0.019908311929461027 0 -0.019908311929461027 -0.040991161491475268 0 0 0 -0.041047122255358698 -0.15982772750141344 0.019370186087504723 0 0.019370186087504723 -0.053178346594327949 0 0 0 -0.053251518523935351 -0.1829591146848201 0.019373919971113061 0 0.019373919971113061 -0.02500287509464022 0 0 0 -0.051990497444865093 -0.14305860557776079 -0.019247706473623942 0 -0.019247706473623942 -0.019739150294391501 0 0 0 -0.040699438968038071 -0.036672818506095634 -0.035024427946132919 0 -0.035024427946132919 0.01431190682675032 0 0 0 -0.0055902279198363491 -0.064011346804803027 0.00074055825861984309 0 0.00074055825861984309 0.002713520506897521 0 0 0 -0.015324456574476349 -0.048278787797101846 -0.024876815302956837 0 -0.024876815302956837 0.0065395868443257621 0 0 0 -0.010434800238194042 -0.046187930071704242 -0.024814515378277197 0 -0.024814515378277197 -0.0022415524085421801 0 0 0 -0.012107370620061564 -0.057647619002428076 -0.00012235915428170097 0 -0.00012235915428170097 0.0019304698026454681 0 0 0 -0.013929287299945652 -0.045930253438460328 0.0031315051365080984 0 0.0031315051365080984 -0.0072413056663583279 0 0 0 -0.013292889776204657 -0.04574843459290949 0.0036225841117929719 0 0.0036225841117929719 -0.0066604811803336163 0 0 0 -0.013102228943310769 -0.061314914627101633 -0.043930417393879401 0 -0.043930417393879401 0.14325566549998134 0 0 0 0.020485187718219888 0.0042782368114641367 -0.010994521324201215 0 -0.010994521324201215 0.39010276116445614 0 0 0 0.098595249493980103 -0.076745008157020816 -0.0170798900566419 0 -0.0170798900566419 0.016374527461905652 0 0 0 -0.015092620173778805 -0.027065537667549405 -0.0031202508162596759 0 -0.0031202508162596759 0.061302710328891452 0 0 0 0.0085592931653354909 -0.039700104746307946 -0.013374747785493524 0 -0.013374747785493524 0.034568472938681261 0 0 0 -0.0012829079519067477 -0.047434032992313538 0.0051243290843401021 0 0.0051243290843401021 0.0067251788147616696 0 0 0 -0.010177213544387966 -0.024340934850691553 0.027184077152702102 0 0.027184077152702102 0.074796273941001523 0 0 0 0.01261383477257727 -0.029416580540671533 -0.013917764987103398 0 -0.013917764987103398 -0.0018123621406023194 0 0 0 -0.0078072356703183798 -0.0010629266464926568 -0.033194681401214274 0 -0.033194681401214274 0.064669472070965239 0 0 0 0.015901636356118132 -0.023360727771829237 -0.0075215046807359659 0 -0.0075215046807359659 0.029468299564617079 0 0 0 0.0015268929481969951 -0.045998358772145309 0.027491285599481552 0 0.027491285599481552 0.0033885910183943935 0 0 0 -0.010652441938437729 -0.029043214128567252 -0.027768426948750258 0 -0.027768426948750258 0.03464853007051838 0 0 0 0.0014013289854877264 -0.023847274112520855 -0.026960286700788691 0 -0.026960286700788691 0.027852207020196751 0 0 0 0.0010012332269189184 -0.027242759003828498 -0.0033280030961116702 0 -0.0033280030961116702 -0.0068022953211170911 0 0 0 -0.0085112635812363835 -0.017398701982418621 -0.0063052479310160003 0 -0.0063052479310160003 0.083658031340978212 0 0 0 0.016564832339639943 -0.048501111050323703 -0.0078284413898052387 0 -0.0078284413898052387 -0.008678953715673704 0 0 0 -0.014295016191499352 -0.022503422913388027 -0.0067845157794614863 0 -0.0067845157794614863 -0.019170049213621476 0 0 0 -0.01041836803175239 -0.068836814595097176 0.0015798946421577819 0 0.0015798946421577819 -0.0076829969354722354 0 0 0 -0.019129952882642336 -0.06337210288790518 0.0020248102712154097 0 0.0020248102712154097 -0.0094279274533369158 0 0 0 -0.018200007585310533 -0.066496187515268354 -0.0060860449644124306 0 -0.0060860449644124306 0.03262550498308249 0 0 0 -0.0084676706330464729 -0.059407371548233501 -0.02130402016327676 0 -0.02130402016327676 0.039499220454131123 0 0 0 -0.0049770377735255389 -0.05635595944274456 -0.00018908711504716982 0 -0.00018908711504716982 -0.0061083143416717674 0 0 0 -0.015616068446104085 -0.05271579315680449 0.0016374165419582257 0 0.0016374165419582257 0.0026745532091200855 0 0 0 -0.012510309986921112 -0.055888256753715955 7.1663963780253109e-05 0 7.1663963780253109e-05 0.0023283275030859078 0 0 0 -0.013389982312657485 -0.013191039781515368 0.0061095667662839637 0 0.0061095667662839637 -0.0072229556049850929 0 0 0 -0.005103498846625143 -0.005519530853118404 0.0080075246782810861 0 0.0080075246782810861 0.016187068994560017 0 0 0 0.0026668845353604587 -0.0058703842725944186 -0.01199635889234546 0 -0.01199635889234546 0.042594672576873382 0 0 0 0.0091810720760696976 -0.01537634453331746 -0.0099890718816701418 0 -0.0099890718816701418 0.012334668406391192 0 0 0 -0.00076041903173154624 -0.02254512769839602 -0.043453077876420353 0 -0.043453077876420353 0.14357201761139696 0 0 0 0.030256722478250245 -0.0088497437364378762 0.017738519672886088 0 0.017738519672886088 0.067829000546856477 0 0 0 0.014744814202605205 -0.0013734797201627735 -0.0031593792306188195 0 -0.0031593792306188195 -0.0020297130704673982 0 0 0 -0.00085079819765754294 -0.0064751778035099239 -0.014929449603626743 0 -0.014929449603626743 0.034619817205993053 0 0 0 0.0070361598506207823 -0.001576336337057338 0.0035632124476325799 0 0.0035632124476325799 -0.00052008144069848328 0 0 0 -0.00052410444443906634 -0.050108696179596457 0.037185961398119721 0 0.037185961398119721 -0.0030825841669361864 0 0 0 -0.013297820086632939 -0.033386870499663823 -0.031358100269196706 0 -0.031358100269196706 0.019973023742988705 0 0 0 -0.0033534616891688351 -0.02812546528799853 -0.032495087749783047 0 -0.032495087749783047 0.017322619008472984 0 0 0 -0.0027007115698813866 -0.060543861449602186 -0.0094162091263388578 0 -0.0094162091263388578 0.04566583630589155 0 0 0 -0.003719506285927647 -0.0032681938397711718 0.010610968710063895 0 0.010610968710063895 0.050758389415296534 0 0 0 0.011872548893880897 -0.0014670442153730257 -0.00015184399157974759 0 -0.00015184399157974759 0.004737934471746641 0 0 0 0.00081772256409307076 -0.0025608148941214104 -0.0006410674499477409 0 -0.0006410674499477409 0.0090650925906183843 0 0 0 0.0016260694241241325 -0.0033906701633761305 -0.0093099278398818264 0 -0.0093099278398818264 0.021473705337171189 0 0 0 0.0045207587934488203 -0.031449221367227331 -0.005741743624915141 0 -0.005741743624915141 -0.015703746712870004 0 0 0 -0.01178824202002432 0.0062203884266757714 -0.032389741207220157 0 -0.032389741207220157 0.013775082675270445 0 0 0 0.0049988677754865818 0.01723648586451737 -0.0029661820302753772 0 -0.0029661820302753772 0.095590168547234511 0 0 0 0.028206663602938054 0.024860062244715875 0.00026588672698729665 0 0.00026588672698729665 0.17479443489119595 0 0 0 0.049913624283977887 -0.041212034207732832 0.004596958247597027 0 0.004596958247597027 -0.0097821455429417045 0 0 0 -0.012748544937668641 -0.077606346636700296 0.039216879237224445 0 0.039216879237224445 0.0021028162490770441 0 0 0 -0.018875882596905758 -0.087478582662807947 0.037910111677953919 0 0.037910111677953919 -0.0015134510115517585 0 0 0 -0.022248008418590093 -0.034042080421821358 -0.0086924314448059148 0 -0.0086924314448059148 -0.0097516137354673044 0 0 0 -0.010948423539322207 -0.05543851492279521 -0.0053959717797186918 0 -0.0053959717797186918 0.014626913143805584 0 0 0 -0.01020290044474741 -0.055146892863451667 -0.024801693686377274 0 -0.024801693686377274 0.0042793760737403069 0 0 0 -0.012716879197427833 -0.047019873409594501 -0.029664832556492576 0 -0.029664832556492576 0.019930278256070584 0 0 0 -0.006772398788380974 -0.056209647912422778 0.039394625249323911 0 0.039394625249323911 -0.0024849103070767598 0 0 0 -0.014673639554874995 -0.031405370903548224 -0.031295334485747811 0 -0.031295334485747811 0.02055788735545816 0 0 0 -0.0027118708870224051 -0.035748812008053243 -0.033247559573061136 0 -0.033247559573061136 0.015504650636574357 0 0 0 -0.0050610403428696937 -0.10698861562872462 -0.0033221382674068238 0 -0.0033221382674068238 -0.011317515769931792 0 0 0 -0.029576532849664109 -0.14369773891249063 -0.0065003416770243114 0 -0.0065003416770243114 -0.016484445487214526 0 0 0 -0.040045546099926305 -0.13301347401164504 -0.012708618024915876 0 -0.012708618024915876 -0.0016760277481207564 0 0 0 -0.033672375439941449 -0.10136394326738631 0.0014495772203690985 0 0.0014495772203690985 -0.0021883516914326731 0 0 0 -0.025888073739704733 -0.061568596762618659 -0.0061082699426420993 0 -0.0061082699426420993 0.022454696535178398 0 0 0 -0.0097784750568600427 -0.071299547411757258 0.031599980363857361 0 0.031599980363857361 -0.006022172448787444 0 0 0 -0.019330429965135565 -0.025648728894396844 -0.026482038508956363 0 -0.026482038508956363 0.033788646964808322 0 0 0 0.0020349795176027863 -0.028968388506754317 -0.027705065476147289 0 -0.027705065476147289 0.026116061832020421 0 0 0 -0.00071308166868344625 -0.058664966596869719 -0.033972928876962571 0 -0.033972928876962571 0.0090495969712263979 0 0 0 -0.012403842406410806 -0.035628585038472028 -0.0077321008962008553 0 -0.0077321008962008553 -0.011190535463034557 0 0 0 -0.011704780125376658 -0.041040844415648772 -0.014506595339307461 0 -0.014506595339307461 -0.0028573521915041533 0 0 0 -0.010974549151788235 -0.054180067973578841 -0.011345806992943058 0 -0.011345806992943058 0.01599463947493121 0 0 0 -0.0095463571246619111 -0.091146060011041252 0.002492202177342767 0 0.002492202177342767 -0.0062929726498535954 0 0 0 -0.024359758165223712 -0.097148706474886326 0.062462385664226128 0 0.062462385664226128 0.0180492256585566 0 0 0 -0.019774870204082584 -0.066194944734652039 -0.029769519337312533 0 -0.029769519337312533 0.010863062906036003 0 0 0 -0.013832970457153815 -0.024483109737712713 0.039093736095799692 0 0.039093736095799692 0.033551793841516242 0 0 0 0.0022671710259509897 -0.039566855115977295 -0.02432080625965205 0 -0.02432080625965205 -0.0025594231025503622 0 0 0 -0.010531569554631914 -0.024415662520086423 0.059251886003852672 0 0.059251886003852672 0.013713187027603713 0 0 0 -0.0026756188731205111 -0.084493063465032617 0.0017958414737833661 0 0.0017958414737833661 0.00070162227606146432 0 0 0 -0.020947860297242788 -0.057275347866087949 -0.0039111566723472463 0 -0.0039111566723472463 0.010701629892292851 0 0 0 -0.01164342949344876 -0.057429845346863129 -0.030728100189157725 0 -0.030728100189157725 0.0021649872664002423 0 0 0 -0.013816214520115833 -0.0012872203482025245 0.0067731070055283005 0 0.0067731070055283005 0.053566531963071304 0 0 0 0.013069827903717222 -0.0011846541113581521 -0.009565989570920197 0 -0.009565989570920197 0.10455116716509516 0 0 0 0.025841628263434224 -0.055098059968937213 -0.0017119807992058943 0 -0.0017119807992058943 0.00044156872240026269 0 0 0 -0.013664122811634215 0.0015015798790907198 -0.00017797816522513443 0 -0.00017797816522513443 0.0049978554576171064 0 0 0 0.0016248588341771786 -0.0069219035092764614 0.00087901472793494584 0 0.00087901472793494584 0.0024038139098259137 0 0 0 -0.0011295223998635251 0.00021991189598802308 -0.010777279079318247 0 -0.010777279079318247 0.053655462787825847 0 0 0 0.013468843670953357 -0.0044665511814310221 -0.0074063244639158698 0 -0.0074063244639158698 0.052692626004609444 0 0 0 0.012056518705794605 -0.0070557183532087286 0.0089772477495748682 0 0.0089772477495748682 0.10145830317384252 0 0 0 0.023600646205158338 0.001105324511601502 -3.0889451591908923e-05 0 -3.0889451591908923e-05 0.0029008637953706895 0 0 0 0.0010015470767432699 0.0038060591125779197 0.0098521880458108946 0 0.0098521880458108946 0.10488746587707531 0 0 0 0.027173381247413086 -0.0054151590937498995 -0.0011565447061794298 0 -0.0011565447061794298 0.00094592978932572791 0 0 0 -0.0011173073261061539 -0.035235782302078189 -0.0095874385495226255 0 -0.0095874385495226255 -0.014008806248061889 0 0 0 -0.01231114713753495 -0.037781437111194027 -0.011107527016037131 0 -0.011107527016037131 0.017167256966609257 0 0 0 -0.0051535450361461788 -0.046114848615361081 -0.01351232262957168 0 -0.01351232262957168 0.013353788545187317 0 0 0 -0.0081902650175433855 -0.023078965724360179 -0.0022736173561620499 0 -0.0022736173561620499 -0.01237179760538179 0 0 0 -0.0088626908324355054 -0.022615376526764847 4.6116432382170558e-05 0 4.6116432382170558e-05 -0.0059865495238692334 0 0 0 -0.0071504815126585131 -0.044807586584351647 0.025276909159966415 0 0.025276909159966415 0.10912995351658149 0 0 0 0.016080591733057495 -0.069359424017613747 -0.015164979811841131 0 -0.015164979811841131 0.015149011987638128 0 0 0 -0.013552603007493884 -0.072209632869277424 -0.024660253284237293 0 -0.024660253284237293 0.0082969098116069673 0 0 0 -0.015978180764417607 -0.073751070013096526 -0.0010318035603208049 0 -0.0010318035603208049 0.0040245991726554076 0 0 0 -0.01743161771011028 -0.11796191876914142 0.04640975304174777 0 0.04640975304174777 0.0045271177851509137 0 0 0 -0.028358700245997515 -0.096842705396759543 0.063387965354686604 0 0.063387965354686604 0.041708740348049611 0 0 0 -0.013783491262177261 -0.040590470192643779 0.024262528595479158 0 0.024262528595479158 0.070283601839933263 0 0 0 0.0074232829118223709 -0.026909186281614539 -0.0093578784317101329 0 -0.0093578784317101329 0.034990228831370596 0 0 0 0.0020202606374389864 -0.032004493599799011 -0.0070400373094035365 0 -0.0070400373094035365 0.03834044672675474 0 0 0 0.0015839882817390016 -0.010416535983296255 0.035140971334412588 0 0.035140971334412588 0.075730157517220509 0 0 0 0.016328405383481071 -0.068860917213977163 -0.029980471281326082 0 -0.029980471281326082 0.01936953849139933 0 0 0 -0.012372844680644396 -0.080212213108759978 -0.021490846585191403 0 -0.021490846585191403 0.0018144347695211449 0 0 0 -0.019599444584809611 -0.037516529028199505 0.021648900897391028 0 0.021648900897391028 0.05320681212586223 0 0 0 0.0039225707744156707 -0.025125588491021766 0.027307151772085564 0 0.027307151772085564 0.043639981623585802 0 0 0 0.0046285982831410126 -0.048009290206842359 -0.016915238896820672 0 -0.016915238896820672 0.028534259460762268 0 0 0 -0.0048687576865198978 -0.055705116310395403 -0.0079483220054205328 0 -0.0079483220054205328 0.012112269831465627 0 0 0 -0.010898211619732416 -0.055476754854095603 -0.0067795075533414462 0 -0.0067795075533414462 0.021937300424137524 0 0 0 -0.0083848636074895372 -0.056895301853154376 -0.0048203889979914136 0 -0.0048203889979914136 0.036149295996015886 0 0 0 -0.0051865014642846069 -0.0042203672696401462 0.018680883588355623 0 0.018680883588355623 0.13021194826979432 0 0 0 0.031497895250038432 -0.031042225432873494 -0.0062613412686174374 0 -0.0062613412686174374 0.00020133839673830423 0 0 0 -0.0077102217590336863 -0.084514972815938616 0.0047322595671922957 0 0.0047322595671922957 0.00074252047456647985 0 0 0 -0.020943113085343017 -0.043098646960003609 0.003354955844085618 0 0.003354955844085618 -0.015047647579799954 0 0 0 -0.014536573634950888 0.022406932969074922 0.019804932685364207 0 0.019804932685364207 0.078532076368628134 0 0 0 0.025234752334425958 -0.030094723411472013 -0.0063982108250104641 0 -0.0063982108250104641 -0.012387763925280737 0 0 0 -0.010620621834188271 -0.07929302916588736 -0.025032655850718601 0 -0.025032655850718601 0.00044677735526482687 0 0 0 -0.019711562952655651 -0.1039415188053244 -0.019226310560586882 0 -0.019226310560586882 0.0047137175982688295 0 0 0 -0.024806950301763858 -0.04089507049225985 -0.011641729597103023 0 -0.011641729597103023 0.050566877699697588 0 0 0 0.0024179518018594692 
</DataArray>
<DataArray type="Float64" Name="cross_section_updated" format="ascii">
0.0010093768670784771 0.0010231961628562696 0.0010315440172319851 0.0010391331250674245 0.0010467701559862697 0.0010550237483452501 0.001063946690226681 0.0010726852550716878 0.0010811406141218954 0.0010889457572220063 0.0020331661978538356 0.0020859051369453512 0.0021217574184245781 0.0021534373906843332 0.002183940401382597 0.0022136524353077408 0.0022426856414627869 0.0022704083272738844 0.0022971545300190157 0.0023228000515392272 1 1 1 1 1 1 1 1 1 1 1 1 1 1 1 1 1 1 1 1 1 1 1 1 1 1 1 1 1 1 1 1 1 1 1 1 1 1 1 1 1 1 1 1 1 1 1 1 1 1 1 1 1 1 1 1 1 1 1 1 1 1 1 1 1 1 1 1 1 1 1 1 1 1 1 1 1 1 1 1 1 1 1 1 1 1 1 1 1 1 1 1 1 1 1 1 1 1 1 1 1 1 1 1 1 1 1 1 1 1 1 1 1 1 1 1 1 1 1 1 1 1 1 1 1 1 1 1 1 1 1 1 1 1 1 1 1 1 1 1 1 1 1 1 1 1 1 1 1 1 1 1 1 1 1 1 1 1 1 1 1 1 1 1 1 1 1 1 1 1 1 1 1 1 1 1 1 1 1 1 1 1 1 1 1 1 1 1 1 1 1 1 1 1 1 1 1 1 1 1 1 1 1 1 1 1 1 1 1 1 1 1 1 1 1 1 1 1 1 1 1 1 1 1 1 1 1 1 1 1 1 1 1 1 1 1 1 1 1 1 1 1 1 1 1 1 1 1 1 1 1 1 1 1 1 1 1 1 1 1 1 1 1 1 1 1 1 1 1 1 1 1 1 1 1 1 1 1 1 1 1 1 1 1 1 1 1 1 1 1 1 1 1 1 1 1 1 1 1 1 1 1 1 1 1 1 1 1 1 1 1 1 1 1 1 1 1 1 1 1 1 1 1 1 1 1 1 1 1 1 1 1 1 1 1 1 1 1 1 1 1 1 1 1 1 1 1 1 1 1 1 1 1 1 1 1 1 1 1 1 1 1 1 1 1 1 1 1 1 1 1 1 1 1 1 1 1 1 1 1 1 1 1 1 1 1 1 1 1 1 1 1 1 1 1 1 1 1 1 1 1 1 1 1 1 1 1 1 1 1 1 1 1 1 1 1 1 1 1 1 1 1 1 1 1 1 1 1 1 1 1 1 1 1 1 1 1 1 1 1 1 1 1 1 1 1 1 1 1 1 1 1 1 1 1 1 1 1 1 1 1 1 1 1 1 1 1 1 1 1 1 1 1 1 1 1 1 1 1 1 1 1 1 1 1 1 1 1 1 1 1 1 1 1 1 1 1 1 1 1 1 1 1 1 1 1 1 1 1 1 1 1 1 1 1 1 1 1 1 1 1 1 1 1 1 1 1 1 1 1 1 1 1 1 1 1 1 1 1 1 1 1 1 1 1 1 1 1 1 1 1 1 1 1 1 1 1 1 1 1 1 1 1 1 1 1 1 1 1 1 1 1 1 1 1 1 1 1 1 1 1 1 1 1 1 1 1 1 1 1 1 1 1 1 1 1 1 1 1 1 1 1 1 1 1 1 1 1 1 1 1 1 1 1 1 1 1 1 1 1 1 1 1 1 1 1 1 1 1 1 1 1 1 1 1 1 1 1 1 1 1 1 1 1 1 1 1 1 1 1 1 1 1 1 1 1 1 1 1 1 1 1 1 1 1 1 1 1 1 1 1 1 1 1 1 1 1 1 1 1 1 1 1 1 1 1 1 1 1 1 1 1 1 1 1 1 1 1 1 1 1 1 1 1 1 1 1 1 1 1 1 1 1 1 1 1 1 1 1 1 1 1 1 1 1 1 1 1 1 1 1 1 1 1 1 1 1 1 1 1 1 1 1 1 1 1 1 1 1 1 1 1 1 1 1 1 1 1 1 1 1 1 1 1 1 1 1 1 1 1 1 1 1 1 1 1 1 1 1 1 1 1 1 1 1 1 1 1 1 1 1 1 1 1 1 1 1 1 1 1 1 1 1 1 1 1 1 1 1 1 1 1 1 1 1 1 1 1 1 1 1 1 1 1 1 1 1 1 1 1 1 1 1 1 1 1 1 1 1 1 1 1 1 1 1 1 1 1 1 1 1 1 1 1 1 1 1 1 1 1 1 1 1 1 1 1 1 1 1 1 1 1 1 1 1 1 1 1 1 1 1 1 1 1 1 1 1 1 1 1 1 1 1 1 1 1 1 1 1 1 1 1 1 1 1 1 1 1 1 1 1 1 1 1 1 1 1 1 1 1 1 1 1 1 1 1 1 1 1 1 1 1 1 1 1 1 1 1 1 1 1 1 1 1 1 1 1 1 1 1 1 1 1 1 1 1 1 1 1 1 1 1 1 1 1 1 1 1 1 1 1 1 1 1 1 1 1 1 1 1 1 1 1 1 1 1 1 1 1 1 1 1 1 1 1 1 1 1 1 1 1 1 1 1 1 1 1 1 1 1 1 1 1 1 1 1 1 1 1 1 1 1 1 1 1 1 1 1 1 1 1 1 1 1 
</DataArray>
</CellData>
</Piece>
</UnstructuredGrid>
</VTKFile>
