<?xml version="1.0"?>
<VTKFile type="UnstructuredGrid" version="0.1" byte_order="LittleEndian">
<UnstructuredGrid>
<Piece NumberOfPoints="3142" NumberOfCells="1054">
<Points>
<DataArray type="Float64" NumberOfComponents="3" format="ascii">
0.5 0.29999999999999999 0 0.54999999999999993 0.29999999999999999 0 0.54999999999999993 0.29999999999999999 0 0.59999999999999976 0.29999999999999999 0 0.59999999999999976 0.29999999999999999 0 0.6499999999999998 0.29999999999999999 0 0.6499999999999998 0.29999999999999999 0 0.69999999999999984 0.29999999999999999 0 0.69999999999999984 0.29999999999999999 0 0.74999999999999989 0.29999999999999999 0 0.74999999999999989 0.29999999999999999 0 0.79999999999999982 0.29999999999999999 0 0.79999999999999982 0.29999999999999999 0 0.84999999999999987 0.29999999999999999 0 0.84999999999999987 0.29999999999999999 0 0.89999999999999991 0.29999999999999999 0 0.89999999999999991 0.29999999999999999 0 0.94999999999999996 0.29999999999999999 0 0.94999999999999996 0.29999999999999999 0 1 0.29999999999999999 0 0.5 0.69999999999999996 0 0.54999999999999993 0.69999999999999996 0 0.54999999999999993 0.69999999999999996 0 0.59999999999999976 0.69999999999999996 0 0.59999999999999976 0.69999999999999996 0 0.6499999999999998 0.69999999999999996 0 0.6499999999999998 0.69999999999999996 0 0.69999999999999984 0.69999999999999996 0 0.69999999999999984 0.69999999999999996 0 0.74999999999999989 0.69999999999999996 0 0.74999999999999989 0.69999999999999996 0 0.79999999999999982 0.69999999999999996 0 0.79999999999999982 0.69999999999999996 0 0.84999999999999987 0.69999999999999996 0 0.84999999999999987 0.69999999999999996 0 0.89999999999999991 0.69999999999999996 0 0.89999999999999991 0.69999999999999996 0 0.94999999999999996 0.69999999999999996 0 0.94999999999999996 0.69999999999999996 0 1 0.69999999999999996 0 0.40076539126862748 0.34589349467022118 0 0.33277555741076909 0.36432196682010132 0 0.36575549820117997 0.31677992835137742 0 0.38083244760691543 0.38531983672244652 0 0.33277555741076909 0.36432196682010132 0 0.40076539126862748 0.34589349467022118 0 0.56836770495988642 0.3523062350852913 0 0.52289427570932567 0.3932284363388488 0 0.52752007115234678 0.33170632466418198 0 0.52752007115234678 0.33170632466418198 0 0.52289427570932567 0.3932284363388488 0 0.49077833859261139 0.35229981449445641 0 0.10000000000041601 1 0 0.053064897599294662 0.95186845269532028 0 0.10266856499240549 0.95548163909968886 0 0.099999999999814668 0 0 0.10266856499169109 0.044518360900210059 0 0.053064897599215843 0.048131547304697528 0 0.050000000000207989 1 0 0.053064897599294662 0.95186845269532028 0 0.10000000000041601 1 0 0.049999999999899652 0 0 0.099999999999814668 0 0 0.053064897599215843 0.048131547304697528 0 0.24999999999941211 0 0 0.29999999999926641 0 0 0.27499999999933927 0.060310814194988557 0 0.30000000000124832 1 0 0.25000000000104028 1 0 0.27609987656793722 0.94991445621608572 0 0.15720202157091859 0.60665697304410315 0 0.19914261668318661 0.62286739485272158 0 0.16500388252850301 0.66612077714085194 0 0.2236846579037573 0.67380363126050236 0 0.16500388252850301 0.66612077714085194 0 0.19914261668318661 0.62286739485272158 0 0.1247745017231483 0.27198077544791172 0 0.168349569971391 0.28054490850913671 0 0.14223753364722069 0.3341983344262433 0 0 0.75000000000034661 0 0 0.7000000000006934 0 0.049706944316475897 0.72477277076253799 0 0 0.30000000000124832 0 0 0.25000000000104028 0 0.049706944316556423 0.27522722923869108 0 0.59999999999999976 0.29999999999999999 0 0.61959173890754571 0.33832250091341232 0 0.56836770495988642 0.3523062350852913 0 0.5 0.69999999999999996 0 0.43323420005758778 0.6913544522562407 0 0.47913475093885149 0.66010775372412711 0 1 0.14999999999961891 0 0.95391631417672862 0.19584263333809451 0 0.93677536231883773 0.14999999999999089 0 1 0.84999999999982645 0 0.95391631417670719 0.89584263333814784 0 0.93677536231884972 0.85000000000000286 0 1 0.84999999999982645 0 0.93677536231884972 0.85000000000000286 0 0.95386563387742829 0.80414874155775029 0 1 0.14999999999961891 0 0.93677536231883773 0.14999999999999089 0 0.95386563387744361 0.1041487415577465 0 0.90416666666660628 0.9041666666666166 0 0.88088768115933802 0.84674609810493673 0 0.93677536231884972 0.85000000000000286 0 0.90416666666668166 0.20416666666667119 0 0.88088768115941807 0.14674609810479519 0 0.93677536231883773 0.14999999999999089 0 0.1247745017231483 0.27198077544791172 0 0.14223753364722069 0.3341983344262433 0 0.093851963071650835 0.30582068233324772 0 0.5 0.69999999999999996 0 0.45582236402875981 0.73896743678908217 0 0.43323420005758778 0.6913544522562407 0 0.55000000000173355 1 0 0.50000000000205869 1 0 0.52122150208832174 0.94089974453840242 0 0.49999999999869432 0 0 0.5499999999988151 0 0 0.52375890611712683 0.059318771819432882 0 0.54999999999999993 0.29999999999999999 0 0.59999999999999976 0.29999999999999999 0 0.56836770495988642 0.3523062350852913 0 0.50202631463681879 0.87892870825713787 0 0.44003836461056539 0.88093474584252718 0 0.45677673713123867 0.84253684404072415 0 0.33403534827021109 0.84402799729020661 0 0.35864759629805099 0.87963482415279515 0 0.30864387279288652 0.89906554525974958 0 0.53245488764484505 0.55078124999999989 0 0.47793794143994173 0.52940715638744962 0 0.53330375813596242 0.50827942741749099 0 0.82709327591102189 0.14937141670914489 0 0.81283102246527783 0.1881007222486438 0 0.77144070960558853 0.14311854477243749 0 0.82709327591091286 0.84937141670920724 0 0.81159157511211755 0.88795995483179491 0 0.76901770135486491 0.84293557325473656 0 0.77144070960558853 0.14311854477243749 0 0.81283102246527783 0.1881007222486438 0 0.76587607630038135 0.18880039518954719 0 0.76901770135486491 0.84293557325473656 0 0.81159157511211755 0.88795995483179491 0 0.76891166905518427 0.88835469571185499 0 0.33403534827021109 0.84402799729020661 0 0.30864387279288652 0.89906554525974958 0 0.29209212897034281 0.84715728365233667 0 0.57412547362576272 0.58273804879550706 0 0.5166924242153631 0.59825134841919447 0 0.53245488764484505 0.55078124999999989 0 0.50202631463681879 0.87892870825713787 0 0.47401147028110507 0.91529957330468115 0 0.44003836461056539 0.88093474584252718 0 0.5 0.69999999999999996 0 0.54999999999999993 0.69999999999999996 0 0.55363780716230748 0.74348740161571747 0 1 0.34999999999993492 0 0.95871855522754235 0.40006508612975411 0 0.95780851984364423 0.34215720972155339 0 1 0.64999999999986979 0 0.9578014258160763 0.65787212321113708 0 0.95867599106212187 0.60011091146651041 0 0.46666084890304671 0.57634471035397938 0 0.47793794143994173 0.52940715638744962 0 0.53245488764484505 0.55078124999999989 0 0.94999999999999996 0.29999999999999999 0 0.89898474358614167 0.25391965591104898 0 0.94399509803921056 0.24399509803922639 0 0.94999999999979179 1 0 0.89898474358632463 0.95391965591118966 0 0.94399509803919068 0.9439950980391687 0 0 0.65000000000104008 0 0.050069554451969707 0.61308520079857043 0 0.046634677244967337 0.671418230738282 0 0 0.35000000000145642 0 0.046389130980076937 0.32668781832131749 0 0.050583896093752537 0.38543522283434112 0 0.50202631463681879 0.87892870825713787 0 0.50627822638148745 0.8263979829520941 0 0.55899371797446828 0.85003102233514438 0 0.54782696902220018 0.79245182748204157 0 0.55899371797446828 0.85003102233514438 0 0.50627822638148745 0.8263979829520941 0 0.50945740445113552 0.75476055527778108 0 0.5 0.69999999999999996 0 0.55363780716230748 0.74348740161571747 0 0.84999999999965292 1 0 0.85170973911348691 0.93569607295217616 0 0.89898474358632463 0.95391965591118966 0 0.84999999999999987 0.29999999999999999 0 0.8517097391133297 0.2356960729520409 0 0.89898474358614167 0.25391965591104898 0 0.86956835336234861 0.571283299838105 0 0.82862096804812391 0.55037090955459045 0 0.86907294890112186 0.52008116128001669 0 0.49102375406324739 0.49123754822244059 0 0.53330375813596242 0.50827942741749099 0 0.47793794143994173 0.52940715638744962 0 0.57611405284611883 0.50165903596042916 0 0.61547661924074692 0.48539576058873962 0 0.62042975506801734 0.54295974692364424 0 0.71406021706547751 0.63292083137662503 0 0.67529834988829951 0.61613270668143583 0 0.71809016091162536 0.58185040402320831 0 0.65000000000104008 1 0 0.62065498684670595 0.95224934003983619 0 0.68015064798562208 0.95924320340003011 0 0.84999999999960507 0 0 0.899991664607802 0.045289349238254978 0 0.85491058998398861 0.060047533455626502 0 0.84999999999999987 0.69999999999999996 0 0.89999166460796554 0.74528934923809909 0 0.85491058998424563 0.76004753345552634 0 0.89999999999999991 0.29999999999999999 0 0.89898474358614167 0.25391965591104898 0 0.94999999999999996 0.29999999999999999 0 0.94999999999979179 1 0 0.89999999999958358 1 0 0.89898474358632463 0.95391965591118966 0 0.86411095495256451 0.42388805655111889 0 0.81308179852519835 0.39754945808726527 0 0.86844634540301924 0.38530937474099819 0 0.5 0.29999999999999999 0 0.49695729691142171 0.25014895411178018 0 0.54248833945060504 0.2520322959927106 0 0.86411095495256451 0.42388805655111889 0 0.81973119833356312 0.43505687159469048 0 0.81308179852519835 0.39754945808726527 0 0.67323294229744413 0.57556450033612505 0 0.71809016091162536 0.58185040402320831 0 0.67529834988829951 0.61613270668143583 0 0.6236733212988993 0.14864538214901801 0 0.68391457121233579 0.14440470121196541 0 0.64011864159029941 0.18789607982138171 0 0 0.050000000000207989 0 0.053064897599215843 0.048131547304697528 0 0.044310582753132287 0.101412518374475 0 0 0.94999999999979179 0 0.0443105827531413 0.89858748162559932 0 0.053064897599294662 0.95186845269532028 0 1 0.34999999999993492 0 1 0.39999999999978308 0 0.95871855522754235 0.40006508612975411 0 1 0.59999999999973963 0 1 0.64999999999986979 0 0.95867599106212187 0.60011091146651041 0 0 0.84999999999965292 0 0.065374659239661639 0.8551091961254178 0 0.0443105827531413 0.89858748162559932 0 0 0.15000000000062411 0 0.044310582753132287 0.101412518374475 0 0.065374659239632718 0.1448908038746782 0 0.16500388252850301 0.66612077714085194 0 0.1020579365089687 0.69352219419301997 0 0.1241190223511371 0.64391885572885044 0 0.14999999999970359 0 0 0.14618258501891079 0.062070108745602003 0 0.10266856499169109 0.044518360900210059 0 0.15000000000062411 1 0 0.10266856499240549 0.95548163909968886 0 0.14617343800780541 0.93808063414349496 0 0.7152569930854884 0.5237994455134295 0 0.67569444444444449 0.53500863336860327 0 0.69385896817107129 0.48377516041410151 0 0.6541250972820879 0.49999999999999989 0 0.62042975506801734 0.54295974692364424 0 0.61547661924074692 0.48539576058873962 0 0.94999999999999996 0.69999999999999996 0 0.94399509803918602 0.75600490196082126 0 0.89999166460796554 0.74528934923809909 0 0.94999999999986839 0 0 0.94399509803922566 0.056004901960802607 0 0.899991664607802 0.045289349238254978 0 0.6541250972820879 0.49999999999999989 0 0.69385896817107129 0.48377516041410151 0 0.67569444444444449 0.53500863336860327 0 0.82862096804812391 0.55037090955459045 0 0.81723410853263523 0.59419663659258926 0 0.77151014687832564 0.54436834383023036 0 0.7250000000005199 0.89375000000045834 0 0.66412543161245952 0.88015090885499059 0 0.68697391633157634 0.84450604838764298 0 0 0.94999999999979179 0 0 0.89999999999958358 0 0.0443105827531413 0.89858748162559932 0 0 0.10000000000041601 0 0 0.050000000000207989 0 0.044310582753132287 0.101412518374475 0 0.16500388252850301 0.66612077714085194 0 0.15332765547575641 0.71200081858233666 0 0.1020579365089687 0.69352219419301997 0 0.90299850604011456 0.79563452813489832 0 0.93677536231884972 0.85000000000000286 0 0.88088768115933802 0.84674609810493673 0 0.90299850604006393 0.09563452813493091 0 0.93677536231883773 0.14999999999999089 0 0.88088768115941807 0.14674609810479519 0 0.68391457121233579 0.14440470121196541 0 0.6865991819015953 0.189116534044597 0 0.64011864159029941 0.18789607982138171 0 0.085622222639554768 0.53333248912060549 0 0.1216098864341134 0.50637075089503902 0 0.1154888278694548 0.56733818459978413 0 0.21858834311891909 0.81980263716112767 0 0.22556077506376701 0.77837424984191617 0 0.26104540868854792 0.81401944968719064 0 0.81723410853263523 0.59419663659258926 0 0.77293540622714185 0.59448302402785813 0 0.77151014687832564 0.54436834383023036 0 0.1154888278694548 0.56733818459978413 0 0.1216098864341134 0.50637075089503902 0 0.14934928745814749 0.55042914607228977 0 0.1216098864341134 0.50637075089503902 0 0.068743045408989428 0.48853989837882689 0 0.113541300460994 0.46208784312094731 0 0.078358742472063481 0.43365249433908948 0 0.113541300460994 0.46208784312094731 0 0.068743045408989428 0.48853989837882689 0 0.83573492347052902 0.36590755630746369 0 0.81308179852519835 0.39754945808726527 0 0.78145581580700685 0.34881365920033602 0 0.57611405284611883 0.50165903596042916 0 0.62042975506801734 0.54295974692364424 0 0.57435499076887508 0.54267261987897775 0 0.86956835336234861 0.571283299838105 0 0.81723410853263523 0.59419663659258926 0 0.82862096804812391 0.55037090955459045 0 0.46666084890304671 0.57634471035397938 0 0.53245488764484505 0.55078124999999989 0 0.5166924242153631 0.59825134841919447 0 0.89999999999999991 0.69999999999999996 0 0.94999999999999996 0.69999999999999996 0 0.89999166460796554 0.74528934923809909 0 0.89999999999973679 0 0 0.94999999999986839 0 0 0.899991664607802 0.045289349238254978 0 0.84999999999960507 0 0 0.89999999999973679 0 0 0.899991664607802 0.045289349238254978 0 0.84999999999999987 0.69999999999999996 0 0.89999999999999991 0.69999999999999996 0 0.89999166460796554 0.74528934923809909 0 0.43545892161006339 0.61093128915313821 0 0.4089290844030305 0.58728915500154233 0 0.46666084890304671 0.57634471035397938 0 0.1650278706801647 0.38791388161335733 0 0.1117088112799664 0.38831403004970022 0 0.14223753364722069 0.3341983344262433 0 0.087545339447545459 0.35122518864182262 0 0.14223753364722069 0.3341983344262433 0 0.1117088112799664 0.38831403004970022 0 0.6916490518212759 0.75387992374886192 0 0.72501250972655151 0.74067302935308721 0 0.72500000000000064 0.7952620967744265 0 0.72501250972655151 0.74067302935308721 0 0.75841349681148107 0.75422312624214749 0 0.72500000000000064 0.7952620967744265 0 0.57412547362576272 0.58273804879550706 0 0.53245488764484505 0.55078124999999989 0 0.57435499076887508 0.54267261987897775 0 1 0.54999999999963112 0 0.95867599106212187 0.60011091146651041 0 0.93732437411268477 0.55911392101136159 0 1 0.44999999999963131 0 0.93814194660195893 0.44426664081746747 0 0.95871855522754235 0.40006508612975411 0 0.4089290844030305 0.58728915500154233 0 0.42644501560315817 0.54603747078095544 0 0.46666084890304671 0.57634471035397938 0 0.89999999999958358 1 0 0.84999999999965292 1 0 0.89898474358632463 0.95391965591118966 0 0.84999999999999987 0.29999999999999999 0 0.89898474358614167 0.25391965591104898 0 0.89999999999999991 0.29999999999999999 0 0.29999999999926641 0 0 0.32541448401678508 0.046215317981507749 0 0.27499999999933927 0.060310814194988557 0 0.30000000000124832 1 0 0.27609987656793722 0.94991445621608572 0 0.32544832635163229 0.95485394099568932 0 0.57412547362576272 0.58273804879550706 0 0.62042975506801734 0.54295974692364424 0 0.63065402604362242 0.59661356661633302 0 0.5 0.29999999999999999 0 0.54248833945060504 0.2520322959927106 0 0.54999999999999993 0.29999999999999999 0 0.67323294229744413 0.57556450033612505 0 0.62042975506801734 0.54295974692364424 0 0.67569444444444449 0.53500863336860327 0 0.6541250972820879 0.49999999999999989 0 0.67569444444444449 0.53500863336860327 0 0.62042975506801734 0.54295974692364424 0 1 0.14999999999961891 0 1 0.19999999999974799 0 0.95391631417672862 0.19584263333809451 0 1 0.84999999999982645 0 1 0.8999999999998336 0 0.95391631417670719 0.89584263333814784 0 1 0.7999999999998193 0 1 0.84999999999982645 0 0.95386563387742829 0.80414874155775029 0 1 0.099999999999753911 0 1 0.14999999999961891 0 0.95386563387744361 0.1041487415577465 0 0.4656888918609538 0.78493261229743638 0 0.50627822638148745 0.8263979829520941 0 0.45677673713123867 0.84253684404072415 0 0.6879972333610942 0.43038561374960838 0 0.72622533758026719 0.40265885511101601 0 0.73483647259922602 0.44789725365921768 0 0.67323294229744413 0.57556450033612505 0 0.67569444444444449 0.53500863336860327 0 0.71809016091162536 0.58185040402320831 0 0.7152569930854884 0.5237994455134295 0 0.71809016091162536 0.58185040402320831 0 0.67569444444444449 0.53500863336860327 0 0.65394964615507722 0.22666784374016369 0 0.59814117807200873 0.23398510860739519 0 0.64011864159029941 0.18789607982138171 0 0.55000000000173355 1 0 0.52122150208832174 0.94089974453840242 0 0.57382506491224949 0.9629411906298494 0 0.39801143831225599 0.16651381068160659 0 0.44288491854585582 0.14116182884956319 0 0.42905200079338551 0.19982395548231649 0 0.47357141910802508 0.1873585799078378 0 0.42905200079338551 0.19982395548231649 0 0.44288491854585582 0.14116182884956319 0 0.90594285160987287 0.4141265964174129 0 0.88594198078881503 0.46167788676578442 0 0.86411095495256451 0.42388805655111889 0 0.65507451745379841 0.92229208810758578 0 0.68015064798562208 0.95924320340003011 0 0.62065498684670595 0.95224934003983619 0 0.35312867752657662 0.084946736076730367 0 0.39591832466117061 0.056982757562006353 0 0.39823268594401579 0.1116623613130045 0 0.43698630808430822 0.080423614171545449 0 0.39823268594401579 0.1116623613130045 0 0.39591832466117061 0.056982757562006353 0 0.4367309254023824 0.92065556789053882 0 0.39641108128798319 0.94356127926187128 0 0.39767323751400468 0.89584229130535065 0 0.35752321586431363 0.9185439911803448 0 0.39767323751400468 0.89584229130535065 0 0.39641108128798319 0.94356127926187128 0 0.77354604466818633 0.40378688774472771 0 0.77972660463949339 0.45529290596363098 0 0.73483647259922602 0.44789725365921768 0 0.5499999999988151 0 0 0.57396793757665954 0.037011367187645222 0 0.52375890611712683 0.059318771819432882 0 0.64753070846764316 0.77332939069435502 0 0.60294066490120068 0.80851322453934582 0 0.59636844454254345 0.75937156204589151 0 0.49102375406324739 0.49123754822244059 0 0.48858720058566618 0.43964267759203868 0 0.53823865529665704 0.45873898050322898 0 0.28307294598219601 0.50789252727458634 0 0.29110487519241501 0.56588143995431495 0 0.25115337790845271 0.54719303014923271 0 0.79680861578988083 0.92656778056766709 0 0.81159157511211755 0.88795995483179491 0 0.85170973911348691 0.93569607295217616 0 0.79680861578956375 0.22656778056752541 0 0.81283102246527783 0.1881007222486438 0 0.8517097391133297 0.2356960729520409 0 0.57412547362576272 0.58273804879550706 0 0.57435499076887508 0.54267261987897775 0 0.62042975506801734 0.54295974692364424 0 0.93814194660195893 0.44426664081746747 0 0.88594198078881503 0.46167788676578442 0 0.90594285160987287 0.4141265964174129 0 0.7152569930854884 0.5237994455134295 0 0.73947346780852752 0.49062440112282169 0 0.77151014687832564 0.54436834383023036 0 0 0.7000000000006934 0 0.046634677244967337 0.671418230738282 0 0.049706944316475897 0.72477277076253799 0 0 0.30000000000124832 0 0.049706944316556423 0.27522722923869108 0 0.046389130980076937 0.32668781832131749 0 0.59814117807200873 0.23398510860739519 0 0.59443395090188023 0.18455690917515069 0 0.64011864159029941 0.18789607982138171 0 0.21858834311891909 0.81980263716112767 0 0.26104540868854792 0.81401944968719064 0 0.2401283238295133 0.85648409884788523 0 0.39536230704883951 0.84069429572832477 0 0.45677673713123867 0.84253684404072415 0 0.44003836461056539 0.88093474584252718 0 0.086179601630648681 0.64647209519980475 0 0.050069554451969707 0.61308520079857043 0 0.1024350934457823 0.60772393977513839 0 0.077693244765132896 0.56932317963405099 0 0.1024350934457823 0.60772393977513839 0 0.050069554451969707 0.61308520079857043 0 0.078358742472063481 0.43365249433908948 0 0.050583896093752537 0.38543522283434112 0 0.1117088112799664 0.38831403004970022 0 0.087545339447545459 0.35122518864182262 0 0.1117088112799664 0.38831403004970022 0 0.050583896093752537 0.38543522283434112 0 0.33403534827021109 0.84402799729020661 0 0.35642984951668422 0.80994399665655703 0 0.39536230704883951 0.84069429572832477 0 0.28307294598219601 0.50789252727458634 0 0.33190227185843768 0.52715113583864037 0 0.29110487519241501 0.56588143995431495 0 0.2236846579037573 0.67380363126050236 0 0.19068556247388771 0.71028988922845504 0 0.16500388252850301 0.66612077714085194 0 0.26104540868854792 0.81401944968719064 0 0.22556077506376701 0.77837424984191617 0 0.2792923945214143 0.77665808831789485 0 0.38244435121258652 0.51653317813019495 0 0.37272913873093971 0.56192925302619479 0 0.33190227185843768 0.52715113583864037 0 0.25195515620380449 0.25883339815888678 0 0.29132859388405002 0.27203693976649962 0 0.24432083401701241 0.3006253385567515 0 0.29348325746214782 0.31350119524708198 0 0.24432083401701241 0.3006253385567515 0 0.29132859388405002 0.27203693976649962 0 0 0.89999999999958358 0 0 0.84999999999965292 0 0.0443105827531413 0.89858748162559932 0 0 0.15000000000062411 0 0 0.10000000000041601 0 0.044310582753132287 0.101412518374475 0 0.59999999999999976 0.69999999999999996 0 0.59636844454254345 0.75937156204589151 0 0.55363780716230748 0.74348740161571747 0 0.1650278706801647 0.38791388161335733 0 0.22033343844674469 0.36963382230740238 0 0.191953871957803 0.42546416763755879 0 0.52289427570932567 0.3932284363388488 0 0.46655310992796922 0.39650496622958609 0 0.49077833859261139 0.35229981449445641 0 0.91696753777131557 0.497780560203536 0 0.88594198078881503 0.46167788676578442 0 0.93814194660195893 0.44426664081746747 0 0.24999999999941211 0 0 0.27499999999933927 0.060310814194988557 0 0.22668068146512929 0.045875643423131329 0 0.25000000000104028 1 0 0.22850979588452081 0.95594428570238643 0 0.27609987656793722 0.94991445621608572 0 0.77846603114747959 0.49850927265137401 0 0.77151014687832564 0.54436834383023036 0 0.73947346780852752 0.49062440112282169 0 0.27499999999933927 0.060310814194988557 0 0.27474541102162192 0.11822029332053539 0 0.24218496799700481 0.089025544070598317 0 0.27270076654418179 0.87751467830216623 0 0.29209212897034281 0.84715728365233667 0 0.30864387279288652 0.89906554525974958 0 0.3096713403101819 0.085471541595262421 0 0.27474541102162192 0.11822029332053539 0 0.27499999999933927 0.060310814194988557 0 0.17933913398461551 0.2350063570234002 0 0.18124454140915969 0.18790916706335251 0 0.224700362040408 0.22206622194729711 0 0.18269480424590959 0.75905448272264375 0 0.22556077506376701 0.77837424984191617 0 0.17777405986036951 0.81832336108265358 0 0.35864759629805099 0.87963482415279515 0 0.33403534827021109 0.84402799729020661 0 0.39536230704883951 0.84069429572832477 0 0.77354604466818633 0.40378688774472771 0 0.73483647259922602 0.44789725365921768 0 0.72622533758026719 0.40265885511101601 0 0.80185942888539485 0.77452061303608133 0 0.85491058998424563 0.76004753345552634 0 0.84725310900444062 0.80779732082917555 0 0.80185942888501827 0.074520613036224564 0 0.85491058998398861 0.060047533455626502 0 0.84725310900442086 0.10779732082922661 0 0.086179601630648681 0.64647209519980475 0 0.046634677244967337 0.671418230738282 0 0.050069554451969707 0.61308520079857043 0 0.087545339447545459 0.35122518864182262 0 0.050583896093752537 0.38543522283434112 0 0.046389130980076937 0.32668781832131749 0 0 0.75000000000034661 0 0.049706944316475897 0.72477277076253799 0 0.04408157711937423 0.7728941757575627 0 0 0.25000000000104028 0 0.044081577119474857 0.2271058242433576 0 0.049706944316556423 0.27522722923869108 0 0.52289427570932567 0.3932284363388488 0 0.56836770495988642 0.3523062350852913 0 0.57744073070774993 0.41535148636609359 0 0.6084546825910605 0.37989672713932537 0 0.57744073070774993 0.41535148636609359 0 0.56836770495988642 0.3523062350852913 0 0.61343887413683884 0.856862479058357 0 0.55899371797446828 0.85003102233514438 0 0.60294066490120068 0.80851322453934582 0 0.54782696902220018 0.79245182748204157 0 0.60294066490120068 0.80851322453934582 0 0.55899371797446828 0.85003102233514438 0 0.40326160981139969 0.73346192995102844 0 0.36622285152418499 0.69092437780804039 0 0.43323420005758778 0.6913544522562407 0 0.52289427570932567 0.3932284363388488 0 0.48858720058566618 0.43964267759203868 0 0.46655310992796922 0.39650496622958609 0 0.15720202157091859 0.60665697304410315 0 0.1154888278694548 0.56733818459978413 0 0.14934928745814749 0.55042914607228977 0 0.6879972333610942 0.43038561374960838 0 0.73483647259922602 0.44789725365921768 0 0.69385896817107129 0.48377516041410151 0 0.7250000000005199 0.89375000000045834 0 0.68987011941058407 0.92105047536677087 0 0.66412543161245952 0.88015090885499059 0 0.83573492347052902 0.36590755630746369 0 0.78145581580700685 0.34881365920033602 0 0.82500000000000062 0.33010209762754811 0 0.82862096804812391 0.55037090955459045 0 0.81441713509985358 0.51161854125224959 0 0.86907294890112186 0.52008116128001669 0 0.19670163708476801 0.31472518408333222 0 0.14223753364722069 0.3341983344262433 0 0.168349569971391 0.28054490850913671 0 0.50202631463681879 0.87892870825713787 0 0.45677673713123867 0.84253684404072415 0 0.50627822638148745 0.8263979829520941 0 0.099999999999814668 0 0 0.14999999999970359 0 0 0.10266856499169109 0.044518360900210059 0 0.15000000000062411 1 0 0.10000000000041601 1 0 0.10266856499240549 0.95548163909968886 0 0.67323294229744413 0.57556450033612505 0 0.63065402604362242 0.59661356661633302 0 0.62042975506801734 0.54295974692364424 0 0.083105206071467416 0.20007701332709979 0 0.13737030665753211 0.20313708640667491 0 0.095326043202144745 0.24554465089224409 0 0.083105206071452636 0.79992298667296435 0 0.090953281884486245 0.7564451946902494 0 0.1382744753146134 0.79650574229207483 0 0.50000000000205869 1 0 0.47135117303824892 0.95556877749289892 0 0.52122150208832174 0.94089974453840242 0 0.49999999999869432 0 0 0.52375890611712683 0.059318771819432882 0 0.47040171442036788 0.044141676406503738 0 0.4656888918609538 0.78493261229743638 0 0.45582236402875981 0.73896743678908217 0 0.50945740445113552 0.75476055527778108 0 0.5 0.69999999999999996 0 0.50945740445113552 0.75476055527778108 0 0.45582236402875981 0.73896743678908217 0 0.55306006949600994 0.20198184231352201 0 0.56202748619534593 0.15054058349222879 0 0.59443395090188023 0.18455690917515069 0 0.6236733212988993 0.14864538214901801 0 0.59443395090188023 0.18455690917515069 0 0.56202748619534593 0.15054058349222879 0 0.57412547362576272 0.58273804879550706 0 0.5498280205245758 0.6290146943450976 0 0.5166924242153631 0.59825134841919447 0 0.91696753777131557 0.497780560203536 0 0.93814194660195893 0.44426664081746747 0 0.96228564064454991 0.48206450662049471 0 0.15720202157091859 0.60665697304410315 0 0.16500388252850301 0.66612077714085194 0 0.1241190223511371 0.64391885572885044 0 0.44288491854585582 0.14116182884956319 0 0.47881186583059909 0.093591717165689425 0 0.48466639505193998 0.1421439844745814 0 1 0.54999999999963112 0 0.93732437411268477 0.55911392101136159 0 0.95631871884947484 0.51827533208233789 0 0.57724883562309992 0.92155686857100794 0 0.57382506491224949 0.9629411906298494 0 0.52122150208832174 0.94089974453840242 0 0.85170973911348691 0.93569607295217616 0 0.81159157511211755 0.88795995483179491 0 0.85600844944837662 0.88483418979512773 0 0.8517097391133297 0.2356960729520409 0 0.81283102246527783 0.1881007222486438 0 0.85600844944842547 0.1848341897950983 0 0.27866744612395528 0.38416094670951489 0 0.29124338931648802 0.43334555462578611 0 0.24049127783545701 0.41270748208749802 0 0.6084546825910605 0.37989672713932537 0 0.56836770495988642 0.3523062350852913 0 0.61959173890754571 0.33832250091341232 0 0.20050006573841939 0.53248514016039872 0 0.25115337790845271 0.54719303014923271 0 0.22549374774072969 0.58452645269293457 0 0.26573297623774761 0.59828298563722948 0 0.22549374774072969 0.58452645269293457 0 0.25115337790845271 0.54719303014923271 0 0.26104540868854792 0.81401944968719064 0 0.29209212897034281 0.84715728365233667 0 0.2401283238295133 0.85648409884788523 0 0.6236733212988993 0.14864538214901801 0 0.65290632656860115 0.11434202593454081 0 0.68391457121233579 0.14440470121196541 0 0.19901705110390991 0.9175543425573498 0 0.19741632902693801 0.86755867406447229 0 0.24536017905392571 0.90704567837671446 0 0.72500000000000064 0.7952620967744265 0 0.76901770135486491 0.84293557325473656 0 0.72863726579783861 0.85390518901155588 0 0.72500000000000064 0.7952620967744265 0 0.72863726579783861 0.85390518901155588 0 0.68697391633157634 0.84450604838764298 0 0.7250000000005199 0.89375000000045834 0 0.68697391633157634 0.84450604838764298 0 0.72863726579783861 0.85390518901155588 0 0.72525833953073282 0.1032114801687094 0 0.77144070960558853 0.14311854477243749 0 0.72634814642510737 0.16106886917518889 0 0.72525833953073282 0.1032114801687094 0 0.72634814642510737 0.16106886917518889 0 0.68391457121233579 0.14440470121196541 0 0.36622285152418499 0.69092437780804039 0 0.3977710372045391 0.65868194622830212 0 0.43323420005758778 0.6913544522562407 0 0 0.65000000000104008 0 0 0.60000000000138687 0 0.050069554451969707 0.61308520079857043 0 0 0.40000000000166441 0 0 0.35000000000145642 0 0.050583896093752537 0.38543522283434112 0 0.22033343844674469 0.36963382230740238 0 0.24049127783545701 0.41270748208749802 0 0.191953871957803 0.42546416763755879 0 0.5 0.29999999999999999 0 0.4604742573284204 0.27846934318264788 0 0.49695729691142171 0.25014895411178018 0 0.19741632902693801 0.86755867406447229 0 0.2401283238295133 0.85648409884788523 0 0.24536017905392571 0.90704567837671446 0 0 0.50000000000205869 0 0.068743045408989428 0.48853989837882689 0 0.044576108720083309 0.53509043209532614 0 0.15000000000062411 1 0 0.14617343800780541 0.93808063414349496 0 0.18474005699953849 0.96231585248064622 0 0.14999999999970359 0 0 0.184418230509967 0.038773194583122873 0 0.14618258501891079 0.062070108745602003 0 0.57667858002728545 0.078486105337742612 0 0.52375890611712683 0.059318771819432882 0 0.57396793757665954 0.037011367187645222 0 0.113541300460994 0.46208784312094731 0 0.078358742472063481 0.43365249433908948 0 0.13773355295499351 0.42497777642586831 0 0.77354604466818633 0.40378688774472771 0 0.78145581580700685 0.34881365920033602 0 0.81308179852519835 0.39754945808726527 0 0.38244435121258652 0.51653317813019495 0 0.33190227185843768 0.52715113583864037 0 0.35024835142131061 0.48654922671676981 0 0.64753070846764316 0.77332939069435502 0 0.65005442820240822 0.82644988530054031 0 0.60294066490120068 0.80851322453934582 0 0.15720202157091859 0.60665697304410315 0 0.1024350934457823 0.60772393977513839 0 0.1154888278694548 0.56733818459978413 0 0.90416666666660628 0.9041666666666166 0 0.85600844944837662 0.88483418979512773 0 0.88088768115933802 0.84674609810493673 0 0.90416666666668166 0.20416666666667119 0 0.85600844944842547 0.1848341897950983 0 0.88088768115941807 0.14674609810479519 0 0.078358742472063481 0.43365249433908948 0 0.1117088112799664 0.38831403004970022 0 0.13773355295499351 0.42497777642586831 0 0.38244435121258652 0.51653317813019495 0 0.3908716102680424 0.47010282357248828 0 0.43507373378304309 0.49699695397193322 0 0.90299850604011456 0.79563452813489832 0 0.95386563387742829 0.80414874155775029 0 0.93677536231884972 0.85000000000000286 0 0.90416666666660628 0.9041666666666166 0 0.93677536231884972 0.85000000000000286 0 0.95391631417670719 0.89584263333814784 0 0.90299850604006393 0.09563452813493091 0 0.95386563387744361 0.1041487415577465 0 0.93677536231883773 0.14999999999999089 0 0.90416666666668166 0.20416666666667119 0 0.93677536231883773 0.14999999999999089 0 0.95391631417672862 0.19584263333809451 0 0.39536230704883951 0.84069429572832477 0 0.44003836461056539 0.88093474584252718 0 0.39767323751400468 0.89584229130535065 0 0.51076801031701946 0.1202837388510348 0 0.52375890611712683 0.059318771819432882 0 0.54979595918804436 0.1060565713905809 0 0.57667858002728545 0.078486105337742612 0 0.54979595918804436 0.1060565713905809 0 0.52375890611712683 0.059318771819432882 0 0.57724883562309992 0.92155686857100794 0 0.52122150208832174 0.94089974453840242 0 0.54783390826260769 0.89287767010860219 0 0.50202631463681879 0.87892870825713787 0 0.54783390826260769 0.89287767010860219 0 0.52122150208832174 0.94089974453840242 0 0.087545339447545459 0.35122518864182262 0 0.093851963071650835 0.30582068233324772 0 0.14223753364722069 0.3341983344262433 0 0.54999999999999993 0.69999999999999996 0 0.59999999999999976 0.69999999999999996 0 0.55363780716230748 0.74348740161571747 0 0.083105206071452636 0.79992298667296435 0 0.1074251789111534 0.83564394292147814 0 0.065374659239661639 0.8551091961254178 0 0.083105206071467416 0.20007701332709979 0 0.065374659239632718 0.1448908038746782 0 0.106902708054812 0.16453234188234539 0 0.52289427570932567 0.3932284363388488 0 0.53823865529665704 0.45873898050322898 0 0.48858720058566618 0.43964267759203868 0 0.13737030665753211 0.20313708640667491 0 0.14377654328998779 0.2442024734791064 0 0.095326043202144745 0.24554465089224409 0 0.1382744753146134 0.79650574229207483 0 0.090953281884486245 0.7564451946902494 0 0.14335651144331049 0.75565258250209677 0 0.27270076654418179 0.87751467830216623 0 0.30864387279288652 0.89906554525974958 0 0.24536017905392571 0.90704567837671446 0 0.27609987656793722 0.94991445621608572 0 0.24536017905392571 0.90704567837671446 0 0.30864387279288652 0.89906554525974958 0 0.90299850604011456 0.79563452813489832 0 0.84725310900444062 0.80779732082917555 0 0.85491058998424563 0.76004753345552634 0 0.90299850604006393 0.09563452813493091 0 0.84725310900442086 0.10779732082922661 0 0.85491058998398861 0.060047533455626502 0 1 0.54999999999963112 0 1 0.59999999999973963 0 0.95867599106212187 0.60011091146651041 0 1 0.39999999999978308 0 1 0.44999999999963131 0 0.95871855522754235 0.40006508612975411 0 0.28040350263641872 0.23054717217092141 0 0.25195515620380449 0.25883339815888678 0 0.224700362040408 0.22206622194729711 0 0.84999999999999987 0.29999999999999999 0 0.87430060258887643 0.34056085888204451 0 0.82500000000000062 0.33010209762754811 0 0.84999999999999987 0.69999999999999996 0 0.82457059160610424 0.66831947184359608 0 0.87712158428786946 0.65709029563313581 0 0.86956835336234861 0.571283299838105 0 0.87159648282691515 0.61285406320581504 0 0.81723410853263523 0.59419663659258926 0 0.43698630808430822 0.080423614171545449 0 0.47881186583059909 0.093591717165689425 0 0.44288491854585582 0.14116182884956319 0 1 0.44999999999963131 0 0.96228564064454991 0.48206450662049471 0 0.93814194660195893 0.44426664081746747 0 0.35752321586431363 0.9185439911803448 0 0.30864387279288652 0.89906554525974958 0 0.35864759629805099 0.87963482415279515 0 0.29124338931648802 0.43334555462578611 0 0.25982634974572738 0.46097799597715272 0 0.24049127783545701 0.41270748208749802 0 0.51076801031701946 0.1202837388510348 0 0.56202748619534593 0.15054058349222879 0 0.51729576145820033 0.1683240575987815 0 0.55306006949600994 0.20198184231352201 0 0.51729576145820033 0.1683240575987815 0 0.56202748619534593 0.15054058349222879 0 0.26429849586623999 0.19346700179430079 0 0.28040350263641872 0.23054717217092141 0 0.224700362040408 0.22206622194729711 0 0.51076801031701946 0.1202837388510348 0 0.48466639505193998 0.1421439844745814 0 0.47881186583059909 0.093591717165689425 0 0.2185883431182947 0.18019736283949719 0 0.26429849586623999 0.19346700179430079 0 0.224700362040408 0.22206622194729711 0 0.18269480424590959 0.75905448272264375 0 0.2248999640082178 0.72584299459689172 0 0.22556077506376701 0.77837424984191617 0 0.51076801031701946 0.1202837388510348 0 0.47881186583059909 0.093591717165689425 0 0.52375890611712683 0.059318771819432882 0 0.50202631463681879 0.87892870825713787 0 0.52122150208832174 0.94089974453840242 0 0.47401147028110507 0.91529957330468115 0 0 0.84999999999965292 0 0.038512288486097702 0.8155852717111195 0 0.065374659239661639 0.8551091961254178 0 0 0.15000000000062411 0 0.065374659239632718 0.1448908038746782 0 0.038512288486115001 0.1844147282893184 0 0.2185883431182947 0.18019736283949719 0 0.224700362040408 0.22206622194729711 0 0.18124454140915969 0.18790916706335251 0 0.21858834311891909 0.81980263716112767 0 0.17777405986036951 0.81832336108265358 0 0.22556077506376701 0.77837424984191617 0 0.1215415378367805 0.72939333680004137 0 0.1020579365089687 0.69352219419301997 0 0.15332765547575641 0.71200081858233666 0 0.49695729691142171 0.25014895411178018 0 0.50760557329222289 0.20700468884612061 0 0.54248833945060504 0.2520322959927106 0 0.15720202157091859 0.60665697304410315 0 0.14934928745814749 0.55042914607228977 0 0.18381867841758909 0.57774125163628387 0 0.90416666666660628 0.9041666666666166 0 0.85170973911348691 0.93569607295217616 0 0.85600844944837662 0.88483418979512773 0 0.90416666666668166 0.20416666666667119 0 0.8517097391133297 0.2356960729520409 0 0.85600844944842547 0.1848341897950983 0 0.17933913398461551 0.2350063570234002 0 0.13737030665753211 0.20313708640667491 0 0.18124454140915969 0.18790916706335251 0 0.18269480424590959 0.75905448272264375 0 0.17777405986036951 0.81832336108265358 0 0.1382744753146134 0.79650574229207483 0 0.1216098864341134 0.50637075089503902 0 0.15801167086041079 0.46008690540259539 0 0.16618607197337229 0.50652878253548905 0 0.50760557329222289 0.20700468884612061 0 0.55306006949600994 0.20198184231352201 0 0.54248833945060504 0.2520322959927106 0 0.75000000000034661 1 0 0.7000000000006934 1 0 0.7250000000005199 0.94981617647078953 0 0.69999999999999984 0.29999999999999999 0 0.72500000000000064 0.2498161764706 0 0.74999999999999989 0.29999999999999999 0 0.72525833953073282 0.1032114801687094 0 0.68391457121233579 0.14440470121196541 0 0.68330259535470161 0.10038702501083881 0 0.43249999999999988 0.43937499999999979 0 0.46655310992796922 0.39650496622958609 0 0.48858720058566618 0.43964267759203868 0 0.19901705110390991 0.9175543425573498 0 0.14617343800780541 0.93808063414349496 0 0.16206583317966519 0.89685560785156404 0 0.19922788606653311 0.085920220746880993 0 0.16141998738593399 0.10404039647458049 0 0.14618258501891079 0.062070108745602003 0 0.31378396441836959 0.70157213313026345 0 0.26439878998046262 0.7048065392091396 0 0.27820712747429932 0.65530134213254643 0 0.1216098864341134 0.50637075089503902 0 0.113541300460994 0.46208784312094731 0 0.15801167086041079 0.46008690540259539 0 0.6084546825910605 0.37989672713932537 0 0.65481233915350323 0.35652751921065562 0 0.63912439215427275 0.41063340167983359 0 0.19901705110390991 0.9175543425573498 0 0.18474005699953849 0.96231585248064622 0 0.14617343800780541 0.93808063414349496 0 0.19922788606653311 0.085920220746880993 0 0.14618258501891079 0.062070108745602003 0 0.184418230509967 0.038773194583122873 0 0.38244435121258652 0.51653317813019495 0 0.35024835142131061 0.48654922671676981 0 0.3908716102680424 0.47010282357248828 0 0.82709327591102189 0.14937141670914489 0 0.77144070960558853 0.14311854477243749 0 0.80076557130237269 0.1154587552654202 0 0.82709327591091286 0.84937141670920724 0 0.76901770135486491 0.84293557325473656 0 0.80041942726660109 0.81543261647703358 0 0.43698630808430822 0.080423614171545449 0 0.44288491854585582 0.14116182884956319 0 0.39823268594401579 0.1116623613130045 0 0.39801143831225599 0.16651381068160659 0 0.39823268594401579 0.1116623613130045 0 0.44288491854585582 0.14116182884956319 0 0.36575549820117997 0.31677992835137742 0 0.3786248352540974 0.27082301512024259 0 0.41914690343363781 0.30688979866601612 0 0.42377727103934271 0.25099357235810238 0 0.41914690343363781 0.30688979866601612 0 0.3786248352540974 0.27082301512024259 0 0.049706944316475897 0.72477277076253799 0 0.1020579365089687 0.69352219419301997 0 0.090953281884486245 0.7564451946902494 0 0.1215415378367805 0.72939333680004137 0 0.090953281884486245 0.7564451946902494 0 0.1020579365089687 0.69352219419301997 0 0.1247745017231483 0.27198077544791172 0 0.093851963071650835 0.30582068233324772 0 0.095326043202144745 0.24554465089224409 0 0.049706944316556423 0.27522722923869108 0 0.095326043202144745 0.24554465089224409 0 0.093851963071650835 0.30582068233324772 0 0.77354604466818633 0.40378688774472771 0 0.81973119833356312 0.43505687159469048 0 0.77972660463949339 0.45529290596363098 0 0.43249999999999988 0.43937499999999979 0 0.43507373378304309 0.49699695397193322 0 0.3908716102680424 0.47010282357248828 0 0.26573297623774761 0.59828298563722948 0 0.2459498854893499 0.63248470766216769 0 0.22549374774072969 0.58452645269293457 0 0.72500000000000064 0.7952620967744265 0 0.77094201086366854 0.79647480515688507 0 0.76901770135486491 0.84293557325473656 0 0.72525833953073282 0.1032114801687094 0 0.76878382444651716 0.097147941686331368 0 0.77144070960558853 0.14311854477243749 0 0.72500000000000064 0.7952620967744265 0 0.68697391633157634 0.84450604838764298 0 0.68024162096458085 0.79868546898116533 0 0.31378396441836959 0.70157213313026345 0 0.29904318922293632 0.74132814928635593 0 0.26439878998046262 0.7048065392091396 0 0.31378396441836959 0.70157213313026345 0 0.35415581127540569 0.73730480045900215 0 0.29904318922293632 0.74132814928635593 0 0.61343887413683884 0.856862479058357 0 0.65005442820240822 0.82644988530054031 0 0.66412543161245952 0.88015090885499059 0 0.68697391633157634 0.84450604838764298 0 0.66412543161245952 0.88015090885499059 0 0.65005442820240822 0.82644988530054031 0 0.083411279318375747 0.91030024466934134 0 0.065374659239661639 0.8551091961254178 0 0.10562472963403439 0.87143394428979881 0 0.083411279318303222 0.089699755330707398 0 0.1053400320299198 0.12877248826361379 0 0.065374659239632718 0.1448908038746782 0 0.55306006949600994 0.20198184231352201 0 0.59443395090188023 0.18455690917515069 0 0.59814117807200873 0.23398510860739519 0 0.84999999999999987 0.29999999999999999 0 0.89999999999999991 0.29999999999999999 0 0.87430060258887643 0.34056085888204451 0 0.84999999999999987 0.69999999999999996 0 0.87712158428786946 0.65709029563313581 0 0.89999999999999991 0.69999999999999996 0 0.34258405725730701 0.4444034294386992 0 0.3908716102680424 0.47010282357248828 0 0.35024835142131061 0.48654922671676981 0 0.26573297623774761 0.59828298563722948 0 0.31502927232353312 0.6134992213375432 0 0.27820712747429932 0.65530134213254643 0 0.91696753777131557 0.497780560203536 0 0.86907294890112186 0.52008116128001669 0 0.88594198078881503 0.46167788676578442 0 0.84723782639812573 0.48638347960178252 0 0.88594198078881503 0.46167788676578442 0 0.86907294890112186 0.52008116128001669 0 0.7152569930854884 0.5237994455134295 0 0.77151014687832564 0.54436834383023036 0 0.71809016091162536 0.58185040402320831 0 0.90416666666660628 0.9041666666666166 0 0.89898474358632463 0.95391965591118966 0 0.85170973911348691 0.93569607295217616 0 0.90416666666668166 0.20416666666667119 0 0.89898474358614167 0.25391965591104898 0 0.8517097391133297 0.2356960729520409 0 0.91750694127107502 0.36982372220068471 0 0.95780851984364423 0.34215720972155339 0 0.95871855522754235 0.40006508612975411 0 0.91750694127105259 0.63017627779935648 0 0.95867599106212187 0.60011091146651041 0 0.9578014258160763 0.65787212321113708 0 0.90299850604011456 0.79563452813489832 0 0.88088768115933802 0.84674609810493673 0 0.84725310900444062 0.80779732082917555 0 0.90299850604006393 0.09563452813493091 0 0.88088768115941807 0.14674609810479519 0 0.84725310900442086 0.10779732082922661 0 0.1216098864341134 0.50637075089503902 0 0.16618607197337229 0.50652878253548905 0 0.14934928745814749 0.55042914607228977 0 0.20050006573841939 0.53248514016039872 0 0.14934928745814749 0.55042914607228977 0 0.16618607197337229 0.50652878253548905 0 0.80185942888539485 0.77452061303608133 0 0.84725310900444062 0.80779732082917555 0 0.80041942726660109 0.81543261647703358 0 0.80185942888501827 0.074520613036224564 0 0.84725310900442086 0.10779732082922661 0 0.80076557130237269 0.1154587552654202 0 0.083105206071452636 0.79992298667296435 0 0.065374659239661639 0.8551091961254178 0 0.038512288486097702 0.8155852717111195 0 0.083105206071467416 0.20007701332709979 0 0.038512288486115001 0.1844147282893184 0 0.065374659239632718 0.1448908038746782 0 0.54782696902220018 0.79245182748204157 0 0.59636844454254345 0.75937156204589151 0 0.60294066490120068 0.80851322453934582 0 0.083411279318375747 0.91030024466934134 0 0.0443105827531413 0.89858748162559932 0 0.065374659239661639 0.8551091961254178 0 0.083411279318303222 0.089699755330707398 0 0.065374659239632718 0.1448908038746782 0 0.044310582753132287 0.101412518374475 0 0.84999999999965292 1 0 0.81486180804382891 0.96321394949790495 0 0.85170973911348691 0.93569607295217616 0 0.84999999999999987 0.29999999999999999 0 0.81486180804364938 0.26321394949780091 0 0.8517097391133297 0.2356960729520409 0 0.4656888918609538 0.78493261229743638 0 0.45677673713123867 0.84253684404072415 0 0.42609163930740518 0.80361684430568059 0 0.39536230704883951 0.84069429572832477 0 0.42609163930740518 0.80361684430568059 0 0.45677673713123867 0.84253684404072415 0 0.6236733212988993 0.14864538214901801 0 0.56202748619534593 0.15054058349222879 0 0.58516465772821369 0.11653801664834119 0 0.57412547362576272 0.58273804879550706 0 0.63065402604362242 0.59661356661633302 0 0.5991018319127801 0.62925360607495295 0 0.61343887413683884 0.856862479058357 0 0.5832743223239254 0.88483152652961872 0 0.55899371797446828 0.85003102233514438 0 0.50202631463681879 0.87892870825713787 0 0.55899371797446828 0.85003102233514438 0 0.54783390826260769 0.89287767010860219 0 0.51076801031701946 0.1202837388510348 0 0.54979595918804436 0.1060565713905809 0 0.56202748619534593 0.15054058349222879 0 0.55306006949600994 0.20198184231352201 0 0.59814117807200873 0.23398510860739519 0 0.54248833945060504 0.2520322959927106 0 0.83573492347052902 0.36590755630746369 0 0.82500000000000062 0.33010209762754811 0 0.87430060258887643 0.34056085888204451 0 0.83758014339878906 0.63222013025741819 0 0.87712158428786946 0.65709029563313581 0 0.82457059160610424 0.66831947184359608 0 0.49102375406324739 0.49123754822244059 0 0.53823865529665704 0.45873898050322898 0 0.53330375813596242 0.50827942741749099 0 0.52289427570932567 0.3932284363388488 0 0.57744073070774993 0.41535148636609359 0 0.53823865529665704 0.45873898050322898 0 0.4089290844030305 0.58728915500154233 0 0.37272913873093971 0.56192925302619479 0 0.42644501560315817 0.54603747078095544 0 0.49695729691142171 0.25014895411178018 0 0.4604742573284204 0.27846934318264788 0 0.46429753744194407 0.22870891180733599 0 0.90299850604011456 0.79563452813489832 0 0.85491058998424563 0.76004753345552634 0 0.89999166460796554 0.74528934923809909 0 0.90299850604006393 0.09563452813493091 0 0.85491058998398861 0.060047533455626502 0 0.899991664607802 0.045289349238254978 0 0.38244435121258652 0.51653317813019495 0 0.42644501560315817 0.54603747078095544 0 0.37272913873093971 0.56192925302619479 0 0.71406021706547751 0.63292083137662503 0 0.71809016091162536 0.58185040402320831 0 0.74994237037456724 0.62775548192980357 0 0.84723782639812573 0.48638347960178252 0 0.86907294890112186 0.52008116128001669 0 0.81441713509985358 0.51161854125224959 0 0.33122374654748771 0.57588941099433744 0 0.33190227185843768 0.52715113583864037 0 0.37272913873093971 0.56192925302619479 0 0.086179601630648681 0.64647209519980475 0 0.1241190223511371 0.64391885572885044 0 0.1020579365089687 0.69352219419301997 0 0.59999999999894682 0 0 0.64999999999907843 0 0 0.61940220174112337 0.047251958781050582 0 0.18269480424590959 0.75905448272264375 0 0.14335651144331049 0.75565258250209677 0 0.15332765547575641 0.71200081858233666 0 0.22549374774072969 0.58452645269293457 0 0.2459498854893499 0.63248470766216769 0 0.19914261668318661 0.62286739485272158 0 0.38244435121258652 0.51653317813019495 0 0.43507373378304309 0.49699695397193322 0 0.42644501560315817 0.54603747078095544 0 0.65000000000104008 1 0 0.60000000000138687 1 0 0.62065498684670595 0.95224934003983619 0 0.078358742472063481 0.43365249433908948 0 0.068743045408989428 0.48853989837882689 0 0.033550201249889847 0.46247875832467239 0 0.2236846579037573 0.67380363126050236 0 0.27820712747429932 0.65530134213254643 0 0.26439878998046262 0.7048065392091396 0 0.6879972333610942 0.43038561374960838 0 0.68128176404677243 0.38629093627004979 0 0.72622533758026719 0.40265885511101601 0 0.72525833953073282 0.1032114801687094 0 0.7010294155333181 0.056779085686491267 0 0.7527966693318906 0.053051678021508272 0 0.18269480424590959 0.75905448272264375 0 0.15332765547575641 0.71200081858233666 0 0.19068556247388771 0.71028988922845504 0 0.1216098864341134 0.50637075089503902 0 0.085622222639554768 0.53333248912060549 0 0.068743045408989428 0.48853989837882689 0 0.25676291524611189 0.7436741304886243 0 0.26439878998046262 0.7048065392091396 0 0.29904318922293632 0.74132814928635593 0 0.65481233915350323 0.35652751921065562 0 0.68128176404677243 0.38629093627004979 0 0.63912439215427275 0.41063340167983359 0 0.83573492347052902 0.36590755630746369 0 0.86844634540301924 0.38530937474099819 0 0.81308179852519835 0.39754945808726527 0 0.27270076654418179 0.87751467830216623 0 0.2401283238295133 0.85648409884788523 0 0.29209212897034281 0.84715728365233667 0 0.84999999999999987 0.69999999999999996 0 0.85491058998424563 0.76004753345552634 0 0.81864958914779962 0.73589050177899629 0 0.84999999999960507 0 0 0.85491058998398861 0.060047533455626502 0 0.81864958914740749 0.035890501779055867 0 0.18381867841758909 0.57774125163628387 0 0.19914261668318661 0.62286739485272158 0 0.15720202157091859 0.60665697304410315 0 0.22549374774072969 0.58452645269293457 0 0.19914261668318661 0.62286739485272158 0 0.18381867841758909 0.57774125163628387 0 0.79680861578988083 0.92656778056766709 0 0.85170973911348691 0.93569607295217616 0 0.81486180804382891 0.96321394949790495 0 0.79680861578956375 0.22656778056752541 0 0.8517097391133297 0.2356960729520409 0 0.81486180804364938 0.26321394949780091 0 0.20050006573841939 0.53248514016039872 0 0.23975172658309729 0.49475499200540818 0 0.25115337790845271 0.54719303014923271 0 0.28307294598219601 0.50789252727458634 0 0.25115337790845271 0.54719303014923271 0 0.23975172658309729 0.49475499200540818 0 0.20050006573841939 0.53248514016039872 0 0.18381867841758909 0.57774125163628387 0 0.14934928745814749 0.55042914607228977 0 0.19922788606653311 0.085920220746880993 0 0.22985637510995899 0.1298347970200906 0 0.18652628422869419 0.14162325200928061 0 0.33758650185219202 0.23837101504325639 0 0.38831533174504851 0.2189834941785925 0 0.3786248352540974 0.27082301512024259 0 0.42377727103934271 0.25099357235810238 0 0.3786248352540974 0.27082301512024259 0 0.38831533174504851 0.2189834941785925 0 0.19922788606653311 0.085920220746880993 0 0.18652628422869419 0.14162325200928061 0 0.16141998738593399 0.10404039647458049 0 0.54782696902220018 0.79245182748204157 0 0.55363780716230748 0.74348740161571747 0 0.59636844454254345 0.75937156204589151 0 0.82709327591091286 0.84937141670920724 0 0.88088768115933802 0.84674609810493673 0 0.85600844944837662 0.88483418979512773 0 0.82709327591102189 0.14937141670914489 0 0.88088768115941807 0.14674609810479519 0 0.85600844944842547 0.1848341897950983 0 0.27866744612395528 0.38416094670951489 0 0.22033343844674469 0.36963382230740238 0 0.25966125648670141 0.34351016742083729 0 0 0.50000000000205869 0 0.033550201249889847 0.46247875832467239 0 0.068743045408989428 0.48853989837882689 0 0.31378396441836959 0.70157213313026345 0 0.36622285152418499 0.69092437780804039 0 0.35415581127540569 0.73730480045900215 0 0.77293540622714185 0.59448302402785813 0 0.71809016091162536 0.58185040402320831 0 0.77151014687832564 0.54436834383023036 0 0.7152569930854884 0.5237994455134295 0 0.69385896817107129 0.48377516041410151 0 0.73947346780852752 0.49062440112282169 0 0.15801167086041079 0.46008690540259539 0 0.191953871957803 0.42546416763755879 0 0.19604738184454831 0.47787523520405789 0 0.57667858002728545 0.078486105337742612 0 0.61940220174112337 0.047251958781050582 0 0.61956000905586006 0.1043312481793135 0 0.65408113592120842 0.073941773121567966 0 0.61956000905586006 0.1043312481793135 0 0.61940220174112337 0.047251958781050582 0 0 0.55000000000173355 0 0 0.50000000000205869 0 0.044576108720083309 0.53509043209532614 0 0.65507451745379841 0.92229208810758578 0 0.62065498684670595 0.95224934003983619 0 0.61885627562261258 0.90282959257498208 0 0.57724883562309992 0.92155686857100794 0 0.61885627562261258 0.90282959257498208 0 0.62065498684670595 0.95224934003983619 0 0.91750694127107502 0.36982372220068471 0 0.86844634540301924 0.38530937474099819 0 0.87430060258887643 0.34056085888204451 0 0.91750694127105259 0.63017627779935648 0 0.87712158428786946 0.65709029563313581 0 0.87159648282691515 0.61285406320581504 0 0.33123028043633618 0.77629643437932982 0 0.29904318922293632 0.74132814928635593 0 0.35415581127540569 0.73730480045900215 0 0.86411095495256451 0.42388805655111889 0 0.84925632466077294 0.45359738909549091 0 0.81973119833356312 0.43505687159469048 0 0.43846182030517877 0.64845797726506715 0 0.47913475093885149 0.66010775372412711 0 0.43323420005758778 0.6913544522562407 0 0.18269480424590959 0.75905448272264375 0 0.19068556247388771 0.71028988922845504 0 0.2248999640082178 0.72584299459689172 0 0.39536230704883951 0.84069429572832477 0 0.38586766253264881 0.78219501014812498 0 0.42609163930740518 0.80361684430568059 0 0.59999999999999976 0.69999999999999996 0 0.63221990677827677 0.73442891067859706 0 0.59636844454254345 0.75937156204589151 0 0.27866744612395528 0.38416094670951489 0 0.24049127783545701 0.41270748208749802 0 0.22033343844674469 0.36963382230740238 0 0.82709327591091286 0.84937141670920724 0 0.84725310900444062 0.80779732082917555 0 0.88088768115933802 0.84674609810493673 0 0.82709327591102189 0.14937141670914489 0 0.84725310900442086 0.10779732082922661 0 0.88088768115941807 0.14674609810479519 0 0.1650278706801647 0.38791388161335733 0 0.18434624290945251 0.35208838264196463 0 0.22033343844674469 0.36963382230740238 0 0.4409427642593301 0.35743108089689513 0 0.49077833859261139 0.35229981449445641 0 0.46655310992796922 0.39650496622958609 0 0.80185942888539485 0.77452061303608133 0 0.81864958914779962 0.73589050177899629 0 0.85491058998424563 0.76004753345552634 0 0.80185942888501827 0.074520613036224564 0 0.81864958914740749 0.035890501779055867 0 0.85491058998398861 0.060047533455626502 0 0.29999999999926641 0 0 0.34999999999912063 0 0 0.32541448401678508 0.046215317981507749 0 0.35000000000145642 1 0 0.30000000000124832 1 0 0.32544832635163229 0.95485394099568932 0 0.4656888918609538 0.78493261229743638 0 0.50731287292894423 0.78963574450233831 0 0.50627822638148745 0.8263979829520941 0 0.2185883431182947 0.18019736283949719 0 0.25557216766470708 0.15874861286892261 0 0.26429849586623999 0.19346700179430079 0 1 0.29999999999999999 0 1 0.34999999999993492 0 0.95780851984364423 0.34215720972155339 0 1 0.29999999999999999 0 0.95780851984364423 0.34215720972155339 0 0.94999999999999996 0.29999999999999999 0 1 0.69999999999999996 0 0.94999999999999996 0.69999999999999996 0 0.9578014258160763 0.65787212321113708 0 1 0.69999999999999996 0 0.9578014258160763 0.65787212321113708 0 1 0.64999999999986979 0 0.91750694127107502 0.36982372220068471 0 0.90594285160987287 0.4141265964174129 0 0.86844634540301924 0.38530937474099819 0 0.91750694127105259 0.63017627779935648 0 0.87159648282691515 0.61285406320581504 0 0.91143117093204207 0.58709913730335972 0 0.74999999999999989 0.69999999999999996 0 0.7750489929959945 0.66593931409600093 0 0.79999999999999982 0.69999999999999996 0 0.74999999999999989 0.29999999999999999 0 0.79999999999999982 0.29999999999999999 0 0.78145581580700685 0.34881365920033602 0 0.54999999999999993 0.69999999999999996 0 0.57484956128872922 0.66573805030881994 0 0.59999999999999976 0.69999999999999996 0 0.90299850604011456 0.79563452813489832 0 0.94399509803918602 0.75600490196082126 0 0.95386563387742829 0.80414874155775029 0 0.90416666666660628 0.9041666666666166 0 0.95391631417670719 0.89584263333814784 0 0.94399509803919068 0.9439950980391687 0 0.90299850604006393 0.09563452813493091 0 0.94399509803922566 0.056004901960802607 0 0.95386563387744361 0.1041487415577465 0 0.90416666666668166 0.20416666666667119 0 0.95391631417672862 0.19584263333809451 0 0.94399509803921056 0.24399509803922639 0 0.22278230690790279 0.44824268025881547 0 0.19604738184454831 0.47787523520405789 0 0.191953871957803 0.42546416763755879 0 0.90299850604011456 0.79563452813489832 0 0.89999166460796554 0.74528934923809909 0 0.94399509803918602 0.75600490196082126 0 0.90299850604006393 0.09563452813493091 0 0.899991664607802 0.045289349238254978 0 0.94399509803922566 0.056004901960802607 0 0.49102375406324739 0.49123754822244059 0 0.47793794143994173 0.52940715638744962 0 0.43507373378304309 0.49699695397193322 0 0.90416666666660628 0.9041666666666166 0 0.94399509803919068 0.9439950980391687 0 0.89898474358632463 0.95391965591118966 0 0.90416666666668166 0.20416666666667119 0 0.94399509803921056 0.24399509803922639 0 0.89898474358614167 0.25391965591104898 0 0.65394964615507722 0.22666784374016369 0 0.62657463266645097 0.26524202571255862 0 0.59814117807200873 0.23398510860739519 0 0.6084546825910605 0.37989672713932537 0 0.63912439215427275 0.41063340167983359 0 0.57744073070774993 0.41535148636609359 0 0.61209567303293111 0.44669033081290321 0 0.57744073070774993 0.41535148636609359 0 0.63912439215427275 0.41063340167983359 0 0.25676291524611189 0.7436741304886243 0 0.22556077506376701 0.77837424984191617 0 0.2248999640082178 0.72584299459689172 0 0.61343887413683884 0.856862479058357 0 0.60294066490120068 0.80851322453934582 0 0.65005442820240822 0.82644988530054031 0 0.64999999999907843 0 0 0.66369801598854572 0.036327466368102787 0 0.61940220174112337 0.047251958781050582 0 0.40326160981139969 0.73346192995102844 0 0.38586766253264881 0.78219501014812498 0 0.35415581127540569 0.73730480045900215 0 0.33123028043633618 0.77629643437932982 0 0.35415581127540569 0.73730480045900215 0 0.38586766253264881 0.78219501014812498 0 0.26573297623774761 0.59828298563722948 0 0.29110487519241501 0.56588143995431495 0 0.31502927232353312 0.6134992213375432 0 0.77846603114747959 0.49850927265137401 0 0.81441713509985358 0.51161854125224959 0 0.77151014687832564 0.54436834383023036 0 0.82862096804812391 0.55037090955459045 0 0.77151014687832564 0.54436834383023036 0 0.81441713509985358 0.51161854125224959 0 0.50000000000205869 1 0 0.45000000000187229 1 0 0.47135117303824892 0.95556877749289892 0 0.44999999999882923 0 0 0.49999999999869432 0 0 0.47040171442036788 0.044141676406503738 0 0 0.7000000000006934 0 0 0.65000000000104008 0 0.046634677244967337 0.671418230738282 0 0 0.35000000000145642 0 0 0.30000000000124832 0 0.046389130980076937 0.32668781832131749 0 0.31378396441836959 0.70157213313026345 0 0.27820712747429932 0.65530134213254643 0 0.32263089806001177 0.66003674931826484 0 0.33122374654748771 0.57588941099433744 0 0.31502927232353312 0.6134992213375432 0 0.29110487519241501 0.56588143995431495 0 0.26573297623774761 0.59828298563722948 0 0.27820712747429932 0.65530134213254643 0 0.2459498854893499 0.63248470766216769 0 0.14474682429600511 0.85524784522713515 0 0.16206583317966519 0.89685560785156404 0 0.1241151115713819 0.9045666525468371 0 0.14332333627550789 0.14578431753966009 0 0.12372429750337779 0.095814237875728972 0 0.16141998738593399 0.10404039647458049 0 0.64753070846764316 0.77332939069435502 0 0.59636844454254345 0.75937156204589151 0 0.63221990677827677 0.73442891067859706 0 0.14474682429600511 0.85524784522713515 0 0.1241151115713819 0.9045666525468371 0 0.10562472963403439 0.87143394428979881 0 0.14332333627550789 0.14578431753966009 0 0.1053400320299198 0.12877248826361379 0 0.12372429750337779 0.095814237875728972 0 0.77354604466818633 0.40378688774472771 0 0.81308179852519835 0.39754945808726527 0 0.81973119833356312 0.43505687159469048 0 0.54782696902220018 0.79245182748204157 0 0.50945740445113552 0.75476055527778108 0 0.55363780716230748 0.74348740161571747 0 0.2236846579037573 0.67380363126050236 0 0.2459498854893499 0.63248470766216769 0 0.27820712747429932 0.65530134213254643 0 0.77293540622714185 0.59448302402785813 0 0.74994237037456724 0.62775548192980357 0 0.71809016091162536 0.58185040402320831 0 0 0.79999999999999982 0 0 0.75000000000034661 0 0.04408157711937423 0.7728941757575627 0 0 0.25000000000104028 0 0 0.20000000000083221 0 0.044081577119474857 0.2271058242433576 0 0.19999999999955789 0 0 0.24999999999941211 0 0 0.22668068146512929 0.045875643423131329 0 0.25000000000104028 1 0 0.20000000000083221 1 0 0.22850979588452081 0.95594428570238643 0 0.47357141910802508 0.1873585799078378 0 0.44288491854585582 0.14116182884956319 0 0.48466639505193998 0.1421439844745814 0 0.59999999999999976 0.29999999999999999 0 0.5794309697024993 0.27124795968204829 0 0.62657463266645097 0.26524202571255862 0 0.43249999999999988 0.43937499999999979 0 0.42161023666869668 0.39493916313643851 0 0.46655310992796922 0.39650496622958609 0 0.31068898841644388 0.47541502461811092 0 0.33190227185843768 0.52715113583864037 0 0.28307294598219601 0.50789252727458634 0 0.35024835142131061 0.48654922671676981 0 0.33190227185843768 0.52715113583864037 0 0.31068898841644388 0.47541502461811092 0 0.35864735590330371 0.63903383440414463 0 0.36622285152418499 0.69092437780804039 0 0.32263089806001177 0.66003674931826484 0 0.31378396441836959 0.70157213313026345 0 0.32263089806001177 0.66003674931826484 0 0.36622285152418499 0.69092437780804039 0 0.86956835336234861 0.571283299838105 0 0.90900154012161016 0.53607784105648792 0 0.91143117093204207 0.58709913730335972 0 0.6499999999999998 0.29999999999999999 0 0.65481233915350323 0.35652751921065562 0 0.61959173890754571 0.33832250091341232 0 0.4409427642593301 0.35743108089689513 0 0.46226845272279993 0.31901800744800313 0 0.49077833859261139 0.35229981449445641 0 0.5 0.29999999999999999 0 0.49077833859261139 0.35229981449445641 0 0.46226845272279993 0.31901800744800313 0 0.14999999999970359 0 0 0.19999999999955789 0 0 0.184418230509967 0.038773194583122873 0 0.20000000000083221 1 0 0.15000000000062411 1 0 0.18474005699953849 0.96231585248064622 0 1 0.49999999999950101 0 1 0.54999999999963112 0 0.95631871884947484 0.51827533208233789 0 0.38586766253264881 0.78219501014812498 0 0.42676259796334498 0.76772545931379299 0 0.42609163930740518 0.80361684430568059 0 0.20050006573841939 0.53248514016039872 0 0.22549374774072969 0.58452645269293457 0 0.18381867841758909 0.57774125163628387 0 0.065374659239661639 0.8551091961254178 0 0.1074251789111534 0.83564394292147814 0 0.10562472963403439 0.87143394428979881 0 0.065374659239632718 0.1448908038746782 0 0.1053400320299198 0.12877248826361379 0 0.106902708054812 0.16453234188234539 0 0.1650278706801647 0.38791388161335733 0 0.14223753364722069 0.3341983344262433 0 0.18434624290945251 0.35208838264196463 0 0.43249999999999988 0.43937499999999979 0 0.46111841286828259 0.46690301029591341 0 0.43507373378304309 0.49699695397193322 0 0.83758014339878906 0.63222013025741819 0 0.81723410853263523 0.59419663659258926 0 0.87159648282691515 0.61285406320581504 0 0.19670163708476801 0.31472518408333222 0 0.18434624290945251 0.35208838264196463 0 0.14223753364722069 0.3341983344262433 0 0.75000000000034661 1 0 0.7250000000005199 0.94981617647078953 0 0.770759834363826 0.95919399014344442 0 0.74999999999999989 0.29999999999999999 0 0.72500000000000064 0.2498161764706 0 0.77075983436335049 0.25919399014334171 0 0.69999999999999984 0.29999999999999999 0 0.67933712972090698 0.25920070958121938 0 0.72500000000000064 0.2498161764706 0 0.57611405284611883 0.50165903596042916 0 0.53330375813596242 0.50827942741749099 0 0.53823865529665704 0.45873898050322898 0 0.6499999999999998 0.29999999999999999 0 0.68887083591306764 0.33632058575757479 0 0.65481233915350323 0.35652751921065562 0 0.27866744612395528 0.38416094670951489 0 0.33277555741076909 0.36432196682010132 0 0.31778888742534622 0.40581751814196781 0 0.49102375406324739 0.49123754822244059 0 0.43507373378304309 0.49699695397193322 0 0.46111841286828259 0.46690301029591341 0 0.94999999999999996 0.69999999999999996 0 0.97166519676947294 0.73337114490064459 0 0.94399509803918602 0.75600490196082126 0 0.94999999999986839 0 0 0.97166519676946894 0.033371144900598393 0 0.94399509803922566 0.056004901960802607 0 0.94999999999999996 0.29999999999999999 0 0.94399509803921056 0.24399509803922639 0 0.97166519676951801 0.26662885509932011 0 0.94999999999979179 1 0 0.94399509803919068 0.9439950980391687 0 0.97166519676946206 0.96662885509935492 0 0.34258405725730701 0.4444034294386992 0 0.29124338931648802 0.43334555462578611 0 0.31778888742534622 0.40581751814196781 0 0.27866744612395528 0.38416094670951489 0 0.31778888742534622 0.40581751814196781 0 0.29124338931648802 0.43334555462578611 0 0.36575549820117997 0.31677992835137742 0 0.33277555741076909 0.36432196682010132 0 0.32752639306529541 0.32610012995269699 0 0.35752321586431363 0.9185439911803448 0 0.32544832635163229 0.95485394099568932 0 0.30864387279288652 0.89906554525974958 0 0.27609987656793722 0.94991445621608572 0 0.30864387279288652 0.89906554525974958 0 0.32544832635163229 0.95485394099568932 0 0.33123028043633618 0.77629643437932982 0 0.30857225866488791 0.81101973481716805 0 0.2792923945214143 0.77665808831789485 0 0.33758650185219202 0.23837101504325639 0 0.29132859388405002 0.27203693976649962 0 0.28040350263641872 0.23054717217092141 0 0.4409427642593301 0.35743108089689513 0 0.41914690343363781 0.30688979866601612 0 0.46226845272279993 0.31901800744800313 0 0.14332333627550789 0.14578431753966009 0 0.13737030665753211 0.20313708640667491 0 0.106902708054812 0.16453234188234539 0 0.083105206071467416 0.20007701332709979 0 0.106902708054812 0.16453234188234539 0 0.13737030665753211 0.20313708640667491 0 0.083105206071452636 0.79992298667296435 0 0.1382744753146134 0.79650574229207483 0 0.1074251789111534 0.83564394292147814 0 0.14474682429600511 0.85524784522713515 0 0.1074251789111534 0.83564394292147814 0 0.1382744753146134 0.79650574229207483 0 0.65408113592120842 0.073941773121567966 0 0.7010294155333181 0.056779085686491267 0 0.68330259535470161 0.10038702501083881 0 0.72525833953073282 0.1032114801687094 0 0.68330259535470161 0.10038702501083881 0 0.7010294155333181 0.056779085686491267 0 0.049706944316475897 0.72477277076253799 0 0.046634677244967337 0.671418230738282 0 0.1020579365089687 0.69352219419301997 0 0.086179601630648681 0.64647209519980475 0 0.1020579365089687 0.69352219419301997 0 0.046634677244967337 0.671418230738282 0 0.087545339447545459 0.35122518864182262 0 0.046389130980076937 0.32668781832131749 0 0.093851963071650835 0.30582068233324772 0 0.049706944316556423 0.27522722923869108 0 0.093851963071650835 0.30582068233324772 0 0.046389130980076937 0.32668781832131749 0 0.82709327591091286 0.84937141670920724 0 0.80041942726660109 0.81543261647703358 0 0.84725310900444062 0.80779732082917555 0 0.82709327591102189 0.14937141670914489 0 0.80076557130237269 0.1154587552654202 0 0.84725310900442086 0.10779732082922661 0 0.17933913398461551 0.2350063570234002 0 0.14377654328998779 0.2442024734791064 0 0.13737030665753211 0.20313708640667491 0 0.18269480424590959 0.75905448272264375 0 0.1382744753146134 0.79650574229207483 0 0.14335651144331049 0.75565258250209677 0 0.33758650185219202 0.23837101504325639 0 0.3786248352540974 0.27082301512024259 0 0.33402499257867951 0.28911035184473982 0 0.14332333627550789 0.14578431753966009 0 0.18124454140915969 0.18790916706335251 0 0.13737030665753211 0.20313708640667491 0 0.14474682429600511 0.85524784522713515 0 0.1382744753146134 0.79650574229207483 0 0.17777405986036951 0.81832336108265358 0 0.5 0.29999999999999999 0 0.52752007115234678 0.33170632466418198 0 0.49077833859261139 0.35229981449445641 0 0.27866744612395528 0.38416094670951489 0 0.29644548887253103 0.34914008784168082 0 0.33277555741076909 0.36432196682010132 0 0 0.84999999999965292 0 0 0.79999999999999982 0 0.038512288486097702 0.8155852717111195 0 0 0.20000000000083221 0 0 0.15000000000062411 0 0.038512288486115001 0.1844147282893184 0 0.40326160981139969 0.73346192995102844 0 0.35415581127540569 0.73730480045900215 0 0.36622285152418499 0.69092437780804039 0 0.91696753777131557 0.497780560203536 0 0.96228564064454991 0.48206450662049471 0 0.95631871884947484 0.51827533208233789 0 0.33758650185219202 0.23837101504325639 0 0.31255190597181792 0.19850845631528771 0 0.3572130504031617 0.1874703368446563 0 0.59814117807200873 0.23398510860739519 0 0.62657463266645097 0.26524202571255862 0 0.5794309697024993 0.27124795968204829 0 0.34258405725730701 0.4444034294386992 0 0.31068898841644388 0.47541502461811092 0 0.29124338931648802 0.43334555462578611 0 0.38083244760691543 0.38531983672244652 0 0.35221190152536241 0.40457127605439203 0 0.33277555741076909 0.36432196682010132 0 0.083411279318375747 0.91030024466934134 0 0.10266856499240549 0.95548163909968886 0 0.053064897599294662 0.95186845269532028 0 0.083411279318303222 0.089699755330707398 0 0.053064897599215843 0.048131547304697528 0 0.10266856499169109 0.044518360900210059 0 0.42377727103934271 0.25099357235810238 0 0.4604742573284204 0.27846934318264788 0 0.41914690343363781 0.30688979866601612 0 0.28307294598219601 0.50789252727458634 0 0.25982634974572738 0.46097799597715272 0 0.31068898841644388 0.47541502461811092 0 0.29348325746214782 0.31350119524708198 0 0.29132859388405002 0.27203693976649962 0 0.33402499257867951 0.28911035184473982 0 0.35312867752657662 0.084946736076730367 0 0.39823268594401579 0.1116623613130045 0 0.36246644853392812 0.1399454205365751 0 0.7000000000006934 1 0 0.68015064798562208 0.95924320340003011 0 0.7250000000005199 0.94981617647078953 0 0.42377727103934271 0.25099357235810238 0 0.38831533174504851 0.2189834941785925 0 0.42905200079338551 0.19982395548231649 0 0.53823865529665704 0.45873898050322898 0 0.57744073070774993 0.41535148636609359 0 0.57975577671020095 0.46172033326338591 0 0.33758650185219202 0.23837101504325639 0 0.3572130504031617 0.1874703368446563 0 0.38831533174504851 0.2189834941785925 0 0.29124338931648802 0.43334555462578611 0 0.31068898841644388 0.47541502461811092 0 0.25982634974572738 0.46097799597715272 0 0.6084546825910605 0.37989672713932537 0 0.61959173890754571 0.33832250091341232 0 0.65481233915350323 0.35652751921065562 0 0.40326160981139969 0.73346192995102844 0 0.43323420005758778 0.6913544522562407 0 0.45582236402875981 0.73896743678908217 0 0.33758650185219202 0.23837101504325639 0 0.28040350263641872 0.23054717217092141 0 0.31255190597181792 0.19850845631528771 0 0.79999999999999982 1 0 0.75000000000034661 1 0 0.770759834363826 0.95919399014344442 0 0.74999999999999989 0.29999999999999999 0 0.77075983436335049 0.25919399014334171 0 0.79999999999999982 0.29999999999999999 0 0.6499999999999998 0.29999999999999999 0 0.67933712972090698 0.25920070958121938 0 0.69999999999999984 0.29999999999999999 0 0.39536230704883951 0.84069429572832477 0 0.39767323751400468 0.89584229130535065 0 0.35864759629805099 0.87963482415279515 0 0.54999999999999993 0.69999999999999996 0 0.52584555706968406 0.66664215091846768 0 0.57484956128872922 0.66573805030881994 0 0.35312867752657662 0.084946736076730367 0 0.32541448401678508 0.046215317981507749 0 0.3615861437013822 0.03582617922508851 0 0.35752321586431363 0.9185439911803448 0 0.36184234618600131 0.96443954459096326 0 0.32544832635163229 0.95485394099568932 0 0.35312867752657662 0.084946736076730367 0 0.3615861437013822 0.03582617922508851 0 0.39591832466117061 0.056982757562006353 0 0.35752321586431363 0.9185439911803448 0 0.39641108128798319 0.94356127926187128 0 0.36184234618600131 0.96443954459096326 0 0.083411279318303222 0.089699755330707398 0 0.044310582753132287 0.101412518374475 0 0.053064897599215843 0.048131547304697528 0 0.083411279318375747 0.91030024466934134 0 0.053064897599294662 0.95186845269532028 0 0.0443105827531413 0.89858748162559932 0 0.38083244760691543 0.38531983672244652 0 0.40076539126862748 0.34589349467022118 0 0.42161023666869668 0.39493916313643851 0 0.4409427642593301 0.35743108089689513 0 0.42161023666869668 0.39493916313643851 0 0.40076539126862748 0.34589349467022118 0 0.79999999999999982 0.29999999999999999 0 0.82500000000000062 0.33010209762754811 0 0.78145581580700685 0.34881365920033602 0 0.79999999999999982 0.69999999999999996 0 0.7750489929959945 0.66593931409600093 0 0.82457059160610424 0.66831947184359608 0 0.59999999999999976 0.69999999999999996 0 0.57484956128872922 0.66573805030881994 0 0.62460753523532009 0.66851202781000296 0 0.74999999999999989 0.69999999999999996 0 0.72500000000000064 0.67022701834392062 0 0.7750489929959945 0.66593931409600093 0 0.74999999999999989 0.29999999999999999 0 0.78145581580700685 0.34881365920033602 0 0.73090396928863699 0.33699297293167962 0 0.33758650185219202 0.23837101504325639 0 0.33402499257867951 0.28911035184473982 0 0.29132859388405002 0.27203693976649962 0 0.36575549820117997 0.31677992835137742 0 0.41914690343363781 0.30688979866601612 0 0.40076539126862748 0.34589349467022118 0 0.4409427642593301 0.35743108089689513 0 0.40076539126862748 0.34589349467022118 0 0.41914690343363781 0.30688979866601612 0 0.34258405725730701 0.4444034294386992 0 0.38707855792647411 0.42299362914874578 0 0.3908716102680424 0.47010282357248828 0 0.7000000000006934 1 0 0.65000000000104008 1 0 0.68015064798562208 0.95924320340003011 0 0.49102375406324739 0.49123754822244059 0 0.46111841286828259 0.46690301029591341 0 0.48858720058566618 0.43964267759203868 0 0.4656888918609538 0.78493261229743638 0 0.42676259796334498 0.76772545931379299 0 0.45582236402875981 0.73896743678908217 0 0.40326160981139969 0.73346192995102844 0 0.45582236402875981 0.73896743678908217 0 0.42676259796334498 0.76772545931379299 0 0.59999999999999976 0.29999999999999999 0 0.62657463266645097 0.26524202571255862 0 0.6499999999999998 0.29999999999999999 0 0.40000000000166441 1 0 0.36184234618600131 0.96443954459096326 0 0.39641108128798319 0.94356127926187128 0 0.3999999999989749 0 0 0.39591832466117061 0.056982757562006353 0 0.3615861437013822 0.03582617922508851 0 0.43249999999999988 0.43937499999999979 0 0.48858720058566618 0.43964267759203868 0 0.46111841286828259 0.46690301029591341 0 0.7250000000005199 0.89375000000045834 0 0.7250000000005199 0.94981617647078953 0 0.68987011941058407 0.92105047536677087 0 0.7250000000005199 0.89375000000045834 0 0.75729602384198635 0.92353652857884294 0 0.7250000000005199 0.94981617647078953 0 0.72500000000001008 0.19776155966387679 0 0.75668890529066124 0.2244279804069782 0 0.72500000000000064 0.2498161764706 0 0.72500000000001008 0.19776155966387679 0 0.72500000000000064 0.2498161764706 0 0.69397719155551807 0.2245125647000914 0 0.79999999999999982 0.29999999999999999 0 0.81486180804364938 0.26321394949780091 0 0.84999999999999987 0.29999999999999999 0 0.84999999999965292 1 0 0.79999999999999982 1 0 0.81486180804382891 0.96321394949790495 0 0.1247745017231483 0.27198077544791172 0 0.095326043202144745 0.24554465089224409 0 0.14377654328998779 0.2442024734791064 0 0.1215415378367805 0.72939333680004137 0 0.14335651144331049 0.75565258250209677 0 0.090953281884486245 0.7564451946902494 0 0.72500000000001008 0.19776155966387679 0 0.72634814642510737 0.16106886917518889 0 0.76587607630038135 0.18880039518954719 0 0.72500000000001008 0.19776155966387679 0 0.6865991819015953 0.189116534044597 0 0.72634814642510737 0.16106886917518889 0 0.77144070960558853 0.14311854477243749 0 0.76587607630038135 0.18880039518954719 0 0.72634814642510737 0.16106886917518889 0 0.68391457121233579 0.14440470121196541 0 0.72634814642510737 0.16106886917518889 0 0.6865991819015953 0.189116534044597 0 0.7250000000005199 0.89375000000045834 0 0.72863726579783861 0.85390518901155588 0 0.76891166905518427 0.88835469571185499 0 0.76901770135486491 0.84293557325473656 0 0.76891166905518427 0.88835469571185499 0 0.72863726579783861 0.85390518901155588 0 0 0.20000000000083221 0 0.038512288486115001 0.1844147282893184 0 0.044081577119474857 0.2271058242433576 0 0 0.79999999999999982 0 0.04408157711937423 0.7728941757575627 0 0.038512288486097702 0.8155852717111195 0 0.52375890611712683 0.059318771819432882 0 0.47881186583059909 0.093591717165689425 0 0.47040171442036788 0.044141676406503738 0 0.52122150208832174 0.94089974453840242 0 0.47135117303824892 0.95556877749289892 0 0.47401147028110507 0.91529957330468115 0 0.27474541102162192 0.11822029332053539 0 0.3096713403101819 0.085471541595262421 0 0.32215584939770009 0.1218492143506909 0 0.22278230690790279 0.44824268025881547 0 0.24049127783545701 0.41270748208749802 0 0.25982634974572738 0.46097799597715272 0 0.93732437411268477 0.55911392101136159 0 0.91143117093204207 0.58709913730335972 0 0.90900154012161016 0.53607784105648792 0 0.19901705110390991 0.9175543425573498 0 0.24536017905392571 0.90704567837671446 0 0.22850979588452081 0.95594428570238643 0 0.27609987656793722 0.94991445621608572 0 0.22850979588452081 0.95594428570238643 0 0.24536017905392571 0.90704567837671446 0 0.15720202157091859 0.60665697304410315 0 0.1241190223511371 0.64391885572885044 0 0.1024350934457823 0.60772393977513839 0 0.6499999999999998 0.69999999999999996 0 0.675261390228442 0.65996937624687813 0 0.69999999999999984 0.69999999999999996 0 0.3999999999989749 0 0 0.4320097814748517 0.037406712692169303 0 0.39591832466117061 0.056982757562006353 0 0.40000000000166441 1 0 0.39641108128798319 0.94356127926187128 0 0.4308986359464303 0.96395712492906194 0 0.54999999999999993 0.29999999999999999 0 0.56836770495988642 0.3523062350852913 0 0.52752007115234678 0.33170632466418198 0 0.14474682429600511 0.85524784522713515 0 0.17777405986036951 0.81832336108265358 0 0.19741632902693801 0.86755867406447229 0 0.21858834311891909 0.81980263716112767 0 0.19741632902693801 0.86755867406447229 0 0.17777405986036951 0.81832336108265358 0 0.54782696902220018 0.79245182748204157 0 0.50731287292894423 0.78963574450233831 0 0.50945740445113552 0.75476055527778108 0 0.20000000000083221 1 0 0.18474005699953849 0.96231585248064622 0 0.22850979588452081 0.95594428570238643 0 0.19999999999955789 0 0 0.22668068146512929 0.045875643423131329 0 0.184418230509967 0.038773194583122873 0 0.77846603114747959 0.49850927265137401 0 0.73947346780852752 0.49062440112282169 0 0.77972660463949339 0.45529290596363098 0 0.73483647259922602 0.44789725365921768 0 0.77972660463949339 0.45529290596363098 0 0.73947346780852752 0.49062440112282169 0 0.34258405725730701 0.4444034294386992 0 0.35024835142131061 0.48654922671676981 0 0.31068898841644388 0.47541502461811092 0 0.33123028043633618 0.77629643437932982 0 0.2792923945214143 0.77665808831789485 0 0.29904318922293632 0.74132814928635593 0 0.26573297623774761 0.59828298563722948 0 0.25115337790845271 0.54719303014923271 0 0.29110487519241501 0.56588143995431495 0 0.4656888918609538 0.78493261229743638 0 0.50945740445113552 0.75476055527778108 0 0.50731287292894423 0.78963574450233831 0 0.35312867752657662 0.084946736076730367 0 0.36246644853392812 0.1399454205365751 0 0.32215584939770009 0.1218492143506909 0 0.29348325746214782 0.31350119524708198 0 0.25966125648670141 0.34351016742083729 0 0.24432083401701241 0.3006253385567515 0 0.59999999999999976 0.69999999999999996 0 0.6499999999999998 0.69999999999999996 0 0.63221990677827677 0.73442891067859706 0 0.69999999999921003 0 0 0.7010294155333181 0.056779085686491267 0 0.66369801598854572 0.036327466368102787 0 0.40000000000166441 1 0 0.35000000000145642 1 0 0.36184234618600131 0.96443954459096326 0 0.34999999999912063 0 0 0.3999999999989749 0 0 0.3615861437013822 0.03582617922508851 0 0.43507373378304309 0.49699695397193322 0 0.47793794143994173 0.52940715638744962 0 0.42644501560315817 0.54603747078095544 0 0.14474682429600511 0.85524784522713515 0 0.19741632902693801 0.86755867406447229 0 0.16206583317966519 0.89685560785156404 0 0.19901705110390991 0.9175543425573498 0 0.16206583317966519 0.89685560785156404 0 0.19741632902693801 0.86755867406447229 0 0.35864735590330371 0.63903383440414463 0 0.3977710372045391 0.65868194622830212 0 0.36622285152418499 0.69092437780804039 0 0.7527966693318906 0.053051678021508272 0 0.7010294155333181 0.056779085686491267 0 0.72683645290270404 0.027797073151180601 0 0.71508799138962864 0.36622814920737751 0 0.72622533758026719 0.40265885511101601 0 0.68128176404677243 0.38629093627004979 0 0.79999999999999982 0.69999999999999996 0 0.84999999999999987 0.69999999999999996 0 0.81864958914779962 0.73589050177899629 0 0.79999999999947335 0 0 0.84999999999960507 0 0 0.81864958914740749 0.035890501779055867 0 0.39536230704883951 0.84069429572832477 0 0.35642984951668422 0.80994399665655703 0 0.38586766253264881 0.78219501014812498 0 0.42377727103934271 0.25099357235810238 0 0.46429753744194407 0.22870891180733599 0 0.4604742573284204 0.27846934318264788 0 0.39801143831225599 0.16651381068160659 0 0.42905200079338551 0.19982395548231649 0 0.38831533174504851 0.2189834941785925 0 0.79999999999999982 1 0 0.770759834363826 0.95919399014344442 0 0.81486180804382891 0.96321394949790495 0 0.79999999999999982 0.29999999999999999 0 0.77075983436335049 0.25919399014334171 0 0.81486180804364938 0.26321394949780091 0 0.25195515620380449 0.25883339815888678 0 0.21049769590865089 0.26857363548218488 0 0.224700362040408 0.22206622194729711 0 0.40326160981139969 0.73346192995102844 0 0.42676259796334498 0.76772545931379299 0 0.38586766253264881 0.78219501014812498 0 0.35312867752657662 0.084946736076730367 0 0.3096713403101819 0.085471541595262421 0 0.32541448401678508 0.046215317981507749 0 0.59999999999999976 0.29999999999999999 0 0.6499999999999998 0.29999999999999999 0 0.61959173890754571 0.33832250091341232 0 0.2185883431182947 0.18019736283949719 0 0.18652628422869419 0.14162325200928061 0 0.22985637510995899 0.1298347970200906 0 0.64999999999907843 0 0 0.69999999999921003 0 0 0.66369801598854572 0.036327466368102787 0 0.27499999999933927 0.060310814194988557 0 0.24218496799700481 0.089025544070598317 0 0.22668068146512929 0.045875643423131329 0 0.19922788606653311 0.085920220746880993 0 0.22668068146512929 0.045875643423131329 0 0.24218496799700481 0.089025544070598317 0 0.65507451745379841 0.92229208810758578 0 0.66412543161245952 0.88015090885499059 0 0.68987011941058407 0.92105047536677087 0 0.049706944316475897 0.72477277076253799 0 0.090953281884486245 0.7564451946902494 0 0.04408157711937423 0.7728941757575627 0 0.083105206071452636 0.79992298667296435 0 0.04408157711937423 0.7728941757575627 0 0.090953281884486245 0.7564451946902494 0 0.083105206071467416 0.20007701332709979 0 0.095326043202144745 0.24554465089224409 0 0.044081577119474857 0.2271058242433576 0 0.049706944316556423 0.27522722923869108 0 0.044081577119474857 0.2271058242433576 0 0.095326043202144745 0.24554465089224409 0 0.36575549820117997 0.31677992835137742 0 0.33402499257867951 0.28911035184473982 0 0.3786248352540974 0.27082301512024259 0 0.53245488764484505 0.55078124999999989 0 0.53330375813596242 0.50827942741749099 0 0.57435499076887508 0.54267261987897775 0 0.57611405284611883 0.50165903596042916 0 0.57435499076887508 0.54267261987897775 0 0.53330375813596242 0.50827942741749099 0 0.6499999999999998 0.29999999999999999 0 0.69999999999999984 0.29999999999999999 0 0.68887083591306764 0.33632058575757479 0 0.57611405284611883 0.50165903596042916 0 0.53823865529665704 0.45873898050322898 0 0.57975577671020095 0.46172033326338591 0 0.7750489929959945 0.66593931409600093 0 0.72500000000000064 0.67022701834392062 0 0.74994237037456724 0.62775548192980357 0 0.78145581580700685 0.34881365920033602 0 0.74764719760526988 0.3719647154012321 0 0.73090396928863699 0.33699297293167962 0 0.3999999999989749 0 0 0.44999999999882923 0 0 0.4320097814748517 0.037406712692169303 0 0.45000000000187229 1 0 0.40000000000166441 1 0 0.4308986359464303 0.96395712492906194 0 0.57484956128872922 0.66573805030881994 0 0.5991018319127801 0.62925360607495295 0 0.62460753523532009 0.66851202781000296 0 0.7750489929959945 0.66593931409600093 0 0.79884539758237771 0.62875045078114233 0 0.82457059160610424 0.66831947184359608 0 0.39801143831225599 0.16651381068160659 0 0.36246644853392812 0.1399454205365751 0 0.39823268594401579 0.1116623613130045 0 0.078358742472063481 0.43365249433908948 0 0.033550201249889847 0.46247875832467239 0 0.035463093262830522 0.42673416072819947 0 0.25676291524611189 0.7436741304886243 0 0.2792923945214143 0.77665808831789485 0 0.22556077506376701 0.77837424984191617 0 0.2236846579037573 0.67380363126050236 0 0.2248999640082178 0.72584299459689172 0 0.19068556247388771 0.71028988922845504 0 0.50715858906372158 0.63295939104129484 0 0.5166924242153631 0.59825134841919447 0 0.5498280205245758 0.6290146943450976 0 0.14618258501891079 0.062070108745602003 0 0.12372429750337779 0.095814237875728972 0 0.10266856499169109 0.044518360900210059 0 0.083411279318303222 0.089699755330707398 0 0.10266856499169109 0.044518360900210059 0 0.12372429750337779 0.095814237875728972 0 0.083411279318375747 0.91030024466934134 0 0.1241151115713819 0.9045666525468371 0 0.10266856499240549 0.95548163909968886 0 0.14617343800780541 0.93808063414349496 0 0.10266856499240549 0.95548163909968886 0 0.1241151115713819 0.9045666525468371 0 0.5499999999988151 0 0 0.59999999999894682 0 0 0.57396793757665954 0.037011367187645222 0 0.54782696902220018 0.79245182748204157 0 0.50627822638148745 0.8263979829520941 0 0.50731287292894423 0.78963574450233831 0 0.6499999999999998 0.29999999999999999 0 0.62657463266645097 0.26524202571255862 0 0.67933712972090698 0.25920070958121938 0 0.86956835336234861 0.571283299838105 0 0.86907294890112186 0.52008116128001669 0 0.90900154012161016 0.53607784105648792 0 0.17933913398461551 0.2350063570234002 0 0.224700362040408 0.22206622194729711 0 0.21049769590865089 0.26857363548218488 0 0.43249999999999988 0.43937499999999979 0 0.3908716102680424 0.47010282357248828 0 0.38707855792647411 0.42299362914874578 0 0.27474541102162192 0.11822029332053539 0 0.22985637510995899 0.1298347970200906 0 0.24218496799700481 0.089025544070598317 0 0.64753070846764316 0.77332939069435502 0 0.66427993341343905 0.73232764502436276 0 0.6916490518212759 0.75387992374886192 0 0 0.40000000000166441 0 0.050583896093752537 0.38543522283434112 0 0.035463093262830522 0.42673416072819947 0 0.73483647259922602 0.44789725365921768 0 0.73947346780852752 0.49062440112282169 0 0.69385896817107129 0.48377516041410151 0 0.57484956128872922 0.66573805030881994 0 0.52584555706968406 0.66664215091846768 0 0.5498280205245758 0.6290146943450976 0 0.60000000000138687 1 0 0.55000000000173355 1 0 0.57382506491224949 0.9629411906298494 0 0.068743045408989428 0.48853989837882689 0 0.085622222639554768 0.53333248912060549 0 0.044576108720083309 0.53509043209532614 0 0.083105206071467416 0.20007701332709979 0 0.044081577119474857 0.2271058242433576 0 0.038512288486115001 0.1844147282893184 0 0.083105206071452636 0.79992298667296435 0 0.038512288486097702 0.8155852717111195 0 0.04408157711937423 0.7728941757575627 0 0.28307294598219601 0.50789252727458634 0 0.23975172658309729 0.49475499200540818 0 0.25982634974572738 0.46097799597715272 0 0.43698630808430822 0.080423614171545449 0 0.39591832466117061 0.056982757562006353 0 0.4320097814748517 0.037406712692169303 0 0.4367309254023824 0.92065556789053882 0 0.4308986359464303 0.96395712492906194 0 0.39641108128798319 0.94356127926187128 0 0.80185942888539485 0.77452061303608133 0 0.75841349681148107 0.75422312624214749 0 0.78578450296893509 0.73292684821144505 0 0.80185942888501827 0.074520613036224564 0 0.7527966693318906 0.053051678021508272 0 0.78393852574753176 0.032039079577822822 0 0.6499999999999998 0.69999999999999996 0 0.62460753523532009 0.66851202781000296 0 0.675261390228442 0.65996937624687813 0 0.33123028043633618 0.77629643437932982 0 0.38586766253264881 0.78219501014812498 0 0.35642984951668422 0.80994399665655703 0 0.6405463747586706 0.63290524857395714 0 0.675261390228442 0.65996937624687813 0 0.62460753523532009 0.66851202781000296 0 0.22278230690790279 0.44824268025881547 0 0.191953871957803 0.42546416763755879 0 0.24049127783545701 0.41270748208749802 0 0.077693244765132896 0.56932317963405099 0 0.050069554451969707 0.61308520079857043 0 0.034381862692950467 0.57372682250960894 0 0.25195515620380449 0.25883339815888678 0 0.24432083401701241 0.3006253385567515 0 0.21049769590865089 0.26857363548218488 0 0.46666084890304671 0.57634471035397938 0 0.5166924242153631 0.59825134841919447 0 0.47095389620662098 0.61892551373708504 0 0.50715858906372158 0.63295939104129484 0 0.47095389620662098 0.61892551373708504 0 0.5166924242153631 0.59825134841919447 0 0.72525833953073282 0.1032114801687094 0 0.7527966693318906 0.053051678021508272 0 0.76878382444651716 0.097147941686331368 0 0.80185942888501827 0.074520613036224564 0 0.76878382444651716 0.097147941686331368 0 0.7527966693318906 0.053051678021508272 0 0.72500000000000064 0.7952620967744265 0 0.75841349681148107 0.75422312624214749 0 0.77094201086366854 0.79647480515688507 0 0.80185942888539485 0.77452061303608133 0 0.77094201086366854 0.79647480515688507 0 0.75841349681148107 0.75422312624214749 0 0.72500000000000064 0.7952620967744265 0 0.68024162096458085 0.79868546898116533 0 0.6916490518212759 0.75387992374886192 0 0.64753070846764316 0.77332939069435502 0 0.6916490518212759 0.75387992374886192 0 0.68024162096458085 0.79868546898116533 0 0 0.50000000000205869 0 0 0.45000000000187229 0 0.033550201249889847 0.46247875832467239 0 0.69999999999999984 0.69999999999999996 0 0.675261390228442 0.65996937624687813 0 0.72500000000000064 0.67022701834392062 0 0.71406021706547751 0.63292083137662503 0 0.72500000000000064 0.67022701834392062 0 0.675261390228442 0.65996937624687813 0 0.65408113592120842 0.073941773121567966 0 0.61940220174112337 0.047251958781050582 0 0.66369801598854572 0.036327466368102787 0 0.59999999999894682 0 0 0.61940220174112337 0.047251958781050582 0 0.57396793757665954 0.037011367187645222 0 0.60000000000138687 1 0 0.57382506491224949 0.9629411906298494 0 0.62065498684670595 0.95224934003983619 0 0.33122374654748771 0.57588941099433744 0 0.35765792684946668 0.6000687869219653 0 0.31502927232353312 0.6134992213375432 0 0.35864735590330371 0.63903383440414463 0 0.31502927232353312 0.6134992213375432 0 0.35765792684946668 0.6000687869219653 0 0.15801167086041079 0.46008690540259539 0 0.19604738184454831 0.47787523520405789 0 0.16618607197337229 0.50652878253548905 0 0.078358742472063481 0.43365249433908948 0 0.035463093262830522 0.42673416072819947 0 0.050583896093752537 0.38543522283434112 0 0.19901705110390991 0.9175543425573498 0 0.22850979588452081 0.95594428570238643 0 0.18474005699953849 0.96231585248064622 0 0.19922788606653311 0.085920220746880993 0 0.184418230509967 0.038773194583122873 0 0.22668068146512929 0.045875643423131329 0 0.19922788606653311 0.085920220746880993 0 0.24218496799700481 0.089025544070598317 0 0.22985637510995899 0.1298347970200906 0 0.74999999999999989 0.69999999999999996 0 0.78578450296893509 0.73292684821144505 0 0.75841349681148107 0.75422312624214749 0 0.74999999999934175 0 0 0.78393852574753176 0.032039079577822822 0 0.7527966693318906 0.053051678021508272 0 0 0.60000000000138687 0 0.034381862692950467 0.57372682250960894 0 0.050069554451969707 0.61308520079857043 0 0.2236846579037573 0.67380363126050236 0 0.26439878998046262 0.7048065392091396 0 0.2248999640082178 0.72584299459689172 0 0.6236733212988993 0.14864538214901801 0 0.58516465772821369 0.11653801664834119 0 0.61956000905586006 0.1043312481793135 0 0.26104540868854792 0.81401944968719064 0 0.2792923945214143 0.77665808831789485 0 0.30857225866488791 0.81101973481716805 0 0.42377727103934271 0.25099357235810238 0 0.42905200079338551 0.19982395548231649 0 0.46429753744194407 0.22870891180733599 0 0.27820712747429932 0.65530134213254643 0 0.31502927232353312 0.6134992213375432 0 0.32263089806001177 0.66003674931826484 0 0.61343887413683884 0.856862479058357 0 0.61885627562261258 0.90282959257498208 0 0.5832743223239254 0.88483152652961872 0 0.43698630808430822 0.080423614171545449 0 0.47040171442036788 0.044141676406503738 0 0.47881186583059909 0.093591717165689425 0 0.4367309254023824 0.92065556789053882 0 0.47401147028110507 0.91529957330468115 0 0.47135117303824892 0.95556877749289892 0 0.91696753777131557 0.497780560203536 0 0.95631871884947484 0.51827533208233789 0 0.90900154012161016 0.53607784105648792 0 0.93732437411268477 0.55911392101136159 0 0.90900154012161016 0.53607784105648792 0 0.95631871884947484 0.51827533208233789 0 0.27474541102162192 0.11822029332053539 0 0.25557216766470708 0.15874861286892261 0 0.22985637510995899 0.1298347970200906 0 0.2185883431182947 0.18019736283949719 0 0.22985637510995899 0.1298347970200906 0 0.25557216766470708 0.15874861286892261 0 0.29348325746214782 0.31350119524708198 0 0.33402499257867951 0.28911035184473982 0 0.32752639306529541 0.32610012995269699 0 0.27499999999933927 0.060310814194988557 0 0.32541448401678508 0.046215317981507749 0 0.3096713403101819 0.085471541595262421 0 0.27270076654418179 0.87751467830216623 0 0.24536017905392571 0.90704567837671446 0 0.2401283238295133 0.85648409884788523 0 1 0.44999999999963131 0 1 0.49999999999950101 0 0.96228564064454991 0.48206450662049471 0 0.61343887413683884 0.856862479058357 0 0.66412543161245952 0.88015090885499059 0 0.61885627562261258 0.90282959257498208 0 0 0.45000000000187229 0 0 0.40000000000166441 0 0.035463093262830522 0.42673416072819947 0 0.69999999999999984 0.69999999999999996 0 0.6916490518212759 0.75387992374886192 0 0.66427993341343905 0.73232764502436276 0 0.43846182030517877 0.64845797726506715 0 0.43323420005758778 0.6913544522562407 0 0.3977710372045391 0.65868194622830212 0 0.4367309254023824 0.92065556789053882 0 0.44003836461056539 0.88093474584252718 0 0.47401147028110507 0.91529957330468115 0 0.43846182030517877 0.64845797726506715 0 0.39743091024207589 0.6239520004230239 0 0.43545892161006339 0.61093128915313821 0 0.43846182030517877 0.64845797726506715 0 0.3977710372045391 0.65868194622830212 0 0.39743091024207589 0.6239520004230239 0 0.26429849586623999 0.19346700179430079 0 0.29336099386129338 0.15892013001050981 0 0.31255190597181792 0.19850845631528771 0 0.19670163708476801 0.31472518408333222 0 0.21049769590865089 0.26857363548218488 0 0.24432083401701241 0.3006253385567515 0 0.57724883562309992 0.92155686857100794 0 0.62065498684670595 0.95224934003983619 0 0.57382506491224949 0.9629411906298494 0 0.4409427642593301 0.35743108089689513 0 0.46655310992796922 0.39650496622958609 0 0.42161023666869668 0.39493916313643851 0 0.46666084890304671 0.57634471035397938 0 0.47095389620662098 0.61892551373708504 0 0.43545892161006339 0.61093128915313821 0 0.6879972333610942 0.43038561374960838 0 0.65178832218679827 0.45929119821019959 0 0.63912439215427275 0.41063340167983359 0 0.43698630808430822 0.080423614171545449 0 0.4320097814748517 0.037406712692169303 0 0.47040171442036788 0.044141676406503738 0 0.4367309254023824 0.92065556789053882 0 0.47135117303824892 0.95556877749289892 0 0.4308986359464303 0.96395712492906194 0 0.79680861578988083 0.92656778056766709 0 0.81486180804382891 0.96321394949790495 0 0.770759834363826 0.95919399014344442 0 0.79680861578956375 0.22656778056752541 0 0.81486180804364938 0.26321394949780091 0 0.77075983436335049 0.25919399014334171 0 0.71508799138962864 0.36622814920737751 0 0.68128176404677243 0.38629093627004979 0 0.68887083591306764 0.33632058575757479 0 0.35864735590330371 0.63903383440414463 0 0.32263089806001177 0.66003674931826484 0 0.31502927232353312 0.6134992213375432 0 0.21858834311891909 0.81980263716112767 0 0.2401283238295133 0.85648409884788523 0 0.19741632902693801 0.86755867406447229 0 0.35312867752657662 0.084946736076730367 0 0.32215584939770009 0.1218492143506909 0 0.3096713403101819 0.085471541595262421 0 0.35752321586431363 0.9185439911803448 0 0.35864759629805099 0.87963482415279515 0 0.39767323751400468 0.89584229130535065 0 0.41914690343363781 0.30688979866601612 0 0.4604742573284204 0.27846934318264788 0 0.46226845272279993 0.31901800744800313 0 0.33084213324567391 0.16272720141332131 0 0.32215584939770009 0.1218492143506909 0 0.36246644853392812 0.1399454205365751 0 0.46666084890304671 0.57634471035397938 0 0.42644501560315817 0.54603747078095544 0 0.47793794143994173 0.52940715638744962 0 0 0.60000000000138687 0 0 0.55000000000173355 0 0.034381862692950467 0.57372682250960894 0 0.77354604466818633 0.40378688774472771 0 0.74764719760526988 0.3719647154012321 0 0.78145581580700685 0.34881365920033602 0 0.34999999999912063 0 0 0.3615861437013822 0.03582617922508851 0 0.32541448401678508 0.046215317981507749 0 0.35000000000145642 1 0 0.32544832635163229 0.95485394099568932 0 0.36184234618600131 0.96443954459096326 0 0.57667858002728545 0.078486105337742612 0 0.57396793757665954 0.037011367187645222 0 0.61940220174112337 0.047251958781050582 0 0.47357141910802508 0.1873585799078378 0 0.50760557329222289 0.20700468884612061 0 0.46429753744194407 0.22870891180733599 0 0.49695729691142171 0.25014895411178018 0 0.46429753744194407 0.22870891180733599 0 0.50760557329222289 0.20700468884612061 0 0.33084213324567391 0.16272720141332131 0 0.3572130504031617 0.1874703368446563 0 0.31255190597181792 0.19850845631528771 0 0.6879972333610942 0.43038561374960838 0 0.63912439215427275 0.41063340167983359 0 0.68128176404677243 0.38629093627004979 0 0.65408113592120842 0.073941773121567966 0 0.65290632656860115 0.11434202593454081 0 0.61956000905586006 0.1043312481793135 0 0.33084213324567391 0.16272720141332131 0 0.31255190597181792 0.19850845631528771 0 0.29336099386129338 0.15892013001050981 0 0.61209567303293111 0.44669033081290321 0 0.63912439215427275 0.41063340167983359 0 0.65178832218679827 0.45929119821019959 0 0.086179601630648681 0.64647209519980475 0 0.1024350934457823 0.60772393977513839 0 0.1241190223511371 0.64391885572885044 0 0.44999999999882923 0 0 0.47040171442036788 0.044141676406503738 0 0.4320097814748517 0.037406712692169303 0 0.45000000000187229 1 0 0.4308986359464303 0.96395712492906194 0 0.47135117303824892 0.95556877749289892 0 0.74999999999934175 0 0 0.7527966693318906 0.053051678021508272 0 0.72683645290270404 0.027797073151180601 0 0.74999999999999989 0.69999999999999996 0 0.75841349681148107 0.75422312624214749 0 0.72501250972655151 0.74067302935308721 0 0.69999999999999984 0.69999999999999996 0 0.72501250972655151 0.74067302935308721 0 0.6916490518212759 0.75387992374886192 0 0.74999999999934175 0 0 0.79999999999947335 0 0 0.78393852574753176 0.032039079577822822 0 0.74999999999999989 0.69999999999999996 0 0.79999999999999982 0.69999999999999996 0 0.78578450296893509 0.73292684821144505 0 0.6405463747586706 0.63290524857395714 0 0.5991018319127801 0.62925360607495295 0 0.63065402604362242 0.59661356661633302 0 0.65481233915350323 0.35652751921065562 0 0.68887083591306764 0.33632058575757479 0 0.68128176404677243 0.38629093627004979 0 0.89999999999999991 0.29999999999999999 0 0.94999999999999996 0.29999999999999999 0 0.92012390126144183 0.33123581297173937 0 0.89999999999999991 0.69999999999999996 0 0.92057473616084773 0.66770436535372446 0 0.94999999999999996 0.69999999999999996 0 0.4367309254023824 0.92065556789053882 0 0.39767323751400468 0.89584229130535065 0 0.44003836461056539 0.88093474584252718 0 0.2185883431182947 0.18019736283949719 0 0.18124454140915969 0.18790916706335251 0 0.18652628422869419 0.14162325200928061 0 0.20050006573841939 0.53248514016039872 0 0.19604738184454831 0.47787523520405789 0 0.23975172658309729 0.49475499200540818 0 0.65507451745379841 0.92229208810758578 0 0.61885627562261258 0.90282959257498208 0 0.66412543161245952 0.88015090885499059 0 0.65394964615507722 0.22666784374016369 0 0.67933712972090698 0.25920070958121938 0 0.62657463266645097 0.26524202571255862 0 0.077693244765132896 0.56932317963405099 0 0.034381862692950467 0.57372682250960894 0 0.044576108720083309 0.53509043209532614 0 0.39801143831225599 0.16651381068160659 0 0.38831533174504851 0.2189834941785925 0 0.3572130504031617 0.1874703368446563 0 0.6499999999999998 0.69999999999999996 0 0.69999999999999984 0.69999999999999996 0 0.66427993341343905 0.73232764502436276 0 0.1215415378367805 0.72939333680004137 0 0.15332765547575641 0.71200081858233666 0 0.14335651144331049 0.75565258250209677 0 0.6405463747586706 0.63290524857395714 0 0.63065402604362242 0.59661356661633302 0 0.67529834988829951 0.61613270668143583 0 0.67323294229744413 0.57556450033612505 0 0.67529834988829951 0.61613270668143583 0 0.63065402604362242 0.59661356661633302 0 0.91750694127107502 0.36982372220068471 0 0.87430060258887643 0.34056085888204451 0 0.92012390126144183 0.33123581297173937 0 0.89999999999999991 0.29999999999999999 0 0.92012390126144183 0.33123581297173937 0 0.87430060258887643 0.34056085888204451 0 0.89999999999999991 0.69999999999999996 0 0.87712158428786946 0.65709029563313581 0 0.92057473616084773 0.66770436535372446 0 0.91750694127105259 0.63017627779935648 0 0.92057473616084773 0.66770436535372446 0 0.87712158428786946 0.65709029563313581 0 0.33122374654748771 0.57588941099433744 0 0.29110487519241501 0.56588143995431495 0 0.33190227185843768 0.52715113583864037 0 0.57484956128872922 0.66573805030881994 0 0.5498280205245758 0.6290146943450976 0 0.5991018319127801 0.62925360607495295 0 0.57412547362576272 0.58273804879550706 0 0.5991018319127801 0.62925360607495295 0 0.5498280205245758 0.6290146943450976 0 0.65408113592120842 0.073941773121567966 0 0.66369801598854572 0.036327466368102787 0 0.7010294155333181 0.056779085686491267 0 0.27474541102162192 0.11822029332053539 0 0.32215584939770009 0.1218492143506909 0 0.29336099386129338 0.15892013001050981 0 0.33084213324567391 0.16272720141332131 0 0.29336099386129338 0.15892013001050981 0 0.32215584939770009 0.1218492143506909 0 0.5 0.29999999999999999 0 0.54999999999999993 0.29999999999999999 0 0.52752007115234678 0.33170632466418198 0 0.83573492347052902 0.36590755630746369 0 0.87430060258887643 0.34056085888204451 0 0.86844634540301924 0.38530937474099819 0 0.83758014339878906 0.63222013025741819 0 0.87159648282691515 0.61285406320581504 0 0.87712158428786946 0.65709029563313581 0 0.22278230690790279 0.44824268025881547 0 0.23975172658309729 0.49475499200540818 0 0.19604738184454831 0.47787523520405789 0 1 0.49999999999950101 0 0.95631871884947484 0.51827533208233789 0 0.96228564064454991 0.48206450662049471 0 0.1650278706801647 0.38791388161335733 0 0.13773355295499351 0.42497777642586831 0 0.1117088112799664 0.38831403004970022 0 0.61209567303293111 0.44669033081290321 0 0.57975577671020095 0.46172033326338591 0 0.57744073070774993 0.41535148636609359 0 0.077693244765132896 0.56932317963405099 0 0.1154888278694548 0.56733818459978413 0 0.1024350934457823 0.60772393977513839 0 0.68697391633157634 0.84450604838764298 0 0.65005442820240822 0.82644988530054031 0 0.68024162096458085 0.79868546898116533 0 0.76901770135486491 0.84293557325473656 0 0.77094201086366854 0.79647480515688507 0 0.80041942726660109 0.81543261647703358 0 0.77144070960558853 0.14311854477243749 0 0.76878382444651716 0.097147941686331368 0 0.80076557130237269 0.1154587552654202 0 0.5 0.69999999999999996 0 0.52584555706968406 0.66664215091846768 0 0.54999999999999993 0.69999999999999996 0 0.077693244765132896 0.56932317963405099 0 0.044576108720083309 0.53509043209532614 0 0.085622222639554768 0.53333248912060549 0 0.69999999999921003 0 0 0.72683645290270404 0.027797073151180601 0 0.7010294155333181 0.056779085686491267 0 1 0 0 0.97166519676946894 0.033371144900598393 0 0.94999999999986839 0 0 1 0.69999999999999996 0 0.97166519676947294 0.73337114490064459 0 0.94999999999999996 0.69999999999999996 0 1 0.69999999999999996 0 1 0.74999999999993494 0 0.97166519676947294 0.73337114490064459 0 1 0.29999999999999999 0 0.97166519676951801 0.26662885509932011 0 1 0.24999999999987299 0 1 1 0 0.94999999999979179 1 0 0.97166519676946206 0.96662885509935492 0 1 0 0 1 0.049999999999896842 0 0.97166519676946894 0.033371144900598393 0 1 0.29999999999999999 0 0.94999999999999996 0.29999999999999999 0 0.97166519676951801 0.26662885509932011 0 1 1 0 0.97166519676946206 0.96662885509935492 0 1 0.94999999999997109 0 0 0.55000000000173355 0 0.044576108720083309 0.53509043209532614 0 0.034381862692950467 0.57372682250960894 0 0.6879972333610942 0.43038561374960838 0 0.69385896817107129 0.48377516041410151 0 0.65178832218679827 0.45929119821019959 0 0.33084213324567391 0.16272720141332131 0 0.36246644853392812 0.1399454205365751 0 0.3572130504031617 0.1874703368446563 0 0.65408113592120842 0.073941773121567966 0 0.68330259535470161 0.10038702501083881 0 0.65290632656860115 0.11434202593454081 0 0.16500388252850301 0.66612077714085194 0 0.19068556247388771 0.71028988922845504 0 0.15332765547575641 0.71200081858233666 0 0.82709327591091286 0.84937141670920724 0 0.85600844944837662 0.88483418979512773 0 0.81159157511211755 0.88795995483179491 0 0.82709327591102189 0.14937141670914489 0 0.85600844944842547 0.1848341897950983 0 0.81283102246527783 0.1881007222486438 0 0.79999999999999982 0.29999999999999999 0 0.84999999999999987 0.29999999999999999 0 0.82500000000000062 0.33010209762754811 0 0.79999999999999982 0.69999999999999996 0 0.82457059160610424 0.66831947184359608 0 0.84999999999999987 0.69999999999999996 0 0.59999999999999976 0.69999999999999996 0 0.62460753523532009 0.66851202781000296 0 0.6499999999999998 0.69999999999999996 0 0.39801143831225599 0.16651381068160659 0 0.3572130504031617 0.1874703368446563 0 0.36246644853392812 0.1399454205365751 0 0.69999999999999984 0.29999999999999999 0 0.74999999999999989 0.29999999999999999 0 0.73090396928863699 0.33699297293167962 0 0.69999999999999984 0.69999999999999996 0 0.72500000000000064 0.67022701834392062 0 0.74999999999999989 0.69999999999999996 0 0.6236733212988993 0.14864538214901801 0 0.64011864159029941 0.18789607982138171 0 0.59443395090188023 0.18455690917515069 0 0.20050006573841939 0.53248514016039872 0 0.16618607197337229 0.50652878253548905 0 0.19604738184454831 0.47787523520405789 0 0.79680861578956375 0.22656778056752541 0 0.76587607630038135 0.18880039518954719 0 0.81283102246527783 0.1881007222486438 0 0.79680861578988083 0.92656778056766709 0 0.76891166905518427 0.88835469571185499 0 0.81159157511211755 0.88795995483179491 0 0.71406021706547751 0.63292083137662503 0 0.675261390228442 0.65996937624687813 0 0.67529834988829951 0.61613270668143583 0 0.6405463747586706 0.63290524857395714 0 0.67529834988829951 0.61613270668143583 0 0.675261390228442 0.65996937624687813 0 0.19670163708476801 0.31472518408333222 0 0.168349569971391 0.28054490850913671 0 0.21049769590865089 0.26857363548218488 0 0.47357141910802508 0.1873585799078378 0 0.46429753744194407 0.22870891180733599 0 0.42905200079338551 0.19982395548231649 0 0.59814117807200873 0.23398510860739519 0 0.5794309697024993 0.27124795968204829 0 0.54248833945060504 0.2520322959927106 0 0.6541250972820879 0.49999999999999989 0 0.65178832218679827 0.45929119821019959 0 0.69385896817107129 0.48377516041410151 0 0.54999999999999993 0.29999999999999999 0 0.5794309697024993 0.27124795968204829 0 0.59999999999999976 0.29999999999999999 0 0.7750489929959945 0.66593931409600093 0 0.74994237037456724 0.62775548192980357 0 0.79884539758237771 0.62875045078114233 0 0.77293540622714185 0.59448302402785813 0 0.79884539758237771 0.62875045078114233 0 0.74994237037456724 0.62775548192980357 0 0.14332333627550789 0.14578431753966009 0 0.16141998738593399 0.10404039647458049 0 0.18652628422869419 0.14162325200928061 0 0.38083244760691543 0.38531983672244652 0 0.42161023666869668 0.39493916313643851 0 0.38707855792647411 0.42299362914874578 0 0.43249999999999988 0.43937499999999979 0 0.38707855792647411 0.42299362914874578 0 0.42161023666869668 0.39493916313643851 0 0.43846182030517877 0.64845797726506715 0 0.47095389620662098 0.61892551373708504 0 0.47913475093885149 0.66010775372412711 0 0.50715858906372158 0.63295939104129484 0 0.47913475093885149 0.66010775372412711 0 0.47095389620662098 0.61892551373708504 0 0.69999999999999984 0.69999999999999996 0 0.74999999999999989 0.69999999999999996 0 0.72501250972655151 0.74067302935308721 0 0.4089290844030305 0.58728915500154233 0 0.35765792684946668 0.6000687869219653 0 0.37272913873093971 0.56192925302619479 0 0.69999999999921003 0 0 0.74999999999934175 0 0 0.72683645290270404 0.027797073151180601 0 0.17933913398461551 0.2350063570234002 0 0.21049769590865089 0.26857363548218488 0 0.168349569971391 0.28054490850913671 0 0.14474682429600511 0.85524784522713515 0 0.10562472963403439 0.87143394428979881 0 0.1074251789111534 0.83564394292147814 0 0.14332333627550789 0.14578431753966009 0 0.106902708054812 0.16453234188234539 0 0.1053400320299198 0.12877248826361379 0 0.2236846579037573 0.67380363126050236 0 0.19914261668318661 0.62286739485272158 0 0.2459498854893499 0.63248470766216769 0 0.049999999999899652 0 0 0.053064897599215843 0.048131547304697528 0 0.02576622439977887 0.024532886826226379 0 0 0.050000000000207989 0 0.02576622439977887 0.024532886826226379 0 0.053064897599215843 0.048131547304697528 0 0.050000000000207989 1 0 0.025766224399875661 0.97546711317377799 0 0.053064897599294662 0.95186845269532028 0 0 0.94999999999979179 0 0.053064897599294662 0.95186845269532028 0 0.025766224399875661 0.97546711317377799 0 0.47357141910802508 0.1873585799078378 0 0.48466639505193998 0.1421439844745814 0 0.51729576145820033 0.1683240575987815 0 0.077693244765132896 0.56932317963405099 0 0.085622222639554768 0.53333248912060549 0 0.1154888278694548 0.56733818459978413 0 0.64753070846764316 0.77332939069435502 0 0.63221990677827677 0.73442891067859706 0 0.66427993341343905 0.73232764502436276 0 0.4656888918609538 0.78493261229743638 0 0.42609163930740518 0.80361684430568059 0 0.42676259796334498 0.76772545931379299 0 0.4089290844030305 0.58728915500154233 0 0.39743091024207589 0.6239520004230239 0 0.35765792684946668 0.6000687869219653 0 0.55306006949600994 0.20198184231352201 0 0.50760557329222289 0.20700468884612061 0 0.51729576145820033 0.1683240575987815 0 1 0.8999999999998336 0 1 0.94999999999997109 0 0.97435614836744289 0.92499999999990257 0 1 0.19999999999974799 0 1 0.24999999999987299 0 0.97435614836740092 0.22499999999981049 0 1 0.74999999999993494 0 1 0.7999999999998193 0 0.97435614836745565 0.77499999999987745 0 1 0.049999999999896842 0 1 0.099999999999753911 0 0.97435614836748241 0.074999999999825387 0 0.86411095495256451 0.42388805655111889 0 0.86844634540301924 0.38530937474099819 0 0.90594285160987287 0.4141265964174129 0 0.86956835336234861 0.571283299838105 0 0.91143117093204207 0.58709913730335972 0 0.87159648282691515 0.61285406320581504 0 0 0 0 0.02576622439977887 0.024532886826226379 0 0 0.050000000000207989 0 0 1 0 0 0.94999999999979179 0 0.025766224399875661 0.97546711317377799 0 0 1 0 0.025766224399875661 0.97546711317377799 0 0.050000000000207989 1 0 0 0 0 0.049999999999899652 0 0 0.02576622439977887 0.024532886826226379 0 0.65394964615507722 0.22666784374016369 0 0.64011864159029941 0.18789607982138171 0 0.6865991819015953 0.189116534044597 0 0.25195515620380449 0.25883339815888678 0 0.28040350263641872 0.23054717217092141 0 0.29132859388405002 0.27203693976649962 0 0.61209567303293111 0.44669033081290321 0 0.65178832218679827 0.45929119821019959 0 0.61547661924074692 0.48539576058873962 0 0.6541250972820879 0.49999999999999989 0 0.61547661924074692 0.48539576058873962 0 0.65178832218679827 0.45929119821019959 0 0.19670163708476801 0.31472518408333222 0 0.24432083401701241 0.3006253385567515 0 0.22615676742807109 0.33458786033114157 0 0.15801167086041079 0.46008690540259539 0 0.13773355295499351 0.42497777642586831 0 0.191953871957803 0.42546416763755879 0 0.1650278706801647 0.38791388161335733 0 0.191953871957803 0.42546416763755879 0 0.13773355295499351 0.42497777642586831 0 0.50715858906372158 0.63295939104129484 0 0.52584555706968406 0.66664215091846768 0 0.47913475093885149 0.66010775372412711 0 0.5 0.69999999999999996 0 0.47913475093885149 0.66010775372412711 0 0.52584555706968406 0.66664215091846768 0 0.51076801031701946 0.1202837388510348 0 0.51729576145820033 0.1683240575987815 0 0.48466639505193998 0.1421439844745814 0 0.71406021706547751 0.63292083137662503 0 0.74994237037456724 0.62775548192980357 0 0.72500000000000064 0.67022701834392062 0 0.71508799138962864 0.36622814920737751 0 0.73090396928863699 0.33699297293167962 0 0.74764719760526988 0.3719647154012321 0 0.22278230690790279 0.44824268025881547 0 0.25982634974572738 0.46097799597715272 0 0.23975172658309729 0.49475499200540818 0 0.80185942888539485 0.77452061303608133 0 0.78578450296893509 0.73292684821144505 0 0.81864958914779962 0.73589050177899629 0 0.80185942888501827 0.074520613036224564 0 0.78393852574753176 0.032039079577822822 0 0.81864958914740749 0.035890501779055867 0 0.5 0.29999999999999999 0 0.46226845272279993 0.31901800744800313 0 0.4604742573284204 0.27846934318264788 0 0.6405463747586706 0.63290524857395714 0 0.62460753523532009 0.66851202781000296 0 0.5991018319127801 0.62925360607495295 0 0.79680861578988083 0.92656778056766709 0 0.770759834363826 0.95919399014344442 0 0.75729602384198635 0.92353652857884294 0 0.79680861578956375 0.22656778056752541 0 0.77075983436335049 0.25919399014334171 0 0.75668890529066124 0.2244279804069782 0 0.65394964615507722 0.22666784374016369 0 0.69397719155551807 0.2245125647000914 0 0.67933712972090698 0.25920070958121938 0 0.81973119833356312 0.43505687159469048 0 0.84925632466077294 0.45359738909549091 0 0.81400510706333218 0.47357325943904899 0 0.83758014339878906 0.63222013025741819 0 0.82457059160610424 0.66831947184359608 0 0.79884539758237771 0.62875045078114233 0 0.25676291524611189 0.7436741304886243 0 0.2248999640082178 0.72584299459689172 0 0.26439878998046262 0.7048065392091396 0 0.91696753777131557 0.497780560203536 0 0.90900154012161016 0.53607784105648792 0 0.86907294890112186 0.52008116128001669 0 0.17933913398461551 0.2350063570234002 0 0.168349569971391 0.28054490850913671 0 0.14377654328998779 0.2442024734791064 0 0.1247745017231483 0.27198077544791172 0 0.14377654328998779 0.2442024734791064 0 0.168349569971391 0.28054490850913671 0 0.34258405725730701 0.4444034294386992 0 0.35221190152536241 0.40457127605439203 0 0.38707855792647411 0.42299362914874578 0 0.47357141910802508 0.1873585799078378 0 0.51729576145820033 0.1683240575987815 0 0.50760557329222289 0.20700468884612061 0 0.19670163708476801 0.31472518408333222 0 0.22615676742807109 0.33458786033114157 0 0.18434624290945251 0.35208838264196463 0 0.22033343844674469 0.36963382230740238 0 0.18434624290945251 0.35208838264196463 0 0.22615676742807109 0.33458786033114157 0 0.24432083401701241 0.3006253385567515 0 0.25966125648670141 0.34351016742083729 0 0.22615676742807109 0.33458786033114157 0 0.93814194660195893 0.44426664081746747 0 0.90594285160987287 0.4141265964174129 0 0.95871855522754235 0.40006508612975411 0 0.91750694127107502 0.36982372220068471 0 0.95871855522754235 0.40006508612975411 0 0.90594285160987287 0.4141265964174129 0 0.91750694127105259 0.63017627779935648 0 0.91143117093204207 0.58709913730335972 0 0.95867599106212187 0.60011091146651041 0 0.93732437411268477 0.55911392101136159 0 0.95867599106212187 0.60011091146651041 0 0.91143117093204207 0.58709913730335972 0 0.50715858906372158 0.63295939104129484 0 0.5498280205245758 0.6290146943450976 0 0.52584555706968406 0.66664215091846768 0 0.94399509803918602 0.75600490196082126 0 0.97435614836745565 0.77499999999987745 0 0.95386563387742829 0.80414874155775029 0 0.94399509803922566 0.056004901960802607 0 0.97435614836748241 0.074999999999825387 0 0.95386563387744361 0.1041487415577465 0 0.94399509803921056 0.24399509803922639 0 0.95391631417672862 0.19584263333809451 0 0.97435614836740092 0.22499999999981049 0 0.94399509803919068 0.9439950980391687 0 0.95391631417670719 0.89584263333814784 0 0.97435614836744289 0.92499999999990257 0 0.79680861578988083 0.92656778056766709 0 0.75729602384198635 0.92353652857884294 0 0.76891166905518427 0.88835469571185499 0 0.79680861578956375 0.22656778056752541 0 0.75668890529066124 0.2244279804069782 0 0.76587607630038135 0.18880039518954719 0 0.65394964615507722 0.22666784374016369 0 0.6865991819015953 0.189116534044597 0 0.69397719155551807 0.2245125647000914 0 0.38083244760691543 0.38531983672244652 0 0.38707855792647411 0.42299362914874578 0 0.35221190152536241 0.40457127605439203 0 1 0.7999999999998193 0 0.95386563387742829 0.80414874155775029 0 0.97435614836745565 0.77499999999987745 0 1 0.099999999999753911 0 0.95386563387744361 0.1041487415577465 0 0.97435614836748241 0.074999999999825387 0 1 0.8999999999998336 0 0.97435614836744289 0.92499999999990257 0 0.95391631417670719 0.89584263333814784 0 1 0.19999999999974799 0 0.97435614836740092 0.22499999999981049 0 0.95391631417672862 0.19584263333809451 0 0.84723782639812573 0.48638347960178252 0 0.81400510706333218 0.47357325943904899 0 0.84925632466077294 0.45359738909549091 0 0.54999999999999993 0.29999999999999999 0 0.54248833945060504 0.2520322959927106 0 0.5794309697024993 0.27124795968204829 0 0.94999999999999996 0.29999999999999999 0 0.95780851984364423 0.34215720972155339 0 0.92012390126144183 0.33123581297173937 0 0.94999999999999996 0.69999999999999996 0 0.92057473616084773 0.66770436535372446 0 0.9578014258160763 0.65787212321113708 0 0.15801167086041079 0.46008690540259539 0 0.113541300460994 0.46208784312094731 0 0.13773355295499351 0.42497777642586831 0 0.7250000000005199 0.94981617647078953 0 0.68015064798562208 0.95924320340003011 0 0.68987011941058407 0.92105047536677087 0 0.65507451745379841 0.92229208810758578 0 0.68987011941058407 0.92105047536677087 0 0.68015064798562208 0.95924320340003011 0 0.77846603114747959 0.49850927265137401 0 0.77972660463949339 0.45529290596363098 0 0.81400510706333218 0.47357325943904899 0 0.27866744612395528 0.38416094670951489 0 0.25966125648670141 0.34351016742083729 0 0.29644548887253103 0.34914008784168082 0 0.61209567303293111 0.44669033081290321 0 0.61547661924074692 0.48539576058873962 0 0.57975577671020095 0.46172033326338591 0 0.57611405284611883 0.50165903596042916 0 0.57975577671020095 0.46172033326338591 0 0.61547661924074692 0.48539576058873962 0 0.7250000000005199 0.89375000000045834 0 0.76891166905518427 0.88835469571185499 0 0.75729602384198635 0.92353652857884294 0 0.72500000000001008 0.19776155966387679 0 0.76587607630038135 0.18880039518954719 0 0.75668890529066124 0.2244279804069782 0 0.72500000000001008 0.19776155966387679 0 0.69397719155551807 0.2245125647000914 0 0.6865991819015953 0.189116534044597 0 0.083411279318303222 0.089699755330707398 0 0.12372429750337779 0.095814237875728972 0 0.1053400320299198 0.12877248826361379 0 0.083411279318375747 0.91030024466934134 0 0.10562472963403439 0.87143394428979881 0 0.1241151115713819 0.9045666525468371 0 0.14617343800780541 0.93808063414349496 0 0.1241151115713819 0.9045666525468371 0 0.16206583317966519 0.89685560785156404 0 0.14618258501891079 0.062070108745602003 0 0.16141998738593399 0.10404039647458049 0 0.12372429750337779 0.095814237875728972 0 0.33277555741076909 0.36432196682010132 0 0.35221190152536241 0.40457127605439203 0 0.31778888742534622 0.40581751814196781 0 0.7250000000005199 0.94981617647078953 0 0.75729602384198635 0.92353652857884294 0 0.770759834363826 0.95919399014344442 0 0.72500000000000064 0.2498161764706 0 0.75668890529066124 0.2244279804069782 0 0.77075983436335049 0.25919399014334171 0 0.72500000000000064 0.2498161764706 0 0.67933712972090698 0.25920070958121938 0 0.69397719155551807 0.2245125647000914 0 0.6236733212988993 0.14864538214901801 0 0.61956000905586006 0.1043312481793135 0 0.65290632656860115 0.11434202593454081 0 0.81973119833356312 0.43505687159469048 0 0.81400510706333218 0.47357325943904899 0 0.77972660463949339 0.45529290596363098 0 0.25676291524611189 0.7436741304886243 0 0.29904318922293632 0.74132814928635593 0 0.2792923945214143 0.77665808831789485 0 0.36575549820117997 0.31677992835137742 0 0.32752639306529541 0.32610012995269699 0 0.33402499257867951 0.28911035184473982 0 0.14332333627550789 0.14578431753966009 0 0.18652628422869419 0.14162325200928061 0 0.18124454140915969 0.18790916706335251 0 0.57724883562309992 0.92155686857100794 0 0.5832743223239254 0.88483152652961872 0 0.61885627562261258 0.90282959257498208 0 0.57667858002728545 0.078486105337742612 0 0.61956000905586006 0.1043312481793135 0 0.58516465772821369 0.11653801664834119 0 0.80185942888539485 0.77452061303608133 0 0.80041942726660109 0.81543261647703358 0 0.77094201086366854 0.79647480515688507 0 0.80185942888501827 0.074520613036224564 0 0.80076557130237269 0.1154587552654202 0 0.76878382444651716 0.097147941686331368 0 0.64753070846764316 0.77332939069435502 0 0.68024162096458085 0.79868546898116533 0 0.65005442820240822 0.82644988530054031 0 0.26429849586623999 0.19346700179430079 0 0.25557216766470708 0.15874861286892261 0 0.29336099386129338 0.15892013001050981 0 0.29348325746214782 0.31350119524708198 0 0.29644548887253103 0.34914008784168082 0 0.25966125648670141 0.34351016742083729 0 0.68391457121233579 0.14440470121196541 0 0.65290632656860115 0.11434202593454081 0 0.68330259535470161 0.10038702501083881 0 0.91750694127107502 0.36982372220068471 0 0.92012390126144183 0.33123581297173937 0 0.95780851984364423 0.34215720972155339 0 0.91750694127105259 0.63017627779935648 0 0.9578014258160763 0.65787212321113708 0 0.92057473616084773 0.66770436535372446 0 0.22033343844674469 0.36963382230740238 0 0.22615676742807109 0.33458786033114157 0 0.25966125648670141 0.34351016742083729 0 1 0.94999999999997109 0 0.97166519676946206 0.96662885509935492 0 0.97435614836744289 0.92499999999990257 0 0.94399509803919068 0.9439950980391687 0 0.97435614836744289 0.92499999999990257 0 0.97166519676946206 0.96662885509935492 0 0.94399509803921056 0.24399509803922639 0 0.97435614836740092 0.22499999999981049 0 0.97166519676951801 0.26662885509932011 0 1 0.24999999999987299 0 0.97166519676951801 0.26662885509932011 0 0.97435614836740092 0.22499999999981049 0 1 0.74999999999993494 0 0.97435614836745565 0.77499999999987745 0 0.97166519676947294 0.73337114490064459 0 1 0.049999999999896842 0 0.97435614836748241 0.074999999999825387 0 0.97166519676946894 0.033371144900598393 0 0.94399509803918602 0.75600490196082126 0 0.97166519676947294 0.73337114490064459 0 0.97435614836745565 0.77499999999987745 0 0.94399509803922566 0.056004901960802607 0 0.97166519676946894 0.033371144900598393 0 0.97435614836748241 0.074999999999825387 0 0.77846603114747959 0.49850927265137401 0 0.81400510706333218 0.47357325943904899 0 0.81441713509985358 0.51161854125224959 0 0.77354604466818633 0.40378688774472771 0 0.72622533758026719 0.40265885511101601 0 0.74764719760526988 0.3719647154012321 0 0.71508799138962864 0.36622814920737751 0 0.74764719760526988 0.3719647154012321 0 0.72622533758026719 0.40265885511101601 0 0.84723782639812573 0.48638347960178252 0 0.84925632466077294 0.45359738909549091 0 0.88594198078881503 0.46167788676578442 0 0.86411095495256451 0.42388805655111889 0 0.88594198078881503 0.46167788676578442 0 0.84925632466077294 0.45359738909549091 0 0.43846182030517877 0.64845797726506715 0 0.43545892161006339 0.61093128915313821 0 0.47095389620662098 0.61892551373708504 0 0.33123028043633618 0.77629643437932982 0 0.35642984951668422 0.80994399665655703 0 0.30857225866488791 0.81101973481716805 0 0.33403534827021109 0.84402799729020661 0 0.30857225866488791 0.81101973481716805 0 0.35642984951668422 0.80994399665655703 0 0.26429849586623999 0.19346700179430079 0 0.31255190597181792 0.19850845631528771 0 0.28040350263641872 0.23054717217092141 0 0.57724883562309992 0.92155686857100794 0 0.54783390826260769 0.89287767010860219 0 0.5832743223239254 0.88483152652961872 0 0.55899371797446828 0.85003102233514438 0 0.5832743223239254 0.88483152652961872 0 0.54783390826260769 0.89287767010860219 0 0.4089290844030305 0.58728915500154233 0 0.43545892161006339 0.61093128915313821 0 0.39743091024207589 0.6239520004230239 0 0.77293540622714185 0.59448302402785813 0 0.81723410853263523 0.59419663659258926 0 0.79884539758237771 0.62875045078114233 0 0.83758014339878906 0.63222013025741819 0 0.79884539758237771 0.62875045078114233 0 0.81723410853263523 0.59419663659258926 0 0.35864735590330371 0.63903383440414463 0 0.39743091024207589 0.6239520004230239 0 0.3977710372045391 0.65868194622830212 0 0.56202748619534593 0.15054058349222879 0 0.54979595918804436 0.1060565713905809 0 0.58516465772821369 0.11653801664834119 0 0.57667858002728545 0.078486105337742612 0 0.58516465772821369 0.11653801664834119 0 0.54979595918804436 0.1060565713905809 0 0.33122374654748771 0.57588941099433744 0 0.37272913873093971 0.56192925302619479 0 0.35765792684946668 0.6000687869219653 0 0.35864735590330371 0.63903383440414463 0 0.35765792684946668 0.6000687869219653 0 0.39743091024207589 0.6239520004230239 0 0.71508799138962864 0.36622814920737751 0 0.68887083591306764 0.33632058575757479 0 0.73090396928863699 0.33699297293167962 0 0.29348325746214782 0.31350119524708198 0 0.32752639306529541 0.32610012995269699 0 0.29644548887253103 0.34914008784168082 0 0.33277555741076909 0.36432196682010132 0 0.29644548887253103 0.34914008784168082 0 0.32752639306529541 0.32610012995269699 0 0.34258405725730701 0.4444034294386992 0 0.31778888742534622 0.40581751814196781 0 0.35221190152536241 0.40457127605439203 0 0.79999999999999982 0.69999999999999996 0 0.81864958914779962 0.73589050177899629 0 0.78578450296893509 0.73292684821144505 0 0.79999999999947335 0 0 0.81864958914740749 0.035890501779055867 0 0.78393852574753176 0.032039079577822822 0 0.27474541102162192 0.11822029332053539 0 0.29336099386129338 0.15892013001050981 0 0.25557216766470708 0.15874861286892261 0 0 0.45000000000187229 0 0.035463093262830522 0.42673416072819947 0 0.033550201249889847 0.46247875832467239 0 0.6499999999999998 0.69999999999999996 0 0.66427993341343905 0.73232764502436276 0 0.63221990677827677 0.73442891067859706 0 0.84723782639812573 0.48638347960178252 0 0.81441713509985358 0.51161854125224959 0 0.81400510706333218 0.47357325943904899 0 0.26104540868854792 0.81401944968719064 0 0.30857225866488791 0.81101973481716805 0 0.29209212897034281 0.84715728365233667 0 0.33403534827021109 0.84402799729020661 0 0.29209212897034281 0.84715728365233667 0 0.30857225866488791 0.81101973481716805 0 0.69999999999999984 0.29999999999999999 0 0.73090396928863699 0.33699297293167962 0 0.68887083591306764 0.33632058575757479 0 
</DataArray>
</Points>
<Cells>
<DataArray type="UInt32" Name="connectivity" format="ascii">
0 1 2 3 4 5 6 7 8 9 10 11 12 13 14 15 16 17 18 19 20 21 22 23 24 25 26 27 28 29 30 31 32 33 34 35 36 37 38 39 40 41 42 43 44 45 46 47 48 49 50 51 52 53 54 55 56 57 58 59 60 61 62 63 64 65 66 67 68 69 70 71 72 73 74 75 76 77 78 79 80 81 82 83 84 85 86 87 88 89 90 91 92 93 94 95 96 97 98 99 100 101 102 103 104 105 106 107 108 109 110 111 112 113 114 115 116 117 118 119 120 121 122 123 124 125 126 127 128 129 130 131 132 133 134 135 136 137 138 139 140 141 142 143 144 145 146 147 148 149 150 151 152 153 154 155 156 157 158 159 160 161 162 163 164 165 166 167 168 169 170 171 172 173 174 175 176 177 178 179 180 181 182 183 184 185 186 187 188 189 190 191 192 193 194 195 196 197 198 199 200 201 202 203 204 205 206 207 208 209 210 211 212 213 214 215 216 217 218 219 220 221 222 223 224 225 226 227 228 229 230 231 232 233 234 235 236 237 238 239 240 241 242 243 244 245 246 247 248 249 250 251 252 253 254 255 256 257 258 259 260 261 262 263 264 265 266 267 268 269 270 271 272 273 274 275 276 277 278 279 280 281 282 283 284 285 286 287 288 289 290 291 292 293 294 295 296 297 298 299 300 301 302 303 304 305 306 307 308 309 310 311 312 313 314 315 316 317 318 319 320 321 322 323 324 325 326 327 328 329 330 331 332 333 334 335 336 337 338 339 340 341 342 343 344 345 346 347 348 349 350 351 352 353 354 355 356 357 358 359 360 361 362 363 364 365 366 367 368 369 370 371 372 373 374 375 376 377 378 379 380 381 382 383 384 385 386 387 388 389 390 391 392 393 394 395 396 397 398 399 400 401 402 403 404 405 406 407 408 409 410 411 412 413 414 415 416 417 418 419 420 421 422 423 424 425 426 427 428 429 430 431 432 433 434 435 436 437 438 439 440 441 442 443 444 445 446 447 448 449 450 451 452 453 454 455 456 457 458 459 460 461 462 463 464 465 466 467 468 469 470 471 472 473 474 475 476 477 478 479 480 481 482 483 484 485 486 487 488 489 490 491 492 493 494 495 496 497 498 499 500 501 502 503 504 505 506 507 508 509 510 511 512 513 514 515 516 517 518 519 520 521 522 523 524 525 526 527 528 529 530 531 532 533 534 535 536 537 538 539 540 541 542 543 544 545 546 547 548 549 550 551 552 553 554 555 556 557 558 559 560 561 562 563 564 565 566 567 568 569 570 571 572 573 574 575 576 577 578 579 580 581 582 583 584 585 586 587 588 589 590 591 592 593 594 595 596 597 598 599 600 601 602 603 604 605 606 607 608 609 610 611 612 613 614 615 616 617 618 619 620 621 622 623 624 625 626 627 628 629 630 631 632 633 634 635 636 637 638 639 640 641 642 643 644 645 646 647 648 649 650 651 652 653 654 655 656 657 658 659 660 661 662 663 664 665 666 667 668 669 670 671 672 673 674 675 676 677 678 679 680 681 682 683 684 685 686 687 688 689 690 691 692 693 694 695 696 697 698 699 700 701 702 703 704 705 706 707 708 709 710 711 712 713 714 715 716 717 718 719 720 721 722 723 724 725 726 727 728 729 730 731 732 733 734 735 736 737 738 739 740 741 742 743 744 745 746 747 748 749 750 751 752 753 754 755 756 757 758 759 760 761 762 763 764 765 766 767 768 769 770 771 772 773 774 775 776 777 778 779 780 781 782 783 784 785 786 787 788 789 790 791 792 793 794 795 796 797 798 799 800 801 802 803 804 805 806 807 808 809 810 811 812 813 814 815 816 817 818 819 820 821 822 823 824 825 826 827 828 829 830 831 832 833 834 835 836 837 838 839 840 841 842 843 844 845 846 847 848 849 850 851 852 853 854 855 856 857 858 859 860 861 862 863 864 865 866 867 868 869 870 871 872 873 874 875 876 877 878 879 880 881 882 883 884 885 886 887 888 889 890 891 892 893 894 895 896 897 898 899 900 901 902 903 904 905 906 907 908 909 910 911 912 913 914 915 916 917 918 919 920 921 922 923 924 925 926 927 928 929 930 931 932 933 934 935 936 937 938 939 940 941 942 943 944 945 946 947 948 949 950 951 952 953 954 955 956 957 958 959 960 961 962 963 964 965 966 967 968 969 970 971 972 973 974 975 976 977 978 979 980 981 982 983 984 985 986 987 988 989 990 991 992 993 994 995 996 997 998 999 1000 1001 1002 1003 1004 1005 1006 1007 1008 1009 1010 1011 1012 1013 1014 1015 1016 1017 1018 1019 1020 1021 1022 1023 1024 1025 1026 1027 1028 1029 1030 1031 1032 1033 1034 1035 1036 1037 1038 1039 1040 1041 1042 1043 1044 1045 1046 1047 1048 1049 1050 1051 1052 1053 1054 1055 1056 1057 1058 1059 1060 1061 1062 1063 1064 1065 1066 1067 1068 1069 1070 1071 1072 1073 1074 1075 1076 1077 1078 1079 1080 1081 1082 1083 1084 1085 1086 1087 1088 1089 1090 1091 1092 1093 1094 1095 1096 1097 1098 1099 1100 1101 1102 1103 1104 1105 1106 1107 1108 1109 1110 1111 1112 1113 1114 1115 1116 1117 1118 1119 1120 1121 1122 1123 1124 1125 1126 1127 1128 1129 1130 1131 1132 1133 1134 1135 1136 1137 1138 1139 1140 1141 1142 1143 1144 1145 1146 1147 1148 1149 1150 1151 1152 1153 1154 1155 1156 1157 1158 1159 1160 1161 1162 1163 1164 1165 1166 1167 1168 1169 1170 1171 1172 1173 1174 1175 1176 1177 1178 1179 1180 1181 1182 1183 1184 1185 1186 1187 1188 1189 1190 1191 1192 1193 1194 1195 1196 1197 1198 1199 1200 1201 1202 1203 1204 1205 1206 1207 1208 1209 1210 1211 1212 1213 1214 1215 1216 1217 1218 1219 1220 1221 1222 1223 1224 1225 1226 1227 1228 1229 1230 1231 1232 1233 1234 1235 1236 1237 1238 1239 1240 1241 1242 1243 1244 1245 1246 1247 1248 1249 1250 1251 1252 1253 1254 1255 1256 1257 1258 1259 1260 1261 1262 1263 1264 1265 1266 1267 1268 1269 1270 1271 1272 1273 1274 1275 1276 1277 1278 1279 1280 1281 1282 1283 1284 1285 1286 1287 1288 1289 1290 1291 1292 1293 1294 1295 1296 1297 1298 1299 1300 1301 1302 1303 1304 1305 1306 1307 1308 1309 1310 1311 1312 1313 1314 1315 1316 1317 1318 1319 1320 1321 1322 1323 1324 1325 1326 1327 1328 1329 1330 1331 1332 1333 1334 1335 1336 1337 1338 1339 1340 1341 1342 1343 1344 1345 1346 1347 1348 1349 1350 1351 1352 1353 1354 1355 1356 1357 1358 1359 1360 1361 1362 1363 1364 1365 1366 1367 1368 1369 1370 1371 1372 1373 1374 1375 1376 1377 1378 1379 1380 1381 1382 1383 1384 1385 1386 1387 1388 1389 1390 1391 1392 1393 1394 1395 1396 1397 1398 1399 1400 1401 1402 1403 1404 1405 1406 1407 1408 1409 1410 1411 1412 1413 1414 1415 1416 1417 1418 1419 1420 1421 1422 1423 1424 1425 1426 1427 1428 1429 1430 1431 1432 1433 1434 1435 1436 1437 1438 1439 1440 1441 1442 1443 1444 1445 1446 1447 1448 1449 1450 1451 1452 1453 1454 1455 1456 1457 1458 1459 1460 1461 1462 1463 1464 1465 1466 1467 1468 1469 1470 1471 1472 1473 1474 1475 1476 1477 1478 1479 1480 1481 1482 1483 1484 1485 1486 1487 1488 1489 1490 1491 1492 1493 1494 1495 1496 1497 1498 1499 1500 1501 1502 1503 1504 1505 1506 1507 1508 1509 1510 1511 1512 1513 1514 1515 1516 1517 1518 1519 1520 1521 1522 1523 1524 1525 1526 1527 1528 1529 1530 1531 1532 1533 1534 1535 1536 1537 1538 1539 1540 1541 1542 1543 1544 1545 1546 1547 1548 1549 1550 1551 1552 1553 1554 1555 1556 1557 1558 1559 1560 1561 1562 1563 1564 1565 1566 1567 1568 1569 1570 1571 1572 1573 1574 1575 1576 1577 1578 1579 1580 1581 1582 1583 1584 1585 1586 1587 1588 1589 1590 1591 1592 1593 1594 1595 1596 1597 1598 1599 1600 1601 1602 1603 1604 1605 1606 1607 1608 1609 1610 1611 1612 1613 1614 1615 1616 1617 1618 1619 1620 1621 1622 1623 1624 1625 1626 1627 1628 1629 1630 1631 1632 1633 1634 1635 1636 1637 1638 1639 1640 1641 1642 1643 1644 1645 1646 1647 1648 1649 1650 1651 1652 1653 1654 1655 1656 1657 1658 1659 1660 1661 1662 1663 1664 1665 1666 1667 1668 1669 1670 1671 1672 1673 1674 1675 1676 1677 1678 1679 1680 1681 1682 1683 1684 1685 1686 1687 1688 1689 1690 1691 1692 1693 1694 1695 1696 1697 1698 1699 1700 1701 1702 1703 1704 1705 1706 1707 1708 1709 1710 1711 1712 1713 1714 1715 1716 1717 1718 1719 1720 1721 1722 1723 1724 1725 1726 1727 1728 1729 1730 1731 1732 1733 1734 1735 1736 1737 1738 1739 1740 1741 1742 1743 1744 1745 1746 1747 1748 1749 1750 1751 1752 1753 1754 1755 1756 1757 1758 1759 1760 1761 1762 1763 1764 1765 1766 1767 1768 1769 1770 1771 1772 1773 1774 1775 1776 1777 1778 1779 1780 1781 1782 1783 1784 1785 1786 1787 1788 1789 1790 1791 1792 1793 1794 1795 1796 1797 1798 1799 1800 1801 1802 1803 1804 1805 1806 1807 1808 1809 1810 1811 1812 1813 1814 1815 1816 1817 1818 1819 1820 1821 1822 1823 1824 1825 1826 1827 1828 1829 1830 1831 1832 1833 1834 1835 1836 1837 1838 1839 1840 1841 1842 1843 1844 1845 1846 1847 1848 1849 1850 1851 1852 1853 1854 1855 1856 1857 1858 1859 1860 1861 1862 1863 1864 1865 1866 1867 1868 1869 1870 1871 1872 1873 1874 1875 1876 1877 1878 1879 1880 1881 1882 1883 1884 1885 1886 1887 1888 1889 1890 1891 1892 1893 1894 1895 1896 1897 1898 1899 1900 1901 1902 1903 1904 1905 1906 1907 1908 1909 1910 1911 1912 1913 1914 1915 1916 1917 1918 1919 1920 1921 1922 1923 1924 1925 1926 1927 1928 1929 1930 1931 1932 1933 1934 1935 1936 1937 1938 1939 1940 1941 1942 1943 1944 1945 1946 1947 1948 1949 1950 1951 1952 1953 1954 1955 1956 1957 1958 1959 1960 1961 1962 1963 1964 1965 1966 1967 1968 1969 1970 1971 1972 1973 1974 1975 1976 1977 1978 1979 1980 1981 1982 1983 1984 1985 1986 1987 1988 1989 1990 1991 1992 1993 1994 1995 1996 1997 1998 1999 2000 2001 2002 2003 2004 2005 2006 2007 2008 2009 2010 2011 2012 2013 2014 2015 2016 2017 2018 2019 2020 2021 2022 2023 2024 2025 2026 2027 2028 2029 2030 2031 2032 2033 2034 2035 2036 2037 2038 2039 2040 2041 2042 2043 2044 2045 2046 2047 2048 2049 2050 2051 2052 2053 2054 2055 2056 2057 2058 2059 2060 2061 2062 2063 2064 2065 2066 2067 2068 2069 2070 2071 2072 2073 2074 2075 2076 2077 2078 2079 2080 2081 2082 2083 2084 2085 2086 2087 2088 2089 2090 2091 2092 2093 2094 2095 2096 2097 2098 2099 2100 2101 2102 2103 2104 2105 2106 2107 2108 2109 2110 2111 2112 2113 2114 2115 2116 2117 2118 2119 2120 2121 2122 2123 2124 2125 2126 2127 2128 2129 2130 2131 2132 2133 2134 2135 2136 2137 2138 2139 2140 2141 2142 2143 2144 2145 2146 2147 2148 2149 2150 2151 2152 2153 2154 2155 2156 2157 2158 2159 2160 2161 2162 2163 2164 2165 2166 2167 2168 2169 2170 2171 2172 2173 2174 2175 2176 2177 2178 2179 2180 2181 2182 2183 2184 2185 2186 2187 2188 2189 2190 2191 2192 2193 2194 2195 2196 2197 2198 2199 2200 2201 2202 2203 2204 2205 2206 2207 2208 2209 2210 2211 2212 2213 2214 2215 2216 2217 2218 2219 2220 2221 2222 2223 2224 2225 2226 2227 2228 2229 2230 2231 2232 2233 2234 2235 2236 2237 2238 2239 2240 2241 2242 2243 2244 2245 2246 2247 2248 2249 2250 2251 2252 2253 2254 2255 2256 2257 2258 2259 2260 2261 2262 2263 2264 2265 2266 2267 2268 2269 2270 2271 2272 2273 2274 2275 2276 2277 2278 2279 2280 2281 2282 2283 2284 2285 2286 2287 2288 2289 2290 2291 2292 2293 2294 2295 2296 2297 2298 2299 2300 2301 2302 2303 2304 2305 2306 2307 2308 2309 2310 2311 2312 2313 2314 2315 2316 2317 2318 2319 2320 2321 2322 2323 2324 2325 2326 2327 2328 2329 2330 2331 2332 2333 2334 2335 2336 2337 2338 2339 2340 2341 2342 2343 2344 2345 2346 2347 2348 2349 2350 2351 2352 2353 2354 2355 2356 2357 2358 2359 2360 2361 2362 2363 2364 2365 2366 2367 2368 2369 2370 2371 2372 2373 2374 2375 2376 2377 2378 2379 2380 2381 2382 2383 2384 2385 2386 2387 2388 2389 2390 2391 2392 2393 2394 2395 2396 2397 2398 2399 2400 2401 2402 2403 2404 2405 2406 2407 2408 2409 2410 2411 2412 2413 2414 2415 2416 2417 2418 2419 2420 2421 2422 2423 2424 2425 2426 2427 2428 2429 2430 2431 2432 2433 2434 2435 2436 2437 2438 2439 2440 2441 2442 2443 2444 2445 2446 2447 2448 2449 2450 2451 2452 2453 2454 2455 2456 2457 2458 2459 2460 2461 2462 2463 2464 2465 2466 2467 2468 2469 2470 2471 2472 2473 2474 2475 2476 2477 2478 2479 2480 2481 2482 2483 2484 2485 2486 2487 2488 2489 2490 2491 2492 2493 2494 2495 2496 2497 2498 2499 2500 2501 2502 2503 2504 2505 2506 2507 2508 2509 2510 2511 2512 2513 2514 2515 2516 2517 2518 2519 2520 2521 2522 2523 2524 2525 2526 2527 2528 2529 2530 2531 2532 2533 2534 2535 2536 2537 2538 2539 2540 2541 2542 2543 2544 2545 2546 2547 2548 2549 2550 2551 2552 2553 2554 2555 2556 2557 2558 2559 2560 2561 2562 2563 2564 2565 2566 2567 2568 2569 2570 2571 2572 2573 2574 2575 2576 2577 2578 2579 2580 2581 2582 2583 2584 2585 2586 2587 2588 2589 2590 2591 2592 2593 2594 2595 2596 2597 2598 2599 2600 2601 2602 2603 2604 2605 2606 2607 2608 2609 2610 2611 2612 2613 2614 2615 2616 2617 2618 2619 2620 2621 2622 2623 2624 2625 2626 2627 2628 2629 2630 2631 2632 2633 2634 2635 2636 2637 2638 2639 2640 2641 2642 2643 2644 2645 2646 2647 2648 2649 2650 2651 2652 2653 2654 2655 2656 2657 2658 2659 2660 2661 2662 2663 2664 2665 2666 2667 2668 2669 2670 2671 2672 2673 2674 2675 2676 2677 2678 2679 2680 2681 2682 2683 2684 2685 2686 2687 2688 2689 2690 2691 2692 2693 2694 2695 2696 2697 2698 2699 2700 2701 2702 2703 2704 2705 2706 2707 2708 2709 2710 2711 2712 2713 2714 2715 2716 2717 2718 2719 2720 2721 2722 2723 2724 2725 2726 2727 2728 2729 2730 2731 2732 2733 2734 2735 2736 2737 2738 2739 2740 2741 2742 2743 2744 2745 2746 2747 2748 2749 2750 2751 2752 2753 2754 2755 2756 2757 2758 2759 2760 2761 2762 2763 2764 2765 2766 2767 2768 2769 2770 2771 2772 2773 2774 2775 2776 2777 2778 2779 2780 2781 2782 2783 2784 2785 2786 2787 2788 2789 2790 2791 2792 2793 2794 2795 2796 2797 2798 2799 2800 2801 2802 2803 2804 2805 2806 2807 2808 2809 2810 2811 2812 2813 2814 2815 2816 2817 2818 2819 2820 2821 2822 2823 2824 2825 2826 2827 2828 2829 2830 2831 2832 2833 2834 2835 2836 2837 2838 2839 2840 2841 2842 2843 2844 2845 2846 2847 2848 2849 2850 2851 2852 2853 2854 2855 2856 2857 2858 2859 2860 2861 2862 2863 2864 2865 2866 2867 2868 2869 2870 2871 2872 2873 2874 2875 2876 2877 2878 2879 2880 2881 2882 2883 2884 2885 2886 2887 2888 2889 2890 2891 2892 2893 2894 2895 2896 2897 2898 2899 2900 2901 2902 2903 2904 2905 2906 2907 2908 2909 2910 2911 2912 2913 2914 2915 2916 2917 2918 2919 2920 2921 2922 2923 2924 2925 2926 2927 2928 2929 2930 2931 2932 2933 2934 2935 2936 2937 2938 2939 2940 2941 2942 2943 2944 2945 2946 2947 2948 2949 2950 2951 2952 2953 2954 2955 2956 2957 2958 2959 2960 2961 2962 2963 2964 2965 2966 2967 2968 2969 2970 2971 2972 2973 2974 2975 2976 2977 2978 2979 2980 2981 2982 2983 2984 2985 2986 2987 2988 2989 2990 2991 2992 2993 2994 2995 2996 2997 2998 2999 3000 3001 3002 3003 3004 3005 3006 3007 3008 3009 3010 3011 3012 3013 3014 3015 3016 3017 3018 3019 3020 3021 3022 3023 3024 3025 3026 3027 3028 3029 3030 3031 3032 3033 3034 3035 3036 3037 3038 3039 3040 3041 3042 3043 3044 3045 3046 3047 3048 3049 3050 3051 3052 3053 3054 3055 3056 3057 3058 3059 3060 3061 3062 3063 3064 3065 3066 3067 3068 3069 3070 3071 3072 3073 3074 3075 3076 3077 3078 3079 3080 3081 3082 3083 3084 3085 3086 3087 3088 3089 3090 3091 3092 3093 3094 3095 3096 3097 3098 3099 3100 3101 3102 3103 3104 3105 3106 3107 3108 3109 3110 3111 3112 3113 3114 3115 3116 3117 3118 3119 3120 3121 3122 3123 3124 3125 3126 3127 3128 3129 3130 3131 3132 3133 3134 3135 3136 3137 3138 3139 3140 3141 
</DataArray>
<DataArray type="UInt32" Name="offsets" format="ascii">
2 4 6 8 10 12 14 16 18 20 22 24 26 28 30 32 34 36 38 40 43 46 49 52 55 58 61 64 67 70 73 76 79 82 85 88 91 94 97 100 103 106 109 112 115 118 121 124 127 130 133 136 139 142 145 148 151 154 157 160 163 166 169 172 175 178 181 184 187 190 193 196 199 202 205 208 211 214 217 220 223 226 229 232 235 238 241 244 247 250 253 256 259 262 265 268 271 274 277 280 283 286 289 292 295 298 301 304 307 310 313 316 319 322 325 328 331 334 337 340 343 346 349 352 355 358 361 364 367 370 373 376 379 382 385 388 391 394 397 400 403 406 409 412 415 418 421 424 427 430 433 436 439 442 445 448 451 454 457 460 463 466 469 472 475 478 481 484 487 490 493 496 499 502 505 508 511 514 517 520 523 526 529 532 535 538 541 544 547 550 553 556 559 562 565 568 571 574 577 580 583 586 589 592 595 598 601 604 607 610 613 616 619 622 625 628 631 634 637 640 643 646 649 652 655 658 661 664 667 670 673 676 679 682 685 688 691 694 697 700 703 706 709 712 715 718 721 724 727 730 733 736 739 742 745 748 751 754 757 760 763 766 769 772 775 778 781 784 787 790 793 796 799 802 805 808 811 814 817 820 823 826 829 832 835 838 841 844 847 850 853 856 859 862 865 868 871 874 877 880 883 886 889 892 895 898 901 904 907 910 913 916 919 922 925 928 931 934 937 940 943 946 949 952 955 958 961 964 967 970 973 976 979 982 985 988 991 994 997 1000 1003 1006 1009 1012 1015 1018 1021 1024 1027 1030 1033 1036 1039 1042 1045 1048 1051 1054 1057 1060 1063 1066 1069 1072 1075 1078 1081 1084 1087 1090 1093 1096 1099 1102 1105 1108 1111 1114 1117 1120 1123 1126 1129 1132 1135 1138 1141 1144 1147 1150 1153 1156 1159 1162 1165 1168 1171 1174 1177 1180 1183 1186 1189 1192 1195 1198 1201 1204 1207 1210 1213 1216 1219 1222 1225 1228 1231 1234 1237 1240 1243 1246 1249 1252 1255 1258 1261 1264 1267 1270 1273 1276 1279 1282 1285 1288 1291 1294 1297 1300 1303 1306 1309 1312 1315 1318 1321 1324 1327 1330 1333 1336 1339 1342 1345 1348 1351 1354 1357 1360 1363 1366 1369 1372 1375 1378 1381 1384 1387 1390 1393 1396 1399 1402 1405 1408 1411 1414 1417 1420 1423 1426 1429 1432 1435 1438 1441 1444 1447 1450 1453 1456 1459 1462 1465 1468 1471 1474 1477 1480 1483 1486 1489 1492 1495 1498 1501 1504 1507 1510 1513 1516 1519 1522 1525 1528 1531 1534 1537 1540 1543 1546 1549 1552 1555 1558 1561 1564 1567 1570 1573 1576 1579 1582 1585 1588 1591 1594 1597 1600 1603 1606 1609 1612 1615 1618 1621 1624 1627 1630 1633 1636 1639 1642 1645 1648 1651 1654 1657 1660 1663 1666 1669 1672 1675 1678 1681 1684 1687 1690 1693 1696 1699 1702 1705 1708 1711 1714 1717 1720 1723 1726 1729 1732 1735 1738 1741 1744 1747 1750 1753 1756 1759 1762 1765 1768 1771 1774 1777 1780 1783 1786 1789 1792 1795 1798 1801 1804 1807 1810 1813 1816 1819 1822 1825 1828 1831 1834 1837 1840 1843 1846 1849 1852 1855 1858 1861 1864 1867 1870 1873 1876 1879 1882 1885 1888 1891 1894 1897 1900 1903 1906 1909 1912 1915 1918 1921 1924 1927 1930 1933 1936 1939 1942 1945 1948 1951 1954 1957 1960 1963 1966 1969 1972 1975 1978 1981 1984 1987 1990 1993 1996 1999 2002 2005 2008 2011 2014 2017 2020 2023 2026 2029 2032 2035 2038 2041 2044 2047 2050 2053 2056 2059 2062 2065 2068 2071 2074 2077 2080 2083 2086 2089 2092 2095 2098 2101 2104 2107 2110 2113 2116 2119 2122 2125 2128 2131 2134 2137 2140 2143 2146 2149 2152 2155 2158 2161 2164 2167 2170 2173 2176 2179 2182 2185 2188 2191 2194 2197 2200 2203 2206 2209 2212 2215 2218 2221 2224 2227 2230 2233 2236 2239 2242 2245 2248 2251 2254 2257 2260 2263 2266 2269 2272 2275 2278 2281 2284 2287 2290 2293 2296 2299 2302 2305 2308 2311 2314 2317 2320 2323 2326 2329 2332 2335 2338 2341 2344 2347 2350 2353 2356 2359 2362 2365 2368 2371 2374 2377 2380 2383 2386 2389 2392 2395 2398 2401 2404 2407 2410 2413 2416 2419 2422 2425 2428 2431 2434 2437 2440 2443 2446 2449 2452 2455 2458 2461 2464 2467 2470 2473 2476 2479 2482 2485 2488 2491 2494 2497 2500 2503 2506 2509 2512 2515 2518 2521 2524 2527 2530 2533 2536 2539 2542 2545 2548 2551 2554 2557 2560 2563 2566 2569 2572 2575 2578 2581 2584 2587 2590 2593 2596 2599 2602 2605 2608 2611 2614 2617 2620 2623 2626 2629 2632 2635 2638 2641 2644 2647 2650 2653 2656 2659 2662 2665 2668 2671 2674 2677 2680 2683 2686 2689 2692 2695 2698 2701 2704 2707 2710 2713 2716 2719 2722 2725 2728 2731 2734 2737 2740 2743 2746 2749 2752 2755 2758 2761 2764 2767 2770 2773 2776 2779 2782 2785 2788 2791 2794 2797 2800 2803 2806 2809 2812 2815 2818 2821 2824 2827 2830 2833 2836 2839 2842 2845 2848 2851 2854 2857 2860 2863 2866 2869 2872 2875 2878 2881 2884 2887 2890 2893 2896 2899 2902 2905 2908 2911 2914 2917 2920 2923 2926 2929 2932 2935 2938 2941 2944 2947 2950 2953 2956 2959 2962 2965 2968 2971 2974 2977 2980 2983 2986 2989 2992 2995 2998 3001 3004 3007 3010 3013 3016 3019 3022 3025 3028 3031 3034 3037 3040 3043 3046 3049 3052 3055 3058 3061 3064 3067 3070 3073 3076 3079 3082 3085 3088 3091 3094 3097 3100 3103 3106 3109 3112 3115 3118 3121 3124 3127 3130 3133 3136 3139 3142 
</DataArray>
<DataArray type="UInt32" Name="types" format="ascii">
3 3 3 3 3 3 3 3 3 3 3 3 3 3 3 3 3 3 3 3 5 5 5 5 5 5 5 5 5 5 5 5 5 5 5 5 5 5 5 5 5 5 5 5 5 5 5 5 5 5 5 5 5 5 5 5 5 5 5 5 5 5 5 5 5 5 5 5 5 5 5 5 5 5 5 5 5 5 5 5 5 5 5 5 5 5 5 5 5 5 5 5 5 5 5 5 5 5 5 5 5 5 5 5 5 5 5 5 5 5 5 5 5 5 5 5 5 5 5 5 5 5 5 5 5 5 5 5 5 5 5 5 5 5 5 5 5 5 5 5 5 5 5 5 5 5 5 5 5 5 5 5 5 5 5 5 5 5 5 5 5 5 5 5 5 5 5 5 5 5 5 5 5 5 5 5 5 5 5 5 5 5 5 5 5 5 5 5 5 5 5 5 5 5 5 5 5 5 5 5 5 5 5 5 5 5 5 5 5 5 5 5 5 5 5 5 5 5 5 5 5 5 5 5 5 5 5 5 5 5 5 5 5 5 5 5 5 5 5 5 5 5 5 5 5 5 5 5 5 5 5 5 5 5 5 5 5 5 5 5 5 5 5 5 5 5 5 5 5 5 5 5 5 5 5 5 5 5 5 5 5 5 5 5 5 5 5 5 5 5 5 5 5 5 5 5 5 5 5 5 5 5 5 5 5 5 5 5 5 5 5 5 5 5 5 5 5 5 5 5 5 5 5 5 5 5 5 5 5 5 5 5 5 5 5 5 5 5 5 5 5 5 5 5 5 5 5 5 5 5 5 5 5 5 5 5 5 5 5 5 5 5 5 5 5 5 5 5 5 5 5 5 5 5 5 5 5 5 5 5 5 5 5 5 5 5 5 5 5 5 5 5 5 5 5 5 5 5 5 5 5 5 5 5 5 5 5 5 5 5 5 5 5 5 5 5 5 5 5 5 5 5 5 5 5 5 5 5 5 5 5 5 5 5 5 5 5 5 5 5 5 5 5 5 5 5 5 5 5 5 5 5 5 5 5 5 5 5 5 5 5 5 5 5 5 5 5 5 5 5 5 5 5 5 5 5 5 5 5 5 5 5 5 5 5 5 5 5 5 5 5 5 5 5 5 5 5 5 5 5 5 5 5 5 5 5 5 5 5 5 5 5 5 5 5 5 5 5 5 5 5 5 5 5 5 5 5 5 5 5 5 5 5 5 5 5 5 5 5 5 5 5 5 5 5 5 5 5 5 5 5 5 5 5 5 5 5 5 5 5 5 5 5 5 5 5 5 5 5 5 5 5 5 5 5 5 5 5 5 5 5 5 5 5 5 5 5 5 5 5 5 5 5 5 5 5 5 5 5 5 5 5 5 5 5 5 5 5 5 5 5 5 5 5 5 5 5 5 5 5 5 5 5 5 5 5 5 5 5 5 5 5 5 5 5 5 5 5 5 5 5 5 5 5 5 5 5 5 5 5 5 5 5 5 5 5 5 5 5 5 5 5 5 5 5 5 5 5 5 5 5 5 5 5 5 5 5 5 5 5 5 5 5 5 5 5 5 5 5 5 5 5 5 5 5 5 5 5 5 5 5 5 5 5 5 5 5 5 5 5 5 5 5 5 5 5 5 5 5 5 5 5 5 5 5 5 5 5 5 5 5 5 5 5 5 5 5 5 5 5 5 5 5 5 5 5 5 5 5 5 5 5 5 5 5 5 5 5 5 5 5 5 5 5 5 5 5 5 5 5 5 5 5 5 5 5 5 5 5 5 5 5 5 5 5 5 5 5 5 5 5 5 5 5 5 5 5 5 5 5 5 5 5 5 5 5 5 5 5 5 5 5 5 5 5 5 5 5 5 5 5 5 5 5 5 5 5 5 5 5 5 5 5 5 5 5 5 5 5 5 5 5 5 5 5 5 5 5 5 5 5 5 5 5 5 5 5 5 5 5 5 5 5 5 5 5 5 5 5 5 5 5 5 5 5 5 5 5 5 5 5 5 5 5 5 5 5 5 5 5 5 5 5 5 5 5 5 5 5 5 5 5 5 5 5 5 5 5 5 5 5 5 5 5 5 5 5 5 5 5 5 5 5 5 5 5 5 5 5 5 5 5 5 5 5 5 5 5 5 5 5 5 5 5 5 5 5 5 5 5 5 5 5 5 5 5 5 5 5 5 5 5 5 5 5 5 5 5 5 5 5 5 5 5 5 5 5 5 5 5 5 5 5 5 5 5 5 5 5 5 5 5 5 5 5 5 5 5 5 5 5 5 5 5 5 5 5 5 5 5 5 5 5 5 5 5 5 5 5 5 5 5 5 5 5 5 5 5 5 5 5 5 5 5 5 5 5 5 5 5 5 5 5 5 5 5 5 5 5 5 5 5 5 5 
</DataArray>
</Cells>
<PointData Scalars="" Vectors="displacement," Tensors="">
<DataArray type="Float64" Name="displacement" NumberOfComponents="3" format="ascii">
-1.2749725210143347e-05 -1.3452091585157931e-05 0 -1.3740213022776052e-05 -1.8594994698936911e-05 0 -1.3740213022776052e-05 -1.8594994698936911e-05 0 -1.4908048581024601e-05 -2.4585419580373283e-05 0 -1.4908048581024601e-05 -2.4585419580373283e-05 0 -1.6276716363353075e-05 -3.1524870883996013e-05 0 -1.6276716363353075e-05 -3.1524870883996013e-05 0 -1.7550541766497539e-05 -3.8769151061542582e-05 0 -1.7550541766497539e-05 -3.8769151061542582e-05 0 -1.8696586526900052e-05 -4.6066160542126314e-05 0 -1.8696586526900052e-05 -4.6066160542126314e-05 0 -1.9818751120034333e-05 -5.3370825455968267e-05 0 -1.9818751120034333e-05 -5.3370825455968267e-05 0 -2.1051848236106021e-05 -6.0131312017921988e-05 0 -2.1051848236106021e-05 -6.0131312017921988e-05 0 -2.236668621558817e-05 -6.7246150846065781e-05 0 -2.236668621558817e-05 -6.7246150846065781e-05 0 -2.3202813713690025e-05 -7.2464080690774079e-05 0 -2.3202813713690025e-05 -7.2464080690774079e-05 0 -2.6061701687334264e-05 -7.8836759364396967e-05 0 4.4780927486889723e-06 1.9407708318564198e-05 0 7.9741217213306503e-06 3.0280323807183586e-05 0 7.9741217213306503e-06 3.0280323807183586e-05 0 7.6499083211067967e-06 3.5505249426996818e-05 0 7.6499083211067967e-06 3.5505249426996818e-05 0 7.1059592298821726e-06 4.5979079452571178e-05 0 7.1059592298821726e-06 4.5979079452571178e-05 0 6.2228391018912856e-06 5.4999477345968227e-05 0 6.2228391018912856e-06 5.4999477345968227e-05 0 5.0391506983133798e-06 6.5174366495962454e-05 0 5.0391506983133798e-06 6.5174366495962454e-05 0 3.5456715009466001e-06 7.5785665120174276e-05 0 3.5456715009466001e-06 7.5785665120174276e-05 0 1.8446633848322156e-06 8.4605230009511092e-05 0 1.8446633848322156e-06 8.4605230009511092e-05 0 -1.0907659974123039e-06 9.6709554754918244e-05 0 -1.0907659974123039e-06 9.6709554754918244e-05 0 -1.0890961944869975e-07 0.00010305529974616845 0 -1.0890961944869975e-07 0.00010305529974616845 0 -1.5070109526692233e-05 0.00011495780543857517 0 -1.0384143369770119e-05 -5.1420015928968401e-06 0 -7.692275853419319e-06 -1.751472101885732e-06 0 -9.7574238023359812e-06 -4.3868733399411885e-06 0 -9.0542262224321868e-06 -2.872826359076168e-06 0 -7.692275853419319e-06 -1.751472101885732e-06 0 -1.0384143369770119e-05 -5.1420015928968401e-06 0 -1.8832548704781103e-05 -1.0361096884088994e-05 0 -1.6195265517610614e-05 -7.5591683397084126e-06 0 -1.6863758807445214e-05 -1.0100850963878323e-05 0 -1.6863758807445214e-05 -1.0100850963878323e-05 0 -1.6195265517610614e-05 -7.5591683397084118e-06 0 -1.480760717530762e-05 -9.0067454924861155e-06 0 -1.0479527844655897e-05 3.1537667222576289e-06 0 -4.5690468823312333e-06 7.5611027193242937e-07 0 -9.5295641766285576e-06 1.677495114949218e-06 0 -7.4166203312899364e-06 -2.827017805779313e-06 0 -6.7332066518297525e-06 -1.845511285983136e-06 0 -3.2634766851956424e-06 -9.1505245107173218e-07 0 -5.3519779783413459e-06 2.3109791577030226e-06 0 -4.5690468823312333e-06 7.5611027193242937e-07 0 -1.0479527844655897e-05 3.1537667222576289e-06 0 -3.8878222630033206e-06 -1.9709833880462066e-06 0 -7.4166203312899364e-06 -2.827017805779313e-06 0 -3.2634766851956424e-06 -9.1505245107173218e-07 0 -1.9147039159621605e-05 -6.1037689075831338e-06 0 -2.3477295064320466e-05 -8.0661826885386476e-06 0 -1.8491427539055621e-05 -5.3631361542578919e-06 0 -3.6520896849521307e-05 1.1530933322566872e-05 0 -2.8993979689853119e-05 7.9178118075184782e-06 0 -2.8277196980941243e-05 7.3125302459864497e-06 0 -1.5456889625767975e-06 6.6494917722094978e-07 0 -1.9414438160343733e-06 1.3614152177128094e-06 0 -2.3815411428298085e-06 3.1720154671705935e-07 0 -2.9837171130703787e-06 1.6940739492686804e-06 0 -2.3815411428298089e-06 3.172015467170594e-07 0 -1.9414438160343733e-06 1.3614152177128094e-06 0 -3.7376978548559648e-06 6.8261665111001696e-07 0 -4.9006614897251329e-06 4.3500862263099646e-07 0 -3.2536743950188383e-06 8.932532190585049e-07 0 -1.6547345516881318e-09 -4.9579792523631903e-10 0 -1.2301298258382985e-09 -3.3462376098288012e-10 0 -1.364530052080314e-06 -7.6573248039730357e-07 0 -1.2841908563743973e-09 2.8854337868562643e-10 0 -1.5585234283516432e-09 2.9999909657271746e-10 0 -1.4316604380579646e-06 5.9506259263833034e-07 0 -2.1792447392193453e-05 -1.3840684710960881e-05 0 -2.1676176225491624e-05 -1.3835205708542381e-05 0 -1.8832548704781103e-05 -1.0361096884088994e-05 0 3.3442520218726148e-06 2.1848289243673366e-05 0 -1.2660919194083942e-06 1.4416789449327186e-05 0 -2.3452068869118684e-06 1.5052717907303631e-05 0 -3.7531032158367912e-05 -0.00012358237629796648 0 -3.0476336074998954e-05 -0.00011567661239236479 0 -3.7617052625707471e-05 -0.00011217052517010851 0 -4.6533344610748069e-05 0.00026757850855780137 0 -6.499138392457143e-05 0.00024827929287204905 0 -4.6611759610291197e-05 0.00024124475654730492 0 -4.6533344610748069e-05 0.00026757850855780137 0 -4.6611759610291197e-05 0.00024124475654730492 0 -2.894799675114153e-05 0.00024869146861431233 0 -3.7531032158367912e-05 -0.00012358237629796648 0 -3.7617052625707471e-05 -0.00011217052517010851 0 -4.5282968933642296e-05 -0.0001151241185912846 0 -6.8250553026532235e-05 0.00022628462185647169 0 -4.4949149919534272e-05 0.00021586547416606398 0 -4.6611759610291197e-05 0.00024124475654730492 0 -2.8928817865556494e-05 -0.00010560488919127599 0 -3.7806950619124458e-05 -0.0001004601783224055 0 -3.7617052625707471e-05 -0.00011217052517010851 0 -3.7376978548559648e-06 6.8261665111001696e-07 0 -3.2536743950188383e-06 8.932532190585049e-07 0 -2.4101370684130419e-06 8.3671772426316826e-07 0 3.3442520218726148e-06 2.1848289243673366e-05 0 -4.9110339824822386e-06 1.9424054398833165e-05 0 -1.2660919194083942e-06 1.4416789449327186e-05 0 -8.2813526627593104e-05 6.5747056299459946e-05 0 -7.4073823705931961e-05 4.8855547983879125e-05 0 -5.9390740046431964e-05 5.2305655201248875e-05 0 -4.3612719606717071e-05 -2.5161569089876293e-05 0 -4.83472473138942e-05 -3.2540247419267349e-05 0 -3.769802278446256e-05 -2.6687270236509857e-05 0 -1.8157147096249931e-05 -1.1222936243282144e-05 0 -2.1792447392193453e-05 -1.3840684710960881e-05 0 -1.8832548704781103e-05 -1.0361096884088994e-05 0 -4.0227699132063622e-05 4.2600739504850353e-05 0 -3.4852669784599085e-05 2.5999131798533621e-05 0 -2.763712439492971e-05 2.7757578850359327e-05 0 -1.975892935697957e-05 8.5405730394114896e-06 0 -2.7207844117050217e-05 1.2358383027034622e-05 0 -2.5705930315175148e-05 7.8310346323491143e-06 0 -1.1977164649844835e-05 -1.3546622757152971e-06 0 -1.0236752293936303e-05 1.5272907174228616e-06 0 -1.3519846990891556e-05 -3.4339820543877365e-06 0 -3.6595945247789693e-05 -8.8393374950219397e-05 0 -3.0016704278311815e-05 -8.4826539238894589e-05 0 -3.643727840526184e-05 -7.5577673823873189e-05 0 -4.5146742310120345e-05 0.00019015102911017941 0 -6.0154486793394711e-05 0.00018272053473457152 0 -4.1270651388398566e-05 0.00016164585656732166 0 -3.643727840526184e-05 -7.5577673823873189e-05 0 -3.0016704278311815e-05 -8.4826539238894589e-05 0 -2.8832886156667317e-05 -7.3783819042081358e-05 0 -4.1270651388398566e-05 0.00016164585656732166 0 -6.0154486793394711e-05 0.00018272053473457152 0 -5.9042800061105414e-05 0.00016186240771123316 0 -1.975892935697957e-05 8.5405730394114896e-06 0 -2.5705930315175148e-05 7.8310346323491143e-06 0 -1.7529405397676906e-05 5.3184696699509325e-06 0 -1.1984844721399439e-05 -4.8011009265589281e-06 0 -9.3150525175936621e-06 3.1043004885108525e-06 0 -1.1977164649844835e-05 -1.3546622757152971e-06 0 -4.0227699132063622e-05 4.2600739504850353e-05 0 -4.6648874011546769e-05 3.6575376833719592e-05 0 -3.4852669784599085e-05 2.5999131798533624e-05 0 3.3442520218726148e-06 2.1848289243673366e-05 0 1.2449066965268221e-05 5.4711692189826824e-05 0 -5.2542809137349514e-06 5.6441179433290672e-05 0 -3.0075181676916745e-05 -3.3934484906833265e-05 0 -2.6902220423265565e-05 -3.2172359796199192e-05 0 -3.0544900905107667e-05 -3.2034412512423836e-05 0 -1.6405353234120823e-05 -3.8605567087959694e-05 0 -1.5858912559586361e-05 -3.6506304639461178e-05 0 -1.7367814229948434e-05 -3.7503977161128078e-05 0 -7.70321131416846e-06 5.592309960570372e-06 0 -1.0236752293936303e-05 1.5272907174228616e-06 0 -1.1977164649844835e-05 -1.3546622757152971e-06 0 -1.4362431323516207e-05 -0.00011232646437472122 0 -2.0924736546528898e-05 -0.00010364916391989726 0 -2.323680977052707e-05 -0.00011348001596172638 0 -0.00010943797043019394 0.00024639880131671122 0 -8.9222043937833454e-05 0.00022387239545244226 0 -8.5174925819324248e-05 0.0002437704624815826 0 -9.5635451583232202e-10 -2.5615281837206362e-10 0 -6.9397171616146835e-07 -1.9902788768475775e-07 0 -8.7696767246452692e-07 -4.7483808552933399e-07 0 -1.0905803998064762e-09 3.0046639948769643e-10 0 -1.0842920069185155e-06 5.860952409777137e-07 0 -9.4135562754470939e-07 6.1389328827899292e-07 0 -4.0227699132063622e-05 4.2600739504850353e-05 0 -2.7178689499691852e-05 4.0840595369956327e-05 0 -3.6719434279738952e-05 6.2321972317618145e-05 0 -2.0132649375871933e-05 5.5237566123823506e-05 0 -3.6719434279738952e-05 6.2321972317618145e-05 0 -2.7178689499691852e-05 4.0840595369956334e-05 0 -9.4106570996170464e-06 3.4927936435369615e-05 0 3.3442520218726148e-06 2.1848289243673366e-05 0 -5.2542809137349514e-06 5.6441179433290672e-05 0 -0.0001090497397930405 0.00020149919888509752 0 -8.0706891578422374e-05 0.00020204215870692026 0 -8.9222043937833454e-05 0.00022387239545244226 0 -1.1173032345747018e-05 -9.0240656801689997e-05 0 -2.3021610251142725e-05 -9.3261260100531486e-05 0 -2.0924736546528895e-05 -0.00010364916391989726 0 -1.7947371879145617e-05 -3.1206504515988149e-05 0 -1.8408555505282755e-05 -2.8000672829283888e-05 0 -2.019932901720035e-05 -3.0379118595468425e-05 0 -1.2140048794324034e-05 -1.4647663821336745e-06 0 -1.3519846990891556e-05 -3.4339820543877365e-06 0 -1.0236752293936303e-05 1.5272907174228616e-06 0 -1.5367601992886191e-05 -7.1853710518769442e-06 0 -1.7072014908249103e-05 -1.0888803980009937e-05 0 -1.4945192829944159e-05 -1.0583005670577516e-05 0 -1.0970241873399066e-05 -1.8291712702444903e-05 0 -1.1260657127581606e-05 -1.5378004119598476e-05 0 -1.4538188069456964e-05 -1.9363266415185889e-05 0 -9.7455022277498972e-05 0.0001072797201537926 0 -7.4767624787619954e-05 9.2449008203489546e-05 0 -8.2953579710538501e-05 0.00011994684313010045 0 -6.4374171153736289e-05 -9.3956985108292472e-05 0 -5.5811849783049387e-05 -0.00010435358737968039 0 -5.2552845141366559e-05 -9.4823727895947208e-05 0 1.5339707834465822e-05 0.00019579708278653565 0 -5.5249550598784411e-06 0.00022320809754774974 0 -1.0390343196140085e-05 0.00020243414904206003 0 -1.2702112797766664e-05 -0.00010109094880829633 0 -2.0924736546528895e-05 -0.00010364916391989726 0 -1.4362431323516207e-05 -0.00011232646437472122 0 -0.00010943797043019394 0.00024639880131671122 0 -0.00010943145835867299 0.00022429136890880978 0 -8.9222043937833454e-05 0.00022387239545244226 0 -2.5151131053696998e-05 -2.8516373546360425e-05 0 -2.5731506406120411e-05 -2.5927981708960744e-05 0 -2.7303939328015662e-05 -2.8627317429729846e-05 0 -1.2904929358287864e-05 -1.3567293897908408e-05 0 -1.5710329306507658e-05 -1.6455661645282505e-05 0 -1.6263518684228279e-05 -2.4256353116243944e-05 0 -2.5151131053696998e-05 -2.8516373546360425e-05 0 -2.3928794956083788e-05 -2.6270624816918417e-05 0 -2.5731506406120411e-05 -2.5927981708960744e-05 0 -1.3987837359956703e-05 -1.5459788293319725e-05 0 -1.4538188069456964e-05 -1.9363266415185889e-05 0 -1.1260657127581606e-05 -1.5378004119598476e-05 0 -3.1069408836331688e-05 -4.2576373820483791e-05 0 -3.3709551275093505e-05 -5.5561364662208476e-05 0 -2.5928564274546132e-05 -4.5406637686907577e-05 0 -2.4535323811603141e-09 2.3638936905222269e-10 0 -3.2634766851956424e-06 -9.1505245107173218e-07 0 -2.2739340037350393e-06 -1.7008358111596232e-07 0 -3.5010439785406103e-09 -5.1727291933672046e-10 0 -3.0802818471541023e-06 -2.2251292697338204e-07 0 -4.5690468823312333e-06 7.5611027193242937e-07 0 -3.0075181676916745e-05 -3.3934484906833265e-05 0 -2.6646080538069549e-05 -3.4630878149995258e-05 0 -2.6902220423265565e-05 -3.2172359796199192e-05 0 -1.7302696459796516e-05 -3.8762131175826087e-05 0 -1.6405353234120823e-05 -3.8605567087959694e-05 0 -1.7367814229948434e-05 -3.7503977161128078e-05 0 -2.5581129169910711e-09 -7.5458812682068005e-10 0 -3.9334741186233113e-06 -6.8961641004037971e-07 0 -3.0802818471541018e-06 -2.2251292697338228e-07 0 -2.0136422397344996e-09 3.5363834490476675e-10 0 -2.2739340037350393e-06 -1.7008358111596232e-07 0 -3.0732562640129114e-06 9.1598067679223374e-08 0 -2.3815411428298085e-06 3.1720154671705935e-07 0 -2.0834555349141615e-06 -6.6292538907627428e-07 0 -1.6799449221310132e-06 -1.9698565218411595e-08 0 -1.1062353024314795e-05 -3.6308082492886991e-06 0 -9.3370089785152026e-06 -2.1266218865178557e-06 0 -6.7332066518297525e-06 -1.845511285983136e-06 0 -1.6018363746324939e-05 4.0899998143018607e-06 0 -9.5295641766285593e-06 1.677495114949218e-06 0 -1.3237023881947818e-05 1.8746951058582021e-06 0 -1.768759769835473e-05 -1.9148341261301536e-05 0 -1.6337650489617845e-05 -1.5792846111968135e-05 0 -1.9094880550607836e-05 -1.7426325870271961e-05 0 -1.7491009603882985e-05 -1.4009455186000275e-05 0 -1.4945192829944159e-05 -1.0583005670577516e-05 0 -1.7072014908249103e-05 -1.0888803980009937e-05 0 1.1061580725224473e-05 0.00024180472543687602 0 -1.0695792606312109e-05 0.00024360544964407117 0 -5.5249550598784411e-06 0.00022320809754774974 0 -6.4673240370673367e-05 -0.00011423646508894724 0 -5.3970211549113811e-05 -0.00011306076001879664 0 -5.5811849783049387e-05 -0.00010435358737968039 0 -1.7491009603882985e-05 -1.4009455186000275e-05 0 -1.9094880550607836e-05 -1.7426325870271961e-05 0 -1.6337650489617845e-05 -1.5792846111968135e-05 0 -1.8408555505282755e-05 -2.8000672829283888e-05 0 -1.6060214195576026e-05 -2.728488548265572e-05 0 -1.773950494180914e-05 -2.3729371470602108e-05 0 -5.9482022928721453e-05 0.00014039710451655489 0 -5.1671230290464196e-05 0.00011071078542415458 0 -3.971082094801793e-05 0.00012125892078186229 0 -3.5010439785406103e-09 -5.1727291933672046e-10 0 -3.6931672830425381e-09 1.9098128366371547e-10 0 -3.0802818471541018e-06 -2.2251292697338228e-07 0 -2.7278354130259776e-09 -2.4251087688858904e-10 0 -2.4535323811603141e-09 2.3638936905222269e-10 0 -2.2739340037350393e-06 -1.7008358111596232e-07 0 -2.3815411428298085e-06 3.1720154671705935e-07 0 -3.3335970741964836e-06 -1.7588146871893408e-07 0 -2.0834555349141615e-06 -6.6292538907627428e-07 0 -2.5302830052256325e-05 0.00022615186110146147 0 -4.6611759610291197e-05 0.00024124475654730492 0 -4.4949149919534272e-05 0.00021586547416606398 0 -4.663941532244277e-05 -0.00010502439266564322 0 -3.7617052625707471e-05 -0.00011217052517010851 0 -3.7806950619124458e-05 -0.0001004601783224055 0 -3.3709551275093505e-05 -5.5561364662208476e-05 0 -2.6879368911828912e-05 -5.5590648507409491e-05 0 -2.5928564274546132e-05 -4.5406637686907577e-05 0 -9.2281047332384861e-07 4.2745703579449174e-07 0 -1.2840942276192682e-06 8.3046805050499487e-07 0 -1.1401336382402602e-06 4.602830824452786e-07 0 -1.0957300909388974e-05 1.4273046299512578e-06 0 -8.1562355502700556e-06 1.3455260648899317e-06 0 -1.2390638232732709e-05 3.0915042452938772e-06 0 -1.6060214195576026e-05 -2.728488548265572e-05 0 -1.503276072491522e-05 -2.3713065687677785e-05 0 -1.773950494180914e-05 -2.3729371470602108e-05 0 -1.1401336382402602e-06 4.602830824452786e-07 0 -1.2840942276192682e-06 8.3046805050499487e-07 0 -1.3962505638010971e-06 8.994070346104951e-07 0 -1.2840942276192682e-06 8.3046805050499487e-07 0 -8.2035500346736446e-07 5.1326978406498807e-07 0 -1.4630162144991306e-06 8.9157821999687069e-07 0 -1.1562085110950817e-06 7.4117103754464532e-07 0 -1.4630162144991306e-06 8.9157821999687069e-07 0 -8.2035500346736446e-07 5.1326978406498807e-07 0 -2.7688949943851401e-05 -2.7395283265249386e-05 0 -2.5731506406120411e-05 -2.5927981708960744e-05 0 -2.7212603742293219e-05 -2.5002319769572819e-05 0 -1.5367601992886191e-05 -7.1853710518769442e-06 0 -1.4945192829944159e-05 -1.0583005670577516e-05 0 -1.3699707984397733e-05 -5.9299038076578428e-06 0 -1.7947371879145617e-05 -3.1206504515988149e-05 0 -1.6060214195576026e-05 -2.728488548265572e-05 0 -1.8408555505282755e-05 -2.8000672829283888e-05 0 -7.70321131416846e-06 5.592309960570372e-06 0 -1.1977164649844835e-05 -1.3546622757152964e-06 0 -9.3150525175936621e-06 3.1043004885108525e-06 0 1.3341256688280523e-05 0.00021845995432112397 0 1.1061580725224473e-05 0.00024180472543687602 0 -5.5249550598784411e-06 0.00022320809754774974 0 -6.4661633974487135e-05 -0.0001043364542110415 0 -6.4673240370673367e-05 -0.00011423646508894724 0 -5.5811849783049387e-05 -0.00010435358737968039 0 -6.4374171153736289e-05 -9.3956985108292472e-05 0 -6.4661633974487135e-05 -0.0001043364542110415 0 -5.5811849783049387e-05 -0.00010435358737968039 0 1.5339707834465822e-05 0.00019579708278653565 0 1.3341256688280523e-05 0.00021845995432112397 0 -5.5249550598784411e-06 0.00022320809754774974 0 -4.4738192527547608e-06 8.7710728025129513e-06 0 -4.6212161061266557e-06 7.0373565824478094e-06 0 -7.70321131416846e-06 5.592309960570372e-06 0 -3.0085951683736679e-06 1.0024638443726656e-06 0 -1.9884371700203002e-06 9.6926827972076257e-07 0 -3.2536743950188383e-06 8.932532190585049e-07 0 -1.8549053162878449e-06 8.6811258864620654e-07 0 -3.2536743950188383e-06 8.932532190585049e-07 0 -1.9884371700203002e-06 9.6926827972076257e-07 0 -5.1070861533072704e-06 0.00012268738705682503 0 2.7425557515714109e-07 0.00013838273384541769 0 -2.1872742974626707e-05 0.00013952510115106671 0 2.7425557515714109e-07 0.00013838273384541769 0 -5.804899557069389e-06 0.0001550329982947137 0 -2.1872742974626707e-05 0.00013952510115106671 0 -1.1984844721399439e-05 -4.8011009265589281e-06 0 -1.1977164649844835e-05 -1.3546622757152977e-06 0 -1.3699707984397733e-05 -5.9299038076578428e-06 0 -1.8448676558362956e-05 -3.8226429157020308e-05 0 -1.7367814229948434e-05 -3.7503977161128078e-05 0 -1.868124463644343e-05 -3.5522608670915139e-05 0 -2.3277895929845342e-05 -3.5678109860901815e-05 0 -2.416752834482128e-05 -3.224850781001155e-05 0 -2.6902220423265565e-05 -3.2172359796199192e-05 0 -4.6212161061266557e-06 7.0373565824478094e-06 0 -6.9558970499819157e-06 4.3012112619123524e-06 0 -7.70321131416846e-06 5.592309960570372e-06 0 -0.00010943145835867299 0.00022429136890880978 0 -0.0001090497397930405 0.00020149919888509752 0 -8.9222043937833454e-05 0.00022387239545244226 0 -1.1173032345747018e-05 -9.0240656801689997e-05 0 -2.0924736546528895e-05 -0.00010364916391989726 0 -1.2702112797766664e-05 -0.00010109094880829633 0 -2.3477295064320466e-05 -8.0661826885386476e-06 0 -2.3179080113933987e-05 -7.9236289890268804e-06 0 -1.8491427539055621e-05 -5.3631361542578919e-06 0 -3.6520896849521307e-05 1.1530933322566872e-05 0 -2.8277196980941243e-05 7.3125302459864497e-06 0 -3.5178358296694778e-05 1.1687467452246658e-05 0 -1.1984844721399439e-05 -4.8011009265589281e-06 0 -1.4945192829944159e-05 -1.0583005670577516e-05 0 -1.1880251067860641e-05 -1.1297805305179524e-05 0 -1.2904929358287864e-05 -1.3567293897908408e-05 0 -1.6263518684228279e-05 -2.4256353116243944e-05 0 -9.4846639621801931e-06 -2.572267711745647e-05 0 -1.3987837359956703e-05 -1.5459788293319725e-05 0 -1.4945192829944159e-05 -1.0583005670577516e-05 0 -1.6337650489617845e-05 -1.5792846111968135e-05 0 -1.7491009603882985e-05 -1.4009455186000275e-05 0 -1.6337650489617845e-05 -1.5792846111968135e-05 0 -1.4945192829944159e-05 -1.0583005670577516e-05 0 -3.7531032158367912e-05 -0.00012358237629796648 0 -2.9820767772055123e-05 -0.00012357470939978365 0 -3.0476336074998954e-05 -0.00011567661239236479 0 -4.6533344610748069e-05 0.00026757850855780137 0 -6.6771252663520248e-05 0.00026761560155631574 0 -6.499138392457143e-05 0.00024827929287204905 0 -2.743738646765298e-05 0.00026724712384362982 0 -4.6533344610748069e-05 0.00026757850855780137 0 -2.894799675114153e-05 0.00024869146861431233 0 -4.6041931141731958e-05 -0.00012351741915635382 0 -3.7531032158367912e-05 -0.00012358237629796648 0 -4.5282968933642296e-05 -0.0001151241185912846 0 -1.4949826379012046e-05 2.5903112575440776e-05 0 -2.7178689499691852e-05 4.0840595369956334e-05 0 -2.763712439492971e-05 2.7757578850359327e-05 0 -2.1050274231954107e-05 -1.7258267028771514e-05 0 -2.3260314911214541e-05 -2.0410916927663445e-05 0 -2.1557807542033593e-05 -2.0686189086692072e-05 0 -1.3987837359956703e-05 -1.5459788293319725e-05 0 -1.6337650489617845e-05 -1.5792846111968135e-05 0 -1.4538188069456964e-05 -1.9363266415185889e-05 0 -1.768759769835473e-05 -1.9148341261301536e-05 0 -1.4538188069456964e-05 -1.9363266415185889e-05 0 -1.6337650489617845e-05 -1.5792846111968135e-05 0 -2.0387457849935783e-05 -4.7834262434742581e-05 0 -1.8675608223095417e-05 -3.5883006953546444e-05 0 -2.5928564274546132e-05 -4.5406637686907577e-05 0 -8.2813526627593104e-05 6.5747056299459946e-05 0 -5.9390740046431964e-05 5.2305655201248875e-05 0 -7.3372505656112767e-05 7.3118181555208124e-05 0 -1.8889749781607638e-05 -9.6007778996006861e-06 0 -2.3402595682592222e-05 -1.418688999740323e-05 0 -1.7575786665180554e-05 -1.1235257342013831e-05 0 -2.0571123608251093e-05 -1.6142141784580593e-05 0 -1.7575786665180554e-05 -1.1235257342013831e-05 0 -2.3402595682592222e-05 -1.418688999740323e-05 0 -2.6003128544347839e-05 -3.0192824698648366e-05 0 -2.3224916009172556e-05 -3.0129651472383549e-05 0 -2.5151131053696998e-05 -2.8516373546360425e-05 0 -6.6594847738733683e-05 0.0001073242885907204 0 -8.2953579710538501e-05 0.00011994684313010045 0 -7.4767624787619954e-05 9.2449008203489546e-05 0 -2.2589667199394861e-05 -8.4685305680479355e-06 0 -2.800924741381728e-05 -1.2262527918265281e-05 0 -2.3456811357915153e-05 -1.0976431712324048e-05 0 -2.8926861461030322e-05 -1.5274950564110768e-05 0 -2.3456811357915153e-05 -1.0976431712324048e-05 0 -2.800924741381728e-05 -1.2262527918265281e-05 0 -4.3477142691525165e-05 2.739692618400507e-05 0 -4.3125997015374643e-05 2.0739046874634459e-05 0 -3.3886650631067666e-05 1.8696375774931261e-05 0 -3.3717726638786504e-05 1.3681886154202262e-05 0 -3.3886650631067666e-05 1.8696375774931261e-05 0 -4.3125997015374643e-05 2.0739046874634459e-05 0 -2.4480805709793564e-05 -2.3570744528536634e-05 0 -2.221019412603773e-05 -2.3861232164031666e-05 0 -2.1557807542033593e-05 -2.0686189086692072e-05 0 -4.83472473138942e-05 -3.2540247419267349e-05 0 -4.4662951777543322e-05 -3.5548266149500353e-05 0 -3.769802278446256e-05 -2.6687270236509857e-05 0 -1.3077792600445204e-05 0.0001017599152980439 0 -2.5533730301061515e-05 8.0844110783632255e-05 0 -9.0432808203888963e-06 7.7191865342505592e-05 0 -1.2140048794324034e-05 -1.4647663821336745e-06 0 -1.340533286544147e-05 -4.0358109716550593e-06 0 -1.5300882991663578e-05 -5.7770280488691676e-06 0 -3.347730789946392e-06 2.3393218573897548e-06 0 -2.569413154822123e-06 3.5545228951989881e-06 0 -2.2822045052294922e-06 2.4328665355747833e-06 0 -7.5559760327860608e-05 0.00017579676578596338 0 -6.0154486793394711e-05 0.00018272053473457152 0 -8.0706891578422374e-05 0.00020204215870692026 0 -2.3276798032624814e-05 -8.0474655204077953e-05 0 -3.0016704278311815e-05 -8.4826539238894589e-05 0 -2.3021610251142722e-05 -9.3261260100531472e-05 0 -1.1984844721399439e-05 -4.8011009265589281e-06 0 -1.3699707984397733e-05 -5.9299038076578428e-06 0 -1.4945192829944159e-05 -1.0583005670577516e-05 0 -2.416752834482128e-05 -3.224850781001155e-05 0 -2.3224916009172556e-05 -3.0129651472383549e-05 0 -2.6003128544347839e-05 -3.0192824698648366e-05 0 -1.768759769835473e-05 -1.9148341261301536e-05 0 -1.9765645357000226e-05 -2.1024715777538888e-05 0 -1.773950494180914e-05 -2.3729371470602108e-05 0 -1.2301298258382985e-09 -3.3462376098288012e-10 0 -8.7696767246452692e-07 -4.7483808552933399e-07 0 -1.364530052080314e-06 -7.6573248039730357e-07 0 -1.2841908563743973e-09 2.8854337868562643e-10 0 -1.4316604380579646e-06 5.9506259263833034e-07 0 -1.0842920069185155e-06 5.860952409777137e-07 0 -1.8675608223095417e-05 -3.5883006953546444e-05 0 -2.5263982291775543e-05 -3.6083119926355474e-05 0 -2.5928564274546132e-05 -4.5406637686907577e-05 0 -1.0957300909388974e-05 1.4273046299512578e-06 0 -1.2390638232732709e-05 3.0915042452938772e-06 0 -1.5351393393119467e-05 2.7257214159669862e-06 0 -2.2920256566992384e-05 1.5619991789933421e-05 0 -2.7637124394929707e-05 2.7757578850359327e-05 0 -3.4852669784599085e-05 2.5999131798533624e-05 0 -1.2964475985208995e-06 -3.4966790464490622e-07 0 -6.9397171616146835e-07 -1.9902788768475775e-07 0 -1.1755687313758196e-06 4.1458846016134242e-08 0 -8.5239124054651929e-07 1.7251883996206816e-07 0 -1.1755687313758196e-06 4.1458846016134242e-08 0 -6.9397171616146835e-07 -1.9902788768475775e-07 0 -1.1562085110950817e-06 7.4117103754464532e-07 0 -9.413556275447095e-07 6.1389328827899292e-07 0 -1.9884371700203002e-06 9.6926827972076257e-07 0 -1.8549053162878449e-06 8.6811258864620654e-07 0 -1.9884371700203002e-06 9.6926827972076257e-07 0 -9.4135562754470939e-07 6.1389328827899292e-07 0 -1.975892935697957e-05 8.5405730394114896e-06 0 -1.566092877671537e-05 9.929082714804235e-06 0 -2.2920256566992384e-05 1.5619991789933421e-05 0 -3.347730789946392e-06 2.3393218573897548e-06 0 -4.062641485151161e-06 3.3492669517021462e-06 0 -2.569413154822123e-06 3.5545228951989881e-06 0 -2.9837171130703787e-06 1.6940739492686804e-06 0 -3.8745207922920357e-06 5.9951756531861189e-07 0 -2.3815411428298085e-06 3.1720154671705935e-07 0 -1.2390638232732709e-05 3.0915042452938772e-06 0 -8.1562355502700556e-06 1.3455260648899317e-06 0 -9.4865119637188032e-06 3.7496432731318456e-06 0 -6.0681921613854572e-06 3.0267362470190278e-06 0 -4.2970421587761587e-06 5.1632243699613754e-06 0 -4.062641485151161e-06 3.3492669517021458e-06 0 -8.2151464595271251e-06 -1.2073324731242356e-06 0 -9.0101661470883835e-06 -2.1639069711761902e-06 0 -6.6846108561241343e-06 -5.1377041068023763e-07 0 -7.7492927931850421e-06 -1.6250944258074485e-06 0 -6.6846108561241343e-06 -5.1377041068023763e-07 0 -9.0101661470883835e-06 -2.1639069711761902e-06 0 -3.6931672830424806e-09 1.9098128366371971e-10 0 -2.5581129169910711e-09 -7.5458812682068005e-10 0 -3.0802818471541018e-06 -2.2251292697338228e-07 0 -2.0136422397344996e-09 3.5363834490476675e-10 0 -2.7278354130259776e-09 -2.4251087688858904e-10 0 -2.2739340037350393e-06 -1.7008358111596232e-07 0 1.5593970346927502e-05 7.874969736759355e-05 0 -9.0432808203888963e-06 7.7191865342505592e-05 0 -5.2542809137349514e-06 5.6441179433290672e-05 0 -3.0085951683736679e-06 1.0024638443726656e-06 0 -4.4746054271254809e-06 5.5885128173936081e-07 0 -2.9647490473509079e-06 1.1221994046907276e-06 0 -1.6195265517610614e-05 -7.5591683397084126e-06 0 -1.2977831214134543e-05 -5.5704378903882707e-06 0 -1.480760717530762e-05 -9.0067454924861155e-06 0 -2.134760799638706e-05 -3.267345338105811e-05 0 -2.3224916009172556e-05 -3.0129651472383549e-05 0 -2.416752834482128e-05 -3.224850781001155e-05 0 -1.9147039159621605e-05 -6.1037689075831338e-06 0 -1.8491427539055621e-05 -5.3631361542578919e-06 0 -1.5503403240882099e-05 -4.1784701009836503e-06 0 -2.8993979689853119e-05 7.9178118075184782e-06 0 -2.3079678524398645e-05 4.9514363479309167e-06 0 -2.8277196980941243e-05 7.3125302459864497e-06 0 -2.0096356948560613e-05 -2.396671817099429e-05 0 -1.773950494180914e-05 -2.3729371470602108e-05 0 -1.9765645357000226e-05 -2.1024715777538888e-05 0 -1.8491427539055621e-05 -5.3631361542578919e-06 0 -1.5465554944875509e-05 -4.0525147255068303e-06 0 -1.4823773280031198e-05 -3.6233926154836765e-06 0 -1.9890526358990608e-05 4.8108922731489865e-06 0 -1.7529405397676906e-05 5.3184696699509325e-06 0 -2.5705930315175148e-05 7.8310346323491143e-06 0 -1.9543767864248025e-05 -6.1923786178179323e-06 0 -1.5465554944875509e-05 -4.0525147255068303e-06 0 -1.8491427539055621e-05 -5.3631361542578919e-06 0 -6.3550859564816295e-06 -4.3374469273888113e-08 0 -7.7501104024739251e-06 -5.6952767043333307e-07 0 -8.4790507137918912e-06 -9.6332809947845643e-07 0 -5.7754100590332003e-06 1.1460799549716494e-07 0 -8.1562355502700556e-06 1.3455260648899317e-06 0 -8.8549206854932494e-06 1.3745253070142099e-07 0 -2.7207844117050217e-05 1.2358383027034622e-05 0 -1.975892935697957e-05 8.5405730394114896e-06 0 -2.2920256566992384e-05 1.5619991789933421e-05 0 -2.4480805709793564e-05 -2.3570744528536634e-05 0 -2.1557807542033593e-05 -2.0686189086692072e-05 0 -2.3260314911214541e-05 -2.0410916927663445e-05 0 -1.5020611645951927e-05 0.00017697061486951943 0 -1.0390343196140085e-05 0.00020243414904206003 0 -2.9177802092933232e-05 0.00019970138576688127 0 -4.8950415528405959e-05 -8.3037705900214893e-05 0 -5.2552845141366559e-05 -9.4823727895947208e-05 0 -4.3931399079301828e-05 -9.3055453040975864e-05 0 -1.2964475985208995e-06 -3.4966790464490622e-07 0 -8.7696767246452703e-07 -4.7483808552933399e-07 0 -6.9397171616146835e-07 -1.9902788768475775e-07 0 -1.8549053162878449e-06 8.6811258864620654e-07 0 -9.4135562754470939e-07 6.1389328827899292e-07 0 -1.0842920069185155e-06 5.860952409777137e-07 0 -1.6547345516881318e-09 -4.9579792523631903e-10 0 -1.364530052080314e-06 -7.6573248039730357e-07 0 -1.6491786174280931e-06 -8.0813571958421135e-07 0 -1.5585234283516432e-09 2.9999909657271746e-10 0 -1.5278765226926584e-06 4.5979443308683946e-07 0 -1.4316604380579646e-06 5.9506259263833034e-07 0 -1.6195265517610614e-05 -7.5591683397084126e-06 0 -1.8832548704781103e-05 -1.0361096884088994e-05 0 -1.8013899081255347e-05 -9.3474147734930331e-06 0 -2.0013791828972114e-05 -1.209465810984981e-05 0 -1.8013899081255347e-05 -9.3474147734930331e-06 0 -1.8832548704781103e-05 -1.0361096884088994e-05 0 -4.1305163614856267e-05 8.6647592273732092e-05 0 -3.6719434279738952e-05 6.2321972317618145e-05 0 -2.5533730301061515e-05 8.0844110783632255e-05 0 -2.0132649375871933e-05 5.5237566123823506e-05 0 -2.5533730301061518e-05 8.0844110783632255e-05 0 -3.6719434279738952e-05 6.2321972317618145e-05 0 -5.4904259366748608e-06 1.2966226292308098e-05 0 -3.0397265189064156e-06 8.8464444257948119e-06 0 -1.2660919194083942e-06 1.4416789449327186e-05 0 -1.6195265517610614e-05 -7.5591683397084126e-06 0 -1.340533286544147e-05 -4.0358109716550593e-06 0 -1.2977831214134543e-05 -5.5704378903882707e-06 0 -1.5456889625767975e-06 6.6494917722094978e-07 0 -1.1401336382402602e-06 4.602830824452786e-07 0 -1.3962505638010971e-06 8.994070346104951e-07 0 -2.1050274231954107e-05 -1.7258267028771514e-05 0 -2.1557807542033593e-05 -2.0686189086692072e-05 0 -1.9094880550607836e-05 -1.7426325870271961e-05 0 -5.9482022928721453e-05 0.00014039710451655489 0 -6.8392303623483606e-05 0.00012376262795039437 0 -5.1671230290464196e-05 0.00011071078542415458 0 -2.7688949943851401e-05 -2.7395283265249386e-05 0 -2.7212603742293219e-05 -2.5002319769572819e-05 0 -2.9073549306167787e-05 -2.7910608743326294e-05 0 -1.8408555505282755e-05 -2.8000672829283888e-05 0 -2.0046426905770338e-05 -2.6603683874777289e-05 0 -2.019932901720035e-05 -3.0379118595468425e-05 0 -5.0035808544302301e-06 3.7241297770048104e-07 0 -3.2536743950188383e-06 8.932532190585049e-07 0 -4.9006614897251329e-06 4.3500862263099646e-07 0 -4.0227699132063622e-05 4.2600739504850353e-05 0 -2.763712439492971e-05 2.7757578850359327e-05 0 -2.7178689499691852e-05 4.0840595369956334e-05 0 -7.4166203312899364e-06 -2.827017805779313e-06 0 -1.1062353024314795e-05 -3.6308082492886991e-06 0 -6.7332066518297525e-06 -1.845511285983136e-06 0 -1.6018363746324939e-05 4.0899998143018607e-06 0 -1.0479527844655897e-05 3.1537667222576289e-06 0 -9.5295641766285576e-06 1.677495114949218e-06 0 -1.3987837359956703e-05 -1.5459788293319725e-05 0 -1.1880251067860641e-05 -1.1297805305179524e-05 0 -1.4945192829944159e-05 -1.0583005670577516e-05 0 -3.275327529141679e-06 4.2381832510273822e-07 0 -5.4335535775029296e-06 1.6233933809047552e-07 0 -3.1360693318731853e-06 6.6027716853313189e-07 0 -3.7321949017340261e-06 -9.9038278452240894e-07 0 -2.9761084043752277e-06 -1.0035300544985718e-06 0 -5.9700790756965857e-06 -6.7686591815147486e-07 0 -7.4073823705931961e-05 4.8855547983879125e-05 0 -5.6579216459699098e-05 3.7839294126611679e-05 0 -5.9390740046431964e-05 5.2305655201248875e-05 0 -4.3612719606717071e-05 -2.5161569089876293e-05 0 -3.769802278446256e-05 -2.6687270236509857e-05 0 -3.535888553075776e-05 -1.9955647129752228e-05 0 -1.4949826379012046e-05 2.5903112575440776e-05 0 -4.9110339824822395e-06 1.9424054398833165e-05 0 -9.4106570996170464e-06 3.4927936435369615e-05 0 3.3442520218726148e-06 2.1848289243673366e-05 0 -9.4106570996170464e-06 3.4927936435369615e-05 0 -4.9110339824822395e-06 1.9424054398833165e-05 0 -2.1943282351549083e-05 -2.7616237931855439e-05 0 -2.8428261296496111e-05 -3.0587136277615356e-05 0 -2.5263982291775543e-05 -3.6083119926355474e-05 0 -3.1069408836331688e-05 -4.2576373820483791e-05 0 -2.5263982291775543e-05 -3.6083119926355474e-05 0 -2.8428261296496111e-05 -3.0587136277615356e-05 0 -1.1984844721399439e-05 -4.8011009265589281e-06 0 -8.6763309609148912e-06 2.9545130727912736e-07 0 -9.3150525175936621e-06 3.1043004885108525e-06 0 -2.134760799638706e-05 -3.267345338105811e-05 0 -2.4167528344821284e-05 -3.224850781001155e-05 0 -2.1876590004274334e-05 -3.4608226265314229e-05 0 -1.5456889625767975e-06 6.6494917722094978e-07 0 -2.3815411428298085e-06 3.1720154671705935e-07 0 -1.6799449221310132e-06 -1.9698565218411595e-08 0 -2.3402595682592222e-05 -1.418688999740323e-05 0 -3.0424729240405219e-05 -1.9580813055650552e-05 0 -2.5612485578277872e-05 -1.8976883600557976e-05 0 -1.8448676558362956e-05 -3.8226429157020308e-05 0 -1.868124463644343e-05 -3.5522608670915139e-05 0 -2.0147499669310206e-05 -3.5369924884158422e-05 0 -5.9779758520554714e-05 7.2708495571303526e-05 0 -7.3372505656112767e-05 7.3118181555208124e-05 0 -5.9390740046431964e-05 5.2305655201248875e-05 0 -8.0706891578422374e-05 0.00020204215870692026 0 -6.0154486793394711e-05 0.00018272053473457152 0 -5.9829037344672323e-05 0.00020405491983737379 0 -2.3021610251142722e-05 -9.3261260100531472e-05 0 -3.0016704278311815e-05 -8.4826539238894589e-05 0 -3.1357517383781283e-05 -9.4795428603117423e-05 0 -5.646192261984448e-06 -9.5296703814759444e-09 0 -5.0117848857322703e-06 7.7947867550584728e-07 0 -4.157316806134127e-06 8.4502271655073445e-07 0 -2.0013791828972114e-05 -1.209465810984981e-05 0 -1.8832548704781103e-05 -1.0361096884088994e-05 0 -2.1676176225491624e-05 -1.3835205708542381e-05 0 -1.8769779740316235e-06 1.5788067123698637e-06 0 -2.2822045052294922e-06 2.4328665355747833e-06 0 -1.8671791180639204e-06 2.0867972358983292e-06 0 -2.1240557441880245e-06 3.1404437084128678e-06 0 -1.8671791180639204e-06 2.0867972358983292e-06 0 -2.2822045052294922e-06 2.4328665355747833e-06 0 -1.2390638232732709e-05 3.0915042452938772e-06 0 -1.7529405397676906e-05 5.3184696699509325e-06 0 -1.5351393393119467e-05 2.7257214159669862e-06 0 -3.1069408836331688e-05 -4.2576373820483791e-05 0 -3.7214300817223297e-05 -4.9322071207995378e-05 0 -3.3709551275093505e-05 -5.5561364662208476e-05 0 -1.7132986871587296e-05 2.6003809505770775e-06 0 -1.3332210926343896e-05 1.2744676738055266e-06 0 -2.0579438126101317e-05 4.0196024283344217e-06 0 -2.1872742974626707e-05 0.00013952510115106671 0 -4.1270651388398566e-05 0.00016164585656732166 0 -4.4451504367530602e-05 0.00014185204774136358 0 -2.1872742974626707e-05 0.00013952510115106671 0 -4.4451504367530602e-05 0.00014185204774136358 0 -3.971082094801793e-05 0.00012125892078186229 0 -5.9482022928721453e-05 0.00014039710451655489 0 -3.971082094801793e-05 0.00012125892078186229 0 -4.4451504367530602e-05 0.00014185204774136358 0 -4.170180321101344e-05 -6.537290605414863e-05 0 -3.643727840526184e-05 -7.5577673823873189e-05 0 -3.2308762106530881e-05 -6.4968480595871834e-05 0 -4.170180321101344e-05 -6.537290605414863e-05 0 -3.2308762106530881e-05 -6.4968480595871834e-05 0 -3.3709551275093505e-05 -5.5561364662208476e-05 0 -3.0397265189064156e-06 8.8464444257948119e-06 0 -2.0931794650061707e-06 1.0409849963219083e-05 0 -1.2660919194083942e-06 1.4416789449327186e-05 0 -9.5635451583232202e-10 -2.5615281837206362e-10 0 -6.7479785553644498e-10 2.6858451838484103e-11 0 -6.9397171616146835e-07 -1.9902788768475775e-07 0 -8.669341519201022e-10 2.2298035392294363e-10 0 -1.0905803998064762e-09 3.0046639948769643e-10 0 -9.4135562754470939e-07 6.1389328827899292e-07 0 -4.4746054271254809e-06 5.5885128173936081e-07 0 -4.157316806134127e-06 8.4502271655073435e-07 0 -2.9647490473509079e-06 1.1221994046907276e-06 0 -1.2904929358287864e-05 -1.3567293897908408e-05 0 -1.3186367725341541e-05 -1.1376924086186521e-05 0 -1.5710329306507658e-05 -1.6455661645282505e-05 0 -1.3332210926343896e-05 1.2744676738055266e-06 0 -1.5351393393119464e-05 2.7257214159669862e-06 0 -2.0579438126101317e-05 4.0196024283344217e-06 0 -6.8317790715335368e-10 1.6792175917121678e-10 0 -8.2035500346736446e-07 5.1326978406498807e-07 0 -5.2870050863023948e-07 1.9242959281362579e-07 0 -1.6018363746324939e-05 4.0899998143018607e-06 0 -1.3237023881947818e-05 1.8746951058582021e-06 0 -1.845821367321042e-05 3.634866360629509e-06 0 -1.1062353024314795e-05 -3.6308082492886991e-06 0 -1.2649967539927971e-05 -3.3519179601557443e-06 0 -9.3370089785152026e-06 -2.1266218865178557e-06 0 -3.8705867253103651e-05 -3.4971647026936167e-05 0 -3.769802278446256e-05 -2.6687270236509857e-05 0 -4.4662951777543322e-05 -3.5548266149500353e-05 0 -1.4630162144991306e-06 8.9157821999687069e-07 0 -1.1562085110950817e-06 7.4117103754464532e-07 0 -2.0880173121977829e-06 1.0574375294284984e-06 0 -2.4480805709793564e-05 -2.3570744528536634e-05 0 -2.7212603742293219e-05 -2.5002319769572819e-05 0 -2.5731506406120411e-05 -2.5927981708960744e-05 0 -6.0681921613854572e-06 3.0267362470190278e-06 0 -4.062641485151161e-06 3.3492669517021458e-06 0 -5.6628010435955852e-06 1.8817682869769361e-06 0 -1.3077792600445204e-05 0.0001017599152980439 0 -3.2279474587884427e-05 0.00010333037103337238 0 -2.5533730301061515e-05 8.0844110783632255e-05 0 -1.5456889625767975e-06 6.6494917722094978e-07 0 -1.1755687313758196e-06 4.1458846016134242e-08 0 -1.1401336382402602e-06 4.602830824452786e-07 0 -6.8250553026532235e-05 0.00022628462185647169 0 -5.9829037344672323e-05 0.00020405491983737379 0 -4.4949149919534272e-05 0.00021586547416606398 0 -2.8928817865556494e-05 -0.00010560488919127599 0 -3.1357517383781283e-05 -9.4795428603117423e-05 0 -3.7806950619124458e-05 -0.0001004601783224055 0 -1.1562085110950817e-06 7.4117103754464532e-07 0 -1.9884371700203002e-06 9.6926827972076257e-07 0 -2.0880173121977829e-06 1.0574375294284984e-06 0 -6.0681921613854572e-06 3.0267362470190278e-06 0 -7.7131385496248916e-06 6.0427237352447055e-07 0 -9.0976992387290177e-06 1.1161909132316105e-06 0 -2.5302830052256325e-05 0.00022615186110146147 0 -2.894799675114153e-05 0.00024869146861431233 0 -4.6611759610291197e-05 0.00024124475654730492 0 -6.8250553026532235e-05 0.00022628462185647169 0 -4.6611759610291197e-05 0.00024124475654730492 0 -6.499138392457143e-05 0.00024827929287204905 0 -4.663941532244277e-05 -0.00010502439266564322 0 -4.5282968933642296e-05 -0.0001151241185912846 0 -3.7617052625707471e-05 -0.00011217052517010851 0 -2.8928817865556494e-05 -0.00010560488919127599 0 -3.7617052625707471e-05 -0.00011217052517010851 0 -3.0476336074998954e-05 -0.00011567661239236479 0 -2.2920256566992384e-05 1.5619991789933421e-05 0 -3.4852669784599085e-05 2.5999131798533624e-05 0 -3.3886650631067666e-05 1.8696375774931261e-05 0 -2.9415241352554206e-05 -2.3110763840715739e-05 0 -3.769802278446256e-05 -2.6687270236509857e-05 0 -3.3390653733729866e-05 -2.973010721201887e-05 0 -3.8705867253103651e-05 -3.4971647026936167e-05 0 -3.3390653733729866e-05 -2.973010721201887e-05 0 -3.769802278446256e-05 -2.6687270236509857e-05 0 -5.9779758520554714e-05 7.2708495571303526e-05 0 -5.9390740046431964e-05 5.2305655201248875e-05 0 -4.820236777534256e-05 6.0073142611916483e-05 0 -4.0227699132063622e-05 4.2600739504850353e-05 0 -4.820236777534256e-05 6.0073142611916483e-05 0 -5.9390740046431964e-05 5.2305655201248875e-05 0 -1.8549053162878449e-06 8.6811258864620654e-07 0 -2.4101370684130419e-06 8.3671772426316826e-07 0 -3.2536743950188383e-06 8.932532190585049e-07 0 1.2449066965268221e-05 5.4711692189826824e-05 0 1.5593970346927502e-05 7.874969736759355e-05 0 -5.2542809137349514e-06 5.6441179433290672e-05 0 -3.7321949017340261e-06 -9.9038278452240894e-07 0 -5.9524860672322477e-06 -7.3869883840400066e-07 0 -3.9334741186233113e-06 -6.896164100403796e-07 0 -3.275327529141679e-06 4.2381832510273822e-07 0 -3.0732562640129114e-06 9.1598067679223374e-08 0 -4.8297515717080819e-06 3.508757295965896e-08 0 -1.6195265517610614e-05 -7.5591683397084126e-06 0 -1.5300882991663578e-05 -5.7770280488691676e-06 0 -1.340533286544147e-05 -4.0358109716550593e-06 0 -5.4335535775029296e-06 1.6233933809047552e-07 0 -4.8797879457581835e-06 3.9481903647940729e-07 0 -3.1360693318731853e-06 6.6027716853313189e-07 0 -5.9700790756965857e-06 -6.7686591815147486e-07 0 -2.9761084043752282e-06 -1.0035300544985718e-06 0 -4.5878101952059706e-06 -4.9510566541759988e-07 0 -1.9890526358990608e-05 4.8108922731489865e-06 0 -2.5705930315175148e-05 7.8310346323491143e-06 0 -2.0579438126101317e-05 4.0196024283344217e-06 0 -2.8277196980941243e-05 7.3125302459864497e-06 0 -2.0579438126101317e-05 4.0196024283344217e-06 0 -2.5705930315175148e-05 7.8310346323491143e-06 0 -2.5302830052256325e-05 0.00022615186110146147 0 -2.9177802092933232e-05 0.00019970138576688127 0 -1.0390343196140085e-05 0.00020243414904206003 0 -4.663941532244277e-05 -0.00010502439266564322 0 -4.3931399079301828e-05 -9.3055453040975864e-05 0 -5.2552845141366559e-05 -9.4823727895947208e-05 0 -1.8448676558362956e-05 -3.8226429157020308e-05 0 -1.7302696459796516e-05 -3.8762131175826087e-05 0 -1.7367814229948434e-05 -3.7503977161128078e-05 0 -2.6646080538069549e-05 -3.4630878149995258e-05 0 -2.3277895929845342e-05 -3.5678109860901815e-05 0 -2.6902220423265565e-05 -3.2172359796199192e-05 0 -1.028375193161385e-05 -2.3754221356265826e-06 0 -8.2151464595271251e-06 -1.2073324731242356e-06 0 -8.4790507137918912e-06 -9.6332809947845643e-07 0 -3.0615617292994109e-05 -3.0515045807191839e-05 0 -2.9602116764979002e-05 -2.9510245971576779e-05 0 -2.9073549306167787e-05 -2.7910608743326294e-05 0 -1.0371425701511176e-05 -2.4692243906101635e-05 0 -1.1843054336260509e-05 -2.5518791377680501e-05 0 -1.4107713819762458e-05 -3.05341154313689e-05 0 -1.7947371879145617e-05 -3.1206504515988149e-05 0 -1.6195709100157e-05 -3.1365794545533298e-05 0 -1.6060214195576026e-05 -2.728488548265572e-05 0 -2.8926861461030322e-05 -1.5274950564110768e-05 0 -3.0424729240405219e-05 -1.9580813055650552e-05 0 -2.3402595682592222e-05 -1.418688999740323e-05 0 -2.3277895929845342e-05 -3.5678109860901815e-05 0 -2.1876590004274334e-05 -3.4608226265314229e-05 0 -2.416752834482128e-05 -3.224850781001155e-05 0 -3.3717726638786504e-05 1.3681886154202262e-05 0 -2.5705930315175148e-05 7.8310346323491143e-06 0 -2.7207844117050217e-05 1.2358383027034622e-05 0 -5.0117848857322703e-06 7.7947867550584728e-07 0 -3.7135670319638649e-06 1.4460364218199826e-06 0 -4.157316806134127e-06 8.4502271655073445e-07 0 -2.9415241352554206e-05 -2.3110763840715739e-05 0 -2.8428261296496111e-05 -3.0587136277615356e-05 0 -2.4406381449788714e-05 -2.2664149451018084e-05 0 -2.1943282351549083e-05 -2.7616237931855439e-05 0 -2.4406381449788714e-05 -2.2664149451018084e-05 0 -2.8428261296496111e-05 -3.0587136277615356e-05 0 -1.1237851410482972e-05 -2.4001781754489728e-06 0 -1.028375193161385e-05 -2.3754221356265826e-06 0 -8.4790507137918912e-06 -9.6332809947845643e-07 0 -2.9415241352554206e-05 -2.3110763840715739e-05 0 -2.5612485578277872e-05 -1.8976883600557976e-05 0 -3.0424729240405219e-05 -1.9580813055650552e-05 0 -9.7194543675013292e-06 -1.3914795589728598e-06 0 -1.1237851410482972e-05 -2.4001781754489728e-06 0 -8.4790507137918912e-06 -9.6332809947845643e-07 0 -5.7754100590332003e-06 1.1460799549716494e-07 0 -4.9482624082043921e-06 1.4341911813990961e-06 0 -8.1562355502700556e-06 1.3455260648899317e-06 0 -2.9415241352554206e-05 -2.3110763840715739e-05 0 -3.0424729240405219e-05 -1.9580813055650552e-05 0 -3.769802278446256e-05 -2.6687270236509857e-05 0 -4.0227699132063622e-05 4.2600739504850353e-05 0 -5.9390740046431964e-05 5.2305655201248875e-05 0 -4.6648874011546769e-05 3.6575376833719592e-05 0 -2.5581129169910711e-09 -7.5458812682068005e-10 0 -1.8550450224630459e-06 -6.6663307818531803e-07 0 -3.9334741186233113e-06 -6.896164100403796e-07 0 -2.0136422397344996e-09 3.5363834490476675e-10 0 -3.0732562640129114e-06 9.1598067679223374e-08 0 -1.551181591461754e-06 2.7632643706029639e-07 0 -9.7194543675013292e-06 -1.3914795589728598e-06 0 -8.4790507137918912e-06 -9.6332809947845643e-07 0 -7.7501104024739251e-06 -5.6952767043333307e-07 0 -1.0957300909388974e-05 1.4273046299512578e-06 0 -8.8549206854932494e-06 1.3745253070142099e-07 0 -8.1562355502700556e-06 1.3455260648899317e-06 0 -3.2014338367586729e-06 -6.9226855507745374e-07 0 -2.0834555349141615e-06 -6.6292538907627428e-07 0 -3.3335970741964836e-06 -1.7588146871893408e-07 0 -1.5710329306507658e-05 -1.6455661645282505e-05 0 -2.0062041590505998e-05 -1.9872541525814027e-05 0 -1.6263518684228279e-05 -2.4256353116243944e-05 0 -1.5456889625767975e-06 6.6494917722094978e-07 0 -1.3962505638010971e-06 8.994070346104952e-07 0 -1.6138370425661551e-06 1.2588809007532889e-06 0 -6.8250553026532235e-05 0.00022628462185647169 0 -8.0706891578422374e-05 0.00020204215870692026 0 -5.9829037344672323e-05 0.00020405491983737379 0 -2.8928817865556494e-05 -0.00010560488919127599 0 -2.3021610251142722e-05 -9.3261260100531472e-05 0 -3.1357517383781283e-05 -9.4795428603117423e-05 0 -6.3550859564816295e-06 -4.3374469273888113e-08 0 -5.4335535775029296e-06 1.6233933809047552e-07 0 -7.7501104024739251e-06 -5.6952767043333307e-07 0 -5.7754100590332003e-06 1.1460799549716494e-07 0 -8.8549206854932494e-06 1.3745253070142099e-07 0 -5.9700790756965857e-06 -6.7686591815147486e-07 0 -1.2840942276192682e-06 8.3046805050499487e-07 0 -2.0224442342632071e-06 1.1514945523631078e-06 0 -1.7288694964740822e-06 1.191239803256335e-06 0 -2.0062041590505998e-05 -1.9872541525814027e-05 0 -2.1943282351549083e-05 -2.7616237931855439e-05 0 -1.6263518684228279e-05 -2.4256353116243944e-05 0 -0.0001058750194442331 0.000154189669013321 0 -0.0001024555476658936 0.00013048014329996972 0 -8.2014421672006873e-05 0.00014124038470114726 0 -8.0160422993005241e-06 -5.6143412698580281e-05 0 -1.771158056183423e-05 -6.3239412444003493e-05 0 -8.6763729453495003e-06 -6.7171924233574897e-05 0 -4.170180321101344e-05 -6.537290605414863e-05 0 -3.3709551275093498e-05 -5.5561364662208476e-05 0 -4.0633453562693319e-05 -5.6083267226490913e-05 0 -1.0439145734134651e-05 -2.0251237879404487e-06 0 -1.2977831214134543e-05 -5.5704378903882698e-06 0 -1.340533286544147e-05 -4.0358109716550593e-06 0 -1.7132986871587296e-05 2.6003809505770775e-06 0 -1.3237023881947817e-05 1.8746951058582019e-06 0 -1.2503386713822906e-05 1.0653673359646689e-06 0 -1.213503636854854e-05 -2.5914746955408465e-06 0 -9.1905282764454258e-06 -1.537680695812934e-06 0 -9.3370089785152026e-06 -2.1266218865178557e-06 0 -4.1062618492911328e-06 5.5579259334995535e-06 0 -4.2797649211549878e-06 3.0707164440161839e-06 0 -2.6032061882392939e-06 3.7787326943650345e-06 0 -1.2840942276192682e-06 8.3046805050499487e-07 0 -1.4630162144991306e-06 8.9157821999687069e-07 0 -2.0224442342632071e-06 1.1514945523631078e-06 0 -2.0013791828972114e-05 -1.209465810984981e-05 0 -2.2555930254418147e-05 -1.5950695284532579e-05 0 -2.022328099306211e-05 -1.3740672755921249e-05 0 -1.7132986871587296e-05 2.6003809505770775e-06 0 -1.845821367321042e-05 3.634866360629509e-06 0 -1.3237023881947818e-05 1.8746951058582021e-06 0 -1.213503636854854e-05 -2.5914746955408465e-06 0 -9.3370089785152026e-06 -2.1266218865178557e-06 0 -1.2649967539927973e-05 -3.3519179601557448e-06 0 -6.0681921613854572e-06 3.0267362470190278e-06 0 -5.6628010435955852e-06 1.8817682869769361e-06 0 -7.7131385496248916e-06 6.0427237352447055e-07 0 -3.6595945247789693e-05 -8.8393374950219397e-05 0 -3.6437278405261834e-05 -7.5577673823873175e-05 0 -4.1747936261496783e-05 -8.2547241830635711e-05 0 -4.5146742310120345e-05 0.00019015102911017941 0 -4.1270651388398566e-05 0.00016164585656732166 0 -3.1245699405979505e-05 0.00017685745367891674 0 -2.8926861461030322e-05 -1.5274950564110768e-05 0 -2.3402595682592222e-05 -1.418688999740323e-05 0 -2.3456811357915153e-05 -1.0976431712324048e-05 0 -1.8889749781607638e-05 -9.6007778996006861e-06 0 -2.3456811357915153e-05 -1.0976431712324048e-05 0 -2.3402595682592222e-05 -1.418688999740323e-05 0 -9.7574238023359812e-06 -4.3868733399411885e-06 0 -1.1668425239056691e-05 -6.0714091982627739e-06 0 -1.1404473437568655e-05 -7.5189211534598839e-06 0 -1.3815590860318516e-05 -9.3822947041441186e-06 0 -1.1404473437568655e-05 -7.5189211534598839e-06 0 -1.1668425239056691e-05 -6.0714091982627739e-06 0 -1.364530052080314e-06 -7.6573248039730357e-07 0 -2.0834555349141615e-06 -6.6292538907627428e-07 0 -2.9761084043752282e-06 -1.0035300544985718e-06 0 -3.2014338367586729e-06 -6.9226855507745374e-07 0 -2.9761084043752282e-06 -1.0035300544985718e-06 0 -2.0834555349141615e-06 -6.6292538907627428e-07 0 -3.7376978548559648e-06 6.8261665111001696e-07 0 -2.4101370684130419e-06 8.3671772426316826e-07 0 -3.1360693318731853e-06 6.6027716853313189e-07 0 -1.4316604380579646e-06 5.9506259263833034e-07 0 -3.1360693318731853e-06 6.6027716853313189e-07 0 -2.4101370684130419e-06 8.3671772426316826e-07 0 -2.4480805709793564e-05 -2.3570744528536634e-05 0 -2.3928794956083788e-05 -2.6270624816918417e-05 0 -2.221019412603773e-05 -2.3861232164031666e-05 0 -1.0439145734134651e-05 -2.0251237879404487e-06 0 -9.0976992387290177e-06 1.1161909132316105e-06 0 -7.7131385496248916e-06 6.0427237352447055e-07 0 -2.1240557441880245e-06 3.1404437084128678e-06 0 -2.2434383572821239e-06 2.637155842443296e-06 0 -1.8671791180639204e-06 2.0867972358983292e-06 0 -2.1872742974626707e-05 0.00013952510115106671 0 -2.3196971720958055e-05 0.00016216677474892153 0 -4.1270651388398566e-05 0.00016164585656732166 0 -4.170180321101344e-05 -6.537290605414863e-05 0 -4.4073814099900566e-05 -7.5401280158027221e-05 0 -3.643727840526184e-05 -7.5577673823873189e-05 0 -2.1872742974626707e-05 0.00013952510115106671 0 -3.971082094801793e-05 0.00012125892078186229 0 -2.258862221626501e-05 0.00011765916089126142 0 -4.1062618492911328e-06 5.5579259334995535e-06 0 -6.7076216110648146e-06 4.7553929767864389e-06 0 -4.2797649211549878e-06 3.0707164440161839e-06 0 -4.1062618492911328e-06 5.5579259334995535e-06 0 -6.3766447161848057e-06 8.5008498840934583e-06 0 -6.7076216110648146e-06 4.7553929767864389e-06 0 -4.1305163614856267e-05 8.6647592273732092e-05 0 -3.2279474587884427e-05 0.00010333037103337238 0 -5.1671230290464196e-05 0.00011071078542415458 0 -3.971082094801793e-05 0.00012125892078186229 0 -5.1671230290464196e-05 0.00011071078542415458 0 -3.2279474587884427e-05 0.00010333037103337238 0 -6.3934552018632819e-06 1.848458774715328e-07 0 -3.9334741186233113e-06 -6.896164100403796e-07 0 -7.0391557406590385e-06 -3.2147780593633131e-07 0 -4.6713678551873296e-06 -6.9042484468947339e-07 0 -5.3739204869668503e-06 -3.6810512634613417e-07 0 -3.0732562640129114e-06 9.1598067679223374e-08 0 -2.1943282351549083e-05 -2.7616237931855439e-05 0 -2.5263982291775543e-05 -3.6083119926355474e-05 0 -1.8675608223095417e-05 -3.5883006953546444e-05 0 -3.0615617292994109e-05 -3.0515045807191839e-05 0 -3.1303911624126036e-05 -3.2445460716895195e-05 0 -2.9602116764979002e-05 -2.9510245971576779e-05 0 -1.0371425701511176e-05 -2.4692243906101635e-05 0 -1.4107713819762458e-05 -3.05341154313689e-05 0 -1.1850197558606164e-05 -2.8309806852381257e-05 0 -6.3589186848742776e-06 4.1084420287748282e-07 0 -7.7131385496248916e-06 6.0427237352447055e-07 0 -5.6628010435955852e-06 1.8817682869769361e-06 0 -2.1240557441880245e-06 3.1404437084128678e-06 0 -2.3437708459592605e-06 5.0364040192660158e-06 0 -2.6032061882392939e-06 3.7787326943650345e-06 0 -2.134760799638706e-05 -3.267345338105811e-05 0 -2.019932901720035e-05 -3.0379118595468425e-05 0 -2.3224916009172556e-05 -3.0129651472383549e-05 0 -2.1715544472379405e-05 -2.8415651826257224e-05 0 -2.3224916009172556e-05 -3.0129651472383549e-05 0 -2.019932901720035e-05 -3.0379118595468425e-05 0 -1.768759769835473e-05 -1.9148341261301536e-05 0 -1.773950494180914e-05 -2.3729371470602108e-05 0 -1.4538188069456964e-05 -1.9363266415185889e-05 0 -6.8250553026532235e-05 0.00022628462185647169 0 -8.9222043937833454e-05 0.00022387239545244226 0 -8.0706891578422374e-05 0.00020204215870692026 0 -2.8928817865556494e-05 -0.00010560488919127599 0 -2.0924736546528895e-05 -0.00010364916391989726 0 -2.3021610251142722e-05 -9.3261260100531472e-05 0 -2.8703453957969166e-05 -3.0368563936746467e-05 0 -3.0544900905107667e-05 -3.2034412512423836e-05 0 -2.6902220423265565e-05 -3.2172359796199192e-05 0 -1.6192570781607275e-05 -3.4690230167868992e-05 0 -1.7367814229948434e-05 -3.7503977161128078e-05 0 -1.5858912559586361e-05 -3.6506304639461178e-05 0 -2.5302830052256325e-05 0.00022615186110146147 0 -4.4949149919534272e-05 0.00021586547416606398 0 -2.9177802092933232e-05 0.00019970138576688127 0 -4.663941532244277e-05 -0.00010502439266564322 0 -3.7806950619124458e-05 -0.0001004601783224055 0 -4.3931399079301828e-05 -9.3055453040975864e-05 0 -1.2840942276192682e-06 8.3046805050499487e-07 0 -1.7288694964740822e-06 1.191239803256335e-06 0 -1.3962505638010971e-06 8.994070346104951e-07 0 -1.8769779740316235e-06 1.5788067123698637e-06 0 -1.3962505638010971e-06 8.994070346104951e-07 0 -1.7288694964740822e-06 1.191239803256335e-06 0 -1.5020611645951927e-05 0.00017697061486951943 0 -2.9177802092933232e-05 0.00019970138576688127 0 -3.1245699405979505e-05 0.00017685745367891674 0 -4.8950415528405959e-05 -8.3037705900214893e-05 0 -4.3931399079301828e-05 -9.3055453040975864e-05 0 -4.1747936261496783e-05 -8.2547241830635711e-05 0 -3.7321949017340261e-06 -9.9038278452240894e-07 0 -3.9334741186233121e-06 -6.8961641004037949e-07 0 -1.8550450224630459e-06 -6.6663307818531803e-07 0 -3.275327529141679e-06 4.2381832510273822e-07 0 -1.551181591461754e-06 2.7632643706029639e-07 0 -3.0732562640129114e-06 9.1598067679223374e-08 0 -2.0132649375871933e-05 5.5237566123823506e-05 0 -9.0432808203888963e-06 7.7191865342505592e-05 0 -2.5533730301061515e-05 8.0844110783632255e-05 0 -6.3934552018632819e-06 1.848458774715328e-07 0 -3.0802818471541018e-06 -2.2251292697338228e-07 0 -3.9334741186233113e-06 -6.896164100403796e-07 0 -4.6713678551873296e-06 -6.9042484468947339e-07 0 -3.0732562640129114e-06 9.1598067679223374e-08 0 -2.2739340037350393e-06 -1.7008358111596232e-07 0 -0.0001090497397930405 0.00020149919888509752 0 -9.1864532608773789e-05 0.00018471310622473588 0 -8.0706891578422374e-05 0.00020204215870692026 0 -1.1173032345747018e-05 -9.0240656801689997e-05 0 -1.7182747209842044e-05 -8.3767071057825761e-05 0 -2.3021610251142722e-05 -9.3261260100531472e-05 0 -1.4949826379012046e-05 2.5903112575440776e-05 0 -2.763712439492971e-05 2.7757578850359327e-05 0 -1.730158643656287e-05 1.9077866856413782e-05 0 -2.2920256566992384e-05 1.5619991789933421e-05 0 -1.730158643656287e-05 1.9077866856413786e-05 0 -2.763712439492971e-05 2.7757578850359327e-05 0 -3.1069408836331688e-05 -4.2576373820483791e-05 0 -2.8428261296496111e-05 -3.0587136277615349e-05 0 -3.3882499396787831e-05 -3.5719486412568726e-05 0 -1.1984844721399439e-05 -4.8011009265589281e-06 0 -1.1880251067860641e-05 -1.1297805305179524e-05 0 -8.9778598745261362e-06 -7.4302198618911951e-06 0 -4.1305163614856267e-05 8.6647592273732092e-05 0 -4.8632732077411249e-05 7.3996030970408327e-05 0 -3.6719434279738952e-05 6.2321972317618145e-05 0 -4.0227699132063622e-05 4.2600739504850353e-05 0 -3.6719434279738952e-05 6.2321972317618145e-05 0 -4.820236777534256e-05 6.0073142611916483e-05 0 -2.9415241352554206e-05 -2.3110763840715739e-05 0 -3.3390653733729866e-05 -2.973010721201887e-05 0 -2.8428261296496111e-05 -3.0587136277615356e-05 0 -2.1943282351549083e-05 -2.7616237931855439e-05 0 -1.8675608223095417e-05 -3.5883006953546444e-05 0 -1.6263518684228279e-05 -2.4256353116243944e-05 0 -2.7688949943851401e-05 -2.7395283265249386e-05 0 -2.9073549306167787e-05 -2.7910608743326294e-05 0 -2.9602116764979002e-05 -2.9510245971576779e-05 0 -1.4510132710311715e-05 -2.8282570810545777e-05 0 -1.4107713819762458e-05 -3.05341154313689e-05 0 -1.1843054336260509e-05 -2.5518791377680501e-05 0 -1.2140048794324034e-05 -1.4647663821336745e-06 0 -1.5300882991663578e-05 -5.7770280488691676e-06 0 -1.3519846990891556e-05 -3.4339820543877365e-06 0 -1.6195265517610614e-05 -7.5591683397084126e-06 0 -1.8013899081255347e-05 -9.3474147734930331e-06 0 -1.5300882991663578e-05 -5.7770280488691676e-06 0 -4.6212161061266557e-06 7.0373565824478094e-06 0 -4.2970421587761587e-06 5.1632243699613754e-06 0 -6.9558970499819166e-06 4.3012112619123524e-06 0 -1.5710329306507658e-05 -1.6455661645282505e-05 0 -1.3186367725341541e-05 -1.1376924086186521e-05 0 -1.6524837284373439e-05 -1.3604795730011607e-05 0 -2.5302830052256325e-05 0.00022615186110146147 0 -1.0390343196140081e-05 0.00020243414904206003 0 -5.5249550598784411e-06 0.00022320809754774974 0 -4.663941532244277e-05 -0.00010502439266564322 0 -5.2552845141366559e-05 -9.4823727895947208e-05 0 -5.5811849783049387e-05 -0.00010435358737968039 0 -6.0681921613854572e-06 3.0267362470190278e-06 0 -6.9558970499819166e-06 4.3012112619123524e-06 0 -4.2970421587761587e-06 5.1632243699613754e-06 0 -1.0970241873399066e-05 -1.8291712702444903e-05 0 -1.4538188069456964e-05 -1.9363266415185889e-05 0 -1.2335073745351671e-05 -2.1350962270244722e-05 0 -2.1715544472379405e-05 -2.8415651826257224e-05 0 -2.019932901720035e-05 -3.0379118595468425e-05 0 -2.0046426905770338e-05 -2.6603683874777289e-05 0 -3.0390105450368375e-06 4.7586975938640548e-06 0 -4.062641485151161e-06 3.3492669517021458e-06 0 -4.2970421587761587e-06 5.1632243699613754e-06 0 -1.2964475985208995e-06 -3.4966790464490622e-07 0 -1.6799449221310132e-06 -1.9698565218411585e-08 0 -2.0834555349141615e-06 -6.6292538907627428e-07 0 -5.291778034604752e-05 -4.1246229132888842e-05 0 -5.6684083561163775e-05 -5.088066859700821e-05 0 -4.6094562845686151e-05 -4.3751458958958161e-05 0 -5.7754100590332003e-06 1.1460799549716494e-07 0 -4.5878101952059706e-06 -4.9510566541759988e-07 0 -3.3335970741964836e-06 -1.7588146871893408e-07 0 -1.8671791180639204e-06 2.0867972358983292e-06 0 -2.2434383572821239e-06 2.637155842443296e-06 0 -1.9414438160343733e-06 1.3614152177128094e-06 0 -6.0681921613854572e-06 3.0267362470190278e-06 0 -9.0976992387290177e-06 1.1161909132316105e-06 0 -6.9558970499819166e-06 4.3012112619123524e-06 0 -9.7455022277498972e-05 0.0001072797201537926 0 -9.1041032964106255e-05 8.5602450719217914e-05 0 -7.4767624787619954e-05 9.2449008203489546e-05 0 -1.1562085110950817e-06 7.4117103754464532e-07 0 -8.2035500346736446e-07 5.1326978406498807e-07 0 -4.670892883925059e-07 3.3038513459945391e-07 0 -2.9837171130703787e-06 1.6940739492686804e-06 0 -2.6032061882392939e-06 3.7787326943650345e-06 0 -4.2797649211549878e-06 3.0707164440161839e-06 0 -2.1050274231954107e-05 -1.7258267028771514e-05 0 -2.2471172805088288e-05 -1.7328871142448241e-05 0 -2.3260314911214541e-05 -2.0410916927663445e-05 0 -4.170180321101344e-05 -6.537290605414863e-05 0 -4.8809716712718965e-05 -6.0608038794885612e-05 0 -5.1488583135688844e-05 -7.2159718011747685e-05 0 -5.7754100590332003e-06 1.1460799549716494e-07 0 -3.3335970741964836e-06 -1.7588146871893408e-07 0 -3.8745207922920357e-06 5.9951756531861178e-07 0 -1.2840942276192682e-06 8.3046805050499487e-07 0 -9.2281047332384861e-07 4.2745703579449174e-07 0 -8.2035500346736446e-07 5.1326978406498807e-07 0 -6.4818943204620407e-06 2.6530937314191368e-06 0 -4.2797649211549878e-06 3.0707164440161839e-06 0 -6.7076216110648146e-06 4.7553929767864389e-06 0 -2.2555930254418147e-05 -1.5950695284532579e-05 0 -2.2471172805088288e-05 -1.7328871142448241e-05 0 -2.022328099306211e-05 -1.3740672755921249e-05 0 -2.7688949943851401e-05 -2.7395283265249386e-05 0 -2.7303939328015662e-05 -2.8627317429729846e-05 0 -2.5731506406120411e-05 -2.5927981708960744e-05 0 -1.9890526358990608e-05 4.8108922731489865e-06 0 -1.5351393393119467e-05 2.7257214159669862e-06 0 -1.7529405397676906e-05 5.3184696699509325e-06 0 1.5339707834465822e-05 0.00019579708278653565 0 -1.0390343196140085e-05 0.00020243414904206003 0 7.6076647070334885e-07 0.00018362605698328327 0 -6.4374171153736289e-05 -9.3956985108292472e-05 0 -5.2552845141366559e-05 -9.4823727895947208e-05 0 -5.6660337995103202e-05 -8.6973706849850416e-05 0 -1.6138370425661551e-06 1.2588809007532889e-06 0 -1.9414438160343733e-06 1.3614152177128094e-06 0 -1.5456889625767975e-06 6.6494917722094978e-07 0 -1.8671791180639204e-06 2.0867972358983292e-06 0 -1.9414438160343733e-06 1.3614152177128094e-06 0 -1.6138370425661551e-06 1.2588809007532889e-06 0 -7.5559760327860608e-05 0.00017579676578596338 0 -8.0706891578422374e-05 0.00020204215870692029 0 -9.1864532608773803e-05 0.00018471310622473588 0 -2.3276798032624814e-05 -8.0474655204077953e-05 0 -2.3021610251142725e-05 -9.3261260100531486e-05 0 -1.7182747209842044e-05 -8.3767071057825761e-05 0 -1.8769779740316235e-06 1.5788067123698637e-06 0 -2.7975497361350635e-06 1.7956529636892241e-06 0 -2.2822045052294922e-06 2.4328665355747833e-06 0 -3.347730789946392e-06 2.3393218573897548e-06 0 -2.2822045052294922e-06 2.4328665355747833e-06 0 -2.7975497361350635e-06 1.7956529636892241e-06 0 -1.8769779740316235e-06 1.5788067123698637e-06 0 -1.6138370425661551e-06 1.2588809007532889e-06 0 -1.3962505638010971e-06 8.994070346104951e-07 0 -1.213503636854854e-05 -2.5914746955408465e-06 0 -1.2312816526762481e-05 -2.4702200582298303e-06 0 -9.461793749382243e-06 -1.3252268222969343e-06 0 -1.1921264371017394e-05 -4.5248880921254558e-06 0 -1.4708470407618649e-05 -7.7182881832250265e-06 0 -1.1668425239056691e-05 -6.0714091982627739e-06 0 -1.3815590860318516e-05 -9.3822947041441186e-06 0 -1.1668425239056691e-05 -6.0714091982627739e-06 0 -1.4708470407618649e-05 -7.7182881832250265e-06 0 -1.213503636854854e-05 -2.5914746955408465e-06 0 -9.461793749382243e-06 -1.3252268222969343e-06 0 -9.1905282764454258e-06 -1.537680695812934e-06 0 -2.0132649375871933e-05 5.5237566123823506e-05 0 -5.2542809137349514e-06 5.6441179433290672e-05 0 -9.0432808203888963e-06 7.7191865342505592e-05 0 -4.5146742310120345e-05 0.00019015102911017941 0 -4.4949149919534272e-05 0.00021586547416606401 0 -5.9829037344672323e-05 0.00020405491983737379 0 -3.6595945247789693e-05 -8.8393374950219397e-05 0 -3.7806950619124458e-05 -0.0001004601783224055 0 -3.1357517383781283e-05 -9.4795428603117423e-05 0 -5.646192261984448e-06 -9.5296703814759444e-09 0 -4.4746054271254809e-06 5.588512817393606e-07 0 -6.0099307543806543e-06 -3.1781839010055441e-07 0 -6.8317790715335368e-10 1.6792175917121678e-10 0 -4.670892883925059e-07 3.3038513459945391e-07 0 -8.2035500346736446e-07 5.1326978406498807e-07 0 -4.1062618492911328e-06 5.5579259334995535e-06 0 -3.0397265189064156e-06 8.8464444257948119e-06 0 -6.3766447161848057e-06 8.5008498840934583e-06 0 -1.503276072491522e-05 -2.3713065687677785e-05 0 -1.4538188069456964e-05 -1.9363266415185889e-05 0 -1.773950494180914e-05 -2.3729371470602108e-05 0 -1.768759769835473e-05 -1.9148341261301536e-05 0 -1.9094880550607836e-05 -1.7426325870271961e-05 0 -1.9765645357000226e-05 -2.1024715777538888e-05 0 -2.0224442342632071e-06 1.1514945523631078e-06 0 -2.9647490473509079e-06 1.1221994046907276e-06 0 -2.3644811086783561e-06 1.355701688622008e-06 0 -3.8705867253103651e-05 -3.4971647026936167e-05 0 -4.6094562845686151e-05 -4.3751458958958161e-05 0 -3.7231082826971874e-05 -4.2620546841156106e-05 0 -4.3694389356611905e-05 -5.0240436018248985e-05 0 -3.7231082826971874e-05 -4.2620546841156106e-05 0 -4.6094562845686151e-05 -4.3751458958958161e-05 0 -6.5977718562647159e-10 -3.2938323862570158e-11 0 -6.8317790715338252e-10 1.6792175917122728e-10 0 -5.2870050863023948e-07 1.9242959281362579e-07 0 -6.6594847738733683e-05 0.0001073242885907204 0 -7.4767624787619954e-05 9.2449008203489546e-05 0 -5.6982823532753274e-05 9.0147836021756288e-05 0 -5.9779758520554714e-05 7.2708495571303526e-05 0 -5.6982823532753274e-05 9.0147836021756288e-05 0 -7.4767624787619954e-05 9.2449008203489546e-05 0 -2.8703453957969166e-05 -3.0368563936746467e-05 0 -2.7303939328015662e-05 -2.8627317429729846e-05 0 -2.9602116764979002e-05 -2.9510245971576779e-05 0 -1.6192570781607275e-05 -3.4690230167868992e-05 0 -1.4107713819762458e-05 -3.05341154313689e-05 0 -1.6195709100157e-05 -3.1365794545533298e-05 0 -1.0492962292182787e-05 7.1106060109578322e-06 0 -6.7076216110648146e-06 4.7553929767864389e-06 0 -6.3766447161848057e-06 8.5008498840934583e-06 0 -2.5151131053696998e-05 -2.8516373546360425e-05 0 -2.3363511953040558e-05 -2.8046703454797958e-05 0 -2.3928794956083788e-05 -2.6270624816918417e-05 0 -2.4391955727505444e-06 1.1801176988315237e-05 0 -2.3452068869118684e-06 1.5052717907303631e-05 0 -1.2660919194083942e-06 1.4416789449327186e-05 0 -5.7754100590332003e-06 1.1460799549716494e-07 0 -3.8745207922920357e-06 5.9951756531861178e-07 0 -4.9482624082043921e-06 1.4341911813990961e-06 0 -2.2920256566992384e-05 1.5619991789933421e-05 0 -1.2055848140489502e-05 1.2325847267143277e-05 0 -1.730158643656287e-05 1.9077866856413782e-05 0 1.5593970346927502e-05 7.874969736759355e-05 0 2.3079039802774884e-06 9.4230247267818956e-05 0 -9.0432808203888963e-06 7.7191865342505592e-05 0 -5.646192261984448e-06 -9.5296703814759444e-09 0 -4.157316806134127e-06 8.4502271655073435e-07 0 -4.4746054271254809e-06 5.5885128173936081e-07 0 -4.5146742310120345e-05 0.00019015102911017941 0 -2.9177802092933232e-05 0.00019970138576688127 0 -4.4949149919534272e-05 0.00021586547416606398 0 -3.6595945247789693e-05 -8.8393374950219397e-05 0 -4.3931399079301828e-05 -9.3055453040975864e-05 0 -3.7806950619124458e-05 -0.0001004601783224055 0 -3.0085951683736679e-06 1.0024638443726656e-06 0 -3.9705976797894155e-06 7.1269267753615468e-07 0 -4.4746054271254809e-06 5.5885128173936081e-07 0 -1.1920483442645631e-05 -6.7321048794403198e-06 0 -1.480760717530762e-05 -9.0067454924861155e-06 0 -1.2977831214134543e-05 -5.5704378903882707e-06 0 -1.5020611645951927e-05 0.00017697061486951943 0 7.6076647070334885e-07 0.00018362605698328327 0 -1.0390343196140085e-05 0.00020243414904206003 0 -4.8950415528405959e-05 -8.3037705900214893e-05 0 -5.6660337995103202e-05 -8.6973706849850403e-05 0 -5.2552845141366559e-05 -9.4823727895947208e-05 0 -2.3477295064320466e-05 -8.0661826885386476e-06 0 -2.8213227289623167e-05 -1.0732301108957138e-05 0 -2.3179080113933987e-05 -7.9236289890268804e-06 0 -4.496732394377183e-05 1.6940901198165894e-05 0 -3.6520896849521307e-05 1.1530933322566872e-05 0 -3.5178358296694778e-05 1.1687467452246658e-05 0 -1.4949826379012046e-05 2.5903112575440776e-05 0 -1.7818536745010889e-05 3.83176205529833e-05 0 -2.7178689499691852e-05 4.0840595369956334e-05 0 -9.7194543675013292e-06 -1.3914795589728598e-06 0 -1.2413559647114524e-05 -2.6986088331424862e-06 0 -1.1237851410482972e-05 -2.4001781754489728e-06 0 -3.2494282530695322e-05 -3.5405643493569252e-05 0 -3.0075181676916745e-05 -3.3934484906833265e-05 0 -3.0544900905107667e-05 -3.2034412512423836e-05 0 -3.2494282530695322e-05 -3.5405643493569252e-05 0 -3.0544900905107667e-05 -3.2034412512423836e-05 0 -3.203830893265924e-05 -3.3935404999360633e-05 0 -1.4767045576298818e-05 -3.5075513140265419e-05 0 -1.3527625654233011e-05 -3.1868678401315098e-05 0 -1.5858912559586361e-05 -3.6506304639461178e-05 0 -1.4767045576298818e-05 -3.5075513140265419e-05 0 -1.5858912559586361e-05 -3.6506304639461178e-05 0 -1.6405353234120823e-05 -3.8605567087959694e-05 0 -2.8703453957969166e-05 -3.0368563936746467e-05 0 -2.6003128544347839e-05 -3.0192824698648366e-05 0 -2.7303939328015662e-05 -2.8627317429729846e-05 0 -1.6192570781607275e-05 -3.4690230167868992e-05 0 -1.6195709100157e-05 -3.1365794545533298e-05 0 -1.7633448320848465e-05 -3.4327774001426406e-05 0 -7.0554813477222233e-06 -1.7436759321155622e-05 0 -1.0470445342646447e-05 -2.1794744128134357e-05 0 -8.6897003187166302e-06 -2.0926172202291464e-05 0 -2.8564320750715203e-05 -2.4959015695190989e-05 0 -2.9694569814677685e-05 -2.8093398663859171e-05 0 -2.7212603742293219e-05 -2.5002319769572819e-05 0 2.1657556155612657e-06 1.6945116200444703e-06 0 -4.7294393510880221e-06 -3.686890885702979e-06 0 -6.878720935313408e-07 -5.7606983087430969e-06 0 -2.5302830052256325e-05 0.00022615186110146147 0 -1.0695792606312109e-05 0.00024360544964407117 0 -2.894799675114153e-05 0.00024869146861431233 0 -6.8250553026532235e-05 0.00022628462185647169 0 -6.499138392457143e-05 0.00024827929287204905 0 -8.5174925819324248e-05 0.0002437704624815826 0 -4.663941532244277e-05 -0.00010502439266564322 0 -5.3970211549113811e-05 -0.00011306076001879664 0 -4.5282968933642296e-05 -0.0001151241185912846 0 -2.8928817865556494e-05 -0.00010560488919127599 0 -3.0476336074998954e-05 -0.00011567661239236479 0 -2.323680977052707e-05 -0.00011348001596172638 0 -3.1899459825612918e-06 1.2702777106977213e-06 0 -2.3644811086783561e-06 1.355701688622008e-06 0 -2.9647490473509079e-06 1.1221994046907276e-06 0 -2.5302830052256325e-05 0.00022615186110146147 0 -5.5249550598784394e-06 0.00022320809754774974 0 -1.0695792606312108e-05 0.00024360544964407117 0 -4.663941532244277e-05 -0.00010502439266564322 0 -5.5811849783049387e-05 -0.00010435358737968039 0 -5.3970211549113811e-05 -0.00011306076001879664 0 -1.2140048794324034e-05 -1.4647663821336745e-06 0 -1.0236752293936303e-05 1.5272907174228616e-06 0 -9.0976992387290177e-06 1.1161909132316105e-06 0 -6.8250553026532235e-05 0.00022628462185647169 0 -8.5174925819324248e-05 0.0002437704624815826 0 -8.9222043937833454e-05 0.00022387239545244226 0 -2.8928817865556494e-05 -0.00010560488919127599 0 -2.323680977052707e-05 -0.00011348001596172638 0 -2.0924736546528895e-05 -0.00010364916391989726 0 -2.0387457849935783e-05 -4.7834262434742581e-05 0 -1.3908418068237318e-05 -4.1394909224114473e-05 0 -1.8675608223095417e-05 -3.5883006953546444e-05 0 -2.0013791828972114e-05 -1.209465810984981e-05 0 -2.022328099306211e-05 -1.3740672755921249e-05 0 -1.8013899081255347e-05 -9.3474147734930331e-06 0 -1.8249934999811476e-05 -1.1216140916402205e-05 0 -1.8013899081255347e-05 -9.3474147734930331e-06 0 -2.022328099306211e-05 -1.3740672755921249e-05 0 -6.4818943204620407e-06 2.6530937314191368e-06 0 -8.1562355502700556e-06 1.3455260648899317e-06 0 -4.9482624082043921e-06 1.4341911813990961e-06 0 -4.1305163614856267e-05 8.6647592273732092e-05 0 -2.5533730301061515e-05 8.0844110783632255e-05 0 -3.2279474587884427e-05 0.00010333037103337238 0 -5.6684083561163775e-05 -5.088066859700821e-05 0 -5.071373495573556e-05 -5.2964542089233334e-05 0 -4.6094562845686151e-05 -4.3751458958958161e-05 0 -5.4904259366748608e-06 1.2966226292308098e-05 0 -1.2055848140489502e-05 1.2325847267143275e-05 0 -6.3766447161848057e-06 8.5008498840934583e-06 0 -1.0492962292182787e-05 7.1106060109578322e-06 0 -6.3766447161848057e-06 8.5008498840934583e-06 0 -1.2055848140489502e-05 1.2325847267143275e-05 0 -2.1240557441880245e-06 3.1404437084128678e-06 0 -2.569413154822123e-06 3.5545228951989881e-06 0 -2.3437708459592605e-06 5.0364040192660158e-06 0 -2.0096356948560613e-05 -2.396671817099429e-05 0 -2.0046426905770338e-05 -2.6603683874777289e-05 0 -1.773950494180914e-05 -2.3729371470602108e-05 0 -1.8408555505282755e-05 -2.8000672829283888e-05 0 -1.773950494180914e-05 -2.3729371470602108e-05 0 -2.0046426905770338e-05 -2.6603683874777289e-05 0 -7.4073823705931961e-05 4.8855547983879125e-05 0 -6.434342787149048e-05 3.501731218224061e-05 0 -5.6579216459699098e-05 3.7839294126611679e-05 0 -3.8468000122899431e-05 -1.9073487478634545e-05 0 -4.3612719606717071e-05 -2.5161569089876293e-05 0 -3.535888553075776e-05 -1.9955647129752228e-05 0 -1.2301298258382985e-09 -3.3462376098288012e-10 0 -9.5635451583232202e-10 -2.5615281837206362e-10 0 -8.7696767246452692e-07 -4.7483808552933399e-07 0 -1.0905803998064762e-09 3.0046639948769643e-10 0 -1.2841908563743973e-09 2.8854337868562643e-10 0 -1.0842920069185155e-06 5.860952409777137e-07 0 -4.1062618492911328e-06 5.5579259334995535e-06 0 -2.6032061882392935e-06 3.7787326943650349e-06 0 -2.6741966882676446e-06 5.895793151987237e-06 0 -3.0390105450368375e-06 4.7586975938640548e-06 0 -2.3437708459592605e-06 5.0364040192660158e-06 0 -2.569413154822123e-06 3.5545228951989881e-06 0 -2.1240557441880245e-06 3.1404437084128678e-06 0 -2.6032061882392939e-06 3.7787326943650345e-06 0 -2.2434383572821239e-06 2.637155842443296e-06 0 -9.021702572832984e-06 -8.4368318187990724e-08 0 -1.2503386713822906e-05 1.0653673359646689e-06 0 -9.7479353469492889e-06 5.5205131212271535e-07 0 -7.0486209274183224e-06 -5.6764951711610738e-07 0 -7.0992494644458489e-06 -1.1146128687076492e-06 0 -9.1905282764454258e-06 -1.537680695812934e-06 0 -1.3077792600445204e-05 0.0001017599152980439 0 -9.0432808203888963e-06 7.7191865342505592e-05 0 2.3079039802774884e-06 9.4230247267818956e-05 0 -9.021702572832984e-06 -8.4368318187990724e-08 0 -9.7479353469492872e-06 5.5205131212271513e-07 0 -7.0391557406590385e-06 -3.2147780593633131e-07 0 -7.0486209274183224e-06 -5.6764951711610738e-07 0 -5.3739204869668503e-06 -3.6810512634613417e-07 0 -7.0992494644458489e-06 -1.1146128687076492e-06 0 -2.4480805709793564e-05 -2.3570744528536634e-05 0 -2.5731506406120411e-05 -2.5927981708960744e-05 0 -2.3928794956083788e-05 -2.6270624816918417e-05 0 -2.0132649375871933e-05 5.5237566123823506e-05 0 -9.4106570996170464e-06 3.4927936435369615e-05 0 -5.2542809137349514e-06 5.6441179433290672e-05 0 -2.9837171130703787e-06 1.6940739492686804e-06 0 -2.2434383572821239e-06 2.637155842443296e-06 0 -2.6032061882392939e-06 3.7787326943650345e-06 0 -1.503276072491522e-05 -2.3713065687677785e-05 0 -1.2335073745351671e-05 -2.1350962270244722e-05 0 -1.4538188069456964e-05 -1.9363266415185889e-05 0 -2.2278788857534795e-09 -3.5129769166990608e-10 0 -1.6547345516881318e-09 -4.9579792523631903e-10 0 -1.6491786174280931e-06 -8.0813571958421135e-07 0 -1.5585234283516432e-09 2.9999909657271746e-10 0 -1.8965401225961596e-09 1.52648127137283e-10 0 -1.5278765226926584e-06 4.5979443308683946e-07 0 -1.4972959542192169e-05 -4.671257830462902e-06 0 -1.9147039159621605e-05 -6.1037689075831338e-06 0 -1.5503403240882099e-05 -4.1784701009836503e-06 0 -2.8993979689853119e-05 7.9178118075184782e-06 0 -2.2154855992887735e-05 5.6023577978722237e-06 0 -2.3079678524398645e-05 4.9514363479309167e-06 0 -2.0571123608251093e-05 -1.6142141784580593e-05 0 -2.3402595682592222e-05 -1.418688999740323e-05 0 -2.5612485578277872e-05 -1.8976883600557976e-05 0 -8.033639606522435e-06 -3.5395965982377281e-05 0 -1.3100615342253294e-05 -3.1616928479379911e-05 0 -1.3908418068237318e-05 -4.1394909224114466e-05 0 -1.0439145734134651e-05 -2.0251237879404487e-06 0 -1.0642496001545182e-05 -3.9551142277798959e-06 0 -1.2977831214134543e-05 -5.5704378903882707e-06 0 -4.6597463891069685e-06 1.6987590888063995e-06 0 -4.062641485151161e-06 3.3492669517021458e-06 0 -3.347730789946392e-06 2.3393218573897548e-06 0 -5.6628010435955852e-06 1.8817682869769361e-06 0 -4.062641485151161e-06 3.3492669517021458e-06 0 -4.6597463891069685e-06 1.6987590888063995e-06 0 -2.3444531252265024e-06 7.4835927002300736e-06 0 -3.0397265189064156e-06 8.8464444257948119e-06 0 -2.6741966882676446e-06 5.895793151987237e-06 0 -4.1062618492911328e-06 5.5579259334995535e-06 0 -2.6741966882676446e-06 5.895793151987237e-06 0 -3.0397265189064156e-06 8.8464444257948119e-06 0 -1.7947371879145617e-05 -3.1206504515988149e-05 0 -1.9625513141139117e-05 -3.3255927272913455e-05 0 -1.7633448320848465e-05 -3.4327774001426406e-05 0 -2.4776114663676189e-05 -1.7428960301562302e-05 0 -2.2555930254418147e-05 -1.5950695284532576e-05 0 -2.1676176225491624e-05 -1.3835205708542381e-05 0 -1.1920483442645631e-05 -6.7321048794403198e-06 0 -1.2449827150293274e-05 -9.8991308535479437e-06 0 -1.480760717530762e-05 -9.0067454924861155e-06 0 -1.2904929358287864e-05 -1.3567293897908408e-05 0 -1.4807607175307622e-05 -9.0067454924861155e-06 0 -1.2449827150293274e-05 -9.8991308535479437e-06 0 -1.1062353024314795e-05 -3.6308082492886991e-06 0 -1.4972959542192169e-05 -4.671257830462902e-06 0 -1.2649967539927973e-05 -3.3519179601557448e-06 0 -2.2154855992887735e-05 5.6023577978722237e-06 0 -1.6018363746324939e-05 4.0899998143018607e-06 0 -1.845821367321042e-05 3.634866360629509e-06 0 -2.062282643025875e-05 -3.6988941145321505e-05 0 -1.8448676558362956e-05 -3.8226429157020308e-05 0 -2.0147499669310206e-05 -3.5369924884158422e-05 0 -1.2055848140489502e-05 1.2325847267143275e-05 0 -1.0247829577533365e-05 1.7092701940731812e-05 0 -1.730158643656287e-05 1.9077866856413782e-05 0 -1.8769779740316235e-06 1.5788067123698637e-06 0 -1.8671791180639202e-06 2.0867972358983292e-06 0 -1.6138370425661551e-06 1.2588809007532889e-06 0 -3.9334741186233113e-06 -6.896164100403796e-07 0 -5.9524860672322477e-06 -7.3869883840400077e-07 0 -7.0391557406590385e-06 -3.2147780593633131e-07 0 -3.0732562640129114e-06 9.1598067679223374e-08 0 -5.3739204869668503e-06 -3.6810512634613428e-07 0 -4.8297515717080819e-06 3.508757295965896e-08 0 -3.0085951683736679e-06 1.0024638443726656e-06 0 -3.2536743950188383e-06 8.932532190585049e-07 0 -3.9705976797894155e-06 7.1269267753615458e-07 0 -1.0439145734134651e-05 -2.0251237879404487e-06 0 -1.1265932416325753e-05 -1.5595385097871783e-06 0 -9.0976992387290177e-06 1.1161909132316105e-06 0 -1.4510132710311715e-05 -2.8282570810545777e-05 0 -1.6060214195576026e-05 -2.728488548265572e-05 0 -1.6195709100157e-05 -3.1365794545533298e-05 0 -5.0035808544302301e-06 3.7241297770048104e-07 0 -3.9705976797894147e-06 7.1269267753615458e-07 0 -3.2536743950188383e-06 8.932532190585049e-07 0 -0.0001058750194442331 0.000154189669013321 0 -8.2014421672006873e-05 0.00014124038470114726 0 -8.8496888623783391e-05 0.00016355112818230969 0 -8.6763729453495003e-06 -6.7171924233574897e-05 0 -1.771158056183423e-05 -6.3239412444003493e-05 0 -1.6912678161218256e-05 -7.3534250416633316e-05 0 -8.0160422993005241e-06 -5.6143412698580281e-05 0 -1.5313398106528812e-05 -5.2779731740535241e-05 0 -1.771158056183423e-05 -6.3239412444003493e-05 0 -1.5367601992886191e-05 -7.1853710518769442e-06 0 -1.3519846990891556e-05 -3.4339820543877365e-06 0 -1.5300882991663578e-05 -5.7770280488691676e-06 0 -2.4776114663676189e-05 -1.7428960301562302e-05 0 -2.4746007665230545e-05 -1.9091715920560232e-05 0 -2.2555930254418147e-05 -1.5950695284532579e-05 0 -5.646192261984448e-06 -9.5296703814759444e-09 0 -7.692275853419319e-06 -1.751472101885732e-06 0 -6.3644385396715401e-06 -3.2849437828052106e-07 0 -1.2140048794324034e-05 -1.4647663821336745e-06 0 -9.0976992387290177e-06 1.1161909132316105e-06 0 -1.1265932416325753e-05 -1.5595385097871779e-06 0 1.1061580725224473e-05 0.00024180472543687602 0 -2.5608743439888594e-06 0.00025419427367299433 0 -1.0695792606312108e-05 0.00024360544964407117 0 -6.4673240370673367e-05 -0.00011423646508894724 0 -5.8297151260498648e-05 -0.00011835481083832527 0 -5.3970211549113811e-05 -0.00011306076001879664 0 -1.4362431323516207e-05 -0.00011232646437472122 0 -2.323680977052707e-05 -0.00011348001596172638 0 -2.0054987133321276e-05 -0.00011821692805156414 0 -0.00010943797043019394 0.00024639880131671122 0 -8.5174925819324248e-05 0.0002437704624815826 0 -9.4978321477359758e-05 0.0002557508491444568 0 -6.3589186848742776e-06 4.1084420287748282e-07 0 -5.0117848857322703e-06 7.7947867550584728e-07 0 -6.3644385396715401e-06 -3.2849437828052106e-07 0 -5.646192261984448e-06 -9.5296703814759444e-09 0 -6.3644385396715401e-06 -3.2849437828052106e-07 0 -5.0117848857322703e-06 7.7947867550584728e-07 0 -9.7574238023359812e-06 -4.3868733399411885e-06 0 -7.692275853419319e-06 -1.7514721018857318e-06 0 -8.3981042856917425e-06 -2.5171886571745642e-06 0 -3.3717726638786504e-05 1.3681886154202262e-05 0 -3.5178358296694778e-05 1.1687467452246658e-05 0 -2.5705930315175148e-05 7.8310346323491143e-06 0 -2.8277196980941243e-05 7.3125302459864497e-06 0 -2.5705930315175148e-05 7.8310346323491126e-06 0 -3.5178358296694778e-05 1.1687467452246658e-05 0 -1.0492962292182787e-05 7.1106060109578322e-06 0 -1.4009645967396453e-05 5.8260714831664284e-06 0 -9.4865119637188032e-06 3.7496432731318456e-06 0 -1.1921264371017394e-05 -4.5248880921254558e-06 0 -9.0101661470883835e-06 -2.1639069711761902e-06 0 -1.028375193161385e-05 -2.3754221356265826e-06 0 -1.1920483442645631e-05 -6.7321048794403198e-06 0 -1.1404473437568655e-05 -7.5189211534598839e-06 0 -1.2449827150293274e-05 -9.8991308535479437e-06 0 -7.0486209274183224e-06 -5.6764951711610738e-07 0 -5.4335535775029288e-06 1.6233933809047555e-07 0 -4.8297515717080819e-06 3.508757295965896e-08 0 -3.275327529141679e-06 4.2381832510273822e-07 0 -4.8297515717080819e-06 3.508757295965896e-08 0 -5.4335535775029296e-06 1.6233933809047552e-07 0 -3.7321949017340261e-06 -9.9038278452240894e-07 0 -5.9700790756965857e-06 -6.7686591815147486e-07 0 -5.9524860672322477e-06 -7.3869883840400066e-07 0 -9.021702572832984e-06 -8.4368318187990724e-08 0 -5.9524860672322477e-06 -7.3869883840400077e-07 0 -5.9700790756965857e-06 -6.7686591815147486e-07 0 -4.3694389356611905e-05 -5.0240436018248985e-05 0 -4.8809716712718965e-05 -6.0608038794885612e-05 0 -4.0633453562693319e-05 -5.6083267226490913e-05 0 -4.170180321101344e-05 -6.537290605414863e-05 0 -4.0633453562693319e-05 -5.6083267226490913e-05 0 -4.8809716712718965e-05 -6.0608038794885612e-05 0 -1.364530052080314e-06 -7.6573248039730357e-07 0 -8.7696767246452692e-07 -4.7483808552933399e-07 0 -2.0834555349141615e-06 -6.6292538907627428e-07 0 -1.2964475985208995e-06 -3.4966790464490622e-07 0 -2.0834555349141615e-06 -6.6292538907627428e-07 0 -8.7696767246452692e-07 -4.7483808552933399e-07 0 -1.8549053162878449e-06 8.6811258864620654e-07 0 -1.0842920069185155e-06 5.860952409777137e-07 0 -2.4101370684130419e-06 8.3671772426316826e-07 0 -1.4316604380579646e-06 5.9506259263833034e-07 0 -2.4101370684130419e-06 8.3671772426316826e-07 0 -1.0842920069185155e-06 5.860952409777137e-07 0 -4.5146742310120345e-05 0.00019015102911017941 0 -3.1245699405979505e-05 0.00017685745367891674 0 -2.9177802092933232e-05 0.00019970138576688127 0 -3.6595945247789693e-05 -8.8393374950219397e-05 0 -4.1747936261496783e-05 -8.2547241830635711e-05 0 -4.3931399079301828e-05 -9.3055453040975864e-05 0 -6.3550859564816295e-06 -4.3374469273888113e-08 0 -4.8797879457581826e-06 3.9481903647940739e-07 0 -5.4335535775029296e-06 1.6233933809047552e-07 0 -5.7754100590332003e-06 1.1460799549716494e-07 0 -5.9700790756965857e-06 -6.7686591815147486e-07 0 -4.5878101952059706e-06 -4.9510566541759988e-07 0 -1.1921264371017394e-05 -4.5248880921254558e-06 0 -1.1668425239056691e-05 -6.0714091982627739e-06 0 -9.6980358718383597e-06 -3.5082384450466763e-06 0 -7.0486209274183224e-06 -5.6764951711610738e-07 0 -7.7501104024739251e-06 -5.6952767043333307e-07 0 -5.4335535775029296e-06 1.6233933809047552e-07 0 -9.021702572832984e-06 -8.4368318187990724e-08 0 -5.9700790756965857e-06 -6.7686591815147486e-07 0 -8.8549206854932494e-06 1.3745253070142099e-07 0 -1.2904929358287864e-05 -1.3567293897908408e-05 0 -1.6863758807445214e-05 -1.0100850963878323e-05 0 -1.480760717530762e-05 -9.0067454924861155e-06 0 -5.646192261984448e-06 -9.5296703814759444e-09 0 -6.9363907883422947e-06 -1.1140206341261185e-06 0 -7.692275853419319e-06 -1.751472101885732e-06 0 -2.5581129169910711e-09 -7.5458812682068005e-10 0 -2.2278788857534795e-09 -3.5129769166990608e-10 0 -1.8550450224630459e-06 -6.6663307818531803e-07 0 -1.8965401225961596e-09 1.52648127137283e-10 0 -2.0136422397344996e-09 3.5363834490476675e-10 0 -1.551181591461754e-06 2.7632643706029639e-07 0 -5.4904259366748608e-06 1.2966226292308098e-05 0 -6.3766447161848057e-06 8.5008498840934583e-06 0 -3.0397265189064156e-06 8.8464444257948119e-06 0 -2.134760799638706e-05 -3.267345338105811e-05 0 -2.1876590004274334e-05 -3.4608226265314229e-05 0 -2.0147499669310206e-05 -3.5369924884158422e-05 0 -1.1921264371017394e-05 -4.5248880921254558e-06 0 -1.3064663729628786e-05 -4.0948741837816348e-06 0 -1.5553920381090387e-05 -6.4837072471542117e-06 0 -1.8675608223095417e-05 -3.5883006953546444e-05 0 -1.3908418068237318e-05 -4.1394909224114466e-05 0 -1.3100615342253294e-05 -3.1616928479379911e-05 0 -6.3589186848742776e-06 4.1084420287748282e-07 0 -4.6597463891069685e-06 1.6987590888063995e-06 0 -5.0117848857322703e-06 7.7947867550584728e-07 0 -9.0542262224321868e-06 -2.872826359076168e-06 0 -7.5673407514993349e-06 -1.2014522970107871e-06 0 -7.692275853419319e-06 -1.751472101885732e-06 0 -6.3934552018632819e-06 1.848458774715328e-07 0 -9.5295641766285576e-06 1.677495114949218e-06 0 -4.5690468823312333e-06 7.5611027193242937e-07 0 -4.6713678551873296e-06 -6.9042484468947339e-07 0 -3.2634766851956424e-06 -9.1505245107173218e-07 0 -6.7332066518297525e-06 -1.845511285983136e-06 0 -1.3815590860318516e-05 -9.3822947041441186e-06 0 -1.3186367725341541e-05 -1.1376924086186522e-05 0 -1.1404473437568655e-05 -7.5189211534598839e-06 0 -3.347730789946392e-06 2.3393218573897548e-06 0 -3.7135670319638649e-06 1.4460364218199826e-06 0 -4.6597463891069685e-06 1.6987590888063995e-06 0 -7.7492927931850421e-06 -1.6250944258074485e-06 0 -9.0101661470883835e-06 -2.1639069711761906e-06 0 -9.6980358718383597e-06 -3.5082384450466763e-06 0 -2.2589667199394861e-05 -8.4685305680479355e-06 0 -2.3456811357915153e-05 -1.0976431712324048e-05 0 -1.9113989352993327e-05 -7.7920534108493628e-06 0 -0.0001024555476658936 0.00013048014329996972 0 -8.2953579710538501e-05 0.00011994684313010045 0 -8.2014421672006873e-05 0.00014124038470114726 0 -1.3815590860318516e-05 -9.3822947041441186e-06 0 -1.4708470407618649e-05 -7.7182881832250265e-06 0 -1.7575786665180554e-05 -1.1235257342013831e-05 0 -1.5300882991663578e-05 -5.7770280488691676e-06 0 -1.8013899081255347e-05 -9.3474147734930331e-06 0 -1.6700626449112253e-05 -8.4645623058383079e-06 0 -1.1921264371017394e-05 -4.5248880921254558e-06 0 -1.5553920381090387e-05 -6.4837072471542117e-06 0 -1.4708470407618649e-05 -7.7182881832250265e-06 0 -5.0117848857322703e-06 7.7947867550584728e-07 0 -4.6597463891069685e-06 1.6987590888063995e-06 0 -3.7135670319638649e-06 1.4460364218199826e-06 0 -2.0013791828972114e-05 -1.209465810984981e-05 0 -2.1676176225491624e-05 -1.3835205708542381e-05 0 -2.2555930254418147e-05 -1.5950695284532579e-05 0 -5.4904259366748608e-06 1.2966226292308098e-05 0 -1.2660919194083942e-06 1.4416789449327186e-05 0 -4.9110339824822395e-06 1.9424054398833165e-05 0 -1.1921264371017394e-05 -4.5248880921254558e-06 0 -1.028375193161385e-05 -2.3754221356265826e-06 0 -1.3064663729628786e-05 -4.0948741837816348e-06 0 -0.00010804799515267015 0.00017798647877609422 0 -0.0001058750194442331 0.000154189669013321 0 -8.8496888623783391e-05 0.00016355112818230969 0 -8.6763729453495003e-06 -6.7171924233574897e-05 0 -1.6912678161218256e-05 -7.3534250416633316e-05 0 -9.6901697171634309e-06 -7.8546229604826244e-05 0 -7.7497975400394284e-06 -4.5557924092782666e-05 0 -1.5313398106528812e-05 -5.2779731740535241e-05 0 -8.0160422993005241e-06 -5.6143412698580281e-05 0 -2.2920256566992384e-05 1.5619991789933421e-05 0 -3.3886650631067666e-05 1.8696375774931261e-05 0 -2.7207844117050217e-05 1.2358383027034622e-05 0 2.1657556155612657e-06 1.6945116200444703e-06 0 -4.8202096994207701e-06 7.6913899296354585e-06 0 -4.7294393510880221e-06 -3.686890885702979e-06 0 -2.2589667199394861e-05 -8.4685305680479355e-06 0 -2.3179080113933987e-05 -7.9236289890268804e-06 0 -2.6866362602163668e-05 -1.0359408616955827e-05 0 -3.3717726638786504e-05 1.3681886154202262e-05 0 -4.1790893697991138e-05 1.6484133224008672e-05 0 -3.5178358296694778e-05 1.1687467452246658e-05 0 -2.2589667199394861e-05 -8.4685305680479355e-06 0 -2.6866362602163668e-05 -1.0359408616955827e-05 0 -2.800924741381728e-05 -1.2262527918265281e-05 0 -3.3717726638786504e-05 1.3681886154202262e-05 0 -4.3125997015374643e-05 2.0739046874634459e-05 0 -4.1790893697991138e-05 1.6484133224008672e-05 0 -4.6713678551873296e-06 -6.9042484468947339e-07 0 -2.2739340037350393e-06 -1.7008358111596232e-07 0 -3.2634766851956424e-06 -9.1505245107173218e-07 0 -6.3934552018632819e-06 1.848458774715328e-07 0 -4.5690468823312333e-06 7.5611027193242937e-07 0 -3.0802818471541018e-06 -2.2251292697338228e-07 0 -9.0542262224321868e-06 -2.872826359076168e-06 0 -1.0384143369770119e-05 -5.1420015928968401e-06 0 -1.0642496001545182e-05 -3.9551142277798959e-06 0 -1.1920483442645631e-05 -6.7321048794403198e-06 0 -1.0642496001545182e-05 -3.9551142277798959e-06 0 -1.0384143369770119e-05 -5.1420015928968401e-06 0 -2.9694569814677685e-05 -2.8093398663859171e-05 0 -2.9073549306167787e-05 -2.7910608743326294e-05 0 -2.7212603742293219e-05 -2.5002319769572819e-05 0 -8.6897003187166302e-06 -2.0926172202291464e-05 0 -1.0470445342646447e-05 -2.1794744128134357e-05 0 -1.1843054336260509e-05 -2.5518791377680501e-05 0 -6.878720935313408e-07 -5.7606983087430969e-06 0 -4.7294393510880221e-06 -3.6868908857029786e-06 0 -5.3991516515088338e-06 -9.6800620413868159e-06 0 -7.0554813477222233e-06 -1.7436759321155622e-05 0 -8.5436312341439069e-06 -1.777691946933555e-05 0 -1.0470445342646447e-05 -2.1794744128134357e-05 0 -2.8564320750715203e-05 -2.4959015695190989e-05 0 -2.7212603742293219e-05 -2.5002319769572819e-05 0 -2.6222941755789702e-05 -2.2156272192271797e-05 0 -1.1921264371017394e-05 -4.5248880921254558e-06 0 -9.6980358718383597e-06 -3.5082384450466763e-06 0 -9.0101661470883835e-06 -2.1639069711761902e-06 0 -9.7574238023359812e-06 -4.3868733399411885e-06 0 -1.1404473437568655e-05 -7.5189211534598839e-06 0 -1.0384143369770119e-05 -5.1420015928968401e-06 0 -1.1920483442645631e-05 -6.7321048794403198e-06 0 -1.0384143369770119e-05 -5.1420015928968401e-06 0 -1.1404473437568655e-05 -7.5189211534598839e-06 0 -6.3589186848742776e-06 4.1084420287748282e-07 0 -8.5963119316760919e-06 -1.4656823191831784e-06 0 -7.7131385496248916e-06 6.0427237352447055e-07 0 -0.0001024555476658936 0.00013048014329996972 0 -9.7455022277498972e-05 0.0001072797201537926 0 -8.2953579710538501e-05 0.00011994684313010045 0 -1.2140048794324034e-05 -1.4647663821336745e-06 0 -1.1265932416325751e-05 -1.5595385097871775e-06 0 -1.340533286544147e-05 -4.0358109716550593e-06 0 -1.4949826379012046e-05 2.5903112575440776e-05 0 -1.0247829577533364e-05 1.7092701940731812e-05 0 -4.9110339824822395e-06 1.9424054398833165e-05 0 -5.4904259366748608e-06 1.2966226292308098e-05 0 -4.9110339824822395e-06 1.9424054398833165e-05 0 -1.0247829577533365e-05 1.7092701940731812e-05 0 -8.033639606522435e-06 -3.5395965982377281e-05 0 -1.3908418068237318e-05 -4.1394909224114466e-05 0 -7.7497975400394284e-06 -4.5557924092782666e-05 0 -5.4380939270954029e-05 2.4373842371624852e-05 0 -4.1790893697991138e-05 1.6484133224008672e-05 0 -4.3125997015374643e-05 2.0739046874634459e-05 0 -3.3262044404322593e-05 -1.4267625579914994e-05 0 -2.800924741381728e-05 -1.2262527918265281e-05 0 -2.6866362602163668e-05 -1.0359408616955827e-05 0 -1.0439145734134651e-05 -2.0251237879404487e-06 0 -1.340533286544147e-05 -4.0358109716550593e-06 0 -1.1265932416325753e-05 -1.5595385097871779e-06 0 -5.9482022928721453e-05 0.00014039710451655489 0 -8.2014421672006873e-05 0.00014124038470114726 0 -6.8392303623483606e-05 0.00012376262795039437 0 -5.9482022928721453e-05 0.00014039710451655489 0 -7.2847349438141863e-05 0.00015651179199925962 0 -8.2014421672006873e-05 0.00014124038470114726 0 -2.6419823745061999e-05 -6.4189164953319523e-05 0 -2.2694202064776075e-05 -7.1070378164413869e-05 0 -1.771158056183423e-05 -6.3239412444003493e-05 0 -2.6419823745061999e-05 -6.4189164953319523e-05 0 -1.7711580561834227e-05 -6.3239412444003479e-05 0 -2.1398407912585661e-05 -5.6725225600443813e-05 0 -9.6901697171634309e-06 -7.8546229604826244e-05 0 -1.7182747209842044e-05 -8.3767071057825761e-05 0 -1.1173032345747018e-05 -9.0240656801689997e-05 0 -0.0001090497397930405 0.00020149919888509752 0 -0.00010804799515267015 0.00017798647877609422 0 -9.1864532608773803e-05 0.00018471310622473588 0 -3.7376978548559648e-06 6.8261665111001696e-07 0 -3.1360693318731853e-06 6.6027716853313189e-07 0 -4.8797879457581835e-06 3.9481903647940729e-07 0 -3.2014338367586729e-06 -6.9226855507745374e-07 0 -4.5878101952059706e-06 -4.9510566541759988e-07 0 -2.9761084043752282e-06 -1.0035300544985718e-06 0 -2.6419823745061999e-05 -6.4189164953319523e-05 0 -3.2308762106530881e-05 -6.4968480595871834e-05 0 -2.8832886156667317e-05 -7.3783819042081358e-05 0 -2.6419823745061999e-05 -6.4189164953319523e-05 0 -2.6879368911828912e-05 -5.5590648507409491e-05 0 -3.2308762106530881e-05 -6.4968480595871834e-05 0 -3.643727840526184e-05 -7.5577673823873189e-05 0 -2.8832886156667317e-05 -7.3783819042081358e-05 0 -3.2308762106530881e-05 -6.4968480595871834e-05 0 -3.3709551275093505e-05 -5.5561364662208476e-05 0 -3.2308762106530881e-05 -6.4968480595871834e-05 0 -2.6879368911828912e-05 -5.5590648507409491e-05 0 -5.9482022928721453e-05 0.00014039710451655489 0 -4.4451504367530602e-05 0.00014185204774136358 0 -5.9042800061105414e-05 0.00016186240771123316 0 -4.1270651388398566e-05 0.00016164585656732166 0 -5.9042800061105414e-05 0.00016186240771123316 0 -4.4451504367530602e-05 0.00014185204774136358 0 -1.8965401225961596e-09 1.52648127137283e-10 0 -1.551181591461754e-06 2.7632643706029639e-07 0 -1.5278765226926584e-06 4.5979443308683946e-07 0 -2.2278788857534795e-09 -3.5129769166990608e-10 0 -1.6491786174280931e-06 -8.0813571958421135e-07 0 -1.8550450224630459e-06 -6.6663307818531803e-07 0 -3.769802278446256e-05 -2.6687270236509857e-05 0 -3.0424729240405219e-05 -1.9580813055650552e-05 0 -3.535888553075776e-05 -1.9955647129752228e-05 0 -5.9390740046431964e-05 5.2305655201248875e-05 0 -5.6579216459699098e-05 3.7839294126611679e-05 0 -4.6648874011546769e-05 3.6575376833719592e-05 0 -1.5465554944875509e-05 -4.0525147255068303e-06 0 -1.9543767864248025e-05 -6.1923786178179332e-06 0 -1.8052449205094687e-05 -5.9504268668090339e-06 0 -3.1899459825612918e-06 1.2702777106977213e-06 0 -4.157316806134127e-06 8.4502271655073445e-07 0 -3.7135670319638649e-06 1.4460364218199826e-06 0 -1.868124463644343e-05 -3.5522608670915139e-05 0 -1.7633448320848465e-05 -3.4327774001426406e-05 0 -1.9625513141139117e-05 -3.3255927272913455e-05 0 -1.7132986871587296e-05 2.6003809505770775e-06 0 -2.0579438126101317e-05 4.0196024283344217e-06 0 -2.3079678524398645e-05 4.9514363479309167e-06 0 -2.8277196980941243e-05 7.3125302459864497e-06 0 -2.3079678524398645e-05 4.9514363479309167e-06 0 -2.0579438126101317e-05 4.0196024283344217e-06 0 -1.5456889625767975e-06 6.6494917722094978e-07 0 -1.6799449221310132e-06 -1.9698565218411595e-08 0 -1.1755687313758196e-06 4.1458846016134242e-08 0 -3.2161438354145852e-06 -1.035772075337496e-05 0 -7.738256610019586e-06 -1.4439240781979997e-05 0 -5.1894670343764897e-06 -1.3981726142178888e-05 0 -3.3262044404322593e-05 -1.4267625579914994e-05 0 -3.2822247758967163e-05 -1.6029773662728749e-05 0 -2.800924741381728e-05 -1.2262527918265281e-05 0 -5.4380939270954029e-05 2.4373842371624852e-05 0 -4.3125997015374643e-05 2.0739046874634459e-05 0 -5.2424060977952307e-05 2.8457258043693379e-05 0 -1.8157147096249931e-05 -1.1222936243282144e-05 0 -1.88325487047811e-05 -1.0361096884088993e-05 0 -1.6863758807445214e-05 -1.0100850963878323e-05 0 -9.021702572832984e-06 -8.4368318187990724e-08 0 -8.8549206854932494e-06 1.3745253070142099e-07 0 -1.3332210926343896e-05 1.2744676738055266e-06 0 -1.0957300909388974e-05 1.4273046299512578e-06 0 -1.3332210926343896e-05 1.2744676738055268e-06 0 -8.8549206854932494e-06 1.3745253070142099e-07 0 -2.0132649375871933e-05 5.5237566123823506e-05 0 -1.7818536745010892e-05 3.83176205529833e-05 0 -9.4106570996170464e-06 3.4927936435369615e-05 0 -2.2154855992887735e-05 5.6023577978722237e-06 0 -1.845821367321042e-05 3.634866360629509e-06 0 -2.3079678524398645e-05 4.9514363479309167e-06 0 -1.4972959542192169e-05 -4.671257830462902e-06 0 -1.5503403240882099e-05 -4.1784701009836503e-06 0 -1.2649967539927973e-05 -3.3519179601557448e-06 0 -2.0096356948560613e-05 -2.396671817099429e-05 0 -1.9765645357000226e-05 -2.1024715777538888e-05 0 -2.221019412603773e-05 -2.3861232164031666e-05 0 -2.1557807542033593e-05 -2.0686189086692072e-05 0 -2.221019412603773e-05 -2.3861232164031666e-05 0 -1.9765645357000226e-05 -2.1024715777538888e-05 0 -6.3589186848742776e-06 4.1084420287748282e-07 0 -5.6628010435955852e-06 1.8817682869769361e-06 0 -4.6597463891069685e-06 1.6987590888063995e-06 0 -1.0492962292182787e-05 7.1106060109578322e-06 0 -9.4865119637188032e-06 3.7496432731318451e-06 0 -6.7076216110648146e-06 4.7553929767864389e-06 0 -2.1240557441880245e-06 3.1404437084128678e-06 0 -2.2822045052294922e-06 2.4328665355747833e-06 0 -2.569413154822123e-06 3.5545228951989881e-06 0 -1.4949826379012046e-05 2.5903112575440776e-05 0 -9.4106570996170464e-06 3.4927936435369615e-05 0 -1.7818536745010889e-05 3.83176205529833e-05 0 -2.2589667199394861e-05 -8.4685305680479355e-06 0 -1.9113989352993327e-05 -7.7920534108493628e-06 0 -1.8052449205094687e-05 -5.9504268668090339e-06 0 -7.7492927931850421e-06 -1.6250944258074485e-06 0 -6.0099307543806543e-06 -3.1781839010055441e-07 0 -6.6846108561241343e-06 -5.1377041068023763e-07 0 1.5593970346927502e-05 7.874969736759355e-05 0 1.7337424335824278e-05 0.00010133571226992011 0 2.3079039802774884e-06 9.4230247267818956e-05 0 -5.9732820473642792e-05 -6.1327786972478223e-05 0 -4.8809716712718965e-05 -6.0608038794885612e-05 0 -5.071373495573556e-05 -5.2964542089233334e-05 0 -5.4380939270954029e-05 2.4373842371624852e-05 0 -4.496732394377183e-05 1.6940901198165894e-05 0 -4.1790893697991138e-05 1.6484133224008672e-05 0 -2.8213227289623167e-05 -1.0732301108957138e-05 0 -3.3262044404322593e-05 -1.4267625579914994e-05 0 -2.6866362602163668e-05 -1.0359408616955827e-05 0 -9.0976992387290177e-06 1.1161909132316105e-06 0 -1.0236752293936303e-05 1.5272907174228616e-06 0 -6.9558970499819166e-06 4.3012112619123524e-06 0 -9.021702572832984e-06 -8.4368318187990724e-08 0 -1.3332210926343896e-05 1.2744676738055266e-06 0 -1.2503386713822906e-05 1.0653673359646689e-06 0 -1.7132986871587296e-05 2.6003809505770775e-06 0 -1.2503386713822906e-05 1.0653673359646689e-06 0 -1.3332210926343896e-05 1.2744676738055266e-06 0 -2.3444531252265024e-06 7.4835927002300736e-06 0 -2.0931794650061703e-06 1.0409849963219083e-05 0 -3.0397265189064156e-06 8.8464444257948119e-06 0 -5.1488583135688844e-05 -7.2159718011747685e-05 0 -4.8809716712718965e-05 -6.0608038794885612e-05 0 -5.5529340113556713e-05 -6.6684822665547813e-05 0 -2.4440882071869389e-05 -2.0234264339948459e-05 0 -2.3260314911214541e-05 -2.0410916927663445e-05 0 -2.2471172805088288e-05 -1.7328871142448241e-05 0 1.6970936403304186e-05 0.0001716352141499355 0 1.5339707834465822e-05 0.00019579708278653565 0 7.6076647070334885e-07 0.00018362605698328327 0 -6.3609896370035563e-05 -8.3169282728604162e-05 0 -6.4374171153736289e-05 -9.3956985108292472e-05 0 -5.6660337995103202e-05 -8.6973706849850416e-05 0 -2.2920256566992384e-05 1.5619991789933421e-05 0 -1.566092877671537e-05 9.929082714804235e-06 0 -1.2055848140489502e-05 1.2325847267143275e-05 0 -1.3815590860318516e-05 -9.3822947041441186e-06 0 -1.6524837284373439e-05 -1.3604795730011607e-05 0 -1.3186367725341541e-05 -1.1376924086186521e-05 0 -1.8889749781607638e-05 -9.6007778996006861e-06 0 -1.7575786665180554e-05 -1.1235257342013831e-05 0 -1.4708470407618649e-05 -7.7182881832250265e-06 0 -0.00010804799515267015 0.00017798647877609422 0 -8.8496888623783391e-05 0.00016355112818230969 0 -9.1864532608773803e-05 0.00018471310622473588 0 -9.6901697171634309e-06 -7.8546229604826244e-05 0 -1.6912678161218256e-05 -7.3534250416633316e-05 0 -1.7182747209842044e-05 -8.3767071057825761e-05 0 -8.2151464595271251e-06 -1.2073324731242356e-06 0 -6.5256805015437328e-06 -2.1256504097482368e-07 0 -8.4790507137918912e-06 -9.6332809947845643e-07 0 -5.4904259366748608e-06 1.2966226292308098e-05 0 -1.0247829577533365e-05 1.7092701940731812e-05 0 -1.2055848140489502e-05 1.2325847267143275e-05 0 -2.2589667199394861e-05 -8.4685305680479355e-06 0 -1.9543767864248025e-05 -6.1923786178179323e-06 0 -2.3179080113933987e-05 -7.9236289890268804e-06 0 -2.1792447392193453e-05 -1.3840684710960881e-05 0 -2.4776114663676189e-05 -1.7428960301562302e-05 0 -2.1676176225491624e-05 -1.3835205708542381e-05 0 -9.7194543675013292e-06 -1.3914795589728598e-06 0 -9.461793749382243e-06 -1.3252268222969345e-06 0 -1.2312816526762481e-05 -2.4702200582298303e-06 0 -5.6684083561163775e-05 -5.088066859700821e-05 0 -5.9732820473642792e-05 -6.1327786972478223e-05 0 -5.071373495573556e-05 -5.2964542089233334e-05 0 -1.8491427539055621e-05 -5.3631361542578919e-06 0 -1.4823773280031198e-05 -3.6233926154836765e-06 0 -1.5503403240882099e-05 -4.1784701009836503e-06 0 -1.213503636854854e-05 -2.5914746955408465e-06 0 -1.5503403240882099e-05 -4.1784701009836503e-06 0 -1.4823773280031198e-05 -3.6233926154836765e-06 0 -6.6594847738733683e-05 0.0001073242885907204 0 -5.1671230290464196e-05 0.00011071078542415458 0 -6.8392303623483606e-05 0.00012376262795039437 0 -1.364530052080314e-06 -7.6573248039730357e-07 0 -2.9761084043752282e-06 -1.0035300544985718e-06 0 -1.6491786174280931e-06 -8.0813571958421135e-07 0 -3.7321949017340261e-06 -9.9038278452240894e-07 0 -1.6491786174280931e-06 -8.0813571958421135e-07 0 -2.9761084043752282e-06 -1.0035300544985718e-06 0 -3.275327529141679e-06 4.2381832510273822e-07 0 -3.1360693318731853e-06 6.6027716853313189e-07 0 -1.5278765226926584e-06 4.5979443308683946e-07 0 -1.4316604380579646e-06 5.9506259263833034e-07 0 -1.5278765226926584e-06 4.5979443308683946e-07 0 -3.1360693318731853e-06 6.6027716853313189e-07 0 -9.7574238023359812e-06 -4.3868733399411885e-06 0 -9.6980358718383597e-06 -3.5082384450466763e-06 0 -1.1668425239056691e-05 -6.0714091982627739e-06 0 -1.1977164649844835e-05 -1.3546622757152971e-06 0 -1.3519846990891556e-05 -3.4339820543877365e-06 0 -1.3699707984397733e-05 -5.9299038076578428e-06 0 -1.5367601992886191e-05 -7.1853710518769442e-06 0 -1.3699707984397733e-05 -5.9299038076578428e-06 0 -1.3519846990891556e-05 -3.4339820543877365e-06 0 -2.4776114663676189e-05 -1.7428960301562302e-05 0 -2.6993099840102993e-05 -2.1372098603673449e-05 0 -2.4746007665230545e-05 -1.9091715920560232e-05 0 -1.5367601992886191e-05 -7.1853710518769442e-06 0 -1.5300882991663578e-05 -5.7770280488691676e-06 0 -1.6700626449112253e-05 -8.4645623058383079e-06 0 -1.0470445342646447e-05 -2.1794744128134357e-05 0 -8.5436312341439069e-06 -1.777691946933555e-05 0 -1.2335073745351671e-05 -2.1350962270244722e-05 0 -2.7212603742293219e-05 -2.5002319769572819e-05 0 -2.5230793305583893e-05 -2.2333766525042083e-05 0 -2.6222941755789702e-05 -2.2156272192271797e-05 0 -3.3262044404322593e-05 -1.4267625579914994e-05 0 -3.8468000122899431e-05 -1.9073487478634545e-05 0 -3.2822247758967163e-05 -1.6029773662728749e-05 0 -6.434342787149048e-05 3.501731218224061e-05 0 -5.4380939270954029e-05 2.4373842371624852e-05 0 -5.2424060977952307e-05 2.8457258043693379e-05 0 -4.7294393510880221e-06 -3.686890885702979e-06 0 -8.9778598745261345e-06 -7.4302198618911951e-06 0 -5.3991516515088338e-06 -9.6800620413868159e-06 0 -1.0470445342646447e-05 -2.1794744128134357e-05 0 -1.3660950635232352e-05 -2.5231302996372871e-05 0 -1.1843054336260509e-05 -2.5518791377680501e-05 0 -1.8889749781607638e-05 -9.6007778996006861e-06 0 -1.9113989352993327e-05 -7.7920534108493628e-06 0 -2.3456811357915153e-05 -1.0976431712324048e-05 0 -1.1562085110950817e-06 7.4117103754464532e-07 0 -4.670892883925059e-07 3.3038513459945391e-07 0 -5.5863501390743317e-07 4.0577690775511513e-07 0 -6.4818943204620407e-06 2.6530937314191368e-06 0 -9.4865119637188032e-06 3.7496432731318456e-06 0 -8.1562355502700556e-06 1.3455260648899317e-06 0 -2.9837171130703787e-06 1.6940739492686804e-06 0 -4.9482624082043921e-06 1.4341911813990961e-06 0 -3.8745207922920357e-06 5.9951756531861178e-07 0 -6.7168827425674844e-06 7.2885591169396639e-06 0 -9.3150525175936621e-06 3.1043004885108525e-06 0 -8.6763309609148929e-06 2.9545130727912615e-07 0 -9.3370089785152026e-06 -2.1266218865178557e-06 0 -7.0992494644458489e-06 -1.1146128687076492e-06 0 -6.7332066518297525e-06 -1.845511285983136e-06 0 -4.6713678551873296e-06 -6.9042484468947339e-07 0 -6.7332066518297525e-06 -1.845511285983136e-06 0 -7.0992494644458489e-06 -1.1146128687076492e-06 0 -6.3934552018632819e-06 1.848458774715328e-07 0 -9.7479353469492889e-06 5.5205131212271535e-07 0 -9.5295641766285576e-06 1.677495114949218e-06 0 -1.3237023881947818e-05 1.8746951058582021e-06 0 -9.5295641766285576e-06 1.677495114949218e-06 0 -9.7479353469492889e-06 5.5205131212271535e-07 0 -4.83472473138942e-05 -3.2540247419267349e-05 0 -5.291778034604752e-05 -4.1246229132888842e-05 0 -4.4662951777543322e-05 -3.5548266149500353e-05 0 -2.0132649375871933e-05 5.5237566123823506e-05 0 -2.7178689499691855e-05 4.0840595369956327e-05 0 -1.7818536745010889e-05 3.83176205529833e-05 0 -7.7497975400394284e-06 -4.5557924092782666e-05 0 -1.3908418068237318e-05 -4.1394909224114466e-05 0 -1.5313398106528812e-05 -5.2779731740535241e-05 0 -1.7947371879145617e-05 -3.1206504515988149e-05 0 -2.019932901720035e-05 -3.0379118595468425e-05 0 -1.9625513141139117e-05 -3.3255927272913455e-05 0 -6.3550859564816295e-06 -4.3374469273888113e-08 0 -8.4790507137918912e-06 -9.6332809947845643e-07 0 -6.5256805015437328e-06 -2.1256504097482371e-07 0 -1.0439145734134651e-05 -2.0251237879404487e-06 0 -7.7131385496248916e-06 6.0427237352447055e-07 0 -8.5963119316760919e-06 -1.4656823191831784e-06 0 -1.5465554944875509e-05 -4.0525147255068303e-06 0 -1.2312816526762481e-05 -2.4702200582298303e-06 0 -1.4823773280031198e-05 -3.6233926154836765e-06 0 -1.3077792600445204e-05 0.0001017599152980439 0 3.7243983695162634e-06 0.00010918646468692699 0 -5.1070861533072704e-06 0.00012268738705682503 0 -8.669341519201022e-10 2.2298035392294363e-10 0 -9.4135562754470939e-07 6.1389328827899292e-07 0 -5.5863501390743317e-07 4.0577690775511513e-07 0 -2.1557807542033593e-05 -2.0686189086692072e-05 0 -1.9765645357000226e-05 -2.1024715777538888e-05 0 -1.9094880550607836e-05 -1.7426325870271961e-05 0 -4.7294393510880221e-06 -3.686890885702979e-06 0 -4.8202096994207701e-06 7.6913899296354585e-06 0 -8.6763309609148929e-06 2.9545130727912615e-07 0 -9.1041032964106255e-05 8.5602450719217914e-05 0 -8.2813526627593104e-05 6.5747056299459946e-05 0 -7.3372505656112767e-05 7.3118181555208124e-05 0 -8.2035500346736446e-07 5.1326978406498807e-07 0 -9.2281047332384861e-07 4.2745703579449174e-07 0 -5.2870050863023948e-07 1.9242959281362579e-07 0 -3.275327529141679e-06 4.2381832510273822e-07 0 -1.5278765226926584e-06 4.5979443308683946e-07 0 -1.551181591461754e-06 2.7632643706029639e-07 0 -3.7321949017340261e-06 -9.9038278452240894e-07 0 -1.8550450224630459e-06 -6.6663307818531803e-07 0 -1.6491786174280931e-06 -8.0813571958421135e-07 0 -3.347730789946392e-06 2.3393218573897548e-06 0 -2.7975497361350635e-06 1.7956529636892241e-06 0 -3.7135670319638649e-06 1.4460364218199826e-06 0 -2.8926861461030322e-05 -1.5274950564110768e-05 0 -2.800924741381728e-05 -1.2262527918265281e-05 0 -3.2822247758967163e-05 -1.6029773662728749e-05 0 -4.3477142691525165e-05 2.739692618400507e-05 0 -5.2424060977952307e-05 2.8457258043693379e-05 0 -4.3125997015374643e-05 2.0739046874634459e-05 0 -1.5020611645951927e-05 0.00017697061486951943 0 -5.804899557069389e-06 0.0001550329982947137 0 2.8137292607349841e-06 0.00016742247417815667 0 -4.8950415528405959e-05 -8.3037705900214893e-05 0 -5.1488583135688844e-05 -7.2159718011747685e-05 0 -5.6593041522849298e-05 -7.9359934134060438e-05 0 -3.2161438354145852e-06 -1.035772075337496e-05 0 -5.3991516515088338e-06 -9.6800620413868159e-06 0 -7.738256610019586e-06 -1.4439240781979997e-05 0 -1.0492962292182787e-05 7.1106060109578322e-06 0 -1.2055848140489502e-05 1.2325847267143275e-05 0 -1.566092877671537e-05 9.929082714804235e-06 0 -9.2291716986800736e-06 -1.1978233731661563e-05 0 -7.738256610019586e-06 -1.4439240781979997e-05 0 -5.3991516515088338e-06 -9.6800620413868159e-06 0 -3.1899459825612918e-06 1.2702777106977213e-06 0 -2.9647490473509079e-06 1.1221994046907276e-06 0 -4.157316806134127e-06 8.4502271655073445e-07 0 -8.5239124054651929e-07 1.7251883996206816e-07 0 -6.9397171616146835e-07 -1.9902788768475775e-07 0 -4.3687350612636607e-07 -4.5695846370153684e-09 0 -8.2151464595271251e-06 -1.2073324731242356e-06 0 -6.6846108561241343e-06 -5.1377041068023774e-07 0 -6.5256805015437328e-06 -2.1256504097482371e-07 0 -7.70321131416846e-06 5.592309960570372e-06 0 -9.3150525175936621e-06 3.1043004885108525e-06 0 -5.5115312728149681e-06 9.4753385432329183e-06 0 -6.7168827425674844e-06 7.2885591169396639e-06 0 -5.5115312728149681e-06 9.4753385432329183e-06 0 -9.3150525175936621e-06 3.1043004885108525e-06 0 -4.170180321101344e-05 -6.537290605414863e-05 0 -5.1488583135688844e-05 -7.2159718011747685e-05 0 -4.4073814099900566e-05 -7.5401280158027221e-05 0 -4.8950415528405959e-05 -8.3037705900214893e-05 0 -4.4073814099900566e-05 -7.5401280158027221e-05 0 -5.1488583135688844e-05 -7.2159718011747685e-05 0 -2.1872742974626707e-05 0.00013952510115106671 0 -5.804899557069389e-06 0.0001550329982947137 0 -2.3196971720958055e-05 0.00016216677474892153 0 -1.5020611645951927e-05 0.00017697061486951943 0 -2.3196971720958055e-05 0.00016216677474892153 0 -5.804899557069389e-06 0.0001550329982947137 0 -2.1872742974626707e-05 0.00013952510115106671 0 -2.258862221626501e-05 0.00011765916089126142 0 -5.1070861533072704e-06 0.00012268738705682503 0 -1.3077792600445204e-05 0.0001017599152980439 0 -5.1070861533072704e-06 0.00012268738705682503 0 -2.258862221626501e-05 0.00011765916089126142 0 -6.8317790715335368e-10 1.6792175917121678e-10 0 -7.3660201608452891e-10 1.9376907771926029e-10 0 -4.670892883925059e-07 3.3038513459945391e-07 0 -5.1894670343764897e-06 -1.3981726142178888e-05 0 -7.738256610019586e-06 -1.4439240781979997e-05 0 -8.5436312341439069e-06 -1.777691946933555e-05 0 -1.0970241873399066e-05 -1.8291712702444903e-05 0 -8.5436312341439069e-06 -1.777691946933555e-05 0 -7.738256610019586e-06 -1.4439240781979997e-05 0 -4.3694389356611905e-05 -5.0240436018248985e-05 0 -4.6094562845686151e-05 -4.3751458958958161e-05 0 -5.071373495573556e-05 -5.2964542089233334e-05 0 -5.291778034604752e-05 -4.1246229132888842e-05 0 -4.6094562845686151e-05 -4.3751458958958161e-05 0 -4.4662951777543322e-05 -3.5548266149500353e-05 0 -9.1041032964106255e-05 8.5602450719217914e-05 0 -7.3372505656112767e-05 7.3118181555208124e-05 0 -7.4767624787619954e-05 9.2449008203489546e-05 0 -3.0390105450368375e-06 4.7586975938640548e-06 0 -2.9683786244960193e-06 6.3291465675837168e-06 0 -2.3437708459592605e-06 5.0364040192660158e-06 0 -2.3444531252265024e-06 7.4835927002300736e-06 0 -2.3437708459592605e-06 5.0364040192660158e-06 0 -2.9683786244960193e-06 6.3291465675837168e-06 0 -2.0224442342632071e-06 1.1514945523631078e-06 0 -2.3644811086783561e-06 1.355701688622008e-06 0 -1.7288694964740822e-06 1.191239803256335e-06 0 -1.1562085110950817e-06 7.4117103754464532e-07 0 -5.5863501390743306e-07 4.0577690775511513e-07 0 -9.4135562754470939e-07 6.1389328827899292e-07 0 -1.7132986871587296e-05 2.6003809505770775e-06 0 -2.3079678524398645e-05 4.9514363479309167e-06 0 -1.845821367321042e-05 3.634866360629509e-06 0 -1.213503636854854e-05 -2.5914746955408465e-06 0 -1.2649967539927973e-05 -3.3519179601557448e-06 0 -1.5503403240882099e-05 -4.1784701009836503e-06 0 -1.213503636854854e-05 -2.5914746955408465e-06 0 -1.4823773280031198e-05 -3.6233926154836765e-06 0 -1.2312816526762481e-05 -2.4702200582298303e-06 0 1.7775476287514096e-05 0.00014799471978321958 0 2.8137292607349841e-06 0.00016742247417815667 0 -5.804899557069389e-06 0.0001550329982947137 0 -6.2077858598233535e-05 -7.214146774239355e-05 0 -5.6593041522849298e-05 -7.9359934134060438e-05 0 -5.1488583135688844e-05 -7.2159718011747685e-05 0 -6.7479785553644498e-10 2.6858451838484103e-11 0 -4.3687350612636613e-07 -4.5695846370153932e-09 0 -6.9397171616146835e-07 -1.9902788768475775e-07 0 -2.9837171130703787e-06 1.6940739492686804e-06 0 -4.2797649211549878e-06 3.0707164440161847e-06 0 -4.9482624082043921e-06 1.4341911813990961e-06 0 -3.1069408836331688e-05 -4.2576373820483791e-05 0 -3.3882499396787831e-05 -3.5719486412568726e-05 0 -3.7231082826971874e-05 -4.2620546841156106e-05 0 -1.2390638232732709e-05 3.0915042452938772e-06 0 -9.4865119637188015e-06 3.7496432731318451e-06 0 -1.4009645967396453e-05 5.8260714831664284e-06 0 -1.3815590860318516e-05 -9.3822947041441186e-06 0 -1.7575786665180554e-05 -1.1235257342013831e-05 0 -1.6524837284373439e-05 -1.3604795730011607e-05 0 -2.6032061882392939e-06 3.7787326943650345e-06 0 -2.3437708459592605e-06 5.0364040192660158e-06 0 -2.6741966882676446e-06 5.895793151987237e-06 0 -4.1305163614856267e-05 8.6647592273732092e-05 0 -5.6982823532753274e-05 9.0147836021756288e-05 0 -4.8632732077411249e-05 7.3996030970408327e-05 0 -2.8926861461030322e-05 -1.5274950564110768e-05 0 -3.535888553075776e-05 -1.9955647129752228e-05 0 -3.0424729240405219e-05 -1.9580813055650552e-05 0 -4.3477142691525165e-05 2.739692618400507e-05 0 -4.6648874011546769e-05 3.6575376833719592e-05 0 -5.6579216459699098e-05 3.7839294126611679e-05 0 -2.134760799638706e-05 -3.267345338105811e-05 0 -2.0147499669310206e-05 -3.5369924884158422e-05 0 -1.9625513141139117e-05 -3.3255927272913455e-05 0 -1.868124463644343e-05 -3.5522608670915139e-05 0 -1.9625513141139117e-05 -3.3255927272913455e-05 0 -2.0147499669310206e-05 -3.5369924884158422e-05 0 -1.5465554944875509e-05 -4.0525147255068303e-06 0 -1.2413559647114524e-05 -2.6986088331424862e-06 0 -1.2312816526762481e-05 -2.4702200582298303e-06 0 -9.7194543675013292e-06 -1.3914795589728598e-06 0 -1.2312816526762481e-05 -2.4702200582298303e-06 0 -1.2413559647114524e-05 -2.6986088331424862e-06 0 -7.7492927931850421e-06 -1.6250944258074485e-06 0 -9.6980358718383597e-06 -3.5082384450466763e-06 0 -8.3981042856917425e-06 -2.5171886571745642e-06 0 -1.8491427539055621e-05 -5.3631361542578919e-06 0 -2.3179080113933987e-05 -7.9236289890268804e-06 0 -1.9543767864248025e-05 -6.1923786178179323e-06 0 -1.9890526358990608e-05 4.8108922731489865e-06 0 -2.0579438126101317e-05 4.0196024283344217e-06 0 -1.5351393393119467e-05 2.7257214159669862e-06 0 -2.3277895929845342e-05 -3.5678109860901815e-05 0 -2.062282643025875e-05 -3.6988941145321505e-05 0 -2.1876590004274334e-05 -3.4608226265314229e-05 0 -4.1305163614856267e-05 8.6647592273732092e-05 0 -5.1671230290464196e-05 0.00011071078542415458 0 -5.6982823532753274e-05 9.0147836021756288e-05 0 -7.3660201608452891e-10 1.9376907771926029e-10 0 -8.669341519201022e-10 2.2298035392294363e-10 0 -5.5863501390743317e-07 4.0577690775511513e-07 0 1.791899169671715e-05 0.00012446298437842482 0 -5.1070861533072704e-06 0.00012268738705682503 0 3.7243983695162634e-06 0.00010918646468692699 0 -2.4391955727505444e-06 1.1801176988315237e-05 0 -1.2660919194083942e-06 1.4416789449327186e-05 0 -2.0931794650061707e-06 1.0409849963219083e-05 0 -4.3477142691525165e-05 2.739692618400507e-05 0 -3.4852669784599085e-05 2.5999131798533624e-05 0 -4.6648874011546769e-05 3.6575376833719592e-05 0 -2.4391955727505444e-06 1.1801176988315237e-05 0 -2.9213553632773995e-06 8.7499718150102262e-06 0 -4.4738192527547608e-06 8.7710728025129513e-06 0 -2.4391955727505444e-06 1.1801176988315237e-05 0 -2.0931794650061707e-06 1.0409849963219082e-05 0 -2.9213553632773995e-06 8.7499718150102262e-06 0 -1.1237851410482972e-05 -2.4001781754489728e-06 0 -1.4308127900678441e-05 -3.9900081341687993e-06 0 -1.3064663729628786e-05 -4.0948741837816348e-06 0 -5.0035808544302301e-06 3.7241297770048104e-07 0 -6.5256805015437328e-06 -2.1256504097482371e-07 0 -6.6846108561241343e-06 -5.1377041068023763e-07 0 -5.9779758520554714e-05 7.2708495571303526e-05 0 -7.4767624787619954e-05 9.2449008203489546e-05 0 -7.3372505656112767e-05 7.3118181555208124e-05 0 -1.1920483442645631e-05 -6.7321048794403198e-06 0 -1.2977831214134543e-05 -5.5704378903882698e-06 0 -1.0642496001545182e-05 -3.9551142277798959e-06 0 -7.70321131416846e-06 5.592309960570372e-06 0 -5.5115312728149681e-06 9.4753385432329183e-06 0 -4.4738192527547608e-06 8.7710728025129513e-06 0 -2.1050274231954107e-05 -1.7258267028771514e-05 0 -1.9000941370574555e-05 -1.4143684032434783e-05 0 -2.022328099306211e-05 -1.3740672755921249e-05 0 -2.8926861461030322e-05 -1.5274950564110768e-05 0 -3.2822247758967163e-05 -1.6029773662728749e-05 0 -3.535888553075776e-05 -1.9955647129752228e-05 0 -4.3477142691525165e-05 2.739692618400507e-05 0 -5.6579216459699098e-05 3.7839294126611679e-05 0 -5.2424060977952307e-05 2.8457258043693379e-05 0 -7.5559760327860608e-05 0.00017579676578596338 0 -9.1864532608773803e-05 0.00018471310622473588 0 -8.8496888623783391e-05 0.00016355112818230969 0 -2.3276798032624814e-05 -8.0474655204077953e-05 0 -1.7182747209842044e-05 -8.3767071057825761e-05 0 -1.6912678161218256e-05 -7.3534250416633316e-05 0 -2.4440882071869389e-05 -2.0234264339948459e-05 0 -2.2471172805088288e-05 -1.7328871142448241e-05 0 -2.4746007665230545e-05 -1.9091715920560232e-05 0 -2.3444531252265024e-06 7.4835927002300736e-06 0 -2.6741966882676446e-06 5.895793151987237e-06 0 -2.3437708459592605e-06 5.0364040192660158e-06 0 -1.0957300909388974e-05 1.4273046299512578e-06 0 -1.5351393393119467e-05 2.7257214159669862e-06 0 -1.3332210926343896e-05 1.2744676738055266e-06 0 -2.2589667199394861e-05 -8.4685305680479355e-06 0 -1.8052449205094687e-05 -5.9504268668090339e-06 0 -1.9543767864248025e-05 -6.1923786178179323e-06 0 -3.3717726638786504e-05 1.3681886154202262e-05 0 -2.7207844117050217e-05 1.2358383027034622e-05 0 -3.3886650631067666e-05 1.8696375774931261e-05 0 -1.1404473437568655e-05 -7.5189211534598839e-06 0 -1.3186367725341541e-05 -1.1376924086186521e-05 0 -1.2449827150293274e-05 -9.8991308535479437e-06 0 -1.5948096273855032e-05 -5.5828465085974512e-06 0 -1.8052449205094687e-05 -5.9504268668090339e-06 0 -1.9113989352993327e-05 -7.7920534108493628e-06 0 -7.70321131416846e-06 5.592309960570372e-06 0 -6.9558970499819166e-06 4.3012112619123524e-06 0 -1.0236752293936303e-05 1.5272907174228616e-06 0 -6.7479785553644498e-10 2.6858451838484103e-11 0 -6.5977718562639156e-10 -3.2938323862569324e-11 0 -4.3687350612636607e-07 -4.5695846370153684e-09 0 -2.4480805709793564e-05 -2.3570744528536634e-05 0 -2.5230793305583893e-05 -2.2333766525042083e-05 0 -2.7212603742293219e-05 -2.5002319769572819e-05 0 -2.8213227289623167e-05 -1.0732301108957138e-05 0 -2.6866362602163668e-05 -1.0359408616955827e-05 0 -2.3179080113933987e-05 -7.9236289890268804e-06 0 -4.496732394377183e-05 1.6940901198165894e-05 0 -3.5178358296694778e-05 1.1687467452246658e-05 0 -4.1790893697991138e-05 1.6484133224008672e-05 0 -3.8705867253103651e-05 -3.4971647026936167e-05 0 -4.4662951777543322e-05 -3.5548266149500353e-05 0 -4.6094562845686151e-05 -4.3751458958958161e-05 0 -2.0571123608251093e-05 -1.6142141784580593e-05 0 -2.0062041590505998e-05 -1.9872541525814027e-05 0 -1.6524837284373439e-05 -1.3604795730011607e-05 0 -1.5710329306507658e-05 -1.6455661645282505e-05 0 -1.6524837284373439e-05 -1.3604795730011607e-05 0 -2.0062041590505998e-05 -1.9872541525814027e-05 0 -1.5948096273855032e-05 -5.5828465085974512e-06 0 -1.5553920381090387e-05 -6.4837072471542117e-06 0 -1.3064663729628786e-05 -4.0948741837816348e-06 0 -2.1050274231954107e-05 -1.7258267028771514e-05 0 -2.022328099306211e-05 -1.3740672755921249e-05 0 -2.2471172805088288e-05 -1.7328871142448241e-05 0 -4.3694389356611905e-05 -5.0240436018248985e-05 0 -3.7214300817223297e-05 -4.9322071207995378e-05 0 -3.7231082826971874e-05 -4.2620546841156106e-05 0 -1.5948096273855032e-05 -5.5828465085974512e-06 0 -1.3064663729628786e-05 -4.0948741837816348e-06 0 -1.4308127900678441e-05 -3.9900081341687993e-06 0 -1.8249934999811476e-05 -1.1216140916402205e-05 0 -2.022328099306211e-05 -1.3740672755921249e-05 0 -1.9000941370574555e-05 -1.4143684032434783e-05 0 -1.2964475985208995e-06 -3.4966790464490622e-07 0 -1.1755687313758196e-06 4.1458846016134275e-08 0 -1.6799449221310132e-06 -1.9698565218411595e-08 0 -3.8468000122899431e-05 -1.9073487478634545e-05 0 -3.535888553075776e-05 -1.9955647129752228e-05 0 -3.2822247758967163e-05 -1.6029773662728749e-05 0 -6.434342787149048e-05 3.501731218224061e-05 0 -5.2424060977952307e-05 2.8457258043693379e-05 0 -5.6579216459699098e-05 3.7839294126611679e-05 0 -6.2077858598233535e-05 -7.214146774239355e-05 0 -5.1488583135688844e-05 -7.2159718011747685e-05 0 -5.5529340113556713e-05 -6.6684822665547813e-05 0 1.7775476287514096e-05 0.00014799471978321958 0 -5.804899557069389e-06 0.0001550329982947137 0 2.7425557515714109e-07 0.00013838273384541769 0 1.791899169671715e-05 0.00012446298437842482 0 2.7425557515714109e-07 0.00013838273384541769 0 -5.1070861533072704e-06 0.00012268738705682503 0 -6.2077858598233535e-05 -7.214146774239355e-05 0 -6.3609896370035563e-05 -8.3169282728604162e-05 0 -5.6593041522849298e-05 -7.9359934134060438e-05 0 1.7775476287514096e-05 0.00014799471978321958 0 1.6970936403304186e-05 0.0001716352141499355 0 2.8137292607349841e-06 0.00016742247417815667 0 -9.2291716986800736e-06 -1.1978233731661563e-05 0 -8.9778598745261362e-06 -7.4302198618911951e-06 0 -1.1880251067860641e-05 -1.1297805305179524e-05 0 -2.2555930254418147e-05 -1.5950695284532579e-05 0 -2.4746007665230545e-05 -1.9091715920560232e-05 0 -2.2471172805088288e-05 -1.7328871142448241e-05 0 -3.1303911624126036e-05 -3.2445460716895195e-05 0 -3.203830893265924e-05 -3.3935404999360633e-05 0 -3.0636541625240158e-05 -3.1291736428865062e-05 0 -1.1850197558606164e-05 -2.8309806852381257e-05 0 -1.4601529158148351e-05 -3.3186581722331754e-05 0 -1.3527625654233011e-05 -3.1868678401315098e-05 0 -4.3477142691525165e-05 2.739692618400507e-05 0 -3.3886650631067666e-05 1.8696375774931261e-05 0 -3.4852669784599085e-05 2.5999131798533624e-05 0 -9.7194543675013292e-06 -1.3914795589728598e-06 0 -7.7501104024739251e-06 -5.6952767043333307e-07 0 -9.461793749382243e-06 -1.3252268222969343e-06 0 -1.8769779740316235e-06 1.5788067123698637e-06 0 -2.3644811086783561e-06 1.355701688622008e-06 0 -2.7975497361350635e-06 1.7956529636892241e-06 0 -6.6594847738733683e-05 0.0001073242885907204 0 -5.6982823532753274e-05 9.0147836021756288e-05 0 -5.1671230290464196e-05 0.00011071078542415458 0 -2.0387457849935783e-05 -4.7834262434742581e-05 0 -1.5313398106528812e-05 -5.2779731740535241e-05 0 -1.3908418068237318e-05 -4.1394909224114466e-05 0 -8.5239124054651929e-07 1.7251883996206816e-07 0 -4.3687350612636607e-07 -4.5695846370153684e-09 0 -5.2870050863023948e-07 1.9242959281362579e-07 0 -1.8889749781607638e-05 -9.6007778996006861e-06 0 -1.4708470407618649e-05 -7.7182881832250265e-06 0 -1.5553920381090387e-05 -6.4837072471542117e-06 0 1.7337424335824278e-05 0.00010133571226992011 0 1.7918991696717153e-05 0.00012446298437842482 0 3.7243983695162634e-06 0.00010918646468692699 0 -3.2014338367586729e-06 -6.9226855507745374e-07 0 -3.3335970741964836e-06 -1.7588146871893408e-07 0 -4.5878101952059706e-06 -4.9510566541759988e-07 0 -9.2291716986800736e-06 -1.1978233731661563e-05 0 -1.1880251067860641e-05 -1.1297805305179524e-05 0 -1.1260657127581606e-05 -1.5378004119598476e-05 0 -1.3987837359956703e-05 -1.5459788293319725e-05 0 -1.1260657127581606e-05 -1.5378004119598476e-05 0 -1.1880251067860641e-05 -1.1297805305179524e-05 0 -2.8703453957969166e-05 -3.0368563936746467e-05 0 -2.9602116764979002e-05 -2.9510245971576779e-05 0 -3.0636541625240158e-05 -3.1291736428865062e-05 0 -3.1303911624126036e-05 -3.2445460716895195e-05 0 -3.0636541625240158e-05 -3.1291736428865062e-05 0 -2.9602116764979002e-05 -2.9510245971576779e-05 0 -1.1850197558606164e-05 -2.8309806852381257e-05 0 -1.4107713819762458e-05 -3.05341154313689e-05 0 -1.4601529158148351e-05 -3.3186581722331754e-05 0 -1.6192570781607275e-05 -3.4690230167868992e-05 0 -1.4601529158148351e-05 -3.3186581722331754e-05 0 -1.4107713819762458e-05 -3.05341154313689e-05 0 -3.0390105450368375e-06 4.7586975938640548e-06 0 -2.569413154822123e-06 3.5545228951989881e-06 0 -4.062641485151161e-06 3.3492669517021458e-06 0 -4.7294393510880221e-06 -3.686890885702979e-06 0 -8.6763309609148929e-06 2.9545130727912615e-07 0 -8.9778598745261362e-06 -7.4302198618911951e-06 0 -1.1984844721399439e-05 -4.8011009265589281e-06 0 -8.9778598745261362e-06 -7.4302198618911959e-06 0 -8.6763309609148929e-06 2.9545130727912615e-07 0 -4.3694389356611905e-05 -5.0240436018248985e-05 0 -5.071373495573556e-05 -5.2964542089233334e-05 0 -4.8809716712718965e-05 -6.0608038794885612e-05 0 -1.5465554944875509e-05 -4.0525147255068303e-06 0 -1.8052449205094687e-05 -5.9504268668090339e-06 0 -1.4308127900678441e-05 -3.9900081341687993e-06 0 -1.5948096273855032e-05 -5.5828465085974512e-06 0 -1.4308127900678441e-05 -3.9900081341687993e-06 0 -1.8052449205094687e-05 -5.9504268668090339e-06 0 -1.2904929358287864e-05 -1.3567293897908408e-05 0 -1.8157147096249931e-05 -1.1222936243282144e-05 0 -1.6863758807445214e-05 -1.0100850963878323e-05 0 -2.7688949943851401e-05 -2.7395283265249386e-05 0 -2.9602116764979002e-05 -2.9510245971576779e-05 0 -2.7303939328015662e-05 -2.8627317429729846e-05 0 -1.4510132710311715e-05 -2.8282570810545777e-05 0 -1.6195709100157e-05 -3.1365794545533298e-05 0 -1.4107713819762458e-05 -3.05341154313689e-05 0 -3.1899459825612918e-06 1.2702777106977213e-06 0 -2.7975497361350631e-06 1.7956529636892241e-06 0 -2.3644811086783561e-06 1.355701688622008e-06 0 -2.062282643025875e-05 -3.6988941145321505e-05 0 -2.0147499669310206e-05 -3.5369924884158422e-05 0 -2.1876590004274334e-05 -3.4608226265314229e-05 0 -3.0085951683736679e-06 1.0024638443726656e-06 0 -2.0880173121977829e-06 1.0574375294284984e-06 0 -1.9884371700203002e-06 9.6926827972076257e-07 0 -1.8249934999811476e-05 -1.1216140916402205e-05 0 -1.6700626449112253e-05 -8.4645623058383079e-06 0 -1.8013899081255347e-05 -9.3474147734930331e-06 0 -8.5239124054651929e-07 1.7251883996206816e-07 0 -1.1401336382402602e-06 4.602830824452786e-07 0 -1.1755687313758196e-06 4.1458846016134242e-08 0 -3.971082094801793e-05 0.00012125892078186229 0 -3.2279474587884427e-05 0.00010333037103337238 0 -2.258862221626501e-05 0.00011765916089126142 0 -4.1270651388398566e-05 0.00016164585656732166 0 -2.3196971720958055e-05 0.0001621667747489215 0 -3.1245699405979505e-05 0.00017685745367891674 0 -3.643727840526184e-05 -7.5577673823873189e-05 0 -4.4073814099900566e-05 -7.5401280158027221e-05 0 -4.1747936261496783e-05 -8.2547241830635711e-05 0 3.3442520218726148e-06 2.1848289243673366e-05 0 -4.8202096994207701e-06 7.6913899296354585e-06 0 2.1657556155612657e-06 1.6945116200444703e-06 0 -8.5239124054651929e-07 1.7251883996206816e-07 0 -5.2870050863023948e-07 1.9242959281362579e-07 0 -9.2281047332384861e-07 4.2745703579449174e-07 0 -5.9732820473642792e-05 -6.1327786972478223e-05 0 -5.5529340113556713e-05 -6.6684822665547813e-05 0 -4.8809716712718965e-05 -6.0608038794885612e-05 0 -6.4625657975423046e-05 -0.00012370994532066794 0 -5.8297151260498648e-05 -0.00011835481083832527 0 -6.4673240370673367e-05 -0.00011423646508894724 0 8.857300138864576e-06 0.00026154709034137186 0 -2.5608743439888577e-06 0.00025419427367299433 0 1.1061580725224473e-05 0.00024180472543687602 0 8.857300138864576e-06 0.00026154709034137186 0 -9.1541473717857367e-06 0.00026595953825388967 0 -2.5608743439888594e-06 0.00025419427367299433 0 -1.5650535730977796e-05 -0.00012091861214406895 0 -2.0054987133321276e-05 -0.00011821692805156414 0 -2.2673739282547029e-05 -0.00012314179332300704 0 -0.00010936780992130003 0.00026794086955100692 0 -0.00010943797043019394 0.00024639880131671122 0 -9.4978321477359758e-05 0.0002557508491444568 0 -6.4625657975423046e-05 -0.00012370994532066794 0 -5.5170973127149129e-05 -0.0001236549107016059 0 -5.8297151260498648e-05 -0.00011835481083832527 0 -1.5650535730977796e-05 -0.00012091861214406895 0 -1.4362431323516207e-05 -0.00011232646437472122 0 -2.0054987133321276e-05 -0.00011821692805156414 0 -0.00010936780992130003 0.00026794086955100692 0 -9.4978321477359758e-05 0.0002557508491444568 0 -8.7843875626130081e-05 0.00026785913636004176 0 -6.5977718562647159e-10 -3.2938323862570158e-11 0 -5.2870050863023948e-07 1.9242959281362579e-07 0 -4.3687350612636607e-07 -4.5695846370153684e-09 0 -2.1050274231954107e-05 -1.7258267028771514e-05 0 -1.9094880550607836e-05 -1.7426325870271961e-05 0 -1.9000941370574555e-05 -1.4143684032434783e-05 0 -1.5948096273855032e-05 -5.5828465085974512e-06 0 -1.9113989352993327e-05 -7.7920534108493628e-06 0 -1.5553920381090387e-05 -6.4837072471542117e-06 0 -4.3694389356611905e-05 -5.0240436018248985e-05 0 -4.0633453562693319e-05 -5.6083267226490913e-05 0 -3.7214300817223297e-05 -4.9322071207995378e-05 0 -2.3815411428298085e-06 3.1720154671705935e-07 0 -3.8745207922920357e-06 5.9951756531861178e-07 0 -3.3335970741964836e-06 -1.7588146871893408e-07 0 -4.5146742310120345e-05 0.00019015102911017941 0 -5.9829037344672323e-05 0.00020405491983737379 0 -6.0154486793394711e-05 0.00018272053473457152 0 -3.6595945247789693e-05 -8.8393374950219397e-05 0 -3.1357517383781283e-05 -9.4795428603117423e-05 0 -3.0016704278311815e-05 -8.4826539238894589e-05 0 -2.9694569814677685e-05 -2.8093398663859171e-05 0 -3.0615617292994109e-05 -3.0515045807191839e-05 0 -2.9073549306167787e-05 -2.7910608743326294e-05 0 -8.6897003187166302e-06 -2.0926172202291464e-05 0 -1.1843054336260511e-05 -2.5518791377680501e-05 0 -1.0371425701511176e-05 -2.4692243906101635e-05 0 -6.878720935313408e-07 -5.7606983087430969e-06 0 -5.3991516515088338e-06 -9.6800620413868159e-06 0 -3.2161438354145852e-06 -1.035772075337496e-05 0 -1.8889749781607638e-05 -9.6007778996006861e-06 0 -1.5553920381090387e-05 -6.4837072471542117e-06 0 -1.9113989352993327e-05 -7.7920534108493628e-06 0 -2.6993099840102993e-05 -2.1372098603673449e-05 0 -2.8564320750715203e-05 -2.4959015695190992e-05 0 -2.6222941755789702e-05 -2.2156272192271797e-05 0 -5.1894670343764897e-06 -1.3981726142178888e-05 0 -8.5436312341439069e-06 -1.777691946933555e-05 0 -7.0554813477222233e-06 -1.7436759321155622e-05 0 -3.1069408836331688e-05 -4.2576373820483791e-05 0 -2.5928564274546136e-05 -4.5406637686907577e-05 0 -2.5263982291775543e-05 -3.6083119926355474e-05 0 -1.8769779740316235e-06 1.5788067123698637e-06 0 -1.7288694964740822e-06 1.1912398032563348e-06 0 -2.3644811086783561e-06 1.355701688622008e-06 0 -2.3276798032624814e-05 -8.0474655204077953e-05 0 -2.8832886156667317e-05 -7.3783819042081358e-05 0 -3.0016704278311815e-05 -8.4826539238894589e-05 0 -7.5559760327860608e-05 0.00017579676578596338 0 -5.9042800061105414e-05 0.00016186240771123316 0 -6.0154486793394711e-05 0.00018272053473457152 0 -1.0970241873399066e-05 -1.8291712702444903e-05 0 -7.738256610019586e-06 -1.4439240781979997e-05 0 -1.1260657127581606e-05 -1.5378004119598476e-05 0 -9.2291716986800736e-06 -1.1978233731661563e-05 0 -1.1260657127581606e-05 -1.5378004119598476e-05 0 -7.738256610019586e-06 -1.4439240781979997e-05 0 -5.0035808544302301e-06 3.7241297770048104e-07 0 -4.9006614897251329e-06 4.3500862263099646e-07 0 -6.5256805015437328e-06 -2.1256504097482371e-07 0 -2.0571123608251093e-05 -1.6142141784580593e-05 0 -1.6524837284373439e-05 -1.3604795730011605e-05 0 -1.7575786665180554e-05 -1.1235257342013831e-05 0 -1.8675608223095417e-05 -3.5883006953546444e-05 0 -1.3100615342253294e-05 -3.1616928479379911e-05 0 -1.6263518684228279e-05 -2.4256353116243944e-05 0 -1.7491009603882985e-05 -1.4009455186000275e-05 0 -1.9000941370574555e-05 -1.4143684032434783e-05 0 -1.9094880550607836e-05 -1.7426325870271961e-05 0 -9.4846639621801931e-06 -2.572267711745647e-05 0 -1.3100615342253294e-05 -3.1616928479379911e-05 0 -8.033639606522435e-06 -3.5395965982377281e-05 0 -1.0470445342646447e-05 -2.1794744128134357e-05 0 -1.2335073745351671e-05 -2.1350962270244722e-05 0 -1.3660950635232352e-05 -2.5231302996372871e-05 0 -1.503276072491522e-05 -2.3713065687677785e-05 0 -1.3660950635232352e-05 -2.5231302996372871e-05 0 -1.2335073745351671e-05 -2.1350962270244722e-05 0 -7.0486209274183224e-06 -5.6764951711610738e-07 0 -9.1905282764454258e-06 -1.537680695812934e-06 0 -9.461793749382243e-06 -1.3252268222969343e-06 0 -9.0542262224321868e-06 -2.872826359076168e-06 0 -1.0642496001545182e-05 -3.9551142277798959e-06 0 -8.5963119316760919e-06 -1.4656823191831784e-06 0 -1.0439145734134651e-05 -2.0251237879404487e-06 0 -8.5963119316760919e-06 -1.4656823191831784e-06 0 -1.0642496001545182e-05 -3.9551142277798959e-06 0 -2.4391955727505444e-06 1.1801176988315237e-05 0 -5.5115312728149681e-06 9.4753385432329183e-06 0 -2.3452068869118684e-06 1.5052717907303631e-05 0 -6.7168827425674844e-06 7.2885591169396639e-06 0 -2.3452068869118684e-06 1.5052717907303631e-05 0 -5.5115312728149681e-06 9.4753385432329183e-06 0 1.791899169671715e-05 0.00012446298437842482 0 1.7775476287514096e-05 0.00014799471978321958 0 2.7425557515714109e-07 0.00013838273384541769 0 -4.6212161061266557e-06 7.0373565824478094e-06 0 -2.9683786244960193e-06 6.3291465675837168e-06 0 -4.2970421587761587e-06 5.1632243699613754e-06 0 -5.9732820473642792e-05 -6.1327786972478223e-05 0 -6.2077858598233535e-05 -7.214146774239355e-05 0 -5.5529340113556713e-05 -6.6684822665547813e-05 0 -6.3550859564816295e-06 -4.3374469273888113e-08 0 -6.5256805015437328e-06 -2.1256504097482371e-07 0 -4.9006614897251329e-06 4.3500862263099646e-07 0 -9.021702572832984e-06 -8.4368318187990724e-08 0 -7.0391557406590385e-06 -3.2147780593633131e-07 0 -5.9524860672322477e-06 -7.3869883840400066e-07 0 -7.0486209274183224e-06 -5.6764951711610738e-07 0 -4.8297515717080819e-06 3.508757295965896e-08 0 -5.3739204869668503e-06 -3.6810512634613417e-07 0 -2.9837171130703787e-06 1.6940739492686804e-06 0 -1.9414438160343733e-06 1.3614152177128094e-06 0 -2.2434383572821239e-06 2.637155842443296e-06 0 -3.8878222630033206e-06 -1.9709833880462066e-06 0 -3.2634766851956424e-06 -9.1505245107173218e-07 0 -1.6384729019826217e-06 -6.2857501956707587e-07 0 -2.4535323811603141e-09 2.3638936905222269e-10 0 -1.6384729019826217e-06 -6.2857501956707587e-07 0 -3.2634766851956424e-06 -9.1505245107173218e-07 0 -5.3519779783413459e-06 2.3109791577030226e-06 0 -2.2652328980617924e-06 6.4857231341330651e-07 0 -4.5690468823312333e-06 7.5611027193242937e-07 0 -3.5010439785406103e-09 -5.1727291933672046e-10 0 -4.5690468823312333e-06 7.5611027193242937e-07 0 -2.2652328980617924e-06 6.4857231341330651e-07 0 -2.0571123608251093e-05 -1.6142141784580593e-05 0 -2.5612485578277872e-05 -1.8976883600557976e-05 0 -2.4406381449788714e-05 -2.2664149451018084e-05 0 -8.5239124054651929e-07 1.7251883996206816e-07 0 -9.2281047332384861e-07 4.2745703579449174e-07 0 -1.1401336382402602e-06 4.602830824452786e-07 0 -1.3077792600445204e-05 0.0001017599152980439 0 2.307903980277488e-06 9.4230247267818956e-05 0 3.7243983695162634e-06 0.00010918646468692699 0 -1.4949826379012046e-05 2.5903112575440776e-05 0 -1.730158643656287e-05 1.9077866856413779e-05 0 -1.0247829577533365e-05 1.7092701940731812e-05 0 -4.6212161061266557e-06 7.0373565824478094e-06 0 -2.9213553632773995e-06 8.7499718150102262e-06 0 -2.9683786244960193e-06 6.3291465675837168e-06 0 -2.1943282351549083e-05 -2.7616237931855439e-05 0 -2.0062041590505998e-05 -1.9872541525814027e-05 0 -2.4406381449788714e-05 -2.2664149451018084e-05 0 -6.6771252663520248e-05 0.00026761560155631574 0 -8.7843875626130081e-05 0.00026785913636004176 0 -7.7191514087125924e-05 0.00025688045791303542 0 -2.9820767772055123e-05 -0.00012357470939978365 0 -2.2673739282547029e-05 -0.00012314179332300704 0 -2.6199588513394458e-05 -0.0001193215099491887 0 -9.1541473717857367e-06 0.00026595953825388967 0 -2.743738646765298e-05 0.00026724712384362982 0 -1.8111980959287995e-05 0.00025684125881885931 0 -5.5170973127149129e-05 -0.0001236549107016059 0 -4.6041931141731958e-05 -0.00012351741915635382 0 -5.0527096499576267e-05 -0.0001188512680416904 0 -2.5151131053696998e-05 -2.8516373546360425e-05 0 -2.7303939328015662e-05 -2.8627317429729846e-05 0 -2.6003128544347839e-05 -3.0192824698648366e-05 0 -1.7947371879145617e-05 -3.1206504515988149e-05 0 -1.7633448320848465e-05 -3.4327774001426406e-05 0 -1.6195709100157e-05 -3.1365794545533298e-05 0 -4.4706744308325713e-09 -1.9092558320182813e-09 0 -1.6384729019826221e-06 -6.2857501956707598e-07 0 -2.4535323811603141e-09 2.3638936905222269e-10 0 -5.9017866219645473e-09 2.5145466229111207e-09 0 -3.5010439785406103e-09 -5.1727291933672046e-10 0 -2.2652328980617924e-06 6.4857231341330651e-07 0 -5.9017866219645473e-09 2.5145466229111207e-09 0 -2.2652328980617924e-06 6.4857231341330651e-07 0 -5.3519779783413459e-06 2.3109791577030226e-06 0 -4.4706744308325713e-09 -1.9092558320182813e-09 0 -3.8878222630033206e-06 -1.9709833880462066e-06 0 -1.6384729019826217e-06 -6.2857501956707587e-07 0 -2.0387457849935783e-05 -4.7834262434742581e-05 0 -2.5928564274546132e-05 -4.540663768690757e-05 0 -2.6879368911828912e-05 -5.5590648507409491e-05 0 -8.2151464595271251e-06 -1.2073324731242356e-06 0 -1.028375193161385e-05 -2.3754221356265826e-06 0 -9.0101661470883835e-06 -2.1639069711761902e-06 0 -1.8249934999811476e-05 -1.1216140916402205e-05 0 -1.9000941370574555e-05 -1.4143684032434783e-05 0 -1.7072014908249103e-05 -1.0888803980009937e-05 0 -1.7491009603882985e-05 -1.4009455186000275e-05 0 -1.7072014908249103e-05 -1.0888803980009937e-05 0 -1.9000941370574555e-05 -1.4143684032434783e-05 0 -5.0035808544302301e-06 3.7241297770048104e-07 0 -6.6846108561241343e-06 -5.1377041068023763e-07 0 -5.352057762791304e-06 1.4128137004526824e-07 0 -2.0224442342632071e-06 1.1514945523631078e-06 0 -2.0880173121977829e-06 1.0574375294284984e-06 0 -2.9647490473509079e-06 1.1221994046907276e-06 0 -3.0085951683736679e-06 1.0024638443726656e-06 0 -2.9647490473509079e-06 1.1221994046907276e-06 0 -2.0880173121977829e-06 1.0574375294284984e-06 0 -6.7168827425674844e-06 7.2885591169396639e-06 0 -4.8202096994207701e-06 7.6913899296354585e-06 0 -2.3452068869118684e-06 1.5052717907303631e-05 0 3.3442520218726148e-06 2.1848289243673366e-05 0 -2.3452068869118676e-06 1.5052717907303633e-05 0 -4.8202096994207701e-06 7.6913899296354585e-06 0 -2.9415241352554206e-05 -2.3110763840715739e-05 0 -2.4406381449788714e-05 -2.2664149451018084e-05 0 -2.5612485578277872e-05 -1.8976883600557976e-05 0 -1.0970241873399066e-05 -1.8291712702444903e-05 0 -1.2335073745351671e-05 -2.1350962270244722e-05 0 -8.5436312341439069e-06 -1.777691946933555e-05 0 -2.4440882071869389e-05 -2.0234264339948459e-05 0 -2.6222941755789702e-05 -2.2156272192271797e-05 0 -2.5230793305583893e-05 -2.2333766525042083e-05 0 -3.1899459825612918e-06 1.2702777106977213e-06 0 -3.7135670319638649e-06 1.4460364218199826e-06 0 -2.7975497361350635e-06 1.7956529636892241e-06 0 -1.5020611645951927e-05 0.00017697061486951943 0 2.8137292607349841e-06 0.00016742247417815667 0 7.6076647070334885e-07 0.00018362605698328327 0 -4.8950415528405959e-05 -8.3037705900214893e-05 0 -5.6593041522849298e-05 -7.9359934134060438e-05 0 -5.6660337995103202e-05 -8.6973706849850416e-05 0 -1.2904929358287864e-05 -1.3567293897908408e-05 0 -1.2449827150293274e-05 -9.8991308535479437e-06 0 -1.3186367725341541e-05 -1.1376924086186521e-05 0 -9.2291716986800736e-06 -1.1978233731661563e-05 0 -5.3991516515088338e-06 -9.6800620413868159e-06 0 -8.9778598745261362e-06 -7.4302198618911951e-06 0 -7.5559760327860608e-05 0.00017579676578596338 0 -8.8496888623783391e-05 0.00016355112818230969 0 -7.2847349438141863e-05 0.00015651179199925962 0 -2.3276798032624814e-05 -8.0474655204077953e-05 0 -1.6912678161218256e-05 -7.3534250416633316e-05 0 -2.2694202064776075e-05 -7.1070378164413869e-05 0 -2.0387457849935783e-05 -4.7834262434742581e-05 0 -2.1398407912585658e-05 -5.6725225600443813e-05 0 -1.5313398106528812e-05 -5.2779731740535241e-05 0 -2.3928794956083788e-05 -2.6270624816918417e-05 0 -2.3363511953040558e-05 -2.8046703454797958e-05 0 -2.1915474029472016e-05 -2.619572042190917e-05 0 -1.4510132710311715e-05 -2.8282570810545777e-05 0 -1.1843054336260509e-05 -2.5518791377680501e-05 0 -1.3660950635232352e-05 -2.5231302996372871e-05 0 -6.4818943204620407e-06 2.6530937314191368e-06 0 -4.9482624082043921e-06 1.4341911813990961e-06 0 -4.2797649211549878e-06 3.0707164440161839e-06 0 -2.134760799638706e-05 -3.267345338105811e-05 0 -1.9625513141139117e-05 -3.3255927272913455e-05 0 -2.019932901720035e-05 -3.0379118595468425e-05 0 -6.3550859564816295e-06 -4.3374469273888113e-08 0 -4.9006614897251329e-06 4.3500862263099646e-07 0 -4.8797879457581835e-06 3.9481903647940729e-07 0 -3.7376978548559648e-06 6.8261665111001696e-07 0 -4.8797879457581835e-06 3.9481903647940729e-07 0 -4.9006614897251329e-06 4.3500862263099646e-07 0 -6.3589186848742776e-06 4.1084420287748282e-07 0 -7.5673407514993349e-06 -1.2014522970107869e-06 0 -8.5963119316760919e-06 -1.4656823191831784e-06 0 -2.0571123608251093e-05 -1.6142141784580593e-05 0 -2.4406381449788714e-05 -2.2664149451018084e-05 0 -2.0062041590505998e-05 -1.9872541525814027e-05 0 -5.0035808544302301e-06 3.7241297770048104e-07 0 -5.352057762791304e-06 1.4128137004526824e-07 0 -3.9705976797894155e-06 7.1269267753615458e-07 0 -4.4746054271254809e-06 5.5885128173936081e-07 0 -3.9705976797894155e-06 7.1269267753615458e-07 0 -5.352057762791304e-06 1.4128137004526824e-07 0 -6.6846108561241343e-06 -5.1377041068023763e-07 0 -6.0099307543806543e-06 -3.1781839010055441e-07 0 -5.352057762791304e-06 1.4128137004526824e-07 0 -2.416752834482128e-05 -3.224850781001155e-05 0 -2.6003128544347839e-05 -3.0192824698648366e-05 0 -2.6902220423265565e-05 -3.2172359796199192e-05 0 -2.8703453957969166e-05 -3.0368563936746467e-05 0 -2.6902220423265562e-05 -3.2172359796199192e-05 0 -2.6003128544347839e-05 -3.0192824698648366e-05 0 -1.6192570781607275e-05 -3.4690230167868992e-05 0 -1.7633448320848465e-05 -3.4327774001426406e-05 0 -1.7367814229948434e-05 -3.7503977161128078e-05 0 -1.868124463644343e-05 -3.5522608670915139e-05 0 -1.7367814229948434e-05 -3.7503977161128078e-05 0 -1.7633448320848465e-05 -3.4327774001426406e-05 0 -6.7168827425674844e-06 7.2885591169396639e-06 0 -8.6763309609148929e-06 2.9545130727912609e-07 0 -4.8202096994207701e-06 7.6913899296354585e-06 0 -1.0695792606312108e-05 0.00024360544964407117 0 -1.8111980959287995e-05 0.00025684125881885931 0 -2.894799675114153e-05 0.00024869146861431233 0 -5.3970211549113811e-05 -0.00011306076001879664 0 -5.0527096499576267e-05 -0.0001188512680416904 0 -4.5282968933642296e-05 -0.0001151241185912846 0 -2.323680977052707e-05 -0.00011348001596172638 0 -3.0476336074998954e-05 -0.00011567661239236479 0 -2.6199588513394458e-05 -0.0001193215099491887 0 -8.5174925819324248e-05 0.0002437704624815826 0 -6.499138392457143e-05 0.00024827929287204905 0 -7.7191514087125924e-05 0.00025688045791303542 0 -7.5559760327860608e-05 0.00017579676578596338 0 -7.2847349438141863e-05 0.00015651179199925962 0 -5.9042800061105414e-05 0.00016186240771123316 0 -2.3276798032624814e-05 -8.0474655204077953e-05 0 -2.2694202064776075e-05 -7.1070378164413869e-05 0 -2.8832886156667317e-05 -7.3783819042081358e-05 0 -2.0387457849935783e-05 -4.7834262434742581e-05 0 -2.6879368911828912e-05 -5.5590648507409491e-05 0 -2.1398407912585661e-05 -5.6725225600443813e-05 0 -9.0542262224321868e-06 -2.872826359076168e-06 0 -8.5963119316760919e-06 -1.4656823191831784e-06 0 -7.5673407514993349e-06 -1.2014522970107869e-06 0 -2.743738646765298e-05 0.00026724712384362982 0 -2.894799675114153e-05 0.00024869146861431233 0 -1.8111980959287995e-05 0.00025684125881885931 0 -4.6041931141731958e-05 -0.00012351741915635382 0 -4.5282968933642296e-05 -0.0001151241185912846 0 -5.0527096499576267e-05 -0.0001188512680416904 0 -6.6771252663520248e-05 0.00026761560155631574 0 -7.7191514087125924e-05 0.00025688045791303542 0 -6.499138392457143e-05 0.00024827929287204905 0 -2.9820767772055123e-05 -0.00012357470939978365 0 -2.6199588513394458e-05 -0.00011932150994918872 0 -3.0476336074998954e-05 -0.00011567661239236479 0 -2.1715544472379405e-05 -2.8415651826257224e-05 0 -2.1915474029472016e-05 -2.619572042190917e-05 0 -2.3363511953040558e-05 -2.8046703454797958e-05 0 -9.4846639621801931e-06 -2.572267711745647e-05 0 -1.6263518684228279e-05 -2.4256353116243944e-05 0 -1.3100615342253294e-05 -3.1616928479379911e-05 0 -3.203830893265924e-05 -3.3935404999360633e-05 0 -3.0544900905107667e-05 -3.2034412512423836e-05 0 -3.0636541625240158e-05 -3.1291736428865062e-05 0 -1.3527625654233011e-05 -3.1868678401315098e-05 0 -1.4601529158148351e-05 -3.3186581722331754e-05 0 -1.5858912559586361e-05 -3.6506304639461178e-05 0 -2.0224442342632071e-06 1.1514945523631078e-06 0 -1.4630162144991306e-06 8.9157821999687069e-07 0 -2.0880173121977829e-06 1.0574375294284984e-06 0 -8.2014421672006873e-05 0.00014124038470114726 0 -8.2953579710538501e-05 0.00011994684313010045 0 -6.8392303623483606e-05 0.00012376262795039437 0 -6.6594847738733683e-05 0.0001073242885907204 0 -6.8392303623483606e-05 0.00012376262795039437 0 -8.2953579710538501e-05 0.00011994684313010045 0 -2.0096356948560613e-05 -2.396671817099429e-05 0 -2.221019412603773e-05 -2.3861232164031666e-05 0 -2.1915474029472016e-05 -2.619572042190917e-05 0 -5.646192261984448e-06 -9.5296703814759444e-09 0 -6.0099307543806543e-06 -3.1781839010055441e-07 0 -6.9363907883422956e-06 -1.1140206341261185e-06 0 -1.8249934999811476e-05 -1.1216140916402205e-05 0 -1.7072014908249103e-05 -1.0888803980009937e-05 0 -1.6700626449112253e-05 -8.4645623058383079e-06 0 -1.5367601992886191e-05 -7.1853710518769442e-06 0 -1.6700626449112253e-05 -8.4645623058383079e-06 0 -1.7072014908249103e-05 -1.0888803980009937e-05 0 -5.9482022928721453e-05 0.00014039710451655489 0 -5.9042800061105414e-05 0.00016186240771123316 0 -7.2847349438141863e-05 0.00015651179199925962 0 -2.6419823745061999e-05 -6.4189164953319523e-05 0 -2.8832886156667317e-05 -7.3783819042081358e-05 0 -2.2694202064776075e-05 -7.1070378164413869e-05 0 -2.6419823745061999e-05 -6.4189164953319523e-05 0 -2.1398407912585661e-05 -5.6725225600443813e-05 0 -2.6879368911828912e-05 -5.5590648507409491e-05 0 -4.6713678551873296e-06 -6.9042484468947339e-07 0 -7.0992494644458498e-06 -1.1146128687076494e-06 0 -5.3739204869668503e-06 -3.6810512634613417e-07 0 -6.3934552018632819e-06 1.848458774715328e-07 0 -7.0391557406590385e-06 -3.2147780593633131e-07 0 -9.7479353469492889e-06 5.5205131212271535e-07 0 -1.3237023881947818e-05 1.8746951058582021e-06 0 -9.7479353469492889e-06 5.5205131212271535e-07 0 -1.2503386713822906e-05 1.0653673359646689e-06 0 -9.3370089785152026e-06 -2.1266218865178557e-06 0 -9.1905282764454258e-06 -1.537680695812934e-06 0 -7.0992494644458489e-06 -1.1146128687076492e-06 0 -7.692275853419319e-06 -1.751472101885732e-06 0 -7.5673407514993349e-06 -1.2014522970107869e-06 0 -6.3644385396715401e-06 -3.2849437828052106e-07 0 -8.2014421672006873e-05 0.00014124038470114726 0 -7.2847349438141863e-05 0.00015651179199925962 0 -8.8496888623783391e-05 0.00016355112818230969 0 -1.771158056183423e-05 -6.3239412444003493e-05 0 -2.2694202064776075e-05 -7.1070378164413869e-05 0 -1.6912678161218256e-05 -7.3534250416633316e-05 0 -1.771158056183423e-05 -6.3239412444003493e-05 0 -1.5313398106528812e-05 -5.2779731740535241e-05 0 -2.1398407912585661e-05 -5.6725225600443813e-05 0 -3.1069408836331688e-05 -4.2576373820483791e-05 0 -3.7231082826971874e-05 -4.2620546841156106e-05 0 -3.7214300817223297e-05 -4.9322071207995378e-05 0 -2.3928794956083788e-05 -2.6270624816918417e-05 0 -2.1915474029472016e-05 -2.619572042190917e-05 0 -2.221019412603773e-05 -2.3861232164031666e-05 0 -6.4818943204620407e-06 2.6530937314191368e-06 0 -6.7076216110648146e-06 4.7553929767864389e-06 0 -9.4865119637188032e-06 3.7496432731318456e-06 0 -9.7574238023359812e-06 -4.3868733399411885e-06 0 -8.3981042856917425e-06 -2.5171886571745642e-06 0 -9.6980358718383597e-06 -3.5082384450466763e-06 0 -7.0486209274183224e-06 -5.6764951711610738e-07 0 -9.4617937493822447e-06 -1.3252268222969345e-06 0 -7.7501104024739251e-06 -5.6952767043333307e-07 0 -5.9779758520554714e-05 7.2708495571303526e-05 0 -4.8632732077411249e-05 7.3996030970408327e-05 0 -5.6982823532753274e-05 9.0147836021756288e-05 0 -3.8705867253103651e-05 -3.4971647026936167e-05 0 -3.7231082826971874e-05 -4.2620546841156106e-05 0 -3.3882499396787831e-05 -3.5719486412568726e-05 0 -1.5020611645951927e-05 0.00017697061486951943 0 -3.1245699405979505e-05 0.00017685745367891674 0 -2.3196971720958055e-05 0.00016216677474892153 0 -4.8950415528405959e-05 -8.3037705900214893e-05 0 -4.1747936261496783e-05 -8.2547241830635711e-05 0 -4.4073814099900566e-05 -7.5401280158027221e-05 0 -1.3077792600445204e-05 0.0001017599152980439 0 -2.258862221626501e-05 0.00011765916089126142 0 -3.2279474587884427e-05 0.00010333037103337238 0 -1.1237851410482972e-05 -2.4001781754489728e-06 0 -1.2413559647114524e-05 -2.6986088331424858e-06 0 -1.4308127900678441e-05 -3.9900081341687993e-06 0 -7.7492927931850421e-06 -1.6250944258074485e-06 0 -6.9363907883422956e-06 -1.1140206341261185e-06 0 -6.0099307543806543e-06 -3.1781839010055441e-07 0 -3.3709551275093505e-05 -5.5561364662208476e-05 0 -3.7214300817223297e-05 -4.9322071207995378e-05 0 -4.0633453562693319e-05 -5.6083267226490913e-05 0 -2.8703453957969166e-05 -3.0368563936746467e-05 0 -3.0636541625240158e-05 -3.1291736428865062e-05 0 -3.0544900905107667e-05 -3.2034412512423836e-05 0 -1.6192570781607275e-05 -3.4690230167868992e-05 0 -1.5858912559586361e-05 -3.6506304639461178e-05 0 -1.4601529158148351e-05 -3.3186581722331754e-05 0 -4.4746054271254809e-06 5.5885128173936081e-07 0 -5.352057762791304e-06 1.4128137004526824e-07 0 -6.0099307543806543e-06 -3.1781839010055441e-07 0 -8.7843875626130081e-05 0.00026785913636004176 0 -9.4978321477359758e-05 0.0002557508491444568 0 -7.7191514087125924e-05 0.00025688045791303542 0 -8.5174925819324248e-05 0.0002437704624815826 0 -7.7191514087125924e-05 0.00025688045791303542 0 -9.4978321477359758e-05 0.0002557508491444568 0 -2.323680977052707e-05 -0.00011348001596172638 0 -2.6199588513394458e-05 -0.0001193215099491887 0 -2.0054987133321276e-05 -0.00011821692805156414 0 -2.2673739282547029e-05 -0.00012314179332300704 0 -2.0054987133321276e-05 -0.00011821692805156414 0 -2.6199588513394458e-05 -0.0001193215099491887 0 -9.1541473717857367e-06 0.00026595953825388967 0 -1.8111980959287995e-05 0.00025684125881885931 0 -2.5608743439888594e-06 0.00025419427367299433 0 -5.5170973127149129e-05 -0.0001236549107016059 0 -5.0527096499576267e-05 -0.0001188512680416904 0 -5.8297151260498648e-05 -0.00011835481083832527 0 -1.0695792606312108e-05 0.00024360544964407117 0 -2.5608743439888594e-06 0.00025419427367299433 0 -1.8111980959287995e-05 0.00025684125881885931 0 -5.3970211549113811e-05 -0.00011306076001879664 0 -5.8297151260498648e-05 -0.00011835481083832527 0 -5.0527096499576267e-05 -0.0001188512680416904 0 -2.0096356948560613e-05 -2.396671817099429e-05 0 -2.1915474029472016e-05 -2.619572042190917e-05 0 -2.0046426905770338e-05 -2.6603683874777289e-05 0 -2.4480805709793564e-05 -2.3570744528536634e-05 0 -2.3260314911214541e-05 -2.0410916927663445e-05 0 -2.5230793305583893e-05 -2.2333766525042083e-05 0 -2.4440882071869389e-05 -2.0234264339948459e-05 0 -2.5230793305583893e-05 -2.2333766525042083e-05 0 -2.3260314911214541e-05 -2.0410916927663445e-05 0 -2.1715544472379405e-05 -2.8415651826257224e-05 0 -2.3363511953040558e-05 -2.8046703454797958e-05 0 -2.3224916009172556e-05 -3.0129651472383549e-05 0 -2.5151131053696998e-05 -2.8516373546360425e-05 0 -2.3224916009172556e-05 -3.0129651472383549e-05 0 -2.3363511953040558e-05 -2.8046703454797958e-05 0 -2.4391955727505444e-06 1.1801176988315237e-05 0 -4.4738192527547608e-06 8.7710728025129513e-06 0 -5.5115312728149681e-06 9.4753385432329183e-06 0 -1.0492962292182787e-05 7.1106060109578322e-06 0 -1.566092877671537e-05 9.929082714804235e-06 0 -1.4009645967396453e-05 5.8260714831664284e-06 0 -1.975892935697957e-05 8.5405730394114896e-06 0 -1.4009645967396453e-05 5.8260714831664284e-06 0 -1.566092877671537e-05 9.929082714804235e-06 0 -1.1237851410482972e-05 -2.4001781754489728e-06 0 -1.3064663729628786e-05 -4.0948741837816348e-06 0 -1.028375193161385e-05 -2.3754221356265826e-06 0 -5.9779758520554714e-05 7.2708495571303526e-05 0 -4.820236777534256e-05 6.0073142611916483e-05 0 -4.8632732077411249e-05 7.3996030970408327e-05 0 -3.6719434279738952e-05 6.2321972317618145e-05 0 -4.8632732077411249e-05 7.3996030970408327e-05 0 -4.820236777534256e-05 6.0073142611916483e-05 0 -4.6212161061266557e-06 7.0373565824478094e-06 0 -4.4738192527547608e-06 8.7710728025129513e-06 0 -2.9213553632773995e-06 8.7499718150102262e-06 0 -1.503276072491522e-05 -2.3713065687677785e-05 0 -1.6060214195576026e-05 -2.728488548265572e-05 0 -1.3660950635232352e-05 -2.5231302996372871e-05 0 -1.4510132710311715e-05 -2.8282570810545777e-05 0 -1.3660950635232352e-05 -2.5231302996372871e-05 0 -1.6060214195576026e-05 -2.728488548265572e-05 0 -2.3444531252265024e-06 7.4835927002300736e-06 0 -2.9213553632773995e-06 8.7499718150102262e-06 0 -2.0931794650061707e-06 1.0409849963219083e-05 0 -2.8428261296496111e-05 -3.0587136277615356e-05 0 -3.3390653733729866e-05 -2.973010721201887e-05 0 -3.3882499396787831e-05 -3.5719486412568726e-05 0 -3.8705867253103651e-05 -3.4971647026936167e-05 0 -3.3882499396787831e-05 -3.5719486412568726e-05 0 -3.3390653733729866e-05 -2.973010721201887e-05 0 -3.0390105450368375e-06 4.7586975938640548e-06 0 -4.2970421587761587e-06 5.1632243699613754e-06 0 -2.9683786244960193e-06 6.3291465675837168e-06 0 -2.3444531252265024e-06 7.4835927002300736e-06 0 -2.9683786244960193e-06 6.3291465675837168e-06 0 -2.9213553632773995e-06 8.7499718150102262e-06 0 -2.4440882071869389e-05 -2.0234264339948459e-05 0 -2.4746007665230545e-05 -1.9091715920560232e-05 0 -2.6222941755789702e-05 -2.2156272192271797e-05 0 -7.7492927931850421e-06 -1.6250944258074485e-06 0 -8.3981042856917425e-06 -2.5171886571745642e-06 0 -6.9363907883422956e-06 -1.1140206341261185e-06 0 -7.692275853419319e-06 -1.751472101885732e-06 0 -6.9363907883422956e-06 -1.1140206341261185e-06 0 -8.3981042856917425e-06 -2.5171886571745642e-06 0 -6.3589186848742776e-06 4.1084420287748282e-07 0 -6.3644385396715401e-06 -3.2849437828052106e-07 0 -7.5673407514993349e-06 -1.2014522970107869e-06 0 1.6970936403304186e-05 0.0001716352141499355 0 7.6076647070334864e-07 0.00018362605698328327 0 2.8137292607349841e-06 0.00016742247417815667 0 -6.3609896370035563e-05 -8.3169282728604162e-05 0 -5.6660337995103202e-05 -8.6973706849850403e-05 0 -5.6593041522849298e-05 -7.9359934134060438e-05 0 -1.5465554944875509e-05 -4.0525147255068303e-06 0 -1.4308127900678441e-05 -3.9900081341687993e-06 0 -1.2413559647114524e-05 -2.6986088331424862e-06 0 -7.3660201608452891e-10 1.9376907771926029e-10 0 -5.5863501390743317e-07 4.0577690775511518e-07 0 -4.670892883925059e-07 3.3038513459945391e-07 0 1.7337424335824278e-05 0.00010133571226992011 0 3.7243983695162634e-06 0.00010918646468692699 0 2.3079039802774884e-06 9.4230247267818956e-05 0 -2.1715544472379405e-05 -2.8415651826257224e-05 0 -2.0046426905770338e-05 -2.6603683874777289e-05 0 -2.1915474029472016e-05 -2.619572042190917e-05 0 -1.2390638232732709e-05 3.0915042452938772e-06 0 -1.4009645967396453e-05 5.8260714831664276e-06 0 -1.7529405397676906e-05 5.3184696699509325e-06 0 -1.975892935697957e-05 8.5405730394114896e-06 0 -1.7529405397676902e-05 5.3184696699509325e-06 0 -1.4009645967396453e-05 5.8260714831664284e-06 0 -2.6993099840102993e-05 -2.1372098603673449e-05 0 -2.6222941755789702e-05 -2.2156272192271797e-05 0 -2.4746007665230545e-05 -1.9091715920560232e-05 0 
</DataArray>
</PointData>
<CellData Scalars="region_id,cross_section_updated," Vectors="" Tensors="stress,">
<DataArray type="Float64" Name="region_id" format="ascii">
2 2 2 2 2 2 2 2 2 2 3 3 3 3 3 3 3 3 3 3 1 1 1 1 1 1 1 1 1 1 1 1 1 1 1 1 1 1 1 1 1 1 1 1 1 1 1 1 1 1 1 1 1 1 1 1 1 1 1 1 1 1 1 1 1 1 1 1 1 1 1 1 1 1 1 1 1 1 1 1 1 1 1 1 1 1 1 1 1 1 1 1 1 1 1 1 1 1 1 1 1 1 1 1 1 1 1 1 1 1 1 1 1 1 1 1 1 1 1 1 1 1 1 1 1 1 1 1 1 1 1 1 1 1 1 1 1 1 1 1 1 1 1 1 1 1 1 1 1 1 1 1 1 1 1 1 1 1 1 1 1 1 1 1 1 1 1 1 1 1 1 1 1 1 1 1 1 1 1 1 1 1 1 1 1 1 1 1 1 1 1 1 1 1 1 1 1 1 1 1 1 1 1 1 1 1 1 1 1 1 1 1 1 1 1 1 1 1 1 1 1 1 1 1 1 1 1 1 1 1 1 1 1 1 1 1 1 1 1 1 1 1 1 1 1 1 1 1 1 1 1 1 1 1 1 1 1 1 1 1 1 1 1 1 1 1 1 1 1 1 1 1 1 1 1 1 1 1 1 1 1 1 1 1 1 1 1 1 1 1 1 1 1 1 1 1 1 1 1 1 1 1 1 1 1 1 1 1 1 1 1 1 1 1 1 1 1 1 1 1 1 1 1 1 1 1 1 1 1 1 1 1 1 1 1 1 1 1 1 1 1 1 1 1 1 1 1 1 1 1 1 1 1 1 1 1 1 1 1 1 1 1 1 1 1 1 1 1 1 1 1 1 1 1 1 1 1 1 1 1 1 1 1 1 1 1 1 1 1 1 1 1 1 1 1 1 1 1 1 1 1 1 1 1 1 1 1 1 1 1 1 1 1 1 1 1 1 1 1 1 1 1 1 1 1 1 1 1 1 1 1 1 1 1 1 1 1 1 1 1 1 1 1 1 1 1 1 1 1 1 1 1 1 1 1 1 1 1 1 1 1 1 1 1 1 1 1 1 1 1 1 1 1 1 1 1 1 1 1 1 1 1 1 1 1 1 1 1 1 1 1 1 1 1 1 1 1 1 1 1 1 1 1 1 1 1 1 1 1 1 1 1 1 1 1 1 1 1 1 1 1 1 1 1 1 1 1 1 1 1 1 1 1 1 1 1 1 1 1 1 1 1 1 1 1 1 1 1 1 1 1 1 1 1 1 1 1 1 1 1 1 1 1 1 1 1 1 1 1 1 1 1 1 1 1 1 1 1 1 1 1 1 1 1 1 1 1 1 1 1 1 1 1 1 1 1 1 1 1 1 1 1 1 1 1 1 1 1 1 1 1 1 1 1 1 1 1 1 1 1 1 1 1 1 1 1 1 1 1 1 1 1 1 1 1 1 1 1 1 1 1 1 1 1 1 1 1 1 1 1 1 1 1 1 1 1 1 1 1 1 1 1 1 1 1 1 1 1 1 1 1 1 1 1 1 1 1 1 1 1 1 1 1 1 1 1 1 1 1 1 1 1 1 1 1 1 1 1 1 1 1 1 1 1 1 1 1 1 1 1 1 1 1 1 1 1 1 1 1 1 1 1 1 1 1 1 1 1 1 1 1 1 1 1 1 1 1 1 1 1 1 1 1 1 1 1 1 1 1 1 1 1 1 1 1 1 1 1 1 1 1 1 1 1 1 1 1 1 1 1 1 1 1 1 1 1 1 1 1 1 1 1 1 1 1 1 1 1 1 1 1 1 1 1 1 1 1 1 1 1 1 1 1 1 1 1 1 1 1 1 1 1 1 1 1 1 1 1 1 1 1 1 1 1 1 1 1 1 1 1 1 1 1 1 1 1 1 1 1 1 1 1 1 1 1 1 1 1 1 1 1 1 1 1 1 1 1 1 1 1 1 1 1 1 1 1 1 1 1 1 1 1 1 1 1 1 1 1 1 1 1 1 1 1 1 1 1 1 1 1 1 1 1 1 1 1 1 1 1 1 1 1 1 1 1 1 1 1 1 1 1 1 1 1 1 1 1 1 1 1 1 1 1 1 1 1 1 1 1 1 1 1 1 1 1 1 1 1 1 1 1 1 1 1 1 1 1 1 1 1 1 1 1 1 1 1 1 1 1 1 1 1 1 1 1 1 1 1 1 1 1 1 1 1 1 1 1 1 1 1 1 1 1 1 1 1 1 1 1 1 1 1 1 1 1 1 1 1 1 1 1 1 1 1 1 1 1 1 1 1 1 1 1 1 1 1 1 1 1 1 1 1 1 1 1 1 1 1 1 1 1 1 1 1 1 1 1 1 1 1 1 1 1 1 1 1 1 1 1 1 1 1 1 1 
</DataArray>
<DataArray type="Float64" Name="stress" NumberOfComponents="9" format="ascii">
-2.3771707503184958e-05 -4.1143224910231927e-05 0 -4.1143224910231927e-05 -7.923902501061648e-06 0 0 0 -7.923902501061648e-06 -2.8028053397965286e-05 -4.792339905149116e-05 0 -4.792339905149116e-05 -9.3426844659884241e-06 0 0 0 -9.3426844659884241e-06 -3.2848026775883358e-05 -5.5515610428981789e-05 0 -5.5515610428981789e-05 -1.094934225862779e-05 0 0 0 -1.094934225862779e-05 -3.0571809675467097e-05 -5.7954241420372498e-05 0 -5.7954241420372498e-05 -1.0190603225155681e-05 0 0 0 -1.0190603225155681e-05 -2.7505074249660282e-05 -5.8376075844669803e-05 0 -5.8376075844669803e-05 -9.1683580832201031e-06 0 0 0 -9.1683580832201031e-06 -2.6931950235222814e-05 -5.8437319310735672e-05 0 -5.8437319310735672e-05 -8.9773167450742531e-06 0 0 0 -8.9773167450742531e-06 -2.9594330785720458e-05 -5.4083892495629718e-05 0 -5.4083892495629718e-05 -9.864776928573477e-06 0 0 0 -9.864776928573477e-06 -3.1556111507571589e-05 -5.6918710625150344e-05 0 -5.6918710625150344e-05 -1.0518703835857187e-05 0 0 0 -1.0518703835857187e-05 -2.0067059954444535e-05 -4.1743438757666277e-05 0 -4.1743438757666277e-05 -6.6890199848148452e-06 0 0 0 -6.6890199848148452e-06 -6.8613311367461682e-05 -5.0981429388983102e-05 0 -5.0981429388983102e-05 -2.2871103789153885e-05 0 0 0 -2.2871103789153885e-05 8.3904695343400401e-05 8.6980923908955239e-05 0 8.6980923908955239e-05 2.7968231781133465e-05 0 0 0 2.7968231781133465e-05 -7.7811216053725262e-06 4.1799404958506016e-05 0 4.1799404958506016e-05 -2.5937072017908421e-06 0 0 0 -2.5937072017908421e-06 -1.3054778189390965e-05 8.3790640204594832e-05 0 8.3790640204594832e-05 -4.3515927297969862e-06 0 0 0 -4.3515927297969862e-06 -2.1194883071781268e-05 7.2163183147176332e-05 0 7.2163183147176332e-05 -7.0649610239270961e-06 0 0 0 -7.0649610239270961e-06 -2.8408521685869718e-05 8.1399113199953762e-05 0 8.1399113199953762e-05 -9.4695072286232325e-06 0 0 0 -9.4695072286232325e-06 -3.5843500736802759e-05 8.4890388993694795e-05 0 8.4890388993694795e-05 -1.1947833578934254e-05 0 0 0 -1.1947833578934254e-05 -4.0824194786745192e-05 7.055651911469442e-05 0 7.055651911469442e-05 -1.3608064928915066e-05 0 0 0 -1.3608064928915066e-05 -7.0450305173868412e-05 9.6834597963257212e-05 0 9.6834597963257212e-05 -2.3483435057956134e-05 0 0 0 -2.3483435057956134e-05 2.3564553071126477e-05 5.0765959930001514e-05 0 5.0765959930001514e-05 7.8548510237088258e-06 0 0 0 7.8548510237088258e-06 -0.00035906879777384453 9.522004553925371e-05 0 9.522004553925371e-05 -0.00011968959925794817 0 0 0 -0.00011968959925794817 -0.030846086656266196 -0.0092958478385384673 0 -0.0092958478385384673 0.017094187925291549 0 0 0 -0.0034379746827436636 -0.027349982888490477 -0.0095267834908482323 0 -0.0095267834908482323 0.030860507499032769 0 0 0 0.00087763115263556762 -0.04632357085512627 -0.007693855472297742 0 -0.007693855472297742 0.026524103413883948 0 0 0 -0.0049498668603106116 -0.046162119694497211 1.4908979229136254e-05 0 1.4908979229136254e-05 0.028125667060526046 0 0 0 -0.0045091131584927844 -0.10397469545121529 -0.0044500596530230863 0 -0.0044500596530230863 0.0017421904303036514 0 0 0 -0.025558126255227902 -0.073009592545807536 0.00095276621658105243 0 0.00095276621658105243 0.00027242665919115618 0 0 0 -0.018184291471654096 -0.10971003625373991 -0.0023763708161574568 0 -0.0023763708161574568 -0.00096691731845376452 0 0 0 -0.027669238393048412 -0.07547969748869672 0.00013802548943100327 0 0.00013802548943100327 -0.00059601609536287514 0 0 0 -0.019018928396014899 -0.092506367884546553 0.0030087082764560097 0 0.0030087082764560097 -0.0003827257521051286 0 0 0 -0.023222273409162948 -0.16074947574852333 -0.0081980682689606656 0 -0.0081980682689606656 -0.00052572902881084516 0 0 0 -0.040318801194333564 -0.0084426105145310546 0.0025483921677693093 0 0.0025483921677693093 -0.01183353034619041 0 0 0 -0.0050690352151803661 -0.0117504194294052 0.0030272765776338017 0 0.0030272765776338017 -0.0093523956564515107 0 0 0 -0.0052757037714641786 -0.033729748624929785 0.0037774736560449995 0 0.0037774736560449995 -0.0056206793684540103 0 0 0 -0.0098376069983459463 -0.032908310372881409 -0.0061620373460721549 0 -0.0061620373460721549 -0.010972875173131233 0 0 0 -0.010970296386503162 -0.03452823286966878 0.0047883941072722428 0 0.0047883941072722428 -0.011509655345204515 0 0 0 -0.011509472053718323 -0.045364808387030227 -0.012765753284076461 0 -0.012765753284076461 0.017467055881383045 0 0 0 -0.0069744381264117764 0.11322175421664871 0.083989267464885636 0 0.083989267464885636 0.16603532591682957 0 0 0 0.069814270033369541 -0.0019639757669005498 -0.010095910811102171 0 -0.010095910811102171 -0.010245696745132093 0 0 0 -0.0030524181280081608 0.00057337955394731743 0.0060474173034950063 0 0.0060474173034950063 -0.0022486938615937646 0 0 0 -0.00041882857691155628 -0.0013768421952495835 0.012693072448439768 0 0.012693072448439768 -0.0080993591093330153 0 0 0 -0.0023690503261457607 0.0004885499367979218 -0.0051195235990547563 0 -0.0051195235990547563 -0.0028881196342700477 0 0 0 -0.00059989242436797596 -0.008609874975194387 0.020403998213834651 0 0.020403998213834651 -0.0057642167638332076 0 0 0 -0.0035935229347570097 -0.008792433060142435 -0.020925401077363959 0 -0.020925401077363959 -0.0080102539064530465 0 0 0 -0.0042006717416489536 -0.030132800429213645 0.0056767256988454716 0 0.0056767256988454716 -0.0061402426541644446 0 0 0 -0.0090682607708445218 0.12327584576037232 -0.0049538738740952659 0 -0.0049538738740952659 0.10059888215484858 0 0 0 0.055968681978805224 -0.18458102385550368 0.010648840579523755 0 0.010648840579523755 0.0055979154234397921 0 0 0 -0.044745777108015972 -0.10027380069050511 -0.0039747411920672375 0 -0.0039747411920672375 0.0021883711870890332 0 0 0 -0.024521357375854008 -0.073302559880453338 -0.015894475865095299 0 -0.015894475865095299 0.012751539299026365 0 0 0 -0.015137755145356757 -0.084156815529270235 0.016482070916896935 0 0.016482070916896935 0.048713204189854253 0 0 0 -0.0088609028348539676 -0.091233058137323131 -0.017730614656332092 0 -0.017730614656332092 0.0071214723604567653 0 0 0 -0.021027896444216598 -0.035957423167481815 -0.014440973050356675 0 -0.014440973050356675 0.038675890404282674 0 0 0 0.00067961680920021472 -0.02247737515858439 -0.02757905501721658 0 -0.02757905501721658 -2.0646798381318554e-05 0 0 0 -0.005624505489241427 -0.025394052170334636 0.036931542161096509 0 0.036931542161096509 -0.0037491014111850074 0 0 0 -0.0072857883953800773 -0.023071102439299551 -0.0285312771045656 0 -0.0285312771045656 0.0036591706205555408 0 0 0 -0.0048529829546860581 -0.033236520592713203 0.038961556596962765 0 0.038961556596962765 -0.0047760368754792282 0 0 0 -0.0095031393670479414 -0.066738348216859339 -0.023495963572641596 0 -0.023495963572641596 0.0026637120104829604 0 0 0 -0.016018659051594112 -0.020118784223004765 -0.031474623163745066 0 -0.031474623163745066 0.049804086465259613 0 0 0 0.0074213255605637338 -0.097078917165533796 0.0078443420231877614 0 0.0078443420231877614 0.012081596627034619 0 0 0 -0.021249330134624822 0.21243078756514333 0.093977571146705047 0 0.093977571146705047 0.054584206318110784 0 0 0 0.066753748470813501 -0.0013457799556994832 0.0072764969304935923 0 0.0072764969304935923 -0.0022399144352991396 0 0 0 -0.00089642359774963487 -0.0030923015599184644 -0.00826256030326359 0 -0.00826256030326359 0.016639555440233877 0 0 0 0.0033868134700789088 -0.031203088452871255 -0.014809485900178871 0 -0.014809485900178871 0.061643591681251816 0 0 0 0.0076101258070951465 -0.0020592783859395558 -0.019501611250149598 0 -0.019501611250149598 0.045179421910963136 0 0 0 0.010780035881255756 -0.0067599053392222164 0.0037333190654171844 0 0.0037333190654171844 -0.0027425202930624337 0 0 0 -0.002375606408070885 -0.022339334898150588 -0.0047702856825161781 0 -0.0047702856825161781 -0.012979410574996783 0 0 0 -0.0088296863682868435 -0.025798815301701271 0.0065513186784950817 0 0.0065513186784950817 -0.0090408309350175544 0 0 0 -0.008709911559179705 -0.054955428789416831 0.049954673213363832 0 0.049954673213363832 0.050121029502565986 0 0 0 -0.0012085998217127789 -0.048852506090914738 0.04353203224430513 0 0.04353203224430513 0.035128696937106518 0 0 0 -0.0034309522884520272 0.099108037920723147 0.11444377262229799 0 0.11444377262229799 0.19114035342888397 0 0 0 0.072562097837401751 -0.010614073044948588 0.0077102221256335479 0 0.0077102221256335479 0.00051020433119572384 0 0 0 -0.0025259671784380461 -0.015397682360015499 -0.020748421670943151 0 -0.020748421670943151 0.038295915860029298 0 0 0 0.005724558375003394 -0.01969707754003186 -0.010518388081299998 0 -0.010518388081299998 -0.023075755020384392 0 0 0 -0.010693208140104077 -0.03366058375660471 -0.013880278217241028 0 -0.013880278217241028 0.047278301601451245 0 0 0 0.0034044294612116319 -0.027308066399778098 -0.019783618338349206 0 -0.019783618338349206 0.0047081296347408763 0 0 0 -0.0056499841912593107 -0.020595362779580295 -0.0053385244234029489 0 -0.0053385244234029489 0.0086580021250999839 0 0 0 -0.0029843401636200639 -0.094273656152348007 0.015135288365025423 0 0.015135288365025423 -0.00089480404218345022 0 0 0 -0.023792115048632878 -0.0080559153764573344 -0.0051972896744938435 0 -0.0051972896744938435 0.00027871779573862554 0 0 0 -0.001944299395179816 -0.009430414716572022 0.023248263911217038 0 0.023248263911217038 0.072532583289384611 0 0 0 0.01577554214320287 -0.015660727167384605 -0.018215070034141467 0 -0.018215070034141467 0.059278204145816756 0 0 0 0.010904369244608067 -0.00041601689413917065 0.001432972399071301 0 0.001432972399071301 -0.0008312781050774376 0 0 0 -0.0003118237498043186 -0.020836275755857836 0.0018423610715354866 0 0.0018423610715354866 -0.009793001142723412 0 0 0 -0.0076573192246453536 0.010011095738513328 -0.046800671196934374 0 -0.046800671196934374 0.076478546461602001 0 0 0 0.021622410550028819 -0.0178075654246167 1.66900388112734e-05 0 1.66900388112734e-05 -0.0061036526635267485 0 0 0 -0.00597780452203589 -0.023617018754505059 -0.007837257808166978 0 -0.007837257808166978 -0.00094684437450925918 0 0 0 -0.0061409657822535935 -0.033264704286984359 -0.027698597112409441 0 -0.027698597112409441 0.007773127929125323 0 0 0 -0.0063728940894647312 -0.068898906355069428 -0.0033317176833836475 0 -0.0033317176833836475 -0.011006029093338764 0 0 0 -0.019976233862102052 -0.096210624817127305 -7.7922556147641195e-05 0 -7.7922556147641195e-05 -0.014877974337525928 0 0 0 -0.027772149788663308 0.0020042756538275245 0.0036020068879729084 0 0.0036020068879729084 -0.014188297302891797 0 0 0 -0.0030460054122659849 0.0032012573173216263 -0.0049963238645116537 0 -0.0049963238645116537 0.0044071196469148699 0 0 0 0.0019020942410590824 -0.069122656895326998 -0.0080489551046252321 0 -0.0080489551046252321 -0.017245992776635435 0 0 0 -0.021592162417990602 -0.05392048724036981 0.0024056422724034092 0 0.0024056422724034092 -0.012482738249493159 0 0 0 -0.016600806372465738 -0.01531390059854037 -0.00015619959784736692 0 -0.00015619959784736692 -0.013097082496061641 0 0 0 -0.0071027457736505036 -0.073892712852106093 0.0030762707989729094 0 0.0030762707989729094 0.00017907177518570279 0 0 0 -0.018428410269230096 -0.10697990706568267 -0.0081229371472301432 0 -0.0081229371472301432 0.0012902850923992223 0 0 0 -0.026422405493320859 -0.024372033723624786 -0.015146412910898327 0 -0.015146412910898327 -0.0059748727380113942 0 0 0 -0.0075867266154090174 -0.025694425121256692 -0.018551979701875526 0 -0.018551979701875526 0.0049520588557504241 0 0 0 -0.00518559156637656 0.0051206631081498477 0.021292139500196816 0 0.021292139500196816 0.086796345180082723 0 0 0 0.022979252072058087 -0.0055671628720249805 -0.0028810722868235494 0 -0.0028810722868235494 -0.0020879969540856247 0 0 0 -0.0019137899565277033 -0.025151273334751562 -0.015653949245894354 0 -0.015653949245894354 -0.0066445793873862735 0 0 0 -0.0079489631805344241 -0.021469610222446631 -0.010110496434729027 0 -0.010110496434729027 -0.010374658799871234 0 0 0 -0.0079610672555794487 -0.050168430422694588 0.04757915212117847 0 0.04757915212117847 -0.0011676691838560238 0 0 0 -0.012834024901637653 -0.083324360426529465 -0.0020090338782205639 0 -0.0020090338782205639 -0.02778989623184043 0 0 0 -0.02777856416459247 -0.061511442559211857 -0.0015352597154725972 0 -0.0015352597154725972 -0.020514030724983982 0 0 0 -0.020506368321048959 -0.021633027071013184 -0.0049768330789864068 0 -0.0049768330789864068 -0.015349434414926304 0 0 0 -0.0092456153714848728 -0.010501054587969794 0.026757730429752158 0 0.026757730429752158 -0.0084997391784247256 0 0 0 -0.0047501984415989629 -0.008324398932904431 -0.015784569201969578 0 -0.015784569201969578 -0.0041742449608226373 0 0 0 -0.0031246609734317254 -0.024398704053590313 -0.02607999254388671 0 -0.02607999254388671 0.005222050616817242 0 0 0 -0.004794163359193325 -0.012871219629852828 0.0034615529765413327 0 0.0034615529765413327 -0.0099970038779301808 0 0 0 -0.0057170558769457508 -0.049264197068666055 -0.013848631848508618 0 -0.013848631848508618 -0.0070646024431090682 0 0 0 -0.01408219987794378 -0.026361255990745208 -0.010381135610477899 0 -0.010381135610477899 -0.0059945395454114037 0 0 0 -0.0080889488840391599 -0.010074720693905501 0.0048589620264290348 0 0.0048589620264290348 -0.0087145885831239889 0 0 0 -0.0046973273192573725 -0.014011875492034764 0.0051586584868930953 0 0.0051586584868930953 -0.0074814608508835916 0 0 0 -0.0053733340857295905 -0.015557569640483692 0.0042824901307965246 0 0.0042824901307965246 -0.0083657107635255589 0 0 0 -0.0059808201010023102 -0.022836775680412272 -0.0010152890824858818 0 -0.0010152890824858818 0.0052784709264119822 0 0 0 -0.0043895761885000689 -0.022224532457280698 -0.024662819415447984 0 -0.024662819415447984 0.020615867884894001 0 0 0 -0.00040216614309666193 -0.018475729556258591 -0.010637578364614542 0 -0.010637578364614542 -0.0099340852957336967 0 0 0 -0.0071024537129980025 -0.032441167764995463 -0.015881132050806115 0 -0.015881132050806115 0.061284733778550801 0 0 0 0.0072108915033888381 -0.012741781382977102 0.020126569175451303 0 0.020126569175451303 0.10767391748665656 0 0 0 0.023733034025919642 -0.00044445192274367162 -0.0010379371541647806 0 -0.0010379371541647806 -0.00059054641231348626 0 0 0 -0.00025874958376437274 -0.0070657120570144505 -0.0048740091184040395 0 -0.0048740091184040395 -0.0027995156430380419 0 0 0 -0.0024663069250131509 -0.0059933897934481006 0.014671786595963576 0 0.014671786595963576 0.10992070397551501 0 0 0 0.025981828545516672 -0.018203331320298298 0.018144592981966683 0 0.018144592981966683 0.083136428990303324 0 0 0 0.016233274417501255 -0.022140520593206328 0.0053103433399927314 0 0.0053103433399927314 -0.0054992504229000837 0 0 0 -0.0069099427540266021 -0.025826016027502008 0.0047790140192329016 0 0.0047790140192329016 -0.0064556020138418733 0 0 0 -0.0080704045103359764 0.009250978209548899 0.029223491210447372 0 0.029223491210447372 0.02552246722430862 0 0 0 0.0086933613584643243 -0.012485849984549047 0.033701279470594092 0 0.033701279470594092 0.01827959520852307 0 0 0 0.0014484363059934502 -0.028405265527438217 -0.024497423151099734 0 -0.024497423151099734 0.019949217725893642 0 0 0 -0.0021140119503861368 -0.00028034989332240134 -0.007460222524806881 0 -0.007460222524806881 -0.02573742516792743 0 0 0 -0.0065044437653124509 -0.00060969954749434674 0.0050923846604613056 0 0.0050923846604613056 -0.028356499015326997 0 0 0 -0.0072415496407053359 -0.031437313457383168 0.0093406720401475185 0 0.0093406720401475185 0.054135293090339431 0 0 0 0.0056744949082390729 -0.0095416635627134649 0.0069770066520639818 0 0.0069770066520639818 -0.0041950024876262759 0 0 0 -0.0034341665125852128 -0.012578912316177027 -0.015156413378712874 0 -0.015156413378712874 0.060124411980725601 0 0 0 0.01188637491613731 -0.084080572572124854 0.0026552076470694255 0 0.0026552076470694255 0.00064628205562469038 0 0 0 -0.020858572629125043 -0.13786196752401444 -0.0074083994342517001 0 -0.0074083994342517001 0.0010029874571801933 0 0 0 -0.03421474501670857 -0.011722841885984422 -0.023031667473613911 0 -0.023031667473613911 0.0056914732834414394 0 0 0 -0.0015078421506357353 0.085086873767483695 -0.044999437266615983 0 -0.044999437266615983 0.036363635951559892 0 0 0 0.030362627429760924 -0.019405329971027563 -0.014800547134979275 0 -0.014800547134979275 -0.0037883509056126363 0 0 0 -0.005798420219160022 -0.01992522429709203 -0.019521958533104997 0 -0.019521958533104997 0.00035425838329147807 0 0 0 -0.0048927414784501397 0.00043839827257416739 -0.0068778045293520496 0 -0.0068778045293520496 0.00030969325209066333 0 0 0 0.00018702288116631872 -0.0022327582180516892 0.0059064422448993348 0 0.0059064422448993348 4.7064562289200751e-05 0 0 0 -0.00054642341394028904 0.00072955259995843846 0.0083543216245329788 0 0.0083543216245329788 0.0073127247689779296 0 0 0 0.002010569342234092 -0.0018923033320782671 -0.004732192715893091 0 -0.004732192715893091 -0.0020165201317669844 0 0 0 -0.00097720586596120192 -0.048256450400380207 0.023579237422156174 0 0.023579237422156174 0.0660110717319774 0 0 0 0.004438655332899305 -0.02879805699856916 -0.013441878673267585 0 -0.013441878673267585 -0.00058926925286206799 0 0 0 -0.0073468315628578418 -0.02309708222190213 -0.012285656520981486 0 -0.012285656520981486 -0.0045992937396773861 0 0 0 -0.006924093990394873 -0.022021378749843012 -0.011815067294473458 0 -0.011815067294473458 -0.0068806561368139375 0 0 0 -0.0072255087216642581 -0.0084169982498587537 -0.026175312577800841 0 -0.026175312577800841 0.011235660236778466 0 0 0 0.00070466549672998369 -0.1328798216325871 0.01681263954231349 0 0.01681263954231349 0.0023088009538718701 0 0 0 -0.032642755169678794 -0.04944163792447092 0.0008488513512960455 0 0.0008488513512960455 0.015781371296983482 0 0 0 -0.0084150666568718613 -0.040294010161476074 -0.0054253129726886881 0 -0.0054253129726886881 0.014350095025793486 0 0 0 -0.0064859787839206123 -0.015846908940740118 0.0044765479424210275 0 0.0044765479424210275 -0.023648206230410418 0 0 0 -0.0098737787927876408 -0.099406313514548816 0.031594590113180443 0 0.031594590113180443 -0.00073663734030016137 0 0 0 -0.025035737713712203 -0.073746335238359564 0.0059639830424688955 0 0.0059639830424688955 0.0037265356527257931 0 0 0 -0.017504949896408425 -0.07499993586492161 -0.0010554710183841021 0 -0.0010554710183841021 0.0041034181244407608 0 0 0 -0.017724129435120264 -0.12546108607459189 -0.0017890470526132768 0 -0.0017890470526132768 0.0092660031831999778 0 0 0 -0.029048770722847977 -0.11976840592587781 -0.018124571973929818 0 -0.018124571973929818 0.010007564640807765 0 0 0 -0.027440210321267616 -0.025520610660750034 -0.0097820767971998346 0 -0.0097820767971998346 -0.0054083842643406349 0 0 0 -0.007732248731272675 -0.077800196199596938 -0.00721092495394271 0 -0.00721092495394271 0.001413441164121787 0 0 0 -0.019096688758868802 0.019998682986953398 0.056003187759556317 0 0.056003187759556317 0.01784624884457009 0 0 0 0.0094612329578809273 -0.037211698069968976 -0.011369692228347598 0 -0.011369692228347598 0.043532078331764319 0 0 0 0.0015800950654488478 -0.0099806658456381009 0.01398206541549982 0 0.01398206541549982 0.016139215955343615 0 0 0 0.0015396375274263777 -0.029526917003058872 0.027432998326352154 0 0.027432998326352154 -0.0061227227820555008 0 0 0 -0.0089124099462788431 -0.021446197857776406 -0.027893942000421057 0 -0.027893942000421057 0.0089358251841468173 0 0 0 -0.0031275931684073277 -0.021719303175333257 -0.023406806285135875 0 -0.023406806285135875 0.022194337425719506 0 0 0 0.00011875856259655469 -0.0053295337163036249 0.0049701786400260517 0 0.0049701786400260517 -0.021311661591240649 0 0 0 -0.0066602988268860686 -0.02347917450636966 -0.01267705260757318 0 -0.01267705260757318 -0.010255593395622875 0 0 0 -0.0084336919754981476 -0.030138072177376476 -0.0083351503047131223 0 -0.0083351503047131223 -0.015059708003564312 0 0 0 -0.011299445045235199 -0.031260022941300501 0.0069322110513482544 0 0.0069322110513482544 -0.0097618452633952205 0 0 0 -0.010255467051173932 -0.021523465868222808 -0.028153181725936505 0 -0.028153181725936505 0.013584998555868588 0 0 0 -0.0019846168280886096 -0.05105628048816914 -0.020721565129668287 0 -0.020721565129668287 -0.0047916449827410112 0 0 0 -0.013961981367727531 -0.068362419120060247 -0.0088393157005773413 0 -0.0088393157005773413 0.019704336163679059 0 0 0 -0.012164520739095352 -0.015345551411431667 -0.0014288962250032411 0 -0.0014288962250032411 -0.014218119245580413 0 0 0 -0.0073909176642530218 -0.013714258250662305 0.00065769517845493846 0 0.00065769517845493846 -0.010947518354006217 0 0 0 -0.0061654441511671291 -0.021162259420163185 0.0045643303925689289 0 0.0045643303925689289 -0.0078318238170518376 0 0 0 -0.0072485208093037556 -0.021434605928138173 0.0054659155445176168 0 0.0054659155445176168 -0.0083117564262795481 0 0 0 -0.007436590588604429 -0.057719374924475333 -0.016957280057965721 0 -0.016957280057965721 0.019596780186771995 0 0 0 -0.009530648684425852 -0.017649378966286652 0.011791264467339999 0 0.011791264467339999 0.014528983942242113 0 0 0 -0.0007800987560111286 -0.010720187032102263 -0.0022547812830656941 0 -0.0022547812830656941 -0.011945172471708444 0 0 0 -0.0056663398759526744 -0.031485047115608192 -0.018546025042054912 0 -0.018546025042054912 -0.0059043123385706942 0 0 0 -0.0093473398635447215 -0.020420304187728645 0.01425242047042918 0 0.01425242047042918 0.044232007069632609 0 0 0 0.0059529257204759909 -0.032135875732214873 0.0011586677355234687 0 0.0011586677355234687 0.0015075294549030203 0 0 0 -0.0076570865693279776 -0.030289213799500305 0.0022407122364063448 0 0.0022407122364063448 0.0052260380378073151 0 0 0 -0.0062657939404232449 -0.083312145213757224 -0.0020192295391663821 0 -0.0020192295391663821 -0.027750542923828711 0 0 0 -0.027765672034396484 -0.061503598426538041 -0.0015276259064551882 0 -0.0015276259064551882 -0.020488481625447811 0 0 0 -0.020498020012996464 0.078305132935157812 0.029324755994265095 0 0.029324755994265095 0.029715319914490668 0 0 0 0.027005113212411981 -0.022449031227157815 0.0042709645863456061 0 0.0042709645863456061 0.00022618930964765985 0 0 0 -0.0055557104793775396 -0.043674183287049903 -0.0085442007940085517 0 -0.0085442007940085517 0.049776564937738688 0 0 0 0.0015255954126722204 -0.011725956023815293 0.0010645786343191355 0 0.0010645786343191355 -0.033403429984342536 0 0 0 -0.011282346502039436 -0.078896952338590023 0.0037974381441410673 0 0.0037974381441410673 0.0010240119824704089 0 0 0 -0.019468235089029909 -0.12640356733799119 -0.0085994033804343492 0 -0.0085994033804343492 0.0011942081368310764 0 0 0 -0.031302339800290041 -0.024407537358502783 -0.010241867735422072 0 -0.010241867735422072 -0.014623481008610162 0 0 0 -0.009757754591778238 -0.070565437173760695 0.0074478664966072666 0 0.0074478664966072666 0.00046289924718882053 0 0 0 -0.01752563448164297 -0.089235068783309848 -0.025184821530412335 0 -0.025184821530412335 -0.0012442373373192928 0 0 0 -0.02261982653015733 -0.072681984009463491 0.0046958393465146887 0 0.0046958393465146887 -0.00027484370275394909 0 0 0 -0.018239206928054391 -0.042397241385875965 0.00430249414018977 0 0.00430249414018977 -0.0029622649078526104 0 0 0 -0.01133987657343216 -0.036089887866445652 -0.010806730947521877 0 -0.010806730947521877 -0.0091823650235071663 0 0 0 -0.011318063222488217 -0.062196462576039842 -0.020163026731441713 0 -0.020163026731441713 0.0074653047620424073 0 0 0 -0.013682789453499343 -0.029510467768287363 -0.0096783437141952922 0 -0.0096783437141952922 -0.0027372408599296572 0 0 0 -0.0080619271570542272 -0.016916418238969388 0.035516938780467799 0 0.035516938780467799 0.016382861337118193 0 0 0 -0.00013338922546268783 -0.022812735952934982 -0.01773406516329204 0 -0.01773406516329204 -0.0060375953761280243 0 0 0 -0.0072125828322656682 -0.017573489221403352 -0.0014868865484943478 0 -0.0014868865484943478 -0.010889332660908291 0 0 0 -0.0071157054705779091 -0.025292822866021917 0.0043200215504638068 0 0.0043200215504638068 -0.0084488812839800809 0 0 0 -0.008435426037500502 -0.0399466724068607 -0.010614789398083838 0 -0.010614789398083838 -0.016355469484984828 0 0 0 -0.014075535472961382 -0.03739629007801764 0.0067617577495931742 0 0.0067617577495931742 -0.010864043140056925 0 0 0 -0.01206508330451864 -0.040366495947645145 -0.0091423485529290444 0 -0.0091423485529290444 0.010102672636302851 0 0 0 -0.0075659558278355771 -0.041250017916724675 -0.01646510690044807 0 -0.01646510690044807 0.012654318141328669 0 0 0 -0.0071489249438490068 -0.043946119052917343 0.05091539874391135 0 0.05091539874391135 0.010593076783658173 0 0 0 -0.0083382605673146815 -0.0039068043386550899 0.067703944682240447 0 0.067703944682240447 0.035929263306613501 0 0 0 0.0080056147419895751 0.042229152354649344 0.00074214208249349933 0 0.00074214208249349933 0.040325065747371519 0 0 0 0.020638554525505212 -0.046398955789858601 -0.0054269002912791797 0 -0.0054269002912791797 0.040062607131043482 0 0 0 -0.0015840871647037937 -0.012210141861894383 0.0034718609528500387 0 0.0034718609528500387 -0.010033824615614223 0 0 0 -0.0055609916193771515 -0.028655549742121506 -0.014262767199479824 0 -0.014262767199479824 -0.004115573673134254 0 0 0 -0.0081927808538139746 -0.04597777901375566 0.041102760103403524 0 0.041102760103403524 -0.00024038485320021508 0 0 0 -0.011554540966738802 -0.015571093555638071 -0.0032322332063541015 0 -0.0032322332063541015 0.027330904289673663 0 0 0 0.0029399526835088841 -0.016434931089277863 -0.0085680229079207748 0 -0.0085680229079207748 -0.017612971767419439 0 0 0 -0.0085119757141743496 -0.028850563434826285 0.0041408020917359087 0 0.0041408020917359087 -0.0045976516384047955 0 0 0 -0.0083620537683077641 -0.065849901926587767 0.011323630324943851 0 0.011323630324943851 0.03819660167298311 0 0 0 -0.0069133250634011989 -0.078293239820010421 0.0014584769772991036 0 0.0014584769772991036 -0.0015528271059219931 0 0 0 -0.019961516731483105 -0.11921871232908055 -0.0037017291544467917 0 -0.0037017291544467917 -0.0031706392818983617 0 0 0 -0.030597337902744708 -0.0213750568723233 -0.013809750531147018 0 -0.013809750531147018 -0.0019541845576277195 0 0 0 -0.0058323103574877411 -0.046032959059764393 0.0035095591773382628 0 0.0035095591773382628 -0.0083089052748139408 0 0 0 -0.013585466083644585 -0.049997091347294915 -0.0076902784668726673 0 -0.0076902784668726673 -0.015232949622465738 0 0 0 -0.016307510242440169 -0.1532148732556759 0.0018878139825913576 0 0.0018878139825913576 0.0035312510632197203 0 0 0 -0.037420905548114058 -0.086580978102718975 -0.00071156541381633964 0 -0.00071156541381633964 0.0010075196286011556 0 0 0 -0.02139336461852942 0.0086058853445125094 0.020139025544399336 0 0.020139025544399336 0.092715867548241127 0 0 0 0.025330438223188423 0.0602663552936357 0.00012590359562972275 0 0.00012590359562972275 0.2324105918966769 0 0 0 0.073169236797578113 -0.025652350922583805 -0.029461199173175523 0 -0.029461199173175523 0.01686634617604027 0 0 0 -0.002196501186635863 -0.037400479618530408 -0.025498907066069887 0 -0.025498907066069887 0.012106796351821103 0 0 0 -0.0063234208166773609 -0.020350042919609304 -0.028343897801613317 0 -0.028343897801613317 0.040276677330533299 0 0 0 0.0049816586027310039 -0.0023313345308768607 0.0012190593608406575 0 0.0012190593608406575 -0.031479324857718038 0 0 0 -0.0084526648471487387 -0.015293892835698566 -0.00016757045540530531 0 -0.00016757045540530531 -0.013056115631213651 0 0 0 -0.0070875021167280559 -0.055919210332656302 -0.0037882849914990802 0 -0.0037882849914990802 0.0094534887952086866 0 0 0 -0.0116164303843619 0.0012833012814242317 -0.0025972794361047366 0 -0.0025972794361047366 -0.026804340849526209 0 0 0 -0.0063802598920255083 -0.13216992873648864 0.015873528238380119 0 0.015873528238380119 -0.0001060733019124932 0 0 0 -0.033069000509600308 -0.02561513977505725 0.027231831509813897 0 0.027231831509813897 -0.007441269428864139 0 0 0 -0.0082641023009804027 -0.018242024996473316 -0.027105936117182261 0 -0.027105936117182261 0.0053523178071648303 0 0 0 -0.0032224267973269827 -0.022263494151876295 0.0041911926542244158 0 0.0041911926542244158 0.012068735068061541 0 0 0 -0.0025486897709536974 -0.047512804942371006 -0.013498337442737443 0 -0.013498337442737443 0.011434294861466798 0 0 0 -0.009019627520226059 -0.010458655919213949 0.0083932468753621977 0 0.0083932468753621977 -0.001424178584454934 0 0 0 -0.0029707086259172198 -0.0070691205499486855 0.011686989731203773 0 0.011686989731203773 0.0051814869375000905 0 0 0 -0.00047190840311215135 -0.064643873050575118 -0.01843790168979563 0 -0.01843790168979563 -0.0028688796051849833 0 0 0 -0.016878188163940031 -0.034335533389979911 -0.025498101089422742 0 -0.025498101089422742 0.0032596168033811601 0 0 0 -0.0077689791466497016 -0.098993334826511625 -0.014694553474880051 0 -0.014694553474880051 -0.0059514070628308869 0 0 0 -0.026236185472335607 -0.026822685231280285 0.043686603887954423 0 0.043686603887954423 0.00079039355672394507 0 0 0 -0.0065080729186390851 -0.029109269553158373 0.043553488177644928 0 0.043553488177644928 5.8072990704122196e-05 0 0 0 -0.0072627991406136461 -0.030353902707078051 0.045032074326424087 0 0.045032074326424087 -0.0011245228028515797 0 0 0 -0.0078696063774825742 -0.027540047735953199 -0.027164548946700229 0 -0.027164548946700229 0.0029124772609421257 0 0 0 -0.0061568926187527406 -0.03266898179141365 -0.025270570491389033 0 -0.025270570491389033 0.0011093053367571132 0 0 0 -0.0078899191136641064 0.044844281213040973 0.031791232647241791 0 0.031791232647241791 0.049765679424740361 0 0 0 0.02365249015944533 -0.016616509806181536 -0.0015918865782794485 0 -0.0015918865782794485 -0.0055448741758250455 0 0 0 -0.005540345995501645 -0.022310254824222518 0.0048543037761967804 0 0.0048543037761967804 -0.0074384046437128799 0 0 0 -0.0074371648669838506 -0.020867740794838927 0.0053072885649052531 0 0.0053072885649052531 0.0018930153563203461 0 0 0 -0.0047436813596296477 -0.0038399721818940247 -0.012882960200288562 0 -0.012882960200288562 0.066380056692256939 0 0 0 0.015635021127590729 -0.077979280004636539 -0.022552927370696439 0 -0.022552927370696439 -0.0030623238512543227 0 0 0 -0.020260400963972715 -0.015613276154179768 0.0027982314612576128 0 0.0027982314612576128 -0.0087278194186381896 0 0 0 -0.0060852738932044882 -0.12006497326178071 -0.0055744539495533318 0 -0.0055744539495533318 -0.0034474454148892379 0 0 0 -0.030878104669167482 -0.077656076777820174 0.0021557659130131655 0 0.0021557659130131655 -0.001213871247352033 0 0 0 -0.019717487006293055 -0.077461220288092714 -0.0068442167978140789 0 -0.0068442167978140789 0.00054691539434092995 0 0 0 -0.019228576223437932 -0.017992094947046212 0.0049890402486632308 0 0.0049890402486632308 -0.0071727153913976015 0 0 0 -0.0062912025846109526 -0.022069648354916607 -0.0042455541089966853 0 -0.0042455541089966853 0.011702797244900837 0 0 0 -0.0025917127775039323 -0.026934269513824816 0.010029117450123734 0 0.010029117450123734 0.030220317698695355 0 0 0 0.00082151204621763382 -0.0039925446570117512 0.045359965044299955 0 0.045359965044299955 0.0061527405193811807 0 0 0 0.00054004896559241289 -0.010875049009166728 0.0032688168327513756 0 0.0032688168327513756 -0.01080714582751708 0 0 0 -0.0054205487091709536 -0.019868504065506221 0.025726064856335551 0 0.025726064856335551 -0.013864077623423121 0 0 0 -0.0084331454222323909 -0.016009419937055736 -0.025951265264138657 0 -0.025951265264138657 -0.0035520366915484658 0 0 0 -0.0048903641571511614 -0.017993058029368042 0.0051106499359389358 0 0.0051106499359389358 -0.007327643486468579 0 0 0 -0.0063301753789591552 -0.03759304928678097 0.0034507910108079205 0 0.0034507910108079205 0.039605943594755541 0 0 0 0.00050322357699365025 -0.0070726572757340289 0.021966055885065172 0 0.021966055885065172 0.00040406969123374381 0 0 0 -0.0016671468961251268 -0.0062385104103748201 0.01594566066519354 0 0.01594566066519354 -0.013983264389151095 0 0 0 -0.0050554436998817565 -0.0050995652348501119 -0.012124709836564607 0 -0.012124709836564607 -0.01132816206200582 0 0 0 -0.0041069318242139552 -0.0059910655873213203 -0.01801236023120123 0 -0.01801236023120123 -0.0027838954555317041 0 0 0 -0.0021937402607132839 -0.09057067520234155 -0.0023226879997267635 0 -0.0023226879997267635 0.020855333498529693 0 0 0 -0.017428835425952943 -0.058321540902523533 -0.014772964584479242 0 -0.014772964584479242 0.0066086906756380737 0 0 0 -0.012928212556721358 -0.067734956367973304 -0.015131449223623972 0 -0.015131449223623972 0.0069613424050089523 0 0 0 -0.015193403490741109 -0.10984768031044645 0.035358916096762699 0 0.035358916096762699 0.016221142441994907 0 0 0 -0.023406634467112886 -0.088916538982523941 0.034643744335958543 0 0.034643744335958543 0.015655346464505504 0 0 0 -0.018315298129504609 -0.026986787060475685 0.0039095051131892329 0 0.0039095051131892329 -0.0081535336173117045 0 0 0 -0.0087850801694468426 0.075299005921664275 0.027362856125349035 0 0.027362856125349035 0.02462320133879814 0 0 0 0.024980551815115604 -0.067678075701886123 -0.0083253240146381954 0 -0.0083253240146381954 -0.016200260664077315 0 0 0 -0.020969584091490863 -0.054354471976863709 0.0026978014129856293 0 0.0026978014129856293 -0.0099963066261927486 0 0 0 -0.016087694650764116 -0.041703258001651422 -0.01008313249946563 0 -0.01008313249946563 0.027618368438548556 0 0 0 -0.0035212223907757096 -0.039960295885801349 0.0054871941652422027 0 0.0054871941652422027 -0.0063996802767126784 0 0 0 -0.01158999404062851 -0.038891092933016604 -0.011231587059489141 0 -0.011231587059489141 -0.016428548518309223 0 0 0 -0.013829910362831457 -0.10093800323803533 -0.018784701524844231 0 -0.018784701524844231 0.0013340461120712188 0 0 0 -0.02490098928149103 -0.10173214048560744 -0.018915053971839783 0 -0.018915053971839783 -0.0010163618317129558 0 0 0 -0.025687125579330099 -0.012493753900324922 0.033032298549630745 0 0.033032298549630745 0.016683375487170693 0 0 0 0.0010474053967117758 -0.010342648302544166 -0.014036361387133267 0 -0.014036361387133267 -0.00057345388836305133 0 0 0 -0.0027290255477270264 -0.0023208556570569216 -0.0030220929279805575 0 -0.0030220929279805575 -0.01220192828685069 0 0 0 -0.0036306959859769305 -0.00080473713608403274 0.0031102494648986845 0 0.0031102494648986845 -0.022609188878102371 0 0 0 -0.005853481503546587 -0.039821937187124866 0.0030904793435305904 0 0.0030904793435305904 0.0013411059360417081 0 0 0 -0.0096202078127707868 -0.0017663371274445894 -0.0028830200163306174 0 -0.0028830200163306174 0.053437135001062508 0 0 0 0.012917699468404514 0.001089281140094378 -0.0030111182356565847 0 -0.0030111182356565847 0.093867657498041435 0 0 0 0.023739234659533925 -0.020760186937649718 -0.012812556181716256 0 -0.012812556181716256 -0.0071038076081244156 0 0 0 -0.0069659986364435621 -0.068258776824471123 -0.0058418369266038175 0 -0.0058418369266038175 0.0079586472023810417 0 0 0 -0.015075032405522493 -0.00030732222925911046 0.00075128248560960009 0 0.00075128248560960009 -0.030732053298975326 0 0 0 -0.0077598438820586646 -0.10053651446317075 -0.026060505013119503 0 -0.026060505013119503 0.0060052765196240143 0 0 0 -0.02363280948588671 -0.023296609962400266 0.0045786861062326331 0 0.0045786861062326331 0.0087588188618465609 0 0 0 -0.0036344477751384229 -0.042510188318272468 -0.021610775030764792 0 -0.021610775030764792 0.019594399558003128 0 0 0 -0.0057289471900672795 -0.039755731809199835 -0.018811698713642383 0 -0.018811698713642383 0.01755129345140527 0 0 0 -0.0055511095894487106 -0.041663232072356303 0.0061466077471883859 0 0.0061466077471883859 -0.00054911805214197251 0 0 0 -0.01055308753112456 -0.056860887655816594 -0.011363082350751758 0 -0.011363082350751758 0.01159937991608706 0 0 0 -0.011315376934932453 -0.046785724350698138 0.0039427650454409401 0 0.0039427650454409401 -0.00061658906242757425 0 0 0 -0.01185057835328142 -0.034637307583250995 -0.012427657234488864 0 -0.012427657234488864 -0.0137439149228623 0 0 0 -0.012095305626528321 -0.0714937918063695 -0.005728662438560822 0 -0.005728662438560822 0.0079760239320313953 0 0 0 -0.015879441968584457 -0.12174976797095194 0.010889392788803631 0 0.010889392788803631 0.02787246710633895 0 0 0 -0.023469325216153192 -0.068214399891705094 -0.0093830696427571261 0 -0.0093830696427571261 -0.015325698388418706 0 0 0 -0.020885024570030945 -0.053347986125834461 0.0035239513055921696 0 0.0035239513055921696 -0.011448979189165841 0 0 0 -0.016199241328750079 -0.049085622469299615 0.0067662695799183244 0 0.0067662695799183244 -0.0024463423435231069 0 0 0 -0.012882991203205673 -0.055616057550099102 -0.017791527521822524 0 -0.017791527521822524 -0.010806885647615193 0 0 0 -0.016605735799428572 -0.022595148257253082 -0.0040425667161449342 0 -0.0040425667161449342 -0.01546012969160955 0 0 0 -0.0095138194872156617 -0.0047726790141420922 -0.03038467781954618 0 -0.03038467781954618 0.037384085341588102 0 0 0 0.0081528515818614783 -0.0082065367335550591 0.0053777457650434329 0 0.0053777457650434329 -0.0094835996827796476 0 0 0 -0.0044225341040836762 -0.011926840590734011 0.02020345758733999 0 0.02020345758733999 -0.004553456586241289 0 0 0 -0.0041200742942437696 -0.013498072010819318 -0.02646627736393653 0 -0.02646627736393653 0.0070479519648607436 0 0 0 -0.0016125300114897545 -0.047491374219074275 0.0059558085590070507 0 0.0059558085590070507 -0.0044744282754458839 0 0 0 -0.012991450623630035 -0.050067787311278748 -0.014387788362093132 0 -0.014387788362093132 -0.014550486720458059 0 0 0 -0.016154568507934203 -0.012235463371127421 0.0064712048702354743 0 0.0064712048702354743 -0.0046855199046625037 0 0 0 -0.0042302458189474815 -0.02268805861007317 -0.023838234740248234 0 -0.023838234740248234 0.02645362069442081 0 0 0 0.00094139052108688226 -0.073343224925503714 0.013118420148696665 0 0.013118420148696665 -0.0011834809612651931 0 0 0 -0.018631676471692282 -0.0032403351536470226 -0.013579551926928168 0 -0.013579551926928168 0.032540155886192967 0 0 0 0.0073249551831365278 -0.037324568080760456 -0.0258486440870489 0 -0.0258486440870489 0.0035040516184723369 0 0 0 -0.0084551291155720021 -0.04195330788648434 -0.0075849899040273047 0 -0.0075849899040273047 0.043634796526840186 0 0 0 0.0004203721600889547 -0.10208232160924104 -0.011694921843972002 0 -0.011694921843972002 -0.0027572601737664015 0 0 0 -0.026209895445751866 -0.069667045337316144 0.0036176599692905268 0 0.0036176599692905268 -0.0012789561900171942 0 0 0 -0.017736500381833342 0.0014796703993080126 0.0067392857390619751 0 0.0067392857390619751 0.00021711844453813078 0 0 0 0.00042419721096152718 -0.015726633466527855 0.0048066542719076462 0 0.0048066542719076462 -0.0078289319108052653 0 0 0 -0.0058888913443332783 -0.0386885681772033 -0.016573086808222469 0 -0.016573086808222469 0.0080018412272164219 0 0 0 -0.0076716817374967022 -0.10418286300501282 -0.013885104586481477 0 -0.013885104586481477 -0.0012568605938153513 0 0 0 -0.026359930899707028 -0.071774333814517505 0.005345103902379621 0 0.005345103902379621 -0.00047177200624305693 0 0 0 -0.018061526455190144 -0.026732389528337362 0.006882896487159491 0 0.006882896487159491 0.04458421185507716 0 0 0 0.0044629555816849496 -0.023389055370316436 -0.024881959177762245 0 -0.024881959177762245 -0.00033168977532405108 0 0 0 -0.0059301862864102883 -0.025468232703202975 0.039559958973734211 0 0.039559958973734211 -0.0015598596055381719 0 0 0 -0.0067570230771849538 -0.064850035263845404 0.0030347676704726434 0 0.0030347676704726434 0.0067601662781345898 0 0 0 -0.014522467246427742 -0.054490610557942534 -0.0020747664522976494 0 -0.0020747664522976494 0.0082084432164917995 0 0 0 -0.011570541835362684 -0.020761030325023713 -0.0079855333368355139 0 -0.0079855333368355139 0.015836112000041327 0 0 0 -0.0012312295812455902 -0.024311639583718174 -0.0080904633540455281 0 -0.0080904633540455281 0.022073444468713451 0 0 0 -0.00055954877875118939 -0.032043918991469196 -0.0079930440574595227 0 -0.0079930440574595227 -0.016721906429973218 0 0 0 -0.012191456355360602 -0.030028939398468478 -0.0047861349557963648 0 -0.0047861349557963648 -0.014581568445631698 0 0 0 -0.01115262696102504 -0.035531323928092509 0.0037867297306190314 0 0.0037867297306190314 -0.0087691299386609932 0 0 0 -0.01107511346668838 -0.034799499233115969 0.0058791228177459427 0 0.0058791228177459427 -0.008389095609688018 0 0 0 -0.010797148710700994 -0.022775032272266432 -0.0052196956951771623 0 -0.0052196956951771623 -0.0059954672074200577 0 0 0 -0.0071926248699216433 -0.033907437983027838 0.0012709841703114023 0 0.0012709841703114023 0.04790511860240685 0 0 0 0.0034994201548447508 -0.0050564323544046146 0.0080258163625190754 0 0.0080258163625190754 -0.0013020953017551032 0 0 0 -0.0015896319140399299 -0.018566187589901251 0.041124725393288153 0 0.041124725393288153 0.0036139613260859349 0 0 0 -0.0037380565659537179 -0.033564336317083776 -0.024470742125383249 0 -0.024470742125383249 -0.0011578540679013649 0 0 0 -0.0086805475962462575 -0.012253138890840121 0.046878202940613845 0 0.046878202940613845 0.0030706735840366761 0 0 0 -0.0022956163267009444 -0.0015697866570432584 -0.0061858369863855324 0 -0.0061858369863855324 -0.0021768906018204866 0 0 0 -0.00093666931471594363 0.0035759669375397402 0.0013485015607989301 0 0.0013485015607989301 0.0066866858410437602 0 0 0 0.0025656631946458577 -0.046729045229312649 0.047330397447213568 0 0.047330397447213568 0.00023702443464257428 0 0 0 -0.011623005198667657 -0.029292173342687855 0.050482270263703777 0 0.050482270263703777 0.0027063458684413177 0 0 0 -0.0066464568685616898 -0.07580373835297502 -0.0076711629275404867 0 -0.0076711629275404867 -0.0094604397967743073 0 0 0 -0.021316044537437327 -0.058629278155345646 0.0020065284911750148 0 0.0020065284911750148 -0.0067529992234070567 0 0 0 -0.016345569344688171 -0.020540925143093303 -0.024671301334725435 0 -0.024671301334725435 0.013209884466007682 0 0 0 -0.001832760169271419 0.0026423128107805893 -0.0021495192421239341 0 -0.0021495192421239341 0.051977775624785116 0 0 0 0.013655022108891468 0.00067463494528433032 -0.001588598445274314 0 -0.001588598445274314 0.096665303689932092 0 0 0 0.024334984658804071 -0.033805429001710387 0.003121243840270408 0 0.003121243840270408 0.029087951883028425 0 0 0 -0.0011793692796704947 -0.0012050430007771069 0.011829541546885373 0 0.011829541546885373 0.0027787170834755598 0 0 0 0.00039341852067461061 -0.0081658213295340565 -0.0023165593513891081 0 -0.0023165593513891081 -0.025038270841966526 0 0 0 -0.0083010230428751108 -0.017091570018210239 -0.0031730445303514154 0 -0.0031730445303514154 -0.028011240863747289 0 0 0 -0.011275702720489333 -0.025253947472669513 -0.010501269986717347 0 -0.010501269986717347 -0.0081224510822136553 0 0 0 -0.0083440996387207922 -0.020494721005207911 0.01545497963913034 0 0.01545497963913034 -0.0072306871371704551 0 0 0 -0.0069313520355948344 -0.014058304043060882 -0.02668471210880452 0 -0.02668471210880452 0.012155376246215682 0 0 0 -0.00047573194921127215 -0.003663580113182241 0.0081729841468489994 0 0.0081729841468489994 -0.0030495780503113634 0 0 0 -0.0016782895408733733 -0.0049226063458673863 -0.012150942771886192 0 -0.012150942771886192 0.015872817030521014 0 0 0 0.0027375526711634346 -0.01724935814382822 0.033686098922853791 0 0.033686098922853791 -0.001027614503196439 0 0 0 -0.0045692431617558871 -0.01599186850233747 -0.019182988855976024 0 -0.019182988855976024 -0.009550975934181638 0 0 0 -0.006385711109129999 -0.013404897240553652 0.0047403073310841905 0 0.0047403073310841905 -0.0082430320218249108 0 0 0 -0.0054119823155946434 -0.010063781053024978 0.0068969311725882443 0 0.0068969311725882443 -0.0052693323837024256 0 0 0 -0.0038332783591818534 -0.018949278931291502 0.037127173408214365 0 0.037127173408214365 0.0091346204095339445 0 0 0 -0.0024536646304393894 -0.019276761408943299 -0.019842766667063638 0 -0.019842766667063638 -6.0725701944708277e-05 0 0 0 -0.0048343717777219464 -0.057266792662194324 -0.010152806239488339 0 -0.010152806239488339 -0.015340674190538434 0 0 0 -0.018151866713183185 -0.048323816132988071 0.0044879341604298854 0 0.0044879341604298854 -0.010147521021386224 0 0 0 -0.014617834288593571 0.0048134834837629814 0.050151072694983256 0 0.050151072694983256 0.015127015636585472 0 0 0 0.004985124780087169 -0.089438982360135311 -0.0049699935833968853 0 -0.0049699935833968853 -0.015104192800622664 0 0 0 -0.026135793790189488 -0.06566910993761918 -6.4283147413954139e-05 0 -6.4283147413954139e-05 -0.010277901620382505 0 0 0 -0.01898675288950042 -0.030613499474579697 0.012760210135050354 0 0.012760210135050354 -0.0057855598728431268 0 0 0 -0.0090997648368558171 -0.0091580335301386651 -0.017357838129230752 0 -0.017357838129230752 0.040612334175107012 0 0 0 0.0078635751612421423 -0.032251156444662997 -0.010141741910145968 0 -0.010141741910145968 0.056978750047742568 0 0 0 0.0061818984007698599 -0.057075414276702485 -0.0057610438624927929 0 -0.0057610438624927929 0.054387679394273802 0 0 0 -0.00067193372060717071 -0.038867414759018115 -0.023937554598718054 0 -0.023937554598718054 0.007309765573490612 0 0 0 -0.007889412296381848 -0.016983855423136955 -0.017232366917383932 0 -0.017232366917383932 0.00071364515550209617 0 0 0 -0.0040675525669087165 -0.043878111261682784 0.053102659780031869 0 0.053102659780031869 0.01311048666584691 0 0 0 -0.0076919061489589269 -0.085455009789655922 0.03115630181145923 0 0.03115630181145923 0.017827452405327238 0 0 0 -0.016906889346082199 -0.05679331568393442 -0.013475597274095752 0 -0.013475597274095752 0.0076032694574164061 0 0 0 -0.012297511556629503 0.0014500601654725553 -0.035563477663752355 0 -0.035563477663752355 0.02682392917309695 0 0 0 0.007068497334642404 -0.013948954386951859 0.002727307591364081 0 0.002727307591364081 0.022826181891558384 0 0 0 0.0022193068761515861 -0.017228998448452409 -0.008982341376217895 0 -0.008982341376217895 0.04298717046036582 0 0 0 0.0064395430029783041 -0.037964064484793801 -0.012666934813581547 0 -0.012666934813581547 0.031088749634485061 0 0 0 -0.0017188287125771765 -0.036133356057058655 -0.0098808361531489974 0 -0.0098808361531489974 0.029069607059941771 0 0 0 -0.0017659372492792175 -0.017726767913917318 0.017911608596469775 0 0.017911608596469775 0.066693080562854237 0 0 0 0.012241578162234215 -0.0073287437803706695 -0.018153988935835558 0 -0.018153988935835558 0.036210286421775706 0 0 0 0.0072203856603512417 -0.012198150420865694 0.031646710140809109 0 0.031646710140809109 0.028313944202234431 0 0 0 0.0040289484453417401 -0.015160984898213825 -0.011474522836731005 0 -0.011474522836731005 -0.0057846802312413459 0 0 0 -0.0052364162823638205 -0.02999448355856392 0.011230363960307087 0 0.011230363960307087 0.039685029070670702 0 0 0 0.0024226363780266921 -0.028193953665262058 -0.0062210793911494922 0 -0.0062210793911494922 0.005981184818316311 0 0 0 -0.0055531922117364428 -0.019029327009914526 -0.0058898776057218494 0 -0.0058898776057218494 -0.022357861171964921 0 0 0 -0.010346797045469897 -0.016350072371571836 0.016096800615590337 0 0.016096800615590337 0.025686751204918142 0 0 0 0.002334169708336567 -0.016933263841257169 -0.0019816134673780539 0 -0.0019816134673780539 -0.015649808926397946 0 0 0 -0.0081457681919137794 -0.079950593060981401 -0.0069433204758611831 0 -0.0069433204758611831 0.0011916265838611828 0 0 0 -0.019689741619280055 -0.034081430795729943 -0.0076475720166349686 0 -0.0076475720166349686 -0.015306593771870519 0 0 0 -0.012347006141900114 -0.0064313541775315253 0.0086824131269594169 0 0.0086824131269594169 -0.0023187496052255244 0 0 0 -0.0021875259456892631 -0.028028109726679143 0.0091378072022615057 0 0.0091378072022615057 0.057485407291805041 0 0 0 0.0073643243912814745 -0.13627469491859201 0.014902855457451649 0 0.014902855457451649 0.0016712313042055449 0 0 0 -0.033650865903596561 -0.016623217376387351 0.0044725008210899407 0 0.0044725008210899407 -0.0086018688231028675 0 0 0 -0.0063062715498725525 -0.0075895740002645262 0.00064585446744686373 0 0.00064585446744686373 -0.0068150690747019044 0 0 0 -0.0036011607687416111 -0.032116129269951089 -0.014509194352290367 0 -0.014509194352290367 0.0028971565388570264 0 0 0 -0.0073047431827735002 -0.041773343454656275 -0.019449890764610456 0 -0.019449890764610456 0.00028386720230200169 0 0 0 -0.010372369063088638 -0.022302174747615592 -0.0084848993796937406 0 -0.0084848993796937406 -0.01446574490892507 0 0 0 -0.0091919799141351628 -0.012912237654319016 0.0035120751216223931 0 0.0035120751216223931 -0.0094079512574666586 0 0 0 -0.0055800472279464199 -0.010686033664221155 -0.0034695518369605161 0 -0.0034695518369605161 -0.004614824786266028 0 0 0 -0.003825214612621787 -0.033205143026171793 -0.016275617538572748 0 -0.016275617538572748 0.00964469668628265 0 0 0 -0.0058901115849722824 -0.015543147473094626 0.0014377767933788366 0 0.0014377767933788366 0.0093502369352583825 0 0 0 -0.0015482276344590262 -0.068886085033220329 -0.026049190741581567 0 -0.026049190741581567 -0.0047075461643369676 0 0 0 -0.018398407799389324 0.0008165926780477617 0.017643419180807918 0 0.017643419180807918 0.07711221286281944 0 0 0 0.019482201385216585 -0.021304243233820019 -0.0081512370962213421 0 -0.0081512370962213421 -0.0034128358523524693 0 0 0 -0.0061792697715433165 -0.010708363617744091 0.0053743023988218801 0 0.0053743023988218801 -0.0077033972783052684 0 0 0 -0.0046029402240123363 -0.008114608368669847 0.0060549866450482197 0 0.0060549866450482197 -0.0077563364212473208 0 0 0 -0.003967736197479292 -0.02244785369536606 0.016928826084159021 0 0.016928826084159021 0.0015860428776584001 0 0 0 -0.005215452704427026 -0.019218699970820263 -0.023509594772697429 0 -0.023509594772697429 0.022514713119479168 0 0 0 0.00082400328716480953 -0.010279021374841334 0.010631022767799703 0 0.010631022767799703 0.0062349946411108456 0 0 0 -0.0010110066834326213 -0.016109447994016035 0.0091872561004622648 0 0.0091872561004622648 0.0053909776650382588 0 0 0 -0.0026796175822444441 -0.011140017314185504 0.0060423871555761541 0 0.0060423871555761541 -0.00637589854492248 0 0 0 -0.0043789789647769948 -0.060350808039557308 0.0054361064371444955 0 0.0054361064371444955 -0.0011179098748454776 0 0 0 -0.015367179478600699 -0.033424501231912596 -0.0010495023556273166 0 -0.0010495023556273166 0.011834691845506951 0 0 0 -0.0053974523466014113 -0.02062820045398979 -0.0041925876375221091 0 -0.0041925876375221091 0.014112721479196649 0 0 0 -0.0016288697436982885 -0.066581944723695108 0.0059524358772167774 0 0.0059524358772167774 -0.0025823902199927726 0 0 0 -0.017291083735921958 0.040568004788964981 0.069099622300632602 0 0.069099622300632602 0.047285457053443614 0 0 0 0.021963365460602166 -0.018189397815461472 0.030826402430133237 0 0.030826402430133237 -0.0036896066992859744 0 0 0 -0.0054697511286869727 -0.016749288611290103 -0.025794420741127692 0 -0.025794420741127692 -0.0031530248777786873 0 0 0 -0.0049755783722671421 -0.024807638965188575 0.0030358753048294611 0 0.0030358753048294611 0.0063858619949088919 0 0 0 -0.004605444242569921 -0.014892339442117739 0.0036503721617607032 0 0.0036503721617607032 -0.0076299909822035925 0 0 0 -0.0056305826060803329 0.011002900792025816 -0.0023043909439789227 0 -0.0023043909439789227 0.01365067041586665 0 0 0 0.0061633928019731166 -0.024880284796014451 -0.010113407321518414 0 -0.010113407321518414 -0.005522257486712534 0 0 0 -0.0076006355706817463 -0.026444099117032133 -0.012788293911695003 0 -0.012788293911695003 -0.0097996134563507753 0 0 0 -0.0090609281433457062 -0.016195831800707348 0.0064104211886773597 0 0.0064104211886773597 -0.00093045960141398959 0 0 0 -0.0042815728505303362 -0.063021515539753964 -0.014073939676724517 0 -0.014073939676724517 0.00068887606657619394 0 0 0 -0.015583159868294394 -0.052338118895346231 -0.018949170203876542 0 -0.018949170203876542 0.0042858786324678766 0 0 0 -0.012013060065719505 -0.0142164076440278 0.0017266962432005951 0 0.0017266962432005951 -0.0047430875631140172 0 0 0 -0.0047398738017854544 -0.076178643235581545 0.040395585708042581 0 0.040395585708042581 0.0064869298160594724 0 0 0 -0.017422928354880574 -0.099551197212568554 0.030610168164151352 0 0.030610168164151352 -0.00032621869325977215 0 0 0 -0.024969353976457054 -0.0091202079411699111 0.0076610924833098032 0 0.0076610924833098032 0.013746636809729318 0 0 0 0.0011566072171398378 -0.010652965155049265 -0.013564198726122828 0 -0.013564198726122828 0.027619275362079643 0 0 0 0.004241577551757636 -0.00033481931821088134 -0.015330466050292146 0 -0.015330466050292146 0.0046839751826354414 0 0 0 0.0010872889661061522 -0.021365388608947405 -0.00010317254194974756 0 -0.00010317254194974756 -0.018704738343706839 0 0 0 -0.010017531738163638 0.020929829641075648 0.034827422175265993 0 0.034827422175265993 0.079864320112863429 0 0 0 0.025198537438484742 -0.017472488126439277 -0.0056613977280540375 0 -0.0056613977280540375 -0.011727235318778666 0 0 0 -0.0072999308613044874 -0.028657941292127911 -0.011682027494968161 0 -0.011682027494968161 0.024385069496203948 0 0 0 -0.0010682179489810012 0.036169774072847438 0.025648942169199551 0 0.025648942169199551 0.015210188613756559 0 0 0 0.012844990671651069 -0.024699368634487243 0.0024300812619351114 0 0.0024300812619351114 0.0052938890726230044 0 0 0 -0.0048513698904660615 -0.017674760892980368 0.034609289690564315 0 0.034609289690564315 -0.0036233728880308291 0 0 0 -0.0053245334452529658 -0.015706083479346544 -0.021842504840491106 0 -0.021842504840491106 -0.0015574102817159652 0 0 0 -0.0043158734402657384 -0.023915651496326431 0.0035100063170077343 0 0.0035100063170077343 -0.0030872769982267755 0 0 0 -0.0067507321236383016 -0.045906633704958073 -0.011867421763801164 0 -0.011867421763801164 0.044297922198289069 0 0 0 -0.00040217787666725624 -0.016420623949505608 0.028312504865240617 0 0.028312504865240617 0.038494129767878249 0 0 0 0.0055183764545928549 -0.015900996078266783 -0.01102640152905654 0 -0.01102640152905654 0.0011481015271790351 0 0 0 -0.0036882236377719924 -0.10069944903861744 0.0020870155295525635 0 0.0020870155295525635 0.0010013153044042822 0 0 0 -0.024924533433553261 -0.17970485818176266 -0.0067045731551149792 0 -0.0067045731551149792 0.0014567594844961396 0 0 0 -0.044562024674316601 -0.017316271885480572 0.013535472087504441 0 0.013535472087504441 0.076126036109232409 0 0 0 0.014702441055937987 -0.049622228479192794 0.0076159900677592422 0 0.0076159900677592422 -0.00026832321816384896 0 0 0 -0.012472637924339149 0.01433668414423942 -0.00084873292851617155 0 -0.00084873292851617155 0.036163611231821588 0 0 0 0.012625073844015266 0.0092723948907995069 0.0030836438810437072 0 0.0030836438810437072 0.056999494946708085 0 0 0 0.016567972459376912 0.0095368754593190275 -0.0053555105500111 0 -0.0053555105500111 0.10793350139016855 0 0 0 0.029367594212372006 0.020036320841503308 -0.0015241947344996065 0 -0.0015241947344996065 0.081986591164449618 0 0 0 0.025505728001488259 -0.014454670153085755 0.0083982484106985 0 0.0083982484106985 -0.010976149454308776 0 0 0 -0.0063577049018486292 -0.015148963847208541 -0.015123827590855038 0 -0.015123827590855038 -0.0030227987143554014 0 0 0 -0.0045429406403910133 -0.0085717347634915869 0.0025744317856681853 0 0.0025744317856681853 0.07887480985316736 0 0 0 0.017575768772418968 -0.011322307629313827 -0.0081718020832034499 0 -0.0081718020832034499 0.038369017205657663 0 0 0 0.0067616773940859798 -0.048917500531191267 0.0043005898564112272 0 0.0043005898564112272 0.035879671788353593 0 0 0 -0.0032594571857094169 -0.0040651722773406007 0.025266591938203353 0 0.025266591938203353 0.014987593312483227 0 0 0 0.0027306052587858787 -0.0067986972727811512 0.0086082393858492035 0 0.0086082393858492035 -0.0050788017519369788 0 0 0 -0.0029693747561791994 -0.0052854550838190573 -0.0067936062879764281 0 -0.0067936062879764281 -0.0041376402294988068 0 0 0 -0.0023557738283295215 -0.0057774932044101224 -0.021078080146153561 0 -0.021078080146153561 0.0023888986309836824 0 0 0 -0.00084714864335677653 -0.018347557633173618 0.0057455952923071759 0 0.0057455952923071759 -0.0014972600505560492 0 0 0 -0.0049612044209324177 -0.014105098216109085 0.025764306588296204 0 0.025764306588296204 0.028622326933086639 0 0 0 0.0036293071792445619 -0.0036730466089614708 -0.006063744555194539 0 -0.006063744555194539 -0.0028546109130956066 0 0 0 -0.0016319143805142086 -0.035308506764608144 -0.0028353804837251504 0 -0.0028353804837251504 0.057417403921194071 0 0 0 0.0055272242891464766 -0.0047157043855143854 0.0078768214413322823 0 0.0078768214413322823 -0.0042361228611378365 0 0 0 -0.0022379568116632775 -0.012742687556997145 -0.022197550924293541 0 -0.022197550924293541 0.013831976096107645 0 0 0 0.0002723221347775695 -0.0048489473961413065 -0.020316582539920913 0 -0.020316582539920913 0.015977749944129815 0 0 0 0.0027822006369971064 -0.034005701566983106 -0.017241762932274196 0 -0.017241762932274196 0.006022732822794391 0 0 0 -0.0069957421860471838 -0.033212084424861829 -0.016119433149048734 0 -0.016119433149048734 0.0077423614555762188 0 0 0 -0.0063674307423214199 -0.017741328452657537 -0.0085656290540642617 0 -0.0085656290540642617 -0.0082438572764407247 0 0 0 -0.0064962964322745724 -0.017694416782669448 0.059506822029102402 0 0.059506822029102402 0.013171878665165782 0 0 0 -0.0011306345293758679 -0.062280079466544486 -0.0067587686083285248 0 -0.0067587686083285248 -0.00020412359542892888 0 0 0 -0.015621050765493277 0.017212112498883686 -0.015791154147899625 0 -0.015791154147899625 0.026932920754372966 0 0 0 0.01103625831331416 -0.011718476958638896 -0.008683429103425705 0 -0.008683429103425705 0.016622247149566394 0 0 0 0.0012259425477318675 -0.0028226661157590843 0.016963830872076903 0 0.016963830872076903 0.013951984658754191 0 0 0 0.0027823296357487731 -0.021985571516511315 -0.0089573319294144749 0 -0.0089573319294144749 -0.013342489113708722 0 0 0 -0.008832015157555051 -0.023758506163729876 -0.010168476040295291 0 -0.010168476040295291 -0.017500982146319122 0 0 0 -0.010314872077512249 -0.20573580699832456 0.0034000951903820371 0 0.0034000951903820371 0.0055379124069592223 0 0 0 -0.050049473647841403 -0.10895649772503405 -0.0015081078568511678 0 -0.0015081078568511678 0.0023925537901151595 0 0 0 -0.026640985983729742 -0.022539067247480116 -0.0040725373910591202 0 -0.0040725373910591202 -0.0075146964626024142 0 0 0 -0.007513440927520632 -0.028017963173760201 0.0050527349803470957 0 0.0050527349803470957 -0.0093390667001429558 0 0 0 -0.0093392574684757878 0.0032258862978211747 0.0053601220283236994 0 0.0053601220283236994 0.0031781350349121551 0 0 0 0.0016010053331833238 -0.010345328142671936 0.015032728211066666 0 0.015032728211066666 0.016112475095347627 0 0 0 0.001441786738168924 -0.0057616210053372321 0.010178314730686651 0 0.010178314730686651 0.002435797271039878 0 0 0 -0.00083145593357434808 -0.091030095058545007 -0.012656169386158902 0 -0.012656169386158902 -0.0087040144358440305 0 0 0 -0.024933527373597289 -0.066381415819473988 0.0040072162155096493 0 0.0040072162155096493 -0.0042238412154631914 0 0 0 -0.017651314258734306 0.041090806537380065 0.028193294742652586 0 0.028193294742652586 0.019147751355981235 0 0 0 0.015059639473340436 -0.074911589151288899 -0.011863299382042281 0 -0.011863299382042281 -0.0050545877487549956 0 0 0 -0.019991544225010972 -0.0585326101611666 0.0039548334011554123 0 0.0039548334011554123 -0.0026810811160960513 0 0 0 -0.01530342281931567 -0.02751877370599265 -0.0028767807535136011 0 -0.0028767807535136011 -0.0076841702201213558 0 0 0 -0.0088007359815284736 0.034169597322889045 0.077536893903250304 0 0.077536893903250304 0.047915835334255696 0 0 0 0.020521358164286185 0.00023306562394401903 0.0079956490662816126 0 0.0079956490662816126 -0.0028216948415440146 0 0 0 -0.00064715730440000063 -0.023082976149237849 -0.0071828146175413887 0 -0.0071828146175413887 0.0071991072134075518 0 0 0 -0.0039709672339575952 -0.044841017727257446 -0.0073337792417767257 0 -0.0073337792417767257 -0.014943923237436374 0 0 0 -0.014946235241173451 -0.041544428043536259 0.0041728081416256757 0 0.0041728081416256757 -0.013844999193830811 0 0 0 -0.013847356809341765 -0.089216144874288916 0.0033355802686194122 0 0.0033355802686194122 -0.00050733910660404058 0 0 0 -0.022430870995223239 -0.14624177736119498 -0.0084859663677527564 0 -0.0084859663677527564 -0.0010214154796215347 0 0 0 -0.036815798210204115 -0.052487016117854182 -0.0069988193686811306 0 -0.0069988193686811306 0.019160507217236888 0 0 0 -0.0083316272251543894 0.012057704757370363 -0.013074135213690774 0 -0.013074135213690774 0.020582292158566218 0 0 0 0.0081599992289841106 -0.042008227011955515 -0.0081271483255857188 0 -0.0081271483255857188 0.042201216380208163 0 0 0 4.8247342063155105e-05 -0.01629869131610065 0.012237039427392103 0 0.012237039427392103 0.024369953749746823 0 0 0 0.0020178156084115339 -0.025234874513698609 0.0079516532652346133 0 0.0079516532652346133 0.027769822213413606 0 0 0 0.00063373692492873276 0.0087928352068161759 0.016464599132037031 0 0.016464599132037031 0.022421458362638317 0 0 0 0.0078035733923636236 0.018912500448933611 0.01292442163952575 0 0.01292442163952575 0.012127141788850271 0 0 0 0.0077599105594459757 -0.015972616202682421 -0.011379113747661429 0 -0.011379113747661429 -0.024286487618757957 0 0 0 -0.010064775955360122 -0.043755146177564964 -0.013463877382801442 0 -0.013463877382801442 0.020298944581207429 0 0 0 -0.0058640503990894186 -0.047700776482326714 -0.023561252141651785 0 -0.023561252141651785 0.048707088362279216 0 0 0 0.00025157796998811349 -0.0092794858106974056 -0.040289648006620854 0 -0.040289648006620854 0.078925015050924099 0 0 0 0.017411382310056674 -0.083588711995130516 0.003068898888932102 0 0.003068898888932102 -0.00048731884051038399 0 0 0 -0.021019007708910228 -0.13129114552088461 -0.0072598532741784518 0 -0.0072598532741784518 -0.0011379327842697268 0 0 0 -0.033107269576288616 -0.0011270993926034397 -0.0015744347009209458 0 -0.0015744347009209458 -0.026775444047040096 0 0 0 -0.0069756358599108699 -0.0074442802605585445 -0.023986919823853259 0 -0.023986919823853259 0.05924890907484448 0 0 0 0.012951157203571456 -0.0078578655239128041 0.0092794055950255073 0 0.0092794055950255073 -0.0023643312932307321 0 0 0 -0.0025555492042858867 -0.071508192671001766 -0.01169175423835803 0 -0.01169175423835803 -0.011169085462203044 0 0 0 -0.020669319533301204 -0.056016714837914955 0.0042364059721062908 0 0.0042364059721062908 -0.0063269749057355473 0 0 0 -0.015585922435912624 -0.025880976435976741 0.0032372833775380951 0 0.0032372833775380951 -0.0036141506468417052 0 0 0 -0.0073737817707046089 -0.041820858432419811 -0.0048481111210295401 0 -0.0048481111210295401 0.046010678515845074 0 0 0 0.0010474550208563055 -0.017404747885781863 -0.011741621550957926 0 -0.011741621550957926 0.012399544484404057 0 0 0 -0.001251300850344389 -0.027575853939155088 0.0048609740868208523 0 0.0048609740868208523 -0.0020003044373104887 0 0 0 -0.0073940395941163931 -0.052353283597152411 0.013270320044902473 0 0.013270320044902473 0.00054527143678928525 0 0 0 -0.012952003040091031 -0.010959618978286512 -0.016737279939206595 0 -0.016737279939206595 0.03639667870686436 0 0 0 0.0063592649321445038 -0.0049693418621671315 -0.01469039748976908 0 -0.01469039748976908 0.030770844657546981 0 0 0 0.006450375698844879 -0.030160106672225497 -0.019769540154524978 0 -0.019769540154524978 0.031728038317908117 0 0 0 0.00039198291142065328 -0.033888298112801668 -0.012168666635954339 0 -0.012168666635954339 0.023229423491629264 0 0 0 -0.0026647186552930802 -0.025625734769872805 -0.0005892720818626723 0 -0.0005892720818626723 0.019324296573775462 0 0 0 -0.0015753595490243409 -0.040350325906367772 -0.0052641787392538556 0 -0.0052641787392538556 0.043916318868295945 0 0 0 0.00089149824048203458 0.00080457334384376189 0.022805745534980382 0 0.022805745534980382 0.085836363385571879 0 0 0 0.021660234182353966 0.00014185804701338789 8.1723567213032311e-05 0 8.1723567213032311e-05 0.00060683459607213663 0 0 0 0.0001871731607712146 -0.0021573875070937942 -0.018377001760939482 0 -0.018377001760939482 0.044824936976060381 0 0 0 0.010666887367241668 0.00032885114622299705 -0.00028893762294934788 0 -0.00028893762294934788 0.00070215858403632758 0 0 0 0.00025775243256470626 -0.025550253390252055 0.0026449259636955897 0 0.0026449259636955897 0.020916737469120449 0 0 0 -0.0011583789802829016 -0.027198789464408984 0.00026060587835053522 0 0.00026060587835053522 0.013456549839549005 0 0 0 -0.0034355599062149966 -0.025705344058387581 -0.0080014493214763185 0 -0.0080014493214763185 0.019040626792778473 0 0 0 -0.0016661793164022762 -0.11621917700469472 -0.012848921984924745 0 -0.012848921984924745 0.0013471604136561788 0 0 0 -0.02871800414775965 -0.13450709142706924 -0.018944472282171498 0 -0.018944472282171498 0.0018210567586753323 0 0 0 -0.033171508667098483 -0.022107218939426628 -0.019877701165199838 0 -0.019877701165199838 -0.0017621559546199192 0 0 0 -0.005967343723511636 -0.034653604138996708 -2.0686480060132934e-05 0 -2.0686480060132934e-05 0.0050423762258433591 0 0 0 -0.0074028069782883406 -0.01126186744237101 -0.027008525677272896 0 -0.027008525677272896 0.044039482076840941 0 0 0 0.0081944036586174829 -0.054205175867355106 0.0050029892976927014 0 0.0050029892976927014 -0.0056611623239385175 0 0 0 -0.014966584547823415 -0.045869649729571173 0.0044976449348181746 0 0.0044976449348181746 -0.0073647347357180069 0 0 0 -0.013308596116322298 -0.049920855223262534 -0.010908014018013902 0 -0.010908014018013902 -0.01338882748290712 0 0 0 -0.015827420676542407 -0.066527774442294269 -0.01301498028080848 0 -0.01301498028080848 -0.012943254086607788 0 0 0 -0.019867757132225508 -0.050389280581153328 -0.018649666646566615 0 -0.018649666646566615 0.00073309309971891778 0 0 0 -0.012414046870358519 -0.039130577947713241 -0.01995651370391148 0 -0.01995651370391148 0.0012366388013445029 0 0 0 -0.0094734847865921568 -0.024412256246606631 -0.0037271611814846221 0 -0.0037271611814846221 -0.013876347204737637 0 0 0 -0.0095721508628360645 -0.023482718315451838 -0.0046770720299441548 0 -0.0046770720299441548 -0.014622280072959366 0 0 0 -0.0095262495971028018 -0.028223243439845013 0.0059356333771044675 0 0.0059356333771044675 -0.0077890163173732312 0 0 0 -0.0090030649393045611 -0.030765579643346485 0.0041796571745505943 0 0.0041796571745505943 -0.010072757243032866 0 0 0 -0.01020958422159484 -0.021106722878669215 0.038056162139449734 0 0.038056162139449734 0.0008471975852826219 0 0 0 -0.0050648813233464818 -0.022233740814914027 -0.02343062015186248 0 -0.02343062015186248 -0.0044811344361257444 0 0 0 -0.0066787188127599428 -0.040913158937424338 0.003498384174949686 0 0.003498384174949686 -0.0058624040850280132 0 0 0 -0.011693890755613091 -0.033365584687217086 -0.0085902110384673061 0 -0.0085902110384673061 -0.013782352890787778 0 0 0 -0.011786984394501224 -0.025797068015120186 -0.00351685733004653 0 -0.00351685733004653 0.0089764029671915158 0 0 0 -0.0042051662619821718 -0.048997805085974816 0.0043222811990617054 0 0.0043222811990617054 -0.0041645142434616617 0 0 0 -0.013290579832359109 -0.053328010394471333 -0.01229112223898622 0 -0.01229112223898622 -0.0088999017013577097 0 0 0 -0.015556978023957243 -0.065297158873960592 -0.012051356252474735 0 -0.012051356252474735 0.075233273510262266 0 0 0 0.0024840286590754115 -0.028370779208647397 -0.0014673712088928217 0 -0.0014673712088928217 0.010458052925634818 0 0 0 -0.0044781815707531404 -0.057731736801501433 -0.006921535543436586 0 -0.006921535543436586 -0.019252515796450424 0 0 0 -0.019246063149487961 -0.048274466613007168 0.0028687086377636051 0 0.0028687086377636051 -0.016095776662314744 0 0 0 -0.016092560818830478 0.021827551542512993 0.009431794534866764 0 0.009431794534866764 0.024923076182963522 0 0 0 0.011687656931369125 -0.0056887674328279791 -0.0017651991098636133 0 -0.0017651991098636133 -0.033652545411227086 0 0 0 -0.0098353282110137386 -0.042637053503812049 0.0026084292226620093 0 0.0026084292226620093 0.0068438755064403195 0 0 0 -0.0089482944993429167 0.0068882624670313919 -0.022142015029538636 0 -0.022142015029538636 0.014083147696731357 0 0 0 0.0052428525409406457 -0.026188831096751158 0.0038247048021485966 0 0.0038247048021485966 0.021087175898628723 0 0 0 -0.0012754137995306062 -0.032525443598787569 -0.0063448261332859843 0 -0.0063448261332859843 0.022865836660812142 0 0 0 -0.0024149017344938569 -0.1072172331357589 -0.00438393173688511 0 -0.00438393173688511 -0.0080861256899994564 0 0 0 -0.028825839706439593 -0.07525826743854265 -0.00044367645560355884 0 -0.00044367645560355884 -0.0057436807064007514 0 0 0 -0.020250487036235849 -0.006258407520558576 -0.013091094027232103 0 -0.013091094027232103 0.026873628292709478 0 0 0 0.0051538051930377082 -0.021350693854323748 0.0077173728702919463 0 0.0077173728702919463 0.013461248497074387 0 0 0 -0.0019723613393123418 -0.028668031580047749 -0.0022206427387111705 0 -0.0022206427387111705 0.0063813115393388329 0 0 0 -0.0055716800101772209 -0.065921581956150735 0.0015884610042176048 0 0.0015884610042176048 0.0038084349757360747 0 0 0 -0.015528286745103675 -0.076813867445812978 0.014662156304214635 0 0.014662156304214635 0.00073002174545999665 0 0 0 -0.019020961425088467 -0.033698409083090408 -0.0012920161487790377 0 -0.0012920161487790377 0.019385024614562263 0 0 0 -0.0035783461171320224 -0.034112037808747761 -0.014489880665683727 0 -0.014489880665683727 0.012471272084305263 0 0 0 -0.0054101914311106419 -0.032273349443461448 0.00090979680613777203 0 0.00090979680613777203 0.0070197457653799755 0 0 0 -0.0063134009195203664 -0.019971791478944234 0.0072435423049300868 0 0.0072435423049300868 0.017351092244026495 0 0 0 -0.00065517480872943901 -0.039057416637905525 -0.017008615981349479 0 -0.017008615981349479 0.011131143235748875 0 0 0 -0.0069815683505391538 0.0437768046216781 0.012654975470376986 0 0.012654975470376986 0.067209944521334247 0 0 0 0.027746687285753108 -0.037136240352716177 0.0046186763924009853 0 0.0046186763924009853 0.0025808036688274028 0 0 0 -0.0086388591709722004 -0.047064936712404082 0.01118182290024749 0 0.01118182290024749 -0.0021243647962760903 0 0 0 -0.012297325377170321 -0.0082574875005413384 -0.014384353602261646 0 -0.014384353602261646 0.040110530894468144 0 0 0 0.0079632608484815903 0.003520598137692954 -0.012061239680737246 0 -0.012061239680737246 0.027601459005789031 0 0 0 0.0077805142858704546 -0.088208787037304143 -0.021349111395269585 0 -0.021349111395269585 0.023766282816987117 0 0 0 -0.016110626055079208 0.0021724619513486913 -0.010824949129320565 0 -0.010824949129320565 -0.011532978600550067 0 0 0 -0.0023401291623003466 -0.08580106380003974 0.0055675905339805376 0 0.0055675905339805376 0.0015860757684488247 0 0 0 -0.02105374700789775 -0.14660780311804078 -0.017673084435503889 0 -0.017673084435503889 0.0043471787600617012 0 0 0 -0.035565156089494829 -0.083852658271508035 0.00078818185590923129 0 0.00078818185590923129 -3.2632854830336178e-05 0 0 0 -0.0209713227815846 -0.1457588299009516 -0.0046578868641713733 0 -0.0046578868641713733 0.0013475777820146639 0 0 0 -0.036102813029734171 -0.065402002122130348 -0.00026145715512220511 0 -0.00026145715512220511 -0.0085676324691890821 0 0 0 -0.018492408647829865 -0.089373804722390759 -0.0038298124978977995 0 -0.0038298124978977995 -0.011105781381426278 0 0 0 -0.025119896525954262 -0.034516779634389566 -0.0093197708771252455 0 -0.0093197708771252455 0.03055665164413409 0 0 0 -0.00099003199756386023 -0.031509037373523965 -0.016193193782782715 0 -0.016193193782782715 0.039334500318209259 0 0 0 0.001956365736171306 -0.011813519438026499 -0.0023749193368261534 0 -0.0023749193368261534 0.044440862155691263 0 0 0 0.0081568356794161634 -0.0041882939525356988 -0.0015921875082501591 0 -0.0015921875082501591 0.087701954564675111 0 0 0 0.020878415153034818 -0.013437768214738799 0.0044913250790128562 0 0.0044913250790128562 0.026536481418190982 0 0 0 0.0032746783008630459 -0.0088871135758359643 0.0011235563017741035 0 0.0011235563017741035 0.075483514987842448 0 0 0 0.016649100353001628 -0.020140572299156875 -0.0074342702223577639 0 -0.0074342702223577639 0.037736524397923743 0 0 0 0.0043989880246917135 -0.032320671593001921 0.0012402745307682414 0 0.0012402745307682414 0.0077223874845047209 0 0 0 -0.0061495710271243006 -0.019596109972071007 -0.015668566991614296 0 -0.015668566991614296 0.032379392548778002 0 0 0 0.0031958206441767625 -0.033457742363653953 -0.017241972016861201 0 -0.017241972016861201 0.028578806909626664 0 0 0 -0.0012197338635068083 -0.029441912129053005 0.00067947597036041368 0 0.00067947597036041368 0.038793741215052788 0 0 0 0.0023379572714999509 -0.10702794947035699 0.013687772141751013 0 0.013687772141751013 -0.0010502235515983394 0 0 0 -0.02701954325548872 -0.040713378387229326 -0.0047737962094120227 0 -0.0047737962094120227 0.041540542125195291 0 0 0 0.0002067909344914895 0.0086720097775658256 -0.01257062859932194 0 -0.01257062859932194 0.11175040611292975 0 0 0 0.030105603972623907 0.048639718190559539 -0.015583156099124494 0 -0.015583156099124494 0.057772129861881627 0 0 0 0.026602962013110298 0.013693360466751792 -0.011951710774461888 0 -0.011951710774461888 0.022914189145342934 0 0 0 0.0091518874030236952 -0.16202327347232534 -0.01347468216115516 0 -0.01347468216115516 0.0041075212646418668 0 0 0 -0.039478938051920848 -0.091584105123413584 0.0048581077034124676 0 0.0048581077034124676 0.0013625993555303612 0 0 0 -0.022555376441970761 -0.041824854617040129 -0.0044156304431576853 0 -0.0044156304431576853 0.044141194801510283 0 0 0 0.00057908504611753342 -0.06440200187192624 0.033325168741407341 0 0.033325168741407341 -0.0054238132431541075 0 0 0 -0.017456453778770031 -0.045795809659614717 0.033282691411229637 0 0.033282691411229637 0.0007782508276159561 0 0 0 -0.011254389707999746 -0.020550765843561025 -0.026084804744832435 0 -0.026084804744832435 0.012611406439032358 0 0 0 -0.0019848398511321808 -0.013830589271806965 -0.023028704348592388 0 -0.023028704348592388 0.014851465296285019 0 0 0 0.00025521900611958286 -0.016615915460536534 -0.016876165504238982 0 -0.016876165504238982 0.045055461847739675 0 0 0 0.0071098865968007852 -0.021190755744585843 0.0088901624546085366 0 0.0088901624546085366 0.00053938975038914094 0 0 0 -0.0051628414985493976 -0.039932570658560713 0.004608689664059161 0 0.004608689664059161 -0.0061211938433967123 0 0 0 -0.011513441125489356 -0.037613274370196986 -0.0068852989170616165 0 -0.0068852989170616165 -0.013119023484733814 0 0 0 -0.012683074463732701 -0.023764296875208969 -0.028930923947745879 0 -0.028930923947745879 0.0056436310461885075 0 0 0 -0.0045301664572550034 -0.023597061352002013 -0.026882914158493282 0 -0.026882914158493282 0.0058999246156812291 0 0 0 -0.0044242841840803626 -0.027435904254708224 -0.027044442982684713 0 -0.027044442982684713 0.002747468172180717 0 0 0 -0.0061721090206319357 -0.027972429500816409 -0.028944579440174034 0 -0.028944579440174034 0.0045014851816702617 0 0 0 -0.005867736079786523 -0.040830409631679443 0.043701836259601112 0 0.043701836259601112 -0.0048635943145900473 0 0 0 -0.011423500986567359 -0.030684605297367367 0.040173496798367125 0 0.040173496798367125 -0.0039178659643080427 0 0 0 -0.0086506178154187405 -0.044324063180307738 0.0055867072511522143 0 0.0055867072511522143 -0.01136831624532224 0 0 0 -0.013923094856407496 -0.052210538400138701 -0.011299566631325251 0 -0.011299566631325251 -0.016331950534626105 0 0 0 -0.017135622233691205 -0.078865891176221448 -0.0088610923693223931 0 -0.0088610923693223931 0.0062584744154819405 0 0 0 -0.018151854190184891 -0.13713939861148422 0.019983675664308295 0 0.019983675664308295 0.0092755843227567691 0 0 0 -0.031965953572181849 -0.062734171148742218 0.0078792416788614622 0 0.0078792416788614622 0.0014242311346111536 0 0 0 -0.015327485003532766 -0.019174975816570197 0.0071061568810472549 0 0.0071061568810472549 0.0066593978996817259 0 0 0 -0.003128894479222123 -0.0051789622221418141 -0.01060577861501355 0 -0.01060577861501355 -0.020808653546947831 0 0 0 -0.0064969039422724251 -0.099051082733142837 -0.018142827083801879 0 -0.018142827083801879 0.001243580092953861 0 0 0 -0.024451875660047237 -0.13004829714835184 -0.015366334177809833 0 -0.015366334177809833 -0.0030255485086939787 0 0 0 -0.033268461414261478 -0.0117028815794268 0.00057932060890230957 0 0.00057932060890230957 -0.012873509063477161 0 0 0 -0.0061440976607259933 -0.024871256409427916 0.0062323395904631818 0 0.0062323395904631818 0.051678915505278006 0 0 0 0.0067019147739625362 -0.092538019248608966 -0.0011089618836493537 0 -0.0011089618836493537 -9.2756664231197217e-05 0 0 0 -0.023157693978210048 -0.16826407207339483 0.0014276475378830478 0 0.0014276475378830478 -0.00048071773364392889 0 0 0 -0.042186197451759597 -0.051692513478691707 -0.0051854252727780437 0 -0.0051854252727780437 0.0070266536232708732 0 0 0 -0.011166464963855247 -0.074532151784147946 -0.016712413620240958 0 -0.016712413620240958 -0.0097855213438450342 0 0 0 -0.02107941828199825 -0.054451075446383224 -0.016080720034213035 0 -0.016080720034213035 -0.0068016322696721788 0 0 0 -0.015313176929013851 0.00071371395227487477 0.066228138947368981 0 0.066228138947368981 0.13074730581569871 0 0 0 0.032865254941993383 -0.12071125284891024 -0.0066705691639187201 0 -0.0066705691639187201 8.4285424990719615e-05 0 0 0 -0.030156741855979892 -0.077407920592247756 0.0028114134961427367 0 0.0028114134961427367 0.00034354521292901535 0 0 0 -0.019266093844829704 -0.023763279017024741 -0.010454842091844573 0 -0.010454842091844573 -0.012843190088818179 0 0 0 -0.009151617276460744 -0.026301027088789647 -0.010549558638986607 0 -0.010549558638986607 -0.0090353262568585446 0 0 0 -0.0088340883364120548 -0.023588872774344995 0.0067161660312065573 0 0.0067161660312065573 0.030427053281867608 0 0 0 0.0017095451268806586 -0.02090869699742804 -0.010029220369560539 0 -0.010029220369560539 0.0012851794107589243 0 0 0 -0.0049058793966672773 -0.0092661845341788247 0.012345580178534953 0 0.012345580178534953 0.0040974464563981322 0 0 0 -0.0012921845194451744 -0.0037749484562151769 0.016663736718372901 0 0.016663736718372901 0.12112848100140927 0 0 0 0.029338383136298607 -0.062376120368883216 0.0071268450951522538 0 0.0071268450951522538 0.0023666911995339907 0 0 0 -0.01500235729233732 -0.028544197396299459 -0.00014243466730582636 0 -0.00014243466730582636 0.005379771284649025 0 0 0 -0.0057911065279126223 0.052603201407514399 0.013275969574305836 0 0.013275969574305836 0.046228548933150204 0 0 0 0.024707937585165984 -0.059301295643688974 -0.0081761668834359202 0 -0.0081761668834359202 -0.0021107742559125751 0 0 0 -0.01535301747490043 -0.20098628607688726 -0.0013457714456601988 0 -0.0013457714456601988 -0.00048747729350739899 0 0 0 -0.050368440842598672 -0.10786170090641284 -0.00018257333445886501 0 -0.00018257333445886501 -0.00046080737753351197 0 0 0 -0.027080627070986588 -0.03959411228306435 -0.0001828110084532604 0 -0.0001828110084532604 0.049532820159076736 0 0 0 0.0024846769690030947 -0.075307461732377123 -0.013414069470226416 0 -0.013414069470226416 -0.0051401512332728896 0 0 0 -0.020111903241412515 -0.090797862983176464 -0.01846106442711978 0 -0.01846106442711978 -0.0029053616298533348 0 0 0 -0.023425806153257452 0.023653908754578623 0.0204033783892658 0 0.0204033783892658 0.025547229220332479 0 0 0 0.012300284493727776 -0.040256419408309485 -0.0095197782909709622 0 -0.0095197782909709622 -0.00091182066991501998 0 0 0 -0.010292060019556182 -0.032392681016100891 -0.013069636259124523 0 -0.013069636259124523 0.0085460191498428484 0 0 0 -0.0059616654665644725 -0.0059522415525483652 0.019413456141020451 0 0.019413456141020451 0.086541903748011073 0 0 0 0.020147415548865233 -0.015898491633831724 -0.0056716336031236774 0 -0.0056716336031236774 0.0012181112552225315 0 0 0 -0.0036700950946523259 -0.039793162628084813 -0.02466514898213204 0 -0.02466514898213204 0.026605373780348385 0 0 0 -0.0032969472119341037 -0.022188261567138712 -0.0073633765611110652 0 -0.0073633765611110652 0.033550490209605321 0 0 0 0.0028405571606166385 -0.034518574605935382 -0.0012168127832867456 0 -0.0012168127832867456 0.011768515817286468 0 0 0 -0.0056875146971622423 -0.037721998772786591 0.0099244773527746855 0 0.0099244773527746855 -0.0012561422997880989 0 0 0 -0.0097445352681435615 -0.0099858896973713529 -0.016881202234633075 0 -0.016881202234633075 0.046242463691321456 0 0 0 0.009064143498487609 -0.036126511101502584 0.0040308375157901847 0 0.0040308375157901847 -0.0019125132054351561 0 0 0 -0.0095097560767344429 0.0082839100849852881 -0.0032175493774468239 0 -0.0032175493774468239 0.037510925849502275 0 0 0 0.011448708983621866 -0.073884582713094532 0.0050855360913293337 0 0.0050855360913293337 0.00012783306942676376 0 0 0 -0.018439187410916935 -0.056875258158213662 -0.015289796719460475 0 -0.015289796719460475 0.020328930900253783 0 0 0 -0.0091365818144899524 -0.059569018187046928 0.006889314164954103 0 0.006889314164954103 -0.0022431698087634414 0 0 0 -0.015453046998952598 -0.06460071617372376 -0.0086410131185613581 0 -0.0086410131185613581 0.0013170138769722506 0 0 0 -0.015820925574187905 -0.079744000716986937 0.0043060258698610458 0 0.0043060258698610458 -0.00068310328614680504 0 0 0 -0.020106776000783432 -0.069687732877747821 0.0054570426136305167 0 0.0054570426136305167 0.00031056646972947577 0 0 0 -0.017344291602004583 -0.069241626392764655 0.042054146429578276 0 0.042054146429578276 -0.0003947127387535776 0 0 0 -0.017409084782879725 -0.038593494266421648 -0.0057154989172937517 0 -0.0057154989172937517 -0.014386668382984583 0 0 0 -0.013245040662351557 -0.044280247763712761 -0.011343750699451701 0 -0.011343750699451701 -0.015272651251128082 0 0 0 -0.014888224753710209 -0.041318167107692046 0.0059953860490199922 0 0.0059953860490199922 -0.0088732238979371998 0 0 0 -0.012547847751407305 -0.039231373646618092 0.0035780659685684495 0 0.0035780659685684495 -0.01045634478520714 0 0 0 -0.012421929607956305 -0.027486568201765461 -0.0059784172982341836 0 -0.0059784172982341836 0.015614685024313471 0 0 0 -0.0029679707943629993 -0.022293025568092498 -0.025799936297456631 0 -0.025799936297456631 0.042620782966511048 0 0 0 0.0050819393496046453 -0.033729705597667498 -0.017749196442863546 0 -0.017749196442863546 0.017590848780304126 0 0 0 -0.0040347142043408194 -0.037759589196337595 -0.012232330456256768 0 -0.012232330456256768 0.028608283702302728 0 0 0 -0.0022878263735087168 -0.032669528315307922 -0.014596667226150509 0 -0.014596667226150509 0.016796933531991548 0 0 0 -0.0039681486958291212 -0.023395379782851389 -0.0026987858464078175 0 -0.0026987858464078175 0.033766349132641538 0 0 0 0.0025927423374475234 -0.025563520207962542 -0.0078238618647744063 0 -0.0078238618647744063 0.017758303050567026 0 0 0 -0.001951304289348893 -0.11088616928973934 0.0018948132612953579 0 0.0018948132612953579 0.00052265812067076034 0 0 0 -0.027590877792267182 -0.21142204198363132 -0.0048941645800531031 0 -0.0048941645800531031 0.0033331444807872534 0 0 0 -0.052022224375710968 -0.014393378146933235 -0.0072005660876960365 0 -0.0072005660876960365 0.018382062018885287 0 0 0 0.00099717096798800781 -0.019881896023543261 -0.0044960169041138864 0 -0.0044960169041138864 0.039204773512445112 0 0 0 0.004830719372225456 -0.056990250028122941 0.0054461195292548961 0 0.0054461195292548961 0.0074561628742626507 0 0 0 -0.012383521788465107 -0.017735931801615402 0.0039556982510569423 0 0.0039556982510569423 -0.0077000112206493344 0 0 0 -0.0063589857555661853 -0.03144140598080776 -0.011108755012874613 0 -0.011108755012874613 -0.0076792073395535419 0 0 0 -0.009780153330090342 -0.019498766013024759 -0.0041855161486073445 0 -0.0041855161486073445 -0.012497863982992026 0 0 0 -0.0079991574990041919 -0.017018588997360598 -0.03714379703819512 0 -0.03714379703819512 0.076999761582803722 0 0 0 0.014995293146360793 -0.073812828625533178 0.002501681767269618 0 0.002501681767269618 -0.003000159333969573 0 0 0 -0.019203246989875696 -0.067763856957152035 0.0020908934427767232 0 0.0020908934427767232 -0.0014672890172272406 0 0 0 -0.017307786493594823 -0.093346145350105991 -0.0077773731118783041 0 -0.0077773731118783041 -0.0017411441171289524 0 0 0 -0.023771822366808738 -0.10895616237006647 -0.008771077214777238 0 -0.008771077214777238 -0.0055141557997373039 0 0 0 -0.028617579542450932 -0.097099150508278775 -0.0061514633722665997 0 -0.0061514633722665997 0.0012166625322052038 0 0 0 -0.023970621994018337 -0.015122074121202644 0.062533634720788989 0 0.062533634720788989 0.080534241952256336 0 0 0 0.016353041957763437 0.0024619011881487074 -0.012758102265950477 0 -0.012758102265950477 0.026221974299797002 0 0 0 0.0071709688719863718 -0.010123401873138954 -0.0087267423702140356 0 -0.0087267423702140356 -0.019931554597033635 0 0 0 -0.0075137391175431612 -0.041440416441534851 0.0052697010358611204 0 0.0052697010358611204 -0.0021879208408053007 0 0 0 -0.010907084320585044 -0.039988542141683306 -0.0025333760286000567 0 -0.0025333760286000567 0.03603042961530669 0 0 0 -0.00098952813159416259 -0.063062758470611227 0.0053690758941381065 0 0.0053690758941381065 -0.00064555561192659872 0 0 0 -0.015927078520634477 0.0061839455381549335 0.028544020413202809 0 0.028544020413202809 0.018510367101132408 0 0 0 0.0061735781598216688 -0.021628286677266882 0.0058756158688593645 0 0.0058756158688593645 -0.0079218316107529212 0 0 0 -0.0073875295720049515 -0.025361849924272636 -0.013889163629056178 0 -0.013889163629056178 -0.0077618407861047914 0 0 0 -0.0082809226775942962 0.024202815213438752 -0.050555397143861223 0 -0.050555397143861223 0.060488190364426375 0 0 0 0.021172751394466283 -0.17490145688664693 0.014624399829995083 0 0.014624399829995083 0.0018560348805518601 0 0 0 -0.043261355501523657 -0.013058168922852238 0.0027455841968884865 0 0.0027455841968884865 -0.008628760086423496 0 0 0 -0.0054217322523189334 -0.047245357633542352 0.0030970825018021742 0 0.0030970825018021742 -0.011426601214822238 0 0 0 -0.014667989712091151 -0.054077576345258657 -0.0068790912398934752 0 -0.0068790912398934752 -0.015379316920177154 0 0 0 -0.017364223316358958 -0.015238811941458232 0.0098225627163212748 0 0.0098225627163212748 0.011016061222873921 0 0 0 -0.0010556876796460786 -0.08396837424080536 0.0041851602196064513 0 0.0041851602196064513 0.0017424113469255986 0 0 0 -0.020556490723469989 -0.14360405065869172 -0.012454639206532225 0 -0.012454639206532225 0.0061051434280306599 0 0 0 -0.034374726807665262 -0.00048332712924104015 0.024845266056895854 0 0.024845266056895854 0.044630780544370197 0 0 0 0.011036863353782067 -0.036306665796424054 -0.012632682945249607 0 -0.012632682945249607 -0.0030005162008239772 0 0 0 -0.0098267954993119799 -0.017328433404298613 0.0031629698856648764 0 0.0031629698856648764 0.045158798008844925 0 0 0 0.0069575911511366023 -0.010353724659377506 -0.019913904549750536 0 -0.019913904549750536 0.010797523173678769 0 0 0 0.00011094962857532975 -0.026664000748002528 0.0016542794280402576 0 0.0016542794280402576 0.017055140610619995 0 0 0 -0.0024022150343456367 -0.019849719702944919 0.0057135617931357826 0 0.0057135617931357826 0.0045791821191167939 0 0 0 -0.0038176343959570305 -0.014355851706009528 0.00033755031351992654 0 0.00033755031351992654 -0.011520768601118803 0 0 0 -0.0064691550767820823 -0.035202862445092957 0.0037959540453793282 0 0.0037959540453793282 0.001876355007888775 0 0 0 -0.0083316268593010435 -0.028479023396598746 -0.014620875771416263 0 -0.014620875771416263 0.09786579557468722 0 0 0 0.017346693044522118 -0.029992132281723913 -0.014973025759311297 0 -0.014973025759311297 0.09022684824265817 0 0 0 0.015058678990233568 -0.031677943382832752 -0.020080057956196828 0 -0.020080057956196828 -0.00038353499056809071 0 0 0 -0.0080153695933501967 -0.027891083737823563 -0.019090661368257378 0 -0.019090661368257378 -0.00058435696129466308 0 0 0 -0.0071188601747794733 -0.012566293450510635 0.03438568757425875 0 0.03438568757425875 0.020221081256860618 0 0 0 0.0019136969515876068 -0.018719011046808731 0.035905102495001895 0 0.035905102495001895 0.017427850697633307 0 0 0 -0.00032279008729396708 -0.011988045996571106 0.038288389095242945 0 0.038288389095242945 0.0092284489824971949 0 0 0 -0.00068989925351847781 0.015560637441255354 0.036364770215153608 0 0.036364770215153608 0.01545414033830772 0 0 0 0.007753694444890824 -0.016680858542167779 0.0039371884741081541 0 0.0039371884741081541 -0.0055608375901849477 0 0 0 -0.0055604240330881811 -0.016077056224914496 0.0019328106667702571 0 0.0019328106667702571 0.059308500887689658 0 0 0 0.010807861165693752 -0.023562038605911488 -6.648534771379333e-05 0 -6.648534771379333e-05 0.030153353353107162 0 0 0 0.0016478286867988926 -0.06639617067340059 -0.012882904871139134 0 -0.012882904871139134 -0.00022241438390668833 0 0 0 -0.016654646264326833 -0.075398818485371832 -0.0049641756692132 0 -0.0049641756692132 -0.00031004033869175274 0 0 0 -0.018927214706015882 -0.12765774564512877 0.011702115578375083 0 0.011702115578375083 -0.00092254451324591535 0 0 0 -0.032145072539593644 -0.0027965916280577666 0.020745764046965626 0 0.020745764046965626 0.024294768969296804 0 0 0 0.0053745443353097541 1.3991282355907408e-05 0.022239910972456343 0 0.022239910972456343 0.030541891248802355 0 0 0 0.0076389706327895657 -0.015663676215464724 0.0056109705712254695 0 0.0056109705712254695 -0.0053248836861461701 0 0 0 -0.005247139975402727 -0.018300546439221167 0.0048338206321680314 0 0.0048338206321680314 -0.0082923863490832958 0 0 0 -0.0066482331970761158 -0.1245769232929993 -0.012517177667404247 0 -0.012517177667404247 -0.0049415814624755028 0 0 0 -0.032379626188868686 -0.078455598263546061 0.0041645740499431233 0 0.0041645740499431233 -0.0010704524933708853 0 0 0 -0.019881512689229247 -0.070506959250493551 0.006480603347113722 0 0.006480603347113722 -0.0015805414522803846 0 0 0 -0.018021875175693487 -0.0038789405931594079 0.024951056091450763 0 0.024951056091450763 0.055400746524294497 0 0 0 0.012880451482783828 -0.029296371120376308 -0.0089594975494737827 0 -0.0089594975494737827 0.0024345038863406998 0 0 0 -0.0067154668085088742 -0.017759874694132462 -0.0016509785033743023 0 -0.0016509785033743023 -0.0099160650330314057 0 0 0 -0.006918984931790966 -0.006125841391022336 0.00024738527681648567 0 0.00024738527681648567 -0.0083228213634123083 0 0 0 -0.0036121656886086671 -0.048175690679213123 -0.020215464217256562 0 -0.020215464217256562 0.0042025233579112697 0 0 0 -0.01099329183032538 -0.043925340396867588 -0.015659667421325248 0 -0.015659667421325248 -0.0031017794731945519 0 0 0 -0.011756779967515535 -0.022844007517405771 -0.0075051395495776274 0 -0.0075051395495776274 0.021186281076685173 0 0 0 -0.00041443161018016317 0.0033213236163541979 0.015814718125121432 0 0.015814718125121432 0.012703429033742428 0 0 0 0.0040061881625241547 -0.069681286323152 0.043390834215246699 0 0.043390834215246699 0.002463316138420879 0 0 0 -0.016804492546182923 -0.074632570913721968 0.0002268582102744332 0 0.0002268582102744332 0.0033978942702515003 0 0 0 -0.017808669160867624 -0.12674915370052281 -0.00061005342931015616 0 -0.00061005342931015616 0.0090654011607413931 0 0 0 -0.029420938134945451 -0.0029695873133639972 -0.0033534795627929159 0 -0.0033534795627929159 -0.02934468930486589 0 0 0 -0.0080785691545575689 -0.0082852037462661232 -0.0074234617315552809 0 -0.0074234617315552809 -0.034461965543233553 0 0 0 -0.010686792322374961 -0.06176804516140038 0.0070525597078456431 0 0.0070525597078456431 -0.00025412941223371122 0 0 0 -0.01550554364340853 -0.05305789533332475 0.0056418594141711895 0 0.0056418594141711895 -0.0011243410117513092 0 0 0 -0.013545559086269036 -0.027794714608292741 -0.0016246552013455783 0 -0.0016246552013455783 0.012958118300516422 0 0 0 -0.003709149076944078 -0.079983876016528677 0.0075943625581168482 0 0.0075943625581168482 0.0018510747409341277 0 0 0 -0.019533200318898603 -0.085220473865566138 -0.017782365554588637 0 -0.017782365554588637 -0.0067279619493198287 0 0 0 -0.022987108953721486 -0.00089781619041241008 0.0009776450397213643 0 0.0009776450397213643 -0.028263672797830559 0 0 0 -0.0072903722470607562 -0.052113835019309995 0.051931594679430315 0 0.051931594679430315 0.0054045830895472768 0 0 0 -0.011677312982440569 -0.018876345664757682 0.0045755961871402767 0 0.0045755961871402767 -0.0062927383954782343 0 0 0 -0.0062922710150589778 0.030320574005168605 0.014925920842375984 0 0.014925920842375984 0.051460907809845136 0 0 0 0.02044537045375347 0.024859247752464269 0.031287749183072727 0 0.031287749183072727 0.079965963888802338 0 0 0 0.026206302910316639 -0.11866905380564319 0.0109484919673139 0 0.0109484919673139 0.020566398464063565 0 0 0 -0.024525663835394833 0.0054197794883665412 0.033360646181356611 0 0.033360646181356611 0.08559194731828218 0 0 0 0.022752931701662163 0.015930044300640073 0.027983465503518243 0 0.027983465503518243 0.055808679298521902 0 0 0 0.017934680899790501 -0.045944930396661643 0.0062856884808968928 0 0.0062856884808968928 0.00083782682922914353 0 0 0 -0.011276775891858121 -0.030497939868172792 0.0033225091654158108 0 0.0033225091654158108 -0.0018430184061403636 0 0 0 -0.0080852395685782862 -0.11019841554457077 0.03430063056299848 0 0.03430063056299848 0.011158400259077217 0 0 0 -0.024760003821373555 -0.040841081885285277 -0.012272183248707803 0 -0.012272183248707803 0.044554505179937337 0 0 0 0.0009283558236630185 -0.013626197225941149 0.021987895186568518 0 0.021987895186568518 0.092806109844460749 0 0 0 0.019794978154629911 -0.031636853643372723 -0.017479326448133714 0 -0.017479326448133714 0.0019112148055555611 0 0 0 -0.0074314097094542869 -0.088392502036766435 -0.0029141336761571435 0 -0.0029141336761571435 0.0025205203979445645 0 0 0 -0.021467995409705488 -0.15676238222784297 0.0068105950870817888 0 0.0068105950870817888 0.0088941709351980647 0 0 0 -0.036967052823161234 -0.042086998977254098 0.021090031442729806 0 0.021090031442729806 -0.0062985081695177136 0 0 0 -0.012096376786693064 -0.016494338287831978 -0.022835783372608942 0 -0.022835783372608942 0.021820302668761338 0 0 0 0.001331491095232229 -0.031441169880595476 -0.012455179368876176 0 -0.012455179368876176 0.015575317109775444 0 0 0 -0.003966463192705022 0.0096087964596964504 0.01689415372316351 0 0.01689415372316351 0.014174393144056802 0 0 0 0.005945797400938313 -0.076218416653716287 -0.016966584369980449 0 -0.016966584369980449 -0.011108562835916741 0 0 0 -0.02183174487240825 -0.073358635056458232 0.0050802060530164145 0 0.0050802060530164145 0.0017068050971338622 0 0 0 -0.017912957489831093 -0.10523929018097442 -0.0094766661502090621 0 -0.0094766661502090621 0.0057194859892069697 0 0 0 -0.024879951047941856 -0.019913944399983063 -0.018717350331435276 0 -0.018717350331435276 0.035364542934105625 0 0 0 0.0038626496335306404 -0.057320566178220581 0.0032509185788275469 0 0.0032509185788275469 0.0029432968705611212 0 0 0 -0.013594317326914844 -0.02826706756786691 0.005537326368801174 0 0.005537326368801174 0.075760334100813786 0 0 0 0.011873316633236718 -0.015224058061679795 -5.3229819174063992e-05 0 -5.3229819174063992e-05 -0.0050734103560116355 0 0 0 -0.005074367104422859 -0.026217585216164158 -0.0088033360328818866 0 -0.0088033360328818866 0.0086360827068177604 0 0 0 -0.004395375627336634 -0.088293242981737213 0.0022733273536686971 0 0.0022733273536686971 0.0019826326276936868 0 0 0 -0.021577652588510878 -0.15362971903446454 -0.0078760242400703062 0 -0.0078760242400703062 0.0044286098022310316 0 0 0 -0.037300277308058349 -0.067370994603099366 -0.015424594299129957 0 -0.015424594299129957 0.005369512211855873 0 0 0 -0.01550037059781079 -0.031095709631113508 -0.015518942594713897 0 -0.015518942594713897 0.024369720853682442 0 0 0 -0.00168149719435777 -0.022778079117208361 -0.011104950374413614 0 -0.011104950374413614 0.045329333485571499 0 0 0 0.0056378135920908123 -0.042677866818199767 0.0040675799861299919 0 0.0040675799861299919 0.0031646314770136519 0 0 0 -0.0098783088352965114 -0.032935885565061163 -0.016120511561638518 0 -0.016120511561638518 0.0033004309647655661 0 0 0 -0.0074088636500738714 -0.049987361983670528 -0.018787896523761671 0 -0.018787896523761671 0.0011951737083957595 0 0 0 -0.012198047068818817 -0.051698625142440065 0.0043722337525491928 0 0.0043722337525491928 0.0029076660500413423 0 0 0 -0.012197739773099688 -0.030422946855337224 -0.017912133636027491 0 -0.017912133636027491 0.0025483956448725809 0 0 0 -0.0069686378026160983 -0.01539450630060483 0.00027077301030838867 0 0.00027077301030838867 -0.012206364515392164 0 0 0 -0.0069002177039992497 -0.090544291780925226 0.00096664868718671082 0 0.00096664868718671082 0.0014818118184632412 0 0 0 -0.022265619990615562 -0.163900406683616 -0.0023768635501170143 0 -0.0023768635501170143 0.0021593385701709211 0 0 0 -0.040435267028361255 -0.044187640132103793 -0.0080796491392844949 0 -0.0080796491392844949 -0.0026162341071077067 0 0 0 -0.011700968559802787 0.015238974948591721 0.016734208922370986 0 0.016734208922370986 0.064788339266661832 0 0 0 0.020006828553813305 0.0069603132344474572 0.023450933894404891 0 0.023450933894404891 0.047728927971557145 0 0 0 0.013672310301501289 -0.033436859923238194 -0.0067630119551747589 0 -0.0067630119551747589 -0.0022601623746436594 0 0 0 -0.0089242555744706298 0.011164503971136774 0.014361454291155087 0 0.014361454291155087 0.084984064502844348 0 0 0 0.024037142118495058 -0.010794091348834217 -0.013681912921712619 0 -0.013681912921712619 0.0086024058174443141 0 0 0 -0.00054792138284748271 -0.039833593041652182 -0.015622072409011534 0 -0.015622072409011534 0.011658739577142141 0 0 0 -0.0070437133661274687 0.0048281029509483209 0.00041178833384268869 0 0.00041178833384268869 0.061485736598969387 0 0 0 0.016578459887479469 0.0020052457668015833 -0.0029433267862332135 0 -0.0029433267862332135 0.1133711354205228 0 0 0 0.028844095296831074 -0.10222428405747519 -0.014120300584117923 0 -0.014120300584117923 0.020367091631322332 0 0 0 -0.02046429810653827 -0.049765082194614146 0.0050486326012343635 0 0.0050486326012343635 -0.0014965865365971914 0 0 0 -0.012815417182802834 -0.015201121687729965 0.0075264545273232199 0 0.0075264545273232199 -0.0014715251968537889 0 0 0 -0.0041681617211459373 -0.073077528896764554 0.038119767108838742 0 0.038119767108838742 -0.0038021560006704647 0 0 0 -0.019219921224358782 -0.0036505694223121221 -0.020721887651584836 0 -0.020721887651584836 0.014810723956723004 0 0 0 0.0027900386336027205 -0.013184181684585345 0.0014039410643655391 0 0.0014039410643655391 -0.0088009144211037005 0 0 0 -0.0054962740264222626 -0.044518688417102097 0.0029200036861139061 0 0.0029200036861139061 0.010804223793105049 0 0 0 -0.0084286161559992637 0.029370237051060011 0.014524831996137738 0 0.014524831996137738 0.050890400056037066 0 0 0 0.020065159276774214 -0.028909450028516196 -0.007971453340230153 0 -0.007971453340230153 -0.014027503111771918 0 0 0 -0.010734238285072025 -0.02180507894830442 -0.0063258521637639675 0 -0.0063258521637639675 0.00019501106471683793 0 0 0 -0.0054025169708968937 -0.016311202974366203 -0.010537302435392595 0 -0.010537302435392595 0.0018384694950033288 0 0 0 -0.0036181833698407185 -0.006429501229103074 0.0059038224355931479 0 0.0059038224355931479 0.020881029476301327 0 0 0 0.0036128820617996049 0.0025829661203974064 0.0016084128283372079 0 0.0016084128283372079 0.059312774792913081 0 0 0 0.015473935228327601 0.0053978764947879287 -0.0069140046489753471 0 -0.0069140046489753471 0.10528552724575901 0 0 0 0.027670850935136687 -0.0082051347284965263 -0.011225746236064427 0 -0.011225746236064427 0.04630525759770214 0 0 0 0.0095250307173013367 -0.0085690536631909328 0.017395948768698662 0 0.017395948768698662 0.028327317281407027 0 0 0 0.0049395659045540358 -0.0086420512410967168 -0.017906749887574847 0 -0.017906749887574847 -0.0046058902400811924 0 0 0 -0.0033119853702944721 0.003356008193797843 -0.035526905145719545 0 -0.035526905145719545 0.030707024076883981 0 0 0 0.0085157580676704474 -0.046881315687699987 -0.015707530168471817 0 -0.015707530168471817 0.0031546851454797298 0 0 0 -0.010931657635555148 -0.062332611985280915 0.0054905558017407999 0 0.0054905558017407999 0.0011592068697417884 0 0 0 -0.01529335127888478 -0.052708687836666199 0.007099626476189046 0 0.007099626476189046 0.0020784696957309445 0 0 0 -0.012657554535233803 -0.098599963084896936 0.0052811919506148414 0 0.0052811919506148414 0.040342045974882002 0 0 0 -0.014564479277503734 -0.015319492216580466 0.0013106577894295424 0 0.0013106577894295424 0.0095468843421003813 0 0 0 -0.0014431519686200489 -0.014159994039922991 -0.0099134004304673728 0 -0.0099134004304673728 0.025276836322076002 0 0 0 0.0027792105705382042 -0.01484335885602826 0.0082671353595509429 0 0.0082671353595509429 0.0045168056756157357 0 0 0 -0.0025816382951031301 6.2650658626151046e-05 3.9772989279956983e-05 0 3.9772989279956983e-05 -0.031075105373447043 0 0 0 -0.0077531136787052923 -0.022081377234993354 0.0045778853545337264 0 0.0045778853545337264 -0.0052778107065231741 0 0 0 -0.006839796985379132 -0.031643729785792787 -0.017795167357693611 0 -0.017795167357693611 0.013728993046670496 0 0 0 -0.0044786841847806041 -0.012568256103605907 0.0015181183254610389 0 0.0015181183254610389 -0.012772069698286483 0 0 0 -0.0063350814504730965 -0.020849748818532854 0.044426331377057093 0 0.044426331377057093 0.0013389144414350795 0 0 0 -0.0048777085942743881 -0.023050499101315569 0.041012688310658962 0 0.041012688310658962 0.0021136512616064529 0 0 0 -0.0052342119599270709 -0.024024951001485009 -0.02454302404200237 0 -0.02454302404200237 0.0020047381326883107 0 0 0 -0.0055050532171991434 0.016553355103293803 -0.070633446834771949 0 -0.070633446834771949 0.1250838353138079 0 0 0 0.035409297604275421 -0.013881178597540612 0.0021255985828345196 0 0.0021255985828345196 -0.010896333199660747 0 0 0 -0.0061943779493003406 -0.045494642012075481 -0.0094611553012002303 0 -0.0094611553012002303 0.0025495414967720009 0 0 0 -0.010736275128825801 0.00098076655763046361 0.00039140210091348493 0 0.00039140210091348493 -0.00010297362312039482 0 0 0 0.00021944823362740618 -0.0069336330361144949 0.0061031742634132247 0 0.0061031742634132247 0.12027305841869129 0 0 0 0.028334856345643811 0.0097587807519865094 0.0012813785013192636 0 0.0012813785013192636 0.097385149051164896 0 0 0 0.026785982450787407 0.005800380903385971 -0.0029005220536635345 0 -0.0029005220536635345 0.049361325451687588 0 0 0 0.01379042658876839 0.0014706754057134397 -0.00061824091812860563 0 -0.00061824091812860563 -7.8246352053668033e-05 0 0 0 0.00034810726341527598 -0.00033192761323944028 0.0005580356841401457 0 0.0005580356841401457 0.001063429335580043 0 0 0 0.00018287543058512296 -0.0049345492462129492 -0.0071940122558828709 0 -0.0071940122558828709 0.067635034338903388 0 0 0 0.015675121273172721 -0.00035924219703753479 -0.00087608240832315332 0 -0.00087608240832315332 0.0016238940082446973 0 0 0 0.00031616295280123552 -0.016281781603570512 0.00081749049698969683 0 0.00081749049698969683 -0.010059638882928258 0 0 0 -0.0065853551216246914 -0.027870416195925965 -0.016803594380049691 0 -0.016803594380049691 -0.0031154092516825008 0 0 0 -0.0077464563619021182 -0.051557167251195725 0.0060052663148684945 0 0.0060052663148684945 0.0057704307835772795 0 0 0 -0.011446684116904603 -0.040653994542144523 -0.022246066754218807 0 -0.022246066754218807 0.0040310404762478047 0 0 0 -0.0091557385164741656 -0.020945939832056708 -0.0016885558113298514 0 -0.0016885558113298514 -0.012879995487884849 0 0 0 -0.0084564838299853867 -0.024587109936573537 0.033259052488453733 0 0.033259052488453733 -0.0077602571266726095 0 0 0 -0.0080868417658117586 -0.019557645894042741 -0.026939556489627647 0 -0.026939556489627647 0.0012417061077643066 0 0 0 -0.0045789849465696086 -0.0035866493804340149 -0.0050014976570785241 0 -0.0050014976570785241 0.048187090470948934 0 0 0 0.011150110272628744 -0.0057416962077919409 -0.00074858028478042016 0 -0.00074858028478042016 0.090405335875475112 0 0 0 0.021165909916920772 -0.039630028914399956 0.0072658923502843531 0 0.0072658923502843531 0.042919304737327579 0 0 0 0.00082231895573191272 -0.046976439896243644 0.0015311294394077246 0 0.0015311294394077246 0.0059231349677970335 0 0 0 -0.010263326232111653 -0.022216349430557836 -0.0098669247213112477 0 -0.0098669247213112477 0.033909089987507302 0 0 0 0.0029231851392373387 -0.017005107143466036 0.0048879787469165159 0 0.0048879787469165159 0.068409594623728753 0 0 0 0.012851121870065679 -0.024329378626574027 -0.025477849357857518 0 -0.025477849357857518 0.0066352214744052618 0 0 0 -0.0044235392880422331 -0.012806871117858706 0.0074529943670983128 0 0.0074529943670983128 -0.00067161393770519273 0 0 0 -0.0033696212638909739 -0.021182139424283375 -0.027683828118793219 0 -0.027683828118793219 0.0092283276315303642 0 0 0 -0.0029884529481881694 -0.032684122822606687 0.03133463137231618 0 0.03133463137231618 -0.0025539971009114204 0 0 0 -0.0088095299808796934 -0.024221614159484789 -0.0016335460898627696 0 -0.0016335460898627696 0.014692905280800195 0 0 0 -0.0023821772196711277 -0.015083780252159257 -0.0028773145951421636 0 -0.0028773145951421636 0.017736047745791572 0 0 0 0.00066306687340805803 -0.034741878225181259 0.0042361165049444914 0 0.0042361165049444914 -0.0021595825897479598 0 0 0 -0.0092253652037323011 -0.035426800672949704 -0.0043847497638300204 0 -0.0043847497638300204 0.02989554066258289 0 0 0 -0.0013828150025916829 0.011998520994525613 -0.020993534888095855 0 -0.020993534888095855 0.016215128080418639 0 0 0 0.0070534122687359868 -0.026352492003818069 -0.017681317514377987 0 -0.017681317514377987 -0.00020287002069557108 0 0 0 -0.0066388405061284309 0.037612086633968089 -0.015198690039310958 0 -0.015198690039310958 0.019970701139807479 0 0 0 0.014395696943443892 -0.017744309792356916 -0.0050480712736148126 0 -0.0050480712736148126 0.037925478917282651 0 0 0 0.0050452922812314338 -0.027661723775308789 -0.0072774654074248268 0 -0.0072774654074248268 0.0077770328685097256 0 0 0 -0.0049711727266997796 -0.057233027402281998 0.0049251208849991936 0 0.0049251208849991936 -0.0016727385644202848 0 0 0 -0.014726441491675575 -0.034842208052302072 -0.0069684156991004784 0 -0.0069684156991004784 0.034733103324332382 0 0 0 -2.7276181992424292e-05 -0.035197015903200346 -0.0059068223948670999 0 -0.0059068223948670999 0.042619924833635872 0 0 0 0.0018557272326088642 0.025624925108978389 0.049869124867421288 0 0.049869124867421288 0.14375605944518433 0 0 0 0.042345246138540668 -0.018139358659775229 -0.012740218928323617 0 -0.012740218928323617 0.16433190563553526 0 0 0 0.036548136743940016 0.01768013737473817 0.015432307961677728 0 0.015432307961677728 0.062225398313209723 0 0 0 0.019976383921986862 -0.015366925594496567 0.019314755169940384 0 0.019314755169940384 0.037506615353550599 0 0 0 0.0055349224397635149 -0.049848856501149674 -0.0079093657243627536 0 -0.0079093657243627536 0.00053587046996295129 0 0 0 -0.012328246507796847 -0.035064820480657156 0.0044032312848353745 0 0.0044032312848353745 -0.0039043404918704481 0 0 0 -0.0097422902431319059 -0.072611701200489376 -0.0089984226944523314 0 -0.0089984226944523314 -0.011172824035254277 0 0 0 -0.020946131308935911 -0.057612851875037979 0.0027909198836376611 0 0.0027909198836376611 -0.0066877581020096093 0 0 0 -0.016075152494261898 -0.0059240016750595698 0.0038000449989109703 0 0.0038000449989109703 -0.0097895784677732543 0 0 0 -0.0039283950357082067 -0.080264007507435786 -0.0053746401221230911 0 -0.0053746401221230911 -0.0012361641075317705 0 0 0 -0.020375042903741883 -0.070650703483676608 -0.0059370543014294194 0 -0.0059370543014294194 -0.015542234486003285 0 0 0 -0.021548234492419972 -0.1112472124058269 0.0043282404118452043 0 0.0043282404118452043 -0.00033373251438634233 0 0 0 -0.02789523623005331 -0.098579222012707635 0.0048108754701585953 0 0.0048108754701585953 -0.020625100733134991 0 0 0 -0.029801080686460653 -0.040947870484480217 -0.014283421469478613 0 -0.014283421469478613 0.017512242556933871 0 0 0 -0.0058589069818866107 -0.01130568722911485 0.0030436397123342726 0 0.0030436397123342726 -0.0096025722982043954 0 0 0 -0.0052270648818298106 0.025240955945021515 0.0258487953137434 0 0.0258487953137434 0.018760527551025197 0 0 0 0.011000370874011844 -0.016745450322474292 0.0012287801592355124 0 0.0012287801592355124 0.057408584181511957 0 0 0 0.010165783464759409 -0.0047718040515128367 0.026777591760552603 0 0.026777591760552603 0.057474133035751912 0 0 0 0.013175582246059764 -0.023629010516200699 -0.024864998926715842 0 -0.024864998926715842 0.024477548271140126 0 0 0 0.00021213443873482896 -0.0034822657503231448 0.00076816401278634316 0 0.00076816401278634316 0.0040346538960325104 0 0 0 0.00013809703642745231 0.0012328517924138885 -0.0057899983755300699 0 -0.0057899983755300699 0.0096464935686823485 0 0 0 0.0027198363402740036 0.0017004496332159488 0.0060056316135455035 0 0.0060056316135455035 0.028035309125591143 0 0 0 0.0074339396897022169 -0.0026135020783969987 -0.00082391558977623625 0 -0.00082391558977623625 0.0020619856059208089 0 0 0 -0.00013787911811907513 -0.0097207123497654591 0.0057957402958014326 0 0.0057957402958014326 -0.0050233849455489921 0 0 0 -0.0036860243238286405 -0.010373514870969047 -0.012771717776307034 0 -0.012771717776307034 -0.0036688938440195829 0 0 0 -0.0035106021787471575 -0.076128657146055212 -0.0097286905327769457 0 -0.0097286905327769457 -0.02533044528439575 0 0 0 -0.02536477560761274 -0.10525352394824419 0.010033417096749759 0 0.010033417096749759 -0.03501982916584704 0 0 0 -0.0350683382785228 -0.11944342963692225 0.010386599189648356 0 0.010386599189648356 -0.016181412642149673 0 0 0 -0.033906210569767982 -0.086873480226120889 -0.0097657893987867818 0 -0.0097657893987867818 -0.012085939009224597 0 0 0 -0.024739854808836372 -0.023047346627958737 -0.027152474954633077 0 -0.027152474954633077 0.0090578408484709438 0 0 0 -0.0034973764448719413 -0.035082359677716529 0.0043912757775667888 0 0.0043912757775667888 0.001755188762107153 0 0 0 -0.0083317927289023423 -0.029146537133879338 -0.018247796198920356 0 -0.018247796198920356 0.0066308006027647193 0 0 0 -0.0056289341327786374 -0.027246386145086149 -0.018103516226930245 0 -0.018103516226930245 -0.00043351563287075123 0 0 0 -0.0069199754444892181 -0.029331897774776485 0.0035440053812304893 0 0.0035440053812304893 0.0020529033127564605 0 0 0 -0.0068197486155050138 -0.018725235468357422 0.0049767201935168696 0 0.0049767201935168696 -0.0041089622909257616 0 0 0 -0.0057085494398207929 -0.018603117380799693 0.0056073819612166009 0 0.0056073819612166009 -0.0036972589224121243 0 0 0 -0.0055750940758029525 -0.036078966179557817 -0.031900060796187457 0 -0.031900060796187457 0.102911609972301 0 0 0 0.016708160948185793 0.014658632107725417 -0.0047859698460273881 0 -0.0047859698460273881 0.2957996055933001 0 0 0 0.077614559425256385 -0.05181902583255734 -0.0095278178234922128 0 -0.0095278178234922128 0.012239822951412016 0 0 0 -0.0098948007202863328 -0.018122337141552369 -0.002714253738104154 0 -0.002714253738104154 0.033670129593989073 0 0 0 0.0038869481131091621 -0.027076417878535208 -0.01031103795813243 0 -0.01031103795813243 0.021025830089598629 0 0 0 -0.0015126469472341308 -0.018999846561716802 0.0066111158361396843 0 0.0066111158361396843 0.005331866973280773 0 0 0 -0.0034169948971090151 -0.013424222567342214 0.028057833195647142 0 0.028057833195647142 0.038640947438654649 0 0 0 0.0063041812178279422 -0.025070521756169639 -0.012177481777068566 0 -0.012177481777068566 -0.0016889783422628923 0 0 0 -0.0066898750246081606 0.012531810458227044 -0.02353504327285913 0 -0.02353504327285913 0.046692123771620908 0 0 0 0.014805983557462002 -0.012007537614122991 -0.0040691878602650416 0 -0.0040691878602650416 0.011822226302277847 0 0 0 -4.6327827961271245e-05 -0.037817752671779337 0.0247000473743475 0 0.0247000473743475 0.0018125972562144099 0 0 0 -0.0090012888538912872 -0.018876169847334978 -0.023895849099162425 0 -0.023895849099162425 0.019874173886573976 0 0 0 0.00024950100980969392 -0.011229802566522396 -0.020970825240179333 0 -0.020970825240179333 0.018081864252722513 0 0 0 0.0017130154215500015 -0.017573100110282847 -0.0022894252033552054 0 -0.0022894252033552054 -0.012685125778912565 0 0 0 -0.0075645564722988112 -0.014511964612872019 -0.007614339392975622 0 -0.007614339392975622 0.044939153213201632 0 0 0 0.0076067971500824727 -0.01892215618041726 -0.0078727243624436942 0 -0.0078727243624436942 -0.0094107962703590536 0 0 0 -0.0070832381126940819 -0.015185604654128992 -0.006646069532473764 0 -0.006646069532473764 -0.034793063010756825 0 0 0 -0.01249466691622142 -0.039311355045146282 0.0052567676158338152 0 0.0052567676158338152 -0.004535519606754114 0 0 0 -0.010961718662975097 -0.034495981518122575 0.0053380145797013497 0 0.0053380145797013497 -0.0054119557638072895 0 0 0 -0.0099769843204824647 -0.034752784526746086 -0.002043258259005842 0 -0.002043258259005842 0.024969302363704145 0 0 0 -0.0024458705407604808 -0.036662634744711736 -0.012303763502956658 0 -0.012303763502956658 0.029446437165621009 0 0 0 -0.0018040493947726333 -0.027771275331793865 0.0031877588837303438 0 0.0031877588837303438 -0.0035770268297808661 0 0 0 -0.0078370755403936836 -0.024951208563117163 0.0046719456097330239 0 0.0046719456097330239 0.0027388367679183657 0 0 0 -0.0055530929487996976 -0.027412906732021396 0.0034647474913108963 0 0.0034647474913108963 0.0020282729756597373 0 0 0 -0.0063461584390904153 -0.0095159529233098672 0.0072927876683561987 0 0.0072927876683561987 -0.026531863172714498 0 0 0 -0.0090119540240061746 -0.0035305542565950976 0.0086207883906038452 0 0.0086207883906038452 -0.0078532467383355398 0 0 0 -0.0028459502487326871 -0.0040372149165926463 -0.013423643645050998 0 -0.013423643645050998 -0.00016042049111486545 0 0 0 -0.0010494088519268918 -0.010702822295666686 -0.011585405753863742 0 -0.011585405753863742 -0.020150248857897068 0 0 0 -0.007713267788390904 -0.0073291998855564283 -0.030818463833201463 0 -0.030818463833201463 0.10194664379136778 0 0 0 0.023654360976452848 -0.0022764853829682075 0.018728187210084402 0 0.018728187210084402 0.019141546789029462 0 0 0 0.0042162653515154247 -0.0010174357033121417 -0.0030811888467214832 0 -0.0030811888467214832 -0.0049352143107288526 0 0 0 -0.0014881625035105817 -0.0021083578817009396 -0.015438499868004607 0 -0.015438499868004607 0.0066145528496792672 0 0 0 0.0011265487419946929 -0.0011709242436752643 0.0037831149866316416 0 0.0037831149866316416 -0.0061074250993846668 0 0 0 -0.0018195873357649273 -0.041578099627975096 0.033042009290925378 0 0.033042009290925378 -0.0044369528416456916 0 0 0 -0.011503763117405086 -0.021866360458381751 -0.027584875956067137 0 -0.027584875956067137 0.0092473738298228803 0 0 0 -0.0031547466571397731 -0.01444208421087978 -0.025211361104045316 0 -0.025211361104045316 0.010212536331867028 0 0 0 -0.0010573869697532157 -0.03033497591284684 -0.004500473413015656 0 -0.004500473413015656 0.035023153748120248 0 0 0 0.0011720444588183554 0.00046332928695402842 0.012098629650698134 0 0.012098629650698134 0.0037357005720473069 0 0 0 0.0010497574647501118 -0.00035948732408797035 -0.00089166793451814219 0 -0.00089166793451814219 -0.00014808405963773197 0 0 0 -0.00012689284593125905 -0.00075797671264332678 0.00069624107395638291 0 0.00069624107395638291 0.00071548608101945632 0 0 0 -1.0622657906189659e-05 -0.00080419529959818714 -0.0099931279230627279 0 -0.0099931279230627279 -0.0058056344091870216 0 0 0 -0.0016524574271962189 -0.021663368476838918 -0.0046212072126352033 0 -0.0046212072126352033 -0.023231316907791788 0 0 0 -0.011223671346157538 0.016094087939510719 -0.024137800229685147 0 -0.024137800229685147 0.0060988330183634198 0 0 0 0.0055482302394685365 0.010668369339498898 0.00092917190459662624 0 0.00092917190459662624 0.05849822507084651 0 0 0 0.017291648602586376 0.015177921324978194 -0.0046334626988285277 0 -0.0046334626988285277 0.11000059459996581 0 0 0 0.031294628981236028 -0.014886736668929831 0.0058865032483651986 0 0.0058865032483651986 -0.0056866315790022048 0 0 0 -0.0051433420619830059 -0.066212596190068584 0.032899969804339568 0 0.032899969804339568 0.0014997760325501375 0 0 0 -0.016178205039379723 -0.070830981566244899 0.030055669504751817 0 0.030055669504751817 -0.0017407595087512995 0 0 0 -0.018142935268748994 -0.022406687989776693 -0.0069472118200339383 0 -0.0069472118200339383 -0.012119105449880752 0 0 0 -0.0086314483599143395 -0.026695727587246611 -0.00089708463729128163 0 -0.00089708463729128163 0.011441197990374557 0 0 0 -0.0038136323992180197 -0.03282759053155606 -0.017887813647141912 0 -0.017887813647141912 0.0053447462410443694 0 0 0 -0.0068707110726278983 -0.02705140854490018 -0.021374619911658552 0 -0.021374619911658552 0.016975336054729083 0 0 0 -0.002519018122542795 -0.043907657667032085 0.033798303676538299 0 0.033798303676538299 -0.004288272013040384 0 0 0 -0.012048982420018506 -0.020413101434385905 -0.025840882093559225 0 -0.025840882093559225 0.010870381004271401 0 0 0 -0.0023856801075284872 -0.022688479138752493 -0.02700584752665125 0 -0.02700584752665125 0.0087990109854347853 0 0 0 -0.0034723670383294269 -0.069229491504046989 0.0017690890897164163 0 0.0017690890897164163 -0.0065733533256292533 0 0 0 -0.01895071120741907 -0.096588804356819796 -0.0085401268173510587 0 -0.0085401268173510587 -0.011102481012582377 0 0 0 -0.02692282134235055 -0.088456497540024742 -0.01226945782284059 0 -0.01226945782284059 -0.00073052212530880234 0 0 0 -0.022296754916333379 -0.065428396815341808 0.0040600813032655812 0 0.0040600813032655812 -0.00083351068753454924 0 0 0 -0.01656547687571909 -0.030894084055465686 -0.001920894253463811 0 -0.001920894253463811 0.016866004156023347 0 0 0 -0.003507019974860563 -0.061494750312975022 0.02675383239512219 0 0.02675383239512219 -0.0051005483842283539 0 0 0 -0.0166488246743004 -0.012946088637139974 -0.02234083797908476 0 -0.02234083797908476 0.019162298686658641 0 0 0 0.0015540525123796112 -0.014162706889183641 -0.022964895250096901 0 -0.022964895250096901 0.015212005586011657 0 0 0 0.00026232467420705952 -0.042819662161762001 -0.025621178924808974 0 -0.025621178924808974 0.0072886292239405515 0 0 0 -0.0088827582344553069 -0.024466071581772518 -0.0057781627626105614 0 -0.0057781627626105614 -0.016239711878282298 0 0 0 -0.010176445865013699 -0.012293217309332916 -0.013827568697089156 0 -0.013827568697089156 -0.0048356325371690101 0 0 0 -0.0042822124616254745 -0.026230697558917028 -0.0056329924215723897 0 -0.0056329924215723897 0.011538685093903003 0 0 0 -0.003673003116253501 -0.057657252275275996 0.0059226800216556326 0 0.0059226800216556326 -0.0037684341860259162 0 0 0 -0.015356421615325477 -0.075351738530411244 0.047882021840973676 0 0.047882021840973676 0.013706364176032215 0 0 0 -0.015411343588594778 -0.048934152800730657 -0.021922873217702421 0 -0.021922873217702421 0.0084905183446026822 0 0 0 -0.010110908614031966 -0.015332572185452406 0.036749674975429247 0 0.036749674975429247 0.010300758234612406 0 0 0 -0.0012579534877096704 -0.030731654133868608 -0.02065177253470285 0 -0.02065177253470285 -0.0039294096402935075 0 0 0 -0.0086652659435405843 -0.010462554134583746 0.047956486018904565 0 0.047956486018904565 0.0036798565085378598 0 0 0 -0.001695674406511416 -0.053534214789525379 0.0049065644868856312 0 0.0049065644868856312 0.00050715942410772125 0 0 0 -0.01325676384135442 -0.028317307199448648 0.00043060316147355664 0 0.00043060316147355664 0.0079981303485325752 0 0 0 -0.0050797942127290214 -0.042075696901000881 -0.02310434091084701 0 -0.02310434091084701 0.0018194080145901292 0 0 0 -0.010064072221602771 -0.0053634155368153871 0.0092657039787613082 0 0.0092657039787613082 0.021840950533980275 0 0 0 0.0041193837492912375 -0.0079794802921831498 -0.013091841300141738 0 -0.013091841300141738 0.046786832495410602 0 0 0 0.0097018380508068769 -0.02653404290877602 0.001876533905018352 0 0.001876533905018352 0.0010002790204628564 0 0 0 -0.0063834409720782892 0.0014978109208332313 0.00017017810815178613 0 0.00017017810815178613 0.001040286567445925 0 0 0 0.00063452437206956702 -0.0051397002664281821 0.0018977512546414221 0 0.0018977512546414221 -0.00084931963924717024 0 0 0 -0.0014972549764187271 -0.00067357758982855565 -0.014383210903802679 0 -0.014383210903802679 0.015445984222793196 0 0 0 0.0036931016582411047 -0.00087006382215615297 -0.0069049945973819193 0 -0.0069049945973819193 0.01667209257477742 0 0 0 0.0039505071881553722 -0.0015078917145223691 0.0080588069979774524 0 0.0080588069979774524 0.040237233724121246 0 0 0 0.0096823355023993862 0.0010544962116483259 -0.00022241690211100007 0 -0.00022241690211100007 0.00053506858866203544 0 0 0 0.00039739120007764583 0.0015667861507875358 0.016003060134850866 0 0.016003060134850866 0.039879371135490338 0 0 0 0.010361539321569246 -0.0040472368799513436 -0.0016425715748291658 0 -0.0016425715748291658 -0.00090138968372777128 0 0 0 -0.0012371566409197232 -0.023895722093030369 -0.0081629209980479678 0 -0.0081629209980479678 -0.018597886417052845 0 0 0 -0.010623402127520776 -0.025938150423548856 -0.0086840752197789063 0 -0.0086840752197789063 0.0081859137584689989 0 0 0 -0.0044380591662699365 -0.031727651605828189 -0.010064335735912151 0 -0.010064335735912151 0.0061818634158087304 0 0 0 -0.0063864470475048229 -0.01445559724430763 -0.0015007629851990778 0 -0.0015007629851990778 -0.020340093991396732 0 0 0 -0.008698922808926049 -0.014775302954259745 0.00064816737003625668 0 0.00064816737003625668 -0.017012776279563657 0 0 0 -0.0079470198084558297 -0.018404474523535132 0.02371263296766328 0 0.02371263296766328 0.079849591897579869 0 0 0 0.015361279343511173 -0.037100702296689096 -0.015787605926104432 0 -0.015787605926104432 0.008147834862009401 0 0 0 -0.0072382168586699117 -0.038986784213022256 -0.023582218948533656 0 -0.023582218948533656 0.0038857339925098267 0 0 0 -0.0087752625551280952 -0.044297955451510128 0.0029261298753067398 0 0.0029261298753067398 0.0030243577716818904 0 0 0 -0.010318399419957047 -0.088813578426324646 0.032979476201383418 0 0.032979476201383418 0.0029649586509195025 0 0 0 -0.021462154943851286 -0.071903117543504758 0.046669245087063826 0 0.046669245087063826 0.032532571959388079 0 0 0 -0.0098426363960292251 -0.012529705690554671 0.022455564506260614 0 0.022455564506260614 0.051852305380869684 0 0 0 0.0098306499225787602 -0.020756494001711479 -0.0092934651846437264 0 -0.0092934651846437264 0.010765360024937998 0 0 0 -0.0024977834941933286 -0.025549292029526105 -0.010052148163255444 0 -0.010052148163255444 0.0093111809341920315 0 0 0 -0.004059527773833449 0.012220908193909058 0.029977833787301088 0 0.029977833787301088 0.054520530359212283 0 0 0 0.016685359638280342 -0.04947063775807789 -0.021013730859769819 0 -0.021013730859769819 0.015209469824387423 0 0 0 -0.0085652919834225127 -0.058378021263451776 -0.014416038323071645 0 -0.014416038323071645 0.001227515346012259 0 0 0 -0.014287626479359897 -0.0098523670177468742 0.019784808404931631 0 0.019784808404931631 0.039059866570945179 0 0 0 0.0073018748882995727 0.0011305191582045224 0.023988733069432 0 0.023988733069432 0.03079498201627389 0 0 0 0.0079813752936196067 -0.032533283922915129 -0.01269524773430139 0 -0.01269524773430139 0.016968564114803741 0 0 0 -0.0038911799520277845 -0.027230236965528481 -0.0029377629672119026 0 -0.0029377629672119026 0.0091021103795217786 0 0 0 -0.0045320316465016722 -0.026787707347599162 -0.0019494152929286426 0 -0.0019494152929286426 0.01646767436141186 0 0 0 -0.0025800082465468159 -0.027113884707210906 -0.00080824606641650282 0 -0.00080824606641650282 0.02792286825428681 0 0 0 0.00020224588676898483 0.0053255051268561449 0.018342972074846031 0 0.018342972074846031 0.088956725779759882 0 0 0 0.023570557726654284 -0.026441845655096163 -0.0054952226044451269 0 -0.0054952226044451269 0.00021581159131867089 0 0 0 -0.0065565085159444148 -0.053562258169927372 0.0068896882757206526 0 0.0068896882757206526 0.00049503764052299254 0 0 0 -0.01326680513235109 -0.018096077727203196 0.0048802351645639295 0 0.0048802351645639295 -0.0076870771361007961 0 0 0 -0.0064457887158259983 0.033638769487504883 0.016253983462922506 0 0.016253983462922506 0.04934288686897359 0 0 0 0.020745414089119674 -0.019586725834401686 -0.0054645642564660757 0 -0.0054645642564660757 -0.017239934727494077 0 0 0 -0.0092066651404740241 -0.044663505474722684 -0.023180500910827843 0 -0.023180500910827843 -0.0014966590311941974 0 0 0 -0.011540041126479231 -0.066370438118892261 -0.018993191955098711 0 -0.018993191955098711 0.0010509319013943808 0 0 0 -0.016329876554374463 -0.02704202987185178 -0.0090798083576495436 0 -0.0090798083576495436 0.033916609538088061 0 0 0 0.0017186449165590423 
</DataArray>
<DataArray type="Float64" Name="cross_section_updated" format="ascii">
0.0010072498704370872 0.0010180275110727953 0.0010248421225313184 0.0010314501389430636 0.0010384921113166454 0.0010463328697396755 0.0010550892209677325 0.0010641855495429496 0.0010735182737333809 0.0010819520140129301 0.0020265085902848911 0.0020687637881230594 0.0020981019143498157 0.0021250690717719493 0.0021519380948124894 0.002178996432728301 0.0022065253565224322 0.0022336295439330713 0.002260221582505848 0.0022851480036599143 1 1 1 1 1 1 1 1 1 1 1 1 1 1 1 1 1 1 1 1 1 1 1 1 1 1 1 1 1 1 1 1 1 1 1 1 1 1 1 1 1 1 1 1 1 1 1 1 1 1 1 1 1 1 1 1 1 1 1 1 1 1 1 1 1 1 1 1 1 1 1 1 1 1 1 1 1 1 1 1 1 1 1 1 1 1 1 1 1 1 1 1 1 1 1 1 1 1 1 1 1 1 1 1 1 1 1 1 1 1 1 1 1 1 1 1 1 1 1 1 1 1 1 1 1 1 1 1 1 1 1 1 1 1 1 1 1 1 1 1 1 1 1 1 1 1 1 1 1 1 1 1 1 1 1 1 1 1 1 1 1 1 1 1 1 1 1 1 1 1 1 1 1 1 1 1 1 1 1 1 1 1 1 1 1 1 1 1 1 1 1 1 1 1 1 1 1 1 1 1 1 1 1 1 1 1 1 1 1 1 1 1 1 1 1 1 1 1 1 1 1 1 1 1 1 1 1 1 1 1 1 1 1 1 1 1 1 1 1 1 1 1 1 1 1 1 1 1 1 1 1 1 1 1 1 1 1 1 1 1 1 1 1 1 1 1 1 1 1 1 1 1 1 1 1 1 1 1 1 1 1 1 1 1 1 1 1 1 1 1 1 1 1 1 1 1 1 1 1 1 1 1 1 1 1 1 1 1 1 1 1 1 1 1 1 1 1 1 1 1 1 1 1 1 1 1 1 1 1 1 1 1 1 1 1 1 1 1 1 1 1 1 1 1 1 1 1 1 1 1 1 1 1 1 1 1 1 1 1 1 1 1 1 1 1 1 1 1 1 1 1 1 1 1 1 1 1 1 1 1 1 1 1 1 1 1 1 1 1 1 1 1 1 1 1 1 1 1 1 1 1 1 1 1 1 1 1 1 1 1 1 1 1 1 1 1 1 1 1 1 1 1 1 1 1 1 1 1 1 1 1 1 1 1 1 1 1 1 1 1 1 1 1 1 1 1 1 1 1 1 1 1 1 1 1 1 1 1 1 1 1 1 1 1 1 1 1 1 1 1 1 1 1 1 1 1 1 1 1 1 1 1 1 1 1 1 1 1 1 1 1 1 1 1 1 1 1 1 1 1 1 1 1 1 1 1 1 1 1 1 1 1 1 1 1 1 1 1 1 1 1 1 1 1 1 1 1 1 1 1 1 1 1 1 1 1 1 1 1 1 1 1 1 1 1 1 1 1 1 1 1 1 1 1 1 1 1 1 1 1 1 1 1 1 1 1 1 1 1 1 1 1 1 1 1 1 1 1 1 1 1 1 1 1 1 1 1 1 1 1 1 1 1 1 1 1 1 1 1 1 1 1 1 1 1 1 1 1 1 1 1 1 1 1 1 1 1 1 1 1 1 1 1 1 1 1 1 1 1 1 1 1 1 1 1 1 1 1 1 1 1 1 1 1 1 1 1 1 1 1 1 1 1 1 1 1 1 1 1 1 1 1 1 1 1 1 1 1 1 1 1 1 1 1 1 1 1 1 1 1 1 1 1 1 1 1 1 1 1 1 1 1 1 1 1 1 1 1 1 1 1 1 1 1 1 1 1 1 1 1 1 1 1 1 1 1 1 1 1 1 1 1 1 1 1 1 1 1 1 1 1 1 1 1 1 1 1 1 1 1 1 1 1 1 1 1 1 1 1 1 1 1 1 1 1 1 1 1 1 1 1 1 1 1 1 1 1 1 1 1 1 1 1 1 1 1 1 1 1 1 1 1 1 1 1 1 1 1 1 1 1 1 1 1 1 1 1 1 1 1 1 1 1 1 1 1 1 1 1 1 1 1 1 1 1 1 1 1 1 1 1 1 1 1 1 1 1 1 1 1 1 1 1 1 1 1 1 1 1 1 1 1 1 1 1 1 1 1 1 1 1 1 1 1 1 1 1 1 1 1 1 1 1 1 1 1 1 1 1 1 1 1 1 1 1 1 1 1 1 1 1 1 1 1 1 1 1 1 1 1 1 1 1 1 1 1 1 1 1 1 1 1 1 1 1 1 1 1 1 1 1 1 1 1 1 1 1 1 1 1 1 1 1 1 1 1 1 1 1 1 1 1 1 1 1 1 1 1 1 1 1 1 1 1 1 1 1 1 1 1 1 1 1 1 1 1 1 1 1 1 1 1 1 1 1 1 1 1 1 1 1 1 1 1 1 1 1 1 1 1 1 1 1 1 1 1 1 1 1 1 1 1 1 1 1 1 1 1 1 1 1 1 1 1 1 1 1 1 1 1 1 1 1 1 1 1 1 1 1 1 1 1 1 1 1 1 1 1 1 1 1 1 1 1 
</DataArray>
</CellData>
</Piece>
</UnstructuredGrid>
</VTKFile>
