<?xml version="1.0"?>
<VTKFile type="UnstructuredGrid" version="0.1" byte_order="LittleEndian">
<UnstructuredGrid>
<Piece NumberOfPoints="3142" NumberOfCells="1054">
<Points>
<DataArray type="Float64" NumberOfComponents="3" format="ascii">
0.5 0.29999999999999999 0 0.54999999999999993 0.29999999999999999 0 0.54999999999999993 0.29999999999999999 0 0.59999999999999976 0.29999999999999999 0 0.59999999999999976 0.29999999999999999 0 0.6499999999999998 0.29999999999999999 0 0.6499999999999998 0.29999999999999999 0 0.69999999999999984 0.29999999999999999 0 0.69999999999999984 0.29999999999999999 0 0.74999999999999989 0.29999999999999999 0 0.74999999999999989 0.29999999999999999 0 0.79999999999999982 0.29999999999999999 0 0.79999999999999982 0.29999999999999999 0 0.84999999999999987 0.29999999999999999 0 0.84999999999999987 0.29999999999999999 0 0.89999999999999991 0.29999999999999999 0 0.89999999999999991 0.29999999999999999 0 0.94999999999999996 0.29999999999999999 0 0.94999999999999996 0.29999999999999999 0 1 0.29999999999999999 0 0.5 0.69999999999999996 0 0.54999999999999993 0.69999999999999996 0 0.54999999999999993 0.69999999999999996 0 0.59999999999999976 0.69999999999999996 0 0.59999999999999976 0.69999999999999996 0 0.6499999999999998 0.69999999999999996 0 0.6499999999999998 0.69999999999999996 0 0.69999999999999984 0.69999999999999996 0 0.69999999999999984 0.69999999999999996 0 0.74999999999999989 0.69999999999999996 0 0.74999999999999989 0.69999999999999996 0 0.79999999999999982 0.69999999999999996 0 0.79999999999999982 0.69999999999999996 0 0.84999999999999987 0.69999999999999996 0 0.84999999999999987 0.69999999999999996 0 0.89999999999999991 0.69999999999999996 0 0.89999999999999991 0.69999999999999996 0 0.94999999999999996 0.69999999999999996 0 0.94999999999999996 0.69999999999999996 0 1 0.69999999999999996 0 0.40076539126862748 0.34589349467022118 0 0.33277555741076909 0.36432196682010132 0 0.36575549820117997 0.31677992835137742 0 0.38083244760691543 0.38531983672244652 0 0.33277555741076909 0.36432196682010132 0 0.40076539126862748 0.34589349467022118 0 0.56836770495988642 0.3523062350852913 0 0.52289427570932567 0.3932284363388488 0 0.52752007115234678 0.33170632466418198 0 0.52752007115234678 0.33170632466418198 0 0.52289427570932567 0.3932284363388488 0 0.49077833859261139 0.35229981449445641 0 0.10000000000041601 1 0 0.053064897599294662 0.95186845269532028 0 0.10266856499240549 0.95548163909968886 0 0.099999999999814668 0 0 0.10266856499169109 0.044518360900210059 0 0.053064897599215843 0.048131547304697528 0 0.050000000000207989 1 0 0.053064897599294662 0.95186845269532028 0 0.10000000000041601 1 0 0.049999999999899652 0 0 0.099999999999814668 0 0 0.053064897599215843 0.048131547304697528 0 0.24999999999941211 0 0 0.29999999999926641 0 0 0.27499999999933927 0.060310814194988557 0 0.30000000000124832 1 0 0.25000000000104028 1 0 0.27609987656793722 0.94991445621608572 0 0.15720202157091859 0.60665697304410315 0 0.19914261668318661 0.62286739485272158 0 0.16500388252850301 0.66612077714085194 0 0.2236846579037573 0.67380363126050236 0 0.16500388252850301 0.66612077714085194 0 0.19914261668318661 0.62286739485272158 0 0.1247745017231483 0.27198077544791172 0 0.168349569971391 0.28054490850913671 0 0.14223753364722069 0.3341983344262433 0 0 0.75000000000034661 0 0 0.7000000000006934 0 0.049706944316475897 0.72477277076253799 0 0 0.30000000000124832 0 0 0.25000000000104028 0 0.049706944316556423 0.27522722923869108 0 0.59999999999999976 0.29999999999999999 0 0.61959173890754571 0.33832250091341232 0 0.56836770495988642 0.3523062350852913 0 0.5 0.69999999999999996 0 0.43323420005758778 0.6913544522562407 0 0.47913475093885149 0.66010775372412711 0 1 0.14999999999961891 0 0.95391631417672862 0.19584263333809451 0 0.93677536231883773 0.14999999999999089 0 1 0.84999999999982645 0 0.95391631417670719 0.89584263333814784 0 0.93677536231884972 0.85000000000000286 0 1 0.84999999999982645 0 0.93677536231884972 0.85000000000000286 0 0.95386563387742829 0.80414874155775029 0 1 0.14999999999961891 0 0.93677536231883773 0.14999999999999089 0 0.95386563387744361 0.1041487415577465 0 0.90416666666660628 0.9041666666666166 0 0.88088768115933802 0.84674609810493673 0 0.93677536231884972 0.85000000000000286 0 0.90416666666668166 0.20416666666667119 0 0.88088768115941807 0.14674609810479519 0 0.93677536231883773 0.14999999999999089 0 0.1247745017231483 0.27198077544791172 0 0.14223753364722069 0.3341983344262433 0 0.093851963071650835 0.30582068233324772 0 0.5 0.69999999999999996 0 0.45582236402875981 0.73896743678908217 0 0.43323420005758778 0.6913544522562407 0 0.55000000000173355 1 0 0.50000000000205869 1 0 0.52122150208832174 0.94089974453840242 0 0.49999999999869432 0 0 0.5499999999988151 0 0 0.52375890611712683 0.059318771819432882 0 0.54999999999999993 0.29999999999999999 0 0.59999999999999976 0.29999999999999999 0 0.56836770495988642 0.3523062350852913 0 0.50202631463681879 0.87892870825713787 0 0.44003836461056539 0.88093474584252718 0 0.45677673713123867 0.84253684404072415 0 0.33403534827021109 0.84402799729020661 0 0.35864759629805099 0.87963482415279515 0 0.30864387279288652 0.89906554525974958 0 0.53245488764484505 0.55078124999999989 0 0.47793794143994173 0.52940715638744962 0 0.53330375813596242 0.50827942741749099 0 0.82709327591102189 0.14937141670914489 0 0.81283102246527783 0.1881007222486438 0 0.77144070960558853 0.14311854477243749 0 0.82709327591091286 0.84937141670920724 0 0.81159157511211755 0.88795995483179491 0 0.76901770135486491 0.84293557325473656 0 0.77144070960558853 0.14311854477243749 0 0.81283102246527783 0.1881007222486438 0 0.76587607630038135 0.18880039518954719 0 0.76901770135486491 0.84293557325473656 0 0.81159157511211755 0.88795995483179491 0 0.76891166905518427 0.88835469571185499 0 0.33403534827021109 0.84402799729020661 0 0.30864387279288652 0.89906554525974958 0 0.29209212897034281 0.84715728365233667 0 0.57412547362576272 0.58273804879550706 0 0.5166924242153631 0.59825134841919447 0 0.53245488764484505 0.55078124999999989 0 0.50202631463681879 0.87892870825713787 0 0.47401147028110507 0.91529957330468115 0 0.44003836461056539 0.88093474584252718 0 0.5 0.69999999999999996 0 0.54999999999999993 0.69999999999999996 0 0.55363780716230748 0.74348740161571747 0 1 0.34999999999993492 0 0.95871855522754235 0.40006508612975411 0 0.95780851984364423 0.34215720972155339 0 1 0.64999999999986979 0 0.9578014258160763 0.65787212321113708 0 0.95867599106212187 0.60011091146651041 0 0.46666084890304671 0.57634471035397938 0 0.47793794143994173 0.52940715638744962 0 0.53245488764484505 0.55078124999999989 0 0.94999999999999996 0.29999999999999999 0 0.89898474358614167 0.25391965591104898 0 0.94399509803921056 0.24399509803922639 0 0.94999999999979179 1 0 0.89898474358632463 0.95391965591118966 0 0.94399509803919068 0.9439950980391687 0 0 0.65000000000104008 0 0.050069554451969707 0.61308520079857043 0 0.046634677244967337 0.671418230738282 0 0 0.35000000000145642 0 0.046389130980076937 0.32668781832131749 0 0.050583896093752537 0.38543522283434112 0 0.50202631463681879 0.87892870825713787 0 0.50627822638148745 0.8263979829520941 0 0.55899371797446828 0.85003102233514438 0 0.54782696902220018 0.79245182748204157 0 0.55899371797446828 0.85003102233514438 0 0.50627822638148745 0.8263979829520941 0 0.50945740445113552 0.75476055527778108 0 0.5 0.69999999999999996 0 0.55363780716230748 0.74348740161571747 0 0.84999999999965292 1 0 0.85170973911348691 0.93569607295217616 0 0.89898474358632463 0.95391965591118966 0 0.84999999999999987 0.29999999999999999 0 0.8517097391133297 0.2356960729520409 0 0.89898474358614167 0.25391965591104898 0 0.86956835336234861 0.571283299838105 0 0.82862096804812391 0.55037090955459045 0 0.86907294890112186 0.52008116128001669 0 0.49102375406324739 0.49123754822244059 0 0.53330375813596242 0.50827942741749099 0 0.47793794143994173 0.52940715638744962 0 0.57611405284611883 0.50165903596042916 0 0.61547661924074692 0.48539576058873962 0 0.62042975506801734 0.54295974692364424 0 0.71406021706547751 0.63292083137662503 0 0.67529834988829951 0.61613270668143583 0 0.71809016091162536 0.58185040402320831 0 0.65000000000104008 1 0 0.62065498684670595 0.95224934003983619 0 0.68015064798562208 0.95924320340003011 0 0.84999999999960507 0 0 0.899991664607802 0.045289349238254978 0 0.85491058998398861 0.060047533455626502 0 0.84999999999999987 0.69999999999999996 0 0.89999166460796554 0.74528934923809909 0 0.85491058998424563 0.76004753345552634 0 0.89999999999999991 0.29999999999999999 0 0.89898474358614167 0.25391965591104898 0 0.94999999999999996 0.29999999999999999 0 0.94999999999979179 1 0 0.89999999999958358 1 0 0.89898474358632463 0.95391965591118966 0 0.86411095495256451 0.42388805655111889 0 0.81308179852519835 0.39754945808726527 0 0.86844634540301924 0.38530937474099819 0 0.5 0.29999999999999999 0 0.49695729691142171 0.25014895411178018 0 0.54248833945060504 0.2520322959927106 0 0.86411095495256451 0.42388805655111889 0 0.81973119833356312 0.43505687159469048 0 0.81308179852519835 0.39754945808726527 0 0.67323294229744413 0.57556450033612505 0 0.71809016091162536 0.58185040402320831 0 0.67529834988829951 0.61613270668143583 0 0.6236733212988993 0.14864538214901801 0 0.68391457121233579 0.14440470121196541 0 0.64011864159029941 0.18789607982138171 0 0 0.050000000000207989 0 0.053064897599215843 0.048131547304697528 0 0.044310582753132287 0.101412518374475 0 0 0.94999999999979179 0 0.0443105827531413 0.89858748162559932 0 0.053064897599294662 0.95186845269532028 0 1 0.34999999999993492 0 1 0.39999999999978308 0 0.95871855522754235 0.40006508612975411 0 1 0.59999999999973963 0 1 0.64999999999986979 0 0.95867599106212187 0.60011091146651041 0 0 0.84999999999965292 0 0.065374659239661639 0.8551091961254178 0 0.0443105827531413 0.89858748162559932 0 0 0.15000000000062411 0 0.044310582753132287 0.101412518374475 0 0.065374659239632718 0.1448908038746782 0 0.16500388252850301 0.66612077714085194 0 0.1020579365089687 0.69352219419301997 0 0.1241190223511371 0.64391885572885044 0 0.14999999999970359 0 0 0.14618258501891079 0.062070108745602003 0 0.10266856499169109 0.044518360900210059 0 0.15000000000062411 1 0 0.10266856499240549 0.95548163909968886 0 0.14617343800780541 0.93808063414349496 0 0.7152569930854884 0.5237994455134295 0 0.67569444444444449 0.53500863336860327 0 0.69385896817107129 0.48377516041410151 0 0.6541250972820879 0.49999999999999989 0 0.62042975506801734 0.54295974692364424 0 0.61547661924074692 0.48539576058873962 0 0.94999999999999996 0.69999999999999996 0 0.94399509803918602 0.75600490196082126 0 0.89999166460796554 0.74528934923809909 0 0.94999999999986839 0 0 0.94399509803922566 0.056004901960802607 0 0.899991664607802 0.045289349238254978 0 0.6541250972820879 0.49999999999999989 0 0.69385896817107129 0.48377516041410151 0 0.67569444444444449 0.53500863336860327 0 0.82862096804812391 0.55037090955459045 0 0.81723410853263523 0.59419663659258926 0 0.77151014687832564 0.54436834383023036 0 0.7250000000005199 0.89375000000045834 0 0.66412543161245952 0.88015090885499059 0 0.68697391633157634 0.84450604838764298 0 0 0.94999999999979179 0 0 0.89999999999958358 0 0.0443105827531413 0.89858748162559932 0 0 0.10000000000041601 0 0 0.050000000000207989 0 0.044310582753132287 0.101412518374475 0 0.16500388252850301 0.66612077714085194 0 0.15332765547575641 0.71200081858233666 0 0.1020579365089687 0.69352219419301997 0 0.90299850604011456 0.79563452813489832 0 0.93677536231884972 0.85000000000000286 0 0.88088768115933802 0.84674609810493673 0 0.90299850604006393 0.09563452813493091 0 0.93677536231883773 0.14999999999999089 0 0.88088768115941807 0.14674609810479519 0 0.68391457121233579 0.14440470121196541 0 0.6865991819015953 0.189116534044597 0 0.64011864159029941 0.18789607982138171 0 0.085622222639554768 0.53333248912060549 0 0.1216098864341134 0.50637075089503902 0 0.1154888278694548 0.56733818459978413 0 0.21858834311891909 0.81980263716112767 0 0.22556077506376701 0.77837424984191617 0 0.26104540868854792 0.81401944968719064 0 0.81723410853263523 0.59419663659258926 0 0.77293540622714185 0.59448302402785813 0 0.77151014687832564 0.54436834383023036 0 0.1154888278694548 0.56733818459978413 0 0.1216098864341134 0.50637075089503902 0 0.14934928745814749 0.55042914607228977 0 0.1216098864341134 0.50637075089503902 0 0.068743045408989428 0.48853989837882689 0 0.113541300460994 0.46208784312094731 0 0.078358742472063481 0.43365249433908948 0 0.113541300460994 0.46208784312094731 0 0.068743045408989428 0.48853989837882689 0 0.83573492347052902 0.36590755630746369 0 0.81308179852519835 0.39754945808726527 0 0.78145581580700685 0.34881365920033602 0 0.57611405284611883 0.50165903596042916 0 0.62042975506801734 0.54295974692364424 0 0.57435499076887508 0.54267261987897775 0 0.86956835336234861 0.571283299838105 0 0.81723410853263523 0.59419663659258926 0 0.82862096804812391 0.55037090955459045 0 0.46666084890304671 0.57634471035397938 0 0.53245488764484505 0.55078124999999989 0 0.5166924242153631 0.59825134841919447 0 0.89999999999999991 0.69999999999999996 0 0.94999999999999996 0.69999999999999996 0 0.89999166460796554 0.74528934923809909 0 0.89999999999973679 0 0 0.94999999999986839 0 0 0.899991664607802 0.045289349238254978 0 0.84999999999960507 0 0 0.89999999999973679 0 0 0.899991664607802 0.045289349238254978 0 0.84999999999999987 0.69999999999999996 0 0.89999999999999991 0.69999999999999996 0 0.89999166460796554 0.74528934923809909 0 0.43545892161006339 0.61093128915313821 0 0.4089290844030305 0.58728915500154233 0 0.46666084890304671 0.57634471035397938 0 0.1650278706801647 0.38791388161335733 0 0.1117088112799664 0.38831403004970022 0 0.14223753364722069 0.3341983344262433 0 0.087545339447545459 0.35122518864182262 0 0.14223753364722069 0.3341983344262433 0 0.1117088112799664 0.38831403004970022 0 0.6916490518212759 0.75387992374886192 0 0.72501250972655151 0.74067302935308721 0 0.72500000000000064 0.7952620967744265 0 0.72501250972655151 0.74067302935308721 0 0.75841349681148107 0.75422312624214749 0 0.72500000000000064 0.7952620967744265 0 0.57412547362576272 0.58273804879550706 0 0.53245488764484505 0.55078124999999989 0 0.57435499076887508 0.54267261987897775 0 1 0.54999999999963112 0 0.95867599106212187 0.60011091146651041 0 0.93732437411268477 0.55911392101136159 0 1 0.44999999999963131 0 0.93814194660195893 0.44426664081746747 0 0.95871855522754235 0.40006508612975411 0 0.4089290844030305 0.58728915500154233 0 0.42644501560315817 0.54603747078095544 0 0.46666084890304671 0.57634471035397938 0 0.89999999999958358 1 0 0.84999999999965292 1 0 0.89898474358632463 0.95391965591118966 0 0.84999999999999987 0.29999999999999999 0 0.89898474358614167 0.25391965591104898 0 0.89999999999999991 0.29999999999999999 0 0.29999999999926641 0 0 0.32541448401678508 0.046215317981507749 0 0.27499999999933927 0.060310814194988557 0 0.30000000000124832 1 0 0.27609987656793722 0.94991445621608572 0 0.32544832635163229 0.95485394099568932 0 0.57412547362576272 0.58273804879550706 0 0.62042975506801734 0.54295974692364424 0 0.63065402604362242 0.59661356661633302 0 0.5 0.29999999999999999 0 0.54248833945060504 0.2520322959927106 0 0.54999999999999993 0.29999999999999999 0 0.67323294229744413 0.57556450033612505 0 0.62042975506801734 0.54295974692364424 0 0.67569444444444449 0.53500863336860327 0 0.6541250972820879 0.49999999999999989 0 0.67569444444444449 0.53500863336860327 0 0.62042975506801734 0.54295974692364424 0 1 0.14999999999961891 0 1 0.19999999999974799 0 0.95391631417672862 0.19584263333809451 0 1 0.84999999999982645 0 1 0.8999999999998336 0 0.95391631417670719 0.89584263333814784 0 1 0.7999999999998193 0 1 0.84999999999982645 0 0.95386563387742829 0.80414874155775029 0 1 0.099999999999753911 0 1 0.14999999999961891 0 0.95386563387744361 0.1041487415577465 0 0.4656888918609538 0.78493261229743638 0 0.50627822638148745 0.8263979829520941 0 0.45677673713123867 0.84253684404072415 0 0.6879972333610942 0.43038561374960838 0 0.72622533758026719 0.40265885511101601 0 0.73483647259922602 0.44789725365921768 0 0.67323294229744413 0.57556450033612505 0 0.67569444444444449 0.53500863336860327 0 0.71809016091162536 0.58185040402320831 0 0.7152569930854884 0.5237994455134295 0 0.71809016091162536 0.58185040402320831 0 0.67569444444444449 0.53500863336860327 0 0.65394964615507722 0.22666784374016369 0 0.59814117807200873 0.23398510860739519 0 0.64011864159029941 0.18789607982138171 0 0.55000000000173355 1 0 0.52122150208832174 0.94089974453840242 0 0.57382506491224949 0.9629411906298494 0 0.39801143831225599 0.16651381068160659 0 0.44288491854585582 0.14116182884956319 0 0.42905200079338551 0.19982395548231649 0 0.47357141910802508 0.1873585799078378 0 0.42905200079338551 0.19982395548231649 0 0.44288491854585582 0.14116182884956319 0 0.90594285160987287 0.4141265964174129 0 0.88594198078881503 0.46167788676578442 0 0.86411095495256451 0.42388805655111889 0 0.65507451745379841 0.92229208810758578 0 0.68015064798562208 0.95924320340003011 0 0.62065498684670595 0.95224934003983619 0 0.35312867752657662 0.084946736076730367 0 0.39591832466117061 0.056982757562006353 0 0.39823268594401579 0.1116623613130045 0 0.43698630808430822 0.080423614171545449 0 0.39823268594401579 0.1116623613130045 0 0.39591832466117061 0.056982757562006353 0 0.4367309254023824 0.92065556789053882 0 0.39641108128798319 0.94356127926187128 0 0.39767323751400468 0.89584229130535065 0 0.35752321586431363 0.9185439911803448 0 0.39767323751400468 0.89584229130535065 0 0.39641108128798319 0.94356127926187128 0 0.77354604466818633 0.40378688774472771 0 0.77972660463949339 0.45529290596363098 0 0.73483647259922602 0.44789725365921768 0 0.5499999999988151 0 0 0.57396793757665954 0.037011367187645222 0 0.52375890611712683 0.059318771819432882 0 0.64753070846764316 0.77332939069435502 0 0.60294066490120068 0.80851322453934582 0 0.59636844454254345 0.75937156204589151 0 0.49102375406324739 0.49123754822244059 0 0.48858720058566618 0.43964267759203868 0 0.53823865529665704 0.45873898050322898 0 0.28307294598219601 0.50789252727458634 0 0.29110487519241501 0.56588143995431495 0 0.25115337790845271 0.54719303014923271 0 0.79680861578988083 0.92656778056766709 0 0.81159157511211755 0.88795995483179491 0 0.85170973911348691 0.93569607295217616 0 0.79680861578956375 0.22656778056752541 0 0.81283102246527783 0.1881007222486438 0 0.8517097391133297 0.2356960729520409 0 0.57412547362576272 0.58273804879550706 0 0.57435499076887508 0.54267261987897775 0 0.62042975506801734 0.54295974692364424 0 0.93814194660195893 0.44426664081746747 0 0.88594198078881503 0.46167788676578442 0 0.90594285160987287 0.4141265964174129 0 0.7152569930854884 0.5237994455134295 0 0.73947346780852752 0.49062440112282169 0 0.77151014687832564 0.54436834383023036 0 0 0.7000000000006934 0 0.046634677244967337 0.671418230738282 0 0.049706944316475897 0.72477277076253799 0 0 0.30000000000124832 0 0.049706944316556423 0.27522722923869108 0 0.046389130980076937 0.32668781832131749 0 0.59814117807200873 0.23398510860739519 0 0.59443395090188023 0.18455690917515069 0 0.64011864159029941 0.18789607982138171 0 0.21858834311891909 0.81980263716112767 0 0.26104540868854792 0.81401944968719064 0 0.2401283238295133 0.85648409884788523 0 0.39536230704883951 0.84069429572832477 0 0.45677673713123867 0.84253684404072415 0 0.44003836461056539 0.88093474584252718 0 0.086179601630648681 0.64647209519980475 0 0.050069554451969707 0.61308520079857043 0 0.1024350934457823 0.60772393977513839 0 0.077693244765132896 0.56932317963405099 0 0.1024350934457823 0.60772393977513839 0 0.050069554451969707 0.61308520079857043 0 0.078358742472063481 0.43365249433908948 0 0.050583896093752537 0.38543522283434112 0 0.1117088112799664 0.38831403004970022 0 0.087545339447545459 0.35122518864182262 0 0.1117088112799664 0.38831403004970022 0 0.050583896093752537 0.38543522283434112 0 0.33403534827021109 0.84402799729020661 0 0.35642984951668422 0.80994399665655703 0 0.39536230704883951 0.84069429572832477 0 0.28307294598219601 0.50789252727458634 0 0.33190227185843768 0.52715113583864037 0 0.29110487519241501 0.56588143995431495 0 0.2236846579037573 0.67380363126050236 0 0.19068556247388771 0.71028988922845504 0 0.16500388252850301 0.66612077714085194 0 0.26104540868854792 0.81401944968719064 0 0.22556077506376701 0.77837424984191617 0 0.2792923945214143 0.77665808831789485 0 0.38244435121258652 0.51653317813019495 0 0.37272913873093971 0.56192925302619479 0 0.33190227185843768 0.52715113583864037 0 0.25195515620380449 0.25883339815888678 0 0.29132859388405002 0.27203693976649962 0 0.24432083401701241 0.3006253385567515 0 0.29348325746214782 0.31350119524708198 0 0.24432083401701241 0.3006253385567515 0 0.29132859388405002 0.27203693976649962 0 0 0.89999999999958358 0 0 0.84999999999965292 0 0.0443105827531413 0.89858748162559932 0 0 0.15000000000062411 0 0 0.10000000000041601 0 0.044310582753132287 0.101412518374475 0 0.59999999999999976 0.69999999999999996 0 0.59636844454254345 0.75937156204589151 0 0.55363780716230748 0.74348740161571747 0 0.1650278706801647 0.38791388161335733 0 0.22033343844674469 0.36963382230740238 0 0.191953871957803 0.42546416763755879 0 0.52289427570932567 0.3932284363388488 0 0.46655310992796922 0.39650496622958609 0 0.49077833859261139 0.35229981449445641 0 0.91696753777131557 0.497780560203536 0 0.88594198078881503 0.46167788676578442 0 0.93814194660195893 0.44426664081746747 0 0.24999999999941211 0 0 0.27499999999933927 0.060310814194988557 0 0.22668068146512929 0.045875643423131329 0 0.25000000000104028 1 0 0.22850979588452081 0.95594428570238643 0 0.27609987656793722 0.94991445621608572 0 0.77846603114747959 0.49850927265137401 0 0.77151014687832564 0.54436834383023036 0 0.73947346780852752 0.49062440112282169 0 0.27499999999933927 0.060310814194988557 0 0.27474541102162192 0.11822029332053539 0 0.24218496799700481 0.089025544070598317 0 0.27270076654418179 0.87751467830216623 0 0.29209212897034281 0.84715728365233667 0 0.30864387279288652 0.89906554525974958 0 0.3096713403101819 0.085471541595262421 0 0.27474541102162192 0.11822029332053539 0 0.27499999999933927 0.060310814194988557 0 0.17933913398461551 0.2350063570234002 0 0.18124454140915969 0.18790916706335251 0 0.224700362040408 0.22206622194729711 0 0.18269480424590959 0.75905448272264375 0 0.22556077506376701 0.77837424984191617 0 0.17777405986036951 0.81832336108265358 0 0.35864759629805099 0.87963482415279515 0 0.33403534827021109 0.84402799729020661 0 0.39536230704883951 0.84069429572832477 0 0.77354604466818633 0.40378688774472771 0 0.73483647259922602 0.44789725365921768 0 0.72622533758026719 0.40265885511101601 0 0.80185942888539485 0.77452061303608133 0 0.85491058998424563 0.76004753345552634 0 0.84725310900444062 0.80779732082917555 0 0.80185942888501827 0.074520613036224564 0 0.85491058998398861 0.060047533455626502 0 0.84725310900442086 0.10779732082922661 0 0.086179601630648681 0.64647209519980475 0 0.046634677244967337 0.671418230738282 0 0.050069554451969707 0.61308520079857043 0 0.087545339447545459 0.35122518864182262 0 0.050583896093752537 0.38543522283434112 0 0.046389130980076937 0.32668781832131749 0 0 0.75000000000034661 0 0.049706944316475897 0.72477277076253799 0 0.04408157711937423 0.7728941757575627 0 0 0.25000000000104028 0 0.044081577119474857 0.2271058242433576 0 0.049706944316556423 0.27522722923869108 0 0.52289427570932567 0.3932284363388488 0 0.56836770495988642 0.3523062350852913 0 0.57744073070774993 0.41535148636609359 0 0.6084546825910605 0.37989672713932537 0 0.57744073070774993 0.41535148636609359 0 0.56836770495988642 0.3523062350852913 0 0.61343887413683884 0.856862479058357 0 0.55899371797446828 0.85003102233514438 0 0.60294066490120068 0.80851322453934582 0 0.54782696902220018 0.79245182748204157 0 0.60294066490120068 0.80851322453934582 0 0.55899371797446828 0.85003102233514438 0 0.40326160981139969 0.73346192995102844 0 0.36622285152418499 0.69092437780804039 0 0.43323420005758778 0.6913544522562407 0 0.52289427570932567 0.3932284363388488 0 0.48858720058566618 0.43964267759203868 0 0.46655310992796922 0.39650496622958609 0 0.15720202157091859 0.60665697304410315 0 0.1154888278694548 0.56733818459978413 0 0.14934928745814749 0.55042914607228977 0 0.6879972333610942 0.43038561374960838 0 0.73483647259922602 0.44789725365921768 0 0.69385896817107129 0.48377516041410151 0 0.7250000000005199 0.89375000000045834 0 0.68987011941058407 0.92105047536677087 0 0.66412543161245952 0.88015090885499059 0 0.83573492347052902 0.36590755630746369 0 0.78145581580700685 0.34881365920033602 0 0.82500000000000062 0.33010209762754811 0 0.82862096804812391 0.55037090955459045 0 0.81441713509985358 0.51161854125224959 0 0.86907294890112186 0.52008116128001669 0 0.19670163708476801 0.31472518408333222 0 0.14223753364722069 0.3341983344262433 0 0.168349569971391 0.28054490850913671 0 0.50202631463681879 0.87892870825713787 0 0.45677673713123867 0.84253684404072415 0 0.50627822638148745 0.8263979829520941 0 0.099999999999814668 0 0 0.14999999999970359 0 0 0.10266856499169109 0.044518360900210059 0 0.15000000000062411 1 0 0.10000000000041601 1 0 0.10266856499240549 0.95548163909968886 0 0.67323294229744413 0.57556450033612505 0 0.63065402604362242 0.59661356661633302 0 0.62042975506801734 0.54295974692364424 0 0.083105206071467416 0.20007701332709979 0 0.13737030665753211 0.20313708640667491 0 0.095326043202144745 0.24554465089224409 0 0.083105206071452636 0.79992298667296435 0 0.090953281884486245 0.7564451946902494 0 0.1382744753146134 0.79650574229207483 0 0.50000000000205869 1 0 0.47135117303824892 0.95556877749289892 0 0.52122150208832174 0.94089974453840242 0 0.49999999999869432 0 0 0.52375890611712683 0.059318771819432882 0 0.47040171442036788 0.044141676406503738 0 0.4656888918609538 0.78493261229743638 0 0.45582236402875981 0.73896743678908217 0 0.50945740445113552 0.75476055527778108 0 0.5 0.69999999999999996 0 0.50945740445113552 0.75476055527778108 0 0.45582236402875981 0.73896743678908217 0 0.55306006949600994 0.20198184231352201 0 0.56202748619534593 0.15054058349222879 0 0.59443395090188023 0.18455690917515069 0 0.6236733212988993 0.14864538214901801 0 0.59443395090188023 0.18455690917515069 0 0.56202748619534593 0.15054058349222879 0 0.57412547362576272 0.58273804879550706 0 0.5498280205245758 0.6290146943450976 0 0.5166924242153631 0.59825134841919447 0 0.91696753777131557 0.497780560203536 0 0.93814194660195893 0.44426664081746747 0 0.96228564064454991 0.48206450662049471 0 0.15720202157091859 0.60665697304410315 0 0.16500388252850301 0.66612077714085194 0 0.1241190223511371 0.64391885572885044 0 0.44288491854585582 0.14116182884956319 0 0.47881186583059909 0.093591717165689425 0 0.48466639505193998 0.1421439844745814 0 1 0.54999999999963112 0 0.93732437411268477 0.55911392101136159 0 0.95631871884947484 0.51827533208233789 0 0.57724883562309992 0.92155686857100794 0 0.57382506491224949 0.9629411906298494 0 0.52122150208832174 0.94089974453840242 0 0.85170973911348691 0.93569607295217616 0 0.81159157511211755 0.88795995483179491 0 0.85600844944837662 0.88483418979512773 0 0.8517097391133297 0.2356960729520409 0 0.81283102246527783 0.1881007222486438 0 0.85600844944842547 0.1848341897950983 0 0.27866744612395528 0.38416094670951489 0 0.29124338931648802 0.43334555462578611 0 0.24049127783545701 0.41270748208749802 0 0.6084546825910605 0.37989672713932537 0 0.56836770495988642 0.3523062350852913 0 0.61959173890754571 0.33832250091341232 0 0.20050006573841939 0.53248514016039872 0 0.25115337790845271 0.54719303014923271 0 0.22549374774072969 0.58452645269293457 0 0.26573297623774761 0.59828298563722948 0 0.22549374774072969 0.58452645269293457 0 0.25115337790845271 0.54719303014923271 0 0.26104540868854792 0.81401944968719064 0 0.29209212897034281 0.84715728365233667 0 0.2401283238295133 0.85648409884788523 0 0.6236733212988993 0.14864538214901801 0 0.65290632656860115 0.11434202593454081 0 0.68391457121233579 0.14440470121196541 0 0.19901705110390991 0.9175543425573498 0 0.19741632902693801 0.86755867406447229 0 0.24536017905392571 0.90704567837671446 0 0.72500000000000064 0.7952620967744265 0 0.76901770135486491 0.84293557325473656 0 0.72863726579783861 0.85390518901155588 0 0.72500000000000064 0.7952620967744265 0 0.72863726579783861 0.85390518901155588 0 0.68697391633157634 0.84450604838764298 0 0.7250000000005199 0.89375000000045834 0 0.68697391633157634 0.84450604838764298 0 0.72863726579783861 0.85390518901155588 0 0.72525833953073282 0.1032114801687094 0 0.77144070960558853 0.14311854477243749 0 0.72634814642510737 0.16106886917518889 0 0.72525833953073282 0.1032114801687094 0 0.72634814642510737 0.16106886917518889 0 0.68391457121233579 0.14440470121196541 0 0.36622285152418499 0.69092437780804039 0 0.3977710372045391 0.65868194622830212 0 0.43323420005758778 0.6913544522562407 0 0 0.65000000000104008 0 0 0.60000000000138687 0 0.050069554451969707 0.61308520079857043 0 0 0.40000000000166441 0 0 0.35000000000145642 0 0.050583896093752537 0.38543522283434112 0 0.22033343844674469 0.36963382230740238 0 0.24049127783545701 0.41270748208749802 0 0.191953871957803 0.42546416763755879 0 0.5 0.29999999999999999 0 0.4604742573284204 0.27846934318264788 0 0.49695729691142171 0.25014895411178018 0 0.19741632902693801 0.86755867406447229 0 0.2401283238295133 0.85648409884788523 0 0.24536017905392571 0.90704567837671446 0 0 0.50000000000205869 0 0.068743045408989428 0.48853989837882689 0 0.044576108720083309 0.53509043209532614 0 0.15000000000062411 1 0 0.14617343800780541 0.93808063414349496 0 0.18474005699953849 0.96231585248064622 0 0.14999999999970359 0 0 0.184418230509967 0.038773194583122873 0 0.14618258501891079 0.062070108745602003 0 0.57667858002728545 0.078486105337742612 0 0.52375890611712683 0.059318771819432882 0 0.57396793757665954 0.037011367187645222 0 0.113541300460994 0.46208784312094731 0 0.078358742472063481 0.43365249433908948 0 0.13773355295499351 0.42497777642586831 0 0.77354604466818633 0.40378688774472771 0 0.78145581580700685 0.34881365920033602 0 0.81308179852519835 0.39754945808726527 0 0.38244435121258652 0.51653317813019495 0 0.33190227185843768 0.52715113583864037 0 0.35024835142131061 0.48654922671676981 0 0.64753070846764316 0.77332939069435502 0 0.65005442820240822 0.82644988530054031 0 0.60294066490120068 0.80851322453934582 0 0.15720202157091859 0.60665697304410315 0 0.1024350934457823 0.60772393977513839 0 0.1154888278694548 0.56733818459978413 0 0.90416666666660628 0.9041666666666166 0 0.85600844944837662 0.88483418979512773 0 0.88088768115933802 0.84674609810493673 0 0.90416666666668166 0.20416666666667119 0 0.85600844944842547 0.1848341897950983 0 0.88088768115941807 0.14674609810479519 0 0.078358742472063481 0.43365249433908948 0 0.1117088112799664 0.38831403004970022 0 0.13773355295499351 0.42497777642586831 0 0.38244435121258652 0.51653317813019495 0 0.3908716102680424 0.47010282357248828 0 0.43507373378304309 0.49699695397193322 0 0.90299850604011456 0.79563452813489832 0 0.95386563387742829 0.80414874155775029 0 0.93677536231884972 0.85000000000000286 0 0.90416666666660628 0.9041666666666166 0 0.93677536231884972 0.85000000000000286 0 0.95391631417670719 0.89584263333814784 0 0.90299850604006393 0.09563452813493091 0 0.95386563387744361 0.1041487415577465 0 0.93677536231883773 0.14999999999999089 0 0.90416666666668166 0.20416666666667119 0 0.93677536231883773 0.14999999999999089 0 0.95391631417672862 0.19584263333809451 0 0.39536230704883951 0.84069429572832477 0 0.44003836461056539 0.88093474584252718 0 0.39767323751400468 0.89584229130535065 0 0.51076801031701946 0.1202837388510348 0 0.52375890611712683 0.059318771819432882 0 0.54979595918804436 0.1060565713905809 0 0.57667858002728545 0.078486105337742612 0 0.54979595918804436 0.1060565713905809 0 0.52375890611712683 0.059318771819432882 0 0.57724883562309992 0.92155686857100794 0 0.52122150208832174 0.94089974453840242 0 0.54783390826260769 0.89287767010860219 0 0.50202631463681879 0.87892870825713787 0 0.54783390826260769 0.89287767010860219 0 0.52122150208832174 0.94089974453840242 0 0.087545339447545459 0.35122518864182262 0 0.093851963071650835 0.30582068233324772 0 0.14223753364722069 0.3341983344262433 0 0.54999999999999993 0.69999999999999996 0 0.59999999999999976 0.69999999999999996 0 0.55363780716230748 0.74348740161571747 0 0.083105206071452636 0.79992298667296435 0 0.1074251789111534 0.83564394292147814 0 0.065374659239661639 0.8551091961254178 0 0.083105206071467416 0.20007701332709979 0 0.065374659239632718 0.1448908038746782 0 0.106902708054812 0.16453234188234539 0 0.52289427570932567 0.3932284363388488 0 0.53823865529665704 0.45873898050322898 0 0.48858720058566618 0.43964267759203868 0 0.13737030665753211 0.20313708640667491 0 0.14377654328998779 0.2442024734791064 0 0.095326043202144745 0.24554465089224409 0 0.1382744753146134 0.79650574229207483 0 0.090953281884486245 0.7564451946902494 0 0.14335651144331049 0.75565258250209677 0 0.27270076654418179 0.87751467830216623 0 0.30864387279288652 0.89906554525974958 0 0.24536017905392571 0.90704567837671446 0 0.27609987656793722 0.94991445621608572 0 0.24536017905392571 0.90704567837671446 0 0.30864387279288652 0.89906554525974958 0 0.90299850604011456 0.79563452813489832 0 0.84725310900444062 0.80779732082917555 0 0.85491058998424563 0.76004753345552634 0 0.90299850604006393 0.09563452813493091 0 0.84725310900442086 0.10779732082922661 0 0.85491058998398861 0.060047533455626502 0 1 0.54999999999963112 0 1 0.59999999999973963 0 0.95867599106212187 0.60011091146651041 0 1 0.39999999999978308 0 1 0.44999999999963131 0 0.95871855522754235 0.40006508612975411 0 0.28040350263641872 0.23054717217092141 0 0.25195515620380449 0.25883339815888678 0 0.224700362040408 0.22206622194729711 0 0.84999999999999987 0.29999999999999999 0 0.87430060258887643 0.34056085888204451 0 0.82500000000000062 0.33010209762754811 0 0.84999999999999987 0.69999999999999996 0 0.82457059160610424 0.66831947184359608 0 0.87712158428786946 0.65709029563313581 0 0.86956835336234861 0.571283299838105 0 0.87159648282691515 0.61285406320581504 0 0.81723410853263523 0.59419663659258926 0 0.43698630808430822 0.080423614171545449 0 0.47881186583059909 0.093591717165689425 0 0.44288491854585582 0.14116182884956319 0 1 0.44999999999963131 0 0.96228564064454991 0.48206450662049471 0 0.93814194660195893 0.44426664081746747 0 0.35752321586431363 0.9185439911803448 0 0.30864387279288652 0.89906554525974958 0 0.35864759629805099 0.87963482415279515 0 0.29124338931648802 0.43334555462578611 0 0.25982634974572738 0.46097799597715272 0 0.24049127783545701 0.41270748208749802 0 0.51076801031701946 0.1202837388510348 0 0.56202748619534593 0.15054058349222879 0 0.51729576145820033 0.1683240575987815 0 0.55306006949600994 0.20198184231352201 0 0.51729576145820033 0.1683240575987815 0 0.56202748619534593 0.15054058349222879 0 0.26429849586623999 0.19346700179430079 0 0.28040350263641872 0.23054717217092141 0 0.224700362040408 0.22206622194729711 0 0.51076801031701946 0.1202837388510348 0 0.48466639505193998 0.1421439844745814 0 0.47881186583059909 0.093591717165689425 0 0.2185883431182947 0.18019736283949719 0 0.26429849586623999 0.19346700179430079 0 0.224700362040408 0.22206622194729711 0 0.18269480424590959 0.75905448272264375 0 0.2248999640082178 0.72584299459689172 0 0.22556077506376701 0.77837424984191617 0 0.51076801031701946 0.1202837388510348 0 0.47881186583059909 0.093591717165689425 0 0.52375890611712683 0.059318771819432882 0 0.50202631463681879 0.87892870825713787 0 0.52122150208832174 0.94089974453840242 0 0.47401147028110507 0.91529957330468115 0 0 0.84999999999965292 0 0.038512288486097702 0.8155852717111195 0 0.065374659239661639 0.8551091961254178 0 0 0.15000000000062411 0 0.065374659239632718 0.1448908038746782 0 0.038512288486115001 0.1844147282893184 0 0.2185883431182947 0.18019736283949719 0 0.224700362040408 0.22206622194729711 0 0.18124454140915969 0.18790916706335251 0 0.21858834311891909 0.81980263716112767 0 0.17777405986036951 0.81832336108265358 0 0.22556077506376701 0.77837424984191617 0 0.1215415378367805 0.72939333680004137 0 0.1020579365089687 0.69352219419301997 0 0.15332765547575641 0.71200081858233666 0 0.49695729691142171 0.25014895411178018 0 0.50760557329222289 0.20700468884612061 0 0.54248833945060504 0.2520322959927106 0 0.15720202157091859 0.60665697304410315 0 0.14934928745814749 0.55042914607228977 0 0.18381867841758909 0.57774125163628387 0 0.90416666666660628 0.9041666666666166 0 0.85170973911348691 0.93569607295217616 0 0.85600844944837662 0.88483418979512773 0 0.90416666666668166 0.20416666666667119 0 0.8517097391133297 0.2356960729520409 0 0.85600844944842547 0.1848341897950983 0 0.17933913398461551 0.2350063570234002 0 0.13737030665753211 0.20313708640667491 0 0.18124454140915969 0.18790916706335251 0 0.18269480424590959 0.75905448272264375 0 0.17777405986036951 0.81832336108265358 0 0.1382744753146134 0.79650574229207483 0 0.1216098864341134 0.50637075089503902 0 0.15801167086041079 0.46008690540259539 0 0.16618607197337229 0.50652878253548905 0 0.50760557329222289 0.20700468884612061 0 0.55306006949600994 0.20198184231352201 0 0.54248833945060504 0.2520322959927106 0 0.75000000000034661 1 0 0.7000000000006934 1 0 0.7250000000005199 0.94981617647078953 0 0.69999999999999984 0.29999999999999999 0 0.72500000000000064 0.2498161764706 0 0.74999999999999989 0.29999999999999999 0 0.72525833953073282 0.1032114801687094 0 0.68391457121233579 0.14440470121196541 0 0.68330259535470161 0.10038702501083881 0 0.43249999999999988 0.43937499999999979 0 0.46655310992796922 0.39650496622958609 0 0.48858720058566618 0.43964267759203868 0 0.19901705110390991 0.9175543425573498 0 0.14617343800780541 0.93808063414349496 0 0.16206583317966519 0.89685560785156404 0 0.19922788606653311 0.085920220746880993 0 0.16141998738593399 0.10404039647458049 0 0.14618258501891079 0.062070108745602003 0 0.31378396441836959 0.70157213313026345 0 0.26439878998046262 0.7048065392091396 0 0.27820712747429932 0.65530134213254643 0 0.1216098864341134 0.50637075089503902 0 0.113541300460994 0.46208784312094731 0 0.15801167086041079 0.46008690540259539 0 0.6084546825910605 0.37989672713932537 0 0.65481233915350323 0.35652751921065562 0 0.63912439215427275 0.41063340167983359 0 0.19901705110390991 0.9175543425573498 0 0.18474005699953849 0.96231585248064622 0 0.14617343800780541 0.93808063414349496 0 0.19922788606653311 0.085920220746880993 0 0.14618258501891079 0.062070108745602003 0 0.184418230509967 0.038773194583122873 0 0.38244435121258652 0.51653317813019495 0 0.35024835142131061 0.48654922671676981 0 0.3908716102680424 0.47010282357248828 0 0.82709327591102189 0.14937141670914489 0 0.77144070960558853 0.14311854477243749 0 0.80076557130237269 0.1154587552654202 0 0.82709327591091286 0.84937141670920724 0 0.76901770135486491 0.84293557325473656 0 0.80041942726660109 0.81543261647703358 0 0.43698630808430822 0.080423614171545449 0 0.44288491854585582 0.14116182884956319 0 0.39823268594401579 0.1116623613130045 0 0.39801143831225599 0.16651381068160659 0 0.39823268594401579 0.1116623613130045 0 0.44288491854585582 0.14116182884956319 0 0.36575549820117997 0.31677992835137742 0 0.3786248352540974 0.27082301512024259 0 0.41914690343363781 0.30688979866601612 0 0.42377727103934271 0.25099357235810238 0 0.41914690343363781 0.30688979866601612 0 0.3786248352540974 0.27082301512024259 0 0.049706944316475897 0.72477277076253799 0 0.1020579365089687 0.69352219419301997 0 0.090953281884486245 0.7564451946902494 0 0.1215415378367805 0.72939333680004137 0 0.090953281884486245 0.7564451946902494 0 0.1020579365089687 0.69352219419301997 0 0.1247745017231483 0.27198077544791172 0 0.093851963071650835 0.30582068233324772 0 0.095326043202144745 0.24554465089224409 0 0.049706944316556423 0.27522722923869108 0 0.095326043202144745 0.24554465089224409 0 0.093851963071650835 0.30582068233324772 0 0.77354604466818633 0.40378688774472771 0 0.81973119833356312 0.43505687159469048 0 0.77972660463949339 0.45529290596363098 0 0.43249999999999988 0.43937499999999979 0 0.43507373378304309 0.49699695397193322 0 0.3908716102680424 0.47010282357248828 0 0.26573297623774761 0.59828298563722948 0 0.2459498854893499 0.63248470766216769 0 0.22549374774072969 0.58452645269293457 0 0.72500000000000064 0.7952620967744265 0 0.77094201086366854 0.79647480515688507 0 0.76901770135486491 0.84293557325473656 0 0.72525833953073282 0.1032114801687094 0 0.76878382444651716 0.097147941686331368 0 0.77144070960558853 0.14311854477243749 0 0.72500000000000064 0.7952620967744265 0 0.68697391633157634 0.84450604838764298 0 0.68024162096458085 0.79868546898116533 0 0.31378396441836959 0.70157213313026345 0 0.29904318922293632 0.74132814928635593 0 0.26439878998046262 0.7048065392091396 0 0.31378396441836959 0.70157213313026345 0 0.35415581127540569 0.73730480045900215 0 0.29904318922293632 0.74132814928635593 0 0.61343887413683884 0.856862479058357 0 0.65005442820240822 0.82644988530054031 0 0.66412543161245952 0.88015090885499059 0 0.68697391633157634 0.84450604838764298 0 0.66412543161245952 0.88015090885499059 0 0.65005442820240822 0.82644988530054031 0 0.083411279318375747 0.91030024466934134 0 0.065374659239661639 0.8551091961254178 0 0.10562472963403439 0.87143394428979881 0 0.083411279318303222 0.089699755330707398 0 0.1053400320299198 0.12877248826361379 0 0.065374659239632718 0.1448908038746782 0 0.55306006949600994 0.20198184231352201 0 0.59443395090188023 0.18455690917515069 0 0.59814117807200873 0.23398510860739519 0 0.84999999999999987 0.29999999999999999 0 0.89999999999999991 0.29999999999999999 0 0.87430060258887643 0.34056085888204451 0 0.84999999999999987 0.69999999999999996 0 0.87712158428786946 0.65709029563313581 0 0.89999999999999991 0.69999999999999996 0 0.34258405725730701 0.4444034294386992 0 0.3908716102680424 0.47010282357248828 0 0.35024835142131061 0.48654922671676981 0 0.26573297623774761 0.59828298563722948 0 0.31502927232353312 0.6134992213375432 0 0.27820712747429932 0.65530134213254643 0 0.91696753777131557 0.497780560203536 0 0.86907294890112186 0.52008116128001669 0 0.88594198078881503 0.46167788676578442 0 0.84723782639812573 0.48638347960178252 0 0.88594198078881503 0.46167788676578442 0 0.86907294890112186 0.52008116128001669 0 0.7152569930854884 0.5237994455134295 0 0.77151014687832564 0.54436834383023036 0 0.71809016091162536 0.58185040402320831 0 0.90416666666660628 0.9041666666666166 0 0.89898474358632463 0.95391965591118966 0 0.85170973911348691 0.93569607295217616 0 0.90416666666668166 0.20416666666667119 0 0.89898474358614167 0.25391965591104898 0 0.8517097391133297 0.2356960729520409 0 0.91750694127107502 0.36982372220068471 0 0.95780851984364423 0.34215720972155339 0 0.95871855522754235 0.40006508612975411 0 0.91750694127105259 0.63017627779935648 0 0.95867599106212187 0.60011091146651041 0 0.9578014258160763 0.65787212321113708 0 0.90299850604011456 0.79563452813489832 0 0.88088768115933802 0.84674609810493673 0 0.84725310900444062 0.80779732082917555 0 0.90299850604006393 0.09563452813493091 0 0.88088768115941807 0.14674609810479519 0 0.84725310900442086 0.10779732082922661 0 0.1216098864341134 0.50637075089503902 0 0.16618607197337229 0.50652878253548905 0 0.14934928745814749 0.55042914607228977 0 0.20050006573841939 0.53248514016039872 0 0.14934928745814749 0.55042914607228977 0 0.16618607197337229 0.50652878253548905 0 0.80185942888539485 0.77452061303608133 0 0.84725310900444062 0.80779732082917555 0 0.80041942726660109 0.81543261647703358 0 0.80185942888501827 0.074520613036224564 0 0.84725310900442086 0.10779732082922661 0 0.80076557130237269 0.1154587552654202 0 0.083105206071452636 0.79992298667296435 0 0.065374659239661639 0.8551091961254178 0 0.038512288486097702 0.8155852717111195 0 0.083105206071467416 0.20007701332709979 0 0.038512288486115001 0.1844147282893184 0 0.065374659239632718 0.1448908038746782 0 0.54782696902220018 0.79245182748204157 0 0.59636844454254345 0.75937156204589151 0 0.60294066490120068 0.80851322453934582 0 0.083411279318375747 0.91030024466934134 0 0.0443105827531413 0.89858748162559932 0 0.065374659239661639 0.8551091961254178 0 0.083411279318303222 0.089699755330707398 0 0.065374659239632718 0.1448908038746782 0 0.044310582753132287 0.101412518374475 0 0.84999999999965292 1 0 0.81486180804382891 0.96321394949790495 0 0.85170973911348691 0.93569607295217616 0 0.84999999999999987 0.29999999999999999 0 0.81486180804364938 0.26321394949780091 0 0.8517097391133297 0.2356960729520409 0 0.4656888918609538 0.78493261229743638 0 0.45677673713123867 0.84253684404072415 0 0.42609163930740518 0.80361684430568059 0 0.39536230704883951 0.84069429572832477 0 0.42609163930740518 0.80361684430568059 0 0.45677673713123867 0.84253684404072415 0 0.6236733212988993 0.14864538214901801 0 0.56202748619534593 0.15054058349222879 0 0.58516465772821369 0.11653801664834119 0 0.57412547362576272 0.58273804879550706 0 0.63065402604362242 0.59661356661633302 0 0.5991018319127801 0.62925360607495295 0 0.61343887413683884 0.856862479058357 0 0.5832743223239254 0.88483152652961872 0 0.55899371797446828 0.85003102233514438 0 0.50202631463681879 0.87892870825713787 0 0.55899371797446828 0.85003102233514438 0 0.54783390826260769 0.89287767010860219 0 0.51076801031701946 0.1202837388510348 0 0.54979595918804436 0.1060565713905809 0 0.56202748619534593 0.15054058349222879 0 0.55306006949600994 0.20198184231352201 0 0.59814117807200873 0.23398510860739519 0 0.54248833945060504 0.2520322959927106 0 0.83573492347052902 0.36590755630746369 0 0.82500000000000062 0.33010209762754811 0 0.87430060258887643 0.34056085888204451 0 0.83758014339878906 0.63222013025741819 0 0.87712158428786946 0.65709029563313581 0 0.82457059160610424 0.66831947184359608 0 0.49102375406324739 0.49123754822244059 0 0.53823865529665704 0.45873898050322898 0 0.53330375813596242 0.50827942741749099 0 0.52289427570932567 0.3932284363388488 0 0.57744073070774993 0.41535148636609359 0 0.53823865529665704 0.45873898050322898 0 0.4089290844030305 0.58728915500154233 0 0.37272913873093971 0.56192925302619479 0 0.42644501560315817 0.54603747078095544 0 0.49695729691142171 0.25014895411178018 0 0.4604742573284204 0.27846934318264788 0 0.46429753744194407 0.22870891180733599 0 0.90299850604011456 0.79563452813489832 0 0.85491058998424563 0.76004753345552634 0 0.89999166460796554 0.74528934923809909 0 0.90299850604006393 0.09563452813493091 0 0.85491058998398861 0.060047533455626502 0 0.899991664607802 0.045289349238254978 0 0.38244435121258652 0.51653317813019495 0 0.42644501560315817 0.54603747078095544 0 0.37272913873093971 0.56192925302619479 0 0.71406021706547751 0.63292083137662503 0 0.71809016091162536 0.58185040402320831 0 0.74994237037456724 0.62775548192980357 0 0.84723782639812573 0.48638347960178252 0 0.86907294890112186 0.52008116128001669 0 0.81441713509985358 0.51161854125224959 0 0.33122374654748771 0.57588941099433744 0 0.33190227185843768 0.52715113583864037 0 0.37272913873093971 0.56192925302619479 0 0.086179601630648681 0.64647209519980475 0 0.1241190223511371 0.64391885572885044 0 0.1020579365089687 0.69352219419301997 0 0.59999999999894682 0 0 0.64999999999907843 0 0 0.61940220174112337 0.047251958781050582 0 0.18269480424590959 0.75905448272264375 0 0.14335651144331049 0.75565258250209677 0 0.15332765547575641 0.71200081858233666 0 0.22549374774072969 0.58452645269293457 0 0.2459498854893499 0.63248470766216769 0 0.19914261668318661 0.62286739485272158 0 0.38244435121258652 0.51653317813019495 0 0.43507373378304309 0.49699695397193322 0 0.42644501560315817 0.54603747078095544 0 0.65000000000104008 1 0 0.60000000000138687 1 0 0.62065498684670595 0.95224934003983619 0 0.078358742472063481 0.43365249433908948 0 0.068743045408989428 0.48853989837882689 0 0.033550201249889847 0.46247875832467239 0 0.2236846579037573 0.67380363126050236 0 0.27820712747429932 0.65530134213254643 0 0.26439878998046262 0.7048065392091396 0 0.6879972333610942 0.43038561374960838 0 0.68128176404677243 0.38629093627004979 0 0.72622533758026719 0.40265885511101601 0 0.72525833953073282 0.1032114801687094 0 0.7010294155333181 0.056779085686491267 0 0.7527966693318906 0.053051678021508272 0 0.18269480424590959 0.75905448272264375 0 0.15332765547575641 0.71200081858233666 0 0.19068556247388771 0.71028988922845504 0 0.1216098864341134 0.50637075089503902 0 0.085622222639554768 0.53333248912060549 0 0.068743045408989428 0.48853989837882689 0 0.25676291524611189 0.7436741304886243 0 0.26439878998046262 0.7048065392091396 0 0.29904318922293632 0.74132814928635593 0 0.65481233915350323 0.35652751921065562 0 0.68128176404677243 0.38629093627004979 0 0.63912439215427275 0.41063340167983359 0 0.83573492347052902 0.36590755630746369 0 0.86844634540301924 0.38530937474099819 0 0.81308179852519835 0.39754945808726527 0 0.27270076654418179 0.87751467830216623 0 0.2401283238295133 0.85648409884788523 0 0.29209212897034281 0.84715728365233667 0 0.84999999999999987 0.69999999999999996 0 0.85491058998424563 0.76004753345552634 0 0.81864958914779962 0.73589050177899629 0 0.84999999999960507 0 0 0.85491058998398861 0.060047533455626502 0 0.81864958914740749 0.035890501779055867 0 0.18381867841758909 0.57774125163628387 0 0.19914261668318661 0.62286739485272158 0 0.15720202157091859 0.60665697304410315 0 0.22549374774072969 0.58452645269293457 0 0.19914261668318661 0.62286739485272158 0 0.18381867841758909 0.57774125163628387 0 0.79680861578988083 0.92656778056766709 0 0.85170973911348691 0.93569607295217616 0 0.81486180804382891 0.96321394949790495 0 0.79680861578956375 0.22656778056752541 0 0.8517097391133297 0.2356960729520409 0 0.81486180804364938 0.26321394949780091 0 0.20050006573841939 0.53248514016039872 0 0.23975172658309729 0.49475499200540818 0 0.25115337790845271 0.54719303014923271 0 0.28307294598219601 0.50789252727458634 0 0.25115337790845271 0.54719303014923271 0 0.23975172658309729 0.49475499200540818 0 0.20050006573841939 0.53248514016039872 0 0.18381867841758909 0.57774125163628387 0 0.14934928745814749 0.55042914607228977 0 0.19922788606653311 0.085920220746880993 0 0.22985637510995899 0.1298347970200906 0 0.18652628422869419 0.14162325200928061 0 0.33758650185219202 0.23837101504325639 0 0.38831533174504851 0.2189834941785925 0 0.3786248352540974 0.27082301512024259 0 0.42377727103934271 0.25099357235810238 0 0.3786248352540974 0.27082301512024259 0 0.38831533174504851 0.2189834941785925 0 0.19922788606653311 0.085920220746880993 0 0.18652628422869419 0.14162325200928061 0 0.16141998738593399 0.10404039647458049 0 0.54782696902220018 0.79245182748204157 0 0.55363780716230748 0.74348740161571747 0 0.59636844454254345 0.75937156204589151 0 0.82709327591091286 0.84937141670920724 0 0.88088768115933802 0.84674609810493673 0 0.85600844944837662 0.88483418979512773 0 0.82709327591102189 0.14937141670914489 0 0.88088768115941807 0.14674609810479519 0 0.85600844944842547 0.1848341897950983 0 0.27866744612395528 0.38416094670951489 0 0.22033343844674469 0.36963382230740238 0 0.25966125648670141 0.34351016742083729 0 0 0.50000000000205869 0 0.033550201249889847 0.46247875832467239 0 0.068743045408989428 0.48853989837882689 0 0.31378396441836959 0.70157213313026345 0 0.36622285152418499 0.69092437780804039 0 0.35415581127540569 0.73730480045900215 0 0.77293540622714185 0.59448302402785813 0 0.71809016091162536 0.58185040402320831 0 0.77151014687832564 0.54436834383023036 0 0.7152569930854884 0.5237994455134295 0 0.69385896817107129 0.48377516041410151 0 0.73947346780852752 0.49062440112282169 0 0.15801167086041079 0.46008690540259539 0 0.191953871957803 0.42546416763755879 0 0.19604738184454831 0.47787523520405789 0 0.57667858002728545 0.078486105337742612 0 0.61940220174112337 0.047251958781050582 0 0.61956000905586006 0.1043312481793135 0 0.65408113592120842 0.073941773121567966 0 0.61956000905586006 0.1043312481793135 0 0.61940220174112337 0.047251958781050582 0 0 0.55000000000173355 0 0 0.50000000000205869 0 0.044576108720083309 0.53509043209532614 0 0.65507451745379841 0.92229208810758578 0 0.62065498684670595 0.95224934003983619 0 0.61885627562261258 0.90282959257498208 0 0.57724883562309992 0.92155686857100794 0 0.61885627562261258 0.90282959257498208 0 0.62065498684670595 0.95224934003983619 0 0.91750694127107502 0.36982372220068471 0 0.86844634540301924 0.38530937474099819 0 0.87430060258887643 0.34056085888204451 0 0.91750694127105259 0.63017627779935648 0 0.87712158428786946 0.65709029563313581 0 0.87159648282691515 0.61285406320581504 0 0.33123028043633618 0.77629643437932982 0 0.29904318922293632 0.74132814928635593 0 0.35415581127540569 0.73730480045900215 0 0.86411095495256451 0.42388805655111889 0 0.84925632466077294 0.45359738909549091 0 0.81973119833356312 0.43505687159469048 0 0.43846182030517877 0.64845797726506715 0 0.47913475093885149 0.66010775372412711 0 0.43323420005758778 0.6913544522562407 0 0.18269480424590959 0.75905448272264375 0 0.19068556247388771 0.71028988922845504 0 0.2248999640082178 0.72584299459689172 0 0.39536230704883951 0.84069429572832477 0 0.38586766253264881 0.78219501014812498 0 0.42609163930740518 0.80361684430568059 0 0.59999999999999976 0.69999999999999996 0 0.63221990677827677 0.73442891067859706 0 0.59636844454254345 0.75937156204589151 0 0.27866744612395528 0.38416094670951489 0 0.24049127783545701 0.41270748208749802 0 0.22033343844674469 0.36963382230740238 0 0.82709327591091286 0.84937141670920724 0 0.84725310900444062 0.80779732082917555 0 0.88088768115933802 0.84674609810493673 0 0.82709327591102189 0.14937141670914489 0 0.84725310900442086 0.10779732082922661 0 0.88088768115941807 0.14674609810479519 0 0.1650278706801647 0.38791388161335733 0 0.18434624290945251 0.35208838264196463 0 0.22033343844674469 0.36963382230740238 0 0.4409427642593301 0.35743108089689513 0 0.49077833859261139 0.35229981449445641 0 0.46655310992796922 0.39650496622958609 0 0.80185942888539485 0.77452061303608133 0 0.81864958914779962 0.73589050177899629 0 0.85491058998424563 0.76004753345552634 0 0.80185942888501827 0.074520613036224564 0 0.81864958914740749 0.035890501779055867 0 0.85491058998398861 0.060047533455626502 0 0.29999999999926641 0 0 0.34999999999912063 0 0 0.32541448401678508 0.046215317981507749 0 0.35000000000145642 1 0 0.30000000000124832 1 0 0.32544832635163229 0.95485394099568932 0 0.4656888918609538 0.78493261229743638 0 0.50731287292894423 0.78963574450233831 0 0.50627822638148745 0.8263979829520941 0 0.2185883431182947 0.18019736283949719 0 0.25557216766470708 0.15874861286892261 0 0.26429849586623999 0.19346700179430079 0 1 0.29999999999999999 0 1 0.34999999999993492 0 0.95780851984364423 0.34215720972155339 0 1 0.29999999999999999 0 0.95780851984364423 0.34215720972155339 0 0.94999999999999996 0.29999999999999999 0 1 0.69999999999999996 0 0.94999999999999996 0.69999999999999996 0 0.9578014258160763 0.65787212321113708 0 1 0.69999999999999996 0 0.9578014258160763 0.65787212321113708 0 1 0.64999999999986979 0 0.91750694127107502 0.36982372220068471 0 0.90594285160987287 0.4141265964174129 0 0.86844634540301924 0.38530937474099819 0 0.91750694127105259 0.63017627779935648 0 0.87159648282691515 0.61285406320581504 0 0.91143117093204207 0.58709913730335972 0 0.74999999999999989 0.69999999999999996 0 0.7750489929959945 0.66593931409600093 0 0.79999999999999982 0.69999999999999996 0 0.74999999999999989 0.29999999999999999 0 0.79999999999999982 0.29999999999999999 0 0.78145581580700685 0.34881365920033602 0 0.54999999999999993 0.69999999999999996 0 0.57484956128872922 0.66573805030881994 0 0.59999999999999976 0.69999999999999996 0 0.90299850604011456 0.79563452813489832 0 0.94399509803918602 0.75600490196082126 0 0.95386563387742829 0.80414874155775029 0 0.90416666666660628 0.9041666666666166 0 0.95391631417670719 0.89584263333814784 0 0.94399509803919068 0.9439950980391687 0 0.90299850604006393 0.09563452813493091 0 0.94399509803922566 0.056004901960802607 0 0.95386563387744361 0.1041487415577465 0 0.90416666666668166 0.20416666666667119 0 0.95391631417672862 0.19584263333809451 0 0.94399509803921056 0.24399509803922639 0 0.22278230690790279 0.44824268025881547 0 0.19604738184454831 0.47787523520405789 0 0.191953871957803 0.42546416763755879 0 0.90299850604011456 0.79563452813489832 0 0.89999166460796554 0.74528934923809909 0 0.94399509803918602 0.75600490196082126 0 0.90299850604006393 0.09563452813493091 0 0.899991664607802 0.045289349238254978 0 0.94399509803922566 0.056004901960802607 0 0.49102375406324739 0.49123754822244059 0 0.47793794143994173 0.52940715638744962 0 0.43507373378304309 0.49699695397193322 0 0.90416666666660628 0.9041666666666166 0 0.94399509803919068 0.9439950980391687 0 0.89898474358632463 0.95391965591118966 0 0.90416666666668166 0.20416666666667119 0 0.94399509803921056 0.24399509803922639 0 0.89898474358614167 0.25391965591104898 0 0.65394964615507722 0.22666784374016369 0 0.62657463266645097 0.26524202571255862 0 0.59814117807200873 0.23398510860739519 0 0.6084546825910605 0.37989672713932537 0 0.63912439215427275 0.41063340167983359 0 0.57744073070774993 0.41535148636609359 0 0.61209567303293111 0.44669033081290321 0 0.57744073070774993 0.41535148636609359 0 0.63912439215427275 0.41063340167983359 0 0.25676291524611189 0.7436741304886243 0 0.22556077506376701 0.77837424984191617 0 0.2248999640082178 0.72584299459689172 0 0.61343887413683884 0.856862479058357 0 0.60294066490120068 0.80851322453934582 0 0.65005442820240822 0.82644988530054031 0 0.64999999999907843 0 0 0.66369801598854572 0.036327466368102787 0 0.61940220174112337 0.047251958781050582 0 0.40326160981139969 0.73346192995102844 0 0.38586766253264881 0.78219501014812498 0 0.35415581127540569 0.73730480045900215 0 0.33123028043633618 0.77629643437932982 0 0.35415581127540569 0.73730480045900215 0 0.38586766253264881 0.78219501014812498 0 0.26573297623774761 0.59828298563722948 0 0.29110487519241501 0.56588143995431495 0 0.31502927232353312 0.6134992213375432 0 0.77846603114747959 0.49850927265137401 0 0.81441713509985358 0.51161854125224959 0 0.77151014687832564 0.54436834383023036 0 0.82862096804812391 0.55037090955459045 0 0.77151014687832564 0.54436834383023036 0 0.81441713509985358 0.51161854125224959 0 0.50000000000205869 1 0 0.45000000000187229 1 0 0.47135117303824892 0.95556877749289892 0 0.44999999999882923 0 0 0.49999999999869432 0 0 0.47040171442036788 0.044141676406503738 0 0 0.7000000000006934 0 0 0.65000000000104008 0 0.046634677244967337 0.671418230738282 0 0 0.35000000000145642 0 0 0.30000000000124832 0 0.046389130980076937 0.32668781832131749 0 0.31378396441836959 0.70157213313026345 0 0.27820712747429932 0.65530134213254643 0 0.32263089806001177 0.66003674931826484 0 0.33122374654748771 0.57588941099433744 0 0.31502927232353312 0.6134992213375432 0 0.29110487519241501 0.56588143995431495 0 0.26573297623774761 0.59828298563722948 0 0.27820712747429932 0.65530134213254643 0 0.2459498854893499 0.63248470766216769 0 0.14474682429600511 0.85524784522713515 0 0.16206583317966519 0.89685560785156404 0 0.1241151115713819 0.9045666525468371 0 0.14332333627550789 0.14578431753966009 0 0.12372429750337779 0.095814237875728972 0 0.16141998738593399 0.10404039647458049 0 0.64753070846764316 0.77332939069435502 0 0.59636844454254345 0.75937156204589151 0 0.63221990677827677 0.73442891067859706 0 0.14474682429600511 0.85524784522713515 0 0.1241151115713819 0.9045666525468371 0 0.10562472963403439 0.87143394428979881 0 0.14332333627550789 0.14578431753966009 0 0.1053400320299198 0.12877248826361379 0 0.12372429750337779 0.095814237875728972 0 0.77354604466818633 0.40378688774472771 0 0.81308179852519835 0.39754945808726527 0 0.81973119833356312 0.43505687159469048 0 0.54782696902220018 0.79245182748204157 0 0.50945740445113552 0.75476055527778108 0 0.55363780716230748 0.74348740161571747 0 0.2236846579037573 0.67380363126050236 0 0.2459498854893499 0.63248470766216769 0 0.27820712747429932 0.65530134213254643 0 0.77293540622714185 0.59448302402785813 0 0.74994237037456724 0.62775548192980357 0 0.71809016091162536 0.58185040402320831 0 0 0.79999999999999982 0 0 0.75000000000034661 0 0.04408157711937423 0.7728941757575627 0 0 0.25000000000104028 0 0 0.20000000000083221 0 0.044081577119474857 0.2271058242433576 0 0.19999999999955789 0 0 0.24999999999941211 0 0 0.22668068146512929 0.045875643423131329 0 0.25000000000104028 1 0 0.20000000000083221 1 0 0.22850979588452081 0.95594428570238643 0 0.47357141910802508 0.1873585799078378 0 0.44288491854585582 0.14116182884956319 0 0.48466639505193998 0.1421439844745814 0 0.59999999999999976 0.29999999999999999 0 0.5794309697024993 0.27124795968204829 0 0.62657463266645097 0.26524202571255862 0 0.43249999999999988 0.43937499999999979 0 0.42161023666869668 0.39493916313643851 0 0.46655310992796922 0.39650496622958609 0 0.31068898841644388 0.47541502461811092 0 0.33190227185843768 0.52715113583864037 0 0.28307294598219601 0.50789252727458634 0 0.35024835142131061 0.48654922671676981 0 0.33190227185843768 0.52715113583864037 0 0.31068898841644388 0.47541502461811092 0 0.35864735590330371 0.63903383440414463 0 0.36622285152418499 0.69092437780804039 0 0.32263089806001177 0.66003674931826484 0 0.31378396441836959 0.70157213313026345 0 0.32263089806001177 0.66003674931826484 0 0.36622285152418499 0.69092437780804039 0 0.86956835336234861 0.571283299838105 0 0.90900154012161016 0.53607784105648792 0 0.91143117093204207 0.58709913730335972 0 0.6499999999999998 0.29999999999999999 0 0.65481233915350323 0.35652751921065562 0 0.61959173890754571 0.33832250091341232 0 0.4409427642593301 0.35743108089689513 0 0.46226845272279993 0.31901800744800313 0 0.49077833859261139 0.35229981449445641 0 0.5 0.29999999999999999 0 0.49077833859261139 0.35229981449445641 0 0.46226845272279993 0.31901800744800313 0 0.14999999999970359 0 0 0.19999999999955789 0 0 0.184418230509967 0.038773194583122873 0 0.20000000000083221 1 0 0.15000000000062411 1 0 0.18474005699953849 0.96231585248064622 0 1 0.49999999999950101 0 1 0.54999999999963112 0 0.95631871884947484 0.51827533208233789 0 0.38586766253264881 0.78219501014812498 0 0.42676259796334498 0.76772545931379299 0 0.42609163930740518 0.80361684430568059 0 0.20050006573841939 0.53248514016039872 0 0.22549374774072969 0.58452645269293457 0 0.18381867841758909 0.57774125163628387 0 0.065374659239661639 0.8551091961254178 0 0.1074251789111534 0.83564394292147814 0 0.10562472963403439 0.87143394428979881 0 0.065374659239632718 0.1448908038746782 0 0.1053400320299198 0.12877248826361379 0 0.106902708054812 0.16453234188234539 0 0.1650278706801647 0.38791388161335733 0 0.14223753364722069 0.3341983344262433 0 0.18434624290945251 0.35208838264196463 0 0.43249999999999988 0.43937499999999979 0 0.46111841286828259 0.46690301029591341 0 0.43507373378304309 0.49699695397193322 0 0.83758014339878906 0.63222013025741819 0 0.81723410853263523 0.59419663659258926 0 0.87159648282691515 0.61285406320581504 0 0.19670163708476801 0.31472518408333222 0 0.18434624290945251 0.35208838264196463 0 0.14223753364722069 0.3341983344262433 0 0.75000000000034661 1 0 0.7250000000005199 0.94981617647078953 0 0.770759834363826 0.95919399014344442 0 0.74999999999999989 0.29999999999999999 0 0.72500000000000064 0.2498161764706 0 0.77075983436335049 0.25919399014334171 0 0.69999999999999984 0.29999999999999999 0 0.67933712972090698 0.25920070958121938 0 0.72500000000000064 0.2498161764706 0 0.57611405284611883 0.50165903596042916 0 0.53330375813596242 0.50827942741749099 0 0.53823865529665704 0.45873898050322898 0 0.6499999999999998 0.29999999999999999 0 0.68887083591306764 0.33632058575757479 0 0.65481233915350323 0.35652751921065562 0 0.27866744612395528 0.38416094670951489 0 0.33277555741076909 0.36432196682010132 0 0.31778888742534622 0.40581751814196781 0 0.49102375406324739 0.49123754822244059 0 0.43507373378304309 0.49699695397193322 0 0.46111841286828259 0.46690301029591341 0 0.94999999999999996 0.69999999999999996 0 0.97166519676947294 0.73337114490064459 0 0.94399509803918602 0.75600490196082126 0 0.94999999999986839 0 0 0.97166519676946894 0.033371144900598393 0 0.94399509803922566 0.056004901960802607 0 0.94999999999999996 0.29999999999999999 0 0.94399509803921056 0.24399509803922639 0 0.97166519676951801 0.26662885509932011 0 0.94999999999979179 1 0 0.94399509803919068 0.9439950980391687 0 0.97166519676946206 0.96662885509935492 0 0.34258405725730701 0.4444034294386992 0 0.29124338931648802 0.43334555462578611 0 0.31778888742534622 0.40581751814196781 0 0.27866744612395528 0.38416094670951489 0 0.31778888742534622 0.40581751814196781 0 0.29124338931648802 0.43334555462578611 0 0.36575549820117997 0.31677992835137742 0 0.33277555741076909 0.36432196682010132 0 0.32752639306529541 0.32610012995269699 0 0.35752321586431363 0.9185439911803448 0 0.32544832635163229 0.95485394099568932 0 0.30864387279288652 0.89906554525974958 0 0.27609987656793722 0.94991445621608572 0 0.30864387279288652 0.89906554525974958 0 0.32544832635163229 0.95485394099568932 0 0.33123028043633618 0.77629643437932982 0 0.30857225866488791 0.81101973481716805 0 0.2792923945214143 0.77665808831789485 0 0.33758650185219202 0.23837101504325639 0 0.29132859388405002 0.27203693976649962 0 0.28040350263641872 0.23054717217092141 0 0.4409427642593301 0.35743108089689513 0 0.41914690343363781 0.30688979866601612 0 0.46226845272279993 0.31901800744800313 0 0.14332333627550789 0.14578431753966009 0 0.13737030665753211 0.20313708640667491 0 0.106902708054812 0.16453234188234539 0 0.083105206071467416 0.20007701332709979 0 0.106902708054812 0.16453234188234539 0 0.13737030665753211 0.20313708640667491 0 0.083105206071452636 0.79992298667296435 0 0.1382744753146134 0.79650574229207483 0 0.1074251789111534 0.83564394292147814 0 0.14474682429600511 0.85524784522713515 0 0.1074251789111534 0.83564394292147814 0 0.1382744753146134 0.79650574229207483 0 0.65408113592120842 0.073941773121567966 0 0.7010294155333181 0.056779085686491267 0 0.68330259535470161 0.10038702501083881 0 0.72525833953073282 0.1032114801687094 0 0.68330259535470161 0.10038702501083881 0 0.7010294155333181 0.056779085686491267 0 0.049706944316475897 0.72477277076253799 0 0.046634677244967337 0.671418230738282 0 0.1020579365089687 0.69352219419301997 0 0.086179601630648681 0.64647209519980475 0 0.1020579365089687 0.69352219419301997 0 0.046634677244967337 0.671418230738282 0 0.087545339447545459 0.35122518864182262 0 0.046389130980076937 0.32668781832131749 0 0.093851963071650835 0.30582068233324772 0 0.049706944316556423 0.27522722923869108 0 0.093851963071650835 0.30582068233324772 0 0.046389130980076937 0.32668781832131749 0 0.82709327591091286 0.84937141670920724 0 0.80041942726660109 0.81543261647703358 0 0.84725310900444062 0.80779732082917555 0 0.82709327591102189 0.14937141670914489 0 0.80076557130237269 0.1154587552654202 0 0.84725310900442086 0.10779732082922661 0 0.17933913398461551 0.2350063570234002 0 0.14377654328998779 0.2442024734791064 0 0.13737030665753211 0.20313708640667491 0 0.18269480424590959 0.75905448272264375 0 0.1382744753146134 0.79650574229207483 0 0.14335651144331049 0.75565258250209677 0 0.33758650185219202 0.23837101504325639 0 0.3786248352540974 0.27082301512024259 0 0.33402499257867951 0.28911035184473982 0 0.14332333627550789 0.14578431753966009 0 0.18124454140915969 0.18790916706335251 0 0.13737030665753211 0.20313708640667491 0 0.14474682429600511 0.85524784522713515 0 0.1382744753146134 0.79650574229207483 0 0.17777405986036951 0.81832336108265358 0 0.5 0.29999999999999999 0 0.52752007115234678 0.33170632466418198 0 0.49077833859261139 0.35229981449445641 0 0.27866744612395528 0.38416094670951489 0 0.29644548887253103 0.34914008784168082 0 0.33277555741076909 0.36432196682010132 0 0 0.84999999999965292 0 0 0.79999999999999982 0 0.038512288486097702 0.8155852717111195 0 0 0.20000000000083221 0 0 0.15000000000062411 0 0.038512288486115001 0.1844147282893184 0 0.40326160981139969 0.73346192995102844 0 0.35415581127540569 0.73730480045900215 0 0.36622285152418499 0.69092437780804039 0 0.91696753777131557 0.497780560203536 0 0.96228564064454991 0.48206450662049471 0 0.95631871884947484 0.51827533208233789 0 0.33758650185219202 0.23837101504325639 0 0.31255190597181792 0.19850845631528771 0 0.3572130504031617 0.1874703368446563 0 0.59814117807200873 0.23398510860739519 0 0.62657463266645097 0.26524202571255862 0 0.5794309697024993 0.27124795968204829 0 0.34258405725730701 0.4444034294386992 0 0.31068898841644388 0.47541502461811092 0 0.29124338931648802 0.43334555462578611 0 0.38083244760691543 0.38531983672244652 0 0.35221190152536241 0.40457127605439203 0 0.33277555741076909 0.36432196682010132 0 0.083411279318375747 0.91030024466934134 0 0.10266856499240549 0.95548163909968886 0 0.053064897599294662 0.95186845269532028 0 0.083411279318303222 0.089699755330707398 0 0.053064897599215843 0.048131547304697528 0 0.10266856499169109 0.044518360900210059 0 0.42377727103934271 0.25099357235810238 0 0.4604742573284204 0.27846934318264788 0 0.41914690343363781 0.30688979866601612 0 0.28307294598219601 0.50789252727458634 0 0.25982634974572738 0.46097799597715272 0 0.31068898841644388 0.47541502461811092 0 0.29348325746214782 0.31350119524708198 0 0.29132859388405002 0.27203693976649962 0 0.33402499257867951 0.28911035184473982 0 0.35312867752657662 0.084946736076730367 0 0.39823268594401579 0.1116623613130045 0 0.36246644853392812 0.1399454205365751 0 0.7000000000006934 1 0 0.68015064798562208 0.95924320340003011 0 0.7250000000005199 0.94981617647078953 0 0.42377727103934271 0.25099357235810238 0 0.38831533174504851 0.2189834941785925 0 0.42905200079338551 0.19982395548231649 0 0.53823865529665704 0.45873898050322898 0 0.57744073070774993 0.41535148636609359 0 0.57975577671020095 0.46172033326338591 0 0.33758650185219202 0.23837101504325639 0 0.3572130504031617 0.1874703368446563 0 0.38831533174504851 0.2189834941785925 0 0.29124338931648802 0.43334555462578611 0 0.31068898841644388 0.47541502461811092 0 0.25982634974572738 0.46097799597715272 0 0.6084546825910605 0.37989672713932537 0 0.61959173890754571 0.33832250091341232 0 0.65481233915350323 0.35652751921065562 0 0.40326160981139969 0.73346192995102844 0 0.43323420005758778 0.6913544522562407 0 0.45582236402875981 0.73896743678908217 0 0.33758650185219202 0.23837101504325639 0 0.28040350263641872 0.23054717217092141 0 0.31255190597181792 0.19850845631528771 0 0.79999999999999982 1 0 0.75000000000034661 1 0 0.770759834363826 0.95919399014344442 0 0.74999999999999989 0.29999999999999999 0 0.77075983436335049 0.25919399014334171 0 0.79999999999999982 0.29999999999999999 0 0.6499999999999998 0.29999999999999999 0 0.67933712972090698 0.25920070958121938 0 0.69999999999999984 0.29999999999999999 0 0.39536230704883951 0.84069429572832477 0 0.39767323751400468 0.89584229130535065 0 0.35864759629805099 0.87963482415279515 0 0.54999999999999993 0.69999999999999996 0 0.52584555706968406 0.66664215091846768 0 0.57484956128872922 0.66573805030881994 0 0.35312867752657662 0.084946736076730367 0 0.32541448401678508 0.046215317981507749 0 0.3615861437013822 0.03582617922508851 0 0.35752321586431363 0.9185439911803448 0 0.36184234618600131 0.96443954459096326 0 0.32544832635163229 0.95485394099568932 0 0.35312867752657662 0.084946736076730367 0 0.3615861437013822 0.03582617922508851 0 0.39591832466117061 0.056982757562006353 0 0.35752321586431363 0.9185439911803448 0 0.39641108128798319 0.94356127926187128 0 0.36184234618600131 0.96443954459096326 0 0.083411279318303222 0.089699755330707398 0 0.044310582753132287 0.101412518374475 0 0.053064897599215843 0.048131547304697528 0 0.083411279318375747 0.91030024466934134 0 0.053064897599294662 0.95186845269532028 0 0.0443105827531413 0.89858748162559932 0 0.38083244760691543 0.38531983672244652 0 0.40076539126862748 0.34589349467022118 0 0.42161023666869668 0.39493916313643851 0 0.4409427642593301 0.35743108089689513 0 0.42161023666869668 0.39493916313643851 0 0.40076539126862748 0.34589349467022118 0 0.79999999999999982 0.29999999999999999 0 0.82500000000000062 0.33010209762754811 0 0.78145581580700685 0.34881365920033602 0 0.79999999999999982 0.69999999999999996 0 0.7750489929959945 0.66593931409600093 0 0.82457059160610424 0.66831947184359608 0 0.59999999999999976 0.69999999999999996 0 0.57484956128872922 0.66573805030881994 0 0.62460753523532009 0.66851202781000296 0 0.74999999999999989 0.69999999999999996 0 0.72500000000000064 0.67022701834392062 0 0.7750489929959945 0.66593931409600093 0 0.74999999999999989 0.29999999999999999 0 0.78145581580700685 0.34881365920033602 0 0.73090396928863699 0.33699297293167962 0 0.33758650185219202 0.23837101504325639 0 0.33402499257867951 0.28911035184473982 0 0.29132859388405002 0.27203693976649962 0 0.36575549820117997 0.31677992835137742 0 0.41914690343363781 0.30688979866601612 0 0.40076539126862748 0.34589349467022118 0 0.4409427642593301 0.35743108089689513 0 0.40076539126862748 0.34589349467022118 0 0.41914690343363781 0.30688979866601612 0 0.34258405725730701 0.4444034294386992 0 0.38707855792647411 0.42299362914874578 0 0.3908716102680424 0.47010282357248828 0 0.7000000000006934 1 0 0.65000000000104008 1 0 0.68015064798562208 0.95924320340003011 0 0.49102375406324739 0.49123754822244059 0 0.46111841286828259 0.46690301029591341 0 0.48858720058566618 0.43964267759203868 0 0.4656888918609538 0.78493261229743638 0 0.42676259796334498 0.76772545931379299 0 0.45582236402875981 0.73896743678908217 0 0.40326160981139969 0.73346192995102844 0 0.45582236402875981 0.73896743678908217 0 0.42676259796334498 0.76772545931379299 0 0.59999999999999976 0.29999999999999999 0 0.62657463266645097 0.26524202571255862 0 0.6499999999999998 0.29999999999999999 0 0.40000000000166441 1 0 0.36184234618600131 0.96443954459096326 0 0.39641108128798319 0.94356127926187128 0 0.3999999999989749 0 0 0.39591832466117061 0.056982757562006353 0 0.3615861437013822 0.03582617922508851 0 0.43249999999999988 0.43937499999999979 0 0.48858720058566618 0.43964267759203868 0 0.46111841286828259 0.46690301029591341 0 0.7250000000005199 0.89375000000045834 0 0.7250000000005199 0.94981617647078953 0 0.68987011941058407 0.92105047536677087 0 0.7250000000005199 0.89375000000045834 0 0.75729602384198635 0.92353652857884294 0 0.7250000000005199 0.94981617647078953 0 0.72500000000001008 0.19776155966387679 0 0.75668890529066124 0.2244279804069782 0 0.72500000000000064 0.2498161764706 0 0.72500000000001008 0.19776155966387679 0 0.72500000000000064 0.2498161764706 0 0.69397719155551807 0.2245125647000914 0 0.79999999999999982 0.29999999999999999 0 0.81486180804364938 0.26321394949780091 0 0.84999999999999987 0.29999999999999999 0 0.84999999999965292 1 0 0.79999999999999982 1 0 0.81486180804382891 0.96321394949790495 0 0.1247745017231483 0.27198077544791172 0 0.095326043202144745 0.24554465089224409 0 0.14377654328998779 0.2442024734791064 0 0.1215415378367805 0.72939333680004137 0 0.14335651144331049 0.75565258250209677 0 0.090953281884486245 0.7564451946902494 0 0.72500000000001008 0.19776155966387679 0 0.72634814642510737 0.16106886917518889 0 0.76587607630038135 0.18880039518954719 0 0.72500000000001008 0.19776155966387679 0 0.6865991819015953 0.189116534044597 0 0.72634814642510737 0.16106886917518889 0 0.77144070960558853 0.14311854477243749 0 0.76587607630038135 0.18880039518954719 0 0.72634814642510737 0.16106886917518889 0 0.68391457121233579 0.14440470121196541 0 0.72634814642510737 0.16106886917518889 0 0.6865991819015953 0.189116534044597 0 0.7250000000005199 0.89375000000045834 0 0.72863726579783861 0.85390518901155588 0 0.76891166905518427 0.88835469571185499 0 0.76901770135486491 0.84293557325473656 0 0.76891166905518427 0.88835469571185499 0 0.72863726579783861 0.85390518901155588 0 0 0.20000000000083221 0 0.038512288486115001 0.1844147282893184 0 0.044081577119474857 0.2271058242433576 0 0 0.79999999999999982 0 0.04408157711937423 0.7728941757575627 0 0.038512288486097702 0.8155852717111195 0 0.52375890611712683 0.059318771819432882 0 0.47881186583059909 0.093591717165689425 0 0.47040171442036788 0.044141676406503738 0 0.52122150208832174 0.94089974453840242 0 0.47135117303824892 0.95556877749289892 0 0.47401147028110507 0.91529957330468115 0 0.27474541102162192 0.11822029332053539 0 0.3096713403101819 0.085471541595262421 0 0.32215584939770009 0.1218492143506909 0 0.22278230690790279 0.44824268025881547 0 0.24049127783545701 0.41270748208749802 0 0.25982634974572738 0.46097799597715272 0 0.93732437411268477 0.55911392101136159 0 0.91143117093204207 0.58709913730335972 0 0.90900154012161016 0.53607784105648792 0 0.19901705110390991 0.9175543425573498 0 0.24536017905392571 0.90704567837671446 0 0.22850979588452081 0.95594428570238643 0 0.27609987656793722 0.94991445621608572 0 0.22850979588452081 0.95594428570238643 0 0.24536017905392571 0.90704567837671446 0 0.15720202157091859 0.60665697304410315 0 0.1241190223511371 0.64391885572885044 0 0.1024350934457823 0.60772393977513839 0 0.6499999999999998 0.69999999999999996 0 0.675261390228442 0.65996937624687813 0 0.69999999999999984 0.69999999999999996 0 0.3999999999989749 0 0 0.4320097814748517 0.037406712692169303 0 0.39591832466117061 0.056982757562006353 0 0.40000000000166441 1 0 0.39641108128798319 0.94356127926187128 0 0.4308986359464303 0.96395712492906194 0 0.54999999999999993 0.29999999999999999 0 0.56836770495988642 0.3523062350852913 0 0.52752007115234678 0.33170632466418198 0 0.14474682429600511 0.85524784522713515 0 0.17777405986036951 0.81832336108265358 0 0.19741632902693801 0.86755867406447229 0 0.21858834311891909 0.81980263716112767 0 0.19741632902693801 0.86755867406447229 0 0.17777405986036951 0.81832336108265358 0 0.54782696902220018 0.79245182748204157 0 0.50731287292894423 0.78963574450233831 0 0.50945740445113552 0.75476055527778108 0 0.20000000000083221 1 0 0.18474005699953849 0.96231585248064622 0 0.22850979588452081 0.95594428570238643 0 0.19999999999955789 0 0 0.22668068146512929 0.045875643423131329 0 0.184418230509967 0.038773194583122873 0 0.77846603114747959 0.49850927265137401 0 0.73947346780852752 0.49062440112282169 0 0.77972660463949339 0.45529290596363098 0 0.73483647259922602 0.44789725365921768 0 0.77972660463949339 0.45529290596363098 0 0.73947346780852752 0.49062440112282169 0 0.34258405725730701 0.4444034294386992 0 0.35024835142131061 0.48654922671676981 0 0.31068898841644388 0.47541502461811092 0 0.33123028043633618 0.77629643437932982 0 0.2792923945214143 0.77665808831789485 0 0.29904318922293632 0.74132814928635593 0 0.26573297623774761 0.59828298563722948 0 0.25115337790845271 0.54719303014923271 0 0.29110487519241501 0.56588143995431495 0 0.4656888918609538 0.78493261229743638 0 0.50945740445113552 0.75476055527778108 0 0.50731287292894423 0.78963574450233831 0 0.35312867752657662 0.084946736076730367 0 0.36246644853392812 0.1399454205365751 0 0.32215584939770009 0.1218492143506909 0 0.29348325746214782 0.31350119524708198 0 0.25966125648670141 0.34351016742083729 0 0.24432083401701241 0.3006253385567515 0 0.59999999999999976 0.69999999999999996 0 0.6499999999999998 0.69999999999999996 0 0.63221990677827677 0.73442891067859706 0 0.69999999999921003 0 0 0.7010294155333181 0.056779085686491267 0 0.66369801598854572 0.036327466368102787 0 0.40000000000166441 1 0 0.35000000000145642 1 0 0.36184234618600131 0.96443954459096326 0 0.34999999999912063 0 0 0.3999999999989749 0 0 0.3615861437013822 0.03582617922508851 0 0.43507373378304309 0.49699695397193322 0 0.47793794143994173 0.52940715638744962 0 0.42644501560315817 0.54603747078095544 0 0.14474682429600511 0.85524784522713515 0 0.19741632902693801 0.86755867406447229 0 0.16206583317966519 0.89685560785156404 0 0.19901705110390991 0.9175543425573498 0 0.16206583317966519 0.89685560785156404 0 0.19741632902693801 0.86755867406447229 0 0.35864735590330371 0.63903383440414463 0 0.3977710372045391 0.65868194622830212 0 0.36622285152418499 0.69092437780804039 0 0.7527966693318906 0.053051678021508272 0 0.7010294155333181 0.056779085686491267 0 0.72683645290270404 0.027797073151180601 0 0.71508799138962864 0.36622814920737751 0 0.72622533758026719 0.40265885511101601 0 0.68128176404677243 0.38629093627004979 0 0.79999999999999982 0.69999999999999996 0 0.84999999999999987 0.69999999999999996 0 0.81864958914779962 0.73589050177899629 0 0.79999999999947335 0 0 0.84999999999960507 0 0 0.81864958914740749 0.035890501779055867 0 0.39536230704883951 0.84069429572832477 0 0.35642984951668422 0.80994399665655703 0 0.38586766253264881 0.78219501014812498 0 0.42377727103934271 0.25099357235810238 0 0.46429753744194407 0.22870891180733599 0 0.4604742573284204 0.27846934318264788 0 0.39801143831225599 0.16651381068160659 0 0.42905200079338551 0.19982395548231649 0 0.38831533174504851 0.2189834941785925 0 0.79999999999999982 1 0 0.770759834363826 0.95919399014344442 0 0.81486180804382891 0.96321394949790495 0 0.79999999999999982 0.29999999999999999 0 0.77075983436335049 0.25919399014334171 0 0.81486180804364938 0.26321394949780091 0 0.25195515620380449 0.25883339815888678 0 0.21049769590865089 0.26857363548218488 0 0.224700362040408 0.22206622194729711 0 0.40326160981139969 0.73346192995102844 0 0.42676259796334498 0.76772545931379299 0 0.38586766253264881 0.78219501014812498 0 0.35312867752657662 0.084946736076730367 0 0.3096713403101819 0.085471541595262421 0 0.32541448401678508 0.046215317981507749 0 0.59999999999999976 0.29999999999999999 0 0.6499999999999998 0.29999999999999999 0 0.61959173890754571 0.33832250091341232 0 0.2185883431182947 0.18019736283949719 0 0.18652628422869419 0.14162325200928061 0 0.22985637510995899 0.1298347970200906 0 0.64999999999907843 0 0 0.69999999999921003 0 0 0.66369801598854572 0.036327466368102787 0 0.27499999999933927 0.060310814194988557 0 0.24218496799700481 0.089025544070598317 0 0.22668068146512929 0.045875643423131329 0 0.19922788606653311 0.085920220746880993 0 0.22668068146512929 0.045875643423131329 0 0.24218496799700481 0.089025544070598317 0 0.65507451745379841 0.92229208810758578 0 0.66412543161245952 0.88015090885499059 0 0.68987011941058407 0.92105047536677087 0 0.049706944316475897 0.72477277076253799 0 0.090953281884486245 0.7564451946902494 0 0.04408157711937423 0.7728941757575627 0 0.083105206071452636 0.79992298667296435 0 0.04408157711937423 0.7728941757575627 0 0.090953281884486245 0.7564451946902494 0 0.083105206071467416 0.20007701332709979 0 0.095326043202144745 0.24554465089224409 0 0.044081577119474857 0.2271058242433576 0 0.049706944316556423 0.27522722923869108 0 0.044081577119474857 0.2271058242433576 0 0.095326043202144745 0.24554465089224409 0 0.36575549820117997 0.31677992835137742 0 0.33402499257867951 0.28911035184473982 0 0.3786248352540974 0.27082301512024259 0 0.53245488764484505 0.55078124999999989 0 0.53330375813596242 0.50827942741749099 0 0.57435499076887508 0.54267261987897775 0 0.57611405284611883 0.50165903596042916 0 0.57435499076887508 0.54267261987897775 0 0.53330375813596242 0.50827942741749099 0 0.6499999999999998 0.29999999999999999 0 0.69999999999999984 0.29999999999999999 0 0.68887083591306764 0.33632058575757479 0 0.57611405284611883 0.50165903596042916 0 0.53823865529665704 0.45873898050322898 0 0.57975577671020095 0.46172033326338591 0 0.7750489929959945 0.66593931409600093 0 0.72500000000000064 0.67022701834392062 0 0.74994237037456724 0.62775548192980357 0 0.78145581580700685 0.34881365920033602 0 0.74764719760526988 0.3719647154012321 0 0.73090396928863699 0.33699297293167962 0 0.3999999999989749 0 0 0.44999999999882923 0 0 0.4320097814748517 0.037406712692169303 0 0.45000000000187229 1 0 0.40000000000166441 1 0 0.4308986359464303 0.96395712492906194 0 0.57484956128872922 0.66573805030881994 0 0.5991018319127801 0.62925360607495295 0 0.62460753523532009 0.66851202781000296 0 0.7750489929959945 0.66593931409600093 0 0.79884539758237771 0.62875045078114233 0 0.82457059160610424 0.66831947184359608 0 0.39801143831225599 0.16651381068160659 0 0.36246644853392812 0.1399454205365751 0 0.39823268594401579 0.1116623613130045 0 0.078358742472063481 0.43365249433908948 0 0.033550201249889847 0.46247875832467239 0 0.035463093262830522 0.42673416072819947 0 0.25676291524611189 0.7436741304886243 0 0.2792923945214143 0.77665808831789485 0 0.22556077506376701 0.77837424984191617 0 0.2236846579037573 0.67380363126050236 0 0.2248999640082178 0.72584299459689172 0 0.19068556247388771 0.71028988922845504 0 0.50715858906372158 0.63295939104129484 0 0.5166924242153631 0.59825134841919447 0 0.5498280205245758 0.6290146943450976 0 0.14618258501891079 0.062070108745602003 0 0.12372429750337779 0.095814237875728972 0 0.10266856499169109 0.044518360900210059 0 0.083411279318303222 0.089699755330707398 0 0.10266856499169109 0.044518360900210059 0 0.12372429750337779 0.095814237875728972 0 0.083411279318375747 0.91030024466934134 0 0.1241151115713819 0.9045666525468371 0 0.10266856499240549 0.95548163909968886 0 0.14617343800780541 0.93808063414349496 0 0.10266856499240549 0.95548163909968886 0 0.1241151115713819 0.9045666525468371 0 0.5499999999988151 0 0 0.59999999999894682 0 0 0.57396793757665954 0.037011367187645222 0 0.54782696902220018 0.79245182748204157 0 0.50627822638148745 0.8263979829520941 0 0.50731287292894423 0.78963574450233831 0 0.6499999999999998 0.29999999999999999 0 0.62657463266645097 0.26524202571255862 0 0.67933712972090698 0.25920070958121938 0 0.86956835336234861 0.571283299838105 0 0.86907294890112186 0.52008116128001669 0 0.90900154012161016 0.53607784105648792 0 0.17933913398461551 0.2350063570234002 0 0.224700362040408 0.22206622194729711 0 0.21049769590865089 0.26857363548218488 0 0.43249999999999988 0.43937499999999979 0 0.3908716102680424 0.47010282357248828 0 0.38707855792647411 0.42299362914874578 0 0.27474541102162192 0.11822029332053539 0 0.22985637510995899 0.1298347970200906 0 0.24218496799700481 0.089025544070598317 0 0.64753070846764316 0.77332939069435502 0 0.66427993341343905 0.73232764502436276 0 0.6916490518212759 0.75387992374886192 0 0 0.40000000000166441 0 0.050583896093752537 0.38543522283434112 0 0.035463093262830522 0.42673416072819947 0 0.73483647259922602 0.44789725365921768 0 0.73947346780852752 0.49062440112282169 0 0.69385896817107129 0.48377516041410151 0 0.57484956128872922 0.66573805030881994 0 0.52584555706968406 0.66664215091846768 0 0.5498280205245758 0.6290146943450976 0 0.60000000000138687 1 0 0.55000000000173355 1 0 0.57382506491224949 0.9629411906298494 0 0.068743045408989428 0.48853989837882689 0 0.085622222639554768 0.53333248912060549 0 0.044576108720083309 0.53509043209532614 0 0.083105206071467416 0.20007701332709979 0 0.044081577119474857 0.2271058242433576 0 0.038512288486115001 0.1844147282893184 0 0.083105206071452636 0.79992298667296435 0 0.038512288486097702 0.8155852717111195 0 0.04408157711937423 0.7728941757575627 0 0.28307294598219601 0.50789252727458634 0 0.23975172658309729 0.49475499200540818 0 0.25982634974572738 0.46097799597715272 0 0.43698630808430822 0.080423614171545449 0 0.39591832466117061 0.056982757562006353 0 0.4320097814748517 0.037406712692169303 0 0.4367309254023824 0.92065556789053882 0 0.4308986359464303 0.96395712492906194 0 0.39641108128798319 0.94356127926187128 0 0.80185942888539485 0.77452061303608133 0 0.75841349681148107 0.75422312624214749 0 0.78578450296893509 0.73292684821144505 0 0.80185942888501827 0.074520613036224564 0 0.7527966693318906 0.053051678021508272 0 0.78393852574753176 0.032039079577822822 0 0.6499999999999998 0.69999999999999996 0 0.62460753523532009 0.66851202781000296 0 0.675261390228442 0.65996937624687813 0 0.33123028043633618 0.77629643437932982 0 0.38586766253264881 0.78219501014812498 0 0.35642984951668422 0.80994399665655703 0 0.6405463747586706 0.63290524857395714 0 0.675261390228442 0.65996937624687813 0 0.62460753523532009 0.66851202781000296 0 0.22278230690790279 0.44824268025881547 0 0.191953871957803 0.42546416763755879 0 0.24049127783545701 0.41270748208749802 0 0.077693244765132896 0.56932317963405099 0 0.050069554451969707 0.61308520079857043 0 0.034381862692950467 0.57372682250960894 0 0.25195515620380449 0.25883339815888678 0 0.24432083401701241 0.3006253385567515 0 0.21049769590865089 0.26857363548218488 0 0.46666084890304671 0.57634471035397938 0 0.5166924242153631 0.59825134841919447 0 0.47095389620662098 0.61892551373708504 0 0.50715858906372158 0.63295939104129484 0 0.47095389620662098 0.61892551373708504 0 0.5166924242153631 0.59825134841919447 0 0.72525833953073282 0.1032114801687094 0 0.7527966693318906 0.053051678021508272 0 0.76878382444651716 0.097147941686331368 0 0.80185942888501827 0.074520613036224564 0 0.76878382444651716 0.097147941686331368 0 0.7527966693318906 0.053051678021508272 0 0.72500000000000064 0.7952620967744265 0 0.75841349681148107 0.75422312624214749 0 0.77094201086366854 0.79647480515688507 0 0.80185942888539485 0.77452061303608133 0 0.77094201086366854 0.79647480515688507 0 0.75841349681148107 0.75422312624214749 0 0.72500000000000064 0.7952620967744265 0 0.68024162096458085 0.79868546898116533 0 0.6916490518212759 0.75387992374886192 0 0.64753070846764316 0.77332939069435502 0 0.6916490518212759 0.75387992374886192 0 0.68024162096458085 0.79868546898116533 0 0 0.50000000000205869 0 0 0.45000000000187229 0 0.033550201249889847 0.46247875832467239 0 0.69999999999999984 0.69999999999999996 0 0.675261390228442 0.65996937624687813 0 0.72500000000000064 0.67022701834392062 0 0.71406021706547751 0.63292083137662503 0 0.72500000000000064 0.67022701834392062 0 0.675261390228442 0.65996937624687813 0 0.65408113592120842 0.073941773121567966 0 0.61940220174112337 0.047251958781050582 0 0.66369801598854572 0.036327466368102787 0 0.59999999999894682 0 0 0.61940220174112337 0.047251958781050582 0 0.57396793757665954 0.037011367187645222 0 0.60000000000138687 1 0 0.57382506491224949 0.9629411906298494 0 0.62065498684670595 0.95224934003983619 0 0.33122374654748771 0.57588941099433744 0 0.35765792684946668 0.6000687869219653 0 0.31502927232353312 0.6134992213375432 0 0.35864735590330371 0.63903383440414463 0 0.31502927232353312 0.6134992213375432 0 0.35765792684946668 0.6000687869219653 0 0.15801167086041079 0.46008690540259539 0 0.19604738184454831 0.47787523520405789 0 0.16618607197337229 0.50652878253548905 0 0.078358742472063481 0.43365249433908948 0 0.035463093262830522 0.42673416072819947 0 0.050583896093752537 0.38543522283434112 0 0.19901705110390991 0.9175543425573498 0 0.22850979588452081 0.95594428570238643 0 0.18474005699953849 0.96231585248064622 0 0.19922788606653311 0.085920220746880993 0 0.184418230509967 0.038773194583122873 0 0.22668068146512929 0.045875643423131329 0 0.19922788606653311 0.085920220746880993 0 0.24218496799700481 0.089025544070598317 0 0.22985637510995899 0.1298347970200906 0 0.74999999999999989 0.69999999999999996 0 0.78578450296893509 0.73292684821144505 0 0.75841349681148107 0.75422312624214749 0 0.74999999999934175 0 0 0.78393852574753176 0.032039079577822822 0 0.7527966693318906 0.053051678021508272 0 0 0.60000000000138687 0 0.034381862692950467 0.57372682250960894 0 0.050069554451969707 0.61308520079857043 0 0.2236846579037573 0.67380363126050236 0 0.26439878998046262 0.7048065392091396 0 0.2248999640082178 0.72584299459689172 0 0.6236733212988993 0.14864538214901801 0 0.58516465772821369 0.11653801664834119 0 0.61956000905586006 0.1043312481793135 0 0.26104540868854792 0.81401944968719064 0 0.2792923945214143 0.77665808831789485 0 0.30857225866488791 0.81101973481716805 0 0.42377727103934271 0.25099357235810238 0 0.42905200079338551 0.19982395548231649 0 0.46429753744194407 0.22870891180733599 0 0.27820712747429932 0.65530134213254643 0 0.31502927232353312 0.6134992213375432 0 0.32263089806001177 0.66003674931826484 0 0.61343887413683884 0.856862479058357 0 0.61885627562261258 0.90282959257498208 0 0.5832743223239254 0.88483152652961872 0 0.43698630808430822 0.080423614171545449 0 0.47040171442036788 0.044141676406503738 0 0.47881186583059909 0.093591717165689425 0 0.4367309254023824 0.92065556789053882 0 0.47401147028110507 0.91529957330468115 0 0.47135117303824892 0.95556877749289892 0 0.91696753777131557 0.497780560203536 0 0.95631871884947484 0.51827533208233789 0 0.90900154012161016 0.53607784105648792 0 0.93732437411268477 0.55911392101136159 0 0.90900154012161016 0.53607784105648792 0 0.95631871884947484 0.51827533208233789 0 0.27474541102162192 0.11822029332053539 0 0.25557216766470708 0.15874861286892261 0 0.22985637510995899 0.1298347970200906 0 0.2185883431182947 0.18019736283949719 0 0.22985637510995899 0.1298347970200906 0 0.25557216766470708 0.15874861286892261 0 0.29348325746214782 0.31350119524708198 0 0.33402499257867951 0.28911035184473982 0 0.32752639306529541 0.32610012995269699 0 0.27499999999933927 0.060310814194988557 0 0.32541448401678508 0.046215317981507749 0 0.3096713403101819 0.085471541595262421 0 0.27270076654418179 0.87751467830216623 0 0.24536017905392571 0.90704567837671446 0 0.2401283238295133 0.85648409884788523 0 1 0.44999999999963131 0 1 0.49999999999950101 0 0.96228564064454991 0.48206450662049471 0 0.61343887413683884 0.856862479058357 0 0.66412543161245952 0.88015090885499059 0 0.61885627562261258 0.90282959257498208 0 0 0.45000000000187229 0 0 0.40000000000166441 0 0.035463093262830522 0.42673416072819947 0 0.69999999999999984 0.69999999999999996 0 0.6916490518212759 0.75387992374886192 0 0.66427993341343905 0.73232764502436276 0 0.43846182030517877 0.64845797726506715 0 0.43323420005758778 0.6913544522562407 0 0.3977710372045391 0.65868194622830212 0 0.4367309254023824 0.92065556789053882 0 0.44003836461056539 0.88093474584252718 0 0.47401147028110507 0.91529957330468115 0 0.43846182030517877 0.64845797726506715 0 0.39743091024207589 0.6239520004230239 0 0.43545892161006339 0.61093128915313821 0 0.43846182030517877 0.64845797726506715 0 0.3977710372045391 0.65868194622830212 0 0.39743091024207589 0.6239520004230239 0 0.26429849586623999 0.19346700179430079 0 0.29336099386129338 0.15892013001050981 0 0.31255190597181792 0.19850845631528771 0 0.19670163708476801 0.31472518408333222 0 0.21049769590865089 0.26857363548218488 0 0.24432083401701241 0.3006253385567515 0 0.57724883562309992 0.92155686857100794 0 0.62065498684670595 0.95224934003983619 0 0.57382506491224949 0.9629411906298494 0 0.4409427642593301 0.35743108089689513 0 0.46655310992796922 0.39650496622958609 0 0.42161023666869668 0.39493916313643851 0 0.46666084890304671 0.57634471035397938 0 0.47095389620662098 0.61892551373708504 0 0.43545892161006339 0.61093128915313821 0 0.6879972333610942 0.43038561374960838 0 0.65178832218679827 0.45929119821019959 0 0.63912439215427275 0.41063340167983359 0 0.43698630808430822 0.080423614171545449 0 0.4320097814748517 0.037406712692169303 0 0.47040171442036788 0.044141676406503738 0 0.4367309254023824 0.92065556789053882 0 0.47135117303824892 0.95556877749289892 0 0.4308986359464303 0.96395712492906194 0 0.79680861578988083 0.92656778056766709 0 0.81486180804382891 0.96321394949790495 0 0.770759834363826 0.95919399014344442 0 0.79680861578956375 0.22656778056752541 0 0.81486180804364938 0.26321394949780091 0 0.77075983436335049 0.25919399014334171 0 0.71508799138962864 0.36622814920737751 0 0.68128176404677243 0.38629093627004979 0 0.68887083591306764 0.33632058575757479 0 0.35864735590330371 0.63903383440414463 0 0.32263089806001177 0.66003674931826484 0 0.31502927232353312 0.6134992213375432 0 0.21858834311891909 0.81980263716112767 0 0.2401283238295133 0.85648409884788523 0 0.19741632902693801 0.86755867406447229 0 0.35312867752657662 0.084946736076730367 0 0.32215584939770009 0.1218492143506909 0 0.3096713403101819 0.085471541595262421 0 0.35752321586431363 0.9185439911803448 0 0.35864759629805099 0.87963482415279515 0 0.39767323751400468 0.89584229130535065 0 0.41914690343363781 0.30688979866601612 0 0.4604742573284204 0.27846934318264788 0 0.46226845272279993 0.31901800744800313 0 0.33084213324567391 0.16272720141332131 0 0.32215584939770009 0.1218492143506909 0 0.36246644853392812 0.1399454205365751 0 0.46666084890304671 0.57634471035397938 0 0.42644501560315817 0.54603747078095544 0 0.47793794143994173 0.52940715638744962 0 0 0.60000000000138687 0 0 0.55000000000173355 0 0.034381862692950467 0.57372682250960894 0 0.77354604466818633 0.40378688774472771 0 0.74764719760526988 0.3719647154012321 0 0.78145581580700685 0.34881365920033602 0 0.34999999999912063 0 0 0.3615861437013822 0.03582617922508851 0 0.32541448401678508 0.046215317981507749 0 0.35000000000145642 1 0 0.32544832635163229 0.95485394099568932 0 0.36184234618600131 0.96443954459096326 0 0.57667858002728545 0.078486105337742612 0 0.57396793757665954 0.037011367187645222 0 0.61940220174112337 0.047251958781050582 0 0.47357141910802508 0.1873585799078378 0 0.50760557329222289 0.20700468884612061 0 0.46429753744194407 0.22870891180733599 0 0.49695729691142171 0.25014895411178018 0 0.46429753744194407 0.22870891180733599 0 0.50760557329222289 0.20700468884612061 0 0.33084213324567391 0.16272720141332131 0 0.3572130504031617 0.1874703368446563 0 0.31255190597181792 0.19850845631528771 0 0.6879972333610942 0.43038561374960838 0 0.63912439215427275 0.41063340167983359 0 0.68128176404677243 0.38629093627004979 0 0.65408113592120842 0.073941773121567966 0 0.65290632656860115 0.11434202593454081 0 0.61956000905586006 0.1043312481793135 0 0.33084213324567391 0.16272720141332131 0 0.31255190597181792 0.19850845631528771 0 0.29336099386129338 0.15892013001050981 0 0.61209567303293111 0.44669033081290321 0 0.63912439215427275 0.41063340167983359 0 0.65178832218679827 0.45929119821019959 0 0.086179601630648681 0.64647209519980475 0 0.1024350934457823 0.60772393977513839 0 0.1241190223511371 0.64391885572885044 0 0.44999999999882923 0 0 0.47040171442036788 0.044141676406503738 0 0.4320097814748517 0.037406712692169303 0 0.45000000000187229 1 0 0.4308986359464303 0.96395712492906194 0 0.47135117303824892 0.95556877749289892 0 0.74999999999934175 0 0 0.7527966693318906 0.053051678021508272 0 0.72683645290270404 0.027797073151180601 0 0.74999999999999989 0.69999999999999996 0 0.75841349681148107 0.75422312624214749 0 0.72501250972655151 0.74067302935308721 0 0.69999999999999984 0.69999999999999996 0 0.72501250972655151 0.74067302935308721 0 0.6916490518212759 0.75387992374886192 0 0.74999999999934175 0 0 0.79999999999947335 0 0 0.78393852574753176 0.032039079577822822 0 0.74999999999999989 0.69999999999999996 0 0.79999999999999982 0.69999999999999996 0 0.78578450296893509 0.73292684821144505 0 0.6405463747586706 0.63290524857395714 0 0.5991018319127801 0.62925360607495295 0 0.63065402604362242 0.59661356661633302 0 0.65481233915350323 0.35652751921065562 0 0.68887083591306764 0.33632058575757479 0 0.68128176404677243 0.38629093627004979 0 0.89999999999999991 0.29999999999999999 0 0.94999999999999996 0.29999999999999999 0 0.92012390126144183 0.33123581297173937 0 0.89999999999999991 0.69999999999999996 0 0.92057473616084773 0.66770436535372446 0 0.94999999999999996 0.69999999999999996 0 0.4367309254023824 0.92065556789053882 0 0.39767323751400468 0.89584229130535065 0 0.44003836461056539 0.88093474584252718 0 0.2185883431182947 0.18019736283949719 0 0.18124454140915969 0.18790916706335251 0 0.18652628422869419 0.14162325200928061 0 0.20050006573841939 0.53248514016039872 0 0.19604738184454831 0.47787523520405789 0 0.23975172658309729 0.49475499200540818 0 0.65507451745379841 0.92229208810758578 0 0.61885627562261258 0.90282959257498208 0 0.66412543161245952 0.88015090885499059 0 0.65394964615507722 0.22666784374016369 0 0.67933712972090698 0.25920070958121938 0 0.62657463266645097 0.26524202571255862 0 0.077693244765132896 0.56932317963405099 0 0.034381862692950467 0.57372682250960894 0 0.044576108720083309 0.53509043209532614 0 0.39801143831225599 0.16651381068160659 0 0.38831533174504851 0.2189834941785925 0 0.3572130504031617 0.1874703368446563 0 0.6499999999999998 0.69999999999999996 0 0.69999999999999984 0.69999999999999996 0 0.66427993341343905 0.73232764502436276 0 0.1215415378367805 0.72939333680004137 0 0.15332765547575641 0.71200081858233666 0 0.14335651144331049 0.75565258250209677 0 0.6405463747586706 0.63290524857395714 0 0.63065402604362242 0.59661356661633302 0 0.67529834988829951 0.61613270668143583 0 0.67323294229744413 0.57556450033612505 0 0.67529834988829951 0.61613270668143583 0 0.63065402604362242 0.59661356661633302 0 0.91750694127107502 0.36982372220068471 0 0.87430060258887643 0.34056085888204451 0 0.92012390126144183 0.33123581297173937 0 0.89999999999999991 0.29999999999999999 0 0.92012390126144183 0.33123581297173937 0 0.87430060258887643 0.34056085888204451 0 0.89999999999999991 0.69999999999999996 0 0.87712158428786946 0.65709029563313581 0 0.92057473616084773 0.66770436535372446 0 0.91750694127105259 0.63017627779935648 0 0.92057473616084773 0.66770436535372446 0 0.87712158428786946 0.65709029563313581 0 0.33122374654748771 0.57588941099433744 0 0.29110487519241501 0.56588143995431495 0 0.33190227185843768 0.52715113583864037 0 0.57484956128872922 0.66573805030881994 0 0.5498280205245758 0.6290146943450976 0 0.5991018319127801 0.62925360607495295 0 0.57412547362576272 0.58273804879550706 0 0.5991018319127801 0.62925360607495295 0 0.5498280205245758 0.6290146943450976 0 0.65408113592120842 0.073941773121567966 0 0.66369801598854572 0.036327466368102787 0 0.7010294155333181 0.056779085686491267 0 0.27474541102162192 0.11822029332053539 0 0.32215584939770009 0.1218492143506909 0 0.29336099386129338 0.15892013001050981 0 0.33084213324567391 0.16272720141332131 0 0.29336099386129338 0.15892013001050981 0 0.32215584939770009 0.1218492143506909 0 0.5 0.29999999999999999 0 0.54999999999999993 0.29999999999999999 0 0.52752007115234678 0.33170632466418198 0 0.83573492347052902 0.36590755630746369 0 0.87430060258887643 0.34056085888204451 0 0.86844634540301924 0.38530937474099819 0 0.83758014339878906 0.63222013025741819 0 0.87159648282691515 0.61285406320581504 0 0.87712158428786946 0.65709029563313581 0 0.22278230690790279 0.44824268025881547 0 0.23975172658309729 0.49475499200540818 0 0.19604738184454831 0.47787523520405789 0 1 0.49999999999950101 0 0.95631871884947484 0.51827533208233789 0 0.96228564064454991 0.48206450662049471 0 0.1650278706801647 0.38791388161335733 0 0.13773355295499351 0.42497777642586831 0 0.1117088112799664 0.38831403004970022 0 0.61209567303293111 0.44669033081290321 0 0.57975577671020095 0.46172033326338591 0 0.57744073070774993 0.41535148636609359 0 0.077693244765132896 0.56932317963405099 0 0.1154888278694548 0.56733818459978413 0 0.1024350934457823 0.60772393977513839 0 0.68697391633157634 0.84450604838764298 0 0.65005442820240822 0.82644988530054031 0 0.68024162096458085 0.79868546898116533 0 0.76901770135486491 0.84293557325473656 0 0.77094201086366854 0.79647480515688507 0 0.80041942726660109 0.81543261647703358 0 0.77144070960558853 0.14311854477243749 0 0.76878382444651716 0.097147941686331368 0 0.80076557130237269 0.1154587552654202 0 0.5 0.69999999999999996 0 0.52584555706968406 0.66664215091846768 0 0.54999999999999993 0.69999999999999996 0 0.077693244765132896 0.56932317963405099 0 0.044576108720083309 0.53509043209532614 0 0.085622222639554768 0.53333248912060549 0 0.69999999999921003 0 0 0.72683645290270404 0.027797073151180601 0 0.7010294155333181 0.056779085686491267 0 1 0 0 0.97166519676946894 0.033371144900598393 0 0.94999999999986839 0 0 1 0.69999999999999996 0 0.97166519676947294 0.73337114490064459 0 0.94999999999999996 0.69999999999999996 0 1 0.69999999999999996 0 1 0.74999999999993494 0 0.97166519676947294 0.73337114490064459 0 1 0.29999999999999999 0 0.97166519676951801 0.26662885509932011 0 1 0.24999999999987299 0 1 1 0 0.94999999999979179 1 0 0.97166519676946206 0.96662885509935492 0 1 0 0 1 0.049999999999896842 0 0.97166519676946894 0.033371144900598393 0 1 0.29999999999999999 0 0.94999999999999996 0.29999999999999999 0 0.97166519676951801 0.26662885509932011 0 1 1 0 0.97166519676946206 0.96662885509935492 0 1 0.94999999999997109 0 0 0.55000000000173355 0 0.044576108720083309 0.53509043209532614 0 0.034381862692950467 0.57372682250960894 0 0.6879972333610942 0.43038561374960838 0 0.69385896817107129 0.48377516041410151 0 0.65178832218679827 0.45929119821019959 0 0.33084213324567391 0.16272720141332131 0 0.36246644853392812 0.1399454205365751 0 0.3572130504031617 0.1874703368446563 0 0.65408113592120842 0.073941773121567966 0 0.68330259535470161 0.10038702501083881 0 0.65290632656860115 0.11434202593454081 0 0.16500388252850301 0.66612077714085194 0 0.19068556247388771 0.71028988922845504 0 0.15332765547575641 0.71200081858233666 0 0.82709327591091286 0.84937141670920724 0 0.85600844944837662 0.88483418979512773 0 0.81159157511211755 0.88795995483179491 0 0.82709327591102189 0.14937141670914489 0 0.85600844944842547 0.1848341897950983 0 0.81283102246527783 0.1881007222486438 0 0.79999999999999982 0.29999999999999999 0 0.84999999999999987 0.29999999999999999 0 0.82500000000000062 0.33010209762754811 0 0.79999999999999982 0.69999999999999996 0 0.82457059160610424 0.66831947184359608 0 0.84999999999999987 0.69999999999999996 0 0.59999999999999976 0.69999999999999996 0 0.62460753523532009 0.66851202781000296 0 0.6499999999999998 0.69999999999999996 0 0.39801143831225599 0.16651381068160659 0 0.3572130504031617 0.1874703368446563 0 0.36246644853392812 0.1399454205365751 0 0.69999999999999984 0.29999999999999999 0 0.74999999999999989 0.29999999999999999 0 0.73090396928863699 0.33699297293167962 0 0.69999999999999984 0.69999999999999996 0 0.72500000000000064 0.67022701834392062 0 0.74999999999999989 0.69999999999999996 0 0.6236733212988993 0.14864538214901801 0 0.64011864159029941 0.18789607982138171 0 0.59443395090188023 0.18455690917515069 0 0.20050006573841939 0.53248514016039872 0 0.16618607197337229 0.50652878253548905 0 0.19604738184454831 0.47787523520405789 0 0.79680861578956375 0.22656778056752541 0 0.76587607630038135 0.18880039518954719 0 0.81283102246527783 0.1881007222486438 0 0.79680861578988083 0.92656778056766709 0 0.76891166905518427 0.88835469571185499 0 0.81159157511211755 0.88795995483179491 0 0.71406021706547751 0.63292083137662503 0 0.675261390228442 0.65996937624687813 0 0.67529834988829951 0.61613270668143583 0 0.6405463747586706 0.63290524857395714 0 0.67529834988829951 0.61613270668143583 0 0.675261390228442 0.65996937624687813 0 0.19670163708476801 0.31472518408333222 0 0.168349569971391 0.28054490850913671 0 0.21049769590865089 0.26857363548218488 0 0.47357141910802508 0.1873585799078378 0 0.46429753744194407 0.22870891180733599 0 0.42905200079338551 0.19982395548231649 0 0.59814117807200873 0.23398510860739519 0 0.5794309697024993 0.27124795968204829 0 0.54248833945060504 0.2520322959927106 0 0.6541250972820879 0.49999999999999989 0 0.65178832218679827 0.45929119821019959 0 0.69385896817107129 0.48377516041410151 0 0.54999999999999993 0.29999999999999999 0 0.5794309697024993 0.27124795968204829 0 0.59999999999999976 0.29999999999999999 0 0.7750489929959945 0.66593931409600093 0 0.74994237037456724 0.62775548192980357 0 0.79884539758237771 0.62875045078114233 0 0.77293540622714185 0.59448302402785813 0 0.79884539758237771 0.62875045078114233 0 0.74994237037456724 0.62775548192980357 0 0.14332333627550789 0.14578431753966009 0 0.16141998738593399 0.10404039647458049 0 0.18652628422869419 0.14162325200928061 0 0.38083244760691543 0.38531983672244652 0 0.42161023666869668 0.39493916313643851 0 0.38707855792647411 0.42299362914874578 0 0.43249999999999988 0.43937499999999979 0 0.38707855792647411 0.42299362914874578 0 0.42161023666869668 0.39493916313643851 0 0.43846182030517877 0.64845797726506715 0 0.47095389620662098 0.61892551373708504 0 0.47913475093885149 0.66010775372412711 0 0.50715858906372158 0.63295939104129484 0 0.47913475093885149 0.66010775372412711 0 0.47095389620662098 0.61892551373708504 0 0.69999999999999984 0.69999999999999996 0 0.74999999999999989 0.69999999999999996 0 0.72501250972655151 0.74067302935308721 0 0.4089290844030305 0.58728915500154233 0 0.35765792684946668 0.6000687869219653 0 0.37272913873093971 0.56192925302619479 0 0.69999999999921003 0 0 0.74999999999934175 0 0 0.72683645290270404 0.027797073151180601 0 0.17933913398461551 0.2350063570234002 0 0.21049769590865089 0.26857363548218488 0 0.168349569971391 0.28054490850913671 0 0.14474682429600511 0.85524784522713515 0 0.10562472963403439 0.87143394428979881 0 0.1074251789111534 0.83564394292147814 0 0.14332333627550789 0.14578431753966009 0 0.106902708054812 0.16453234188234539 0 0.1053400320299198 0.12877248826361379 0 0.2236846579037573 0.67380363126050236 0 0.19914261668318661 0.62286739485272158 0 0.2459498854893499 0.63248470766216769 0 0.049999999999899652 0 0 0.053064897599215843 0.048131547304697528 0 0.02576622439977887 0.024532886826226379 0 0 0.050000000000207989 0 0.02576622439977887 0.024532886826226379 0 0.053064897599215843 0.048131547304697528 0 0.050000000000207989 1 0 0.025766224399875661 0.97546711317377799 0 0.053064897599294662 0.95186845269532028 0 0 0.94999999999979179 0 0.053064897599294662 0.95186845269532028 0 0.025766224399875661 0.97546711317377799 0 0.47357141910802508 0.1873585799078378 0 0.48466639505193998 0.1421439844745814 0 0.51729576145820033 0.1683240575987815 0 0.077693244765132896 0.56932317963405099 0 0.085622222639554768 0.53333248912060549 0 0.1154888278694548 0.56733818459978413 0 0.64753070846764316 0.77332939069435502 0 0.63221990677827677 0.73442891067859706 0 0.66427993341343905 0.73232764502436276 0 0.4656888918609538 0.78493261229743638 0 0.42609163930740518 0.80361684430568059 0 0.42676259796334498 0.76772545931379299 0 0.4089290844030305 0.58728915500154233 0 0.39743091024207589 0.6239520004230239 0 0.35765792684946668 0.6000687869219653 0 0.55306006949600994 0.20198184231352201 0 0.50760557329222289 0.20700468884612061 0 0.51729576145820033 0.1683240575987815 0 1 0.8999999999998336 0 1 0.94999999999997109 0 0.97435614836744289 0.92499999999990257 0 1 0.19999999999974799 0 1 0.24999999999987299 0 0.97435614836740092 0.22499999999981049 0 1 0.74999999999993494 0 1 0.7999999999998193 0 0.97435614836745565 0.77499999999987745 0 1 0.049999999999896842 0 1 0.099999999999753911 0 0.97435614836748241 0.074999999999825387 0 0.86411095495256451 0.42388805655111889 0 0.86844634540301924 0.38530937474099819 0 0.90594285160987287 0.4141265964174129 0 0.86956835336234861 0.571283299838105 0 0.91143117093204207 0.58709913730335972 0 0.87159648282691515 0.61285406320581504 0 0 0 0 0.02576622439977887 0.024532886826226379 0 0 0.050000000000207989 0 0 1 0 0 0.94999999999979179 0 0.025766224399875661 0.97546711317377799 0 0 1 0 0.025766224399875661 0.97546711317377799 0 0.050000000000207989 1 0 0 0 0 0.049999999999899652 0 0 0.02576622439977887 0.024532886826226379 0 0.65394964615507722 0.22666784374016369 0 0.64011864159029941 0.18789607982138171 0 0.6865991819015953 0.189116534044597 0 0.25195515620380449 0.25883339815888678 0 0.28040350263641872 0.23054717217092141 0 0.29132859388405002 0.27203693976649962 0 0.61209567303293111 0.44669033081290321 0 0.65178832218679827 0.45929119821019959 0 0.61547661924074692 0.48539576058873962 0 0.6541250972820879 0.49999999999999989 0 0.61547661924074692 0.48539576058873962 0 0.65178832218679827 0.45929119821019959 0 0.19670163708476801 0.31472518408333222 0 0.24432083401701241 0.3006253385567515 0 0.22615676742807109 0.33458786033114157 0 0.15801167086041079 0.46008690540259539 0 0.13773355295499351 0.42497777642586831 0 0.191953871957803 0.42546416763755879 0 0.1650278706801647 0.38791388161335733 0 0.191953871957803 0.42546416763755879 0 0.13773355295499351 0.42497777642586831 0 0.50715858906372158 0.63295939104129484 0 0.52584555706968406 0.66664215091846768 0 0.47913475093885149 0.66010775372412711 0 0.5 0.69999999999999996 0 0.47913475093885149 0.66010775372412711 0 0.52584555706968406 0.66664215091846768 0 0.51076801031701946 0.1202837388510348 0 0.51729576145820033 0.1683240575987815 0 0.48466639505193998 0.1421439844745814 0 0.71406021706547751 0.63292083137662503 0 0.74994237037456724 0.62775548192980357 0 0.72500000000000064 0.67022701834392062 0 0.71508799138962864 0.36622814920737751 0 0.73090396928863699 0.33699297293167962 0 0.74764719760526988 0.3719647154012321 0 0.22278230690790279 0.44824268025881547 0 0.25982634974572738 0.46097799597715272 0 0.23975172658309729 0.49475499200540818 0 0.80185942888539485 0.77452061303608133 0 0.78578450296893509 0.73292684821144505 0 0.81864958914779962 0.73589050177899629 0 0.80185942888501827 0.074520613036224564 0 0.78393852574753176 0.032039079577822822 0 0.81864958914740749 0.035890501779055867 0 0.5 0.29999999999999999 0 0.46226845272279993 0.31901800744800313 0 0.4604742573284204 0.27846934318264788 0 0.6405463747586706 0.63290524857395714 0 0.62460753523532009 0.66851202781000296 0 0.5991018319127801 0.62925360607495295 0 0.79680861578988083 0.92656778056766709 0 0.770759834363826 0.95919399014344442 0 0.75729602384198635 0.92353652857884294 0 0.79680861578956375 0.22656778056752541 0 0.77075983436335049 0.25919399014334171 0 0.75668890529066124 0.2244279804069782 0 0.65394964615507722 0.22666784374016369 0 0.69397719155551807 0.2245125647000914 0 0.67933712972090698 0.25920070958121938 0 0.81973119833356312 0.43505687159469048 0 0.84925632466077294 0.45359738909549091 0 0.81400510706333218 0.47357325943904899 0 0.83758014339878906 0.63222013025741819 0 0.82457059160610424 0.66831947184359608 0 0.79884539758237771 0.62875045078114233 0 0.25676291524611189 0.7436741304886243 0 0.2248999640082178 0.72584299459689172 0 0.26439878998046262 0.7048065392091396 0 0.91696753777131557 0.497780560203536 0 0.90900154012161016 0.53607784105648792 0 0.86907294890112186 0.52008116128001669 0 0.17933913398461551 0.2350063570234002 0 0.168349569971391 0.28054490850913671 0 0.14377654328998779 0.2442024734791064 0 0.1247745017231483 0.27198077544791172 0 0.14377654328998779 0.2442024734791064 0 0.168349569971391 0.28054490850913671 0 0.34258405725730701 0.4444034294386992 0 0.35221190152536241 0.40457127605439203 0 0.38707855792647411 0.42299362914874578 0 0.47357141910802508 0.1873585799078378 0 0.51729576145820033 0.1683240575987815 0 0.50760557329222289 0.20700468884612061 0 0.19670163708476801 0.31472518408333222 0 0.22615676742807109 0.33458786033114157 0 0.18434624290945251 0.35208838264196463 0 0.22033343844674469 0.36963382230740238 0 0.18434624290945251 0.35208838264196463 0 0.22615676742807109 0.33458786033114157 0 0.24432083401701241 0.3006253385567515 0 0.25966125648670141 0.34351016742083729 0 0.22615676742807109 0.33458786033114157 0 0.93814194660195893 0.44426664081746747 0 0.90594285160987287 0.4141265964174129 0 0.95871855522754235 0.40006508612975411 0 0.91750694127107502 0.36982372220068471 0 0.95871855522754235 0.40006508612975411 0 0.90594285160987287 0.4141265964174129 0 0.91750694127105259 0.63017627779935648 0 0.91143117093204207 0.58709913730335972 0 0.95867599106212187 0.60011091146651041 0 0.93732437411268477 0.55911392101136159 0 0.95867599106212187 0.60011091146651041 0 0.91143117093204207 0.58709913730335972 0 0.50715858906372158 0.63295939104129484 0 0.5498280205245758 0.6290146943450976 0 0.52584555706968406 0.66664215091846768 0 0.94399509803918602 0.75600490196082126 0 0.97435614836745565 0.77499999999987745 0 0.95386563387742829 0.80414874155775029 0 0.94399509803922566 0.056004901960802607 0 0.97435614836748241 0.074999999999825387 0 0.95386563387744361 0.1041487415577465 0 0.94399509803921056 0.24399509803922639 0 0.95391631417672862 0.19584263333809451 0 0.97435614836740092 0.22499999999981049 0 0.94399509803919068 0.9439950980391687 0 0.95391631417670719 0.89584263333814784 0 0.97435614836744289 0.92499999999990257 0 0.79680861578988083 0.92656778056766709 0 0.75729602384198635 0.92353652857884294 0 0.76891166905518427 0.88835469571185499 0 0.79680861578956375 0.22656778056752541 0 0.75668890529066124 0.2244279804069782 0 0.76587607630038135 0.18880039518954719 0 0.65394964615507722 0.22666784374016369 0 0.6865991819015953 0.189116534044597 0 0.69397719155551807 0.2245125647000914 0 0.38083244760691543 0.38531983672244652 0 0.38707855792647411 0.42299362914874578 0 0.35221190152536241 0.40457127605439203 0 1 0.7999999999998193 0 0.95386563387742829 0.80414874155775029 0 0.97435614836745565 0.77499999999987745 0 1 0.099999999999753911 0 0.95386563387744361 0.1041487415577465 0 0.97435614836748241 0.074999999999825387 0 1 0.8999999999998336 0 0.97435614836744289 0.92499999999990257 0 0.95391631417670719 0.89584263333814784 0 1 0.19999999999974799 0 0.97435614836740092 0.22499999999981049 0 0.95391631417672862 0.19584263333809451 0 0.84723782639812573 0.48638347960178252 0 0.81400510706333218 0.47357325943904899 0 0.84925632466077294 0.45359738909549091 0 0.54999999999999993 0.29999999999999999 0 0.54248833945060504 0.2520322959927106 0 0.5794309697024993 0.27124795968204829 0 0.94999999999999996 0.29999999999999999 0 0.95780851984364423 0.34215720972155339 0 0.92012390126144183 0.33123581297173937 0 0.94999999999999996 0.69999999999999996 0 0.92057473616084773 0.66770436535372446 0 0.9578014258160763 0.65787212321113708 0 0.15801167086041079 0.46008690540259539 0 0.113541300460994 0.46208784312094731 0 0.13773355295499351 0.42497777642586831 0 0.7250000000005199 0.94981617647078953 0 0.68015064798562208 0.95924320340003011 0 0.68987011941058407 0.92105047536677087 0 0.65507451745379841 0.92229208810758578 0 0.68987011941058407 0.92105047536677087 0 0.68015064798562208 0.95924320340003011 0 0.77846603114747959 0.49850927265137401 0 0.77972660463949339 0.45529290596363098 0 0.81400510706333218 0.47357325943904899 0 0.27866744612395528 0.38416094670951489 0 0.25966125648670141 0.34351016742083729 0 0.29644548887253103 0.34914008784168082 0 0.61209567303293111 0.44669033081290321 0 0.61547661924074692 0.48539576058873962 0 0.57975577671020095 0.46172033326338591 0 0.57611405284611883 0.50165903596042916 0 0.57975577671020095 0.46172033326338591 0 0.61547661924074692 0.48539576058873962 0 0.7250000000005199 0.89375000000045834 0 0.76891166905518427 0.88835469571185499 0 0.75729602384198635 0.92353652857884294 0 0.72500000000001008 0.19776155966387679 0 0.76587607630038135 0.18880039518954719 0 0.75668890529066124 0.2244279804069782 0 0.72500000000001008 0.19776155966387679 0 0.69397719155551807 0.2245125647000914 0 0.6865991819015953 0.189116534044597 0 0.083411279318303222 0.089699755330707398 0 0.12372429750337779 0.095814237875728972 0 0.1053400320299198 0.12877248826361379 0 0.083411279318375747 0.91030024466934134 0 0.10562472963403439 0.87143394428979881 0 0.1241151115713819 0.9045666525468371 0 0.14617343800780541 0.93808063414349496 0 0.1241151115713819 0.9045666525468371 0 0.16206583317966519 0.89685560785156404 0 0.14618258501891079 0.062070108745602003 0 0.16141998738593399 0.10404039647458049 0 0.12372429750337779 0.095814237875728972 0 0.33277555741076909 0.36432196682010132 0 0.35221190152536241 0.40457127605439203 0 0.31778888742534622 0.40581751814196781 0 0.7250000000005199 0.94981617647078953 0 0.75729602384198635 0.92353652857884294 0 0.770759834363826 0.95919399014344442 0 0.72500000000000064 0.2498161764706 0 0.75668890529066124 0.2244279804069782 0 0.77075983436335049 0.25919399014334171 0 0.72500000000000064 0.2498161764706 0 0.67933712972090698 0.25920070958121938 0 0.69397719155551807 0.2245125647000914 0 0.6236733212988993 0.14864538214901801 0 0.61956000905586006 0.1043312481793135 0 0.65290632656860115 0.11434202593454081 0 0.81973119833356312 0.43505687159469048 0 0.81400510706333218 0.47357325943904899 0 0.77972660463949339 0.45529290596363098 0 0.25676291524611189 0.7436741304886243 0 0.29904318922293632 0.74132814928635593 0 0.2792923945214143 0.77665808831789485 0 0.36575549820117997 0.31677992835137742 0 0.32752639306529541 0.32610012995269699 0 0.33402499257867951 0.28911035184473982 0 0.14332333627550789 0.14578431753966009 0 0.18652628422869419 0.14162325200928061 0 0.18124454140915969 0.18790916706335251 0 0.57724883562309992 0.92155686857100794 0 0.5832743223239254 0.88483152652961872 0 0.61885627562261258 0.90282959257498208 0 0.57667858002728545 0.078486105337742612 0 0.61956000905586006 0.1043312481793135 0 0.58516465772821369 0.11653801664834119 0 0.80185942888539485 0.77452061303608133 0 0.80041942726660109 0.81543261647703358 0 0.77094201086366854 0.79647480515688507 0 0.80185942888501827 0.074520613036224564 0 0.80076557130237269 0.1154587552654202 0 0.76878382444651716 0.097147941686331368 0 0.64753070846764316 0.77332939069435502 0 0.68024162096458085 0.79868546898116533 0 0.65005442820240822 0.82644988530054031 0 0.26429849586623999 0.19346700179430079 0 0.25557216766470708 0.15874861286892261 0 0.29336099386129338 0.15892013001050981 0 0.29348325746214782 0.31350119524708198 0 0.29644548887253103 0.34914008784168082 0 0.25966125648670141 0.34351016742083729 0 0.68391457121233579 0.14440470121196541 0 0.65290632656860115 0.11434202593454081 0 0.68330259535470161 0.10038702501083881 0 0.91750694127107502 0.36982372220068471 0 0.92012390126144183 0.33123581297173937 0 0.95780851984364423 0.34215720972155339 0 0.91750694127105259 0.63017627779935648 0 0.9578014258160763 0.65787212321113708 0 0.92057473616084773 0.66770436535372446 0 0.22033343844674469 0.36963382230740238 0 0.22615676742807109 0.33458786033114157 0 0.25966125648670141 0.34351016742083729 0 1 0.94999999999997109 0 0.97166519676946206 0.96662885509935492 0 0.97435614836744289 0.92499999999990257 0 0.94399509803919068 0.9439950980391687 0 0.97435614836744289 0.92499999999990257 0 0.97166519676946206 0.96662885509935492 0 0.94399509803921056 0.24399509803922639 0 0.97435614836740092 0.22499999999981049 0 0.97166519676951801 0.26662885509932011 0 1 0.24999999999987299 0 0.97166519676951801 0.26662885509932011 0 0.97435614836740092 0.22499999999981049 0 1 0.74999999999993494 0 0.97435614836745565 0.77499999999987745 0 0.97166519676947294 0.73337114490064459 0 1 0.049999999999896842 0 0.97435614836748241 0.074999999999825387 0 0.97166519676946894 0.033371144900598393 0 0.94399509803918602 0.75600490196082126 0 0.97166519676947294 0.73337114490064459 0 0.97435614836745565 0.77499999999987745 0 0.94399509803922566 0.056004901960802607 0 0.97166519676946894 0.033371144900598393 0 0.97435614836748241 0.074999999999825387 0 0.77846603114747959 0.49850927265137401 0 0.81400510706333218 0.47357325943904899 0 0.81441713509985358 0.51161854125224959 0 0.77354604466818633 0.40378688774472771 0 0.72622533758026719 0.40265885511101601 0 0.74764719760526988 0.3719647154012321 0 0.71508799138962864 0.36622814920737751 0 0.74764719760526988 0.3719647154012321 0 0.72622533758026719 0.40265885511101601 0 0.84723782639812573 0.48638347960178252 0 0.84925632466077294 0.45359738909549091 0 0.88594198078881503 0.46167788676578442 0 0.86411095495256451 0.42388805655111889 0 0.88594198078881503 0.46167788676578442 0 0.84925632466077294 0.45359738909549091 0 0.43846182030517877 0.64845797726506715 0 0.43545892161006339 0.61093128915313821 0 0.47095389620662098 0.61892551373708504 0 0.33123028043633618 0.77629643437932982 0 0.35642984951668422 0.80994399665655703 0 0.30857225866488791 0.81101973481716805 0 0.33403534827021109 0.84402799729020661 0 0.30857225866488791 0.81101973481716805 0 0.35642984951668422 0.80994399665655703 0 0.26429849586623999 0.19346700179430079 0 0.31255190597181792 0.19850845631528771 0 0.28040350263641872 0.23054717217092141 0 0.57724883562309992 0.92155686857100794 0 0.54783390826260769 0.89287767010860219 0 0.5832743223239254 0.88483152652961872 0 0.55899371797446828 0.85003102233514438 0 0.5832743223239254 0.88483152652961872 0 0.54783390826260769 0.89287767010860219 0 0.4089290844030305 0.58728915500154233 0 0.43545892161006339 0.61093128915313821 0 0.39743091024207589 0.6239520004230239 0 0.77293540622714185 0.59448302402785813 0 0.81723410853263523 0.59419663659258926 0 0.79884539758237771 0.62875045078114233 0 0.83758014339878906 0.63222013025741819 0 0.79884539758237771 0.62875045078114233 0 0.81723410853263523 0.59419663659258926 0 0.35864735590330371 0.63903383440414463 0 0.39743091024207589 0.6239520004230239 0 0.3977710372045391 0.65868194622830212 0 0.56202748619534593 0.15054058349222879 0 0.54979595918804436 0.1060565713905809 0 0.58516465772821369 0.11653801664834119 0 0.57667858002728545 0.078486105337742612 0 0.58516465772821369 0.11653801664834119 0 0.54979595918804436 0.1060565713905809 0 0.33122374654748771 0.57588941099433744 0 0.37272913873093971 0.56192925302619479 0 0.35765792684946668 0.6000687869219653 0 0.35864735590330371 0.63903383440414463 0 0.35765792684946668 0.6000687869219653 0 0.39743091024207589 0.6239520004230239 0 0.71508799138962864 0.36622814920737751 0 0.68887083591306764 0.33632058575757479 0 0.73090396928863699 0.33699297293167962 0 0.29348325746214782 0.31350119524708198 0 0.32752639306529541 0.32610012995269699 0 0.29644548887253103 0.34914008784168082 0 0.33277555741076909 0.36432196682010132 0 0.29644548887253103 0.34914008784168082 0 0.32752639306529541 0.32610012995269699 0 0.34258405725730701 0.4444034294386992 0 0.31778888742534622 0.40581751814196781 0 0.35221190152536241 0.40457127605439203 0 0.79999999999999982 0.69999999999999996 0 0.81864958914779962 0.73589050177899629 0 0.78578450296893509 0.73292684821144505 0 0.79999999999947335 0 0 0.81864958914740749 0.035890501779055867 0 0.78393852574753176 0.032039079577822822 0 0.27474541102162192 0.11822029332053539 0 0.29336099386129338 0.15892013001050981 0 0.25557216766470708 0.15874861286892261 0 0 0.45000000000187229 0 0.035463093262830522 0.42673416072819947 0 0.033550201249889847 0.46247875832467239 0 0.6499999999999998 0.69999999999999996 0 0.66427993341343905 0.73232764502436276 0 0.63221990677827677 0.73442891067859706 0 0.84723782639812573 0.48638347960178252 0 0.81441713509985358 0.51161854125224959 0 0.81400510706333218 0.47357325943904899 0 0.26104540868854792 0.81401944968719064 0 0.30857225866488791 0.81101973481716805 0 0.29209212897034281 0.84715728365233667 0 0.33403534827021109 0.84402799729020661 0 0.29209212897034281 0.84715728365233667 0 0.30857225866488791 0.81101973481716805 0 0.69999999999999984 0.29999999999999999 0 0.73090396928863699 0.33699297293167962 0 0.68887083591306764 0.33632058575757479 0 
</DataArray>
</Points>
<Cells>
<DataArray type="UInt32" Name="connectivity" format="ascii">
0 1 2 3 4 5 6 7 8 9 10 11 12 13 14 15 16 17 18 19 20 21 22 23 24 25 26 27 28 29 30 31 32 33 34 35 36 37 38 39 40 41 42 43 44 45 46 47 48 49 50 51 52 53 54 55 56 57 58 59 60 61 62 63 64 65 66 67 68 69 70 71 72 73 74 75 76 77 78 79 80 81 82 83 84 85 86 87 88 89 90 91 92 93 94 95 96 97 98 99 100 101 102 103 104 105 106 107 108 109 110 111 112 113 114 115 116 117 118 119 120 121 122 123 124 125 126 127 128 129 130 131 132 133 134 135 136 137 138 139 140 141 142 143 144 145 146 147 148 149 150 151 152 153 154 155 156 157 158 159 160 161 162 163 164 165 166 167 168 169 170 171 172 173 174 175 176 177 178 179 180 181 182 183 184 185 186 187 188 189 190 191 192 193 194 195 196 197 198 199 200 201 202 203 204 205 206 207 208 209 210 211 212 213 214 215 216 217 218 219 220 221 222 223 224 225 226 227 228 229 230 231 232 233 234 235 236 237 238 239 240 241 242 243 244 245 246 247 248 249 250 251 252 253 254 255 256 257 258 259 260 261 262 263 264 265 266 267 268 269 270 271 272 273 274 275 276 277 278 279 280 281 282 283 284 285 286 287 288 289 290 291 292 293 294 295 296 297 298 299 300 301 302 303 304 305 306 307 308 309 310 311 312 313 314 315 316 317 318 319 320 321 322 323 324 325 326 327 328 329 330 331 332 333 334 335 336 337 338 339 340 341 342 343 344 345 346 347 348 349 350 351 352 353 354 355 356 357 358 359 360 361 362 363 364 365 366 367 368 369 370 371 372 373 374 375 376 377 378 379 380 381 382 383 384 385 386 387 388 389 390 391 392 393 394 395 396 397 398 399 400 401 402 403 404 405 406 407 408 409 410 411 412 413 414 415 416 417 418 419 420 421 422 423 424 425 426 427 428 429 430 431 432 433 434 435 436 437 438 439 440 441 442 443 444 445 446 447 448 449 450 451 452 453 454 455 456 457 458 459 460 461 462 463 464 465 466 467 468 469 470 471 472 473 474 475 476 477 478 479 480 481 482 483 484 485 486 487 488 489 490 491 492 493 494 495 496 497 498 499 500 501 502 503 504 505 506 507 508 509 510 511 512 513 514 515 516 517 518 519 520 521 522 523 524 525 526 527 528 529 530 531 532 533 534 535 536 537 538 539 540 541 542 543 544 545 546 547 548 549 550 551 552 553 554 555 556 557 558 559 560 561 562 563 564 565 566 567 568 569 570 571 572 573 574 575 576 577 578 579 580 581 582 583 584 585 586 587 588 589 590 591 592 593 594 595 596 597 598 599 600 601 602 603 604 605 606 607 608 609 610 611 612 613 614 615 616 617 618 619 620 621 622 623 624 625 626 627 628 629 630 631 632 633 634 635 636 637 638 639 640 641 642 643 644 645 646 647 648 649 650 651 652 653 654 655 656 657 658 659 660 661 662 663 664 665 666 667 668 669 670 671 672 673 674 675 676 677 678 679 680 681 682 683 684 685 686 687 688 689 690 691 692 693 694 695 696 697 698 699 700 701 702 703 704 705 706 707 708 709 710 711 712 713 714 715 716 717 718 719 720 721 722 723 724 725 726 727 728 729 730 731 732 733 734 735 736 737 738 739 740 741 742 743 744 745 746 747 748 749 750 751 752 753 754 755 756 757 758 759 760 761 762 763 764 765 766 767 768 769 770 771 772 773 774 775 776 777 778 779 780 781 782 783 784 785 786 787 788 789 790 791 792 793 794 795 796 797 798 799 800 801 802 803 804 805 806 807 808 809 810 811 812 813 814 815 816 817 818 819 820 821 822 823 824 825 826 827 828 829 830 831 832 833 834 835 836 837 838 839 840 841 842 843 844 845 846 847 848 849 850 851 852 853 854 855 856 857 858 859 860 861 862 863 864 865 866 867 868 869 870 871 872 873 874 875 876 877 878 879 880 881 882 883 884 885 886 887 888 889 890 891 892 893 894 895 896 897 898 899 900 901 902 903 904 905 906 907 908 909 910 911 912 913 914 915 916 917 918 919 920 921 922 923 924 925 926 927 928 929 930 931 932 933 934 935 936 937 938 939 940 941 942 943 944 945 946 947 948 949 950 951 952 953 954 955 956 957 958 959 960 961 962 963 964 965 966 967 968 969 970 971 972 973 974 975 976 977 978 979 980 981 982 983 984 985 986 987 988 989 990 991 992 993 994 995 996 997 998 999 1000 1001 1002 1003 1004 1005 1006 1007 1008 1009 1010 1011 1012 1013 1014 1015 1016 1017 1018 1019 1020 1021 1022 1023 1024 1025 1026 1027 1028 1029 1030 1031 1032 1033 1034 1035 1036 1037 1038 1039 1040 1041 1042 1043 1044 1045 1046 1047 1048 1049 1050 1051 1052 1053 1054 1055 1056 1057 1058 1059 1060 1061 1062 1063 1064 1065 1066 1067 1068 1069 1070 1071 1072 1073 1074 1075 1076 1077 1078 1079 1080 1081 1082 1083 1084 1085 1086 1087 1088 1089 1090 1091 1092 1093 1094 1095 1096 1097 1098 1099 1100 1101 1102 1103 1104 1105 1106 1107 1108 1109 1110 1111 1112 1113 1114 1115 1116 1117 1118 1119 1120 1121 1122 1123 1124 1125 1126 1127 1128 1129 1130 1131 1132 1133 1134 1135 1136 1137 1138 1139 1140 1141 1142 1143 1144 1145 1146 1147 1148 1149 1150 1151 1152 1153 1154 1155 1156 1157 1158 1159 1160 1161 1162 1163 1164 1165 1166 1167 1168 1169 1170 1171 1172 1173 1174 1175 1176 1177 1178 1179 1180 1181 1182 1183 1184 1185 1186 1187 1188 1189 1190 1191 1192 1193 1194 1195 1196 1197 1198 1199 1200 1201 1202 1203 1204 1205 1206 1207 1208 1209 1210 1211 1212 1213 1214 1215 1216 1217 1218 1219 1220 1221 1222 1223 1224 1225 1226 1227 1228 1229 1230 1231 1232 1233 1234 1235 1236 1237 1238 1239 1240 1241 1242 1243 1244 1245 1246 1247 1248 1249 1250 1251 1252 1253 1254 1255 1256 1257 1258 1259 1260 1261 1262 1263 1264 1265 1266 1267 1268 1269 1270 1271 1272 1273 1274 1275 1276 1277 1278 1279 1280 1281 1282 1283 1284 1285 1286 1287 1288 1289 1290 1291 1292 1293 1294 1295 1296 1297 1298 1299 1300 1301 1302 1303 1304 1305 1306 1307 1308 1309 1310 1311 1312 1313 1314 1315 1316 1317 1318 1319 1320 1321 1322 1323 1324 1325 1326 1327 1328 1329 1330 1331 1332 1333 1334 1335 1336 1337 1338 1339 1340 1341 1342 1343 1344 1345 1346 1347 1348 1349 1350 1351 1352 1353 1354 1355 1356 1357 1358 1359 1360 1361 1362 1363 1364 1365 1366 1367 1368 1369 1370 1371 1372 1373 1374 1375 1376 1377 1378 1379 1380 1381 1382 1383 1384 1385 1386 1387 1388 1389 1390 1391 1392 1393 1394 1395 1396 1397 1398 1399 1400 1401 1402 1403 1404 1405 1406 1407 1408 1409 1410 1411 1412 1413 1414 1415 1416 1417 1418 1419 1420 1421 1422 1423 1424 1425 1426 1427 1428 1429 1430 1431 1432 1433 1434 1435 1436 1437 1438 1439 1440 1441 1442 1443 1444 1445 1446 1447 1448 1449 1450 1451 1452 1453 1454 1455 1456 1457 1458 1459 1460 1461 1462 1463 1464 1465 1466 1467 1468 1469 1470 1471 1472 1473 1474 1475 1476 1477 1478 1479 1480 1481 1482 1483 1484 1485 1486 1487 1488 1489 1490 1491 1492 1493 1494 1495 1496 1497 1498 1499 1500 1501 1502 1503 1504 1505 1506 1507 1508 1509 1510 1511 1512 1513 1514 1515 1516 1517 1518 1519 1520 1521 1522 1523 1524 1525 1526 1527 1528 1529 1530 1531 1532 1533 1534 1535 1536 1537 1538 1539 1540 1541 1542 1543 1544 1545 1546 1547 1548 1549 1550 1551 1552 1553 1554 1555 1556 1557 1558 1559 1560 1561 1562 1563 1564 1565 1566 1567 1568 1569 1570 1571 1572 1573 1574 1575 1576 1577 1578 1579 1580 1581 1582 1583 1584 1585 1586 1587 1588 1589 1590 1591 1592 1593 1594 1595 1596 1597 1598 1599 1600 1601 1602 1603 1604 1605 1606 1607 1608 1609 1610 1611 1612 1613 1614 1615 1616 1617 1618 1619 1620 1621 1622 1623 1624 1625 1626 1627 1628 1629 1630 1631 1632 1633 1634 1635 1636 1637 1638 1639 1640 1641 1642 1643 1644 1645 1646 1647 1648 1649 1650 1651 1652 1653 1654 1655 1656 1657 1658 1659 1660 1661 1662 1663 1664 1665 1666 1667 1668 1669 1670 1671 1672 1673 1674 1675 1676 1677 1678 1679 1680 1681 1682 1683 1684 1685 1686 1687 1688 1689 1690 1691 1692 1693 1694 1695 1696 1697 1698 1699 1700 1701 1702 1703 1704 1705 1706 1707 1708 1709 1710 1711 1712 1713 1714 1715 1716 1717 1718 1719 1720 1721 1722 1723 1724 1725 1726 1727 1728 1729 1730 1731 1732 1733 1734 1735 1736 1737 1738 1739 1740 1741 1742 1743 1744 1745 1746 1747 1748 1749 1750 1751 1752 1753 1754 1755 1756 1757 1758 1759 1760 1761 1762 1763 1764 1765 1766 1767 1768 1769 1770 1771 1772 1773 1774 1775 1776 1777 1778 1779 1780 1781 1782 1783 1784 1785 1786 1787 1788 1789 1790 1791 1792 1793 1794 1795 1796 1797 1798 1799 1800 1801 1802 1803 1804 1805 1806 1807 1808 1809 1810 1811 1812 1813 1814 1815 1816 1817 1818 1819 1820 1821 1822 1823 1824 1825 1826 1827 1828 1829 1830 1831 1832 1833 1834 1835 1836 1837 1838 1839 1840 1841 1842 1843 1844 1845 1846 1847 1848 1849 1850 1851 1852 1853 1854 1855 1856 1857 1858 1859 1860 1861 1862 1863 1864 1865 1866 1867 1868 1869 1870 1871 1872 1873 1874 1875 1876 1877 1878 1879 1880 1881 1882 1883 1884 1885 1886 1887 1888 1889 1890 1891 1892 1893 1894 1895 1896 1897 1898 1899 1900 1901 1902 1903 1904 1905 1906 1907 1908 1909 1910 1911 1912 1913 1914 1915 1916 1917 1918 1919 1920 1921 1922 1923 1924 1925 1926 1927 1928 1929 1930 1931 1932 1933 1934 1935 1936 1937 1938 1939 1940 1941 1942 1943 1944 1945 1946 1947 1948 1949 1950 1951 1952 1953 1954 1955 1956 1957 1958 1959 1960 1961 1962 1963 1964 1965 1966 1967 1968 1969 1970 1971 1972 1973 1974 1975 1976 1977 1978 1979 1980 1981 1982 1983 1984 1985 1986 1987 1988 1989 1990 1991 1992 1993 1994 1995 1996 1997 1998 1999 2000 2001 2002 2003 2004 2005 2006 2007 2008 2009 2010 2011 2012 2013 2014 2015 2016 2017 2018 2019 2020 2021 2022 2023 2024 2025 2026 2027 2028 2029 2030 2031 2032 2033 2034 2035 2036 2037 2038 2039 2040 2041 2042 2043 2044 2045 2046 2047 2048 2049 2050 2051 2052 2053 2054 2055 2056 2057 2058 2059 2060 2061 2062 2063 2064 2065 2066 2067 2068 2069 2070 2071 2072 2073 2074 2075 2076 2077 2078 2079 2080 2081 2082 2083 2084 2085 2086 2087 2088 2089 2090 2091 2092 2093 2094 2095 2096 2097 2098 2099 2100 2101 2102 2103 2104 2105 2106 2107 2108 2109 2110 2111 2112 2113 2114 2115 2116 2117 2118 2119 2120 2121 2122 2123 2124 2125 2126 2127 2128 2129 2130 2131 2132 2133 2134 2135 2136 2137 2138 2139 2140 2141 2142 2143 2144 2145 2146 2147 2148 2149 2150 2151 2152 2153 2154 2155 2156 2157 2158 2159 2160 2161 2162 2163 2164 2165 2166 2167 2168 2169 2170 2171 2172 2173 2174 2175 2176 2177 2178 2179 2180 2181 2182 2183 2184 2185 2186 2187 2188 2189 2190 2191 2192 2193 2194 2195 2196 2197 2198 2199 2200 2201 2202 2203 2204 2205 2206 2207 2208 2209 2210 2211 2212 2213 2214 2215 2216 2217 2218 2219 2220 2221 2222 2223 2224 2225 2226 2227 2228 2229 2230 2231 2232 2233 2234 2235 2236 2237 2238 2239 2240 2241 2242 2243 2244 2245 2246 2247 2248 2249 2250 2251 2252 2253 2254 2255 2256 2257 2258 2259 2260 2261 2262 2263 2264 2265 2266 2267 2268 2269 2270 2271 2272 2273 2274 2275 2276 2277 2278 2279 2280 2281 2282 2283 2284 2285 2286 2287 2288 2289 2290 2291 2292 2293 2294 2295 2296 2297 2298 2299 2300 2301 2302 2303 2304 2305 2306 2307 2308 2309 2310 2311 2312 2313 2314 2315 2316 2317 2318 2319 2320 2321 2322 2323 2324 2325 2326 2327 2328 2329 2330 2331 2332 2333 2334 2335 2336 2337 2338 2339 2340 2341 2342 2343 2344 2345 2346 2347 2348 2349 2350 2351 2352 2353 2354 2355 2356 2357 2358 2359 2360 2361 2362 2363 2364 2365 2366 2367 2368 2369 2370 2371 2372 2373 2374 2375 2376 2377 2378 2379 2380 2381 2382 2383 2384 2385 2386 2387 2388 2389 2390 2391 2392 2393 2394 2395 2396 2397 2398 2399 2400 2401 2402 2403 2404 2405 2406 2407 2408 2409 2410 2411 2412 2413 2414 2415 2416 2417 2418 2419 2420 2421 2422 2423 2424 2425 2426 2427 2428 2429 2430 2431 2432 2433 2434 2435 2436 2437 2438 2439 2440 2441 2442 2443 2444 2445 2446 2447 2448 2449 2450 2451 2452 2453 2454 2455 2456 2457 2458 2459 2460 2461 2462 2463 2464 2465 2466 2467 2468 2469 2470 2471 2472 2473 2474 2475 2476 2477 2478 2479 2480 2481 2482 2483 2484 2485 2486 2487 2488 2489 2490 2491 2492 2493 2494 2495 2496 2497 2498 2499 2500 2501 2502 2503 2504 2505 2506 2507 2508 2509 2510 2511 2512 2513 2514 2515 2516 2517 2518 2519 2520 2521 2522 2523 2524 2525 2526 2527 2528 2529 2530 2531 2532 2533 2534 2535 2536 2537 2538 2539 2540 2541 2542 2543 2544 2545 2546 2547 2548 2549 2550 2551 2552 2553 2554 2555 2556 2557 2558 2559 2560 2561 2562 2563 2564 2565 2566 2567 2568 2569 2570 2571 2572 2573 2574 2575 2576 2577 2578 2579 2580 2581 2582 2583 2584 2585 2586 2587 2588 2589 2590 2591 2592 2593 2594 2595 2596 2597 2598 2599 2600 2601 2602 2603 2604 2605 2606 2607 2608 2609 2610 2611 2612 2613 2614 2615 2616 2617 2618 2619 2620 2621 2622 2623 2624 2625 2626 2627 2628 2629 2630 2631 2632 2633 2634 2635 2636 2637 2638 2639 2640 2641 2642 2643 2644 2645 2646 2647 2648 2649 2650 2651 2652 2653 2654 2655 2656 2657 2658 2659 2660 2661 2662 2663 2664 2665 2666 2667 2668 2669 2670 2671 2672 2673 2674 2675 2676 2677 2678 2679 2680 2681 2682 2683 2684 2685 2686 2687 2688 2689 2690 2691 2692 2693 2694 2695 2696 2697 2698 2699 2700 2701 2702 2703 2704 2705 2706 2707 2708 2709 2710 2711 2712 2713 2714 2715 2716 2717 2718 2719 2720 2721 2722 2723 2724 2725 2726 2727 2728 2729 2730 2731 2732 2733 2734 2735 2736 2737 2738 2739 2740 2741 2742 2743 2744 2745 2746 2747 2748 2749 2750 2751 2752 2753 2754 2755 2756 2757 2758 2759 2760 2761 2762 2763 2764 2765 2766 2767 2768 2769 2770 2771 2772 2773 2774 2775 2776 2777 2778 2779 2780 2781 2782 2783 2784 2785 2786 2787 2788 2789 2790 2791 2792 2793 2794 2795 2796 2797 2798 2799 2800 2801 2802 2803 2804 2805 2806 2807 2808 2809 2810 2811 2812 2813 2814 2815 2816 2817 2818 2819 2820 2821 2822 2823 2824 2825 2826 2827 2828 2829 2830 2831 2832 2833 2834 2835 2836 2837 2838 2839 2840 2841 2842 2843 2844 2845 2846 2847 2848 2849 2850 2851 2852 2853 2854 2855 2856 2857 2858 2859 2860 2861 2862 2863 2864 2865 2866 2867 2868 2869 2870 2871 2872 2873 2874 2875 2876 2877 2878 2879 2880 2881 2882 2883 2884 2885 2886 2887 2888 2889 2890 2891 2892 2893 2894 2895 2896 2897 2898 2899 2900 2901 2902 2903 2904 2905 2906 2907 2908 2909 2910 2911 2912 2913 2914 2915 2916 2917 2918 2919 2920 2921 2922 2923 2924 2925 2926 2927 2928 2929 2930 2931 2932 2933 2934 2935 2936 2937 2938 2939 2940 2941 2942 2943 2944 2945 2946 2947 2948 2949 2950 2951 2952 2953 2954 2955 2956 2957 2958 2959 2960 2961 2962 2963 2964 2965 2966 2967 2968 2969 2970 2971 2972 2973 2974 2975 2976 2977 2978 2979 2980 2981 2982 2983 2984 2985 2986 2987 2988 2989 2990 2991 2992 2993 2994 2995 2996 2997 2998 2999 3000 3001 3002 3003 3004 3005 3006 3007 3008 3009 3010 3011 3012 3013 3014 3015 3016 3017 3018 3019 3020 3021 3022 3023 3024 3025 3026 3027 3028 3029 3030 3031 3032 3033 3034 3035 3036 3037 3038 3039 3040 3041 3042 3043 3044 3045 3046 3047 3048 3049 3050 3051 3052 3053 3054 3055 3056 3057 3058 3059 3060 3061 3062 3063 3064 3065 3066 3067 3068 3069 3070 3071 3072 3073 3074 3075 3076 3077 3078 3079 3080 3081 3082 3083 3084 3085 3086 3087 3088 3089 3090 3091 3092 3093 3094 3095 3096 3097 3098 3099 3100 3101 3102 3103 3104 3105 3106 3107 3108 3109 3110 3111 3112 3113 3114 3115 3116 3117 3118 3119 3120 3121 3122 3123 3124 3125 3126 3127 3128 3129 3130 3131 3132 3133 3134 3135 3136 3137 3138 3139 3140 3141 
</DataArray>
<DataArray type="UInt32" Name="offsets" format="ascii">
2 4 6 8 10 12 14 16 18 20 22 24 26 28 30 32 34 36 38 40 43 46 49 52 55 58 61 64 67 70 73 76 79 82 85 88 91 94 97 100 103 106 109 112 115 118 121 124 127 130 133 136 139 142 145 148 151 154 157 160 163 166 169 172 175 178 181 184 187 190 193 196 199 202 205 208 211 214 217 220 223 226 229 232 235 238 241 244 247 250 253 256 259 262 265 268 271 274 277 280 283 286 289 292 295 298 301 304 307 310 313 316 319 322 325 328 331 334 337 340 343 346 349 352 355 358 361 364 367 370 373 376 379 382 385 388 391 394 397 400 403 406 409 412 415 418 421 424 427 430 433 436 439 442 445 448 451 454 457 460 463 466 469 472 475 478 481 484 487 490 493 496 499 502 505 508 511 514 517 520 523 526 529 532 535 538 541 544 547 550 553 556 559 562 565 568 571 574 577 580 583 586 589 592 595 598 601 604 607 610 613 616 619 622 625 628 631 634 637 640 643 646 649 652 655 658 661 664 667 670 673 676 679 682 685 688 691 694 697 700 703 706 709 712 715 718 721 724 727 730 733 736 739 742 745 748 751 754 757 760 763 766 769 772 775 778 781 784 787 790 793 796 799 802 805 808 811 814 817 820 823 826 829 832 835 838 841 844 847 850 853 856 859 862 865 868 871 874 877 880 883 886 889 892 895 898 901 904 907 910 913 916 919 922 925 928 931 934 937 940 943 946 949 952 955 958 961 964 967 970 973 976 979 982 985 988 991 994 997 1000 1003 1006 1009 1012 1015 1018 1021 1024 1027 1030 1033 1036 1039 1042 1045 1048 1051 1054 1057 1060 1063 1066 1069 1072 1075 1078 1081 1084 1087 1090 1093 1096 1099 1102 1105 1108 1111 1114 1117 1120 1123 1126 1129 1132 1135 1138 1141 1144 1147 1150 1153 1156 1159 1162 1165 1168 1171 1174 1177 1180 1183 1186 1189 1192 1195 1198 1201 1204 1207 1210 1213 1216 1219 1222 1225 1228 1231 1234 1237 1240 1243 1246 1249 1252 1255 1258 1261 1264 1267 1270 1273 1276 1279 1282 1285 1288 1291 1294 1297 1300 1303 1306 1309 1312 1315 1318 1321 1324 1327 1330 1333 1336 1339 1342 1345 1348 1351 1354 1357 1360 1363 1366 1369 1372 1375 1378 1381 1384 1387 1390 1393 1396 1399 1402 1405 1408 1411 1414 1417 1420 1423 1426 1429 1432 1435 1438 1441 1444 1447 1450 1453 1456 1459 1462 1465 1468 1471 1474 1477 1480 1483 1486 1489 1492 1495 1498 1501 1504 1507 1510 1513 1516 1519 1522 1525 1528 1531 1534 1537 1540 1543 1546 1549 1552 1555 1558 1561 1564 1567 1570 1573 1576 1579 1582 1585 1588 1591 1594 1597 1600 1603 1606 1609 1612 1615 1618 1621 1624 1627 1630 1633 1636 1639 1642 1645 1648 1651 1654 1657 1660 1663 1666 1669 1672 1675 1678 1681 1684 1687 1690 1693 1696 1699 1702 1705 1708 1711 1714 1717 1720 1723 1726 1729 1732 1735 1738 1741 1744 1747 1750 1753 1756 1759 1762 1765 1768 1771 1774 1777 1780 1783 1786 1789 1792 1795 1798 1801 1804 1807 1810 1813 1816 1819 1822 1825 1828 1831 1834 1837 1840 1843 1846 1849 1852 1855 1858 1861 1864 1867 1870 1873 1876 1879 1882 1885 1888 1891 1894 1897 1900 1903 1906 1909 1912 1915 1918 1921 1924 1927 1930 1933 1936 1939 1942 1945 1948 1951 1954 1957 1960 1963 1966 1969 1972 1975 1978 1981 1984 1987 1990 1993 1996 1999 2002 2005 2008 2011 2014 2017 2020 2023 2026 2029 2032 2035 2038 2041 2044 2047 2050 2053 2056 2059 2062 2065 2068 2071 2074 2077 2080 2083 2086 2089 2092 2095 2098 2101 2104 2107 2110 2113 2116 2119 2122 2125 2128 2131 2134 2137 2140 2143 2146 2149 2152 2155 2158 2161 2164 2167 2170 2173 2176 2179 2182 2185 2188 2191 2194 2197 2200 2203 2206 2209 2212 2215 2218 2221 2224 2227 2230 2233 2236 2239 2242 2245 2248 2251 2254 2257 2260 2263 2266 2269 2272 2275 2278 2281 2284 2287 2290 2293 2296 2299 2302 2305 2308 2311 2314 2317 2320 2323 2326 2329 2332 2335 2338 2341 2344 2347 2350 2353 2356 2359 2362 2365 2368 2371 2374 2377 2380 2383 2386 2389 2392 2395 2398 2401 2404 2407 2410 2413 2416 2419 2422 2425 2428 2431 2434 2437 2440 2443 2446 2449 2452 2455 2458 2461 2464 2467 2470 2473 2476 2479 2482 2485 2488 2491 2494 2497 2500 2503 2506 2509 2512 2515 2518 2521 2524 2527 2530 2533 2536 2539 2542 2545 2548 2551 2554 2557 2560 2563 2566 2569 2572 2575 2578 2581 2584 2587 2590 2593 2596 2599 2602 2605 2608 2611 2614 2617 2620 2623 2626 2629 2632 2635 2638 2641 2644 2647 2650 2653 2656 2659 2662 2665 2668 2671 2674 2677 2680 2683 2686 2689 2692 2695 2698 2701 2704 2707 2710 2713 2716 2719 2722 2725 2728 2731 2734 2737 2740 2743 2746 2749 2752 2755 2758 2761 2764 2767 2770 2773 2776 2779 2782 2785 2788 2791 2794 2797 2800 2803 2806 2809 2812 2815 2818 2821 2824 2827 2830 2833 2836 2839 2842 2845 2848 2851 2854 2857 2860 2863 2866 2869 2872 2875 2878 2881 2884 2887 2890 2893 2896 2899 2902 2905 2908 2911 2914 2917 2920 2923 2926 2929 2932 2935 2938 2941 2944 2947 2950 2953 2956 2959 2962 2965 2968 2971 2974 2977 2980 2983 2986 2989 2992 2995 2998 3001 3004 3007 3010 3013 3016 3019 3022 3025 3028 3031 3034 3037 3040 3043 3046 3049 3052 3055 3058 3061 3064 3067 3070 3073 3076 3079 3082 3085 3088 3091 3094 3097 3100 3103 3106 3109 3112 3115 3118 3121 3124 3127 3130 3133 3136 3139 3142 
</DataArray>
<DataArray type="UInt32" Name="types" format="ascii">
3 3 3 3 3 3 3 3 3 3 3 3 3 3 3 3 3 3 3 3 5 5 5 5 5 5 5 5 5 5 5 5 5 5 5 5 5 5 5 5 5 5 5 5 5 5 5 5 5 5 5 5 5 5 5 5 5 5 5 5 5 5 5 5 5 5 5 5 5 5 5 5 5 5 5 5 5 5 5 5 5 5 5 5 5 5 5 5 5 5 5 5 5 5 5 5 5 5 5 5 5 5 5 5 5 5 5 5 5 5 5 5 5 5 5 5 5 5 5 5 5 5 5 5 5 5 5 5 5 5 5 5 5 5 5 5 5 5 5 5 5 5 5 5 5 5 5 5 5 5 5 5 5 5 5 5 5 5 5 5 5 5 5 5 5 5 5 5 5 5 5 5 5 5 5 5 5 5 5 5 5 5 5 5 5 5 5 5 5 5 5 5 5 5 5 5 5 5 5 5 5 5 5 5 5 5 5 5 5 5 5 5 5 5 5 5 5 5 5 5 5 5 5 5 5 5 5 5 5 5 5 5 5 5 5 5 5 5 5 5 5 5 5 5 5 5 5 5 5 5 5 5 5 5 5 5 5 5 5 5 5 5 5 5 5 5 5 5 5 5 5 5 5 5 5 5 5 5 5 5 5 5 5 5 5 5 5 5 5 5 5 5 5 5 5 5 5 5 5 5 5 5 5 5 5 5 5 5 5 5 5 5 5 5 5 5 5 5 5 5 5 5 5 5 5 5 5 5 5 5 5 5 5 5 5 5 5 5 5 5 5 5 5 5 5 5 5 5 5 5 5 5 5 5 5 5 5 5 5 5 5 5 5 5 5 5 5 5 5 5 5 5 5 5 5 5 5 5 5 5 5 5 5 5 5 5 5 5 5 5 5 5 5 5 5 5 5 5 5 5 5 5 5 5 5 5 5 5 5 5 5 5 5 5 5 5 5 5 5 5 5 5 5 5 5 5 5 5 5 5 5 5 5 5 5 5 5 5 5 5 5 5 5 5 5 5 5 5 5 5 5 5 5 5 5 5 5 5 5 5 5 5 5 5 5 5 5 5 5 5 5 5 5 5 5 5 5 5 5 5 5 5 5 5 5 5 5 5 5 5 5 5 5 5 5 5 5 5 5 5 5 5 5 5 5 5 5 5 5 5 5 5 5 5 5 5 5 5 5 5 5 5 5 5 5 5 5 5 5 5 5 5 5 5 5 5 5 5 5 5 5 5 5 5 5 5 5 5 5 5 5 5 5 5 5 5 5 5 5 5 5 5 5 5 5 5 5 5 5 5 5 5 5 5 5 5 5 5 5 5 5 5 5 5 5 5 5 5 5 5 5 5 5 5 5 5 5 5 5 5 5 5 5 5 5 5 5 5 5 5 5 5 5 5 5 5 5 5 5 5 5 5 5 5 5 5 5 5 5 5 5 5 5 5 5 5 5 5 5 5 5 5 5 5 5 5 5 5 5 5 5 5 5 5 5 5 5 5 5 5 5 5 5 5 5 5 5 5 5 5 5 5 5 5 5 5 5 5 5 5 5 5 5 5 5 5 5 5 5 5 5 5 5 5 5 5 5 5 5 5 5 5 5 5 5 5 5 5 5 5 5 5 5 5 5 5 5 5 5 5 5 5 5 5 5 5 5 5 5 5 5 5 5 5 5 5 5 5 5 5 5 5 5 5 5 5 5 5 5 5 5 5 5 5 5 5 5 5 5 5 5 5 5 5 5 5 5 5 5 5 5 5 5 5 5 5 5 5 5 5 5 5 5 5 5 5 5 5 5 5 5 5 5 5 5 5 5 5 5 5 5 5 5 5 5 5 5 5 5 5 5 5 5 5 5 5 5 5 5 5 5 5 5 5 5 5 5 5 5 5 5 5 5 5 5 5 5 5 5 5 5 5 5 5 5 5 5 5 5 5 5 5 5 5 5 5 5 5 5 5 5 5 5 5 5 5 5 5 5 5 5 5 5 5 5 5 5 5 5 5 5 5 5 5 5 5 5 5 5 5 5 5 5 5 5 5 5 5 5 5 5 5 5 5 5 5 5 5 5 5 5 5 5 5 5 5 5 5 5 5 5 5 5 5 5 5 5 5 5 5 5 5 5 5 5 5 5 5 5 5 5 5 5 5 5 5 5 5 5 5 5 5 5 5 5 5 5 5 5 5 5 5 5 5 5 5 5 5 5 5 5 5 5 5 5 5 5 5 5 5 5 5 5 5 5 5 5 5 5 5 5 5 5 5 5 5 5 5 5 5 5 5 5 5 5 5 5 5 5 5 5 5 5 5 5 5 5 5 5 5 5 5 5 5 5 5 5 5 5 5 5 5 5 5 5 5 5 5 5 5 5 5 5 5 5 5 5 5 5 5 5 5 5 5 
</DataArray>
</Cells>
<PointData Scalars="" Vectors="displacement," Tensors="">
<DataArray type="Float64" Name="displacement" NumberOfComponents="3" format="ascii">
-6.1792992638873998e-06 -8.249129834891868e-06 0 -6.6337933044825337e-06 -1.1738393101894779e-05 0 -6.6337933044825337e-06 -1.1738393101894779e-05 0 -7.1455386357774501e-06 -1.593440618913435e-05 0 -7.1455386357774501e-06 -1.593440618913435e-05 0 -7.788036379687217e-06 -2.0847798962814374e-05 0 -7.788036379687217e-06 -2.0847798962814374e-05 0 -8.3754917531517575e-06 -2.6070875498280582e-05 0 -8.3754917531517575e-06 -2.6070875498280582e-05 0 -8.8889241236464251e-06 -3.1415672365047207e-05 0 -8.8889241236464251e-06 -3.1415672365047207e-05 0 -9.3853555950366612e-06 -3.6931492681241517e-05 0 -9.3853555950366612e-06 -3.6931492681241517e-05 0 -9.9812742811700044e-06 -4.1829545347365474e-05 0 -9.9812742811700044e-06 -4.1829545347365474e-05 0 -1.0661716333644859e-05 -4.7728706739183995e-05 0 -1.0661716333644859e-05 -4.7728706739183995e-05 0 -1.103153219310546e-05 -5.1176341774226947e-05 0 -1.103153219310546e-05 -5.1176341774226947e-05 0 -1.284534725725202e-05 -5.6605988154270626e-05 0 6.4568388071207933e-06 1.2375819891007475e-05 0 9.1909044757830411e-06 1.9710429475203179e-05 0 9.1909044757830411e-06 1.9710429475203179e-05 0 9.5623816678645214e-06 2.329050107857063e-05 0 9.5623816678645214e-06 2.329050107857063e-05 0 9.8073230569911919e-06 3.0745774124641442e-05 0 9.8073230569911919e-06 3.0745774124641442e-05 0 9.8032856717642567e-06 3.7031380750305218e-05 0 9.8032856717642567e-06 3.7031380750305218e-05 0 9.5608266655959314e-06 4.4238811742864765e-05 0 9.5608266655959314e-06 4.4238811742864765e-05 0 9.0543130839717374e-06 5.2396086304094592e-05 0 9.0543130839717374e-06 5.2396086304094592e-05 0 8.3103485169455633e-06 5.7909716457836035e-05 0 8.3103485169455633e-06 5.7909716457836035e-05 0 6.5978048179067909e-06 6.8460626902366571e-05 0 6.5978048179067909e-06 6.8460626902366571e-05 0 7.6422352439287398e-06 7.1117771752065713e-05 0 7.6422352439287398e-06 7.1117771752065713e-05 0 -2.9515919985000258e-06 8.1672791491275854e-05 0 -4.9295687021633041e-06 -2.7643904787592174e-06 0 -3.4668468871564435e-06 -5.8821575930179226e-07 0 -4.7852013348400783e-06 -2.2027824039613563e-06 0 -4.0440254653712369e-06 -1.3617541665512999e-06 0 -3.4668468871564435e-06 -5.8821575930179226e-07 0 -4.9295687021633041e-06 -2.7643904787592174e-06 0 -9.7679419623954726e-06 -6.695235859813302e-06 0 -8.0145039594412099e-06 -4.6676628546789201e-06 0 -8.6591570174395587e-06 -6.2920172525137293e-06 0 -8.6591570174395587e-06 -6.2920172525137293e-06 0 -8.0145039594412099e-06 -4.6676628546789201e-06 0 -7.3746655729488996e-06 -5.4513625405581939e-06 0 -6.2668924510716453e-06 1.5163238047587168e-06 0 -2.7543806342507134e-06 2.3600446980911666e-07 0 -5.768097790733404e-06 5.9265260007942497e-07 0 -4.3842717707001045e-06 -1.3722308338038208e-06 0 -4.0476216807988705e-06 -7.5872662019478056e-07 0 -1.9545878528003871e-06 -3.6902697268337648e-07 0 -3.1440821756366871e-06 1.1935804855230417e-06 0 -2.7543806342507134e-06 2.3600446980911666e-07 0 -6.2668924510716453e-06 1.5163238047587168e-06 0 -2.2536018765221911e-06 -1.0159286023330687e-06 0 -4.3842717707001045e-06 -1.3722308338038208e-06 0 -1.9545878528003871e-06 -3.6902697268337648e-07 0 -1.1786942946611088e-05 -3.0882295508896092e-06 0 -1.4586894139904655e-05 -4.2912050548782474e-06 0 -1.1383475109123804e-05 -2.5795579299818819e-06 0 -2.287547020069396e-05 6.3778782552659675e-06 0 -1.7987105907196338e-05 4.1243996891025917e-06 0 -1.7533907245635049e-05 3.6874741968051601e-06 0 -1.8407194823955964e-07 3.2721000055420982e-07 0 -1.8382342715378834e-07 7.1837194335656694e-07 0 -7.0423888127255379e-07 -4.5960671684067535e-08 0 -7.2872581101361885e-07 7.6659410010366771e-07 0 -7.042388812725539e-07 -4.5960671684067535e-08 0 -1.8382342715378834e-07 7.1837194335656694e-07 0 -2.0043221056319417e-06 8.2192105898139108e-07 0 -2.5833399839247603e-06 7.579741283613695e-07 0 -1.5584813406355329e-06 9.3943817463162944e-07 0 -8.8121510774567363e-10 -3.792419036738374e-10 0 -5.9489123821659533e-10 -2.5648649472205709e-10 0 -6.7655071107812507e-07 -6.2934077720412844e-07 0 -6.6789552851596486e-10 2.4320326205344236e-10 0 -8.6267011362248535e-10 2.5917029623777266e-10 0 -7.6764045705701111e-07 5.5140715987690479e-07 0 -1.1888894455008019e-05 -9.0986862095932306e-06 0 -1.159683671619824e-05 -9.22842903970168e-06 0 -9.7679419623954726e-06 -6.695235859813302e-06 0 5.7267704431484946e-06 1.3930877743037625e-05 0 2.0826012969543277e-06 9.013795317996629e-06 0 1.8012300425291086e-06 9.7185989462606869e-06 0 -2.2899274732363526e-05 -8.8337904820140503e-05 0 -1.7392500841718937e-05 -8.2386746723777735e-05 0 -2.3054369935133944e-05 -7.9362376919409804e-05 0 -2.7917232618737207e-05 0.00019050743628481849 0 -4.1937447808273348e-05 0.00017553445585933314 0 -2.8139675514662869e-05 0.00017040469582079367 0 -2.7917232618737207e-05 0.00019050743628481849 0 -2.8139675514662869e-05 0.00017040469582079367 0 -1.4655278782849429e-05 0.0001765883133683561 0 -2.2899274732363526e-05 -8.8337904820140503e-05 0 -2.3054369935133944e-05 -7.9362376919409804e-05 0 -2.898011800300323e-05 -8.1555505601516127e-05 0 -4.44320530042652e-05 0.00015880378962488539 0 -2.7027767085506237e-05 0.00015108282721576949 0 -2.8139675514662869e-05 0.00017040469582079367 0 -1.6329304963055645e-05 -7.4458196668350846e-05 0 -2.3289932907714245e-05 -7.0240475973445789e-05 0 -2.3054369935133944e-05 -7.9362376919409804e-05 0 -2.0043221056319417e-06 8.2192105898139108e-07 0 -1.5584813406355329e-06 9.3943817463162944e-07 0 -1.230188786334176e-06 8.1893964991697823e-07 0 5.7267704431484946e-06 1.3930877743037625e-05 0 -2.6180481235634122e-07 1.2003786156347857e-05 0 2.0826012969543277e-06 9.013795317996629e-06 0 -5.4363692735148305e-05 4.2533168210872763e-05 0 -4.821004602787622e-05 3.1030831126178025e-05 0 -3.8112166192964505e-05 3.3301199169743894e-05 0 -2.8093997509493178e-05 -1.5569378526566722e-05 0 -3.1390599675498063e-05 -2.0622172506228974e-05 0 -2.3973925454440646e-05 -1.6593651050455384e-05 0 -9.6140679423615043e-06 -7.1348555627873159e-06 0 -1.1888894455008019e-05 -9.0986862095932306e-06 0 -9.7679419623954726e-06 -6.695235859813302e-06 0 -2.4685694257097353e-05 2.6791132655305728e-05 0 -2.126809412114946e-05 1.5766057421053113e-05 0 -1.6090673338727223e-05 1.700163257790064e-05 0 -1.1489580905630591e-05 4.5133173714286741e-06 0 -1.6453776227276456e-05 6.8880274764810208e-06 0 -1.5699878233031407e-05 3.9955858084895788e-06 0 -4.5505417801190939e-06 -5.9201995322263082e-07 0 -3.7850528218883544e-06 1.2700410711779342e-06 0 -5.7599751380195353e-06 -1.9640402270318345e-06 0 -2.2458534395618913e-05 -6.1002465749420425e-05 0 -1.7471554803505887e-05 -5.8367088989395428e-05 0 -2.2465916037419928e-05 -5.1365010527493875e-05 0 -2.7304907174722679e-05 0.00013166682043710623 0 -3.8442708874838307e-05 0.00012607077086504255 0 -2.4574091165993929e-05 0.00011047220511952992 0 -2.2465916037419928e-05 -5.1365010527493875e-05 0 -1.7471554803505887e-05 -5.8367088989395428e-05 0 -1.6729055419032351e-05 -5.0089378091232274e-05 0 -2.4574091165993929e-05 0.00011047220511952992 0 -3.8442708874838307e-05 0.00012607077086504255 0 -3.7652935948595663e-05 0.00011062617872495395 0 -1.1489580905630591e-05 4.5133173714286741e-06 0 -1.5699878233031407e-05 3.9955858084895788e-06 0 -1.0223436904877203e-05 2.4937006819495936e-06 0 -4.2128725665486323e-06 -2.8266932993763981e-06 0 -2.6704537697760639e-06 2.2643415385973329e-06 0 -4.5505417801190939e-06 -5.9201995322263082e-07 0 -2.4685694257097353e-05 2.6791132655305728e-05 0 -2.9334681759653608e-05 2.2740573752101248e-05 0 -2.1268094121149463e-05 1.5766057421053113e-05 0 5.7267704431484946e-06 1.3930877743037625e-05 0 1.2308706720608773e-05 3.5470179961904785e-05 0 4.0388434346973717e-07 3.6351358048099143e-05 0 -1.6142170204692763e-05 -2.313778611195832e-05 0 -1.4321772834510179e-05 -2.2796999835937357e-05 0 -1.6688102731663827e-05 -2.1905115900388721e-05 0 -4.4770418484163225e-06 -3.1380031114083343e-05 0 -4.3385905068913458e-06 -2.9210670648821921e-05 0 -6.4060394200187275e-06 -2.8671504834816878e-05 0 -2.0127042036493811e-06 3.8411206100711037e-06 0 -3.7850528218883544e-06 1.2700410711779342e-06 0 -4.5505417801190939e-06 -5.9201995322263082e-07 0 -4.3873325814474272e-06 -8.103020614667673e-05 0 -1.0020700650660615e-05 -7.3379598542307816e-05 0 -1.1627694004505508e-05 -8.1145554825586295e-05 0 -7.534082043352966e-05 0.00017400693153188149 0 -6.0094873401031373e-05 0.00015696294792781967 0 -5.7094616866286295e-05 0.00017201821278512355 0 -4.0998531895880117e-10 -1.9877538743271445e-10 0 -2.2030093967322226e-07 -1.7566078603065586e-07 0 -3.6015576889729876e-07 -3.9275478307379696e-07 0 -5.3255973459874826e-10 2.500416929288297e-10 0 -5.3716223471645904e-07 5.1672691355243687e-07 0 -4.1239895944662882e-07 5.2096788443500577e-07 0 -2.4685694257097353e-05 2.6791132655305728e-05 0 -1.5383890185193016e-05 2.5707984706410751e-05 0 -2.1881471494201242e-05 4.0089522243868846e-05 0 -1.0069038308795417e-05 3.5382902235901591e-05 0 -2.1881471494201242e-05 4.0089522243868846e-05 0 -1.5383890185193013e-05 2.5707984706410751e-05 0 -2.822112710941161e-06 2.2109806674008757e-05 0 5.7267704431484946e-06 1.3930877743037625e-05 0 4.0388434346973717e-07 3.6351358048099143e-05 0 -7.4796805242849485e-05 0.00014014886848306515 0 -5.3680505026963345e-05 0.00014051271607213502 0 -6.0094873401031373e-05 0.00015696294792781967 0 -2.6506528119250437e-06 -6.3263789004956795e-05 0 -1.1921393491819366e-05 -6.5039483529545327e-05 0 -1.0020700650660614e-05 -7.3379598542307816e-05 0 -7.5355838703556061e-06 -2.2645524361418927e-05 0 -8.1318227955254573e-06 -1.988135057690905e-05 0 -9.5378003196792454e-06 -2.1854186476940797e-05 0 -5.1165565068573098e-06 -6.5364539814758841e-07 0 -5.7599751380195353e-06 -1.9640402270318345e-06 0 -3.7850528218883544e-06 1.2700410711779342e-06 0 -6.8492877585882242e-06 -4.4965872151875062e-06 0 -7.9546906065819704e-06 -7.0814740794511166e-06 0 -6.2370752634169678e-06 -6.7570132513069992e-06 0 -2.7146481383235172e-06 -1.2330307232025698e-05 0 -3.1958391012983587e-06 -1.0075732677961964e-05 0 -5.5011400031465097e-06 -1.3003777670325143e-05 0 -6.5155628778813083e-05 7.1430661834400881e-05 0 -4.8952928376506945e-05 6.0909876923598443e-05 0 -5.4951244219970713e-05 8.034023713426213e-05 0 -4.3547617392420921e-05 -6.5214682676194481e-05 0 -3.7070845578364336e-05 -7.3170273555898873e-05 0 -3.4570794567923903e-05 -6.5859545173208058e-05 0 1.8431340170976833e-05 0.00013749782142645397 0 2.9224199315177584e-06 0.00015789749198155182 0 -1.1557753439607414e-06 0.00014161771147633281 0 -3.4360410471560859e-06 -7.1883660042275233e-05 0 -1.0020700650660614e-05 -7.3379598542307816e-05 0 -4.3873325814474272e-06 -8.103020614667673e-05 0 -7.534082043352966e-05 0.00017400693153188149 0 -7.5245212614538119e-05 0.00015732018870818576 0 -6.0094873401031373e-05 0.00015696294792781967 0 -1.3324693695241474e-05 -2.0292403904326873e-05 0 -1.3823558663638167e-05 -1.8275110330853324e-05 0 -1.4826859354989114e-05 -2.023634105211376e-05 0 -6.2765456531995731e-06 -8.2992618904519462e-06 0 -8.2916423934628589e-06 -1.0009103016539975e-05 0 -8.4166229625753125e-06 -1.5132079156065273e-05 0 -1.3324693695241474e-05 -2.0292403904326873e-05 0 -1.2516293175459143e-05 -1.8576676995972634e-05 0 -1.3823558663638167e-05 -1.8275110330853324e-05 0 -5.2823082758360603e-06 -1.0142487277884741e-05 0 -5.5011400031465097e-06 -1.3003777670325143e-05 0 -3.1958391012983587e-06 -1.0075732677961964e-05 0 -1.8881805503666881e-05 -2.755423931974717e-05 0 -2.0643408605419535e-05 -3.6750029038775222e-05 0 -1.5033088228318662e-05 -2.955770120811672e-05 0 -1.4755639483961653e-09 1.7576081044544794e-10 0 -1.9545878528003871e-06 -3.6902697268337648e-07 0 -1.3599977803955187e-06 6.2876703685480546e-08 0 -2.1225776748098018e-09 -3.6085849628497902e-10 0 -1.8462958582583347e-06 -3.3373640502138515e-07 0 -2.7543806342507134e-06 2.3600446980911666e-07 0 -1.6142170204692763e-05 -2.313778611195832e-05 0 -1.392613190617469e-05 -2.4414700934630085e-05 0 -1.4321772834510179e-05 -2.2796999835937357e-05 0 -6.0474648062200445e-06 -3.0306962001236979e-05 0 -4.4770418484163225e-06 -3.1380031114083343e-05 0 -6.4060394200187275e-06 -2.8671504834816878e-05 0 -1.4953324491943999e-09 -5.5433777890301438e-10 0 -2.3218708082422037e-06 -7.0743843338726343e-07 0 -1.8462958582583345e-06 -3.3373640502138526e-07 0 -1.1810976570376281e-09 2.917151022036642e-10 0 -1.3599977803955187e-06 6.2876703685480546e-08 0 -1.8245042989847177e-06 3.0787650967041876e-07 0 -7.0423888127255379e-07 -4.5960671684067535e-08 0 -8.7995613332670236e-07 -6.4233565982802642e-07 0 -4.7699379133449762e-07 -1.6795085481569651e-07 0 -6.645446411276418e-06 -1.7205430061072092e-06 0 -5.6564242160721794e-06 -8.0123384617901915e-07 0 -4.0476216807988705e-06 -7.5872662019478056e-07 0 -9.718989322300488e-06 1.9287504927460726e-06 0 -5.768097790733404e-06 5.9265260007942497e-07 0 -8.0575920562404961e-06 5.6611449306798035e-07 0 -7.9973391578113798e-06 -1.295188822577384e-05 0 -7.0909666920280887e-06 -1.0452800791330391e-05 0 -9.1806831971491244e-06 -1.1780567240474067e-05 0 -8.0833556078942838e-06 -9.2636383277453648e-06 0 -6.2370752634169678e-06 -6.7570132513069992e-06 0 -7.9546906065819704e-06 -7.0814740794511166e-06 0 1.6280391196013266e-05 0.00017345251257536032 0 -6.9008542693048924e-07 0.00017353728169511556 0 2.9224199315177584e-06 0.00015789749198155182 0 -4.3902500616231602e-05 -8.0814907106898902e-05 0 -3.5670287168861284e-05 -7.9904751391705867e-05 0 -3.7070845578364336e-05 -7.3170273555898873e-05 0 -8.0833556078942838e-06 -9.2636383277453648e-06 0 -9.1806831971491244e-06 -1.1780567240474067e-05 0 -7.0909666920280887e-06 -1.0452800791330391e-05 0 -8.1318227955254573e-06 -1.988135057690905e-05 0 -6.1639836735353131e-06 -1.9372054477295488e-05 0 -7.8347421813399924e-06 -1.6405600426132909e-05 0 -3.7997746364815311e-05 9.4955332648092761e-05 0 -3.2368427161912022e-05 7.3668054403176192e-05 0 -2.3641644605337555e-05 8.1159074948083709e-05 0 -2.1225776748098018e-09 -3.6085849628497902e-10 0 -2.2172705782185324e-09 3.9659975283313716e-11 0 -1.8462958582583345e-06 -3.3373640502138526e-07 0 -1.6353354357071345e-09 -8.0856812033311171e-11 0 -1.4755639483961653e-09 1.7576081044544794e-10 0 -1.3599977803955187e-06 6.2876703685480546e-08 0 -7.0423888127255379e-07 -4.5960671684067535e-08 0 -1.4255563646240444e-06 -4.4638732642501557e-07 0 -8.7995613332670236e-07 -6.4233565982802642e-07 0 -1.2144659258527656e-05 0.00015931611158706674 0 -2.8139675514662869e-05 0.00017040469582079367 0 -2.7027767085506237e-05 0.00015108282721576949 0 -3.006017111589479e-05 -7.369405019017148e-05 0 -2.3054369935133944e-05 -7.9362376919409804e-05 0 -2.3289932907714245e-05 -7.0240475973445789e-05 0 -2.0643408605419535e-05 -3.6750029038775222e-05 0 -1.5563340655521617e-05 -3.6795684370076657e-05 0 -1.5033088228318662e-05 -2.955770120811672e-05 0 -1.9261647481474819e-07 3.0829798047252851e-07 0 -2.4224023030773143e-07 6.2889293137941867e-07 0 -1.6531072366703891e-07 2.8462867576701045e-07 0 -6.2055151007547143e-06 2.0688600869389415e-07 0 -4.257424597468318e-06 2.2895232399382487e-07 0 -6.9167802891243685e-06 1.1954419354938047e-06 0 -6.1639836735353131e-06 -1.9372054477295488e-05 0 -5.5740992969352943e-06 -1.6453353268279399e-05 0 -7.8347421813399924e-06 -1.6405600426132909e-05 0 -1.6531072366703891e-07 2.8462867576701045e-07 0 -2.4224023030773143e-07 6.2889293137941867e-07 0 -1.4180553596122543e-07 6.0024302414433906e-07 0 -2.4224023030773143e-07 6.2889293137941867e-07 0 -2.1904208592028213e-07 4.0458443479357429e-07 0 -4.2403397551436725e-07 7.2628946616811407e-07 0 -4.1071928588678792e-07 6.1695531370108809e-07 0 -4.2403397551436725e-07 7.2628946616811407e-07 0 -2.1904208592028213e-07 4.0458443479357429e-07 0 -1.5150722823406201e-05 -1.9250079339975559e-05 0 -1.3823558663638167e-05 -1.8275110330853324e-05 0 -1.493462964424985e-05 -1.7445034056183376e-05 0 -6.8492877585882242e-06 -4.4965872151875062e-06 0 -6.2370752634169669e-06 -6.7570132513069984e-06 0 -5.5592822354132889e-06 -3.6131573247315652e-06 0 -7.5355838703556061e-06 -2.2645524361418927e-05 0 -6.1639836735353131e-06 -1.9372054477295488e-05 0 -8.1318227955254573e-06 -1.988135057690905e-05 0 -2.0127042036493811e-06 3.8411206100711037e-06 0 -4.5505417801190939e-06 -5.920199532226304e-07 0 -2.6704537697760639e-06 2.2643415385973329e-06 0 1.7508208762272903e-05 0.00015505424437463732 0 1.6280391196013266e-05 0.00017345251257536032 0 2.9224199315177584e-06 0.00015789749198155182 0 -4.384413301978776e-05 -7.318032660981359e-05 0 -4.3902500616231602e-05 -8.0814907106898902e-05 0 -3.7070845578364336e-05 -7.3170273555898873e-05 0 -4.3547617392420921e-05 -6.5214682676194481e-05 0 -4.384413301978776e-05 -7.318032660981359e-05 0 -3.7070845578364336e-05 -7.3170273555898873e-05 0 1.8431340170976833e-05 0.00013749782142645397 0 1.7508208762272903e-05 0.00015505424437463732 0 2.9224199315177584e-06 0.00015789749198155182 0 -3.5915537614479122e-08 5.7425827397293767e-06 0 -3.9054980164312753e-07 4.6467135602452838e-06 0 -2.0127042036493811e-06 3.8411206100711037e-06 0 -1.2355646072475787e-06 9.7745337122219994e-07 0 -8.2229655740797813e-07 8.6821572481466906e-07 0 -1.5584813406355329e-06 9.3943817463162944e-07 0 -8.6724661360094567e-07 7.8888604416639768e-07 0 -1.5584813406355329e-06 9.3943817463162944e-07 0 -8.2229655740797813e-07 8.6821572481466906e-07 0 1.4891352186918829e-06 8.2356448830229366e-05 0 5.7065800569422947e-06 9.384719502227216e-05 0 -1.0499293009601302e-05 9.4345240262926788e-05 0 5.7065800569422947e-06 9.384719502227216e-05 0 1.5351097169173543e-06 0.00010597577672585668 0 -1.0499293009601302e-05 9.4345240262926788e-05 0 -4.2128725665486323e-06 -2.8266932993763981e-06 0 -4.5505417801190931e-06 -5.9201995322263114e-07 0 -5.5592822354132889e-06 -3.6131573247315652e-06 0 -7.6485570250647203e-06 -2.8967253088389478e-05 0 -6.4060394200187275e-06 -2.8671504834816878e-05 0 -7.9556125568616298e-06 -2.6421778288212581e-05 0 -1.1666383559813381e-05 -2.5843994398570854e-05 0 -1.2479555415494704e-05 -2.3239751310767484e-05 0 -1.4321772834510179e-05 -2.2796999835937357e-05 0 -3.9054980164312753e-07 4.6467135602452838e-06 0 -1.8976849716166803e-06 3.0086231501238017e-06 0 -2.0127042036493811e-06 3.8411206100711037e-06 0 -7.5245212614538119e-05 0.00015732018870818576 0 -7.4796805242849485e-05 0.00014014886848306515 0 -6.0094873401031373e-05 0.00015696294792781967 0 -2.6506528119250437e-06 -6.3263789004956795e-05 0 -1.0020700650660614e-05 -7.3379598542307816e-05 0 -3.4360410471560859e-06 -7.1883660042275233e-05 0 -1.4586894139904655e-05 -4.2912050548782474e-06 0 -1.4400620018459899e-05 -4.168406885607797e-06 0 -1.1383475109123804e-05 -2.5795579299818819e-06 0 -2.287547020069396e-05 6.3778782552659675e-06 0 -1.7533907245635049e-05 3.6874741968051601e-06 0 -2.1995292746274909e-05 6.4395707172526866e-06 0 -4.2128725665486323e-06 -2.8266932993763981e-06 0 -6.2370752634169678e-06 -6.7570132513069992e-06 0 -3.8805391748796898e-06 -7.1793571424428678e-06 0 -6.2765456531995731e-06 -8.2992618904519462e-06 0 -8.4166229625753125e-06 -1.5132079156065273e-05 0 -3.7573592502025463e-06 -1.6216648794054222e-05 0 -5.2823082758360603e-06 -1.0142487277884741e-05 0 -6.2370752634169678e-06 -6.7570132513069992e-06 0 -7.0909666920280887e-06 -1.0452800791330391e-05 0 -8.0833556078942838e-06 -9.2636383277453648e-06 0 -7.0909666920280887e-06 -1.0452800791330391e-05 0 -6.2370752634169678e-06 -6.7570132513069992e-06 0 -2.2899274732363526e-05 -8.8337904820140503e-05 0 -1.6724406921088775e-05 -8.8754197890919835e-05 0 -1.7392500841718937e-05 -8.2386746723777735e-05 0 -2.7917232618737207e-05 0.00019050743628481849 0 -4.32020473756572e-05 0.00019021201536512867 0 -4.1937447808273348e-05 0.00017553445585933314 0 -1.3245705269303686e-05 0.00019098224053156629 0 -2.7917232618737207e-05 0.00019050743628481849 0 -1.4655278782849429e-05 0.0001765883133683561 0 -2.9523014432590843e-05 -8.8105351396019864e-05 0 -2.2899274732363526e-05 -8.8337904820140503e-05 0 -2.898011800300323e-05 -8.1555505601516127e-05 0 -7.1124969533947126e-06 1.5980878083767999e-05 0 -1.5383890185193013e-05 2.5707984706410751e-05 0 -1.6090673338727223e-05 1.700163257790064e-05 0 -1.0716992818406522e-05 -1.1769156692363222e-05 0 -1.223894129083285e-05 -1.4125507628886025e-05 0 -1.0942793161070268e-05 -1.4289911330764592e-05 0 -5.2823082758360603e-06 -1.0142487277884741e-05 0 -7.0909666920280887e-06 -1.0452800791330391e-05 0 -5.5011400031465097e-06 -1.3003777670325143e-05 0 -7.9973391578113798e-06 -1.295188822577384e-05 0 -5.5011400031465097e-06 -1.3003777670325143e-05 0 -7.0909666920280887e-06 -1.0452800791330391e-05 0 -1.0913717813398473e-05 -3.1311339699024158e-05 0 -9.9170226228535028e-06 -2.297156566231929e-05 0 -1.5033088228318662e-05 -2.955770120811672e-05 0 -5.4363692735148305e-05 4.2533168210872763e-05 0 -3.8112166192964505e-05 3.3301199169743894e-05 0 -4.7889167642899307e-05 4.7526240416444082e-05 0 -1.1171360948923123e-05 -5.3012886832738399e-06 0 -1.4134036638082803e-05 -8.2678399933589213e-06 0 -1.0057546130218462e-05 -6.4250470546245344e-06 0 -1.1936529014327297e-05 -9.6322071633020127e-06 0 -1.0057546130218462e-05 -6.4250470546245344e-06 0 -1.4134036638082803e-05 -8.2678399933589213e-06 0 -1.3856319295543043e-05 -2.1520819641502267e-05 0 -1.1890244097200243e-05 -2.16314056921855e-05 0 -1.3324693695241474e-05 -2.0292403904326873e-05 0 -4.3143847972611681e-05 7.1343372326499789e-05 0 -5.4951244219970713e-05 8.034023713426213e-05 0 -4.8952928376506945e-05 6.0909876923598443e-05 0 -1.3940402122609479e-05 -4.508796388521408e-06 0 -1.7529585606365433e-05 -6.9628659049340688e-06 0 -1.4373340154979854e-05 -6.1413805100192158e-06 0 -1.8046306898228588e-05 -8.9455649484121076e-06 0 -1.4373340154979854e-05 -6.1413805100192158e-06 0 -1.7529585606365433e-05 -6.9628659049340688e-06 0 -2.727762744587639e-05 1.6656798382652684e-05 0 -2.7178542146902861e-05 1.2288519578338238e-05 0 -2.0838917476905537e-05 1.09780719258226e-05 0 -2.0911811536672505e-05 7.7046106494077853e-06 0 -2.0838917476905537e-05 1.09780719258226e-05 0 -2.7178542146902861e-05 1.2288519578338238e-05 0 -1.3012615185225164e-05 -1.650310502505897e-05 0 -1.1318980946028191e-05 -1.6692135013749227e-05 0 -1.0942793161070268e-05 -1.4289911330764592e-05 0 -3.1390599675498063e-05 -2.0622172506228974e-05 0 -2.8827560861035641e-05 -2.2675959931824651e-05 0 -2.3973925454440646e-05 -1.6593651050455384e-05 0 -4.5407742895594094e-06 6.7374050254918075e-05 0 -1.3668589969816043e-05 5.2776928790481913e-05 0 -1.9549310438807709e-06 5.0363031316196163e-05 0 -5.1165565068573098e-06 -6.5364539814758841e-07 0 -6.1560597871213054e-06 -2.3072758944611793e-06 0 -7.1221185894195875e-06 -3.5349366235455551e-06 0 -6.0720027003521922e-07 1.7071198634572065e-06 0 2.9305066856882569e-08 2.331919468661196e-06 0 -7.7640510691542179e-08 1.6379407444908905e-06 0 -4.9815363607383477e-05 0.00012092970333478286 0 -3.8442708874838307e-05 0.00012607077086504255 0 -5.3680505026963345e-05 0.00014051271607213502 0 -1.2370156770941128e-05 -5.5208392851742169e-05 0 -1.7471554803505887e-05 -5.8367088989395428e-05 0 -1.1921393491819364e-05 -6.5039483529545327e-05 0 -4.2128725665486323e-06 -2.8266932993763981e-06 0 -5.559282235413288e-06 -3.6131573247315648e-06 0 -6.2370752634169678e-06 -6.7570132513069992e-06 0 -1.2479555415494704e-05 -2.3239751310767481e-05 0 -1.1890244097200243e-05 -2.16314056921855e-05 0 -1.3856319295543043e-05 -2.1520819641502267e-05 0 -7.9973391578113798e-06 -1.295188822577384e-05 0 -9.5518395019480575e-06 -1.4449308446294614e-05 0 -7.8347421813399924e-06 -1.6405600426132909e-05 0 -5.9489123821659533e-10 -2.5648649472205709e-10 0 -3.6015576889729876e-07 -3.9275478307379696e-07 0 -6.7655071107812507e-07 -6.2934077720412844e-07 0 -6.6789552851596486e-10 2.4320326205344236e-10 0 -7.6764045705701111e-07 5.5140715987690479e-07 0 -5.3716223471645904e-07 5.1672691355243687e-07 0 -9.9170226228535028e-06 -2.297156566231929e-05 0 -1.4729064806344662e-05 -2.3074073587623977e-05 0 -1.5033088228318662e-05 -2.955770120811672e-05 0 -6.2055151007547143e-06 2.0688600869389415e-07 0 -6.9167802891243685e-06 1.1954419354938047e-06 0 -9.0552398082939964e-06 9.1833192164237446e-07 0 -1.3249983710590865e-05 9.0605895948089964e-06 0 -1.609067333872722e-05 1.700163257790064e-05 0 -2.1268094121149463e-05 1.5766057421053113e-05 0 -4.3368938377388445e-07 -3.479065234012405e-07 0 -2.2030093967322226e-07 -1.7566078603065586e-07 0 -2.5834395420220568e-07 -5.1351870227054951e-08 0 -1.8261810967132674e-07 9.839398693056456e-08 0 -2.5834395420220568e-07 -5.1351870227054951e-08 0 -2.2030093967322226e-07 -1.7566078603065586e-07 0 -4.1071928588678792e-07 6.1695531370108809e-07 0 -4.1239895944662882e-07 5.2096788443500588e-07 0 -8.2229655740797813e-07 8.6821572481466906e-07 0 -8.6724661360094567e-07 7.8888604416639768e-07 0 -8.2229655740797813e-07 8.6821572481466906e-07 0 -4.1239895944662882e-07 5.2096788443500577e-07 0 -1.1489580905630591e-05 4.5133173714286741e-06 0 -8.5114190531234025e-06 5.4856624747577217e-06 0 -1.3249983710590865e-05 9.0605895948089964e-06 0 -6.0720027003521922e-07 1.7071198634572065e-06 0 -7.1186201443373992e-07 2.3480257617978643e-06 0 2.9305066856882569e-08 2.331919468661196e-06 0 -7.2872581101361885e-07 7.6659410010366771e-07 0 -1.55891996103133e-06 -6.3885994661366211e-09 0 -7.0423888127255379e-07 -4.5960671684067535e-08 0 -6.9167802891243685e-06 1.1954419354938047e-06 0 -4.257424597468318e-06 2.2895232399382487e-07 0 -4.8053677349192076e-06 1.6935108182176153e-06 0 -1.6983126696994591e-06 2.2079910806472891e-06 0 -5.0514846413196845e-07 3.4619834825821984e-06 0 -7.1186201443373992e-07 2.3480257617978643e-06 0 -4.4454477712941614e-06 -1.204111360891464e-07 0 -4.7691182617294528e-06 -7.0995497394040246e-07 0 -3.3947711262619985e-06 2.5456355406874128e-07 0 -3.8330727582098959e-06 -4.3284220401334236e-07 0 -3.3947711262619985e-06 2.5456355406874128e-07 0 -4.7691182617294528e-06 -7.0995497394040246e-07 0 -2.217270578218498e-09 3.9659975283320004e-11 0 -1.4953324491943999e-09 -5.5433777890301438e-10 0 -1.8462958582583345e-06 -3.3373640502138526e-07 0 -1.1810976570376281e-09 2.917151022036642e-10 0 -1.6353354357071345e-09 -8.0856812033311171e-11 0 -1.3599977803955187e-06 6.2876703685480546e-08 0 1.513928811028178e-05 5.1681798707311114e-05 0 -1.9549310438807709e-06 5.0363031316196163e-05 0 4.0388434346973717e-07 3.6351358048099143e-05 0 -1.2355646072475787e-06 9.7745337122219994e-07 0 -1.9381635111887154e-06 8.003222621372357e-07 0 -1.020035090739039e-06 1.027099530190621e-06 0 -8.0145039594412099e-06 -4.6676628546789201e-06 0 -6.1348407378559081e-06 -3.2203348094656969e-06 0 -7.3746655729488996e-06 -5.4513625405581939e-06 0 -1.0380689735453729e-05 -2.3757916251890755e-05 0 -1.1890244097200243e-05 -2.16314056921855e-05 0 -1.2479555415494704e-05 -2.3239751310767481e-05 0 -1.1786942946611088e-05 -3.0882295508896092e-06 0 -1.1383475109123804e-05 -2.5795579299818819e-06 0 -9.4899529916638697e-06 -1.8998031621002161e-06 0 -1.7987105907196338e-05 4.1243996891025917e-06 0 -1.4224349248277221e-05 2.2746231560099047e-06 0 -1.7533907245635049e-05 3.6874741968051601e-06 0 -9.6949661894392725e-06 -1.6691475331334643e-05 0 -7.8347421813399924e-06 -1.6405600426132909e-05 0 -9.5518395019480575e-06 -1.4449308446294614e-05 0 -1.1383475109123804e-05 -2.5795579299818819e-06 0 -9.3637212432876142e-06 -1.7625419995199913e-06 0 -9.0330901771931305e-06 -1.5272455390425161e-06 0 -1.1943521960893892e-05 2.1473486864699576e-06 0 -1.0223436904877203e-05 2.4937006819495936e-06 0 -1.5699878233031407e-05 3.9955858084895788e-06 0 -1.200182316298945e-05 -3.0780376355201454e-06 0 -9.3637212432876142e-06 -1.7625419995199913e-06 0 -1.1383475109123804e-05 -2.5795579299818819e-06 0 -3.5490946574480169e-06 5.2171848258248025e-07 0 -4.5075149444013975e-06 2.2930953948203875e-07 0 -4.7905852095768976e-06 4.0179610140384919e-08 0 -2.9080907882538272e-06 -4.2746854238980049e-07 0 -4.257424597468318e-06 2.2895232399382487e-07 0 -5.0271447569930231e-06 -5.2036391109651632e-07 0 -1.6453776227276456e-05 6.8880274764810208e-06 0 -1.1489580905630591e-05 4.5133173714286741e-06 0 -1.3249983710590865e-05 9.0605895948089964e-06 0 -1.3012615185225164e-05 -1.650310502505897e-05 0 -1.0942793161070268e-05 -1.4289911330764591e-05 0 -1.223894129083285e-05 -1.4125507628886025e-05 0 -4.9876473535300745e-06 0.00012215892141597201 0 -1.1557753439607414e-06 0.00014161771147633281 0 -1.5320378103832551e-05 0.00013904764734700171 0 -3.185328679782071e-05 -5.6929154710398623e-05 0 -3.4570794567923897e-05 -6.5859545173208072e-05 0 -2.8027210963817638e-05 -6.4517556400551601e-05 0 -4.3368938377388445e-07 -3.479065234012405e-07 0 -3.6015576889729876e-07 -3.9275478307379696e-07 0 -2.2030093967322226e-07 -1.7566078603065586e-07 0 -8.6724661360094567e-07 7.8888604416639768e-07 0 -4.1239895944662882e-07 5.2096788443500577e-07 0 -5.3716223471645904e-07 5.1672691355243687e-07 0 -8.8121510774567363e-10 -3.792419036738374e-10 0 -6.7655071107812507e-07 -6.2934077720412844e-07 0 -8.9742861924664226e-07 -6.6900655731605503e-07 0 -8.6267011362248535e-10 2.5917029623777266e-10 0 -8.6180079201103341e-07 4.5709589529706533e-07 0 -7.6764045705701111e-07 5.5140715987690479e-07 0 -8.0145039594412099e-06 -4.6676628546789201e-06 0 -9.7679419623954726e-06 -6.695235859813302e-06 0 -8.9624894754851731e-06 -6.0447874390433774e-06 0 -1.0348426148689158e-05 -8.0250104629099254e-06 0 -8.9624894754851731e-06 -6.0447874390433774e-06 0 -9.7679419623954726e-06 -6.695235859813302e-06 0 -2.4985514096326055e-05 5.6788855465815413e-05 0 -2.1881471494201242e-05 4.0089522243868846e-05 0 -1.3668589969816043e-05 5.2776928790481913e-05 0 -1.0069038308795417e-05 3.5382902235901591e-05 0 -1.3668589969816044e-05 5.2776928790481913e-05 0 -2.1881471494201242e-05 4.0089522243868846e-05 0 -1.0995109312548031e-06 7.7919596429238233e-06 0 3.0870954056746738e-07 5.3087803746200773e-06 0 2.0826012969543277e-06 9.013795317996629e-06 0 -8.0145039594412099e-06 -4.6676628546789201e-06 0 -6.1560597871213054e-06 -2.3072758944611793e-06 0 -6.1348407378559081e-06 -3.2203348094656969e-06 0 -1.8407194823955964e-07 3.2721000055420982e-07 0 -1.6531072366703891e-07 2.8462867576701045e-07 0 -1.4180553596122543e-07 6.0024302414433906e-07 0 -1.0716992818406522e-05 -1.1769156692363222e-05 0 -1.0942793161070268e-05 -1.4289911330764592e-05 0 -9.1806831971491244e-06 -1.1780567240474067e-05 0 -3.7997746364815311e-05 9.4955332648092761e-05 0 -4.4464959386318585e-05 8.3029847307821474e-05 0 -3.2368427161912022e-05 7.3668054403176192e-05 0 -1.5150722823406201e-05 -1.9250079339975559e-05 0 -1.493462964424985e-05 -1.7445034056183376e-05 0 -1.6108364423993138e-05 -1.9445943479173064e-05 0 -8.1318227955254573e-06 -1.988135057690905e-05 0 -9.5555486656160692e-06 -1.87574777418933e-05 0 -9.5378003196792454e-06 -2.1854186476940797e-05 0 -2.4844436535401751e-06 7.3035750784254954e-07 0 -1.5584813406355329e-06 9.3943817463162944e-07 0 -2.5833399839247603e-06 7.579741283613695e-07 0 -2.4685694257097353e-05 2.6791132655305728e-05 0 -1.6090673338727223e-05 1.700163257790064e-05 0 -1.5383890185193013e-05 2.5707984706410751e-05 0 -4.3842717707001045e-06 -1.3722308338038208e-06 0 -6.645446411276418e-06 -1.7205430061072092e-06 0 -4.0476216807988705e-06 -7.5872662019478056e-07 0 -9.718989322300488e-06 1.9287504927460726e-06 0 -6.2668924510716453e-06 1.5163238047587168e-06 0 -5.768097790733404e-06 5.9265260007942497e-07 0 -5.2823082758360603e-06 -1.0142487277884741e-05 0 -3.8805391748796898e-06 -7.1793571424428678e-06 0 -6.2370752634169678e-06 -6.7570132513069992e-06 0 -1.8899824078052106e-06 5.7178937291997504e-07 0 -3.1242085488717258e-06 5.7123115554299467e-07 0 -1.7359049056019839e-06 7.4407116022703468e-07 0 -2.0998572873325174e-06 -9.3000246714708626e-07 0 -1.5475430826879386e-06 -9.1811223531399603e-07 0 -3.3091580343291617e-06 -8.955352129565491e-07 0 -4.821004602787622e-05 3.1030831126178025e-05 0 -3.6213444637452048e-05 2.3591566646686314e-05 0 -3.8112166192964505e-05 3.3301199169743894e-05 0 -2.8093997509493178e-05 -1.5569378526566722e-05 0 -2.3973925454440646e-05 -1.6593651050455384e-05 0 -2.243145865569894e-05 -1.2052211205720154e-05 0 -7.1124969533947126e-06 1.5980878083767999e-05 0 -2.6180481235634132e-07 1.2003786156347857e-05 0 -2.822112710941161e-06 2.2109806674008757e-05 0 5.7267704431484946e-06 1.3930877743037625e-05 0 -2.8221127109411614e-06 2.2109806674008757e-05 0 -2.6180481235634132e-07 1.2003786156347857e-05 0 -1.2486860824755653e-05 -1.7312360952110235e-05 0 -1.7177305748362455e-05 -1.9278174457619267e-05 0 -1.4729064806344662e-05 -2.3074073587623977e-05 0 -1.8881805503666881e-05 -2.755423931974717e-05 0 -1.4729064806344662e-05 -2.3074073587623977e-05 0 -1.7177305748362455e-05 -1.9278174457619267e-05 0 -4.2128725665486323e-06 -2.8266932993763981e-06 0 -1.9401403997895151e-06 4.4381225426569801e-07 0 -2.6704537697760639e-06 2.2643415385973329e-06 0 -1.0380689735453729e-05 -2.3757916251890755e-05 0 -1.2479555415494706e-05 -2.3239751310767484e-05 0 -1.0708537726184309e-05 -2.5295829222120382e-05 0 -1.8407194823955964e-07 3.2721000055420982e-07 0 -7.0423888127255379e-07 -4.5960671684067535e-08 0 -4.7699379133449762e-07 -1.6795085481569651e-07 0 -1.4134036638082803e-05 -8.2678399933589213e-06 0 -1.8954080416287936e-05 -1.1809367148961508e-05 0 -1.5502054346418904e-05 -1.1453486032287629e-05 0 -7.6485570250647203e-06 -2.8967253088389478e-05 0 -7.9556125568616298e-06 -2.6421778288212581e-05 0 -9.3094246507708479e-06 -2.6109090187050485e-05 0 -3.830104154317813e-05 4.7207871197484349e-05 0 -4.7889167642899307e-05 4.7526240416444082e-05 0 -3.8112166192964505e-05 3.3301199169743894e-05 0 -5.3680505026963345e-05 0.00014051271607213502 0 -3.8442708874838307e-05 0.00012607077086504255 0 -3.8180268885880328e-05 0.00014205940184975241 0 -1.1921393491819364e-05 -6.5039483529545327e-05 0 -1.7471554803505887e-05 -5.8367088989395428e-05 0 -1.8356319329147518e-05 -6.5980768457457988e-05 0 -2.3714802182869507e-06 4.6733042734720596e-07 0 -1.781791846888987e-06 8.8420104401969957e-07 0 -1.5537439250259137e-06 9.2553171141152737e-07 0 -1.0348426148689158e-05 -8.0250104629099254e-06 0 -9.7679419623954726e-06 -6.695235859813302e-06 0 -1.159683671619824e-05 -9.22842903970168e-06 0 -1.5294437823350358e-07 1.098011697847619e-06 0 -7.7640510691542205e-08 1.6379407444908908e-06 0 4.0606725909458299e-08 1.2964423290731107e-06 0 1.5780709706114875e-07 1.9447063768575713e-06 0 4.0606725909458299e-08 1.2964423290731107e-06 0 -7.7640510691542179e-08 1.6379407444908905e-06 0 -6.9167802891243685e-06 1.1954419354938047e-06 0 -1.0223436904877203e-05 2.4937006819495936e-06 0 -9.0552398082939964e-06 9.1833192164237446e-07 0 -1.8881805503666881e-05 -2.755423931974717e-05 0 -2.3320433408986316e-05 -3.2315304653297027e-05 0 -2.0643408605419535e-05 -3.6750029038775222e-05 0 -1.0434386700596483e-05 8.7360435349402837e-07 0 -7.9277513386633403e-06 7.8001334803116266e-08 0 -1.2534795449511625e-05 1.6647529820765519e-06 0 -1.0499293009601302e-05 9.4345240262926788e-05 0 -2.4574091165993929e-05 0.00011047220511952992 0 -2.7004318725338667e-05 9.6004017011829538e-05 0 -1.0499293009601302e-05 9.4345240262926788e-05 0 -2.7004318725338667e-05 9.6004017011829538e-05 0 -2.3641644605337555e-05 8.1159074948083709e-05 0 -3.7997746364815311e-05 9.4955332648092761e-05 0 -2.3641644605337559e-05 8.1159074948083696e-05 0 -2.7004318725338667e-05 9.6004017011829538e-05 0 -2.6498913945322258e-05 -4.3849158406372227e-05 0 -2.2465916037419928e-05 -5.1365010527493875e-05 0 -1.9479494650073202e-05 -4.3566655501653929e-05 0 -2.6498913945322258e-05 -4.3849158406372227e-05 0 -1.9479494650073202e-05 -4.3566655501653929e-05 0 -2.0643408605419535e-05 -3.6750029038775222e-05 0 3.0870954056746738e-07 5.3087803746200773e-06 0 1.238974710534866e-06 6.530003584511893e-06 0 2.0826012969543277e-06 9.013795317996629e-06 0 -4.0998531895880117e-10 -1.9877538743271445e-10 0 -2.1524209675880469e-10 1.8270300353115226e-11 0 -2.2030093967322226e-07 -1.7566078603065586e-07 0 -3.6532517644822831e-10 1.8034618703455002e-10 0 -5.3255973459874826e-10 2.500416929288297e-10 0 -4.1239895944662882e-07 5.2096788443500577e-07 0 -1.9381635111887154e-06 8.003222621372357e-07 0 -1.553743925025914e-06 9.2553171141152737e-07 0 -1.020035090739039e-06 1.027099530190621e-06 0 -6.2765456531995731e-06 -8.2992618904519462e-06 0 -6.7093504608594563e-06 -6.7362906190178039e-06 0 -8.2916423934628589e-06 -1.0009103016539975e-05 0 -7.9277513386633403e-06 7.800133480311628e-08 0 -9.0552398082939947e-06 9.1833192164237457e-07 0 -1.2534795449511625e-05 1.6647529820765519e-06 0 -2.3523379066994785e-10 1.3110551076115669e-10 0 -2.1904208592028213e-07 4.0458443479357429e-07 0 -1.4210865575322943e-07 1.434086421096943e-07 0 -9.718989322300488e-06 1.9287504927460726e-06 0 -8.0575920562404961e-06 5.6611449306798035e-07 0 -1.1303860050742528e-05 1.5488614654498012e-06 0 -6.645446411276418e-06 -1.7205430061072092e-06 0 -7.6937745635478415e-06 -1.4638342345032409e-06 0 -5.6564242160721794e-06 -8.0123384617901915e-07 0 -2.4576345655078287e-05 -2.2271671180483734e-05 0 -2.3973925454440646e-05 -1.659365105045538e-05 0 -2.8827560861035641e-05 -2.2675959931824651e-05 0 -4.2403397551436725e-07 7.2628946616811407e-07 0 -4.1071928588678792e-07 6.1695531370108809e-07 0 -7.3313535833336565e-07 9.1782678904094579e-07 0 -1.3012615185225164e-05 -1.650310502505897e-05 0 -1.493462964424985e-05 -1.7445034056183376e-05 0 -1.3823558663638167e-05 -1.8275110330853324e-05 0 -1.6983126696994591e-06 2.2079910806472891e-06 0 -7.1186201443373992e-07 2.3480257617978643e-06 0 -1.7207800822798875e-06 1.514472845761739e-06 0 -4.5407742895594094e-06 6.7374050254918075e-05 0 -1.8357637027272072e-05 6.8440565029761805e-05 0 -1.3668589969816043e-05 5.2776928790481913e-05 0 -1.8407194823955964e-07 3.2721000055420982e-07 0 -2.5834395420220568e-07 -5.1351870227054951e-08 0 -1.6531072366703891e-07 2.8462867576701045e-07 0 -4.44320530042652e-05 0.00015880378962488539 0 -3.8180268885880328e-05 0.00014205940184975241 0 -2.7027767085506237e-05 0.00015108282721576949 0 -1.6329304963055645e-05 -7.4458196668350846e-05 0 -1.8356319329147518e-05 -6.5980768457457988e-05 0 -2.3289932907714245e-05 -7.0240475973445789e-05 0 -4.1071928588678792e-07 6.1695531370108809e-07 0 -8.2229655740797813e-07 8.6821572481466906e-07 0 -7.3313535833336565e-07 9.1782678904094579e-07 0 -1.6983126696994591e-06 2.2079910806472891e-06 0 -2.8519233983739965e-06 7.3651673230934817e-07 0 -3.4066284462726885e-06 1.0311597588045762e-06 0 -1.2144659258527656e-05 0.00015931611158706674 0 -1.4655278782849429e-05 0.0001765883133683561 0 -2.8139675514662869e-05 0.00017040469582079367 0 -4.44320530042652e-05 0.00015880378962488539 0 -2.8139675514662866e-05 0.00017040469582079365 0 -4.1937447808273348e-05 0.00017553445585933314 0 -3.006017111589479e-05 -7.369405019017148e-05 0 -2.898011800300323e-05 -8.1555505601516127e-05 0 -2.3054369935133944e-05 -7.9362376919409804e-05 0 -1.6329304963055645e-05 -7.4458196668350846e-05 0 -2.3054369935133944e-05 -7.9362376919409804e-05 0 -1.7392500841718937e-05 -8.2386746723777735e-05 0 -1.3249983710590865e-05 9.0605895948089964e-06 0 -2.1268094121149463e-05 1.5766057421053113e-05 0 -2.0838917476905537e-05 1.09780719258226e-05 0 -1.8112955799716011e-05 -1.4200410179596197e-05 0 -2.3973925454440646e-05 -1.6593651050455384e-05 0 -2.0827888732783173e-05 -1.8678256400070409e-05 0 -2.4576345655078287e-05 -2.2271671180483734e-05 0 -2.0827888732783173e-05 -1.8678256400070409e-05 0 -2.3973925454440646e-05 -1.6593651050455384e-05 0 -3.830104154317813e-05 4.7207871197484349e-05 0 -3.8112166192964505e-05 3.3301199169743894e-05 0 -3.0144543990279453e-05 3.8562528085091634e-05 0 -2.4685694257097353e-05 2.6791132655305728e-05 0 -3.0144543990279453e-05 3.8562528085091634e-05 0 -3.8112166192964505e-05 3.3301199169743894e-05 0 -8.6724661360094567e-07 7.8888604416639768e-07 0 -1.230188786334176e-06 8.1893964991697823e-07 0 -1.5584813406355329e-06 9.3943817463162944e-07 0 1.2308706720608773e-05 3.5470179961904785e-05 0 1.513928811028178e-05 5.1681798707311114e-05 0 4.0388434346973717e-07 3.6351358048099143e-05 0 -2.0998572873325174e-06 -9.3000246714708626e-07 0 -3.4629061832668954e-06 -8.8372075112195824e-07 0 -2.3218708082422037e-06 -7.0743843338726343e-07 0 -1.8899824078052106e-06 5.7178937291997504e-07 0 -1.8245042989847177e-06 3.0787650967041876e-07 0 -2.8456519756323068e-06 4.1374123831937466e-07 0 -8.0145039594412099e-06 -4.6676628546789201e-06 0 -7.1221185894195875e-06 -3.5349366235455551e-06 0 -6.1560597871213054e-06 -2.3072758944611793e-06 0 -3.1242085488717258e-06 5.7123115554299467e-07 0 -2.7046663448262798e-06 7.0720949552266995e-07 0 -1.7359049056019839e-06 7.4407116022703468e-07 0 -3.3091580343291617e-06 -8.955352129565491e-07 0 -1.5475430826879388e-06 -9.1811223531399603e-07 0 -2.3382648548908372e-06 -7.1982960160249527e-07 0 -1.1943521960893892e-05 2.1473486864699576e-06 0 -1.5699878233031407e-05 3.9955858084895788e-06 0 -1.2534795449511625e-05 1.6647529820765519e-06 0 -1.7533907245635049e-05 3.6874741968051601e-06 0 -1.2534795449511625e-05 1.6647529820765519e-06 0 -1.5699878233031407e-05 3.9955858084895788e-06 0 -1.2144659258527656e-05 0.00015931611158706674 0 -1.5320378103832551e-05 0.00013904764734700171 0 -1.1557753439607414e-06 0.00014161771147633281 0 -3.006017111589479e-05 -7.369405019017148e-05 0 -2.8027210963817638e-05 -6.4517556400551601e-05 0 -3.4570794567923903e-05 -6.5859545173208058e-05 0 -7.6485570250647203e-06 -2.8967253088389478e-05 0 -6.0474648062200445e-06 -3.0306962001236979e-05 0 -6.4060394200187275e-06 -2.8671504834816878e-05 0 -1.392613190617469e-05 -2.4414700934630085e-05 0 -1.1666383559813381e-05 -2.5843994398570854e-05 0 -1.4321772834510179e-05 -2.2796999835937357e-05 0 -5.746333315436024e-06 -7.9293443321112088e-07 0 -4.4454477712941614e-06 -1.204111360891464e-07 0 -4.7905852095768976e-06 4.0179610140384919e-08 0 -1.7048962334725711e-05 -2.1119390653736355e-05 0 -1.6349181380875789e-05 -2.0558968204226549e-05 0 -1.6108364423993138e-05 -1.9445943479173064e-05 0 -5.6382979478176173e-07 -1.8993303328565739e-05 0 -2.3064837315226174e-06 -1.8837845858793648e-05 0 -3.7144215545976953e-06 -2.3177297773735128e-05 0 -7.5355838703556061e-06 -2.2645524361418927e-05 0 -5.8406094019203277e-06 -2.3101597741122354e-05 0 -6.1639836735353131e-06 -1.9372054477295488e-05 0 -1.8046306898228588e-05 -8.9455649484121076e-06 0 -1.8954080416287936e-05 -1.1809367148961508e-05 0 -1.4134036638082803e-05 -8.2678399933589213e-06 0 -1.1666383559813381e-05 -2.5843994398570854e-05 0 -1.0708537726184309e-05 -2.5295829222120382e-05 0 -1.2479555415494704e-05 -2.3239751310767481e-05 0 -2.0911811536672505e-05 7.7046106494077853e-06 0 -1.5699878233031407e-05 3.9955858084895788e-06 0 -1.6453776227276456e-05 6.8880274764810208e-06 0 -1.7817918468889872e-06 8.8420104401969957e-07 0 -1.0688251678843699e-06 1.2273331283042019e-06 0 -1.5537439250259137e-06 9.2553171141152737e-07 0 -1.8112955799716011e-05 -1.4200410179596197e-05 0 -1.7177305748362455e-05 -1.9278174457619267e-05 0 -1.4463384765715174e-05 -1.3943865702441609e-05 0 -1.2486860824755653e-05 -1.7312360952110235e-05 0 -1.4463384765715174e-05 -1.3943865702441609e-05 0 -1.7177305748362455e-05 -1.9278174457619267e-05 0 -6.5057938571593689e-06 -7.8472223061809311e-07 0 -5.746333315436024e-06 -7.9293443321112088e-07 0 -4.7905852095768976e-06 4.0179610140384919e-08 0 -1.8112955799716011e-05 -1.4200410179596197e-05 0 -1.5502054346418904e-05 -1.1453486032287629e-05 0 -1.8954080416287936e-05 -1.1809367148961508e-05 0 -5.6831299876761147e-06 -2.0720222728309348e-07 0 -6.5057938571593689e-06 -7.8472223061809311e-07 0 -4.7905852095768976e-06 4.0179610140384919e-08 0 -2.9080907882538272e-06 -4.2746854238980049e-07 0 -2.0658160795141335e-06 4.3407974020234187e-07 0 -4.257424597468318e-06 2.2895232399382487e-07 0 -1.8112955799716011e-05 -1.4200410179596197e-05 0 -1.8954080416287936e-05 -1.1809367148961508e-05 0 -2.3973925454440646e-05 -1.6593651050455384e-05 0 -2.4685694257097353e-05 2.6791132655305728e-05 0 -3.8112166192964505e-05 3.3301199169743894e-05 0 -2.9334681759653608e-05 2.2740573752101248e-05 0 -1.4953324491943999e-09 -5.5433777890301438e-10 0 -1.0624758245433737e-06 -5.758347013212248e-07 0 -2.3218708082422037e-06 -7.0743843338726343e-07 0 -1.1810976570376281e-09 2.917151022036642e-10 0 -1.8245042989847177e-06 3.0787650967041876e-07 0 -9.0152640796623032e-07 3.2374755815243883e-07 0 -5.6831299876761147e-06 -2.0720222728309348e-07 0 -4.7905852095768976e-06 4.0179610140384919e-08 0 -4.5075149444013975e-06 2.2930953948203875e-07 0 -6.2055151007547143e-06 2.0688600869389415e-07 0 -5.0271447569930231e-06 -5.2036391109651632e-07 0 -4.257424597468318e-06 2.2895232399382487e-07 0 -1.5270985225332611e-06 -7.5529864820453322e-07 0 -8.7995613332670236e-07 -6.4233565982802642e-07 0 -1.4255563646240444e-06 -4.4638732642501557e-07 0 -8.2916423934628589e-06 -1.0009103016539975e-05 0 -1.135736098027445e-05 -1.2144871340198088e-05 0 -8.4166229625753125e-06 -1.5132079156065273e-05 0 -1.8407194823955964e-07 3.2721000055420982e-07 0 -1.418055359612254e-07 6.0024302414433917e-07 0 -6.6582468159990492e-08 7.7509182910657348e-07 0 -4.44320530042652e-05 0.00015880378962488539 0 -5.3680505026963345e-05 0.00014051271607213502 0 -3.8180268885880328e-05 0.00014205940184975241 0 -1.6329304963055645e-05 -7.4458196668350846e-05 0 -1.1921393491819364e-05 -6.5039483529545327e-05 0 -1.8356319329147518e-05 -6.5980768457457988e-05 0 -3.5490946574480169e-06 5.2171848258248025e-07 0 -3.1242085488717258e-06 5.7123115554299467e-07 0 -4.5075149444013975e-06 2.2930953948203875e-07 0 -2.9080907882538272e-06 -4.2746854238980049e-07 0 -5.0271447569930231e-06 -5.2036391109651632e-07 0 -3.3091580343291617e-06 -8.955352129565491e-07 0 -2.4224023030773143e-07 6.2889293137941867e-07 0 -5.5441238814635298e-07 9.4553156751441056e-07 0 -2.8040583266042802e-07 8.886244431112204e-07 0 -1.135736098027445e-05 -1.2144871340198088e-05 0 -1.2486860824755653e-05 -1.7312360952110235e-05 0 -8.4166229625753125e-06 -1.5132079156065273e-05 0 -7.1879475450577638e-05 0.00010514034326974054 0 -6.9076350385318633e-05 8.7959605704341734e-05 0 -5.4404813988263792e-05 9.5632274867271056e-05 0 -1.5893610148676087e-06 -3.7536798465892235e-05 0 -8.5565632022447363e-06 -4.2473765875382141e-05 0 -1.6501275183396549e-06 -4.5648922645426342e-05 0 -2.6498913945322258e-05 -4.3849158406372227e-05 0 -2.0643408605419535e-05 -3.6750029038775215e-05 0 -2.5776300717306937e-05 -3.7135962941721454e-05 0 -4.4958696281993178e-06 -9.2496821963890674e-07 0 -6.1348407378559081e-06 -3.2203348094656965e-06 0 -6.1560597871213054e-06 -2.3072758944611793e-06 0 -1.0434386700596483e-05 8.7360435349402837e-07 0 -8.0575920562404944e-06 5.6611449306798014e-07 0 -7.5384453227800754e-06 2.4185892681071831e-08 0 -7.3713749882794817e-06 -9.5892486078714307e-07 0 -5.5454096513717609e-06 -3.9608403361338526e-07 0 -5.6564242160721794e-06 -8.0123384617901915e-07 0 -8.4561197877406989e-07 3.1164650860447211e-06 0 -1.331643400250986e-06 1.5202727064582543e-06 0 -7.5733195838144051e-08 2.1544358429214887e-06 0 -2.4224023030773143e-07 6.2889293137941867e-07 0 -4.2403397551436725e-07 7.2628946616811407e-07 0 -5.5441238814635309e-07 9.4553156751441056e-07 0 -1.0348426148689158e-05 -8.0250104629099254e-06 0 -1.2033219462462573e-05 -1.0807650931293586e-05 0 -1.0314094569843386e-05 -9.2202897188038908e-06 0 -1.0434386700596483e-05 8.7360435349402837e-07 0 -1.1303860050742528e-05 1.5488614654498012e-06 0 -8.0575920562404961e-06 5.6611449306798035e-07 0 -7.3713749882794817e-06 -9.5892486078714307e-07 0 -5.6564242160721786e-06 -8.0123384617901905e-07 0 -7.6937745635478415e-06 -1.4638342345032411e-06 0 -1.6983126696994591e-06 2.2079910806472891e-06 0 -1.7207800822798875e-06 1.514472845761739e-06 0 -2.8519233983739965e-06 7.3651673230934817e-07 0 -2.2458534395618913e-05 -6.1002465749420425e-05 0 -2.2465916037419928e-05 -5.1365010527493875e-05 0 -2.6420897167633541e-05 -5.6571484969096339e-05 0 -2.7304907174722679e-05 0.00013166682043710623 0 -2.4574091165993932e-05 0.00011047220511952992 0 -1.7060722559210641e-05 0.00012184065962965842 0 -1.8046306898228588e-05 -8.9455649484121076e-06 0 -1.4134036638082803e-05 -8.2678399933589196e-06 0 -1.4373340154979854e-05 -6.1413805100192158e-06 0 -1.1171360948923123e-05 -5.3012886832738399e-06 0 -1.4373340154979854e-05 -6.1413805100192158e-06 0 -1.4134036638082803e-05 -8.2678399933589213e-06 0 -4.7852013348400783e-06 -2.2027824039613563e-06 0 -6.1236718346232168e-06 -3.2013623188556531e-06 0 -5.6353414907493298e-06 -4.2420748866950796e-06 0 -7.3974911109760573e-06 -5.3279363858988625e-06 0 -5.6353414907493298e-06 -4.2420748866950796e-06 0 -6.1236718346232168e-06 -3.2013623188556531e-06 0 -6.7655071107812507e-07 -6.2934077720412844e-07 0 -8.7995613332670236e-07 -6.4233565982802642e-07 0 -1.5475430826879388e-06 -9.1811223531399603e-07 0 -1.5270985225332611e-06 -7.5529864820453322e-07 0 -1.5475430826879388e-06 -9.1811223531399603e-07 0 -8.7995613332670236e-07 -6.4233565982802642e-07 0 -2.0043221056319417e-06 8.2192105898139108e-07 0 -1.230188786334176e-06 8.1893964991697823e-07 0 -1.7359049056019839e-06 7.4407116022703468e-07 0 -7.6764045705701111e-07 5.5140715987690479e-07 0 -1.7359049056019839e-06 7.4407116022703468e-07 0 -1.230188786334176e-06 8.1893964991697823e-07 0 -1.3012615185225164e-05 -1.650310502505897e-05 0 -1.2516293175459143e-05 -1.8576676995972634e-05 0 -1.1318980946028191e-05 -1.6692135013749227e-05 0 -4.4958696281993178e-06 -9.2496821963890674e-07 0 -3.4066284462726885e-06 1.0311597588045762e-06 0 -2.8519233983739965e-06 7.3651673230934817e-07 0 1.5780709706114875e-07 1.9447063768575713e-06 0 -6.5896892499471615e-08 1.5050052062696263e-06 0 4.0606725909458299e-08 1.2964423290731107e-06 0 -1.0499293009601302e-05 9.4345240262926788e-05 0 -1.1234834924119181e-05 0.00011100190963083809 0 -2.4574091165993929e-05 0.00011047220511952992 0 -2.6498913945322258e-05 -4.3849158406372227e-05 0 -2.8212694525978792e-05 -5.1235361226603107e-05 0 -2.2465916037419928e-05 -5.1365010527493875e-05 0 -1.0499293009601302e-05 9.4345240262926788e-05 0 -2.3641644605337555e-05 8.1159074948083709e-05 0 -1.1231620871413838e-05 7.8622977903485287e-05 0 -8.4561197877406989e-07 3.1164650860447211e-06 0 -2.7521693039113539e-06 2.4436645903313348e-06 0 -1.331643400250986e-06 1.5202727064582543e-06 0 -8.4561197877406989e-07 3.1164650860447211e-06 0 -2.1048038725264071e-06 4.8587757870684397e-06 0 -2.7521693039113539e-06 2.4436645903313348e-06 0 -2.4985514096326055e-05 5.6788855465815413e-05 0 -1.8357637027272072e-05 6.8440565029761818e-05 0 -3.2368427161912022e-05 7.3668054403176192e-05 0 -2.3641644605337555e-05 8.1159074948083709e-05 0 -3.2368427161912022e-05 7.3668054403176192e-05 0 -1.8357637027272072e-05 6.8440565029761818e-05 0 -3.8519127481071323e-06 -2.4571268906705161e-07 0 -2.3218708082422037e-06 -7.0743843338726343e-07 0 -4.1892212806540345e-06 -6.3836273399719942e-07 0 -2.8085227834301318e-06 -1.1668379606006822e-07 0 -3.2111888830641766e-06 1.6125146820348264e-07 0 -1.8245042989847177e-06 3.0787650967041876e-07 0 -1.2486860824755653e-05 -1.7312360952110235e-05 0 -1.4729064806344662e-05 -2.3074073587623977e-05 0 -9.9170226228535028e-06 -2.297156566231929e-05 0 -1.7048962334725711e-05 -2.1119390653736355e-05 0 -1.7274025294300994e-05 -2.2282994637448241e-05 0 -1.6349181380875789e-05 -2.0558968204226549e-05 0 -5.6382979478176173e-07 -1.8993303328565739e-05 0 -3.7144215545976953e-06 -2.3177297773735128e-05 0 -1.1151950122410455e-06 -2.2580695713984822e-05 0 -2.3298943726035578e-06 6.5142477208067734e-07 0 -2.8519233983739965e-06 7.3651673230934817e-07 0 -1.7207800822798875e-06 1.514472845761739e-06 0 1.5780709706114875e-07 1.9447063768575713e-06 0 3.8658772515600296e-07 3.1427279308868527e-06 0 -7.5733195838144051e-08 2.1544358429214887e-06 0 -1.0380689735453729e-05 -2.3757916251890755e-05 0 -9.5378003196792454e-06 -2.1854186476940797e-05 0 -1.1890244097200243e-05 -2.16314056921855e-05 0 -1.0794490598162567e-05 -2.0252799060266893e-05 0 -1.1890244097200243e-05 -2.16314056921855e-05 0 -9.5378003196792454e-06 -2.1854186476940797e-05 0 -7.9973391578113798e-06 -1.295188822577384e-05 0 -7.8347421813399924e-06 -1.6405600426132909e-05 0 -5.5011400031465097e-06 -1.3003777670325143e-05 0 -4.44320530042652e-05 0.00015880378962488539 0 -6.0094873401031373e-05 0.00015696294792781967 0 -5.3680505026963345e-05 0.00014051271607213502 0 -1.6329304963055645e-05 -7.4458196668350846e-05 0 -1.0020700650660614e-05 -7.3379598542307816e-05 0 -1.1921393491819364e-05 -6.5039483529545327e-05 0 -1.5666844581682981e-05 -2.1282145464611487e-05 0 -1.6688102731663827e-05 -2.1905115900388721e-05 0 -1.4321772834510179e-05 -2.2796999835937357e-05 0 -5.3664115444407556e-06 -2.6476847056575366e-05 0 -6.4060394200187275e-06 -2.8671504834816878e-05 0 -4.3385905068913458e-06 -2.9210670648821921e-05 0 -1.2144659258527656e-05 0.00015931611158706674 0 -2.7027767085506237e-05 0.00015108282721576949 0 -1.5320378103832551e-05 0.00013904764734700171 0 -3.006017111589479e-05 -7.369405019017148e-05 0 -2.3289932907714245e-05 -7.0240475973445789e-05 0 -2.8027210963817638e-05 -6.4517556400551601e-05 0 -2.4224023030773143e-07 6.2889293137941867e-07 0 -2.8040583266042802e-07 8.886244431112204e-07 0 -1.4180553596122543e-07 6.0024302414433906e-07 0 -1.5294437823350358e-07 1.098011697847619e-06 0 -1.4180553596122543e-07 6.0024302414433906e-07 0 -2.8040583266042802e-07 8.886244431112204e-07 0 -4.9876473535300745e-06 0.00012215892141597201 0 -1.5320378103832551e-05 0.00013904764734700171 0 -1.7060722559210641e-05 0.00012184065962965842 0 -3.185328679782071e-05 -5.6929154710398623e-05 0 -2.8027210963817638e-05 -6.4517556400551601e-05 0 -2.6420897167633541e-05 -5.6571484969096339e-05 0 -2.0998572873325174e-06 -9.3000246714708626e-07 0 -2.3218708082422041e-06 -7.0743843338726333e-07 0 -1.0624758245433737e-06 -5.758347013212248e-07 0 -1.8899824078052106e-06 5.7178937291997504e-07 0 -9.0152640796623032e-07 3.2374755815243883e-07 0 -1.8245042989847177e-06 3.0787650967041876e-07 0 -1.0069038308795417e-05 3.5382902235901591e-05 0 -1.9549310438807709e-06 5.0363031316196163e-05 0 -1.3668589969816043e-05 5.2776928790481913e-05 0 -3.8519127481071323e-06 -2.4571268906705161e-07 0 -1.8462958582583345e-06 -3.3373640502138526e-07 0 -2.3218708082422037e-06 -7.0743843338726343e-07 0 -2.8085227834301318e-06 -1.1668379606006822e-07 0 -1.8245042989847177e-06 3.0787650967041876e-07 0 -1.3599977803955187e-06 6.2876703685480546e-08 0 -7.4796805242849485e-05 0.00014014886848306515 0 -6.1895927890291379e-05 0.0001275814758682361 0 -5.3680505026963345e-05 0.00014051271607213502 0 -2.6506528119250437e-06 -6.3263789004956795e-05 0 -7.5937578248269095e-06 -5.7932765335688616e-05 0 -1.1921393491819364e-05 -6.5039483529545327e-05 0 -7.1124969533947126e-06 1.5980878083767999e-05 0 -1.6090673338727223e-05 1.700163257790064e-05 0 -9.1010449915709646e-06 1.1431174482337952e-05 0 -1.3249983710590865e-05 9.0605895948089964e-06 0 -9.1010449915709646e-06 1.1431174482337954e-05 0 -1.6090673338727223e-05 1.700163257790064e-05 0 -1.8881805503666881e-05 -2.755423931974717e-05 0 -1.7177305748362455e-05 -1.9278174457619267e-05 0 -2.1067621654721081e-05 -2.2797866862389523e-05 0 -4.2128725665486323e-06 -2.8266932993763981e-06 0 -3.8805391748796898e-06 -7.1793571424428678e-06 0 -1.9212263172428219e-06 -4.5705537803208387e-06 0 -2.4985514096326055e-05 5.6788855465815413e-05 0 -3.033434126582904e-05 4.8082877448899934e-05 0 -2.1881471494201242e-05 4.0089522243868846e-05 0 -2.4685694257097353e-05 2.6791132655305728e-05 0 -2.1881471494201242e-05 4.0089522243868846e-05 0 -3.0144543990279453e-05 3.8562528085091634e-05 0 -1.8112955799716011e-05 -1.4200410179596197e-05 0 -2.0827888732783173e-05 -1.8678256400070409e-05 0 -1.7177305748362455e-05 -1.9278174457619267e-05 0 -1.2486860824755653e-05 -1.7312360952110235e-05 0 -9.9170226228535028e-06 -2.297156566231929e-05 0 -8.4166229625753125e-06 -1.5132079156065273e-05 0 -1.5150722823406201e-05 -1.9250079339975559e-05 0 -1.6108364423993138e-05 -1.9445943479173064e-05 0 -1.6349181380875789e-05 -2.0558968204226549e-05 0 -4.5757609642618794e-06 -2.0618171064044347e-05 0 -3.7144215545976953e-06 -2.3177297773735128e-05 0 -2.3064837315226174e-06 -1.8837845858793648e-05 0 -5.1165565068573098e-06 -6.5364539814758841e-07 0 -7.1221185894195875e-06 -3.5349366235455551e-06 0 -5.7599751380195353e-06 -1.9640402270318345e-06 0 -8.0145039594412099e-06 -4.6676628546789201e-06 0 -8.9624894754851731e-06 -6.0447874390433774e-06 0 -7.1221185894195875e-06 -3.5349366235455551e-06 0 -3.9054980164312753e-07 4.6467135602452838e-06 0 -5.0514846413196845e-07 3.4619834825821984e-06 0 -1.8976849716166805e-06 3.0086231501238017e-06 0 -8.2916423934628589e-06 -1.0009103016539975e-05 0 -6.7093504608594563e-06 -6.7362906190178039e-06 0 -9.0870610015644408e-06 -8.0520311402336261e-06 0 -1.2144659258527656e-05 0.00015931611158706674 0 -1.1557753439607404e-06 0.00014161771147633281 0 2.9224199315177584e-06 0.00015789749198155182 0 -3.006017111589479e-05 -7.369405019017148e-05 0 -3.4570794567923903e-05 -6.5859545173208058e-05 0 -3.7070845578364336e-05 -7.3170273555898873e-05 0 -1.6983126696994591e-06 2.2079910806472891e-06 0 -1.8976849716166805e-06 3.0086231501238017e-06 0 -5.0514846413196845e-07 3.4619834825821984e-06 0 -2.7146481383235172e-06 -1.2330307232025698e-05 0 -5.5011400031465097e-06 -1.3003777670325143e-05 0 -3.526579975486444e-06 -1.4698976041957057e-05 0 -1.0794490598162567e-05 -2.0252799060266893e-05 0 -9.5378003196792454e-06 -2.1854186476940797e-05 0 -9.5555486656160692e-06 -1.87574777418933e-05 0 2.8752433576803987e-08 3.1095687915804512e-06 0 -7.1186201443373992e-07 2.3480257617978639e-06 0 -5.0514846413196845e-07 3.4619834825821984e-06 0 -4.3368938377388445e-07 -3.479065234012405e-07 0 -4.7699379133449762e-07 -1.6795085481569648e-07 0 -8.7995613332670236e-07 -6.4233565982802642e-07 0 -3.4661627002092619e-05 -2.6655274384198293e-05 0 -3.7422112419969589e-05 -3.3456306661107918e-05 0 -2.9829800589888893e-05 -2.8387541049996731e-05 0 -2.9080907882538272e-06 -4.2746854238980049e-07 0 -2.3382648548908372e-06 -7.1982960160249527e-07 0 -1.4255563646240444e-06 -4.4638732642501557e-07 0 4.0606725909458299e-08 1.2964423290731107e-06 0 -6.5896892499471615e-08 1.5050052062696263e-06 0 -1.8382342715378834e-07 7.1837194335656694e-07 0 -1.6983126696994591e-06 2.2079910806472891e-06 0 -3.4066284462726885e-06 1.0311597588045762e-06 0 -1.8976849716166805e-06 3.0086231501238017e-06 0 -6.5155628778813083e-05 7.1430661834400881e-05 0 -6.034274968653264e-05 5.6218482851915626e-05 0 -4.8952928376506945e-05 6.0909876923598443e-05 0 -4.1071928588678792e-07 6.1695531370108809e-07 0 -2.1904208592028213e-07 4.0458443479357429e-07 0 -1.6074999162236016e-07 2.6546223164601709e-07 0 -7.2872581101361885e-07 7.6659410010366771e-07 0 -7.5733195838144051e-08 2.1544358429214887e-06 0 -1.331643400250986e-06 1.5202727064582543e-06 0 -1.0716992818406522e-05 -1.1769156692363222e-05 0 -1.1825036778223854e-05 -1.1845298372215972e-05 0 -1.223894129083285e-05 -1.4125507628886025e-05 0 -2.6498913945322258e-05 -4.3849158406372227e-05 0 -3.1779485581024163e-05 -4.0397771714769107e-05 0 -3.3753290534120085e-05 -4.8837995164417927e-05 0 -2.9080907882538272e-06 -4.2746854238980049e-07 0 -1.4255563646240444e-06 -4.4638732642501557e-07 0 -1.55891996103133e-06 -6.3885994661366955e-09 0 -2.4224023030773143e-07 6.2889293137941867e-07 0 -1.9261647481474819e-07 3.0829798047252851e-07 0 -2.1904208592028213e-07 4.0458443479357429e-07 0 -2.8993190142340721e-06 1.1246934015236096e-06 0 -1.331643400250986e-06 1.5202727064582543e-06 0 -2.7521693039113539e-06 2.4436645903313348e-06 0 -1.2033219462462573e-05 -1.0807650931293586e-05 0 -1.1825036778223854e-05 -1.1845298372215972e-05 0 -1.0314094569843386e-05 -9.2202897188038908e-06 0 -1.5150722823406201e-05 -1.9250079339975559e-05 0 -1.4826859354989114e-05 -2.023634105211376e-05 0 -1.3823558663638167e-05 -1.8275110330853324e-05 0 -1.1943521960893892e-05 2.1473486864699576e-06 0 -9.0552398082939964e-06 9.1833192164237446e-07 0 -1.0223436904877203e-05 2.4937006819495936e-06 0 1.8431340170976833e-05 0.00013749782142645397 0 -1.1557753439607414e-06 0.00014161771147633281 0 6.9791763598331335e-06 0.00012764589252499053 0 -4.3547617392420921e-05 -6.5214682676194481e-05 0 -3.4570794567923903e-05 -6.5859545173208058e-05 0 -3.7662041245118519e-05 -5.9908246560149633e-05 0 -6.6582468159990492e-08 7.7509182910657348e-07 0 -1.8382342715378834e-07 7.1837194335656694e-07 0 -1.8407194823955964e-07 3.2721000055420982e-07 0 4.0606725909458299e-08 1.2964423290731107e-06 0 -1.8382342715378834e-07 7.1837194335656694e-07 0 -6.6582468159990492e-08 7.7509182910657348e-07 0 -4.9815363607383477e-05 0.00012092970333478286 0 -5.3680505026963345e-05 0.00014051271607213502 0 -6.1895927890291379e-05 0.0001275814758682361 0 -1.2370156770941128e-05 -5.5208392851742169e-05 0 -1.1921393491819366e-05 -6.5039483529545327e-05 0 -7.5937578248269095e-06 -5.7932765335688616e-05 0 -1.5294437823350358e-07 1.098011697847619e-06 0 -5.4409472294994779e-07 1.3567307753245248e-06 0 -7.7640510691542179e-08 1.6379407444908905e-06 0 -6.0720027003521922e-07 1.7071198634572065e-06 0 -7.7640510691542179e-08 1.6379407444908905e-06 0 -5.4409472294994779e-07 1.3567307753245248e-06 0 -1.5294437823350358e-07 1.098011697847619e-06 0 -6.6582468159990492e-08 7.7509182910657348e-07 0 -1.4180553596122543e-07 6.0024302414433906e-07 0 -7.3713749882794817e-06 -9.5892486078714307e-07 0 -7.39973385432992e-06 -8.3524189220704703e-07 0 -5.6470497540946248e-06 -2.111051954923414e-07 0 -6.5704404697752409e-06 -2.1428809293770101e-06 0 -8.2564868192366375e-06 -4.1670015930094091e-06 0 -6.1236718346232168e-06 -3.2013623188556531e-06 0 -7.3974911109760573e-06 -5.3279363858988625e-06 0 -6.1236718346232159e-06 -3.2013623188556531e-06 0 -8.2564868192366375e-06 -4.1670015930094091e-06 0 -7.3713749882794817e-06 -9.5892486078714307e-07 0 -5.6470497540946248e-06 -2.111051954923414e-07 0 -5.5454096513717609e-06 -3.9608403361338526e-07 0 -1.0069038308795417e-05 3.5382902235901591e-05 0 4.0388434346973717e-07 3.6351358048099143e-05 0 -1.9549310438807709e-06 5.0363031316196163e-05 0 -2.7304907174722679e-05 0.00013166682043710623 0 -2.7027767085506233e-05 0.00015108282721576949 0 -3.8180268885880328e-05 0.00014205940184975241 0 -2.2458534395618913e-05 -6.1002465749420425e-05 0 -2.3289932907714245e-05 -7.0240475973445789e-05 0 -1.8356319329147518e-05 -6.5980768457457988e-05 0 -2.3714802182869507e-06 4.6733042734720596e-07 0 -1.9381635111887154e-06 8.003222621372357e-07 0 -2.7930047727289618e-06 3.2511265274309604e-07 0 -2.3523379066994785e-10 1.3110551076115669e-10 0 -1.6074999162236016e-07 2.6546223164601709e-07 0 -2.1904208592028213e-07 4.0458443479357429e-07 0 -8.4561197877406989e-07 3.1164650860447211e-06 0 3.0870954056746738e-07 5.3087803746200773e-06 0 -2.1048038725264071e-06 4.8587757870684397e-06 0 -5.5740992969352943e-06 -1.6453353268279399e-05 0 -5.5011400031465097e-06 -1.3003777670325143e-05 0 -7.8347421813399924e-06 -1.6405600426132909e-05 0 -7.9973391578113798e-06 -1.295188822577384e-05 0 -9.1806831971491244e-06 -1.1780567240474067e-05 0 -9.5518395019480575e-06 -1.4449308446294614e-05 0 -5.5441238814635309e-07 9.4553156751441056e-07 0 -1.020035090739039e-06 1.027099530190621e-06 0 -5.4454308177922842e-07 1.0771240764398264e-06 0 -2.4576345655078287e-05 -2.2271671180483734e-05 0 -2.9829800589888893e-05 -2.8387541049996731e-05 0 -2.3415745909793471e-05 -2.7590980207518328e-05 0 -2.806009766775275e-05 -3.2963095745595706e-05 0 -2.3415745909793471e-05 -2.7590980207518328e-05 0 -2.9829800589888893e-05 -2.8387541049996731e-05 0 -2.0988149129052482e-10 -2.7826756502341349e-11 0 -2.352337906699556e-10 1.3110551076116452e-10 0 -1.4210865575322943e-07 1.434086421096943e-07 0 -4.3143847972611681e-05 7.1343372326499789e-05 0 -4.8952928376506945e-05 6.0909876923598443e-05 0 -3.626026582189059e-05 5.9268993164549979e-05 0 -3.830104154317813e-05 4.7207871197484349e-05 0 -3.626026582189059e-05 5.9268993164549979e-05 0 -4.8952928376506945e-05 6.0909876923598443e-05 0 -1.5666844581682981e-05 -2.1282145464611487e-05 0 -1.4826859354989114e-05 -2.023634105211376e-05 0 -1.6349181380875789e-05 -2.0558968204226549e-05 0 -5.3664115444407556e-06 -2.6476847056575366e-05 0 -3.7144215545976953e-06 -2.3177297773735128e-05 0 -5.8406094019203277e-06 -2.3101597741122354e-05 0 -5.126517876756458e-06 3.8056034761034997e-06 0 -2.7521693039113539e-06 2.4436645903313348e-06 0 -2.1048038725264071e-06 4.8587757870684397e-06 0 -1.3324693695241474e-05 -2.0292403904326873e-05 0 -1.2049622204182756e-05 -1.996461793666068e-05 0 -1.2516293175459143e-05 -1.8576676995972634e-05 0 1.3760376149055205e-06 7.5604686335375262e-06 0 1.8012300425291086e-06 9.7185989462606869e-06 0 2.0826012969543277e-06 9.013795317996629e-06 0 -2.9080907882538272e-06 -4.2746854238980049e-07 0 -1.55891996103133e-06 -6.3885994661366955e-09 0 -2.0658160795141335e-06 4.3407974020234187e-07 0 -1.3249983710590865e-05 9.0605895948089964e-06 0 -5.7875213841129812e-06 7.1331524404720625e-06 0 -9.1010449915709646e-06 1.1431174482337952e-05 0 1.513928811028178e-05 5.1681798707311114e-05 0 6.2568132764930446e-06 6.2254883379534565e-05 0 -1.9549310438807709e-06 5.0363031316196163e-05 0 -2.3714802182869507e-06 4.6733042734720596e-07 0 -1.5537439250259137e-06 9.2553171141152727e-07 0 -1.9381635111887154e-06 8.003222621372357e-07 0 -2.7304907174722679e-05 0.00013166682043710623 0 -1.5320378103832551e-05 0.00013904764734700171 0 -2.7027767085506237e-05 0.00015108282721576949 0 -2.2458534395618913e-05 -6.1002465749420425e-05 0 -2.8027210963817638e-05 -6.4517556400551601e-05 0 -2.3289932907714245e-05 -7.0240475973445789e-05 0 -1.2355646072475787e-06 9.7745337122219994e-07 0 -1.8119211807887227e-06 8.7575516945416864e-07 0 -1.9381635111887154e-06 8.003222621372357e-07 0 -5.6966416311831054e-06 -3.8652972068637791e-06 0 -7.3746655729488996e-06 -5.4513625405581939e-06 0 -6.1348407378559081e-06 -3.2203348094656969e-06 0 -4.9876473535300745e-06 0.00012215892141597201 0 6.9791763598331335e-06 0.00012764589252499053 0 -1.1557753439607414e-06 0.00014161771147633281 0 -3.185328679782071e-05 -5.6929154710398623e-05 0 -3.7662041245118519e-05 -5.9908246560149633e-05 0 -3.4570794567923903e-05 -6.5859545173208058e-05 0 -1.4586894139904655e-05 -4.2912050548782474e-06 0 -1.7695417879475061e-05 -5.9873930639381546e-06 0 -1.4400620018459899e-05 -4.168406885607797e-06 0 -2.8436526723289662e-05 9.8541330380450198e-06 0 -2.287547020069396e-05 6.3778782552659675e-06 0 -2.1995292746274909e-05 6.4395707172526866e-06 0 -7.1124969533947126e-06 1.5980878083767999e-05 0 -8.7725002890972012e-06 2.418582528784373e-05 0 -1.5383890185193013e-05 2.5707984706410751e-05 0 -5.6831299876761147e-06 -2.0720222728309348e-07 0 -7.3601606320643268e-06 -9.5698754216629906e-07 0 -6.5057938571593689e-06 -7.8472223061809311e-07 0 -1.744625022645028e-05 -2.3442724913715969e-05 0 -1.6142170204692763e-05 -2.313778611195832e-05 0 -1.6688102731663827e-05 -2.1905115900388721e-05 0 -1.744625022645028e-05 -2.3442724913715969e-05 0 -1.6688102731663827e-05 -2.1905115900388721e-05 0 -1.7513007778355522e-05 -2.2915116642660022e-05 0 -2.1042074198946557e-06 -3.0048035229845565e-05 0 -1.8285859839409556e-06 -2.6408350079968102e-05 0 -4.3385905068913458e-06 -2.9210670648821921e-05 0 -2.1042074198946557e-06 -3.0048035229845565e-05 0 -4.3385905068913458e-06 -2.9210670648821921e-05 0 -4.4770418484163225e-06 -3.1380031114083343e-05 0 -1.5666844581682981e-05 -2.1282145464611487e-05 0 -1.3856319295543043e-05 -2.1520819641502267e-05 0 -1.4826859354989114e-05 -2.023634105211376e-05 0 -5.3664115444407556e-06 -2.6476847056575366e-05 0 -5.8406094019203277e-06 -2.3101597741122354e-05 0 -6.9975734920758218e-06 -2.5523877649286108e-05 0 8.1297221545315563e-07 -1.241853135430656e-05 0 -1.7208093581260594e-06 -1.5505869086912531e-05 0 1.5054557664461105e-07 -1.5478640418425562e-05 0 -1.6021190466045165e-05 -1.7201973120331942e-05 0 -1.6620588925223384e-05 -1.9463778564154793e-05 0 -1.493462964424985e-05 -1.7445034056183376e-05 0 5.2170575769455808e-06 1.1972940958927518e-06 0 8.6886230605178782e-07 -2.1787816912988556e-06 0 3.737977429314108e-06 -3.6631370177864977e-06 0 -1.2144659258527656e-05 0.00015931611158706674 0 -6.9008542693048977e-07 0.00017353728169511559 0 -1.4655278782849429e-05 0.0001765883133683561 0 -4.44320530042652e-05 0.00015880378962488539 0 -4.1937447808273348e-05 0.00017553445585933314 0 -5.7094616866286295e-05 0.00017201821278512355 0 -3.006017111589479e-05 -7.369405019017148e-05 0 -3.5670287168861284e-05 -7.9904751391705867e-05 0 -2.898011800300323e-05 -8.1555505601516127e-05 0 -1.6329304963055645e-05 -7.4458196668350846e-05 0 -1.7392500841718937e-05 -8.2386746723777735e-05 0 -1.1627694004505508e-05 -8.1145554825586295e-05 0 -9.6500912080387759e-07 1.1097150716394966e-06 0 -5.4454308177922842e-07 1.0771240764398264e-06 0 -1.020035090739039e-06 1.027099530190621e-06 0 -1.2144659258527656e-05 0.00015931611158706674 0 2.9224199315177596e-06 0.00015789749198155182 0 -6.9008542693048828e-07 0.00017353728169511559 0 -3.006017111589479e-05 -7.369405019017148e-05 0 -3.7070845578364336e-05 -7.3170273555898873e-05 0 -3.5670287168861284e-05 -7.9904751391705867e-05 0 -5.1165565068573098e-06 -6.5364539814758841e-07 0 -3.7850528218883544e-06 1.2700410711779342e-06 0 -3.4066284462726885e-06 1.0311597588045762e-06 0 -4.44320530042652e-05 0.00015880378962488539 0 -5.7094616866286295e-05 0.00017201821278512355 0 -6.0094873401031373e-05 0.00015696294792781967 0 -1.6329304963055645e-05 -7.4458196668350846e-05 0 -1.1627694004505508e-05 -8.1145554825586295e-05 0 -1.0020700650660614e-05 -7.3379598542307816e-05 0 -1.0913717813398473e-05 -3.1311339699024158e-05 0 -6.3730621363594942e-06 -2.6863679191333864e-05 0 -9.9170226228535028e-06 -2.297156566231929e-05 0 -1.0348426148689158e-05 -8.0250104629099254e-06 0 -1.0314094569843386e-05 -9.2202897188038908e-06 0 -8.9624894754851731e-06 -6.0447874390433774e-06 0 -8.9143828051150278e-06 -7.3705447973467369e-06 0 -8.9624894754851731e-06 -6.0447874390433774e-06 0 -1.0314094569843386e-05 -9.2202897188038908e-06 0 -2.8993190142340721e-06 1.1246934015236096e-06 0 -4.257424597468318e-06 2.2895232399382487e-07 0 -2.0658160795141335e-06 4.3407974020234187e-07 0 -2.4985514096326055e-05 5.6788855465815413e-05 0 -1.3668589969816043e-05 5.2776928790481913e-05 0 -1.8357637027272072e-05 6.8440565029761818e-05 0 -3.7422112419969589e-05 -3.3456306661107918e-05 0 -3.3156762859372669e-05 -3.491695946401961e-05 0 -2.9829800589888893e-05 -2.8387541049996731e-05 0 -1.0995109312548031e-06 7.7919596429238233e-06 0 -5.7875213841129812e-06 7.1331524404720625e-06 0 -2.1048038725264071e-06 4.8587757870684397e-06 0 -5.126517876756458e-06 3.8056034761034997e-06 0 -2.1048038725264071e-06 4.8587757870684397e-06 0 -5.7875213841129812e-06 7.1331524404720625e-06 0 1.5780709706114875e-07 1.9447063768575713e-06 0 2.9305066856882569e-08 2.331919468661196e-06 0 3.8658772515600296e-07 3.1427279308868527e-06 0 -9.6949661894392725e-06 -1.6691475331334643e-05 0 -9.5555486656160692e-06 -1.87574777418933e-05 0 -7.8347421813399924e-06 -1.6405600426132909e-05 0 -8.1318227955254573e-06 -1.988135057690905e-05 0 -7.8347421813399924e-06 -1.6405600426132909e-05 0 -9.5555486656160692e-06 -1.87574777418933e-05 0 -4.821004602787622e-05 3.1030831126178025e-05 0 -4.1487625093469782e-05 2.1744016928832438e-05 0 -3.6213444637452048e-05 2.3591566646686314e-05 0 -2.4566535564169108e-05 -1.1472020779799205e-05 0 -2.8093997509493178e-05 -1.5569378526566722e-05 0 -2.243145865569894e-05 -1.2052211205720154e-05 0 -5.9489123821659533e-10 -2.5648649472205709e-10 0 -4.0998531895880117e-10 -1.9877538743271445e-10 0 -3.6015576889729876e-07 -3.9275478307379696e-07 0 -5.3255973459874826e-10 2.500416929288297e-10 0 -6.6789552851596486e-10 2.4320326205344236e-10 0 -5.3716223471645904e-07 5.1672691355243687e-07 0 -8.4561197877406989e-07 3.1164650860447211e-06 0 -7.5733195838143919e-08 2.1544358429214887e-06 0 2.1990348954123466e-07 3.5173153434309573e-06 0 2.8752433576803987e-08 3.1095687915804512e-06 0 3.8658772515600296e-07 3.1427279308868527e-06 0 2.9305066856882569e-08 2.331919468661196e-06 0 1.5780709706114875e-07 1.9447063768575713e-06 0 -7.5733195838144091e-08 2.1544358429214883e-06 0 -6.5896892499471615e-08 1.5050052062696263e-06 0 -5.3196581659331142e-06 -6.131622355471976e-07 0 -7.5384453227800754e-06 2.4185892681071831e-08 0 -5.8845816009295785e-06 -1.7698956998499232e-07 0 -4.1941989314499939e-06 1.5211690596628151e-07 0 -4.2809337096486741e-06 -2.3968582409294852e-07 0 -5.5454096513717609e-06 -3.9608403361338526e-07 0 -4.5407742895594094e-06 6.7374050254918075e-05 0 -1.9549310438807709e-06 5.0363031316196163e-05 0 6.2568132764930446e-06 6.2254883379534565e-05 0 -5.3196581659331142e-06 -6.131622355471976e-07 0 -5.8845816009295777e-06 -1.7698956998499238e-07 0 -4.1892212806540345e-06 -6.3836273399719942e-07 0 -4.1941989314499939e-06 1.5211690596628151e-07 0 -3.2111888830641766e-06 1.6125146820348264e-07 0 -4.2809337096486741e-06 -2.3968582409294852e-07 0 -1.3012615185225164e-05 -1.650310502505897e-05 0 -1.3823558663638167e-05 -1.8275110330853324e-05 0 -1.2516293175459143e-05 -1.8576676995972634e-05 0 -1.0069038308795417e-05 3.5382902235901591e-05 0 -2.822112710941161e-06 2.2109806674008757e-05 0 4.0388434346973717e-07 3.6351358048099143e-05 0 -7.2872581101361885e-07 7.6659410010366771e-07 0 -6.5896892499471615e-08 1.5050052062696263e-06 0 -7.5733195838144051e-08 2.1544358429214887e-06 0 -5.5740992969352943e-06 -1.6453353268279399e-05 0 -3.526579975486444e-06 -1.4698976041957057e-05 0 -5.5011400031465097e-06 -1.3003777670325143e-05 0 -1.2623052383158756e-09 -2.9304699914963663e-10 0 -8.8121510774567363e-10 -3.792419036738374e-10 0 -8.9742861924664226e-07 -6.6900655731605503e-07 0 -8.6267011362248535e-10 2.5917029623777266e-10 0 -1.0920127881966768e-09 1.6470023628352369e-10 0 -8.6180079201103341e-07 4.5709589529706533e-07 0 -9.1135123374001564e-06 -2.2613826156212163e-06 0 -1.1786942946611088e-05 -3.0882295508896097e-06 0 -9.4899529916638697e-06 -1.8998031621002161e-06 0 -1.7987105907196338e-05 4.1243996891025917e-06 0 -1.3599805105546668e-05 2.7524380332375715e-06 0 -1.4224349248277221e-05 2.2746231560099047e-06 0 -1.1936529014327297e-05 -9.6322071633020127e-06 0 -1.4134036638082803e-05 -8.2678399933589213e-06 0 -1.5502054346418904e-05 -1.1453486032287629e-05 0 -2.4143179689601375e-06 -2.2805603634113844e-05 0 -6.0650516405903028e-06 -2.0127573537718348e-05 0 -6.3730621363594942e-06 -2.6863679191333864e-05 0 -4.4958696281993178e-06 -9.2496821963890674e-07 0 -4.836581533698434e-06 -2.1027168331454277e-06 0 -6.1348407378559081e-06 -3.2203348094656969e-06 0 -1.3442566050613726e-06 1.3962965258453263e-06 0 -7.1186201443373992e-07 2.3480257617978643e-06 0 -6.0720027003521922e-07 1.7071198634572065e-06 0 -1.7207800822798875e-06 1.514472845761739e-06 0 -7.1186201443374003e-07 2.3480257617978643e-06 0 -1.3442566050613726e-06 1.3962965258453263e-06 0 7.4379889213074439e-07 4.6624343076212577e-06 0 3.0870954056746738e-07 5.3087803746200773e-06 0 2.1990348954123466e-07 3.5173153434309573e-06 0 -8.4561197877406989e-07 3.1164650860447211e-06 0 2.1990348954123461e-07 3.5173153434309569e-06 0 3.0870954056746738e-07 5.3087803746200773e-06 0 -7.5355838703556061e-06 -2.2645524361418927e-05 0 -8.9322787765653497e-06 -2.4322038133309463e-05 0 -6.9975734920758218e-06 -2.5523877649286108e-05 0 -1.3744132558160728e-05 -1.1711247538664708e-05 0 -1.2033219462462573e-05 -1.0807650931293586e-05 0 -1.159683671619824e-05 -9.22842903970168e-06 0 -5.6966416311831054e-06 -3.8652972068637791e-06 0 -6.076313885471722e-06 -5.8840180833850353e-06 0 -7.3746655729488996e-06 -5.4513625405581939e-06 0 -6.2765456531995731e-06 -8.2992618904519462e-06 0 -7.3746655729489004e-06 -5.4513625405581939e-06 0 -6.076313885471722e-06 -5.8840180833850353e-06 0 -6.645446411276418e-06 -1.7205430061072092e-06 0 -9.1135123374001564e-06 -2.2613826156212167e-06 0 -7.6937745635478415e-06 -1.4638342345032411e-06 0 -1.3599805105546668e-05 2.7524380332375715e-06 0 -9.718989322300488e-06 1.9287504927460726e-06 0 -1.1303860050742528e-05 1.5488614654498012e-06 0 -9.6036975402108181e-06 -2.739888152975399e-05 0 -7.6485570250647203e-06 -2.8967253088389478e-05 0 -9.3094246507708479e-06 -2.6109090187050485e-05 0 -5.7875213841129812e-06 7.1331524404720625e-06 0 -4.2045819429548749e-06 1.0299384663179965e-05 0 -9.1010449915709646e-06 1.1431174482337952e-05 0 -1.5294437823350358e-07 1.098011697847619e-06 0 4.0606725909458292e-08 1.2964423290731107e-06 0 -6.6582468159990492e-08 7.7509182910657348e-07 0 -2.3218708082422037e-06 -7.0743843338726343e-07 0 -3.4629061832668954e-06 -8.8372075112195834e-07 0 -4.1892212806540345e-06 -6.3836273399719942e-07 0 -1.8245042989847177e-06 3.0787650967041876e-07 0 -3.211188883064177e-06 1.6125146820348259e-07 0 -2.8456519756323068e-06 4.1374123831937466e-07 0 -1.2355646072475787e-06 9.7745337122219994e-07 0 -1.5584813406355329e-06 9.3943817463162944e-07 0 -1.8119211807887229e-06 8.7575516945416864e-07 0 -4.4958696281993178e-06 -9.2496821963890674e-07 0 -4.7845492291586927e-06 -6.8316466278450488e-07 0 -3.4066284462726885e-06 1.0311597588045762e-06 0 -4.5757609642618794e-06 -2.0618171064044347e-05 0 -6.1639836735353131e-06 -1.9372054477295488e-05 0 -5.8406094019203277e-06 -2.3101597741122354e-05 0 -2.4844436535401751e-06 7.3035750784254954e-07 0 -1.8119211807887229e-06 8.7575516945416864e-07 0 -1.5584813406355329e-06 9.3943817463162944e-07 0 -7.1879475450577638e-05 0.00010514034326974054 0 -5.4404813988263792e-05 9.5632274867271056e-05 0 -5.9275910170817055e-05 0.00011192384123025759 0 -1.6501275183396549e-06 -4.5648922645426342e-05 0 -8.5565632022447363e-06 -4.2473765875382141e-05 0 -7.6708466334142673e-06 -5.0148677346861402e-05 0 -1.5893610148676087e-06 -3.7536798465892235e-05 0 -7.0736224344802137e-06 -3.491890537285734e-05 0 -8.5565632022447363e-06 -4.2473765875382141e-05 0 -6.8492877585882242e-06 -4.4965872151875062e-06 0 -5.7599751380195353e-06 -1.9640402270318345e-06 0 -7.1221185894195875e-06 -3.5349366235455551e-06 0 -1.3744132558160728e-05 -1.1711247538664708e-05 0 -1.3497091132687925e-05 -1.305259461519103e-05 0 -1.2033219462462573e-05 -1.0807650931293586e-05 0 -2.3714802182869507e-06 4.6733042734720596e-07 0 -3.4668468871564435e-06 -5.8821575930179226e-07 0 -2.5754676695266585e-06 2.4198419179097303e-07 0 -5.1165565068573098e-06 -6.5364539814758841e-07 0 -3.4066284462726885e-06 1.0311597588045762e-06 0 -4.7845492291586927e-06 -6.8316466278450477e-07 0 1.6280391196013266e-05 0.00017345251257536032 0 5.8807762557271799e-06 0.00018246222380893543 0 -6.9008542693048828e-07 0.00017353728169511559 0 -4.3902500616231602e-05 -8.0814907106898902e-05 0 -3.9001183005463913e-05 -8.4003133367731764e-05 0 -3.5670287168861284e-05 -7.9904751391705867e-05 0 -4.3873325814474272e-06 -8.103020614667673e-05 0 -1.1627694004505508e-05 -8.1145554825586295e-05 0 -8.8834909319961421e-06 -8.5390849821434219e-05 0 -7.534082043352966e-05 0.00017400693153188149 0 -5.7094616866286295e-05 0.00017201821278512355 0 -6.4472124980522827e-05 0.00018107548814605735 0 -2.3298943726035578e-06 6.5142477208067734e-07 0 -1.7817918468889872e-06 8.8420104401969957e-07 0 -2.5754676695266585e-06 2.4198419179097303e-07 0 -2.3714802182869507e-06 4.6733042734720596e-07 0 -2.5754676695266585e-06 2.4198419179097303e-07 0 -1.7817918468889872e-06 8.8420104401969957e-07 0 -4.7852013348400783e-06 -2.2027824039613563e-06 0 -3.4668468871564435e-06 -5.8821575930179205e-07 0 -4.0591658628168973e-06 -1.0139112799493229e-06 0 -2.0911811536672505e-05 7.7046106494077853e-06 0 -2.1995292746274909e-05 6.4395707172526866e-06 0 -1.5699878233031407e-05 3.9955858084895788e-06 0 -1.7533907245635049e-05 3.6874741968051601e-06 0 -1.5699878233031407e-05 3.9955858084895779e-06 0 -2.1995292746274909e-05 6.4395707172526866e-06 0 -5.126517876756458e-06 3.8056034761034997e-06 0 -7.7100936634449325e-06 2.8836039686364807e-06 0 -4.8053677349192076e-06 1.6935108182176153e-06 0 -6.5704404697752409e-06 -2.1428809293770101e-06 0 -4.7691182617294528e-06 -7.0995497394040246e-07 0 -5.746333315436024e-06 -7.9293443321112088e-07 0 -5.6966416311831054e-06 -3.8652972068637791e-06 0 -5.6353414907493298e-06 -4.2420748866950796e-06 0 -6.076313885471722e-06 -5.8840180833850353e-06 0 -4.1941989314499939e-06 1.5211690596628151e-07 0 -3.1242085488717254e-06 5.7123115554299467e-07 0 -2.8456519756323068e-06 4.1374123831937466e-07 0 -1.8899824078052106e-06 5.7178937291997504e-07 0 -2.8456519756323068e-06 4.1374123831937466e-07 0 -3.1242085488717258e-06 5.7123115554299467e-07 0 -2.0998572873325174e-06 -9.3000246714708626e-07 0 -3.3091580343291617e-06 -8.955352129565491e-07 0 -3.4629061832668954e-06 -8.8372075112195824e-07 0 -5.3196581659331142e-06 -6.131622355471976e-07 0 -3.462906183266895e-06 -8.8372075112195824e-07 0 -3.3091580343291617e-06 -8.955352129565491e-07 0 -2.806009766775275e-05 -3.2963095745595706e-05 0 -3.1779485581024163e-05 -4.0397771714769107e-05 0 -2.5776300717306937e-05 -3.7135962941721454e-05 0 -2.6498913945322258e-05 -4.3849158406372227e-05 0 -2.5776300717306937e-05 -3.7135962941721454e-05 0 -3.1779485581024163e-05 -4.0397771714769107e-05 0 -6.7655071107812507e-07 -6.2934077720412844e-07 0 -3.6015576889729876e-07 -3.9275478307379696e-07 0 -8.7995613332670236e-07 -6.4233565982802642e-07 0 -4.3368938377388445e-07 -3.479065234012405e-07 0 -8.7995613332670236e-07 -6.4233565982802642e-07 0 -3.6015576889729876e-07 -3.9275478307379696e-07 0 -8.6724661360094567e-07 7.8888604416639768e-07 0 -5.3716223471645904e-07 5.1672691355243687e-07 0 -1.230188786334176e-06 8.1893964991697823e-07 0 -7.6764045705701111e-07 5.5140715987690479e-07 0 -1.230188786334176e-06 8.1893964991697823e-07 0 -5.3716223471645904e-07 5.1672691355243687e-07 0 -2.7304907174722679e-05 0.00013166682043710623 0 -1.7060722559210645e-05 0.00012184065962965842 0 -1.5320378103832551e-05 0.00013904764734700171 0 -2.2458534395618913e-05 -6.1002465749420425e-05 0 -2.6420897167633544e-05 -5.6571484969096339e-05 0 -2.8027210963817638e-05 -6.4517556400551601e-05 0 -3.5490946574480169e-06 5.2171848258248025e-07 0 -2.7046663448262794e-06 7.0720949552266995e-07 0 -3.1242085488717258e-06 5.7123115554299467e-07 0 -2.9080907882538272e-06 -4.2746854238980049e-07 0 -3.3091580343291617e-06 -8.955352129565491e-07 0 -2.3382648548908372e-06 -7.1982960160249527e-07 0 -6.5704404697752409e-06 -2.1428809293770101e-06 0 -6.1236718346232168e-06 -3.2013623188556531e-06 0 -4.9816387919782812e-06 -1.5814508599524445e-06 0 -4.1941989314499939e-06 1.5211690596628151e-07 0 -4.5075149444013975e-06 2.2930953948203875e-07 0 -3.1242085488717258e-06 5.7123115554299467e-07 0 -5.3196581659331142e-06 -6.131622355471976e-07 0 -3.3091580343291617e-06 -8.955352129565491e-07 0 -5.0271447569930231e-06 -5.2036391109651632e-07 0 -6.2765456531995731e-06 -8.2992618904519462e-06 0 -8.6591570174395587e-06 -6.2920172525137293e-06 0 -7.3746655729488996e-06 -5.4513625405581939e-06 0 -2.3714802182869507e-06 4.6733042734720596e-07 0 -3.2003967373916505e-06 -1.6707315197024445e-07 0 -3.4668468871564435e-06 -5.8821575930179226e-07 0 -1.4953324491943999e-09 -5.5433777890301438e-10 0 -1.2623052383158756e-09 -2.9304699914963663e-10 0 -1.0624758245433737e-06 -5.758347013212248e-07 0 -1.0920127881966768e-09 1.6470023628352369e-10 0 -1.1810976570376281e-09 2.917151022036642e-10 0 -9.0152640796623032e-07 3.2374755815243883e-07 0 -1.0995109312548031e-06 7.7919596429238233e-06 0 -2.1048038725264071e-06 4.8587757870684397e-06 0 3.0870954056746738e-07 5.3087803746200773e-06 0 -1.0380689735453729e-05 -2.3757916251890755e-05 0 -1.0708537726184309e-05 -2.5295829222120382e-05 0 -9.3094246507708479e-06 -2.6109090187050485e-05 0 -6.5704404697752409e-06 -2.1428809293770101e-06 0 -7.5278782463232918e-06 -1.8224778439924157e-06 0 -9.0367204745731099e-06 -3.3195255033310264e-06 0 -9.9170226228535028e-06 -2.297156566231929e-05 0 -6.3730621363594942e-06 -2.6863679191333864e-05 0 -6.0650516405903028e-06 -2.0127573537718348e-05 0 -2.3298943726035578e-06 6.5142477208067734e-07 0 -1.3442566050613726e-06 1.3962965258453263e-06 0 -1.7817918468889872e-06 8.8420104401969957e-07 0 -4.0440254653712369e-06 -1.3617541665512999e-06 0 -3.1716607493472465e-06 -3.119995755706518e-07 0 -3.4668468871564435e-06 -5.8821575930179226e-07 0 -3.8519127481071323e-06 -2.4571268906705161e-07 0 -5.768097790733404e-06 5.9265260007942497e-07 0 -2.7543806342507134e-06 2.3600446980911666e-07 0 -2.8085227834301318e-06 -1.1668379606006822e-07 0 -1.9545878528003871e-06 -3.6902697268337648e-07 0 -4.0476216807988705e-06 -7.5872662019478056e-07 0 -7.3974911109760573e-06 -5.3279363858988625e-06 0 -6.7093504608594563e-06 -6.7362906190178048e-06 0 -5.6353414907493298e-06 -4.2420748866950796e-06 0 -6.0720027003521922e-07 1.7071198634572065e-06 0 -1.0688251678843699e-06 1.2273331283042019e-06 0 -1.3442566050613726e-06 1.3962965258453263e-06 0 -3.8330727582098959e-06 -4.3284220401334236e-07 0 -4.7691182617294528e-06 -7.0995497394040257e-07 0 -4.9816387919782812e-06 -1.5814508599524445e-06 0 -1.3940402122609479e-05 -4.508796388521408e-06 0 -1.4373340154979854e-05 -6.1413805100192158e-06 0 -1.1504904002739818e-05 -4.105221497735026e-06 0 -6.9076350385318633e-05 8.7959605704341734e-05 0 -5.4951244219970713e-05 8.034023713426213e-05 0 -5.4404813988263792e-05 9.5632274867271056e-05 0 -7.3974911109760573e-06 -5.3279363858988625e-06 0 -8.2564868192366375e-06 -4.1670015930094091e-06 0 -1.0057546130218462e-05 -6.4250470546245344e-06 0 -7.1221185894195875e-06 -3.5349366235455551e-06 0 -8.9624894754851731e-06 -6.0447874390433774e-06 0 -7.9075582383724969e-06 -5.4139946730641803e-06 0 -6.5704404697752409e-06 -2.1428809293770101e-06 0 -9.0367204745731099e-06 -3.3195255033310264e-06 0 -8.2564868192366375e-06 -4.1670015930094091e-06 0 -1.7817918468889872e-06 8.8420104401969957e-07 0 -1.3442566050613726e-06 1.3962965258453263e-06 0 -1.0688251678843699e-06 1.2273331283042019e-06 0 -1.0348426148689158e-05 -8.0250104629099254e-06 0 -1.1596836716198242e-05 -9.22842903970168e-06 0 -1.2033219462462573e-05 -1.0807650931293586e-05 0 -1.0995109312548031e-06 7.7919596429238233e-06 0 2.0826012969543277e-06 9.013795317996629e-06 0 -2.6180481235634132e-07 1.2003786156347857e-05 0 -6.5704404697752409e-06 -2.1428809293770101e-06 0 -5.746333315436024e-06 -7.9293443321112098e-07 0 -7.5278782463232918e-06 -1.8224778439924157e-06 0 -7.3795389497166244e-05 0.00012264069939551069 0 -7.1879475450577638e-05 0.00010514034326974054 0 -5.9275910170817055e-05 0.00011192384123025759 0 -1.6501275183396549e-06 -4.5648922645426342e-05 0 -7.6708466334142673e-06 -5.0148677346861402e-05 0 -1.9587963605474765e-06 -5.4217770034553407e-05 0 -1.8192900546026695e-06 -2.9929357671484601e-05 0 -7.0736224344802137e-06 -3.491890537285734e-05 0 -1.5893610148676087e-06 -3.7536798465892235e-05 0 -1.3249983710590865e-05 9.0605895948089964e-06 0 -2.0838917476905537e-05 1.09780719258226e-05 0 -1.6453776227276456e-05 6.8880274764810208e-06 0 5.2170575769455808e-06 1.1972940958927518e-06 0 5.6544369617190949e-07 5.0719770066506125e-06 0 8.6886230605178782e-07 -2.1787816912988556e-06 0 -1.3940402122609479e-05 -4.508796388521408e-06 0 -1.4400620018459899e-05 -4.168406885607797e-06 0 -1.6810553736871009e-05 -5.7300094199655394e-06 0 -2.0911811536672505e-05 7.7046106494077853e-06 0 -2.634249511873799e-05 9.5255239311733362e-06 0 -2.1995292746274909e-05 6.4395707172526866e-06 0 -1.3940402122609479e-05 -4.508796388521408e-06 0 -1.6810553736871009e-05 -5.7300094199655394e-06 0 -1.7529585606365433e-05 -6.9628659049340688e-06 0 -2.0911811536672505e-05 7.7046106494077853e-06 0 -2.7178542146902861e-05 1.2288519578338238e-05 0 -2.634249511873799e-05 9.5255239311733362e-06 0 -2.8085227834301318e-06 -1.1668379606006822e-07 0 -1.3599977803955187e-06 6.2876703685480546e-08 0 -1.9545878528003871e-06 -3.6902697268337648e-07 0 -3.8519127481071323e-06 -2.4571268906705161e-07 0 -2.7543806342507134e-06 2.3600446980911666e-07 0 -1.8462958582583345e-06 -3.3373640502138526e-07 0 -4.0440254653712369e-06 -1.3617541665512999e-06 0 -4.9295687021633041e-06 -2.7643904787592174e-06 0 -4.836581533698434e-06 -2.1027168331454277e-06 0 -5.6966416311831054e-06 -3.8652972068637791e-06 0 -4.836581533698434e-06 -2.1027168331454277e-06 0 -4.9295687021633041e-06 -2.7643904787592174e-06 0 -1.6620588925223384e-05 -1.9463778564154793e-05 0 -1.6108364423993138e-05 -1.9445943479173064e-05 0 -1.493462964424985e-05 -1.7445034056183376e-05 0 1.5054557664461105e-07 -1.5478640418425562e-05 0 -1.7208093581260596e-06 -1.5505869086912531e-05 0 -2.3064837315226174e-06 -1.8837845858793648e-05 0 3.737977429314108e-06 -3.6631370177864977e-06 0 8.6886230605178793e-07 -2.1787816912988552e-06 0 7.2698644027272907e-07 -6.1871711884777248e-06 0 8.1297221545315563e-07 -1.241853135430656e-05 0 -6.9437505580334903e-07 -1.2236266732014605e-05 0 -1.7208093581260596e-06 -1.5505869086912531e-05 0 -1.6021190466045165e-05 -1.7201973120331942e-05 0 -1.493462964424985e-05 -1.7445034056183376e-05 0 -1.4395234837896979e-05 -1.5302433764716776e-05 0 -6.5704404697752409e-06 -2.1428809293770101e-06 0 -4.9816387919782812e-06 -1.5814508599524442e-06 0 -4.7691182617294528e-06 -7.0995497394040246e-07 0 -4.7852013348400783e-06 -2.2027824039613563e-06 0 -5.6353414907493298e-06 -4.2420748866950796e-06 0 -4.9295687021633041e-06 -2.7643904787592174e-06 0 -5.6966416311831054e-06 -3.8652972068637791e-06 0 -4.9295687021633041e-06 -2.7643904787592174e-06 0 -5.6353414907493298e-06 -4.2420748866950796e-06 0 -2.3298943726035578e-06 6.5142477208067734e-07 0 -3.5953110410748869e-06 -5.1894367664341878e-07 0 -2.8519233983739965e-06 7.3651673230934817e-07 0 -6.9076350385318633e-05 8.7959605704341734e-05 0 -6.5155628778813083e-05 7.1430661834400881e-05 0 -5.4951244219970713e-05 8.034023713426213e-05 0 -5.1165565068573098e-06 -6.5364539814758841e-07 0 -4.7845492291586927e-06 -6.8316466278450456e-07 0 -6.1560597871213054e-06 -2.3072758944611793e-06 0 -7.1124969533947126e-06 1.5980878083767999e-05 0 -4.2045819429548741e-06 1.0299384663179965e-05 0 -2.6180481235634132e-07 1.2003786156347857e-05 0 -1.0995109312548031e-06 7.7919596429238233e-06 0 -2.6180481235634132e-07 1.2003786156347857e-05 0 -4.2045819429548749e-06 1.0299384663179965e-05 0 -2.4143179689601375e-06 -2.2805603634113844e-05 0 -6.3730621363594942e-06 -2.6863679191333864e-05 0 -1.8192900546026695e-06 -2.9929357671484601e-05 0 -3.4732270968596247e-05 1.4695329249286219e-05 0 -2.634249511873799e-05 9.5255239311733362e-06 0 -2.7178542146902861e-05 1.2288519578338238e-05 0 -2.1056990806890072e-05 -8.2840301063697514e-06 0 -1.752958560636543e-05 -6.9628659049340688e-06 0 -1.6810553736871009e-05 -5.7300094199655394e-06 0 -4.4958696281993178e-06 -9.2496821963890674e-07 0 -6.1560597871213054e-06 -2.3072758944611789e-06 0 -4.7845492291586927e-06 -6.8316466278450477e-07 0 -3.7997746364815311e-05 9.4955332648092761e-05 0 -5.4404813988263792e-05 9.5632274867271056e-05 0 -4.4464959386318578e-05 8.3029847307821474e-05 0 -3.7997746364815311e-05 9.4955332648092761e-05 0 -4.7775587285264164e-05 0.00010672723888620817 0 -5.4404813988263792e-05 9.5632274867271056e-05 0 -1.5068598681768384e-05 -4.30375931096427e-05 0 -1.2123820260927831e-05 -4.8166136959011297e-05 0 -8.5565632022447363e-06 -4.2473765875382141e-05 0 -1.5068598681768384e-05 -4.30375931096427e-05 0 -8.5565632022447363e-06 -4.2473765875382134e-05 0 -1.1467244950452907e-05 -3.7666331650840141e-05 0 -1.9587963605474765e-06 -5.4217770034553407e-05 0 -7.5937578248269095e-06 -5.7932765335688616e-05 0 -2.6506528119250437e-06 -6.3263789004956795e-05 0 -7.4796805242849485e-05 0.00014014886848306515 0 -7.3795389497166244e-05 0.00012264069939551069 0 -6.1895927890291379e-05 0.0001275814758682361 0 -2.0043221056319417e-06 8.2192105898139108e-07 0 -1.7359049056019839e-06 7.4407116022703468e-07 0 -2.7046663448262798e-06 7.0720949552266995e-07 0 -1.5270985225332611e-06 -7.5529864820453322e-07 0 -2.3382648548908372e-06 -7.1982960160249527e-07 0 -1.5475430826879388e-06 -9.1811223531399603e-07 0 -1.5068598681768384e-05 -4.30375931096427e-05 0 -1.9479494650073202e-05 -4.3566655501653929e-05 0 -1.6729055419032351e-05 -5.0089378091232274e-05 0 -1.5068598681768384e-05 -4.30375931096427e-05 0 -1.5563340655521617e-05 -3.6795684370076657e-05 0 -1.9479494650073202e-05 -4.3566655501653929e-05 0 -2.2465916037419928e-05 -5.1365010527493875e-05 0 -1.6729055419032351e-05 -5.0089378091232274e-05 0 -1.9479494650073202e-05 -4.3566655501653929e-05 0 -2.0643408605419535e-05 -3.6750029038775222e-05 0 -1.9479494650073202e-05 -4.3566655501653929e-05 0 -1.5563340655521617e-05 -3.6795684370076657e-05 0 -3.7997746364815311e-05 9.4955332648092761e-05 0 -2.7004318725338667e-05 9.6004017011829538e-05 0 -3.7652935948595663e-05 0.00011062617872495395 0 -2.4574091165993929e-05 0.00011047220511952992 0 -3.7652935948595663e-05 0.00011062617872495395 0 -2.7004318725338667e-05 9.6004017011829538e-05 0 -1.0920127881966768e-09 1.6470023628352369e-10 0 -9.0152640796623032e-07 3.2374755815243883e-07 0 -8.6180079201103341e-07 4.5709589529706533e-07 0 -1.2623052383158756e-09 -2.9304699914963663e-10 0 -8.9742861924664226e-07 -6.6900655731605503e-07 0 -1.0624758245433737e-06 -5.758347013212248e-07 0 -2.3973925454440646e-05 -1.6593651050455384e-05 0 -1.8954080416287936e-05 -1.1809367148961508e-05 0 -2.243145865569894e-05 -1.2052211205720154e-05 0 -3.8112166192964505e-05 3.3301199169743894e-05 0 -3.6213444637452048e-05 2.3591566646686314e-05 0 -2.9334681759653608e-05 2.2740573752101248e-05 0 -9.3637212432876142e-06 -1.7625419995199913e-06 0 -1.2001823162989451e-05 -3.0780376355201458e-06 0 -1.0942756579639578e-05 -2.9282093048814928e-06 0 -9.6500912080387759e-07 1.1097150716394966e-06 0 -1.5537439250259137e-06 9.2553171141152737e-07 0 -1.0688251678843699e-06 1.2273331283042019e-06 0 -7.9556125568616298e-06 -2.6421778288212581e-05 0 -6.9975734920758218e-06 -2.5523877649286108e-05 0 -8.9322787765653497e-06 -2.4322038133309463e-05 0 -1.0434386700596483e-05 8.7360435349402837e-07 0 -1.2534795449511625e-05 1.6647529820765517e-06 0 -1.4224349248277221e-05 2.2746231560099047e-06 0 -1.7533907245635049e-05 3.6874741968051601e-06 0 -1.4224349248277221e-05 2.2746231560099047e-06 0 -1.2534795449511625e-05 1.6647529820765519e-06 0 -1.8407194823955964e-07 3.2721000055420982e-07 0 -4.7699379133449762e-07 -1.6795085481569651e-07 0 -2.5834395420220568e-07 -5.1351870227054951e-08 0 2.5004658075557914e-06 -6.8509144438105181e-06 0 -5.5546512005125419e-07 -9.5480247583470592e-06 0 1.6204460732051632e-06 -9.5954752680548551e-06 0 -2.1056990806890072e-05 -8.2840301063697514e-06 0 -2.0746027255446053e-05 -9.4403055440568959e-06 0 -1.7529585606365433e-05 -6.9628659049340688e-06 0 -3.4732270968596247e-05 1.4695329249286219e-05 0 -2.7178542146902861e-05 1.2288519578338238e-05 0 -3.3422893496682924e-05 1.7363881700526469e-05 0 -9.6140679423615043e-06 -7.1348555627873159e-06 0 -9.7679419623954709e-06 -6.695235859813302e-06 0 -8.6591570174395587e-06 -6.2920172525137293e-06 0 -5.3196581659331142e-06 -6.131622355471976e-07 0 -5.0271447569930231e-06 -5.2036391109651632e-07 0 -7.9277513386633403e-06 7.800133480311628e-08 0 -6.2055151007547143e-06 2.0688600869389415e-07 0 -7.9277513386633403e-06 7.8001334803116332e-08 0 -5.0271447569930231e-06 -5.2036391109651632e-07 0 -1.0069038308795417e-05 3.5382902235901591e-05 0 -8.7725002890972012e-06 2.4185825287843733e-05 0 -2.822112710941161e-06 2.2109806674008757e-05 0 -1.3599805105546668e-05 2.7524380332375715e-06 0 -1.1303860050742528e-05 1.5488614654498012e-06 0 -1.4224349248277221e-05 2.2746231560099047e-06 0 -9.1135123374001564e-06 -2.2613826156212163e-06 0 -9.4899529916638697e-06 -1.8998031621002161e-06 0 -7.6937745635478415e-06 -1.4638342345032411e-06 0 -9.6949661894392725e-06 -1.6691475331334643e-05 0 -9.5518395019480575e-06 -1.4449308446294614e-05 0 -1.1318980946028191e-05 -1.6692135013749227e-05 0 -1.0942793161070268e-05 -1.4289911330764592e-05 0 -1.1318980946028191e-05 -1.6692135013749227e-05 0 -9.5518395019480575e-06 -1.4449308446294614e-05 0 -2.3298943726035578e-06 6.5142477208067734e-07 0 -1.7207800822798875e-06 1.514472845761739e-06 0 -1.3442566050613726e-06 1.3962965258453263e-06 0 -5.126517876756458e-06 3.8056034761034997e-06 0 -4.8053677349192076e-06 1.6935108182176151e-06 0 -2.7521693039113539e-06 2.4436645903313348e-06 0 1.5780709706114875e-07 1.9447063768575713e-06 0 -7.7640510691542179e-08 1.6379407444908905e-06 0 2.9305066856882569e-08 2.331919468661196e-06 0 -7.1124969533947126e-06 1.5980878083767999e-05 0 -2.822112710941161e-06 2.2109806674008757e-05 0 -8.7725002890971995e-06 2.418582528784373e-05 0 -1.3940402122609479e-05 -4.508796388521408e-06 0 -1.1504904002739818e-05 -4.105221497735026e-06 0 -1.0942756579639578e-05 -2.9282093048814928e-06 0 -3.8330727582098959e-06 -4.3284220401334236e-07 0 -2.7930047727289618e-06 3.2511265274309604e-07 0 -3.3947711262619985e-06 2.5456355406874128e-07 0 1.513928811028178e-05 5.1681798707311114e-05 0 1.7087167758110166e-05 6.7500276341258999e-05 0 6.2568132764930446e-06 6.2254883379534565e-05 0 -3.9740571307842657e-05 -4.0946690474423538e-05 0 -3.1779485581024163e-05 -4.0397771714769107e-05 0 -3.3156762859372669e-05 -3.491695946401961e-05 0 -3.4732270968596247e-05 1.4695329249286219e-05 0 -2.8436526723289662e-05 9.8541330380450198e-06 0 -2.634249511873799e-05 9.5255239311733362e-06 0 -1.7695417879475061e-05 -5.9873930639381546e-06 0 -2.1056990806890072e-05 -8.2840301063697514e-06 0 -1.6810553736871009e-05 -5.7300094199655394e-06 0 -3.4066284462726885e-06 1.0311597588045762e-06 0 -3.7850528218883544e-06 1.2700410711779342e-06 0 -1.8976849716166805e-06 3.0086231501238017e-06 0 -5.3196581659331142e-06 -6.131622355471976e-07 0 -7.9277513386633403e-06 7.800133480311628e-08 0 -7.5384453227800754e-06 2.4185892681071831e-08 0 -1.0434386700596483e-05 8.7360435349402837e-07 0 -7.5384453227800754e-06 2.4185892681071831e-08 0 -7.9277513386633403e-06 7.800133480311628e-08 0 7.4379889213074439e-07 4.6624343076212577e-06 0 1.2389747105348662e-06 6.530003584511893e-06 0 3.0870954056746738e-07 5.3087803746200773e-06 0 -3.3753290534120085e-05 -4.8837995164417927e-05 0 -3.1779485581024163e-05 -4.0397771714769107e-05 0 -3.6715615720971282e-05 -4.4834587980402104e-05 0 -1.3148432816859742e-05 -1.3965241217769215e-05 0 -1.223894129083285e-05 -1.4125507628886025e-05 0 -1.1825036778223854e-05 -1.1845298372215972e-05 0 1.9003207343764754e-05 0.00011902458177922671 0 1.8431340170976833e-05 0.00013749782142645397 0 6.9791763598331335e-06 0.00012764589252499053 0 -4.2857734970016284e-05 -5.7064901461515421e-05 0 -4.3547617392420928e-05 -6.5214682676194481e-05 0 -3.7662041245118519e-05 -5.9908246560149633e-05 0 -1.3249983710590865e-05 9.0605895948089964e-06 0 -8.5114190531234025e-06 5.4856624747577217e-06 0 -5.7875213841129812e-06 7.1331524404720625e-06 0 -7.3974911109760573e-06 -5.3279363858988625e-06 0 -9.0870610015644408e-06 -8.0520311402336261e-06 0 -6.7093504608594563e-06 -6.7362906190178039e-06 0 -1.1171360948923123e-05 -5.3012886832738399e-06 0 -1.0057546130218462e-05 -6.4250470546245344e-06 0 -8.2564868192366375e-06 -4.1670015930094091e-06 0 -7.3795389497166244e-05 0.00012264069939551069 0 -5.9275910170817055e-05 0.00011192384123025759 0 -6.1895927890291379e-05 0.0001275814758682361 0 -1.9587963605474765e-06 -5.4217770034553407e-05 0 -7.6708466334142673e-06 -5.0148677346861402e-05 0 -7.5937578248269095e-06 -5.7932765335688616e-05 0 -4.4454477712941614e-06 -1.204111360891464e-07 0 -3.4921633246543644e-06 4.4001421292638258e-07 0 -4.7905852095768976e-06 4.0179610140384919e-08 0 -1.0995109312548031e-06 7.7919596429238233e-06 0 -4.2045819429548749e-06 1.0299384663179965e-05 0 -5.7875213841129812e-06 7.1331524404720625e-06 0 -1.3940402122609479e-05 -4.508796388521408e-06 0 -1.200182316298945e-05 -3.0780376355201454e-06 0 -1.4400620018459899e-05 -4.168406885607797e-06 0 -1.1888894455008019e-05 -9.0986862095932306e-06 0 -1.3744132558160728e-05 -1.1711247538664708e-05 0 -1.159683671619824e-05 -9.22842903970168e-06 0 -5.6831299876761147e-06 -2.0720222728309348e-07 0 -5.6470497540946248e-06 -2.1110519549234148e-07 0 -7.39973385432992e-06 -8.3524189220704703e-07 0 -3.7422112419969589e-05 -3.3456306661107918e-05 0 -3.9740571307842657e-05 -4.0946690474423538e-05 0 -3.3156762859372669e-05 -3.491695946401961e-05 0 -1.1383475109123804e-05 -2.5795579299818819e-06 0 -9.0330901771931305e-06 -1.5272455390425161e-06 0 -9.4899529916638697e-06 -1.8998031621002161e-06 0 -7.3713749882794817e-06 -9.5892486078714307e-07 0 -9.4899529916638697e-06 -1.8998031621002161e-06 0 -9.0330901771931305e-06 -1.5272455390425161e-06 0 -4.3143847972611681e-05 7.1343372326499789e-05 0 -3.2368427161912022e-05 7.3668054403176192e-05 0 -4.4464959386318578e-05 8.3029847307821474e-05 0 -6.7655071107812507e-07 -6.2934077720412844e-07 0 -1.5475430826879388e-06 -9.1811223531399603e-07 0 -8.9742861924664226e-07 -6.6900655731605503e-07 0 -2.0998572873325174e-06 -9.3000246714708626e-07 0 -8.9742861924664226e-07 -6.6900655731605503e-07 0 -1.5475430826879388e-06 -9.1811223531399603e-07 0 -1.8899824078052106e-06 5.7178937291997504e-07 0 -1.7359049056019839e-06 7.4407116022703468e-07 0 -8.6180079201103341e-07 4.5709589529706533e-07 0 -7.6764045705701111e-07 5.5140715987690479e-07 0 -8.6180079201103341e-07 4.5709589529706533e-07 0 -1.7359049056019839e-06 7.4407116022703468e-07 0 -4.7852013348400783e-06 -2.2027824039613563e-06 0 -4.9816387919782812e-06 -1.5814508599524445e-06 0 -6.1236718346232168e-06 -3.2013623188556531e-06 0 -4.5505417801190939e-06 -5.9201995322263082e-07 0 -5.7599751380195353e-06 -1.9640402270318345e-06 0 -5.5592822354132889e-06 -3.6131573247315652e-06 0 -6.8492877585882242e-06 -4.4965872151875062e-06 0 -5.5592822354132889e-06 -3.6131573247315652e-06 0 -5.7599751380195353e-06 -1.9640402270318345e-06 0 -1.3744132558160728e-05 -1.1711247538664708e-05 0 -1.510355037358091e-05 -1.4576876588258919e-05 0 -1.3497091132687925e-05 -1.305259461519103e-05 0 -6.8492877585882242e-06 -4.4965872151875062e-06 0 -7.1221185894195875e-06 -3.5349366235455551e-06 0 -7.9075582383724969e-06 -5.4139946730641803e-06 0 -1.7208093581260596e-06 -1.5505869086912531e-05 0 -6.9437505580334914e-07 -1.2236266732014605e-05 0 -3.526579975486444e-06 -1.4698976041957057e-05 0 -1.493462964424985e-05 -1.7445034056183376e-05 0 -1.3613333382332855e-05 -1.5537679857796843e-05 0 -1.4395234837896979e-05 -1.5302433764716776e-05 0 -2.1056990806890072e-05 -8.2840301063697514e-06 0 -2.4566535564169108e-05 -1.1472020779799205e-05 0 -2.0746027255446053e-05 -9.4403055440568959e-06 0 -4.1487625093469782e-05 2.1744016928832438e-05 0 -3.4732270968596247e-05 1.4695329249286219e-05 0 -3.3422893496682924e-05 1.7363881700526469e-05 0 8.6886230605178782e-07 -2.1787816912988556e-06 0 -1.9212263172428215e-06 -4.5705537803208387e-06 0 7.2698644027272907e-07 -6.1871711884777248e-06 0 -1.7208093581260596e-06 -1.5505869086912531e-05 0 -4.2116927579490154e-06 -1.7916830658576376e-05 0 -2.3064837315226174e-06 -1.8837845858793648e-05 0 -1.1171360948923123e-05 -5.3012886832738399e-06 0 -1.1504904002739818e-05 -4.105221497735026e-06 0 -1.4373340154979854e-05 -6.1413805100192158e-06 0 -4.1071928588678792e-07 6.1695531370108809e-07 0 -1.6074999162236016e-07 2.6546223164601709e-07 0 -2.1584701842639541e-07 3.3489824891909577e-07 0 -2.8993190142340721e-06 1.1246934015236096e-06 0 -4.8053677349192076e-06 1.6935108182176153e-06 0 -4.257424597468318e-06 2.2895232399382487e-07 0 -7.2872581101361885e-07 7.6659410010366771e-07 0 -2.0658160795141335e-06 4.3407974020234187e-07 0 -1.55891996103133e-06 -6.3885994661366955e-09 0 -9.0187991349200933e-07 4.8807193386218596e-06 0 -2.6704537697760639e-06 2.2643415385973329e-06 0 -1.9401403997895156e-06 4.4381225426569721e-07 0 -5.6564242160721794e-06 -8.0123384617901915e-07 0 -4.2809337096486741e-06 -2.3968582409294852e-07 0 -4.0476216807988705e-06 -7.5872662019478056e-07 0 -2.8085227834301318e-06 -1.1668379606006822e-07 0 -4.0476216807988705e-06 -7.5872662019478056e-07 0 -4.2809337096486741e-06 -2.3968582409294852e-07 0 -3.8519127481071323e-06 -2.4571268906705161e-07 0 -5.8845816009295785e-06 -1.7698956998499232e-07 0 -5.768097790733404e-06 5.9265260007942497e-07 0 -8.0575920562404961e-06 5.6611449306798035e-07 0 -5.768097790733404e-06 5.9265260007942497e-07 0 -5.8845816009295785e-06 -1.7698956998499232e-07 0 -3.1390599675498063e-05 -2.0622172506228974e-05 0 -3.4661627002092619e-05 -2.6655274384198293e-05 0 -2.8827560861035641e-05 -2.2675959931824651e-05 0 -1.0069038308795417e-05 3.5382902235901591e-05 0 -1.5383890185193013e-05 2.5707984706410755e-05 0 -8.7725002890971995e-06 2.418582528784373e-05 0 -1.8192900546026695e-06 -2.9929357671484601e-05 0 -6.3730621363594942e-06 -2.6863679191333864e-05 0 -7.0736224344802137e-06 -3.491890537285734e-05 0 -7.5355838703556061e-06 -2.2645524361418927e-05 0 -9.5378003196792454e-06 -2.1854186476940797e-05 0 -8.9322787765653497e-06 -2.4322038133309463e-05 0 -3.5490946574480169e-06 5.2171848258248025e-07 0 -4.7905852095768976e-06 4.0179610140384919e-08 0 -3.4921633246543644e-06 4.4001421292638258e-07 0 -4.4958696281993178e-06 -9.2496821963890674e-07 0 -2.8519233983739965e-06 7.3651673230934817e-07 0 -3.5953110410748869e-06 -5.1894367664341878e-07 0 -9.3637212432876142e-06 -1.7625419995199913e-06 0 -7.39973385432992e-06 -8.3524189220704703e-07 0 -9.0330901771931305e-06 -1.5272455390425161e-06 0 -4.5407742895594094e-06 6.7374050254918075e-05 0 7.5786031950646646e-06 7.2838006027290005e-05 0 1.4891352186918829e-06 8.2356448830229366e-05 0 -3.6532517644822831e-10 1.8034618703455002e-10 0 -4.1239895944662882e-07 5.2096788443500577e-07 0 -2.1584701842639541e-07 3.3489824891909577e-07 0 -1.0942793161070268e-05 -1.4289911330764592e-05 0 -9.5518395019480575e-06 -1.4449308446294614e-05 0 -9.1806831971491244e-06 -1.1780567240474067e-05 0 8.6886230605178782e-07 -2.1787816912988556e-06 0 5.6544369617190949e-07 5.0719770066506125e-06 0 -1.9401403997895156e-06 4.4381225426569721e-07 0 -6.034274968653264e-05 5.6218482851915626e-05 0 -5.4363692735148305e-05 4.2533168210872763e-05 0 -4.7889167642899307e-05 4.7526240416444082e-05 0 -2.1904208592028213e-07 4.0458443479357429e-07 0 -1.9261647481474819e-07 3.0829798047252851e-07 0 -1.4210865575322943e-07 1.434086421096943e-07 0 -1.8899824078052106e-06 5.7178937291997504e-07 0 -8.6180079201103341e-07 4.5709589529706533e-07 0 -9.0152640796623032e-07 3.2374755815243883e-07 0 -2.0998572873325174e-06 -9.3000246714708626e-07 0 -1.0624758245433737e-06 -5.758347013212248e-07 0 -8.9742861924664226e-07 -6.6900655731605503e-07 0 -6.0720027003521922e-07 1.7071198634572065e-06 0 -5.4409472294994779e-07 1.3567307753245248e-06 0 -1.0688251678843699e-06 1.2273331283042019e-06 0 -1.8046306898228588e-05 -8.9455649484121076e-06 0 -1.7529585606365433e-05 -6.9628659049340688e-06 0 -2.0746027255446053e-05 -9.4403055440568959e-06 0 -2.727762744587639e-05 1.6656798382652684e-05 0 -3.3422893496682924e-05 1.7363881700526469e-05 0 -2.7178542146902861e-05 1.2288519578338238e-05 0 -4.9876473535300745e-06 0.00012215892141597201 0 1.5351097169173543e-06 0.00010597577672585668 0 8.2036627704718043e-06 0.00011544286555169862 0 -3.185328679782071e-05 -5.6929154710398623e-05 0 -3.3753290534120085e-05 -4.8837995164417927e-05 0 -3.757681562477839e-05 -5.4195794911820218e-05 0 2.5004658075557914e-06 -6.8509144438105181e-06 0 7.2698644027272918e-07 -6.187171188477724e-06 0 -5.5546512005125419e-07 -9.5480247583470592e-06 0 -5.126517876756458e-06 3.8056034761034997e-06 0 -5.7875213841129812e-06 7.1331524404720616e-06 0 -8.5114190531234025e-06 5.4856624747577217e-06 0 -1.8885138558441403e-06 -7.6782834279142695e-06 0 -5.5546512005125419e-07 -9.5480247583470592e-06 0 7.2698644027272907e-07 -6.1871711884777248e-06 0 -9.6500912080387759e-07 1.1097150716394966e-06 0 -1.020035090739039e-06 1.027099530190621e-06 0 -1.5537439250259137e-06 9.2553171141152737e-07 0 -1.8261810967132674e-07 9.839398693056456e-08 0 -2.2030093967322226e-07 -1.7566078603065586e-07 0 -1.2743464253277073e-07 -1.2031723999369185e-08 0 -4.4454477712941614e-06 -1.204111360891464e-07 0 -3.3947711262619985e-06 2.5456355406874122e-07 0 -3.4921633246543644e-06 4.4001421292638258e-07 0 -2.0127042036493811e-06 3.8411206100711037e-06 0 -2.6704537697760639e-06 2.2643415385973329e-06 0 -4.1868086664740185e-07 6.2568856468999623e-06 0 -9.0187991349200933e-07 4.8807193386218596e-06 0 -4.186808666474019e-07 6.2568856468999623e-06 0 -2.6704537697760639e-06 2.2643415385973329e-06 0 -2.6498913945322258e-05 -4.3849158406372227e-05 0 -3.3753290534120085e-05 -4.8837995164417927e-05 0 -2.8212694525978792e-05 -5.1235361226603107e-05 0 -3.185328679782071e-05 -5.6929154710398623e-05 0 -2.8212694525978792e-05 -5.1235361226603107e-05 0 -3.3753290534120085e-05 -4.8837995164417927e-05 0 -1.0499293009601302e-05 9.4345240262926788e-05 0 1.5351097169173543e-06 0.00010597577672585668 0 -1.1234834924119181e-05 0.00011100190963083809 0 -4.9876473535300745e-06 0.00012215892141597201 0 -1.1234834924119181e-05 0.00011100190963083809 0 1.5351097169173543e-06 0.00010597577672585668 0 -1.0499293009601302e-05 9.4345240262926788e-05 0 -1.1231620871413838e-05 7.8622977903485287e-05 0 1.4891352186918829e-06 8.2356448830229366e-05 0 -4.5407742895594094e-06 6.7374050254918075e-05 0 1.4891352186918829e-06 8.2356448830229366e-05 0 -1.1231620871413838e-05 7.8622977903485287e-05 0 -2.3523379066994785e-10 1.3110551076115669e-10 0 -2.7328196158022548e-10 1.5541891147473962e-10 0 -1.6074999162236016e-07 2.6546223164601709e-07 0 1.6204460732051632e-06 -9.5954752680548551e-06 0 -5.554651200512544e-07 -9.5480247583470609e-06 0 -6.9437505580334914e-07 -1.2236266732014605e-05 0 -2.7146481383235172e-06 -1.2330307232025698e-05 0 -6.9437505580334914e-07 -1.2236266732014605e-05 0 -5.5546512005125419e-07 -9.5480247583470592e-06 0 -2.806009766775275e-05 -3.2963095745595706e-05 0 -2.9829800589888893e-05 -2.8387541049996731e-05 0 -3.3156762859372669e-05 -3.491695946401961e-05 0 -3.4661627002092619e-05 -2.6655274384198293e-05 0 -2.9829800589888893e-05 -2.8387541049996731e-05 0 -2.8827560861035641e-05 -2.2675959931824651e-05 0 -6.034274968653264e-05 5.6218482851915626e-05 0 -4.7889167642899307e-05 4.7526240416444082e-05 0 -4.8952928376506945e-05 6.0909876923598443e-05 0 2.8752433576803987e-08 3.1095687915804512e-06 0 3.0640952508320852e-07 4.0690722098757465e-06 0 3.8658772515600296e-07 3.1427279308868527e-06 0 7.4379889213074439e-07 4.6624343076212577e-06 0 3.8658772515600296e-07 3.1427279308868527e-06 0 3.0640952508320852e-07 4.0690722098757465e-06 0 -5.5441238814635309e-07 9.4553156751441056e-07 0 -5.4454308177922842e-07 1.0771240764398264e-06 0 -2.8040583266042802e-07 8.886244431112204e-07 0 -4.1071928588678792e-07 6.1695531370108809e-07 0 -2.1584701842639535e-07 3.3489824891909572e-07 0 -4.1239895944662882e-07 5.2096788443500577e-07 0 -1.0434386700596483e-05 8.7360435349402837e-07 0 -1.4224349248277221e-05 2.2746231560099047e-06 0 -1.1303860050742528e-05 1.5488614654498012e-06 0 -7.3713749882794817e-06 -9.5892486078714307e-07 0 -7.6937745635478415e-06 -1.4638342345032411e-06 0 -9.4899529916638697e-06 -1.8998031621002161e-06 0 -7.3713749882794817e-06 -9.5892486078714307e-07 0 -9.0330901771931305e-06 -1.5272455390425159e-06 0 -7.39973385432992e-06 -8.3524189220704703e-07 0 1.8875804823886949e-05 0.00010131934550290017 0 8.2036627704718043e-06 0.00011544286555169862 0 1.5351097169173543e-06 0.00010597577672585668 0 -4.1589953570578379e-05 -4.8856334991044427e-05 0 -3.757681562477839e-05 -5.4195794911820225e-05 0 -3.3753290534120085e-05 -4.8837995164417927e-05 0 -2.1524209675880469e-10 1.8270300353115226e-11 0 -1.2743464253277073e-07 -1.2031723999369206e-08 0 -2.2030093967322226e-07 -1.7566078603065586e-07 0 -7.2872581101361885e-07 7.6659410010366771e-07 0 -1.331643400250986e-06 1.5202727064582547e-06 0 -2.0658160795141335e-06 4.3407974020234187e-07 0 -1.8881805503666881e-05 -2.755423931974717e-05 0 -2.1067621654721081e-05 -2.2797866862389523e-05 0 -2.3415745909793471e-05 -2.7590980207518328e-05 0 -6.9167802891243685e-06 1.1954419354938047e-06 0 -4.8053677349192068e-06 1.6935108182176151e-06 0 -7.7100936634449325e-06 2.8836039686364807e-06 0 -7.3974911109760573e-06 -5.3279363858988625e-06 0 -1.0057546130218462e-05 -6.4250470546245344e-06 0 -9.0870610015644408e-06 -8.0520311402336261e-06 0 -7.5733195838144051e-08 2.1544358429214887e-06 0 3.8658772515600296e-07 3.1427279308868527e-06 0 2.1990348954123466e-07 3.5173153434309573e-06 0 -2.4985514096326055e-05 5.6788855465815413e-05 0 -3.626026582189059e-05 5.9268993164549979e-05 0 -3.033434126582904e-05 4.8082877448899934e-05 0 -1.8046306898228588e-05 -8.9455649484121076e-06 0 -2.243145865569894e-05 -1.2052211205720154e-05 0 -1.8954080416287936e-05 -1.1809367148961508e-05 0 -2.727762744587639e-05 1.6656798382652684e-05 0 -2.9334681759653608e-05 2.2740573752101248e-05 0 -3.6213444637452048e-05 2.3591566646686314e-05 0 -1.0380689735453729e-05 -2.3757916251890755e-05 0 -9.3094246507708479e-06 -2.6109090187050485e-05 0 -8.9322787765653497e-06 -2.4322038133309463e-05 0 -7.9556125568616298e-06 -2.6421778288212581e-05 0 -8.9322787765653497e-06 -2.4322038133309463e-05 0 -9.3094246507708479e-06 -2.6109090187050485e-05 0 -9.3637212432876142e-06 -1.7625419995199913e-06 0 -7.3601606320643268e-06 -9.5698754216629906e-07 0 -7.39973385432992e-06 -8.3524189220704703e-07 0 -5.6831299876761147e-06 -2.0720222728309348e-07 0 -7.39973385432992e-06 -8.3524189220704703e-07 0 -7.3601606320643268e-06 -9.5698754216629906e-07 0 -3.8330727582098959e-06 -4.3284220401334236e-07 0 -4.9816387919782812e-06 -1.5814508599524445e-06 0 -4.0591658628168973e-06 -1.0139112799493229e-06 0 -1.1383475109123804e-05 -2.5795579299818819e-06 0 -1.4400620018459899e-05 -4.168406885607797e-06 0 -1.200182316298945e-05 -3.0780376355201454e-06 0 -1.1943521960893892e-05 2.1473486864699576e-06 0 -1.2534795449511625e-05 1.6647529820765519e-06 0 -9.0552398082939964e-06 9.1833192164237446e-07 0 -1.1666383559813381e-05 -2.5843994398570854e-05 0 -9.6036975402108181e-06 -2.739888152975399e-05 0 -1.0708537726184309e-05 -2.5295829222120382e-05 0 -2.4985514096326055e-05 5.6788855465815413e-05 0 -3.2368427161912022e-05 7.3668054403176192e-05 0 -3.626026582189059e-05 5.9268993164549979e-05 0 -2.7328196158022548e-10 1.5541891147473962e-10 0 -3.6532517644822831e-10 1.8034618703455002e-10 0 -2.1584701842639541e-07 3.3489824891909577e-07 0 1.8248286781470928e-05 8.4066825225373635e-05 0 1.4891352186918829e-06 8.2356448830229366e-05 0 7.5786031950646646e-06 7.2838006027290005e-05 0 1.3760376149055205e-06 7.5604686335375262e-06 0 2.0826012969543277e-06 9.013795317996629e-06 0 1.238974710534866e-06 6.530003584511893e-06 0 -2.727762744587639e-05 1.6656798382652684e-05 0 -2.1268094121149463e-05 1.5766057421053113e-05 0 -2.9334681759653608e-05 2.2740573752101248e-05 0 1.3760376149055205e-06 7.5604686335375262e-06 0 6.8584067595301574e-07 5.6069002976907496e-06 0 -3.5915537614479122e-08 5.7425827397293767e-06 0 1.3760376149055205e-06 7.5604686335375262e-06 0 1.2389747105348658e-06 6.5300035845118921e-06 0 6.8584067595301574e-07 5.6069002976907496e-06 0 -6.5057938571593689e-06 -7.8472223061809311e-07 0 -8.4916785015476409e-06 -1.72999646860445e-06 0 -7.5278782463232918e-06 -1.8224778439924157e-06 0 -2.4844436535401751e-06 7.3035750784254954e-07 0 -3.4921633246543644e-06 4.4001421292638258e-07 0 -3.3947711262619985e-06 2.5456355406874128e-07 0 -3.830104154317813e-05 4.7207871197484349e-05 0 -4.8952928376506945e-05 6.0909876923598443e-05 0 -4.7889167642899307e-05 4.7526240416444082e-05 0 -5.6966416311831054e-06 -3.8652972068637791e-06 0 -6.1348407378559073e-06 -3.2203348094656965e-06 0 -4.836581533698434e-06 -2.1027168331454277e-06 0 -2.0127042036493811e-06 3.8411206100711037e-06 0 -4.1868086664740185e-07 6.2568856468999623e-06 0 -3.5915537614479122e-08 5.7425827397293767e-06 0 -1.0716992818406522e-05 -1.1769156692363222e-05 0 -9.2839707512363813e-06 -9.4484874971156582e-06 0 -1.0314094569843386e-05 -9.2202897188038908e-06 0 -1.8046306898228588e-05 -8.9455649484121076e-06 0 -2.0746027255446053e-05 -9.4403055440568959e-06 0 -2.243145865569894e-05 -1.2052211205720154e-05 0 -2.727762744587639e-05 1.6656798382652684e-05 0 -3.6213444637452048e-05 2.3591566646686314e-05 0 -3.3422893496682924e-05 1.7363881700526469e-05 0 -4.9815363607383477e-05 0.00012092970333478286 0 -6.1895927890291379e-05 0.0001275814758682361 0 -5.9275910170817055e-05 0.00011192384123025759 0 -1.2370156770941128e-05 -5.5208392851742169e-05 0 -7.5937578248269095e-06 -5.7932765335688616e-05 0 -7.6708466334142673e-06 -5.0148677346861402e-05 0 -1.3148432816859742e-05 -1.3965241217769215e-05 0 -1.1825036778223854e-05 -1.1845298372215972e-05 0 -1.3497091132687925e-05 -1.305259461519103e-05 0 7.4379889213074439e-07 4.6624343076212577e-06 0 2.1990348954123466e-07 3.5173153434309573e-06 0 3.8658772515600296e-07 3.1427279308868527e-06 0 -6.2055151007547143e-06 2.0688600869389415e-07 0 -9.0552398082939964e-06 9.1833192164237446e-07 0 -7.9277513386633403e-06 7.800133480311628e-08 0 -1.3940402122609479e-05 -4.508796388521408e-06 0 -1.0942756579639578e-05 -2.9282093048814928e-06 0 -1.200182316298945e-05 -3.0780376355201454e-06 0 -2.0911811536672505e-05 7.7046106494077853e-06 0 -1.6453776227276456e-05 6.8880274764810208e-06 0 -2.0838917476905537e-05 1.09780719258226e-05 0 -5.6353414907493298e-06 -4.2420748866950796e-06 0 -6.7093504608594563e-06 -6.7362906190178039e-06 0 -6.076313885471722e-06 -5.8840180833850353e-06 0 -9.449680525684555e-06 -2.7222035379187652e-06 0 -1.0942756579639577e-05 -2.9282093048814928e-06 0 -1.1504904002739818e-05 -4.105221497735026e-06 0 -2.0127042036493811e-06 3.8411206100711037e-06 0 -1.8976849716166805e-06 3.0086231501238017e-06 0 -3.7850528218883544e-06 1.2700410711779342e-06 0 -2.1524209675880469e-10 1.8270300353115226e-11 0 -2.0988149129050151e-10 -2.7826756502339148e-11 0 -1.2743464253277073e-07 -1.2031723999369185e-08 0 -1.3012615185225164e-05 -1.650310502505897e-05 0 -1.3613333382332855e-05 -1.5537679857796843e-05 0 -1.493462964424985e-05 -1.7445034056183376e-05 0 -1.7695417879475061e-05 -5.9873930639381546e-06 0 -1.6810553736871009e-05 -5.7300094199655394e-06 0 -1.4400620018459899e-05 -4.168406885607797e-06 0 -2.8436526723289662e-05 9.8541330380450198e-06 0 -2.1995292746274909e-05 6.4395707172526866e-06 0 -2.634249511873799e-05 9.5255239311733362e-06 0 -2.4576345655078287e-05 -2.2271671180483734e-05 0 -2.8827560861035641e-05 -2.2675959931824651e-05 0 -2.9829800589888893e-05 -2.8387541049996731e-05 0 -1.1936529014327297e-05 -9.6322071633020127e-06 0 -1.135736098027445e-05 -1.2144871340198088e-05 0 -9.0870610015644408e-06 -8.0520311402336261e-06 0 -8.2916423934628589e-06 -1.0009103016539975e-05 0 -9.0870610015644408e-06 -8.0520311402336261e-06 0 -1.135736098027445e-05 -1.2144871340198088e-05 0 -9.449680525684555e-06 -2.7222035379187652e-06 0 -9.0367204745731099e-06 -3.3195255033310264e-06 0 -7.5278782463232918e-06 -1.8224778439924157e-06 0 -1.0716992818406522e-05 -1.1769156692363222e-05 0 -1.0314094569843386e-05 -9.2202897188038908e-06 0 -1.1825036778223854e-05 -1.1845298372215972e-05 0 -2.806009766775275e-05 -3.2963095745595706e-05 0 -2.3320433408986316e-05 -3.2315304653297027e-05 0 -2.3415745909793471e-05 -2.7590980207518328e-05 0 -9.449680525684555e-06 -2.7222035379187652e-06 0 -7.5278782463232918e-06 -1.8224778439924157e-06 0 -8.4916785015476409e-06 -1.72999646860445e-06 0 -8.9143828051150278e-06 -7.3705447973467369e-06 0 -1.0314094569843386e-05 -9.2202897188038908e-06 0 -9.2839707512363813e-06 -9.4484874971156582e-06 0 -4.3368938377388445e-07 -3.479065234012405e-07 0 -2.5834395420220568e-07 -5.1351870227054931e-08 0 -4.7699379133449762e-07 -1.6795085481569651e-07 0 -2.4566535564169108e-05 -1.1472020779799205e-05 0 -2.243145865569894e-05 -1.2052211205720154e-05 0 -2.0746027255446053e-05 -9.4403055440568959e-06 0 -4.1487625093469782e-05 2.1744016928832438e-05 0 -3.3422893496682924e-05 1.7363881700526469e-05 0 -3.6213444637452048e-05 2.3591566646686314e-05 0 -4.1589953570578379e-05 -4.8856334991044427e-05 0 -3.3753290534120085e-05 -4.8837995164417927e-05 0 -3.6715615720971282e-05 -4.4834587980402104e-05 0 1.8875804823886949e-05 0.00010131934550290017 0 1.5351097169173543e-06 0.00010597577672585668 0 5.7065800569422947e-06 9.384719502227216e-05 0 1.8248286781470928e-05 8.4066825225373635e-05 0 5.7065800569422947e-06 9.384719502227216e-05 0 1.4891352186918829e-06 8.2356448830229366e-05 0 -4.1589953570578379e-05 -4.8856334991044427e-05 0 -4.2857734970016284e-05 -5.7064901461515421e-05 0 -3.757681562477839e-05 -5.4195794911820218e-05 0 1.8875804823886949e-05 0.00010131934550290017 0 1.9003207343764754e-05 0.00011902458177922671 0 8.2036627704718043e-06 0.00011544286555169862 0 -1.8885138558441403e-06 -7.6782834279142695e-06 0 -1.9212263172428219e-06 -4.5705537803208387e-06 0 -3.8805391748796898e-06 -7.1793571424428678e-06 0 -1.2033219462462573e-05 -1.0807650931293586e-05 0 -1.3497091132687925e-05 -1.305259461519103e-05 0 -1.1825036778223854e-05 -1.1845298372215972e-05 0 -1.7274025294300994e-05 -2.2282994637448241e-05 0 -1.7513007778355522e-05 -2.2915116642660025e-05 0 -1.686809630871796e-05 -2.1515590114059458e-05 0 -1.1151950122410455e-06 -2.2580695713984822e-05 0 -3.5525925577956927e-06 -2.6174730986585949e-05 0 -1.8285859839409556e-06 -2.6408350079968102e-05 0 -2.727762744587639e-05 1.6656798382652684e-05 0 -2.0838917476905537e-05 1.09780719258226e-05 0 -2.1268094121149463e-05 1.5766057421053113e-05 0 -5.6831299876761147e-06 -2.0720222728309348e-07 0 -4.5075149444013975e-06 2.2930953948203875e-07 0 -5.6470497540946248e-06 -2.111051954923414e-07 0 -1.5294437823350358e-07 1.098011697847619e-06 0 -5.4454308177922842e-07 1.0771240764398264e-06 0 -5.4409472294994779e-07 1.3567307753245248e-06 0 -4.3143847972611681e-05 7.1343372326499789e-05 0 -3.626026582189059e-05 5.9268993164549979e-05 0 -3.2368427161912022e-05 7.3668054403176192e-05 0 -1.0913717813398473e-05 -3.1311339699024158e-05 0 -7.0736224344802137e-06 -3.491890537285734e-05 0 -6.3730621363594942e-06 -2.6863679191333864e-05 0 -1.8261810967132674e-07 9.839398693056456e-08 0 -1.2743464253277073e-07 -1.2031723999369185e-08 0 -1.4210865575322943e-07 1.434086421096943e-07 0 -1.1171360948923123e-05 -5.3012886832738399e-06 0 -8.2564868192366375e-06 -4.1670015930094091e-06 0 -9.0367204745731099e-06 -3.3195255033310264e-06 0 1.7087167758110166e-05 6.7500276341258999e-05 0 1.8248286781470931e-05 8.4066825225373635e-05 0 7.5786031950646646e-06 7.2838006027290005e-05 0 -1.5270985225332611e-06 -7.5529864820453322e-07 0 -1.4255563646240444e-06 -4.4638732642501557e-07 0 -2.3382648548908372e-06 -7.1982960160249527e-07 0 -1.8885138558441403e-06 -7.6782834279142695e-06 0 -3.8805391748796898e-06 -7.1793571424428678e-06 0 -3.1958391012983587e-06 -1.0075732677961964e-05 0 -5.2823082758360603e-06 -1.0142487277884741e-05 0 -3.1958391012983587e-06 -1.0075732677961964e-05 0 -3.8805391748796898e-06 -7.1793571424428678e-06 0 -1.5666844581682981e-05 -2.1282145464611487e-05 0 -1.6349181380875789e-05 -2.0558968204226549e-05 0 -1.686809630871796e-05 -2.1515590114059458e-05 0 -1.7274025294300994e-05 -2.2282994637448241e-05 0 -1.686809630871796e-05 -2.1515590114059458e-05 0 -1.6349181380875789e-05 -2.0558968204226549e-05 0 -1.1151950122410455e-06 -2.2580695713984822e-05 0 -3.7144215545976948e-06 -2.3177297773735128e-05 0 -3.5525925577956927e-06 -2.6174730986585949e-05 0 -5.3664115444407556e-06 -2.6476847056575366e-05 0 -3.5525925577956927e-06 -2.6174730986585949e-05 0 -3.7144215545976953e-06 -2.3177297773735128e-05 0 2.8752433576803987e-08 3.1095687915804512e-06 0 2.9305066856882569e-08 2.331919468661196e-06 0 -7.1186201443373992e-07 2.3480257617978643e-06 0 8.6886230605178782e-07 -2.1787816912988556e-06 0 -1.9401403997895156e-06 4.4381225426569721e-07 0 -1.9212263172428219e-06 -4.5705537803208387e-06 0 -4.2128725665486323e-06 -2.8266932993763981e-06 0 -1.9212263172428219e-06 -4.5705537803208387e-06 0 -1.9401403997895156e-06 4.4381225426569721e-07 0 -2.806009766775275e-05 -3.2963095745595706e-05 0 -3.3156762859372669e-05 -3.491695946401961e-05 0 -3.1779485581024163e-05 -4.0397771714769107e-05 0 -9.3637212432876142e-06 -1.7625419995199913e-06 0 -1.0942756579639578e-05 -2.9282093048814928e-06 0 -8.4916785015476409e-06 -1.72999646860445e-06 0 -9.449680525684555e-06 -2.7222035379187652e-06 0 -8.4916785015476409e-06 -1.72999646860445e-06 0 -1.0942756579639578e-05 -2.9282093048814928e-06 0 -6.2765456531995731e-06 -8.2992618904519462e-06 0 -9.6140679423615043e-06 -7.1348555627873159e-06 0 -8.6591570174395587e-06 -6.2920172525137293e-06 0 -1.5150722823406201e-05 -1.9250079339975559e-05 0 -1.6349181380875789e-05 -2.0558968204226549e-05 0 -1.4826859354989114e-05 -2.023634105211376e-05 0 -4.5757609642618794e-06 -2.0618171064044347e-05 0 -5.8406094019203277e-06 -2.3101597741122354e-05 0 -3.7144215545976953e-06 -2.3177297773735128e-05 0 -9.6500912080387759e-07 1.1097150716394966e-06 0 -5.4409472294994769e-07 1.3567307753245248e-06 0 -5.4454308177922842e-07 1.0771240764398264e-06 0 -9.6036975402108181e-06 -2.739888152975399e-05 0 -9.3094246507708479e-06 -2.6109090187050485e-05 0 -1.0708537726184309e-05 -2.5295829222120382e-05 0 -1.2355646072475787e-06 9.7745337122219994e-07 0 -7.3313535833336565e-07 9.1782678904094579e-07 0 -8.2229655740797813e-07 8.6821572481466906e-07 0 -8.9143828051150278e-06 -7.3705447973467369e-06 0 -7.9075582383724969e-06 -5.4139946730641795e-06 0 -8.9624894754851731e-06 -6.0447874390433774e-06 0 -1.8261810967132674e-07 9.839398693056456e-08 0 -1.6531072366703891e-07 2.8462867576701045e-07 0 -2.5834395420220568e-07 -5.1351870227054951e-08 0 -2.3641644605337555e-05 8.1159074948083709e-05 0 -1.8357637027272072e-05 6.8440565029761818e-05 0 -1.1231620871413838e-05 7.8622977903485287e-05 0 -2.4574091165993929e-05 0.00011047220511952992 0 -1.1234834924119179e-05 0.00011100190963083809 0 -1.7060722559210641e-05 0.00012184065962965842 0 -2.2465916037419928e-05 -5.1365010527493875e-05 0 -2.8212694525978792e-05 -5.1235361226603107e-05 0 -2.6420897167633541e-05 -5.6571484969096339e-05 0 5.7267704431484946e-06 1.3930877743037625e-05 0 5.6544369617190949e-07 5.0719770066506125e-06 0 5.2170575769455808e-06 1.1972940958927518e-06 0 -1.8261810967132674e-07 9.839398693056456e-08 0 -1.4210865575322943e-07 1.434086421096943e-07 0 -1.9261647481474819e-07 3.0829798047252851e-07 0 -3.9740571307842657e-05 -4.0946690474423538e-05 0 -3.6715615720971282e-05 -4.4834587980402104e-05 0 -3.1779485581024163e-05 -4.0397771714769107e-05 0 -4.3880559661543624e-05 -8.8140343606537964e-05 0 -3.9001183005463913e-05 -8.4003133367731764e-05 0 -4.3902500616231602e-05 -8.0814907106898902e-05 0 1.5195770754194383e-05 0.00018910572423359786 0 5.8807762557271808e-06 0.00018246222380893543 0 1.6280391196013266e-05 0.00017345251257536032 0 1.5195770754194383e-05 0.00018910572423359786 0 1.018499914633548e-06 0.00019119691088349347 0 5.8807762557271799e-06 0.00018246222380893543 0 -4.9944618064778265e-06 -8.820355813690568e-05 0 -8.8834909319961421e-06 -8.5390849821434219e-05 0 -1.0855167554545559e-05 -8.9138079030598037e-05 0 -7.5310866724966261e-05 0.00019027114396045046 0 -7.534082043352966e-05 0.00017400693153188149 0 -6.4472124980522827e-05 0.00018107548814605735 0 -4.3880559661543624e-05 -8.8140343606537964e-05 0 -3.6588549753388127e-05 -8.8114177331107877e-05 0 -3.9001183005463913e-05 -8.4003133367731764e-05 0 -4.9944618064778265e-06 -8.820355813690568e-05 0 -4.3873325814474272e-06 -8.103020614667673e-05 0 -8.8834909319961421e-06 -8.5390849821434219e-05 0 -7.5310866724966261e-05 0.00019027114396045046 0 -6.4472124980522827e-05 0.00018107548814605735 0 -5.9096084935330448e-05 0.00019023440286957603 0 -2.0988149129052482e-10 -2.7826756502341349e-11 0 -1.4210865575322943e-07 1.434086421096943e-07 0 -1.2743464253277073e-07 -1.2031723999369185e-08 0 -1.0716992818406522e-05 -1.1769156692363222e-05 0 -9.1806831971491244e-06 -1.1780567240474067e-05 0 -9.2839707512363813e-06 -9.4484874971156582e-06 0 -9.449680525684555e-06 -2.7222035379187652e-06 0 -1.1504904002739818e-05 -4.105221497735026e-06 0 -9.0367204745731099e-06 -3.3195255033310264e-06 0 -2.806009766775275e-05 -3.2963095745595706e-05 0 -2.5776300717306937e-05 -3.7135962941721454e-05 0 -2.3320433408986316e-05 -3.2315304653297027e-05 0 -7.0423888127255379e-07 -4.5960671684067535e-08 0 -1.55891996103133e-06 -6.3885994661366955e-09 0 -1.4255563646240444e-06 -4.4638732642501557e-07 0 -2.7304907174722679e-05 0.00013166682043710623 0 -3.8180268885880328e-05 0.00014205940184975241 0 -3.8442708874838307e-05 0.00012607077086504255 0 -2.2458534395618913e-05 -6.1002465749420425e-05 0 -1.8356319329147518e-05 -6.5980768457457988e-05 0 -1.7471554803505887e-05 -5.8367088989395428e-05 0 -1.6620588925223384e-05 -1.9463778564154793e-05 0 -1.7048962334725711e-05 -2.1119390653736355e-05 0 -1.6108364423993138e-05 -1.9445943479173064e-05 0 1.5054557664461105e-07 -1.5478640418425562e-05 0 -2.3064837315226179e-06 -1.8837845858793648e-05 0 -5.6382979478176173e-07 -1.8993303328565739e-05 0 3.737977429314108e-06 -3.6631370177864977e-06 0 7.2698644027272907e-07 -6.1871711884777248e-06 0 2.5004658075557914e-06 -6.8509144438105181e-06 0 -1.1171360948923123e-05 -5.3012886832738399e-06 0 -9.0367204745731099e-06 -3.3195255033310264e-06 0 -1.1504904002739818e-05 -4.105221497735026e-06 0 -1.510355037358091e-05 -1.4576876588258919e-05 0 -1.6021190466045165e-05 -1.7201973120331942e-05 0 -1.4395234837896979e-05 -1.5302433764716776e-05 0 1.6204460732051632e-06 -9.5954752680548551e-06 0 -6.9437505580334914e-07 -1.2236266732014605e-05 0 8.1297221545315563e-07 -1.241853135430656e-05 0 -1.8881805503666881e-05 -2.755423931974717e-05 0 -1.5033088228318662e-05 -2.9557701208116723e-05 0 -1.4729064806344662e-05 -2.3074073587623977e-05 0 -1.5294437823350358e-07 1.098011697847619e-06 0 -2.8040583266042802e-07 8.886244431112204e-07 0 -5.4454308177922842e-07 1.0771240764398264e-06 0 -1.2370156770941128e-05 -5.5208392851742169e-05 0 -1.6729055419032351e-05 -5.0089378091232274e-05 0 -1.7471554803505887e-05 -5.8367088989395428e-05 0 -4.9815363607383477e-05 0.00012092970333478286 0 -3.7652935948595663e-05 0.00011062617872495395 0 -3.8442708874838307e-05 0.00012607077086504255 0 -2.7146481383235172e-06 -1.2330307232025698e-05 0 -5.5546512005125419e-07 -9.5480247583470592e-06 0 -3.1958391012983587e-06 -1.0075732677961964e-05 0 -1.8885138558441403e-06 -7.6782834279142695e-06 0 -3.1958391012983587e-06 -1.0075732677961964e-05 0 -5.5546512005125419e-07 -9.5480247583470592e-06 0 -2.4844436535401751e-06 7.3035750784254954e-07 0 -2.5833399839247603e-06 7.579741283613695e-07 0 -3.4921633246543644e-06 4.4001421292638258e-07 0 -1.1936529014327297e-05 -9.6322071633020127e-06 0 -9.0870610015644408e-06 -8.0520311402336261e-06 0 -1.0057546130218462e-05 -6.4250470546245344e-06 0 -9.9170226228535028e-06 -2.297156566231929e-05 0 -6.0650516405903028e-06 -2.0127573537718348e-05 0 -8.4166229625753125e-06 -1.5132079156065273e-05 0 -8.0833556078942838e-06 -9.2636383277453648e-06 0 -9.2839707512363813e-06 -9.4484874971156582e-06 0 -9.1806831971491244e-06 -1.1780567240474067e-05 0 -3.7573592502025463e-06 -1.6216648794054222e-05 0 -6.0650516405903028e-06 -2.0127573537718348e-05 0 -2.4143179689601375e-06 -2.2805603634113844e-05 0 -1.7208093581260596e-06 -1.5505869086912531e-05 0 -3.526579975486444e-06 -1.4698976041957057e-05 0 -4.2116927579490154e-06 -1.7916830658576376e-05 0 -5.5740992969352943e-06 -1.6453353268279399e-05 0 -4.2116927579490154e-06 -1.7916830658576376e-05 0 -3.526579975486444e-06 -1.4698976041957057e-05 0 -4.1941989314499939e-06 1.5211690596628151e-07 0 -5.5454096513717609e-06 -3.9608403361338526e-07 0 -5.6470497540946248e-06 -2.111051954923414e-07 0 -4.0440254653712369e-06 -1.3617541665512999e-06 0 -4.836581533698434e-06 -2.1027168331454277e-06 0 -3.5953110410748869e-06 -5.1894367664341878e-07 0 -4.4958696281993178e-06 -9.2496821963890674e-07 0 -3.5953110410748869e-06 -5.1894367664341878e-07 0 -4.836581533698434e-06 -2.1027168331454277e-06 0 1.3760376149055205e-06 7.5604686335375262e-06 0 -4.1868086664740185e-07 6.2568856468999623e-06 0 1.8012300425291086e-06 9.7185989462606869e-06 0 -9.0187991349200933e-07 4.8807193386218596e-06 0 1.8012300425291086e-06 9.7185989462606869e-06 0 -4.1868086664740185e-07 6.2568856468999623e-06 0 1.8248286781470928e-05 8.4066825225373635e-05 0 1.8875804823886949e-05 0.00010131934550290017 0 5.7065800569422947e-06 9.384719502227216e-05 0 -3.9054980164312753e-07 4.6467135602452838e-06 0 3.0640952508320852e-07 4.0690722098757465e-06 0 -5.0514846413196845e-07 3.4619834825821984e-06 0 -3.9740571307842657e-05 -4.0946690474423538e-05 0 -4.1589953570578379e-05 -4.8856334991044427e-05 0 -3.6715615720971282e-05 -4.4834587980402104e-05 0 -3.5490946574480169e-06 5.2171848258248025e-07 0 -3.4921633246543644e-06 4.4001421292638258e-07 0 -2.5833399839247603e-06 7.579741283613695e-07 0 -5.3196581659331142e-06 -6.131622355471976e-07 0 -4.1892212806540345e-06 -6.3836273399719942e-07 0 -3.4629061832668954e-06 -8.8372075112195824e-07 0 -4.1941989314499939e-06 1.5211690596628151e-07 0 -2.8456519756323068e-06 4.1374123831937466e-07 0 -3.2111888830641766e-06 1.6125146820348264e-07 0 -7.2872581101361885e-07 7.6659410010366771e-07 0 -1.8382342715378834e-07 7.1837194335656694e-07 0 -6.5896892499471615e-08 1.5050052062696263e-06 0 -2.2536018765221911e-06 -1.0159286023330687e-06 0 -1.9545878528003871e-06 -3.6902697268337648e-07 0 -9.6229101731364402e-07 -3.0012851807548461e-07 0 -1.4755639483961653e-09 1.7576081044544794e-10 0 -9.6229101731364402e-07 -3.0012851807548456e-07 0 -1.9545878528003871e-06 -3.6902697268337648e-07 0 -3.1440821756366871e-06 1.1935804855230417e-06 0 -1.3442566761440826e-06 2.9664913366366236e-07 0 -2.7543806342507134e-06 2.3600446980911666e-07 0 -2.1225776748098018e-09 -3.6085849628497902e-10 0 -2.7543806342507134e-06 2.3600446980911666e-07 0 -1.3442566761440826e-06 2.9664913366366236e-07 0 -1.1936529014327297e-05 -9.6322071633020127e-06 0 -1.5502054346418904e-05 -1.1453486032287629e-05 0 -1.4463384765715174e-05 -1.3943865702441609e-05 0 -1.8261810967132674e-07 9.839398693056456e-08 0 -1.9261647481474819e-07 3.0829798047252851e-07 0 -1.6531072366703891e-07 2.8462867576701045e-07 0 -4.5407742895594094e-06 6.7374050254918075e-05 0 6.2568132764930446e-06 6.2254883379534565e-05 0 7.5786031950646646e-06 7.2838006027290005e-05 0 -7.1124969533947126e-06 1.5980878083767999e-05 0 -9.1010449915709646e-06 1.143117448233795e-05 0 -4.2045819429548749e-06 1.0299384663179965e-05 0 -3.9054980164312753e-07 4.6467135602452838e-06 0 6.8584067595301574e-07 5.6069002976907496e-06 0 3.0640952508320852e-07 4.0690722098757465e-06 0 -1.2486860824755653e-05 -1.7312360952110235e-05 0 -1.135736098027445e-05 -1.2144871340198088e-05 0 -1.4463384765715174e-05 -1.3943865702441609e-05 0 -4.32020473756572e-05 0.00019021201536512867 0 -5.9096084935330448e-05 0.00019023440286957603 0 -5.1087416895751997e-05 0.0001819805570392812 0 -1.6724406921088775e-05 -8.8754197890919835e-05 0 -1.0855167554545559e-05 -8.9138079030598037e-05 0 -1.3882503247946149e-05 -8.5621171883599326e-05 0 1.018499914633548e-06 0.00019119691088349347 0 -1.3245705269303686e-05 0.00019098224053156629 0 -6.1915598062608737e-06 0.00018342940497783269 0 -3.6588549753388133e-05 -8.8114177331107891e-05 0 -2.9523014432590843e-05 -8.8105351396019864e-05 0 -3.3012482339438967e-05 -8.4416989984475866e-05 0 -1.3324693695241474e-05 -2.0292403904326873e-05 0 -1.4826859354989114e-05 -2.023634105211376e-05 0 -1.3856319295543043e-05 -2.1520819641502267e-05 0 -7.5355838703556061e-06 -2.2645524361418927e-05 0 -6.9975734920758218e-06 -2.5523877649286111e-05 0 -5.8406094019203277e-06 -2.3101597741122354e-05 0 -2.5275591804978018e-09 -1.0773688138040025e-09 0 -9.6229101731364424e-07 -3.0012851807548466e-07 0 -1.4755639483961653e-09 1.7576081044544794e-10 0 -3.3794196630524967e-09 1.4376141697025125e-09 0 -2.1225776748098018e-09 -3.6085849628497902e-10 0 -1.3442566761440826e-06 2.9664913366366236e-07 0 -3.3794196630524967e-09 1.4376141697025125e-09 0 -1.3442566761440826e-06 2.9664913366366236e-07 0 -3.1440821756366871e-06 1.1935804855230417e-06 0 -2.5275591804978018e-09 -1.0773688138040025e-09 0 -2.2536018765221911e-06 -1.0159286023330687e-06 0 -9.6229101731364402e-07 -3.0012851807548461e-07 0 -1.0913717813398473e-05 -3.1311339699024158e-05 0 -1.5033088228318662e-05 -2.955770120811672e-05 0 -1.5563340655521617e-05 -3.6795684370076657e-05 0 -4.4454477712941614e-06 -1.204111360891464e-07 0 -5.746333315436024e-06 -7.9293443321112088e-07 0 -4.7691182617294528e-06 -7.0995497394040246e-07 0 -8.9143828051150278e-06 -7.3705447973467369e-06 0 -9.2839707512363813e-06 -9.4484874971156582e-06 0 -7.9546906065819704e-06 -7.0814740794511166e-06 0 -8.0833556078942838e-06 -9.2636383277453648e-06 0 -7.9546906065819704e-06 -7.0814740794511166e-06 0 -9.2839707512363813e-06 -9.4484874971156582e-06 0 -2.4844436535401751e-06 7.3035750784254954e-07 0 -3.3947711262619985e-06 2.5456355406874128e-07 0 -2.5432168140039754e-06 5.9668014277212803e-07 0 -5.5441238814635309e-07 9.4553156751441056e-07 0 -7.3313535833336565e-07 9.1782678904094579e-07 0 -1.020035090739039e-06 1.027099530190621e-06 0 -1.2355646072475787e-06 9.7745337122219994e-07 0 -1.020035090739039e-06 1.027099530190621e-06 0 -7.3313535833336565e-07 9.1782678904094579e-07 0 -9.0187991349200933e-07 4.8807193386218596e-06 0 5.654436961719096e-07 5.0719770066506125e-06 0 1.8012300425291086e-06 9.7185989462606869e-06 0 5.7267704431484946e-06 1.3930877743037625e-05 0 1.801230042529109e-06 9.7185989462606886e-06 0 5.6544369617190949e-07 5.0719770066506125e-06 0 -1.8112955799716011e-05 -1.4200410179596197e-05 0 -1.4463384765715174e-05 -1.3943865702441609e-05 0 -1.5502054346418904e-05 -1.1453486032287629e-05 0 -2.7146481383235172e-06 -1.2330307232025698e-05 0 -3.526579975486444e-06 -1.4698976041957057e-05 0 -6.9437505580334914e-07 -1.2236266732014605e-05 0 -1.3148432816859742e-05 -1.3965241217769215e-05 0 -1.4395234837896979e-05 -1.5302433764716776e-05 0 -1.3613333382332855e-05 -1.5537679857796843e-05 0 -9.6500912080387759e-07 1.1097150716394966e-06 0 -1.0688251678843699e-06 1.2273331283042019e-06 0 -5.4409472294994779e-07 1.3567307753245248e-06 0 -4.9876473535300745e-06 0.00012215892141597201 0 8.2036627704718043e-06 0.00011544286555169862 0 6.9791763598331335e-06 0.00012764589252499053 0 -3.185328679782071e-05 -5.6929154710398623e-05 0 -3.757681562477839e-05 -5.4195794911820218e-05 0 -3.7662041245118519e-05 -5.9908246560149633e-05 0 -6.2765456531995731e-06 -8.2992618904519462e-06 0 -6.076313885471722e-06 -5.8840180833850353e-06 0 -6.7093504608594563e-06 -6.7362906190178039e-06 0 -1.8885138558441403e-06 -7.6782834279142695e-06 0 7.2698644027272907e-07 -6.1871711884777248e-06 0 -1.9212263172428219e-06 -4.5705537803208387e-06 0 -4.9815363607383477e-05 0.00012092970333478286 0 -5.9275910170817055e-05 0.00011192384123025759 0 -4.7775587285264164e-05 0.00010672723888620817 0 -1.2370156770941128e-05 -5.5208392851742169e-05 0 -7.6708466334142673e-06 -5.0148677346861402e-05 0 -1.2123820260927831e-05 -4.8166136959011297e-05 0 -1.0913717813398473e-05 -3.1311339699024158e-05 0 -1.1467244950452905e-05 -3.7666331650840141e-05 0 -7.0736224344802137e-06 -3.491890537285734e-05 0 -1.2516293175459143e-05 -1.8576676995972634e-05 0 -1.2049622204182756e-05 -1.996461793666068e-05 0 -1.1021780888149638e-05 -1.8488241973726371e-05 0 -4.5757609642618794e-06 -2.0618171064044347e-05 0 -2.3064837315226174e-06 -1.8837845858793648e-05 0 -4.2116927579490154e-06 -1.7916830658576376e-05 0 -2.8993190142340721e-06 1.1246934015236096e-06 0 -2.0658160795141335e-06 4.3407974020234187e-07 0 -1.331643400250986e-06 1.5202727064582543e-06 0 -1.0380689735453729e-05 -2.3757916251890755e-05 0 -8.9322787765653497e-06 -2.4322038133309463e-05 0 -9.5378003196792454e-06 -2.1854186476940797e-05 0 -3.5490946574480169e-06 5.2171848258248025e-07 0 -2.5833399839247603e-06 7.579741283613695e-07 0 -2.7046663448262798e-06 7.0720949552266995e-07 0 -2.0043221056319417e-06 8.2192105898139108e-07 0 -2.7046663448262798e-06 7.0720949552266995e-07 0 -2.5833399839247603e-06 7.579741283613695e-07 0 -2.3298943726035578e-06 6.5142477208067734e-07 0 -3.1716607493472461e-06 -3.119995755706518e-07 0 -3.5953110410748869e-06 -5.1894367664341878e-07 0 -1.1936529014327297e-05 -9.6322071633020127e-06 0 -1.4463384765715174e-05 -1.3943865702441609e-05 0 -1.135736098027445e-05 -1.2144871340198088e-05 0 -2.4844436535401751e-06 7.3035750784254954e-07 0 -2.5432168140039754e-06 5.9668014277212803e-07 0 -1.8119211807887229e-06 8.7575516945416864e-07 0 -1.9381635111887154e-06 8.003222621372357e-07 0 -1.8119211807887229e-06 8.7575516945416864e-07 0 -2.5432168140039754e-06 5.9668014277212803e-07 0 -3.3947711262619985e-06 2.5456355406874128e-07 0 -2.7930047727289618e-06 3.2511265274309604e-07 0 -2.5432168140039754e-06 5.9668014277212803e-07 0 -1.2479555415494704e-05 -2.3239751310767481e-05 0 -1.3856319295543043e-05 -2.1520819641502267e-05 0 -1.4321772834510179e-05 -2.2796999835937357e-05 0 -1.5666844581682981e-05 -2.1282145464611487e-05 0 -1.4321772834510177e-05 -2.2796999835937357e-05 0 -1.3856319295543043e-05 -2.1520819641502267e-05 0 -5.3664115444407556e-06 -2.6476847056575366e-05 0 -6.9975734920758218e-06 -2.5523877649286108e-05 0 -6.4060394200187275e-06 -2.8671504834816878e-05 0 -7.9556125568616298e-06 -2.6421778288212581e-05 0 -6.4060394200187275e-06 -2.8671504834816878e-05 0 -6.9975734920758218e-06 -2.5523877649286108e-05 0 -9.0187991349200933e-07 4.8807193386218596e-06 0 -1.9401403997895156e-06 4.4381225426569721e-07 0 5.6544369617190949e-07 5.0719770066506125e-06 0 -6.9008542693048828e-07 0.00017353728169511559 0 -6.1915598062608737e-06 0.00018342940497783269 0 -1.4655278782849429e-05 0.0001765883133683561 0 -3.5670287168861284e-05 -7.9904751391705867e-05 0 -3.3012482339438967e-05 -8.4416989984475866e-05 0 -2.898011800300323e-05 -8.1555505601516127e-05 0 -1.1627694004505508e-05 -8.1145554825586295e-05 0 -1.7392500841718937e-05 -8.2386746723777735e-05 0 -1.3882503247946149e-05 -8.5621171883599326e-05 0 -5.7094616866286295e-05 0.00017201821278512355 0 -4.1937447808273348e-05 0.00017553445585933314 0 -5.1087416895751997e-05 0.0001819805570392812 0 -4.9815363607383477e-05 0.00012092970333478286 0 -4.7775587285264164e-05 0.00010672723888620816 0 -3.7652935948595663e-05 0.00011062617872495395 0 -1.2370156770941128e-05 -5.5208392851742169e-05 0 -1.2123820260927831e-05 -4.8166136959011297e-05 0 -1.6729055419032351e-05 -5.0089378091232274e-05 0 -1.0913717813398473e-05 -3.1311339699024158e-05 0 -1.5563340655521617e-05 -3.6795684370076657e-05 0 -1.1467244950452907e-05 -3.7666331650840141e-05 0 -4.0440254653712369e-06 -1.3617541665512999e-06 0 -3.5953110410748869e-06 -5.1894367664341878e-07 0 -3.1716607493472461e-06 -3.119995755706518e-07 0 -1.3245705269303686e-05 0.00019098224053156629 0 -1.4655278782849429e-05 0.0001765883133683561 0 -6.1915598062608737e-06 0.00018342940497783269 0 -2.9523014432590843e-05 -8.8105351396019864e-05 0 -2.898011800300323e-05 -8.1555505601516127e-05 0 -3.3012482339438967e-05 -8.4416989984475866e-05 0 -4.32020473756572e-05 0.00019021201536512867 0 -5.1087416895751997e-05 0.0001819805570392812 0 -4.1937447808273348e-05 0.00017553445585933314 0 -1.6724406921088775e-05 -8.8754197890919835e-05 0 -1.3882503247946149e-05 -8.5621171883599326e-05 0 -1.7392500841718937e-05 -8.2386746723777735e-05 0 -1.0794490598162567e-05 -2.0252799060266893e-05 0 -1.1021780888149638e-05 -1.8488241973726371e-05 0 -1.2049622204182756e-05 -1.996461793666068e-05 0 -3.7573592502025463e-06 -1.6216648794054222e-05 0 -8.4166229625753125e-06 -1.5132079156065273e-05 0 -6.0650516405903028e-06 -2.0127573537718348e-05 0 -1.7513007778355522e-05 -2.2915116642660022e-05 0 -1.6688102731663827e-05 -2.1905115900388721e-05 0 -1.686809630871796e-05 -2.1515590114059458e-05 0 -1.8285859839409556e-06 -2.6408350079968102e-05 0 -3.5525925577956927e-06 -2.6174730986585949e-05 0 -4.3385905068913458e-06 -2.9210670648821921e-05 0 -5.5441238814635309e-07 9.4553156751441056e-07 0 -4.2403397551436725e-07 7.2628946616811407e-07 0 -7.3313535833336565e-07 9.1782678904094579e-07 0 -5.4404813988263792e-05 9.5632274867271056e-05 0 -5.4951244219970713e-05 8.034023713426213e-05 0 -4.4464959386318578e-05 8.3029847307821474e-05 0 -4.3143847972611681e-05 7.1343372326499789e-05 0 -4.4464959386318578e-05 8.3029847307821474e-05 0 -5.4951244219970713e-05 8.034023713426213e-05 0 -9.6949661894392725e-06 -1.6691475331334643e-05 0 -1.1318980946028191e-05 -1.6692135013749227e-05 0 -1.1021780888149638e-05 -1.8488241973726371e-05 0 -2.3714802182869507e-06 4.6733042734720596e-07 0 -2.7930047727289618e-06 3.2511265274309604e-07 0 -3.2003967373916509e-06 -1.6707315197024442e-07 0 -8.9143828051150278e-06 -7.3705447973467369e-06 0 -7.9546906065819704e-06 -7.0814740794511166e-06 0 -7.9075582383724969e-06 -5.4139946730641803e-06 0 -6.8492877585882242e-06 -4.4965872151875062e-06 0 -7.9075582383724969e-06 -5.4139946730641803e-06 0 -7.9546906065819704e-06 -7.0814740794511166e-06 0 -3.7997746364815311e-05 9.4955332648092761e-05 0 -3.7652935948595663e-05 0.00011062617872495395 0 -4.7775587285264164e-05 0.00010672723888620817 0 -1.5068598681768384e-05 -4.30375931096427e-05 0 -1.6729055419032351e-05 -5.0089378091232274e-05 0 -1.2123820260927831e-05 -4.8166136959011297e-05 0 -1.5068598681768384e-05 -4.30375931096427e-05 0 -1.1467244950452907e-05 -3.7666331650840141e-05 0 -1.5563340655521617e-05 -3.6795684370076657e-05 0 -2.8085227834301318e-06 -1.1668379606006822e-07 0 -4.2809337096486741e-06 -2.3968582409294862e-07 0 -3.2111888830641766e-06 1.6125146820348264e-07 0 -3.8519127481071323e-06 -2.4571268906705161e-07 0 -4.1892212806540345e-06 -6.3836273399719942e-07 0 -5.8845816009295785e-06 -1.7698956998499232e-07 0 -8.0575920562404961e-06 5.6611449306798035e-07 0 -5.8845816009295785e-06 -1.7698956998499232e-07 0 -7.5384453227800754e-06 2.4185892681071831e-08 0 -5.6564242160721794e-06 -8.0123384617901915e-07 0 -5.5454096513717609e-06 -3.9608403361338526e-07 0 -4.2809337096486741e-06 -2.3968582409294852e-07 0 -3.4668468871564435e-06 -5.8821575930179226e-07 0 -3.1716607493472461e-06 -3.119995755706518e-07 0 -2.5754676695266585e-06 2.4198419179097303e-07 0 -5.4404813988263792e-05 9.5632274867271056e-05 0 -4.7775587285264164e-05 0.00010672723888620817 0 -5.9275910170817055e-05 0.00011192384123025759 0 -8.5565632022447363e-06 -4.2473765875382141e-05 0 -1.2123820260927831e-05 -4.8166136959011297e-05 0 -7.6708466334142673e-06 -5.0148677346861402e-05 0 -8.5565632022447363e-06 -4.2473765875382141e-05 0 -7.0736224344802137e-06 -3.491890537285734e-05 0 -1.1467244950452907e-05 -3.7666331650840141e-05 0 -1.8881805503666881e-05 -2.755423931974717e-05 0 -2.3415745909793471e-05 -2.7590980207518328e-05 0 -2.3320433408986316e-05 -3.2315304653297027e-05 0 -1.2516293175459143e-05 -1.8576676995972634e-05 0 -1.1021780888149638e-05 -1.8488241973726371e-05 0 -1.1318980946028191e-05 -1.6692135013749227e-05 0 -2.8993190142340721e-06 1.1246934015236096e-06 0 -2.7521693039113539e-06 2.4436645903313348e-06 0 -4.8053677349192076e-06 1.6935108182176153e-06 0 -4.7852013348400783e-06 -2.2027824039613563e-06 0 -4.0591658628168973e-06 -1.0139112799493229e-06 0 -4.9816387919782812e-06 -1.5814508599524445e-06 0 -4.1941989314499939e-06 1.5211690596628151e-07 0 -5.6470497540946239e-06 -2.111051954923415e-07 0 -4.5075149444013975e-06 2.2930953948203875e-07 0 -3.830104154317813e-05 4.7207871197484349e-05 0 -3.033434126582904e-05 4.8082877448899934e-05 0 -3.626026582189059e-05 5.9268993164549979e-05 0 -2.4576345655078287e-05 -2.2271671180483734e-05 0 -2.3415745909793471e-05 -2.7590980207518328e-05 0 -2.1067621654721081e-05 -2.2797866862389523e-05 0 -4.9876473535300745e-06 0.00012215892141597201 0 -1.7060722559210641e-05 0.00012184065962965842 0 -1.1234834924119181e-05 0.00011100190963083809 0 -3.185328679782071e-05 -5.6929154710398623e-05 0 -2.6420897167633541e-05 -5.6571484969096339e-05 0 -2.8212694525978792e-05 -5.1235361226603107e-05 0 -4.5407742895594094e-06 6.7374050254918075e-05 0 -1.1231620871413838e-05 7.8622977903485287e-05 0 -1.8357637027272072e-05 6.8440565029761818e-05 0 -6.5057938571593689e-06 -7.8472223061809311e-07 0 -7.3601606320643268e-06 -9.5698754216629885e-07 0 -8.4916785015476409e-06 -1.72999646860445e-06 0 -3.8330727582098959e-06 -4.3284220401334236e-07 0 -3.2003967373916509e-06 -1.6707315197024442e-07 0 -2.7930047727289618e-06 3.2511265274309604e-07 0 -2.0643408605419535e-05 -3.6750029038775222e-05 0 -2.3320433408986316e-05 -3.2315304653297027e-05 0 -2.5776300717306937e-05 -3.7135962941721454e-05 0 -1.5666844581682981e-05 -2.1282145464611487e-05 0 -1.686809630871796e-05 -2.1515590114059458e-05 0 -1.6688102731663827e-05 -2.1905115900388721e-05 0 -5.3664115444407556e-06 -2.6476847056575366e-05 0 -4.3385905068913458e-06 -2.9210670648821921e-05 0 -3.5525925577956927e-06 -2.6174730986585949e-05 0 -1.9381635111887154e-06 8.003222621372357e-07 0 -2.5432168140039754e-06 5.9668014277212803e-07 0 -2.7930047727289618e-06 3.2511265274309604e-07 0 -5.9096084935330448e-05 0.00019023440286957603 0 -6.4472124980522827e-05 0.00018107548814605735 0 -5.1087416895751997e-05 0.0001819805570392812 0 -5.7094616866286295e-05 0.00017201821278512355 0 -5.1087416895751997e-05 0.0001819805570392812 0 -6.4472124980522827e-05 0.00018107548814605735 0 -1.1627694004505508e-05 -8.1145554825586295e-05 0 -1.3882503247946149e-05 -8.5621171883599326e-05 0 -8.8834909319961421e-06 -8.5390849821434219e-05 0 -1.0855167554545559e-05 -8.9138079030598037e-05 0 -8.8834909319961421e-06 -8.5390849821434219e-05 0 -1.3882503247946149e-05 -8.5621171883599326e-05 0 1.018499914633548e-06 0.00019119691088349347 0 -6.1915598062608737e-06 0.00018342940497783269 0 5.8807762557271799e-06 0.00018246222380893543 0 -3.6588549753388133e-05 -8.8114177331107891e-05 0 -3.3012482339438967e-05 -8.4416989984475866e-05 0 -3.9001183005463913e-05 -8.4003133367731764e-05 0 -6.9008542693048828e-07 0.00017353728169511559 0 5.8807762557271799e-06 0.00018246222380893543 0 -6.1915598062608737e-06 0.00018342940497783269 0 -3.5670287168861284e-05 -7.9904751391705867e-05 0 -3.9001183005463913e-05 -8.4003133367731764e-05 0 -3.3012482339438967e-05 -8.4416989984475866e-05 0 -9.6949661894392725e-06 -1.6691475331334643e-05 0 -1.1021780888149638e-05 -1.8488241973726371e-05 0 -9.5555486656160692e-06 -1.87574777418933e-05 0 -1.3012615185225164e-05 -1.650310502505897e-05 0 -1.223894129083285e-05 -1.4125507628886025e-05 0 -1.3613333382332855e-05 -1.5537679857796843e-05 0 -1.3148432816859742e-05 -1.3965241217769215e-05 0 -1.3613333382332855e-05 -1.5537679857796843e-05 0 -1.223894129083285e-05 -1.4125507628886025e-05 0 -1.0794490598162567e-05 -2.0252799060266893e-05 0 -1.2049622204182756e-05 -1.996461793666068e-05 0 -1.1890244097200243e-05 -2.16314056921855e-05 0 -1.3324693695241474e-05 -2.0292403904326873e-05 0 -1.1890244097200243e-05 -2.16314056921855e-05 0 -1.2049622204182756e-05 -1.996461793666068e-05 0 1.3760376149055205e-06 7.5604686335375262e-06 0 -3.5915537614479122e-08 5.7425827397293767e-06 0 -4.1868086664740185e-07 6.2568856468999623e-06 0 -5.126517876756458e-06 3.8056034761034997e-06 0 -8.5114190531234025e-06 5.4856624747577217e-06 0 -7.7100936634449325e-06 2.8836039686364807e-06 0 -1.1489580905630591e-05 4.5133173714286741e-06 0 -7.7100936634449325e-06 2.8836039686364807e-06 0 -8.5114190531234025e-06 5.4856624747577217e-06 0 -6.5057938571593689e-06 -7.8472223061809311e-07 0 -7.5278782463232918e-06 -1.8224778439924157e-06 0 -5.746333315436024e-06 -7.9293443321112088e-07 0 -3.830104154317813e-05 4.7207871197484349e-05 0 -3.0144543990279453e-05 3.8562528085091634e-05 0 -3.033434126582904e-05 4.8082877448899934e-05 0 -2.1881471494201242e-05 4.0089522243868846e-05 0 -3.033434126582904e-05 4.8082877448899934e-05 0 -3.0144543990279453e-05 3.8562528085091634e-05 0 -3.9054980164312753e-07 4.6467135602452838e-06 0 -3.5915537614479122e-08 5.7425827397293767e-06 0 6.8584067595301574e-07 5.6069002976907496e-06 0 -5.5740992969352943e-06 -1.6453353268279399e-05 0 -6.1639836735353131e-06 -1.9372054477295488e-05 0 -4.2116927579490154e-06 -1.7916830658576376e-05 0 -4.5757609642618794e-06 -2.0618171064044347e-05 0 -4.2116927579490154e-06 -1.7916830658576376e-05 0 -6.1639836735353131e-06 -1.9372054477295488e-05 0 7.4379889213074439e-07 4.6624343076212577e-06 0 6.8584067595301574e-07 5.6069002976907496e-06 0 1.238974710534866e-06 6.530003584511893e-06 0 -1.7177305748362455e-05 -1.9278174457619267e-05 0 -2.0827888732783173e-05 -1.8678256400070409e-05 0 -2.1067621654721081e-05 -2.2797866862389523e-05 0 -2.4576345655078287e-05 -2.2271671180483734e-05 0 -2.1067621654721081e-05 -2.2797866862389523e-05 0 -2.0827888732783173e-05 -1.8678256400070409e-05 0 2.8752433576803987e-08 3.1095687915804512e-06 0 -5.0514846413196845e-07 3.4619834825821984e-06 0 3.0640952508320852e-07 4.0690722098757465e-06 0 7.4379889213074439e-07 4.6624343076212577e-06 0 3.0640952508320852e-07 4.0690722098757465e-06 0 6.8584067595301574e-07 5.6069002976907496e-06 0 -1.3148432816859742e-05 -1.3965241217769215e-05 0 -1.3497091132687925e-05 -1.305259461519103e-05 0 -1.4395234837896979e-05 -1.5302433764716776e-05 0 -3.8330727582098959e-06 -4.3284220401334236e-07 0 -4.0591658628168973e-06 -1.0139112799493229e-06 0 -3.2003967373916509e-06 -1.6707315197024442e-07 0 -3.4668468871564435e-06 -5.8821575930179226e-07 0 -3.2003967373916509e-06 -1.6707315197024442e-07 0 -4.0591658628168973e-06 -1.0139112799493229e-06 0 -2.3298943726035578e-06 6.5142477208067734e-07 0 -2.5754676695266585e-06 2.4198419179097303e-07 0 -3.1716607493472461e-06 -3.119995755706518e-07 0 1.9003207343764754e-05 0.00011902458177922671 0 6.9791763598331326e-06 0.00012764589252499053 0 8.2036627704718043e-06 0.00011544286555169862 0 -4.2857734970016284e-05 -5.7064901461515421e-05 0 -3.7662041245118513e-05 -5.9908246560149633e-05 0 -3.757681562477839e-05 -5.4195794911820218e-05 0 -9.3637212432876142e-06 -1.7625419995199913e-06 0 -8.4916785015476409e-06 -1.72999646860445e-06 0 -7.3601606320643268e-06 -9.5698754216629906e-07 0 -2.7328196158022548e-10 1.5541891147473962e-10 0 -2.1584701842639543e-07 3.3489824891909577e-07 0 -1.6074999162236016e-07 2.6546223164601709e-07 0 1.7087167758110166e-05 6.7500276341258999e-05 0 7.5786031950646646e-06 7.2838006027290005e-05 0 6.2568132764930446e-06 6.2254883379534565e-05 0 -1.0794490598162567e-05 -2.0252799060266893e-05 0 -9.5555486656160692e-06 -1.87574777418933e-05 0 -1.1021780888149638e-05 -1.8488241973726371e-05 0 -6.9167802891243685e-06 1.1954419354938047e-06 0 -7.7100936634449325e-06 2.8836039686364803e-06 0 -1.0223436904877203e-05 2.4937006819495936e-06 0 -1.1489580905630591e-05 4.5133173714286741e-06 0 -1.0223436904877201e-05 2.4937006819495936e-06 0 -7.7100936634449325e-06 2.8836039686364807e-06 0 -1.510355037358091e-05 -1.4576876588258919e-05 0 -1.4395234837896979e-05 -1.5302433764716776e-05 0 -1.3497091132687925e-05 -1.305259461519103e-05 0 
</DataArray>
</PointData>
<CellData Scalars="region_id,cross_section_updated,displacement_divergence," Vectors="" Tensors="stress,">
<DataArray type="Float64" Name="region_id" format="ascii">
2 2 2 2 2 2 2 2 2 2 3 3 3 3 3 3 3 3 3 3 1 1 1 1 1 1 1 1 1 1 1 1 1 1 1 1 1 1 1 1 1 1 1 1 1 1 1 1 1 1 1 1 1 1 1 1 1 1 1 1 1 1 1 1 1 1 1 1 1 1 1 1 1 1 1 1 1 1 1 1 1 1 1 1 1 1 1 1 1 1 1 1 1 1 1 1 1 1 1 1 1 1 1 1 1 1 1 1 1 1 1 1 1 1 1 1 1 1 1 1 1 1 1 1 1 1 1 1 1 1 1 1 1 1 1 1 1 1 1 1 1 1 1 1 1 1 1 1 1 1 1 1 1 1 1 1 1 1 1 1 1 1 1 1 1 1 1 1 1 1 1 1 1 1 1 1 1 1 1 1 1 1 1 1 1 1 1 1 1 1 1 1 1 1 1 1 1 1 1 1 1 1 1 1 1 1 1 1 1 1 1 1 1 1 1 1 1 1 1 1 1 1 1 1 1 1 1 1 1 1 1 1 1 1 1 1 1 1 1 1 1 1 1 1 1 1 1 1 1 1 1 1 1 1 1 1 1 1 1 1 1 1 1 1 1 1 1 1 1 1 1 1 1 1 1 1 1 1 1 1 1 1 1 1 1 1 1 1 1 1 1 1 1 1 1 1 1 1 1 1 1 1 1 1 1 1 1 1 1 1 1 1 1 1 1 1 1 1 1 1 1 1 1 1 1 1 1 1 1 1 1 1 1 1 1 1 1 1 1 1 1 1 1 1 1 1 1 1 1 1 1 1 1 1 1 1 1 1 1 1 1 1 1 1 1 1 1 1 1 1 1 1 1 1 1 1 1 1 1 1 1 1 1 1 1 1 1 1 1 1 1 1 1 1 1 1 1 1 1 1 1 1 1 1 1 1 1 1 1 1 1 1 1 1 1 1 1 1 1 1 1 1 1 1 1 1 1 1 1 1 1 1 1 1 1 1 1 1 1 1 1 1 1 1 1 1 1 1 1 1 1 1 1 1 1 1 1 1 1 1 1 1 1 1 1 1 1 1 1 1 1 1 1 1 1 1 1 1 1 1 1 1 1 1 1 1 1 1 1 1 1 1 1 1 1 1 1 1 1 1 1 1 1 1 1 1 1 1 1 1 1 1 1 1 1 1 1 1 1 1 1 1 1 1 1 1 1 1 1 1 1 1 1 1 1 1 1 1 1 1 1 1 1 1 1 1 1 1 1 1 1 1 1 1 1 1 1 1 1 1 1 1 1 1 1 1 1 1 1 1 1 1 1 1 1 1 1 1 1 1 1 1 1 1 1 1 1 1 1 1 1 1 1 1 1 1 1 1 1 1 1 1 1 1 1 1 1 1 1 1 1 1 1 1 1 1 1 1 1 1 1 1 1 1 1 1 1 1 1 1 1 1 1 1 1 1 1 1 1 1 1 1 1 1 1 1 1 1 1 1 1 1 1 1 1 1 1 1 1 1 1 1 1 1 1 1 1 1 1 1 1 1 1 1 1 1 1 1 1 1 1 1 1 1 1 1 1 1 1 1 1 1 1 1 1 1 1 1 1 1 1 1 1 1 1 1 1 1 1 1 1 1 1 1 1 1 1 1 1 1 1 1 1 1 1 1 1 1 1 1 1 1 1 1 1 1 1 1 1 1 1 1 1 1 1 1 1 1 1 1 1 1 1 1 1 1 1 1 1 1 1 1 1 1 1 1 1 1 1 1 1 1 1 1 1 1 1 1 1 1 1 1 1 1 1 1 1 1 1 1 1 1 1 1 1 1 1 1 1 1 1 1 1 1 1 1 1 1 1 1 1 1 1 1 1 1 1 1 1 1 1 1 1 1 1 1 1 1 1 1 1 1 1 1 1 1 1 1 1 1 1 1 1 1 1 1 1 1 1 1 1 1 1 1 1 1 1 1 1 1 1 1 1 1 1 1 1 1 1 1 1 1 1 1 1 1 1 1 1 1 1 1 1 1 1 1 1 1 1 1 1 1 1 1 1 1 1 1 1 1 1 1 1 1 1 1 1 1 1 1 1 1 1 1 1 1 1 1 1 1 1 1 1 1 1 1 1 1 1 1 1 1 1 1 1 1 1 1 1 1 1 1 1 1 1 1 1 1 1 1 1 1 1 1 1 1 1 1 1 1 1 1 1 1 1 1 1 1 1 1 1 1 1 1 1 1 1 1 1 1 1 1 1 1 1 1 1 1 1 1 1 1 1 1 1 1 1 1 1 1 1 1 1 1 1 1 1 1 1 1 1 1 1 1 1 1 1 1 1 1 1 1 1 1 1 1 1 1 1 1 1 1 1 1 1 1 1 1 1 1 1 1 1 1 1 1 1 1 1 1 1 1 1 1 
</DataArray>
<DataArray type="Float64" Name="stress" NumberOfComponents="9" format="ascii">
-1.0907856974283226e-05 -2.7914106136023328e-05 0 -2.7914106136023328e-05 -3.6359523247610776e-06 0 0 0 -3.6359523247610776e-06 -1.2281887951078036e-05 -3.3568104697916692e-05 0 -3.3568104697916692e-05 -4.0939626503593452e-06 0 0 0 -4.0939626503593452e-06 -1.5419945853834406e-05 -3.9307142189440162e-05 0 -3.9307142189440162e-05 -5.1399819512781285e-06 0 0 0 -5.1399819512781285e-06 -1.4098928963148958e-05 -4.1784612283729609e-05 0 -4.1784612283729609e-05 -4.699642987716324e-06 0 0 0 -4.699642987716324e-06 -1.2322376891872009e-05 -4.2758374934132975e-05 0 -4.2758374934132975e-05 -4.1074589639573272e-06 0 0 0 -4.1074589639573272e-06 -1.1914355313365666e-05 -4.4126562529554531e-05 0 -4.4126562529554531e-05 -3.9714517711219021e-06 0 0 0 -3.9714517711219021e-06 -1.4302048467200224e-05 -3.9184421328991657e-05 0 -3.9184421328991657e-05 -4.7673494890667457e-06 0 0 0 -4.7673494890667457e-06 -1.6330609259396488e-05 -4.7193291134548117e-05 0 -4.7193291134548117e-05 -5.4435364197988204e-06 0 0 0 -5.4435364197988204e-06 -8.8755806270543968e-06 -2.7581080280343563e-05 0 -2.7581080280343563e-05 -2.9585268756848125e-06 0 0 0 -2.9585268756848125e-06 -4.3531561539517387e-05 -4.343717104034943e-05 0 -4.343717104034943e-05 -1.4510520513172462e-05 0 0 0 -1.4510520513172462e-05 6.5617576047894056e-05 5.8676876673565724e-05 0 5.8676876673565724e-05 2.187252534929801e-05 0 0 0 2.187252534929801e-05 8.9154526099555827e-06 2.8640572826939688e-05 0 2.8640572826939688e-05 2.9718175366518564e-06 0 0 0 2.9718175366518564e-06 5.8785933390400778e-06 5.9642184368566444e-05 0 5.9642184368566444e-05 1.9595311130133638e-06 0 0 0 1.9595311130133638e-06 -9.6897245446445589e-08 5.0284853005310153e-05 0 5.0284853005310153e-05 -3.2299081815481863e-08 0 0 0 -3.2299081815481863e-08 -5.8190161480398074e-06 5.7659447940476322e-05 0 5.7659447940476322e-05 -1.9396720493466025e-06 0 0 0 -1.9396720493466025e-06 -1.2156325958980683e-05 6.5258196489838727e-05 0 6.5258196489838727e-05 -4.0521086529935656e-06 0 0 0 -4.0521086529935656e-06 -1.7855149608628164e-05 4.4109041229931491e-05 0 4.4109041229931491e-05 -5.9517165362093789e-06 0 0 0 -5.9517165362093789e-06 -4.1101048776930505e-05 8.4407283556244288e-05 0 8.4407283556244288e-05 -1.3700349592310173e-05 0 0 0 -1.3700349592310173e-05 2.5066330224526753e-05 2.1257158797593025e-05 0 2.1257158797593025e-05 8.3554434081755844e-06 0 0 0 8.3554434081755844e-06 -0.00025425185381829015 8.4440157913681126e-05 0 8.4440157913681126e-05 -8.4750617939430053e-05 0 0 0 -8.4750617939430053e-05 -0.014894818410329226 -0.00492440731250609 0 -0.00492440731250609 0.010480279530006562 0 0 0 -0.0011036347200806609 -0.012461088632884563 -0.0049970378158670668 0 -0.0049970378158670668 0.019818252096147661 0 0 0 0.0018392908658157701 -0.02760361917777187 -0.0056840914547499621 0 -0.0056840914547499621 0.017170092147959906 0 0 0 -0.0026083817574529891 -0.0261326661059775 -9.6778039942173322e-05 0 -9.6778039942173322e-05 0.018775400056188454 0 0 0 -0.0018393165124472701 -0.063180267152500011 -0.0036510581434448701 0 -0.0036510581434448701 0.0014327222303336992 0 0 0 -0.015436886230541571 -0.044079968899170922 0.0012899300881805847 0 0.0012899300881805847 0.0004425663704906755 0 0 0 -0.010909350632170065 -0.066825043945513474 -0.0022475131102267856 0 -0.0022475131102267856 -0.00061527420953465641 0 0 0 -0.016860079538762035 -0.045578456613525879 0.00071996164901131526 0 0.00071996164901131526 -0.00037249661295940366 0 0 0 -0.011487738306621321 -0.059835907824988557 0.002337191409466928 0 0.002337191409466928 -0.00031084710365519852 0 0 0 -0.015036688732160932 -0.10443689977152927 -0.0059704154990341488 0 -0.0059704154990341488 -0.00045538453204192753 0 0 0 -0.026223071075892796 0.0011215183433888724 0.0012656824198764001 0 0.0012656824198764001 -0.0080527063604382658 0 0 0 -0.001732797004262348 -0.0011847685877592754 0.0013774571023177987 0 0.0013774571023177987 -0.0069128057756147072 0 0 0 -0.002024393590843495 -0.017691033187236707 0.0038341817560409658 0 0.0038341817560409658 -0.0032996445771415611 0 0 0 -0.0052476694410945671 -0.016316142069817009 -0.0050641464706691714 0 -0.0050641464706691714 -0.0054413328053299912 0 0 0 -0.0054393687187867497 -0.018513663097169591 0.0044368020302288265 0 0.0044368020302288265 -0.0061715616624524617 0 0 0 -0.0061713061899055146 -0.027720637853096173 -0.0086009852302128612 0 -0.0086009852302128612 0.011255681116502908 0 0 0 -0.0041162391841483049 0.082631881223123163 0.055704376346322609 0 0.055704376346322609 0.10428411376299962 0 0 0 0.046728998746530706 -0.0022130506586072185 -0.0077492415371558376 0 -0.0077492415371558376 -0.014489013473077073 0 0 0 -0.0041755160329211005 0.0014268941703150517 0.0062642527662584158 0 0.0062642527662584158 -0.0069778599322902757 0 0 0 -0.001387741440493917 -0.0023177972427379512 0.010071506421897336 0 0.010071506421897336 -0.018211934171533883 0 0 0 -0.0051324328535682362 0.00091061041251760955 -0.0047238622717881195 0 -0.0047238622717881195 -0.005118030259844808 0 0 0 -0.0010518549618317996 -0.005097480624286721 0.017559242338074821 0 0.017559242338074821 -0.0079244157111018065 0 0 0 -0.0032554740838470764 -0.0064772939119069062 -0.016152782616252637 0 -0.016152782616252637 -0.010114797952440191 0 0 0 -0.0041480229660868784 -0.015213586050547843 0.0050050267873192611 0 0.0050050267873192611 -0.0035519714657811629 0 0 0 -0.004691389379082255 0.089809548863189065 -0.0040989477388974002 0 -0.0040989477388974002 0.061597710448502596 0 0 0 0.037851814827922915 -0.13001200099769375 0.0059975973486127432 0 0.0059975973486127432 0.003797386274893122 0 0 0 -0.031553653680700094 -0.069835018832155787 -0.0020766807582556458 0 -0.0020766807582556458 0.0014774821273358385 0 0 0 -0.017089384176204953 -0.045717040578187929 -0.010496790090144965 0 -0.010496790090144965 0.0084377750748137748 0 0 0 -0.0093198163758435454 -0.054016757517463709 0.0072816578233458277 0 0.0072816578233458277 0.031063850070126686 0 0 0 -0.0057382268618342558 -0.057085842761163914 -0.014263045743315061 0 -0.014263045743315061 0.0034289974777924337 0 0 0 -0.013414211320842872 -0.017461007331976659 -0.0073966455502364574 0 -0.0073966455502364574 0.027623668454742536 0 0 0 0.002540665280691471 -0.014876381832137187 -0.019974848688348479 0 -0.019974848688348479 -0.00058026489246393309 0 0 0 -0.0038641616811502244 -0.016666371438876726 0.028147082169480142 0 0.028147082169480142 -0.0039337831309135263 0 0 0 -0.0051500386424476741 -0.014175852655710586 -0.020925061193691863 0 -0.020925061193691863 0.0021670515292797621 0 0 0 -0.003002200281607692 -0.023707995961347872 0.029560439051953047 0 0.029560439051953047 -0.0033853855483370054 0 0 0 -0.006773345377421025 -0.039303159912410186 -0.017803194650643551 0 -0.017803194650643551 0.0010473726436214179 0 0 0 -0.0095639468171971904 -0.0077934449345112983 -0.018324173483733844 0 -0.018324173483733844 0.033419684814156102 0 0 0 0.0064065599699112061 -0.062428713780002365 0.0016268897393593579 0 0.0016268897393593579 0.0072258805827427608 0 0 0 -0.013800708299314901 0.15165716317247802 0.058408337224818717 0 0.058408337224818717 0.033727567759975652 0 0 0 0.046346182733113417 0.00043633390266564764 0.0057396574045008308 0 0.0057396574045008308 -0.015840063387659697 0 0 0 -0.0038509323712485055 3.0447369748193287e-05 -0.0069822634282715942 0 -0.0069822634282715942 -0.010807359264340954 0 0 0 -0.0026942279736481833 -0.014610195671001473 -0.0077665577690285564 0 -0.0077665577690285564 0.040528700853644836 0 0 0 0.0064796262956608374 -0.00040314220103598863 -0.015229560981355306 0 -0.015229560981355306 0.021288969289620097 0 0 0 0.005221456772145916 -0.0062101687819653417 0.0036616776416027452 0 0.0036616776416027452 -0.0024389726977647186 0 0 0 -0.0021622853699321265 -0.0093691381674379532 -0.0037233797768773075 0 -0.0037233797768773075 -0.0075030434045466627 0 0 0 -0.004218045392996154 -0.012443516122489368 0.0054521893212215906 0 0.0054521893212215906 -0.0048921034508707436 0 0 0 -0.0043339048933400265 -0.034321811977212444 0.029536261105916062 0 0.029536261105916062 0.032512514854361255 0 0 0 -0.00045232428071280417 -0.028486372031029203 0.024060557228844676 0 0.024060557228844676 0.02418818172915807 0 0 0 -0.0010745475754676964 0.074033500635310168 0.073457261824293463 0 0.073457261824293463 0.12039238286129228 0 0 0 0.048606470874150626 -0.0093826919423349101 0.0071902008620199354 0 0.0071902008620199354 0.00066681706611748659 0 0 0 -0.0021789687190542431 -0.0091804436825662673 -0.016559094919394335 0 -0.016559094919394335 0.021143455339985066 0 0 0 0.0029907529143547405 -0.012474366124479275 -0.0083006415606344808 0 -0.0083006415606344808 -0.020025355404944212 0 0 0 -0.0081249303823558716 -0.016891209530262012 -0.0076053617716431684 0 -0.0076053617716431684 0.031643267347560289 0 0 0 0.0036880144543245692 -0.013896422168858225 -0.012007164022436182 0 -0.012007164022436182 0.0069940366951737887 0 0 0 -0.001725596368421109 -0.0096904835184385418 -0.0032237722918018394 0 -0.0032237722918018394 0.0056372753910685081 0 0 0 -0.0010133020318425084 -0.070349651724455564 0.010055973136451679 0 0.010055973136451679 -0.00088528810801213886 0 0 0 -0.017808734958116801 -0.0066331833497924042 -0.0045399392714998155 0 -0.0045399392714998155 0.00040962988999759808 0 0 0 -0.0015558883649486877 -0.0038522808593119962 0.019475335199294785 0 0.019475335199294785 0.039312772781702865 0 0 0 0.0088651229805976062 -0.0082333602365182099 -0.015846618945937418 0 -0.015846618945937418 0.03618257748509103 0 0 0 0.0069873043121432346 -0.0021347422608064548 0.0019984150792017323 0 0.0019984150792017323 -0.00028532636698663794 0 0 0 -0.00060501715694849523 -0.013935827893644531 0.00047418483824222812 0 0.00047418483824222812 -0.01058930113671519 0 0 0 -0.006131282257589965 0.011194496547614121 -0.029412241173331605 0 -0.029412241173331605 0.047753599374633325 0 0 0 0.014737023980561844 -0.011303222401071039 -0.00099586596081226164 0 -0.00099586596081226164 -0.0049792186730037713 0 0 0 -0.0040706102685187373 -0.012635576587688144 -0.0049705394386482995 0 -0.0049705394386482995 0.0010448374139920835 0 0 0 -0.0028976847934240185 -0.021022035380707904 -0.017847882260437098 0 -0.017847882260437098 0.0063735443768730971 0 0 0 -0.003662122750958674 -0.041148667037585136 -0.00062764842892072681 0 -0.00062764842892072681 -0.0062458135571680689 0 0 0 -0.0118486201486883 -0.057869214054794005 -0.0017878458022155899 0 -0.0017878458022155899 -0.0086025415961616669 0 0 0 -0.016617938912738918 0.0013693223438295936 0.0020373508366102744 0 0.0020373508366102744 -0.026784408769137284 0 0 0 -0.0063537716063268744 0.0019291851796420789 -0.0032902328854774177 0 -0.0032902328854774177 -0.022249079347448908 0 0 0 -0.0050799735419516656 -0.040733101026122417 -0.0068378936498126371 0 -0.0068378936498126371 -0.010127924380902849 0 0 0 -0.01271525635175632 -0.031919591540539749 0.0030731778113168369 0 0.0030731778113168369 -0.0071911700696107679 0 0 0 -0.0097776904025376303 -0.0037620819598256326 -0.00077923760228710507 0 -0.00077923760228710507 -0.0083305802711049377 0 0 0 -0.0030231655577326426 -0.045060843579627752 0.002618708518565183 0 0.002618708518565183 0.0003329706126444427 0 0 0 -0.011181968241745832 -0.065590847800731336 -0.0060064150188993051 0 -0.0060064150188993051 0.0010831192734264763 0 0 0 -0.016126932131826213 -0.013580228620082777 -0.010298385388017511 0 -0.010298385388017511 -0.00035261207325648636 0 0 0 -0.0034832101733348469 -0.013775045454251053 -0.011769441687331648 0 -0.011769441687331648 0.0069790132138091709 0 0 0 -0.001699008060110474 0.0057317753300374086 0.016853291442963769 0 0.016853291442963769 0.043098958108270302 0 0 0 0.012207683359576976 -0.0047001246108163836 -0.0025721317778879538 0 -0.0025721317778879538 -0.0017311750832786355 0 0 0 -0.0016078249235237513 -0.0137635156447935 -0.010179995769004538 0 -0.010179995769004538 -0.00027550594578523713 0 0 0 -0.0035097553976446705 -0.013221017298025779 -0.0072154541816370626 0 -0.0072154541816370626 -0.0087593226170021576 0 0 0 -0.0054950849787569547 -0.034761255976376138 0.032378276839238856 0 0.032378276839238856 0.0014719503357309982 0 0 0 -0.0083223264101611738 -0.049943668876327223 -0.0030124041806907941 0 -0.0030124041806907941 -0.016656434019502498 0 0 0 -0.016650025723957431 -0.036788513789605723 0.00056711706127140604 0 0.00056711706127140604 -0.012268312439148096 0 0 0 -0.012264206557188453 -0.0083101373125972159 -0.004199791630903834 0 -0.004199791630903834 -0.010347076260931717 0 0 0 -0.0046643033933822338 -0.0079395292127494299 0.021580501373440475 0 0.021580501373440475 -0.014636171068493464 0 0 0 -0.0056439250703107513 -0.0052791811629352425 -0.012824634102892918 0 -0.012824634102892918 -0.0049215322305119491 0 0 0 -0.0025501783483617979 -0.013960130709163059 -0.016582528721542034 0 -0.016582528721542034 0.0042446632299249429 0 0 0 -0.0024288668698095144 -0.0026181283454154991 0.0025092940320478926 0 0.0025092940320478926 -0.0063541220160439841 0 0 0 -0.0022430625903648712 -0.027055074876752881 -0.010902515367145526 0 -0.010902515367145526 -0.0053218605035685543 0 0 0 -0.0080942338450803574 -0.015258138853775777 -0.0081604558079530903 0 -0.0081604558079530903 -0.0041038830081784328 0 0 0 -0.0048405054654885316 -0.00031077555319318322 0.0032984640545147687 0 0.0032984640545147687 -0.0053937508929398966 0 0 0 -0.00142613161153327 -0.0035982353476885372 0.0039081490134519684 0 0.0039081490134519684 -0.0045776807783074851 0 0 0 -0.0020439790314990061 -0.0045296476633461084 0.0033849906813626942 0 0.0033849906813626942 -0.0046164553203602125 0 0 0 -0.0022865257459265802 -0.014546605621122671 -0.0012617300462583886 0 -0.0012617300462583886 0.0012481610850076374 0 0 0 -0.0033246111340287238 -0.010439923987728347 -0.015014321122777959 0 -0.015014321122777959 0.01636901787858791 0 0 0 0.0014822734727148942 -0.010958121788640446 -0.0087422456769965379 0 -0.0087422456769965379 -0.0092261382329437147 0 0 0 -0.005046065005396061 -0.014582944115302528 -0.0079001577142455374 0 -0.0079001577142455374 0.041429625019960219 0 0 0 0.0067116702261644234 -0.0043286890123772626 0.018361212035751029 0 0.018361212035751029 0.065594257203484219 0 0 0 0.015316392047776795 -0.0013232737550125107 -0.0012543870882172348 0 -0.0012543870882172348 -0.00023429509264105697 0 0 0 -0.00038939221191336415 -0.0070393139483572176 -0.0039032452248963199 0 -0.0039032452248963199 -0.0021409416936442049 0 0 0 -0.0022950639105002724 0.002982539252768035 0.011626898629266691 0 0.011626898629266691 0.068028027915355338 0 0 0 0.017752641792030843 -0.0045361042293412222 0.0136430573759392 0 0.0136430573759392 0.053030143080672845 0 0 0 0.012123509712832905 -0.0092819380593435821 0.0045272602505757537 0 0.0045272602505757537 -0.0032657297476512658 0 0 0 -0.0031369169517487098 -0.012117614477209814 0.0042781438805861785 0 0.0042781438805861785 -0.0037328085735952865 0 0 0 -0.0039626057627012764 0.014354204459191555 0.020474391343311138 0 0.020474391343311138 0.014601583070362523 0 0 0 0.007238946882388575 -0.0016648545457473851 0.025005795866718972 0 0.025005795866718972 0.0092646666155173918 0 0 0 0.0018999530174425017 -0.013414095235485535 -0.013950355388216283 0 -0.013950355388216283 0.016048924175611518 0 0 0 0.00065870723503150264 -0.00094350792901029545 -0.0049630896876694253 0 -0.0049630896876694253 -0.033753807934377378 0 0 0 -0.0086743289658469391 -0.00067739218428228276 0.0025405221001242075 0 0.0025405221001242075 -0.030508618482807615 0 0 0 -0.007796502666772509 -0.012933676085620759 0.0079078182571601548 0 0.0079078182571601548 0.034880431909226586 0 0 0 0.0054866889559014621 -0.010687342400734323 0.0059372182034780063 0 0.0059372182034780063 -0.0033639554140911798 0 0 0 -0.0035128244537061537 -0.0043445120047501673 -0.011662460272246045 0 -0.011662460272246045 0.037231311040536008 0 0 0 0.008221699758946488 -0.054143900320804524 0.0021385458319330176 0 0.0021385458319330176 0.00043138392134658282 0 0 0 -0.013428129099864483 -0.089090675175048567 -0.0055097363774477687 0 -0.0055097363774477687 0.00066436716455896272 0 0 0 -0.022106577002622359 -0.0033168323114372567 -0.013539884551973712 0 -0.013539884551973712 0.0065051616384740607 0 0 0 0.00079708233175920101 0.061335102310871387 -0.02764175812614654 0 -0.02764175812614654 0.0227773771408043 0 0 0 0.021028119862918915 -0.0094873904334412118 -0.0089237328624073228 0 -0.0089237328624073228 0.00070343455325638793 0 0 0 -0.0021959889700462198 -0.0098776693503782598 -0.012453973305128513 0 -0.012453973305128513 0.0037959778553663392 0 0 0 -0.0015204228737529801 0.00069720122471832657 -0.005569208562339778 0 -0.005569208562339778 -0.0086485184350305333 0 0 0 -0.0019878293025779683 -0.0021995258110936167 0.0053338697542979485 0 0.0053338697542979485 -0.0070354882237460004 0 0 0 -0.0023087535087100708 0.0012010323685778257 0.0070862408514433817 0 0.0070862408514433817 -0.0097288131410921963 0 0 0 -0.0021319451931287592 -0.0016859651622967407 -0.0039666848419073197 0 -0.0039666848419073197 -0.0055231281020187636 0 0 0 -0.0018022733160790148 -0.027245677495627119 0.01179798118378024 0 0.01179798118378024 0.041390647194603891 0 0 0 0.0035362424247441931 -0.017220662609682358 -0.0098572270286836905 0 -0.0098572270286836905 0.0018505860282314601 0 0 0 -0.0038425191453627106 -0.011741488690358626 -0.0081539348167093129 0 -0.0081539348167093129 8.4204236822163492e-05 0 0 0 -0.0029143211133841199 -0.011832808659209158 -0.0076158954546607094 0 -0.0076158954546607094 -0.0016411360891398739 0 0 0 -0.0033684861870872645 -0.0014169979968097768 -0.016335298228213509 0 -0.016335298228213509 0.0077594101743457822 0 0 0 0.001585603044384043 -0.094172419774000315 0.010296251717881844 0 0.010296251717881844 0.0014808738168049507 0 0 0 -0.023172886489298772 -0.029748714263553563 0.0025661967301540203 0 0.0025661967301540203 0.009557804446942153 0 0 0 -0.0050477274541528561 -0.02304959160770334 -0.0015868596186746006 0 -0.0015868596186746006 0.00879264490467771 0 0 0 -0.0035642366757563937 -0.010582074165696106 0.0027023334033454138 0 0.0027023334033454138 -0.020886949287742707 0 0 0 -0.0078672558633597206 -0.072990563019880217 0.020360592213148454 0 0.020360592213148454 0.00099718023448236437 0 0 0 -0.017998345696349449 -0.047104725234049745 0.0053477319704573339 0 0.0053477319704573339 0.0024118833605882017 0 0 0 -0.011173210468365384 -0.048991644724661568 0.00057444484936643864 0 0.00057444484936643864 0.0023249946463090587 0 0 0 -0.011666662519588103 -0.082628400393919874 -0.0036454128598291599 0 -0.0036454128598291599 0.0052998722398221454 0 0 0 -0.019332132038524422 -0.077271458297686432 -0.014515906215242493 0 -0.014515906215242493 0.0063152832852412799 0 0 0 -0.017739043753111264 -0.015768228439013866 -0.0077618088239436722 0 -0.0077618088239436722 -0.002262077395565866 0 0 0 -0.0045075764586449303 -0.054281240159799266 -0.004331008900923361 0 -0.004331008900923361 0.00092274188787805356 0 0 0 -0.013339624567980296 0.019975377133167493 0.036319109020352291 0 0.036319109020352291 0.011810366482645662 0 0 0 0.007946435903953275 -0.019717729911999146 -0.0065127247257041991 0 -0.0065127247257041991 0.029515364200134744 0 0 0 0.0024494085720338978 0.00042588475885172762 0.0098100145631285392 0 0.0098100145631285392 0.0096867892710574693 0 0 0 0.0025281685074772988 -0.022885367765456022 0.021552261789409832 0 0.021552261789409832 -0.0042009676935248486 0 0 0 -0.0067715838647451898 -0.012756525998939283 -0.02121104767036347 0 -0.02121104767036347 0.0032575898052538133 0 0 0 -0.0023747340484213675 -0.010208361186611548 -0.013933549669022306 0 -0.013933549669022306 0.017117665408833509 0 0 0 0.0017273260555554881 -0.0036201626481267846 0.0023314607776863394 0 0.0023314607776863394 -0.02017181686788494 0 0 0 -0.005947994879002938 -0.01338958339209817 -0.009134899228744553 0 -0.009134899228744553 -0.004193460407108579 0 0 0 -0.0043957609498017081 -0.014675448499450551 -0.0064214597756886791 0 -0.0064214597756886791 -0.008961099120138212 0 0 0 -0.0059091369048971908 -0.016346193664677159 0.0058835805654722257 0 0.0058835805654722257 -0.0054035743744086737 0 0 0 -0.0054374420097714595 -0.011500451649994688 -0.017785300505504975 0 -0.017785300505504975 0.0098074724258468485 0 0 0 -0.00042324480603700074 -0.028252752920338409 -0.015528152032078461 0 -0.015528152032078461 -0.0037654824049061057 0 0 0 -0.0080045588313111243 -0.040447040206704088 -0.0097647927960695657 0 -0.0097647927960695657 0.01198431256986715 0 0 0 -0.007115681909209276 -0.0042743407900599599 -0.0013540491791327607 0 -0.0013540491791327607 -0.0088448208250178489 0 0 0 -0.0032797904037694526 -0.003082355019465177 0.00017663624403331719 0 0.00017663624403331719 -0.0064600781196218213 0 0 0 -0.0023856082847717496 -0.0088004839588995132 0.0038997453136734184 0 0.0038997453136734184 -0.0043387685454306995 0 0 0 -0.0032848131260825525 -0.0090171559567382761 0.0046057564054382792 0 0.0046057564054382792 -0.0047248644833107097 0 0 0 -0.0034355051100122464 -0.033257736921820012 -0.013954520579058612 0 -0.013954520579058612 0.011247981580703725 0 0 0 -0.0055024388352790596 -0.0044262721006005784 0.0085253755587481796 0 0.0085253755587481796 0.0086302206044535021 0 0 0 0.0010509871259632327 -0.00034932035778020327 -0.00232838323583679 0 -0.00232838323583679 -0.0083776459120118666 0 0 0 -0.002181741567448017 -0.014639325135519009 -0.014084767002407286 0 -0.014084767002407286 -0.0049004315904375498 0 0 0 -0.0048849391814891436 -0.0062643781806251443 0.010528980209237003 0 0.010528980209237003 0.028101638196823191 0 0 0 0.005459315004049517 -0.016477225651130332 0.0021321907987600576 0 0.0021321907987600576 0.00077658340289857644 0 0 0 -0.0039251605620579354 -0.015034076374578211 0.0029624565288858149 0 0.0029624565288858149 0.0030014324598919215 0 0 0 -0.0030081609786715719 -0.049936337521696635 -0.0030186836060268289 0 -0.0030186836060268289 -0.01663277388847622 0 0 0 -0.016642277852543214 -0.036783950029825867 0.00057186867860067154 0 0.00057186867860067154 -0.012253368475771602 0 0 0 -0.012259329626399368 0.059965214628264006 0.017548195507326725 0 0.017548195507326725 0.017740677043882498 0 0 0 0.01942647291803664 -0.009313311524906125 0.0039073370863448118 0 0.0039073370863448118 1.5964035914455693e-05 0 0 0 -0.0023243368722479195 -0.024294769705060899 -0.0053668691729088815 0 -0.0053668691729088815 0.031997755259126542 0 0 0 0.0019257463885164125 -0.0076018391640903377 0.00032854873680160379 0 0.00032854873680160379 -0.029414039399239922 0 0 0 -0.0092539696408325683 -0.049896158829501797 0.0028972751983927323 0 0.0028972751983927323 0.00073530277747228118 0 0 0 -0.012290214013007388 -0.080462341384475583 -0.006207682987051797 0 -0.006207682987051797 0.00081070065930026469 0 0 0 -0.019912910181293833 -0.014789534101096881 -0.0072790633243947633 0 -0.0072790633243947633 -0.0075049136444209352 0 0 0 -0.0055736119363794454 -0.043908534037240161 0.0059591272432127692 0 0.0059591272432127692 0.00032004586614133083 0 0 0 -0.010897122042774699 -0.055002058048008381 -0.01884488916909767 0 -0.01884488916909767 -0.0018001534414069653 0 0 0 -0.014200552872353823 -0.046009209949974532 0.0040605072102486255 0 0.0040605072102486255 -0.00040240203415461279 0 0 0 -0.011602902996032297 -0.023840050673785095 0.00420778372999341 0 0.00420778372999341 -0.0017102801478536532 0 0 0 -0.0063875827054096874 -0.017885833647721901 -0.0086163518126594896 0 -0.0086163518126594896 -0.0062662684977336019 0 0 0 -0.0060380255363638776 -0.036011582686129383 -0.016115229332678331 0 -0.016115229332678331 0.003868806451714113 0 0 0 -0.0080356940586038192 -0.018149509548344933 -0.0073911593096439715 0 -0.0073911593096439715 0.00030417145909772403 0 0 0 -0.0044613345223118162 -0.0088249053435061064 0.028047128731931381 0 0.028047128731931381 0.0026332954481254056 0 0 0 -0.0015479024738451752 -0.016901584896761301 -0.013320279456948358 0 -0.013320279456948358 -0.0043966003221149741 0 0 0 -0.0053245463047191244 -0.0057207532053491624 -0.0015456654844370763 0 -0.0015456654844370763 -0.0059558240345721474 0 0 0 -0.0029191443099803272 -0.011806337971287394 0.0038712805301603552 0 0.0038712805301603552 -0.0043810714461454854 0 0 0 -0.0040468523543582217 -0.021291689879357791 -0.0081859712257556679 0 -0.0081859712257556679 -0.0097092208262555407 0 0 0 -0.0077502276764033337 -0.020663306791740423 0.0058908114618288019 0 0.0058908114618288019 -0.0061351878352581424 0 0 0 -0.0066996236567496391 -0.022825323941083248 -0.0060127002770762709 0 -0.0060127002770762709 0.0081944970278149676 0 0 0 -0.0036577067283170631 -0.024298881273564076 -0.011282963243226765 0 -0.011282963243226765 0.0097672447271835855 0 0 0 -0.0036329091365951138 -0.027365445930541132 0.030683939204860143 0 0.030683939204860143 0.0088388882726142537 0 0 0 -0.0046316394144816919 0.0016778852731765825 0.042097858574177804 0 0.042097858574177804 0.023774948507488736 0 0 0 0.0063632084451663018 0.036317333409610929 -0.00049886752668141382 0 -0.00049886752668141382 0.023083403557107862 0 0 0 0.014850184241679699 -0.025593665300932829 -0.0030722295385415717 0 -0.0030722295385415717 0.026987061309492424 0 0 0 0.00034834900213990411 -0.0019448444718929937 0.0022612939137100843 0 0.0022612939137100843 -0.0067881804319759615 0 0 0 -0.002183256225967239 -0.017119466267068104 -0.010191327516679172 0 -0.010191327516679172 0.00062815704349866719 0 0 0 -0.0041228273058923764 -0.032780078196259888 0.028394034205393659 0 0.028394034205393659 -2.8520908351037377e-05 0 0 0 -0.0082021497761526896 -0.0096166804453245158 -0.0031088600209530221 0 -0.0031088600209530221 0.014981458623012811 0 0 0 0.0013411945444220807 -0.01031574452939845 -0.0065933363031764614 0 -0.0065933363031764614 -0.012750529473259942 0 0 0 -0.0057665685006645859 -0.014044436731724862 0.0039698400063779612 0 0.0039698400063779612 -0.0027265269980083703 0 0 0 -0.0041927409324333071 -0.03923675640034005 0.0027465495258272854 0 0.0027465495258272854 0.025107836632587976 0 0 0 -0.0035322299419379977 -0.048588790118267791 0.0013226558822076117 0 0.0013226558822076117 -0.0010511933575978634 0 0 0 -0.012409995868966418 -0.07435330988900006 -0.0028377177265960676 0 -0.0028377177265960676 -0.002125729909273899 0 0 0 -0.019119759949568497 -0.010322582507944891 -0.0085132896683836994 0 -0.0085132896683836994 0.0018132047226210313 0 0 0 -0.0021273444463309615 -0.026406055126174961 0.003768327055547493 0 0.003768327055547493 -0.0046951060119757373 0 0 0 -0.0077752902845376762 -0.027621132212498359 -0.0064935010927129715 0 -0.0064935010927129715 -0.0093804013089979002 0 0 0 -0.0092503833803740613 -0.10442808388840391 -0.00050691819642439961 0 -0.00050691819642439961 0.0027534976059889194 0 0 0 -0.025418646570603776 -0.058311675157184641 0.00037591782752481595 0 0.00037591782752481595 0.00081498538410659793 0 0 0 -0.014374172443269502 0.014743582453425205 0.010311839908075687 0 0.010311839908075687 0.057381470834830625 0 0 0 0.018031263322063965 0.046995978347513859 -0.0014442361557478051 0 -0.0014442361557478051 0.14694589651079976 0 0 0 0.0484854687145784 -0.014435134116320608 -0.01788588460189916 0 -0.01788588460189916 0.011234068339938896 0 0 0 -0.00080026644409540715 -0.023318600755926289 -0.015299360053118743 0 -0.015299360053118743 0.0091270213325483351 0 0 0 -0.0035478948558444745 -0.0077558389491866591 -0.016100239353018127 0 -0.016100239353018127 0.027408318988739404 0 0 0 0.0049131200098881823 -0.0018586160308787236 -0.00043369652942737424 0 -0.00043369652942737424 -0.029191473983303684 0 0 0 -0.0077625225035456019 -0.0039152697170981039 -0.00070061890919983095 0 -0.00070061890919983095 -0.0089621875173097783 0 0 0 -0.0032193643086019705 -0.034785365578572397 -0.00054972796061607265 0 -0.00054972796061607265 0.0060802379449891586 0 0 0 -0.0071762819083957818 0.0011208524402290809 -0.002701909823847784 0 -0.002701909823847784 -0.029996489635785051 0 0 0 -0.0072189092988890202 -0.091347591744581999 0.0077840574475933344 0 0.0077840574475933344 0.00054580970116522437 0 0 0 -0.022700445510854136 -0.018751334066299918 0.021558356679816759 0 0.021558356679816759 -0.0062354611092376722 0 0 0 -0.0062466987938845087 -0.011737517189993163 -0.020188625983305952 0 -0.020188625983305952 -4.4200763508861485e-05 0 0 0 -0.0029454294883755061 -0.0086704601887071294 0.0039629476128889285 0 0.0039629476128889285 0.00744747378284561 0 0 0 -0.00030574660146538398 -0.028837009584914239 -0.0091003607731384925 0 -0.0091003607731384925 0.0084539801281694471 0 0 0 -0.0050957573641861875 -4.0043881656372932e-05 0.0058369107322075297 0 0.0058369107322075297 -0.0016326058499859589 0 0 0 -0.00041816243291058208 0.0024016182906675589 0.007905162873521842 0 0.007905162873521842 0.0024636103827243641 0 0 0 0.0012163071683479829 -0.037802744946940484 -0.014167259296382604 0 -0.014167259296382604 -0.0027630248467204049 0 0 0 -0.010141442448415219 -0.02199759450099395 -0.016342728463377032 0 -0.016342728463377032 0.0025471751459384961 0 0 0 -0.0048626048387638843 -0.061437548752103326 -0.011121614448469729 0 -0.011121614448469729 -0.0042060157962752155 0 0 0 -0.016410891137094614 -0.016820353593826831 0.031784259976954998 0 0.031784259976954998 0.00075329575839200302 0 0 0 -0.0040167644588587903 -0.018443295447947407 0.029810297831207033 0 0.029810297831207033 0.00054477800435942525 0 0 0 -0.0044746293608969104 -0.019280617916030085 0.03095086629739896 0 0.03095086629739896 5.9860703731651199e-05 0 0 0 -0.0048051893030744974 -0.018127384305927918 -0.019226660641528615 0 -0.019226660641528615 0.0025758798832221652 0 0 0 -0.0038878761056764799 -0.021252738641735741 -0.016825933175330765 0 -0.016825933175330765 0.0014144791143601218 0 0 0 -0.0049595648818438771 0.038236941419330928 0.020901454941658258 0 0.020901454941658258 0.029941762952491652 0 0 0 0.017044676092955652 -0.0052752340405225612 -0.0014045842480894578 0 -0.0014045842480894578 -0.0017630416548469845 0 0 0 -0.0017595689238423865 -0.0097740614197040377 0.0041193855277771446 0 0.0041193855277771446 -0.003259507310693749 0 0 0 -0.0032583921825994461 -0.0078591501226951757 0.0045385732083644105 0 0.0045385732083644105 0.0010715108779805766 0 0 0 -0.0016969098111786476 0.0014502994336083735 -0.0076431689972074959 0 -0.0076431689972074959 0.04099024981583535 0 0 0 0.010610137312360934 -0.046744325578516585 -0.016588783620697451 0 -0.016588783620697451 -0.00236087643917441 0 0 0 -0.012276300504422752 -0.0049388287018276829 0.002166922404708465 0 0.002166922404708465 -0.0046311276934655633 0 0 0 -0.0023924890988233118 -0.07553506287625085 -0.0041520180297999199 0 -0.0041520180297999199 -0.0025038073889287198 0 0 0 -0.019509717566294882 -0.0486143378054067 0.0018084529094376496 0 0.0018084529094376496 -0.00097261815739277217 0 0 0 -0.01239673899069987 -0.052755906400960201 -0.0031056737007140317 0 -0.0031056737007140317 0.00072576444129890394 0 0 0 -0.013007535489915345 -0.0064095512639306285 0.0040243327986980984 0 0.0040243327986980984 -0.0043269142072701657 0 0 0 -0.002684116367800199 -0.014039365336386191 -0.0041361553913336901 0 -0.0041361553913336901 0.0069827036253370528 0 0 0 -0.0017641654277622786 -0.010435965795220043 0.0077661407069491376 0 0.0077661407069491376 0.01924121309691363 0 0 0 0.0022013118254233972 0.0011310210772364979 0.028289582628730214 0 0.028289582628730214 0.0050287420765099816 0 0 0 0.0015399407884365487 -0.0008659585074311661 0.001966336680057381 0 0.001966336680057381 -0.0068205237655156424 0 0 0 -0.0019216205682367022 -0.014772379622289833 0.020660177693249793 0 0.020660177693249793 -0.013200712139375348 0 0 0 -0.0069932729404165173 -0.010416851730101317 -0.02025113292444719 0 -0.02025113292444719 -0.0061315337326939279 0 0 0 -0.0041370963656989224 -0.0063308248257521226 0.0041863865479493667 0 0.0041863865479493667 -0.0042787401403051612 0 0 0 -0.0026523912415143194 -0.018046129915099404 0.0035847441780942043 0 0.0035847441780942043 0.025589778174196262 0 0 0 0.0018859120647742159 -0.0032729166611593641 0.018690714040979661 0 0.018690714040979661 -0.0094235231867383362 0 0 0 -0.0031741099619744251 -0.0054564974008869394 0.01328480280619071 0 0.01328480280619071 -0.015717373022986258 0 0 0 -0.0052934676059684937 -0.0041310497758118014 -0.0095642001405806393 0 -0.0095642001405806393 -0.011190434292645879 0 0 0 -0.0038303710171145866 -0.0032003431073404642 -0.014647636373066653 0 -0.014647636373066653 -0.0074748874036292268 0 0 0 -0.0026688076277424644 -0.057403717197983525 -0.0047041611301571334 0 -0.0047041611301571334 0.012436033389909312 0 0 0 -0.011241920952018564 -0.038488768731902018 -0.0082880302571340103 0 -0.0082880302571340103 0.0042953194043363341 0 0 0 -0.0085483623318914348 -0.046163170952251822 -0.0087625212855501622 0 -0.0087625212855501622 0.0048847778746023418 0 0 0 -0.010319598269412353 -0.076156116128738904 0.02107318104418926 0 0.02107318104418926 0.011535756352766713 0 0 0 -0.016155089943993062 -0.059239310355870101 0.019980804597845056 0 0.019980804597845056 0.010231663317997186 0 0 0 -0.012251911759468243 -0.012847470630446532 0.0036726906158140679 0 0.0036726906158140679 -0.0045941643412813673 0 0 0 -0.0043604087429319751 0.065190015950377656 0.018297335488838981 0 0.018297335488838981 0.014412838912059689 0 0 0 0.019900713715609364 -0.039613588063470165 -0.0070794068949132103 0 -0.0070794068949132103 -0.00983881022165543 0 0 0 -0.012363099571281401 -0.032131134908670943 0.0033022441618946203 0 0.0033022441618946203 -0.0057254739843705443 0 0 0 -0.0094641522232603737 -0.02242216703625401 -0.0058011547077336002 0 -0.0058011547077336002 0.019584501139789046 0 0 0 -0.00070941647411624023 -0.022186364411285783 0.005044830034227803 0 0.005044830034227803 -0.0037525830012877692 0 0 0 -0.006484736853143388 -0.020108285681616149 -0.0087860355674003483 0 -0.0087860355674003483 -0.010796023245798841 0 0 0 -0.0077260772318537502 -0.063338375542520822 -0.014290751881586284 0 -0.014290751881586284 0.00033228116137978825 0 0 0 -0.015751523595285269 -0.06360273338786876 -0.013928332309162031 0 -0.013928332309162031 -0.00088003292853097714 0 0 0 -0.016120691579099938 -0.0077841172445436424 0.026669158589507524 0 0.026669158589507524 0.0023618495668431549 0 0 0 -0.0013555669194249553 -0.0074613189087313625 -0.011312514376280558 0 -0.011312514376280558 -0.00060148114235136774 0 0 0 -0.0020157000127707381 -0.00020195766795615223 -0.0030506039747503211 0 -0.0030506039747503211 -0.028647776030003447 0 0 0 -0.0072124334244898928 0.00015194717779506983 0.0023851092447547684 0 0.0023851092447547684 -0.030440944838230788 0 0 0 -0.0075722494151088948 -0.022112560848856558 0.0035235099032925473 0 0.0035235099032925473 0.00070792558194903842 0 0 0 -0.0053511588167268771 0.0007829371749755315 -0.0024416655146866362 0 -0.0024416655146866362 0.033673031367498718 0 0 0 0.008613992135618545 0.0055523768734778434 -0.0024283431184754789 0 -0.0024283431184754789 0.05773295699233677 0 0 0 0.015821333466453674 -0.012919999583969163 -0.0099086733936772642 0 -0.0099086733936772642 -0.01257735632252456 0 0 0 -0.0063743389766234525 -0.044620692105352265 -0.0022542563565317343 0 -0.0022542563565317343 0.0047203290552130794 0 0 0 -0.0099750907625347773 -0.00046590247326183665 0.00059502105852665688 0 0.00059502105852665688 -0.031339952840643226 0 0 0 -0.0079514638284763073 -0.063164932247291014 -0.01982720298867565 0 -0.01982720298867565 0.0033885442361950568 0 0 0 -0.014944097002774 -0.0091537608167283381 0.0040562519966973846 0 0.0040562519966973846 0.0053311685250564469 0 0 0 -0.00095564807291797279 -0.026512881556935569 -0.012491275172015356 0 -0.012491275172015356 0.01296497514296796 0 0 0 -0.0033869766034919091 -0.023998317862184787 -0.010080337282903043 0 -0.010080337282903043 0.011972943313262652 0 0 0 -0.0030063436372305685 -0.023366915880350211 0.0055729912050661206 0 0.0055729912050661206 -0.00062225519057684993 0 0 0 -0.0059972927677317597 -0.036849570290836672 -0.0057911753365229163 0 -0.0057911753365229163 0.007112584533045474 0 0 0 -0.0074342464394478169 -0.027069064693043043 0.0040079547774735051 0 0.0040079547774735051 -0.00038733966793959773 0 0 0 -0.0068641010902456643 -0.016944654907147617 -0.0097556507260467881 0 -0.0097556507260467881 -0.010043802250956621 0 0 0 -0.0067471142895260631 -0.047071703592094574 -0.0019920780363134327 0 -0.0019920780363134327 0.0054186400442344795 0 0 0 -0.01041326588696502 -0.081513615365834097 0.0036833248486192738 0 0.0036833248486192738 0.018675444512377376 0 0 0 -0.015709542713364166 -0.04012764008930407 -0.0077279209846176063 0 -0.0077279209846176063 -0.0088482548663616472 0 0 0 -0.01224397373891643 -0.031512499488410187 0.0038581630700823899 0 0.0038581630700823899 -0.0064495806514392774 0 0 0 -0.0094905200349623669 -0.02858659778797696 0.0059969581119987091 0 0.0059969581119987091 -0.0016440516300150912 0 0 0 -0.0075576623544980123 -0.031422484912519227 -0.013535182126918297 0 -0.013535182126918297 -0.0078594622176209172 0 0 0 -0.0098204867825350366 -0.0087753240297917916 -0.0036326151646204627 0 -0.0036326151646204627 -0.0098551122337248755 0 0 0 -0.004657609065879165 0.0018533868191547773 -0.017494933096504448 0 -0.017494933096504448 0.023565669428892669 0 0 0 0.0063547640620118459 0.001245653232248439 0.0035368537452514842 0 0.0035368537452514842 -0.0062585170663500347 0 0 0 -0.0012532159585253986 -0.009076330900874785 0.017091894835646437 0 0.017091894835646437 -0.0040810897327521189 0 0 0 -0.0032893551584067815 -0.0086912979521280853 -0.020654069114496909 0 -0.020654069114496909 0.00084666581184489331 0 0 0 -0.001961158035070909 -0.027386243883019683 0.0054509227057640691 0 0.0054509227057640691 -0.0027529929552472252 0 0 0 -0.0075348092095667268 -0.027543003210876167 -0.011091531109321566 0 -0.011091531109321566 -0.0099752788855805557 0 0 0 -0.0093795705241141846 -0.0019541119251535897 0.0047556560811190703 0 0.0047556560811190703 -0.0030538478389551781 0 0 0 -0.0012519899410271922 -0.011483608973565637 -0.013432383244834334 0 -0.013432383244834334 0.017522720045468232 0 0 0 0.0015097777679756591 -0.05996029690504312 0.0093321156481970501 0 0.0093321156481970501 -0.00048088653730804509 0 0 0 -0.015110295860587875 0.0055630323991510966 -0.0096057186964977892 0 -0.0096057186964977892 0.020578153419664291 0 0 0 0.0065352964547038539 -0.025715218249797334 -0.01751542612266721 0 -0.01751542612266721 0.0031643302403776552 0 0 0 -0.0056377220023549057 -0.022069260208872874 -0.0040576036898583249 0 -0.0040576036898583249 0.028736671194888638 0 0 0 0.0016668527465039402 -0.06314304745158289 -0.0089417946370022681 0 -0.0089417946370022681 -0.0017420663883080823 0 0 0 -0.01622127845997275 -0.042939200766312378 0.0033794368355655625 0 0.0033794368355655625 -0.00063178512971262882 0 0 0 -0.010892746474006249 0.008452662735357247 0.003609194282258072 0 0.003609194282258072 -0.0013054998097863021 0 0 0 0.0017867907313927345 -0.0044987040439730622 0.0037574273902351825 0 0.0037574273902351825 -0.0047769144974375132 0 0 0 -0.0023189046353526443 -0.022976296740383165 -0.011243554981522977 0 -0.011243554981522977 0.0072496301851726896 0 0 0 -0.0039316666388026084 -0.064205741478730052 -0.010086417234899489 0 -0.010086417234899489 -0.00077533159246771701 0 0 0 -0.016245268267799436 -0.044049369200847406 0.004287867212856112 0 0.004287867212856112 -0.0002214141427532082 0 0 0 -0.011067695835900152 -0.010853996600393483 0.0058162823188401408 0 0.0058162823188401408 0.02886628591183947 0 0 0 0.0045030723278614926 -0.015427111892026057 -0.018297777686986844 0 -0.018297777686986844 -0.00072350215391425721 0 0 0 -0.0040376535114851064 -0.016658041884273889 0.029785178100116744 0 0.029785178100116744 -0.0024001445594006299 0 0 0 -0.0047645466109185186 -0.04094730610262836 0.003802884184729162 0 0.003802884184729162 0.0043403083774832714 0 0 0 -0.0091517494312862643 -0.03370843615806552 0.00026172186410625131 0 0.00026172186410625131 0.0048528993860177888 0 0 0 -0.0072138841930119296 -0.0086700021151612308 -0.0040098304548462464 0 -0.0040098304548462464 0.0095221746300771827 0 0 0 0.00021304312872898884 -0.011446433503315151 -0.003892766135025285 0 -0.003892766135025285 0.013369582564320064 0 0 0 0.00048078726525122191 -0.015685566033992817 -0.0063308551350023659 0 -0.0063308551350023659 -0.010506191286639108 0 0 0 -0.00654793933015798 -0.014023646512015809 -0.0042870909500807696 0 -0.0042870909500807696 -0.0090267972877758808 0 0 0 -0.0057626109499479237 -0.019035309531294512 0.0037949487992314929 0 0.0037949487992314929 -0.0049811858046154376 0 0 0 -0.0060041238339774887 -0.018678176512404797 0.0052444255152468327 0 0.0052444255152468327 -0.0047677853950557313 0 0 0 -0.0058614904768651312 -0.014294556911279177 -0.0047104468010335798 0 -0.0047104468010335798 -0.0027709258740677423 0 0 0 -0.0042663706963367298 -0.015831091033465108 0.0022510313839031685 0 0.0022510313839031685 0.031618870509914881 0 0 0 0.003946944869112446 0.0039769452700166071 0.0052262680824549414 0 0.0052262680824549414 -0.0018247690070991203 0 0 0 0.00053804406572937127 -0.0086622976852386291 0.030002575582742046 0 0.030002575582742046 0.00096469342425331561 0 0 0 -0.0019244010652464949 -0.023367720109965184 -0.016985536783083587 0 -0.016985536783083587 -0.00039543471642056183 0 0 0 -0.0059407887065964227 -0.0036878601398357969 0.032538158569079378 0 0.032538158569079378 0.0027128751061482603 0 0 0 -0.00024374625842193964 0.0062162821235816363 -0.005368129178183547 0 -0.005368129178183547 -0.0033274193629985876 0 0 0 0.00072221569014576693 0.0098920723101756265 -0.00041738764140771684 0 -0.00041738764140771684 0.0025572143559862356 0 0 0 0.0031123216665404664 -0.030587872067565136 0.029807768180871552 0 0.029807768180871552 0.0020362030814247145 0 0 0 -0.0071379172465350638 -0.018117533982952072 0.033713581523973635 0 0.033713581523973635 0.0026210705985099114 0 0 0 -0.0038741158461105818 -0.045025803295057995 -0.0065653961424531494 0 -0.0065653961424531494 -0.0054110373332892482 0 0 0 -0.012609210157086811 -0.035026949835587823 0.002729252310673677 0 0.002729252310673677 -0.0036976465405099673 0 0 0 -0.0096811490940244462 -0.01049179742961584 -0.014334172116794983 0 -0.014334172116794983 0.0094470941551025867 0 0 0 -0.00026117581862830641 0.0057022775991718011 -0.001329077131607624 0 -0.001329077131607624 0.031510862210333612 0 0 0 0.0093032849523763395 0.0076303861738502843 -0.0021176108485088108 0 -0.0021176108485088108 0.058178532438944996 0 0 0 0.016452229653198813 -0.015655587397892981 0.0032249992419529725 0 0.0032249992419529725 0.018586458218403681 0 0 0 0.00073271770512767752 0.0068965670501000241 0.0077453976693374104 0 0.0077453976693374104 0.00042458112035576034 0 0 0 0.001830287042613947 -0.005466120354459203 -0.0029246619603324059 0 -0.0029246619603324059 -0.020672156354325733 0 0 0 -0.00653456917719622 -0.010741399272757302 -0.0029189347597000231 0 -0.0029189347597000231 -0.022023655174223333 0 0 0 -0.0081912636117451587 -0.014822488405468501 -0.0074163389741016411 0 -0.0074163389741016411 -0.0026573532220193763 0 0 0 -0.0043699604068719589 -0.016821678775578469 0.012801321119221276 0 0.012801321119221276 -0.0063841550270147263 0 0 0 -0.0058014584506483613 -0.0087353595782316273 -0.02068468813358848 0 -0.02068468813358848 0.00047716485627041783 0 0 0 -0.0020645486804903856 -0.0027791596505285787 0.0060274109783192004 0 0.0060274109783192004 -0.016923248584544359 0 0 0 -0.0049256020587682137 -0.0030260895702484136 -0.0099963640576296031 0 -0.0099963640576296031 -0.011947289014171525 0 0 0 -0.0037433446461050124 -0.01037517199032989 0.027340377112807124 0 0.027340377112807124 -0.0079292796665273446 0 0 0 -0.0045761129142142254 -0.011636967554768646 -0.01465883949910074 0 -0.01465883949910074 -0.0081695330336918337 0 0 0 -0.0049516251471151962 -0.0027708223616453812 0.0034667921509090589 0 0.0034667921509090589 -0.0055406169256104164 0 0 0 -0.0020778598218139498 -7.7384091724395226e-05 0.0048531965314394902 0 0.0048531965314394902 -0.0035221000371406866 0 0 0 -0.00089987103221627306 -0.011142684207039011 0.029105959418142091 0 0.029105959418142091 0.0018136151896821495 0 0 0 -0.0023322672543391043 -0.013613211972507977 -0.015152700303162403 0 -0.015152700303162403 -7.0439559861634748e-05 0 0 0 -0.0034209128830924307 -0.032710314649612521 -0.0081261667314417585 0 -0.0081261667314417585 -0.0091224833378537422 0 0 0 -0.010458199496866567 -0.028068734789754086 0.0044266889575470311 0 0.0044266889575470311 -0.0057550806724223687 0 0 0 -0.0084559538655441142 0.008063679598872775 0.029825321358820045 0 0.029825321358820045 0.010360161978989701 0 0 0 0.0046059603944655358 -0.053801900052025967 -0.0049726203122705068 0 -0.0049726203122705068 -0.0089118051150223164 0 0 0 -0.015678426291762068 -0.039429448520573868 0.0015229394302201031 0 0.0015229394302201031 -0.0058218516047865276 0 0 0 -0.011312825031340099 -0.025778879683346689 0.0098985560240376635 0 0.0098985560240376635 -0.0045961989414373683 0 0 0 -0.0075937696561959589 -0.0027968392877014692 -0.012731222552972599 0 -0.012731222552972599 0.023538780506842993 0 0 0 0.0051854853047853533 -0.014876268544817599 -0.010713822960267488 0 -0.010713822960267488 0.035886103892447993 0 0 0 0.0052524588369075934 -0.033355958968217012 -0.007420910793287161 0 -0.007420910793287161 0.033872846877071483 0 0 0 0.00012922197721361439 -0.024609596641532672 -0.014491769767583139 0 -0.014491769767583139 0.0050450551488414597 0 0 0 -0.0048911353731728169 -0.0068126647308453803 -0.0099919785313246634 0 -0.0099919785313246634 0.002464980654368315 0 0 0 -0.0010869210191192802 -0.028018889357586896 0.032782350842404384 0 0.032782350842404384 0.0090029656363260768 0 0 0 -0.0047539809303151492 -0.055604608857392046 0.016283018074680106 0 0.016283018074680106 0.012391357395372671 0 0 0 -0.010803312865504844 -0.036676612351469809 -0.0067105370391147556 0 -0.0067105370391147556 0.0052851260404511158 0 0 0 -0.0078478715777546559 0.0051712244745156233 -0.021947143874289018 0 -0.021947143874289018 0.017535473155434578 0 0 0 0.0056766744074875364 -0.0083028101907013305 0.0019109036707033733 0 0.0019109036707033733 0.011173930904913448 0 0 0 0.0007177801785530416 -0.008892675045007209 -0.0081608815041296356 0 -0.0081608815041296356 0.01963873695250129 0 0 0 0.0026865154768735133 -0.019335712002439994 -0.0068431368566486649 0 -0.0068431368566486649 0.022906412401047613 0 0 0 0.00089267509965190034 -0.020114227682954219 -0.0064383903113361257 0 -0.0064383903113361257 0.020644603218193003 0 0 0 0.00013259388380969239 -0.004217741701486203 0.013191318455444329 0 0.013191318455444329 0.042664612082143824 0 0 0 0.0096117175951644131 0.000303622245274901 -0.010520014070631051 0 -0.010520014070631051 0.02227595660973436 0 0 0 0.0056448947137523325 -0.0062461110914766582 0.025763652410051852 0 0.025763652410051852 0.0048334297487286904 0 0 0 -0.00035317033568738054 -0.011898456693345105 -0.0090275097670782234 0 -0.0090275097670782234 -0.0047176218377580348 0 0 0 -0.0041540196327758405 -0.012225000896319668 0.0087405128226023497 0 0.0087405128226023497 0.025324700986527018 0 0 0 0.0032749250225518368 -0.014703870870400348 -0.0045872760534890478 0 -0.0045872760534890478 0.0037064397482645395 0 0 0 -0.0027493577805339561 -0.012074545784337573 -0.0054320313390083252 0 -0.0054320313390083252 -0.016840436964650263 0 0 0 -0.0072287456872469485 -0.0030196602576219658 0.01155930023710898 0 0.01155930023710898 0.015865368551123946 0 0 0 0.003211427073375489 -0.0051618412297121065 -0.0018686110752849799 0 -0.0018686110752849799 -0.0099168790281173279 0 0 0 -0.0037696800644573584 -0.058575072266417144 -0.0044377049160997739 0 -0.0044377049160997739 0.00094584994440938264 0 0 0 -0.014407305580501933 -0.016709083336510326 -0.0063717215853485295 0 -0.0063717215853485295 -0.010346302226798066 0 0 0 -0.006763846390827096 0.0026777059532657171 0.0055315280914666398 0 0.0055315280914666398 -0.0024038003961811341 0 0 0 6.8476389271147908e-05 -0.011436705883356411 0.0075599317536058147 0 0.0075599317536058147 0.037714608950299822 0 0 0 0.0065694757667358501 -0.10216684857854708 0.0096317941670613725 0 0.0096317941670613725 0.0015237161724439563 0 0 0 -0.025160783101525808 -0.0056310330975712771 0.0035478831888439938 0 0.0035478831888439938 -0.0048763407046636962 0 0 0 -0.0026268434505587438 0.0019406286032441575 -0.00040704098996485749 0 -0.00040704098996485749 -0.0060806738831529483 0 0 0 -0.0010350113199771981 -0.01932358364874787 -0.010516279821137356 0 -0.010516279821137356 0.0042347111564740442 0 0 0 -0.0037722181230684694 -0.030484215906186579 -0.013405136941949169 0 -0.013405136941949169 0.00088541189046442703 0 0 0 -0.0073997010039306421 -0.0085505499004187475 -0.0067988357943241104 0 -0.0067988357943241104 -0.010056235627071995 0 0 0 -0.004651696381872684 -0.0025944694301322509 0.0026226136558930814 0 0.0026226136558930814 -0.0054453445033098152 0 0 0 -0.0020099534833605171 -0.000130145114963706 -0.0036472880327610424 0 -0.0036472880327610424 -0.0044098150429034543 0 0 0 -0.001134990039466789 -0.019793050053523768 -0.011504088553067636 0 -0.011504088553067636 0.0078587204611531847 0 0 0 -0.0029835823980926476 -0.010024530038906104 0.00016996990266712753 0 0.00016996990266712753 0.0035672650903027514 0 0 0 -0.0016143162371508313 -0.04066033982335264 -0.01931551143020685 0 -0.01931551143020685 -0.003967847633463556 0 0 0 -0.011157046864204039 0.0067671502761733754 0.013434884313545004 0 0.013434884313545004 0.044109532083718095 0 0 0 0.012719170589972864 -0.017069305087312213 -0.0061112764055752944 0 -0.0061112764055752944 -0.0026634639036118846 0 0 0 -0.0049331922477311094 -0.00064171534284184427 0.0033207731088998058 0 0.0033207731088998058 -0.0056458200170923113 0 0 0 -0.0015718838399835379 0.001473477268306593 0.0039135942359242032 0 0.0039135942359242032 -0.0057245208377685857 0 0 0 -0.0010627608923654977 -0.017854643209581411 0.013743476302235602 0 0.013743476302235602 0.00077828544242297681 0 0 0 -0.0042690894417896086 -0.01159713360713599 -0.017600337462240323 0 -0.017600337462240323 0.012252466228839243 0 0 0 0.00016383315542578547 -0.00010402823842337559 0.0075461228701329073 0 0.0075461228701329073 0.0034322558561611198 0 0 0 0.00083205690443443822 -0.0037936411752345425 0.0067121633125560437 0 0.0067121633125560437 0.0028512020507228293 0 0 0 -0.00023560978112792917 -0.0010076427062968934 0.0041604961905413584 0 0.0041604961905413584 -0.0046829425451124654 0 0 0 -0.0014226463128523396 -0.036650711301464273 0.0046826767879847454 0 0.0046826767879847454 -0.00068484253073894993 0 0 0 -0.0093338884580508007 -0.017820752244507288 0.00092526744607235485 0 0.00092526744607235485 0.0068896338758542286 0 0 0 -0.0027327795921632675 -0.0089794760928704476 -0.0013282874078967451 0 -0.0013282874078967451 0.0084222624633292498 0 0 0 -0.00013930340738528557 -0.040573549077701311 0.0051601125011463602 0 0.0051601125011463602 -0.0015125223552565209 0 0 0 -0.010521517858239455 0.035265970411850561 0.043987427274409463 0 0.043987427274409463 0.031304127266946147 0 0 0 0.016642524419699128 -0.011801485088158037 0.024759320766386872 0 0.024759320766386872 -0.0051999207520898594 0 0 0 -0.0042503514600618075 -0.011459587489331624 -0.019350340672358884 0 -0.019350340672358884 -0.0041888406421213276 0 0 0 -0.0039121070328632657 -0.010803568268796769 0.0032879684290017183 0 0.0032879684290017183 0.003844357699206569 0 0 0 -0.0017398026423975509 -0.0043340550796597509 0.0028846129621813267 0 0.0028846129621813267 -0.003714342075956791 0 0 0 -0.0020120992889041353 0.014997980413813217 -0.0027337028441472098 0 -0.0027337028441472098 0.0063222203579609004 0 0 0 0.0053300501929435321 -0.013820673032009539 -0.007058165550875857 0 -0.007058165550875857 -0.0037093816063574758 0 0 0 -0.0043825136595917746 -0.01553288861040987 -0.008783642949451026 0 -0.008783642949451026 -0.0028420863483172576 0 0 0 -0.0045937437396817854 -0.0046772709405515089 0.0050091391479712829 0 0.0050091391479712829 -0.00080155464487018796 0 0 0 -0.0013697063963554242 -0.043146956283945798 -0.0080781923452093451 0 -0.0080781923452093451 0.00089464913030856685 0 0 0 -0.010563076788409287 -0.036893534565904579 -0.012206365395131202 0 -0.012206365395131202 0.0030095157587775034 0 0 0 -0.0084710047017818035 -0.0038210184526467042 0.0012868927584073929 0 0.0012868927584073929 -0.0012770633725838788 0 0 0 -0.0012745204563076457 -0.055103294269677028 0.026771547078241476 0 0.026771547078241476 0.0045543182882092914 0 0 0 -0.012637243995366976 -0.069659249275286383 0.0181838901696324 0 0.0181838901696324 0.00055334661270523 0 0 0 -0.01727647566564533 -0.0061453822529686786 0.0053149635486211821 0 0.0053149635486211821 0.0028704225913697146 0 0 0 -0.00081873991539976876 -0.0066944018799756089 -0.010955516453771352 0 -0.010955516453771352 0.0061318683983502265 0 0 0 -0.0001406333704063456 0.007113922037992354 -0.012011809313016146 0 -0.012011809313016146 0.00098376968858696068 0 0 0 0.0020244229316448287 -0.013974659579233814 -0.00094856359341222163 0 -0.00094856359341222163 -0.014782184156621692 0 0 0 -0.0071892109339639215 0.022245312282097932 0.023616411057811277 0 0.023616411057811277 0.048999466299154748 0 0 0 0.01781119464531318 -0.0049291645622368506 -0.0049495831993959273 0 -0.0049495831993959273 -0.0081209559360463507 0 0 0 -0.0032625301245708047 -0.012135083885472821 -0.010897839670140727 0 -0.010897839670140727 0.014175842294105109 0 0 0 0.0005101896021580711 0.035213944802888808 0.017686743937816107 0 0.017686743937816107 0.0095952974641088096 0 0 0 0.011202310566749418 -0.010582962282413778 0.0027024403830357502 0 0.0027024403830357502 0.0032074703314454896 0 0 0 -0.0018438729877420729 -0.011989371334245602 0.027242591772480784 0 0.027242591772480784 -0.0067436874328830054 0 0 0 -0.0046832646917820409 -0.010438119019635039 -0.01685912166964787 0 -0.01685912166964787 -0.0020844600486401577 0 0 0 -0.0031306447670688686 -0.010245070697646349 0.0033941349824833681 0 0.0033941349824833681 -0.0019720686488163986 0 0 0 -0.0030542848366156869 -0.025147565051412558 -0.0072213784675559884 0 -0.0072213784675559884 0.028954838369428734 0 0 0 0.00095181832950403875 -0.0088326316419791162 0.022534891719722561 0 0.022534891719722561 0.018093089482389635 0 0 0 0.0023151144601026852 -0.012094905168125003 -0.0087095409207674779 0 -0.0087095409207674779 0.00075238791028753305 0 0 0 -0.0028356293144593536 -0.066079664387522677 0.0017181082304315229 0 0.0017181082304315229 0.00070652617051802924 0 0 0 -0.016343284554251145 -0.11833575365323469 -0.0050660901180097778 0 -0.0050660901180097778 0.00090035648494024567 0 0 0 -0.029358849292073597 -0.0046763189649644543 0.0045766186763635391 0 0.0045766186763635391 0.048366019558688911 0 0 0 0.010922425148431114 -0.029032926326828211 0.0064969572995255123 0 0.0064969572995255123 -0.00031457426550225709 0 0 0 -0.0073368751480826187 0.012148958957749352 -0.0017072670130913181 0 -0.0017072670130913181 0.010555014090088142 0 0 0 0.0056759932619593733 0.01196717022455776 0.0035071547199935216 0 0.0035071547199935216 0.031629027351737893 0 0 0 0.010899049394073934 0.014600737170726352 -0.0056935642368972361 0 -0.0056935642368972361 0.061441983413215717 0 0 0 0.019010680145985559 0.017342455306611632 0.00040718761786401325 0 0.00040718761786401325 0.034196730632535921 0 0 0 0.012884796484786853 -0.010295191067202773 0.0058329160055083096 0 0.0058329160055083096 -0.016162149533671538 0 0 0 -0.0066143351502185796 -0.0099824047451582132 -0.012151440187145701 0 -0.012151440187145701 -0.016568774652892526 0 0 0 -0.0066377948495126571 0.0023548836585997046 0.0013779040844174029 0 0.0013779040844174029 0.04945995585954599 0 0 0 0.012953709879536424 -0.0047171399426318983 -0.0061006516791181631 0 -0.0061006516791181631 0.024210081559510377 0 0 0 0.0048732354042196058 -0.024284502487219813 0.0032986854742805792 0 0.0032986854742805792 0.021807621986755094 0 0 0 -0.00061922012511618496 -0.0035846519297093593 0.020294289400670129 0 0.020294289400670129 -0.0080907019944982395 0 0 0 -0.0029188384810518997 -0.0046840752022760945 0.008134807343647743 0 0.008134807343647743 -0.0056856926419124321 0 0 0 -0.0025924419610467986 -0.0035964700323156684 -0.0058821602943424089 0 -0.0058821602943424089 -0.0040730142750433629 0 0 0 -0.0019173710768397578 -0.0045895997723043314 -0.016463340501721907 0 -0.016463340501721907 -0.0093290856856911297 0 0 0 -0.003479671364498893 -0.0059473224021962482 0.0046302336047817534 0 0.0046302336047817534 -0.001138926193012705 0 0 0 -0.0017715621488022405 -0.008403063413040826 0.021995051292952761 0 0.021995051292952761 0.0047222149656334644 0 0 0 -0.00092021211185173979 -0.0030477425927022267 -0.0053415603511793863 0 -0.0053415603511793863 -0.0023832229623654277 0 0 0 -0.0013577413887669726 -0.016932643512799717 -0.00021496727910637163 0 -0.00021496727910637163 0.038665923297716981 0 0 0 0.0054333199462293161 -0.0042717600560271407 0.007556386090263878 0 0.007556386090263878 -0.0037843227746234831 0 0 0 -0.0020140207076624339 -0.0079932210839060991 -0.01829086620071152 0 -0.01829086620071152 0.0013846384218509922 0 0 0 -0.00165214566551386 0.00087092954681966539 -0.012913533583964992 0 -0.012913533583964992 0.011170661567418472 0 0 0 0.0030103977785595204 -0.019696258476328179 -0.011696800619667304 0 -0.011696800619667304 0.005803187452156397 0 0 0 -0.0034732677560429526 -0.018720413753001576 -0.010677177403669393 0 -0.010677177403669393 0.0081421497902882944 0 0 0 -0.0026445659906783256 -0.0050807128927204412 -0.007062227567319659 0 -0.007062227567319659 -0.0061811795083000342 0 0 0 -0.0028154731002551199 -0.0089194467713895609 0.038554187149052233 0 0.038554187149052233 0.0095723773303806881 0 0 0 0.0001632326397477124 -0.045042274524961692 -0.0042402136041378158 0 -0.0042402136041378158 -1.035098427198955e-05 0 0 0 -0.011263156377308417 0.019188989336660599 -0.012434021172971182 0 -0.012434021172971182 0.014956496084754231 0 0 0 0.0085363713553537144 -0.00090149717859648246 -0.0078201003694351109 0 -0.0078201003694351109 0.0085238937493191669 0 0 0 0.0019055991426806633 0.0055825997024129201 0.011465290001279976 0 0.011465290001279976 0.0079424084678623649 0 0 0 0.0033812520425688195 -0.01335069469515679 -0.007045507939854416 0 -0.007045507939854416 -0.0069597544597755356 0 0 0 -0.0050776122887331021 -0.014096785156733488 -0.0079735309107277358 0 -0.0079735309107277358 -0.012125936942379067 0 0 0 -0.0065556805247781458 -0.14226918916734752 0.00096939265404987743 0 0.00096939265404987743 0.0034273722983658717 0 0 0 -0.034710454217245418 -0.074766648379330267 -0.00038858934041129643 0 -0.00038858934041129643 0.001457619363358531 0 0 0 -0.018327257253992937 -0.0092553749252771156 -0.0033683410718988891 0 -0.0033683410718988891 -0.0030863561453812203 0 0 0 -0.0030854327676645846 -0.01387991840332305 0.0044545402038563197 0 0.0044545402038563197 -0.0046264935812490122 0 0 0 -0.0046266029961430158 0.0097983772066654803 0.002922478941082815 0 0.002922478941082815 1.5920426395546472e-05 0 0 0 0.002453574408265255 0.00074639802879390184 0.010356437614152624 0 0.010356437614152624 0.0091373399361371239 0 0 0 0.0024709344912327551 0.0033364601472529107 0.0063895261465207881 0 0.0063895261465207881 0.00019563363903930819 0 0 0 0.00088302344657305298 -0.055369757525960031 -0.0098742037330233987 0 -0.0098742037330233987 -0.0055615691525408833 0 0 0 -0.015232831669625236 -0.040376365888012938 0.0039511062616087245 0 0.0039511062616087245 -0.0024142311101938698 0 0 0 -0.010697649249551713 0.034182758013047931 0.01743772624034759 0 0.01743772624034759 0.012268363206956234 0 0 0 0.011612780305001014 -0.044400451191463637 -0.0093063882559665453 0 -0.0093063882559665453 -0.0030445354247443067 0 0 0 -0.011861246654051999 -0.034955304937110007 0.0039469919324396294 0 0.0039469919324396294 -0.0013840186747650241 0 0 0 -0.0090848309029687557 -0.017562041449735166 -0.002956868399366 0 -0.002956868399366 -0.005951904107914463 0 0 0 -0.0058784863894123796 0.030443357390568637 0.046232068267831328 0 0.046232068267831328 0.030470950551899301 0 0 0 0.015228576985616971 0.0075599587148251976 0.0047981673463809646 0 0.0047981673463809646 -0.002903232675276618 0 0 0 0.0011641815098871432 -0.012854200001634328 -0.004976904607919469 0 -0.004976904607919469 0.0042388408716034776 0 0 0 -0.0021538397825077021 -0.024400603710909342 -0.0060705882814145124 0 -0.0060705882814145124 -0.0081316957456732519 0 0 0 -0.0081330748641456462 -0.023433063968817509 0.0041476027573245861 0 0.0041476027573245861 -0.0078090059616601542 0 0 0 -0.0078105174826194152 -0.057162574507750072 0.0025416158180960129 0 0.0025416158180960129 -0.00038816453325173084 0 0 0 -0.014387684760250445 -0.093854235178914974 -0.0060670617636211337 0 -0.0060670617636211337 -0.00077545423233447985 0 0 0 -0.02365742235281236 -0.03269796511758423 -0.0025329473008908754 0 -0.0025329473008908754 0.01197810725388504 0 0 0 -0.0051799644659248356 0.013931839067120921 -0.00846954660946031 0 -0.00846954660946031 0.013516901639741508 0 0 0 0.0068621851767156072 -0.022134321915589859 -0.0044557271274217811 0 -0.0044557271274217811 0.027693271571156135 0 0 0 0.001389737413891561 -0.0037597215095713839 0.0090529524768138761 0 0.0090529524768138761 0.015306391178112229 0 0 0 0.0028866674171352125 -0.0098141790442470289 0.0063015473991102928 0 0.0063015473991102928 0.017433767885818449 0 0 0 0.0019048972103928525 0.013559123434479747 0.01052392467277341 0 0.01052392467277341 0.012201023012213895 0 0 0 0.0064400366116734191 0.020764189694369495 0.0078945952444181566 0 0.0078945952444181566 0.0060896753047716481 0 0 0 0.0067134662497852892 -0.010062805343591885 -0.0091851997673968178 0 -0.0091851997673968178 -0.025384152495717238 0 0 0 -0.008861739459827267 -0.026904409209406434 -0.0091124938703196073 0 -0.0091124938703196073 0.013126518900457216 0 0 0 -0.0034444725772373244 -0.026760205741636778 -0.014943878290881341 0 -0.014943878290881341 0.0305457216241031 0 0 0 0.00094637897061658136 -0.0019767397286042064 -0.025681257221193229 0 -0.025681257221193229 0.04987679824410305 0 0 0 0.011975014628874698 -0.052744525801902323 0.0023851477914701227 0 0.0023851477914701227 -0.00027735813332754877 0 0 0 -0.01325547098380747 -0.08303253769835002 -0.0052088241701926984 0 -0.0052088241701926984 -0.0007254029683283203 0 0 0 -0.020939485166669589 -0.00099940033348832258 -0.0014191956762586999 0 -0.0014191956762586999 -0.033791726695299451 0 0 0 -0.0086977817571969509 0.0017287777559160944 -0.018973472207257196 0 -0.018973472207257196 0.035990356896570097 0 0 0 0.0094297836631215687 0.0016074305667945401 0.0062368909141252878 0 0.0062368909141252878 -0.0020042818201083928 0 0 0 -9.921281332846317e-05 -0.042158576233219752 -0.0092873033366521474 0 -0.0092873033366521474 -0.0067963039094771499 0 0 0 -0.012238720035674227 -0.033215650393780383 0.0042911943119247429 0 0.0042911943119247429 -0.0035028511682130385 0 0 0 -0.0091796253904983527 -0.011890986372860308 0.00329478041266347 0 0.00329478041266347 -0.0022078363525418476 0 0 0 -0.003524705681350538 -0.021416267536309232 -0.0020275716577609878 0 -0.0020275716577609878 0.030277015190214709 0 0 0 0.0022151869134763675 -0.010399031659509353 -0.0091975299064402105 0 -0.0091975299064402105 0.0016788371373508415 0 0 0 -0.0021800486305395689 -0.013189514782518308 0.0045046015992995514 0 0.0045046015992995514 -0.0012246731287104198 0 0 0 -0.0036035469778071829 -0.041500330944348574 0.009805822483423432 0 0.009805822483423432 0.000546920206223378 0 0 0 -0.010238352684531438 -0.0027891410618880452 -0.011927678896118343 0 -0.011927678896118343 0.023165513037886387 0 0 0 0.0050940929939995994 0.0018391529977150323 -0.010060015676347234 0 -0.010060015676347234 0.01957448434678688 0 0 0 0.005353409336125492 -0.015341403781777618 -0.01190045605649174 0 -0.01190045605649174 0.02285463629996487 0 0 0 0.0018783081295468095 -0.020361409032427821 -0.0085689449884547159 0 -0.0085689449884547159 0.015141569436246477 0 0 0 -0.0013049598990453187 -0.011130802444184257 0.00092093787398989904 0 0.00092093787398989904 0.012225414677318323 0 0 0 0.00027365305828351647 -0.020480755007177658 -0.0021564784572673315 0 -0.0021564784572673315 0.029362281243992337 0 0 0 0.002220381559203663 0.0021569422093217216 0.020270029678355783 0 0.020270029678355783 0.042924699769650854 0 0 0 0.011270410494743199 -2.4901209954686365e-05 -0.00032389980871827539 0 -0.00032389980871827539 0.00042456630698350928 0 0 0 9.9916274257205728e-05 -0.00053163171240994123 -0.015987367484092685 0 -0.015987367484092685 0.021464965117704626 0 0 0 0.0052333333513236435 1.4303534860538036e-05 0.00047154112648062352 0 0.00047154112648062352 0.00048764024319536414 0 0 0 0.00012548594451389228 -0.010499135826197945 0.0029736193269618875 0 0.0029736193269618875 0.013243967686266843 0 0 0 0.00068620796501722269 -0.011930710271877603 0.0013374909944129732 0 0.0013374909944129732 0.0083844175789960715 0 0 0 -0.00088657317322038583 -0.011701159731480726 -0.0039780856417166444 0 -0.0039780856417166444 0.012002765993054068 0 0 0 7.5401565393337297e-05 -0.074561401298352231 -0.010137879305382819 0 -0.010137879305382819 0.00054279881527370677 0 0 0 -0.018504650620769648 -0.086744376571634793 -0.014117223400076158 0 -0.014117223400076158 0.00079110110952884671 0 0 0 -0.021488318865526504 -0.0080853167318647966 -0.015252763588437492 0 -0.015252763588437492 -0.0027134435258494918 0 0 0 -0.0026996900644285782 -0.018542708222357145 0.0014386059709261051 0 0.0014386059709261051 0.0029107260940089835 0 0 0 -0.003907995532087042 -0.0026310727901728177 -0.016832258600451601 0 -0.016832258600451601 0.028105563306209377 0 0 0 0.0063686226290091373 -0.031992683704964539 0.0048137304766726393 0 0.0048137304766726393 -0.0032696180573928285 0 0 0 -0.008815575440589335 -0.02634227799915656 0.0043932647329279892 0 0.0043932647329279892 -0.0042174932775883925 0 0 0 -0.0076399428191862399 -0.027626882242938189 -0.008647142636115681 0 -0.008647142636115681 -0.0083182122972784225 0 0 0 -0.0089862736350541511 -0.038767013958424121 -0.010198181910283793 0 -0.010198181910283793 -0.0083842363217470593 0 0 0 -0.011787812570042798 -0.03583294327120129 -0.01200708577420978 0 -0.01200708577420978 0.0011165036493072655 0 0 0 -0.0086791099054734366 -0.027143923968772798 -0.013385951227313782 0 -0.013385951227313782 0.0010803195768489537 0 0 0 -0.0065159010979809473 -0.010323502716805681 -0.0033262745014953771 0 -0.0033262745014953771 -0.0079990898354005951 0 0 0 -0.004580648138051569 -0.0099494987537790194 -0.0038489456211099077 0 -0.0038489456211099077 -0.0091564450669441785 0 0 0 -0.0047764859551808004 -0.014075020614555908 0.0051299730951755527 0 0.0051299730951755527 -0.0044388941256834919 0 0 0 -0.004628478685059851 -0.01570950305358837 0.0039554808114670445 0 0.0039554808114670445 -0.0055256537012488716 0 0 0 -0.0053087891887093099 -0.012545093249714867 0.029627462426078166 0 0.029627462426078166 -0.0034567417860849048 0 0 0 -0.004000458758950165 -0.015551368198738702 -0.017304692849846204 0 -0.017304692849846204 -0.00325441257418424 0 0 0 -0.004701445193230791 -0.022755631633371031 0.0036761114863879812 0 0.0036761114863879812 -0.0033558766419310507 0 0 0 -0.0065278770688255239 -0.016093526814820611 -0.0070297621222194795 0 -0.0070297621222194795 -0.0089276569157645883 0 0 0 -0.0062552959326463032 -0.01226711786318363 -0.00093423330275550776 0 -0.00093423330275550776 0.0052633667662354069 0 0 0 -0.001750937774237047 -0.028491308693103682 0.0042021169789609632 0 0.0042021169789609632 -0.0023060448687813127 0 0 0 -0.0076993383904712474 -0.029817409015423044 -0.0096218453944279282 0 -0.0096218453944279282 -0.0056680318171420385 0 0 0 -0.0088713602081412733 -0.039844283706576555 -0.0086643909500995972 0 -0.0086643909500995972 0.046396754464327977 0 0 0 0.0016381176894378832 -0.013016773602706982 0.00025869754202662541 0 0.00025869754202662541 0.0064236674279024644 0 0 0 -0.0016482765437011255 -0.03306605796368943 -0.0059787638638749861 0 -0.0059787638638749861 -0.011027593524531256 0 0 0 -0.011023412872055171 -0.028056683408549027 0.0033611285816189693 0 0.0033611285816189693 -0.0093549374533226249 0 0 0 -0.0093529052154679142 0.022472509649955077 0.0050065811630180725 0 0.0050065811630180725 0.0138477904591012 0 0 0 0.009080075027264059 -0.0040540545321687826 -0.0018152302045241486 0 -0.0018152302045241486 -0.033086045957580468 0 0 0 -0.0092850251224372848 -0.024421471869497342 0.0033687382649950845 0 0.0033687382649950845 0.0038756849828160619 0 0 0 -0.0051364467216703236 0.010463626404668636 -0.014131570789508358 0 -0.014131570789508358 0.0087048274801135306 0 0 0 0.0047921134711955693 -0.010874266446575114 0.0036334097580731804 0 0.0036334097580731804 0.013277502836699616 0 0 0 0.00060080909753112716 -0.015720526848726962 -0.0030221101583296829 0 -0.0030221101583296829 0.014545826203664788 0 0 0 -0.00029367516126554364 -0.065022310513899603 -0.0044076798963584712 0 -0.0044076798963584712 -0.004620898064058728 0 0 0 -0.01741080214448958 -0.045298602501164291 0.0010813028017384856 0 0.0010813028017384856 -0.0031423584051833171 0 0 0 -0.012110240226586902 0.00063729574902660416 -0.0074740699702878083 0 -0.0074740699702878083 0.01653068064706277 0 0 0 0.0042919940990223497 -0.0074677790051113089 0.0060241241168228887 0 0.0060241241168228887 0.0081615648525425188 0 0 0 0.00017344646185780185 -0.01399894978285973 -0.0001023326408452381 0 -0.0001023326408452381 0.0037690632895182605 0 0 0 -0.0025574716233353668 -0.041804128893837209 0.0023882554507601676 0 0.0023882554507601676 0.0020555334079318255 0 0 0 -0.0099371488714763388 -0.058455389404220848 0.010071147533753044 0 0.010071147533753044 0.00072913803957797008 0 0 0 -0.014431562841160706 -0.018311862135566515 0.00087495267256394726 0 0.00087495267256394726 0.011525975004632233 0 0 0 -0.0016964717827335565 -0.018383149966848686 -0.0090489739245828635 0 -0.0090489739245828635 0.010854215217825619 0 0 0 -0.0018822336872557632 -0.017088174912664678 0.0021444801070309022 0 0.0021444801070309022 0.0039759877011538367 0 0 0 -0.0032780468028777172 -0.0066596015167576456 0.0058794586920989846 0 0.0058794586920989846 0.010839825301519593 0 0 0 0.0010450559461904858 -0.023469814065234643 -0.011626363001267584 0 -0.011626363001267584 0.008043604017201389 0 0 0 -0.00385655251200831 0.03706935406638108 0.0070523846900134579 0 0.0070523846900134579 0.040172828892706208 0 0 0 0.019310545739771832 -0.020263417178122911 0.0046217864006888841 0 0.0046217864006888841 0.0011670996376346165 0 0 0 -0.0047740793851220736 -0.041251340515762625 0.0086589955688342359 0 0.0086589955688342359 -0.001135522564767566 0 0 0 -0.010596715770132548 0.0018258587239739499 -0.010789083176300174 0 -0.010789083176300174 0.025232382073222315 0 0 0 0.0067645601992991078 0.010674643031047593 -0.0080229060526392226 0 -0.0080229060526392226 0.017308470550098987 0 0 0 0.006995778395286617 -0.055065882194567317 -0.017316434920062039 0 -0.017316434920062039 0.014621837301356473 0 0 0 -0.010111011223302655 0.0068200931545434329 -0.0059774043605414703 0 -0.0059774043605414703 -0.0072161280254353782 0 0 0 -9.9008717722989803e-05 -0.055588767779374201 0.0045986637306166464 0 0.0045986637306166464 0.0010277472227636225 0 0 0 -0.013640255139152666 -0.095631556479234089 -0.013430056863628942 0 -0.013430056863628942 0.0027906259278003484 0 0 0 -0.023210232637858434 -0.055030072134527638 0.0012999385127311358 0 0.0012999385127311358 -0.00033058494331346389 0 0 0 -0.013840164269460288 -0.096437716586814159 -0.0046028099096063965 0 -0.0046028099096063965 0.00030647753455903537 0 0 0 -0.024032809763063781 -0.039444500541190003 0.0012236900091555955 0 0.0012236900091555955 -0.0049005014056802774 0 0 0 -0.011086250486717571 -0.05395200515805848 -0.0040251087607633112 0 -0.0040251087607633112 -0.0064025094230202939 0 0 0 -0.015088628645269695 -0.01708754496477078 -0.0049777905267524448 0 -0.0049777905267524448 0.019453520243666207 0 0 0 0.00059149381972387234 -0.015387232687111837 -0.0096884796472107015 0 -0.0096884796472107015 0.025410741361998848 0 0 0 0.002505877168721745 -0.0059469956148438252 -0.00185545148486152 0 -0.00185545148486152 0.028483867345417024 0 0 0 0.0056342179326432928 0.002771817907830737 -0.0015408020816153611 0 -0.0015408020816153611 0.056300325492078473 0 0 0 0.014768035849977296 -0.0028146550359836528 0.0032077349160068436 0 0.0032077349160068436 0.016646193884364072 0 0 0 0.0034578847120951134 8.1899937751456209e-05 0.00074494764548860282 0 0.00074494764548860282 0.048521054427948934 0 0 0 0.012150738591425098 -0.011911706319038595 -0.005691454889689862 0 -0.005691454889689862 0.024078056907529954 0 0 0 0.0030415876471228398 -0.016677675185923842 0.0023840878560824046 0 0.0023840878560824046 0.0044346719554617048 0 0 0 -0.0030607508076155236 -0.0078130281106915007 -0.0090221218800998135 0 -0.0090221218800998135 0.020635429394516389 0 0 0 0.0032056003209562228 -0.016873647181574747 -0.010281842976097962 0 -0.010281842976097962 0.017837304552606334 0 0 0 0.00024091434275789331 -0.013005154101302088 0.001767410565248006 0 0.001767410565248006 0.02520617995929951 0 0 0 0.0030502564644993551 -0.08371777794491464 0.0088790645294181663 0 0.0088790645294181663 -0.00022715101664960713 0 0 0 -0.020986232240390978 -0.021001075659829803 -0.0018391255519701766 0 -0.0018391255519701766 0.028501131926164561 0 0 0 0.0018750140665836912 0.012698178983414535 -0.011180043988008252 0 -0.011180043988008252 0.069278719720188731 0 0 0 0.020494224675900827 0.040729900299057445 -0.012535661194345222 0 -0.012535661194345222 0.03451395376016847 0 0 0 0.018810963514806489 0.017409190841525868 -0.0077927218107001484 0 -0.0077927218107001484 0.014145786005699712 0 0 0 0.0078887442118064088 -0.10689296752610492 -0.01025346299939886 0 -0.01025346299939886 0.0029533701843387217 0 0 0 -0.025984899335441541 -0.060013689097268778 0.0039096912625778413 0 0.0039096912625778413 0.001053263097524907 0 0 0 -0.014740106499935946 -0.021805994914976631 -0.0017694697265841514 0 -0.0017694697265841514 0.02961388244142801 0 0 0 0.0019519718816128438 -0.047157969812145817 0.022485579040227632 0 0.022485579040227632 -0.0028404050723436214 0 0 0 -0.012499593721122415 -0.034600076245586142 0.024290734353537236 0 0.024290734353537236 0.0013455594498421597 0 0 0 -0.0083136291989358568 -0.010481144352833871 -0.018342017712904723 0 -0.018342017712904723 0.0080598371086484377 0 0 0 -0.00060532681104635833 -0.0055234503598172325 -0.01547963114351375 0 -0.01547963114351375 0.0097124017729885524 0 0 0 0.0010472378532928441 -0.0054460712537828804 -0.013331461119068966 0 -0.013331461119068966 0.027940599126815457 0 0 0 0.0056236319682582137 -0.021171104744597047 0.0074377026864050491 0 0.0074377026864050491 0.00057729349038204703 0 0 0 -0.0051484528135539165 -0.022131487804327787 0.0044392431902059194 0 0.0044392431902059194 -0.0034530979158961129 0 0 0 -0.0063961464300559745 -0.019144205708526211 -0.0057482040477774936 0 -0.0057482040477774936 -0.0082698539227997643 0 0 0 -0.0068535149078314929 -0.01400225780506845 -0.020418815327473916 0 -0.020418815327473916 0.0040214776282830531 0 0 0 -0.0024951950441962946 -0.013524544155689322 -0.017894811468816801 0 -0.017894811468816801 0.0044275488728000578 0 0 0 -0.0022742488207223577 -0.017594407943149377 -0.01862708348311376 0 -0.01862708348311376 0.0018230186968185291 0 0 0 -0.0039428473115826826 -0.017593185511266596 -0.01977435580176265 0 -0.01977435580176265 0.0035569702602193942 0 0 0 -0.003509053812761842 -0.029079851356909811 0.031735518671338614 0 0.031735518671338614 -0.002942224348281286 0 0 0 -0.0080055189262977361 -0.019973296435824857 0.028577891460817795 0 0.028577891460817795 -0.0021466205749128536 0 0 0 -0.0055299792526844558 -0.025450069821944338 0.0051849749015393555 0 0.0051849749015393555 -0.00642917179328935 0 0 0 -0.0079698104038084215 -0.029536314911540591 -0.0088482255481164979 0 -0.0088482255481164979 -0.0096094781186835294 0 0 0 -0.0097864482575560317 -0.053527658907806613 -0.0047385158379692899 0 -0.0047385158379692899 0.0038876466084556971 0 0 0 -0.012410003074837764 -0.094215153814921654 0.011250188595357619 0 0.011250188595357619 0.0055747320350094665 0 0 0 -0.02216010544497804 -0.038633034460035118 0.006425317782597955 0 0.006425317782597955 0.00087740511403394672 0 0 0 -0.0094389073365003032 -0.0063959539130483082 0.0056565628824577115 0 0.0056565628824577115 0.0040289405355026509 0 0 0 -0.0005917533443864139 -0.0037865290840696786 -0.0077812752328352552 0 -0.0077812752328352552 -0.023483135359732676 0 0 0 -0.0068174161109506026 -0.061232277316005501 -0.013134632731304075 0 -0.013134632731304075 0.00082742929572485885 0 0 0 -0.015101212005070152 -0.083259317726778304 -0.011396975802574356 0 -0.011396975802574356 -0.0024314609025938919 0 0 0 -0.021422694657343061 -0.0014420011280420809 -1.532038469981322e-06 0 -1.532038469981322e-06 -0.0082433496678268152 0 0 0 -0.0024213376989672239 -0.008025680169484517 0.0041367414841131656 0 0.0041367414841131656 0.032244222489986651 0 0 0 0.0060546355801255336 -0.061743002542748782 -0.00022814949536566903 0 -0.00022814949536566903 -0.00030701115006220858 0 0 0 -0.015512503423202758 -0.113234225604376 -0.00015825874767488868 0 -0.00015825874767488868 -0.00085173766795794414 0 0 0 -0.028521490818083459 -0.03164943290066153 -0.0036551953456987474 0 -0.0036551953456987474 0.004837707808823255 0 0 0 -0.0067029312729595739 -0.044257225928712562 -0.012738245709379273 0 -0.012738245709379273 -0.0066144233608616525 0 0 0 -0.012717912322393551 -0.030506818529421883 -0.01218291844267488 0 -0.01218291844267488 -0.004709158480337137 0 0 0 -0.0088039942524397643 0.0064102090996532857 0.039690284033000359 0 0.039690284033000359 0.08341262822518869 0 0 0 0.022455709331210438 -0.076134000296610729 -0.0047881321162991722 0 -0.0047881321162991722 2.9894219836339164e-05 0 0 0 -0.019026026519193585 -0.048537378318491545 0.0021598131418804137 0 0.0021598131418804137 0.00023148561066637166 0 0 0 -0.012076473176956294 -0.014105107930639238 -0.0079665624645504571 0 -0.0079665624645504571 -0.0064641256345668863 0 0 0 -0.0051423083913015311 -0.015946538549254569 -0.0079155234688613602 0 -0.0079155234688613602 -0.0030597136432582994 0 0 0 -0.0047515630481281823 -0.0087783568102893159 0.0056521623311985882 0 0.0056521623311985882 0.019484310209463167 0 0 0 0.0026764883497934636 -0.0073338053924792458 -0.0084544343567873326 0 -0.0084544343567873326 -0.00083737811856084143 0 0 0 -0.0020427958777600209 0.001205195689099557 0.0084967915871310661 0 0.0084967915871310661 0.0016910403433347647 0 0 0 0.0007240590081085815 0.0039092068026402305 0.0068813099434864022 0 0.0068813099434864022 0.077200650339823595 0 0 0 0.020277464285615998 -0.03861482976751901 0.0061303717657603639 0 0.0061303717657603639 0.0013254358880295143 0 0 0 -0.0093223484698723887 -0.013736811489388753 0.0012393474785598096 0 0.0012393474785598096 0.003243797781526613 0 0 0 -0.0026232534269655379 0.051160371386645309 0.0087667510656993953 0 0.0087667510656993953 0.028816816698919556 0 0 0 0.019994297021391216 -0.043403573547914874 -0.0050779067050245041 0 -0.0050779067050245041 -0.0011845544017636891 0 0 0 -0.011147031987419696 -0.13450379390290348 -0.001597914535643688 0 -0.001597914535643688 -0.00058375001076527155 0 0 0 -0.033771885978417182 -0.071862219301076363 0.00020345877909727842 0 0.00020345877909727842 -0.00044599054804136951 0 0 0 -0.018077052462279419 -0.019408694880565999 0.0015180864534903096 0 0.0015180864534903096 0.032414540482965208 0 0 0 0.0032514614005998005 -0.044889578115614594 -0.010267938653382623 0 -0.010267938653382623 -0.0033173148290529877 0 0 0 -0.012051723236166895 -0.055264652765648882 -0.013666860019223806 0 -0.013666860019223806 -0.0019366250630881855 0 0 0 -0.014300319457184251 0.02421097279734144 0.013487703248891515 0 0.013487703248891515 0.014386323149891522 0 0 0 0.0096493239868082406 -0.029784504014731872 -0.0066902821610940952 0 -0.0066902821610940952 -0.00091501070106492222 0 0 0 -0.0076748786789492263 -0.019711860411568562 -0.0096110144042035467 0 -0.0096110144042035467 0.0067661205972217725 0 0 0 -0.003236434953586699 0.0055665776857516391 0.016155222234998504 0 0.016155222234998504 0.053299232115682216 0 0 0 0.014716452450358242 -0.014367670411601363 -0.0044243521191636307 0 -0.0044243521191636307 0.0010494637989766353 0 0 0 -0.003329551653156182 -0.020566894347819338 -0.019275106958725925 0 -0.019275106958725925 0.01522230386252596 0 0 0 -0.0013361476213233428 -0.010431866193080092 -0.0033857361311298226 0 -0.0033857361311298226 0.020218530023672909 0 0 0 0.0024466659576481906 -0.018783382017650584 0.00092894657962578134 0 0.00092894657962578134 0.0070268366954836653 0 0 0 -0.0029391363305417348 -0.031111811385137522 0.0076372803656166166 0 0.0076372803656166166 -0.00098365110022147206 0 0 0 -0.0080238656213394988 -0.002686330620680133 -0.012275597585939324 0 -0.012275597585939324 0.02964006261222929 0 0 0 0.0067384329978872337 -0.019320545922772093 0.0040498897323564863 0 0.0040498897323564863 -0.0013047864604612198 0 0 0 -0.0051563330958083299 0.012877096602090236 -0.0044599397727157833 0 -0.0044599397727157833 0.021525251962338662 0 0 0 0.0086005871411072229 -0.047043933911862179 0.0042721207173334963 0 0.0042721207173334963 -6.1889693847877458e-05 0 0 0 -0.011776455901427514 -0.035194908423170905 -0.010264394082629601 0 -0.010264394082629601 0.013150513332260527 0 0 0 -0.0055110987727275823 -0.035897743096974404 0.0059728825353074387 0 0.0059728825353074387 -0.0014624683841172152 0 0 0 -0.0093400528702729003 -0.049130969381151524 -0.0059637302179040286 0 -0.0059637302179040286 0.00098846068003100029 0 0 0 -0.012035627175280117 -0.05079817941749136 0.003594245497854906 0 0.003594245497854906 -0.00057547868799635166 0 0 0 -0.012843414526371912 -0.043102711739489291 0.0043666301445648478 0 0.0043666301445648478 0.00029347461013384465 0 0 0 -0.010702309282338849 -0.050105962442669155 0.028232195914138392 0 0.028232195914138392 0.0015398680294063105 0 0 0 -0.01214152360331569 -0.019974737120683692 -0.0049283078272793395 0 -0.0049283078272793395 -0.0082661421692033533 0 0 0 -0.0070602198224717612 -0.024007719010650699 -0.0088048040266896204 0 -0.0088048040266896204 -0.0094065042280004445 0 0 0 -0.0083535558096627834 -0.023269105060499895 0.0054070042501066099 0 0.0054070042501066099 -0.0050593720933517668 0 0 0 -0.0070821192884629146 -0.021704805076141694 0.003693630449484132 0 0.003693630449484132 -0.0057815790907750023 0 0 0 -0.0068715960417291737 -0.013301350304822476 -0.002466238719547615 0 -0.002466238719547615 0.0094934929876599738 0 0 0 -0.0009519643292906256 -0.0099836420007842434 -0.015211170450025156 0 -0.015211170450025156 0.029697213544826562 0 0 0 0.0049283928860105776 -0.017210329634579566 -0.010253848627481396 0 -0.010253848627481396 0.014668095241006106 0 0 0 -0.00063555859839335813 -0.022863620533146639 -0.0085654009636526168 0 -0.0085654009636526168 0.01841187858745158 0 0 0 -0.0011129354864237717 -0.017334587989789617 -0.0087972024515604735 0 -0.0087972024515604735 0.014190748654720281 0 0 0 -0.00078595983376734263 -0.010431852210417453 -0.002409133332921436 0 -0.002409133332921436 0.018558937356345007 0 0 0 0.0020317712864818815 -0.015372689639365306 -0.0060107968822519925 0 -0.0060107968822519925 0.011169534326431474 0 0 0 -0.0010507888282334787 -0.074769143646738395 0.0018468743227487777 0 0.0018468743227487777 0.00030343352629735865 0 0 0 -0.01861642753011028 -0.14340253182087764 -0.0044713706974155182 0 -0.0044713706974155182 0.0021350685274754699 0 0 0 -0.035316865823350557 -0.0036013860321610497 -0.0037160554291180911 0 -0.0037160554291180911 0.011149214676783675 0 0 0 0.0018869571611556668 -0.009065453389551073 -0.0042639010237813801 0 -0.0042639010237813801 0.019513877327006157 0 0 0 0.0026121059843637606 -0.034922135361196982 0.0053104058277214095 0 0.0053104058277214095 0.0045026555348748054 0 0 0 -0.0076048699565805511 -0.0063314698555961002 0.0032467829139917539 0 0.0032467829139917539 -0.0037926878026764196 0 0 0 -0.0025310394145681295 -0.014680842583178757 -0.0090090150989585761 0 -0.0090090150989585761 -0.0063262412976464993 0 0 0 -0.0052517709702063139 -0.0065077473803136368 -0.0038688568692852332 0 -0.0038688568692852332 -0.0093821616375933201 0 0 0 -0.0039724772544767377 -0.0049439748752499761 -0.021646677441086053 0 -0.021646677441086053 0.04959422331233717 0 0 0 0.011162562109271797 -0.045488602173741829 0.0026698494872081048 0 0.0026698494872081048 -0.0017155606034682906 0 0 0 -0.011801040694302531 -0.041006094500547888 0.0024988342933959791 0 0.0024988342933959791 -0.00073434997359617419 0 0 0 -0.010435111118536018 -0.056564121852765409 -0.0063485048892014378 0 -0.0063485048892014378 -0.00090725378937977011 0 0 0 -0.014367843910536297 -0.067478334234157694 -0.0069479324537740543 0 -0.0069479324537740543 -0.0034314322134360144 0 0 0 -0.017727441611898414 -0.069445463245842887 -0.0036187000168614474 0 -0.0036187000168614474 0.0010093591639717125 0 0 0 -0.017109026020467821 -0.0037210476493861888 0.037029259214008625 0 0.037029259214008625 0.051120029914149323 0 0 0 0.011849745566190784 0.0073757714918995798 -0.0084689710694080822 0 -0.0084689710694080822 0.017007282398141088 0 0 0 0.0060957634725101462 -0.0065698603808988804 -0.0066888731671022883 0 -0.0066888731671022883 -0.01809926508827684 0 0 0 -0.0061672813672939159 -0.023161198736296205 0.0049940202046493869 0 0.0049940202046493869 -0.0014628772510164485 0 0 0 -0.0061560189968281592 -0.020261912135657908 -0.00048363654324391119 0 -0.00048363654324391119 0.023313537115535431 0 0 0 0.00076290624496938575 -0.038823680612244643 0.0045719126306440205 0 0.0045719126306440205 -0.000541250734563202 0 0 0 -0.0098412328367019804 0.011987074155944022 0.020049796880917459 0 0.020049796880917459 0.011103290359405715 0 0 0 0.0057725911288374343 -0.0094174106314331568 0.0048179860815455323 0 0.0048179860815455323 -0.0040166349924441146 0 0 0 -0.003358511405969317 -0.014824015988073811 -0.0099659518536972941 0 -0.0099659518536972941 -0.0021016008345770623 0 0 0 -0.0042314042056627015 0.020624161235269139 -0.030420782983154288 0 -0.030420782983154288 0.037845141892205045 0 0 0 0.014617325781868544 -0.12700468384394198 0.008847298133787318 0 0.008847298133787318 0.001645593359424824 0 0 0 -0.031339772621129303 -0.0028654102710295995 0.0019598726075998733 0 0.0019598726075998733 -0.0048006962309489719 0 0 0 -0.0019165266254946431 -0.027282556998507651 0.0034741928346870539 0 0.0034741928346870539 -0.0064135767588742263 0 0 0 -0.0084240334393454706 -0.03048370270690131 -0.0059010286291762814 0 -0.0059010286291762814 -0.0088797361996756016 0 0 0 -0.0098408597266442278 -0.0033436057968414829 0.0073191473647948374 0 0.0073191473647948374 0.0066922376794889479 0 0 0 0.00083715797066186669 -0.054873841141792987 0.0040138674246119888 0 0.0040138674246119888 0.0012226581161169925 0 0 0 -0.01341279575641903 -0.094564435510579109 -0.010668989300116991 0 -0.010668989300116991 0.0041945608670520967 0 0 0 -0.022592468660881722 0.0056660516874180722 0.018515117591320962 0 0.018515117591320962 0.024681747233345597 0 0 0 0.0075869497301910283 -0.027206358191771196 -0.0090096586987217231 0 -0.0090096586987217231 -0.0022309518982568388 0 0 0 -0.0073593275225070087 -0.0052928893711065086 0.0024066548091762757 0 0.0024066548091762757 0.028682726312941359 0 0 0 0.0058474592354587143 0.00026418779274101079 -0.01567812335229031 0 -0.01567812335229031 0.0051009487903632689 0 0 0 0.0013412841457760838 -0.011514396429653344 0.0012265990737564056 0 0.0012265990737564056 0.01021116022665472 0 0 0 -0.00032580905074963001 -0.0072652482934444677 0.0047674476102169683 0 0.0047674476102169683 0.0026601804062085441 0 0 0 -0.0011512669718089829 -0.0037349079275956804 0.00010579773385637202 0 0.00010579773385637202 -0.0065485842387725595 0 0 0 -0.0025708730415920601 -0.018706785502072172 0.003982995912988012 0 0.003982995912988012 0.0010120022258991762 0 0 0 -0.0044236958190432447 -0.012011338219781294 -0.0073635228016457159 0 -0.0073635228016457159 0.062852804690202643 0 0 0 0.012710366617605343 -0.012418815246751352 -0.007208917834678575 0 -0.007208917834678575 0.058465349287629406 0 0 0 0.011511633510219509 -0.02225701386103579 -0.014221423900265595 0 -0.014221423900265595 -0.00015120223941833544 0 0 0 -0.0056020540251135453 -0.020605805020872614 -0.014033123158867261 0 -0.014033123158867261 7.0438893018387461e-06 0 0 0 -0.0051496902828925828 -0.0050983374821814698 0.024967697868774397 0 0.024967697868774397 0.010611029462638477 0 0 0 0.0013781729951142241 -0.0084951076806535353 0.027486478854859886 0 0.027486478854859886 0.007700471719569002 0 0 0 -0.0001986589902712721 -0.0040602877402766691 0.026578298253624316 0 0.026578298253624316 0.0052897441756574182 0 0 0 0.00030736410884513177 0.016976792418222586 0.024217662951153074 0 0.024217662951153074 0.0094251177152693266 0 0 0 0.0066004775333730059 -0.0057403522252722746 0.0031634792203491554 0 0.0031634792203491554 -0.0019139694276393117 0 0 0 -0.0019135804132278966 -0.0044892131297677301 0.0010448266807293743 0 0.0010448266807293743 0.037886061099195734 0 0 0 0.0083492119923570043 -0.010010680619682386 0.00017266325715829811 0 0.00017266325715829811 0.017518826701256415 0 0 0 0.0018770365203935012 -0.047308621864965261 -0.0078121075069740309 0 -0.0078121075069740309 0.00046202194739752844 0 0 0 -0.011711649979391947 -0.053055521336288713 -0.0027036324192574457 0 -0.0027036324192574457 -0.00010257592422008299 0 0 0 -0.013289524315127199 -0.091495047464922097 0.0066612529161754197 0 0.0066612529161754197 -0.00046640565385369648 0 0 0 -0.022990363279693893 0.0062886583799315922 0.01421333611982192 0 0.01421333611982192 0.01473157803390391 0 0 0 0.0052550591034588763 0.0077949971801373821 0.015000468263192301 0 0.015000468263192301 0.018128766418055275 0 0 0 0.0064809408995481627 -0.0040683742771180868 0.0043095876481384163 0 0.0043095876481384163 -0.0034882151981986929 0 0 0 -0.0018891473688291936 -0.006809699318522185 0.0039272964070747925 0 0.0039272964070747925 -0.0043829576172326034 0 0 0 -0.0027981642339386967 -0.078979176943094379 -0.0091988095103628011 0 -0.0091988095103628011 -0.0035355005738005214 0 0 0 -0.020628669379223721 -0.04940809060637151 0.0034090823250341358 0 0.0034090823250341358 -0.00076053709550565757 0 0 0 -0.012542156925469297 -0.043752167691735344 0.0054341666978744152 0 0.0054341666978744152 -0.0010552748840837872 0 0 0 -0.011201860643954772 0.0059381261138782282 0.019662313367264317 0 0.019662313367264317 0.032632897193068722 0 0 0 0.009642755826736793 -0.023139301709295512 -0.0068066275964287493 0 -0.0068066275964287493 0.0019848401588609121 0 0 0 -0.0052886153876086639 -0.0062939340898595366 -0.0013527878658906839 0 -0.0013527878658906839 -0.00538298832231714 0 0 0 -0.0029192306030441694 0.00303321137774461 -0.00080264374170275479 0 -0.00080264374170275479 -0.0063974552360323029 0 0 0 -0.00084106096457192605 -0.031796462729886621 -0.011775617414580414 0 -0.011775617414580414 0.0036146941363326412 0 0 0 -0.007045442148388481 -0.023426023250956735 -0.012376176757765756 0 -0.012376176757765756 -0.0033879855478422538 0 0 0 -0.0067035021996997464 -0.010520647638331337 -0.0032861298568104547 0 -0.0032861298568104547 0.012901293020748536 0 0 0 0.00059516134560429548 0.0098303904646721979 0.01023920055025351 0 0.01023920055025351 0.0065746528045218383 0 0 0 0.0041012608172985125 -0.047012198903259389 0.026131302794359712 0 0.026131302794359712 0.0035034127535316095 0 0 0 -0.010877196537431938 -0.048591370440699139 0.001688835800406463 0 0.001688835800406463 0.0024615477034080069 0 0 0 -0.011532455684322804 -0.083691617399572732 -0.0033274029609189418 0 -0.0033274029609189418 0.0064698536619076652 0 0 0 -0.019305440934416246 -0.0016531704988133056 -0.0031016241398227479 0 -0.0031016241398227479 -0.026688124198273266 0 0 0 -0.0070853236742716708 -0.0056810137196389998 -0.0054327230485158584 0 -0.0054327230485158584 -0.034504415608913375 0 0 0 -0.010046357332138073 -0.037730181257998867 0.0060268707625766478 0 0.0060268707625766478 -0.00029640914969558327 0 0 0 -0.0095066476019236082 -0.031622377653484697 0.005009341890248006 0 0.005009341890248006 -0.00081545233267236311 0 0 0 -0.0081094574965392616 -0.013245980546017371 0.00038492270640699128 0 0.00038492270640699128 0.0079481914278473273 0 0 0 -0.0013244472795425101 -0.050975354191235576 0.0060168959973530278 0 0.0060168959973530278 0.0011931183481335705 0 0 0 -0.012445558960775489 -0.052234061188747641 -0.013477438927128473 0 -0.013477438927128473 -0.0049999513196643877 0 0 0 -0.014308503127103012 -0.00082757199885715458 0.00011198583347216129 0 0.00011198583347216129 -0.033446782798279173 0 0 0 -0.0085685886992840545 -0.035599572932016987 0.033878112705842456 0 0.033878112705842456 0.0047200946916055031 0 0 0 -0.0077198695601029543 -0.0072933333458480637 0.0037762810050307048 0 0.0037762810050307048 -0.0024316428971612944 0 0 0 -0.0024312440607523393 0.031903252389801795 0.0097132278119946847 0 0.0097132278119946847 0.031699553708809558 0 0 0 0.015900701524652783 0.024546424214133833 0.020928349507589733 0 0.020928349507589733 0.048858073894586879 0 0 0 0.018351124527180171 -0.078834220119512841 0.0042597530034317876 0 0.0042597530034317876 0.012601239477069662 0 0 0 -0.016558245160610816 0.011628072158508015 0.023086896732769521 0 0.023086896732769521 0.053873587659027555 0 0 0 0.016375414954383868 0.01932919609002344 0.019111521343726953 0 0.019111521343726953 0.034461000818927778 0 0 0 0.013447549227237815 -0.026580716567941337 0.0056254335169353045 0 0.0056254335169353045 0.00022877910504041227 0 0 0 -0.0065879843657252364 -0.015206074146406939 0.0035070359882330765 0 0.0035070359882330765 -0.0012018569021306604 0 0 0 -0.004101982762134403 -0.07970509418290872 0.022009553523664183 0 0.022009553523664183 0.0075012005111321223 0 0 0 -0.018050973417944149 -0.021565753622662553 -0.0072551905109075471 0 -0.0072551905109075471 0.028621402913444241 0 0 0 0.0017639123226954202 -0.00097075402238404676 0.016467654141716762 0 0.016467654141716762 0.060003953038706898 0 0 0 0.014758299754080707 -0.018558748896920857 -0.012043303206729292 0 -0.012043303206729292 0.0044037007539398931 0 0 0 -0.0035387620357452548 -0.059348228670371372 -0.00090311609349616462 0 -0.00090311609349616462 0.0013083536310274507 0 0 0 -0.014509968759836008 -0.10623535585725832 0.0025213114888769372 0 0.0025213114888769372 0.0052600306414636866 0 0 0 -0.025243831303948583 -0.034118968009419937 0.015956365034589526 0 0.015956365034589526 -0.0039886641953417179 0 0 0 -0.0095269080511904969 -0.0074502241260580304 -0.016856287689381966 0 -0.016856287689381966 0.011597957238545176 0 0 0 0.0010369332781216822 -0.019004637602742694 -0.0091682202867387902 0 -0.0091682202867387902 0.010824026499549833 0 0 0 -0.0020451527757982396 0.014691656223036881 0.011150092070662887 0 0.011150092070662887 0.0076784168707647177 0 0 0 0.0055925182734503989 -0.045746955313574492 -0.013012426637576586 0 -0.013012426637576586 -0.0079893682037723186 0 0 0 -0.0134340808793367 -0.046747824690878695 0.0046004905797891009 0 0.0046004905797891009 0.0007950456610963802 0 0 0 -0.011488194757445586 -0.067324359886364094 -0.0085906778164542147 0 -0.0085906778164542147 0.0028712865564815664 0 0 0 -0.016113268332470621 -0.0085658752271434505 -0.011310526109073689 0 -0.011310526109073689 0.021666786335508254 0 0 0 0.0032752277770911956 -0.035278387262265551 0.0035496330319361308 0 0.0035496330319361308 0.001498903505350431 0 0 0 -0.0084448709392287834 -0.01158241479491871 0.0055857755197154428 0 0.0055857755197154428 0.050102046105432646 0 0 0 0.0096299078276284797 -0.0044399566954356241 -0.00013995120899694153 0 -0.00013995120899694153 -0.0014790021612656184 0 0 0 -0.0014797397141753108 -0.016153084308222695 -0.0068082665771602158 0 -0.0068082665771602158 0.0052849093679686043 0 0 0 -0.002717043735063554 -0.057626122231283272 0.0018800428629877006 0 0.0018800428629877006 0.0014299874997692544 0 0 0 -0.014049033682878524 -0.10088583858403007 -0.0059965216614103617 0 -0.0059965216614103617 0.0031248214025468291 0 0 0 -0.024440254295370792 -0.04771200838121771 -0.0097293028000653425 0 -0.0097293028000653425 0.0035439235223729965 0 0 0 -0.011042021214711165 -0.0165128421234048 -0.0082020870729372086 0 -0.0082020870729372086 0.014948228786240886 0 0 0 -0.00039115333429100285 -0.011071319805099566 -0.005284518365112803 0 -0.005284518365112803 0.028174588626597552 0 0 0 0.0042758172053745103 -0.024502984240077113 0.0041823415852524637 0 0.0041823415852524637 0.0016127660855921044 0 0 0 -0.0057225545386212461 -0.019406349924383545 -0.011281032198414871 0 -0.011281032198414871 0.0045218465553766296 0 0 0 -0.0037211258422517463 -0.033772863780597379 -0.011534249551731435 0 -0.011534249551731435 0.001341238276486835 0 0 0 -0.0081079063760276758 -0.030964938404793599 0.004417928532495858 0 0.004417928532495858 0.0014545978773121485 0 0 0 -0.0073775851318703539 -0.017075303911361799 -0.011889474705252895 0 -0.011889474705252895 0.0046975690150215799 0 0 0 -0.0030944337240850425 -0.0041167745888800967 -0.00031938416274594566 0 -0.00031938416274594566 -0.0075888579056082144 0 0 0 -0.002926408123622078 -0.060443762687441366 0.0012763506191137419 0 0.0012763506191137419 0.0010944038040599513 0 0 0 -0.014837339720845361 -0.1103553074159225 -0.0028993593602356094 0 -0.0028993593602356094 0.0015971922832319629 0 0 0 -0.027189528783172628 -0.03385698653678651 -0.0054167309769470595 0 -0.0054167309769470595 -0.0017567891790507967 0 0 0 -0.0089034439289592815 0.018813108966299952 0.011891998126635661 0 0.011891998126635661 0.039887940439770064 0 0 0 0.014675262351517393 0.013415828192353541 0.017212557894190406 0 0.017212557894190406 0.029059613032692777 0 0 0 0.010618860306261579 -0.027526882896679705 -0.0048219576000947777 0 -0.0048219576000947777 -0.0014426391262269966 0 0 0 -0.0072423805057267865 0.020697471461169625 0.010887525853440246 0 0.010887525853440246 0.05393865311132906 0 0 0 0.018659031143124727 -0.0022332759045831235 -0.0078279208730948745 0 -0.0078279208730948745 0.0065690621964927809 0 0 0 0.0010839465729774178 -0.024282538793674383 -0.010834982712256011 0 -0.010834982712256011 0.0084935197548675068 0 0 0 -0.0039472547597017155 0.0073496535498204785 0.0013730046254824852 0 0.0013730046254824852 0.037343839628950826 0 0 0 0.011173373294692868 0.0078847913008054382 -0.0040685326993406268 0 -0.0040685326993406268 0.069311396091210731 0 0 0 0.019299046848003987 -0.06521853245422686 -0.0128689421304784 0 -0.0128689421304784 0.013243530055571329 0 0 0 -0.012993750599663872 -0.029089066915543044 0.0046303522361394725 0 0.0046303522361394725 -0.00075908784069531401 0 0 0 -0.0074620386890595879 -0.0034763017609767246 0.0055425258818777266 0 0.0055425258818777266 -0.0013120258387464899 0 0 0 -0.0011970818999308024 -0.050752969137855097 0.023848972693108927 0 0.023848972693108927 -0.0011984907456645821 0 0 0 -0.012987864970880003 0.0032904063359997793 -0.013574185727643046 0 -0.013574185727643046 0.009173002667092367 0 0 0 0.0031158522507729602 -0.0029005873790629651 0.00089774314596591329 0 0.00089774314596591329 -0.004639194158547676 0 0 0 -0.0018849453844026604 -0.025949792201358752 0.0037187847210211414 0 0.0037187847210211414 0.0062486923441233654 0 0 0 -0.0049252749643088527 0.035369356497924831 0.010776802598679336 0 0.010776802598679336 0.031796451998685971 0 0 0 0.016791452124152673 -0.013157726237055849 -0.006348849165858159 0 -0.006348849165858159 -0.00931596620516267 0 0 0 -0.0056184231105546271 -0.010012667412657359 -0.0037043351799781882 0 -0.0037043351799781882 0.001429300930314556 0 0 0 -0.0021458416205857068 -0.0067504531151000319 -0.0061144222608499332 0 -0.0061144222608499332 0.0031484078932689612 0 0 0 -0.00090051130545776422 -0.0041913867515007697 0.0043468151044303849 0 0.0043468151044303849 0.0036148581919729361 0 0 0 -0.00014413213988193063 0.0042361626402345337 0.0015611806260159566 0 0.0015611806260159566 0.037263978979766854 0 0 0 0.010375035405000302 0.0080328476648871272 -0.0063411722667988668 0 -0.0063411722667988668 0.06483400961814012 0 0 0 0.018216714320756805 -0.0043082762071826042 -0.0093545359169520947 0 -0.0093545359169520947 0.013463388280110462 0 0 0 0.0022887780182319628 0.0017864301413792194 0.012230071967987113 0 0.012230071967987113 0.017491474533317772 0 0 0 0.0048194761686742547 -0.00081786217589575536 -0.010109280841301388 0 -0.010109280841301388 -0.002495255916164521 0 0 0 -0.00082827952301506649 0.0070534183513484856 -0.021064216073921234 0 -0.021064216073921234 0.020695102550597727 0 0 0 0.006937130225486551 -0.034245518053739238 -0.010645643743919575 0 -0.010645643743919575 0.0020655529917654736 0 0 0 -0.0080449912654934341 -0.038463263442044524 0.004979052018452404 0 0.004979052018452404 0.00049336528334253255 0 0 0 -0.0094924745396754891 -0.031538294959916904 0.0061210604081033248 0 0.0061210604081033248 0.0011138340975797856 0 0 0 -0.0076061152155842728 -0.062862917490894787 0.0024316480263965393 0 0.0024316480263965393 0.025012674033679572 0 0 0 -0.0094625608643037901 -0.010232332011190531 0.0003296616964097443 0 0.0003296616964097443 -0.00017855444776659901 0 0 0 -0.0026027216147392618 -0.0082351398678851273 -0.0079441166655652706 0 -0.0079441166655652706 0.0046315266225973595 0 0 0 -0.0009009033113219489 -0.0034818531446277152 0.0062355797629922074 0 0.0062355797629922074 0.0025352551246515947 0 0 0 -0.0002366495049940286 0.0004127991308707224 -0.00059968586703640359 0 -0.00059968586703640359 -0.031166878755054639 0 0 0 -0.0076885199060460208 -0.0092701825494059739 0.0039758196235824238 0 0.0039758196235824238 -0.0031973447487305129 0 0 0 -0.0031168818245341217 -0.017612502890646732 -0.011677827351840437 0 -0.011677827351840437 0.011459679990375282 0 0 0 -0.0015382057250678538 -0.002325802718408878 0.00095008588746078512 0 0.00095008588746078512 -0.0080742249355304323 0 0 0 -0.0026000069134848275 -0.011746923250061769 0.029139073136784377 0 0.029139073136784377 0.0015237226794098113 0 0 0 -0.0025558001426631005 -0.013693519136861412 0.031066627179159978 0 0.031066627179159978 -0.00058711473852388063 0 0 0 -0.0035701584688462989 -0.016472907380287942 -0.017979953599547849 0 -0.017979953599547849 0.0020357727887060639 0 0 0 -0.0036092836478953602 0.015068045715961806 -0.04313765836703877 0 -0.04313765836703877 0.077825760584872006 0 0 0 0.023223451575208442 -0.0034739840778002865 0.001524021279515171 0 0.001524021279515171 -0.0064852362828639702 0 0 0 -0.0024898050901660642 -0.034749706670694547 -0.0068157705704436355 0 -0.0068157705704436355 0.001781569123413318 0 0 0 -0.0082420343868203072 0.00035774486844197817 3.1721428607300872e-05 0 3.1721428607300872e-05 -0.00033098649470097996 0 0 0 6.6895934351940411e-06 0.00066418416477143083 0.0062049684570211205 0 0.0062049684570211205 0.071408260770722709 0 0 0 0.018018111233873757 0.010493740368977897 7.0622507245321486e-05 0 7.0622507245321486e-05 0.048109895320823381 0 0 0 0.014650908922450375 0.0065215775982016 -0.00162612846679977 0 -0.00162612846679977 0.022110304931453495 0 0 0 0.007157970632413857 0.00046466502974462642 -7.2949283676894259e-06 0 -7.2949283676894259e-06 -0.00052304225881627531 0 0 0 -1.4594307267579154e-05 -0.00032099728398143483 0.00017797265830110653 0 0.00017797265830110653 0.00045121478118233114 0 0 0 3.2554374300113053e-05 0.00044069434291005294 -0.0066473296902242515 0 -0.0066473296902242515 0.040178353430674996 0 0 0 0.010154761943396373 -0.00041015627951224154 -0.00025013845360066789 0 -0.00025013845360066789 0.00064709117881722733 0 0 0 5.9233724826190937e-05 -0.0054150547287411697 0.00061948097999343834 0 0.00061948097999343834 -0.0055184901899702106 0 0 0 -0.0027333862296778453 -0.01581106571555925 -0.01145264028683235 0 -0.01145264028683235 0.0014209892711351049 0 0 0 -0.0035975191111060345 -0.03086982287143037 0.0056184467511467967 0 0.0056184467511467967 0.0032676270933103962 0 0 0 -0.0069005489445299814 -0.028127522195295518 -0.014701924473792927 0 -0.014701924473792927 0.0029730686874058776 0 0 0 -0.0062886133769723407 -0.0075277525524351041 -0.0021256221405772111 0 -0.0021256221405772111 -0.0086936173169649238 0 0 0 -0.0040553424673500059 -0.017956828798986302 0.02614135954494512 0 0.02614135954494512 -0.0064390759489958427 0 0 0 -0.0060989761869957304 -0.011989833942743389 -0.020559921227881972 0 -0.020559921227881972 -0.00058426107371589708 0 0 0 -0.0031435237541148076 0.00095601096016134646 -0.0035922643324343417 0 -0.0035922643324343417 0.03028393108863292 0 0 0 0.0078099855121985251 0.0034614467906369933 -0.001527130444675201 0 -0.001527130444675201 0.056104364143198859 0 0 0 0.014891452733458974 -0.017566537717616529 0.0050103681641978023 0 0.0050103681641978023 0.02650113063968268 0 0 0 0.0022336482305165412 -0.027892553715876831 0.0025734513948426178 0 0.0025734513948426178 0.0033263274071097387 0 0 0 -0.0061415565771917591 -0.012324645899839531 -0.0072090722734515058 0 -0.0072090722734515058 0.021755028218193473 0 0 0 0.0023575955795885062 -0.0028642188801330376 0.0030909669899913256 0 0.0030909669899913256 0.043085670255729291 0 0 0 0.010055362843899074 -0.013635882862198495 -0.015410921127239213 0 -0.015410921127239213 0.0047194189156022359 0 0 0 -0.0022291159866490717 -0.0022355694444984395 0.0054057002284334677 0 0.0054057002284334677 -0.0008759806959530228 0 0 0 -0.00077788753511286602 -0.013212154434246504 -0.019736932758562586 0 -0.019736932758562586 0.0049181308835715143 0 0 0 -0.0020735058876686363 -0.023398012545620905 0.02367773289643349 0 0.02367773289643349 -0.0020198443351007178 0 0 0 -0.006354464220180378 -0.011607812974293058 -0.0012539403154595147 0 -0.0012539403154595147 0.0089143358015508212 0 0 0 -0.0006733692931855384 -0.0054685697382041293 -0.0011913111969428444 0 -0.0011913111969428444 0.010960887145035569 0 0 0 0.0013730793517078427 -0.018379068959090694 0.0042103998045240352 0 0.0042103998045240352 -0.0014218565139554051 0 0 0 -0.0049502313682615266 -0.019921270399936623 -0.00080878071871700458 0 -0.00080878071871700458 0.018464186573225662 0 0 0 -0.00036427095667774384 0.012077995618414369 -0.012555659893387722 0 -0.012555659893387722 0.011151668856903801 0 0 0 0.0058074161188295809 -0.015064837940196939 -0.011886375276139019 0 -0.011886375276139019 0.0035006465029680696 0 0 0 -0.0028910478593072242 0.032685663157419831 -0.0096088536481793163 0 -0.0096088536481793163 0.012102347472745079 0 0 0 0.011197002657541227 -0.0092363311702860079 -0.0035951685765110708 0 -0.0035951685765110708 0.020850381298769038 0 0 0 0.0029035125321207472 -0.015197976634935745 -0.0059234894204735627 0 -0.0059234894204735627 0.0025662350767707842 0 0 0 -0.0031579353895412055 -0.034247969017254416 0.0044448077210208214 0 0.0044448077210208214 -0.00085474414215799994 0 0 0 -0.0087756782898531106 -0.01721445680902365 -0.0034614341293910701 0 -0.0034614341293910701 0.022440042155029535 0 0 0 0.0013063963365014695 -0.017147994876600292 -0.0026202185224819914 0 -0.0026202185224819914 0.027859716790375424 0 0 0 0.0026779304784437762 0.024837520186325832 0.03427499752004335 0 0.03427499752004335 0.091429400431267682 0 0 0 0.029066730154398375 -0.0048165300973941338 -0.0060837036419790075 0 -0.0060837036419790075 0.10426309088533151 0 0 0 0.024861640196984357 0.026368104860509778 0.011591194899210944 0 0.011591194899210944 0.038943159866903887 0 0 0 0.016327816181853527 -0.0019965306069005054 0.013817333727317581 0 0.013817333727317581 0.023435957391580942 0 0 0 0.0053598566961701039 -0.039241632132740234 -0.0054642667698437319 0 -0.0054642667698437319 0.00063556841655398877 0 0 0 -0.0096515159290465613 -0.018572951815117436 0.004265793755754102 0 0.004265793755754102 -0.0023346409510247822 0 0 0 -0.0052268981915355589 -0.042887036407561398 -0.007462070408850943 0 -0.007462070408850943 -0.0067924237539558063 0 0 0 -0.012419865040379298 -0.03439457421212503 0.0032435280230588819 0 0.0032435280230588819 -0.0037716598537718259 0 0 0 -0.009541558516474211 0.0031083851370755037 0.002086405566501956 0 0.002086405566501956 -0.0074292658224016095 0 0 0 -0.0010802201713315286 -0.047223139856594494 -0.0023770062572461515 0 -0.0023770062572461515 -0.00038819069968387394 0 0 0 -0.011902832639069586 -0.04217464208522869 -0.0025106691719765737 0 -0.0025106691719765737 -0.0088015525008946285 0 0 0 -0.012744048646530833 -0.066124026463275143 0.0015200932934717997 0 0.0015200932934717997 0.00025649896909558326 0 0 0 -0.016466881873544885 -0.059261081476575002 0.0015836154844965662 0 0.0015836154844965662 -0.011838762622982269 0 0 0 -0.017774961024889319 -0.024318076427187592 -0.0073435370049585447 0 -0.0073435370049585447 0.011101366639565 0 0 0 -0.003304177446905622 -0.0013472278919827139 0.0020233326580723111 0 0.0020233326580723111 -0.0055714181578196947 0 0 0 -0.0017296615124506017 0.027600084382423395 0.017520733944139888 0 0.017520733944139888 0.010938059963578439 0 0 0 0.0096345360865003893 -0.0035427315203222648 -0.0023030229927592863 0 -0.0023030229927592863 0.03506596102385956 0 0 0 0.0078808073758843133 0.0047280111110331764 0.01861095206466825 0 0.01861095206466825 0.035969093550133453 0 0 0 0.010174276165291662 -0.012299855458986653 -0.014181157310259634 0 -0.014181157310259634 0.015678315073090032 0 0 0 0.00084461490352585877 -0.0027057673685195373 0.001418901636867087 0 0.001418901636867087 -0.00042432236129752573 0 0 0 -0.00078252243245421026 0.0012675819801561854 -0.0049098475757849425 0 -0.0049098475757849425 -0.007766936986395666 0 0 0 -0.0016248387515599534 0.001930628759764724 0.0053718529767512457 0 0.0053718529767512457 -0.0039360912545368613 0 0 0 -0.00050136562369270136 -0.0019555976699574449 -0.0010766493372371677 0 -0.0010766493372371677 -0.00046357927477433484 0 0 0 -0.00060479423618297278 -0.0064165793950331368 0.0032060379066794209 0 0.0032060379066794209 -0.0073455226886251085 0 0 0 -0.0034405255209145752 -0.0062242764627071512 -0.0099700480605417335 0 -0.0099700480605417335 -0.010351635122569092 0 0 0 -0.0041439778963190677 -0.044712691624938225 -0.0046436588218939333 0 -0.0046436588218939333 -0.014877497109662198 0 0 0 -0.014897547183650108 -0.062462469436415924 0.0045865667857615065 0 0.0045865667857615065 -0.020782455728597733 0 0 0 -0.020811231291253413 -0.070173582932821318 0.0050109119543864447 0 0.0050109119543864447 -0.0095157724169874641 0 0 0 -0.019922338837452189 -0.05037474092197796 -0.0048534744298771955 0 -0.0048534744298771955 -0.0070554664557763574 0 0 0 -0.014357551844438578 -0.013031313744244016 -0.017853979927998309 0 -0.017853979927998309 0.0067686149787252181 0 0 0 -0.0015656746913796649 -0.018608754275706855 0.0044198724677298479 0 0.0044198724677298479 0.00074994243737016783 0 0 0 -0.00446470295958417 -0.016253306316346569 -0.011977607193435831 0 -0.011977607193435831 0.0077926803068667783 0 0 0 -0.0021151565023699581 -0.014571727514831601 -0.011650228050287384 0 -0.011650228050287384 0.0036273833802330513 0 0 0 -0.0027360860336496096 -0.014423528105416044 0.0037261558310010103 0 0.0037261558310010103 0.0011862433740135875 0 0 0 -0.0033093211828506171 -0.00658854067811733 0.0040831249277275454 0 0.0040831249277275454 -0.0025981638295662027 0 0 0 -0.0022966761269208828 -0.0065024617771330135 0.00464487830295293 0 0.00464487830295293 -0.0022995476434123883 0 0 0 -0.00220050235513635 -0.015951380347422592 -0.018226564809428539 0 -0.018226564809428539 0.065070512584570972 0 0 0 0.012279783059287092 0.015949411209581574 -0.00086592223932161622 0 -0.00086592223932161622 0.18671906721970741 0 0 0 0.050667119607322217 -0.032167930486934442 -0.0040245421860727881 0 -0.0040245421860727881 0.0080864383012205637 0 0 0 -0.0060203730464284885 -0.0086807123932772512 -0.0018653813452931337 0 -0.0018653813452931337 0.019498234399302317 0 0 0 0.0027043805015062872 -0.016713223101791005 -0.0078263257740213699 0 -0.0078263257740213699 0.013528059615075361 0 0 0 -0.00079629087167894241 -0.0062149213722281511 0.0052237104613827865 0 0.0052237104613827865 0.0029927664947073593 0 0 0 -0.00080553871938019925 -0.0033194055732790329 0.022379564007249497 0 0.022379564007249497 0.018750700554267974 0 0 0 0.0038578237452475683 -0.019778121994102227 -0.0090922710435001886 0 -0.0090922710435001886 -0.0009052172266780234 0 0 0 -0.0051708348051950903 0.012339698896333871 -0.014700389985416958 0 -0.014700389985416958 0.028999151143804913 0 0 0 0.010334712510034691 -0.0033622317022637717 -0.0018727673145224125 0 -0.0018727673145224125 0.0074081277417566496 0 0 0 0.0010114740098732221 -0.029093252022053595 0.01863223783971435 0 0.01863223783971435 0.0013048527138042054 0 0 0 -0.0069470998270623197 -0.010178315545505079 -0.017138122284959589 0 -0.017138122284959589 0.011889499278156634 0 0 0 0.00042779593316283338 -0.0036136883316724155 -0.013783830045345676 0 -0.013783830045345676 0.012108062207057069 0 0 0 0.0021235934688461633 -0.011111797175739568 -0.0026702478869217172 0 -0.0026702478869217172 -0.0082819754802551104 0 0 0 -0.0048484431639986558 -0.0081005624919997937 -0.005689266366356055 0 -0.005689266366356055 0.022289942032387461 0 0 0 0.0035473448850969064 -0.0060117681074121545 -0.0065238761351946919 0 -0.0065238761351946919 -0.0076925980181422673 0 0 0 -0.0034260915313886076 -0.010171112383832046 -0.005512865328751837 0 -0.005512865328751837 -0.030552091177429908 0 0 0 -0.010180800890315519 -0.021695137486330486 0.0049500495368330483 0 0.0049500495368330483 -0.0027614871353995041 0 0 0 -0.006114156155432501 -0.01819502168926419 0.0048810252150644304 0 0.0048810252150644304 -0.0031260778611555615 0 0 0 -0.0053302748876049395 -0.016740767308514485 -0.00018409939559505505 0 -0.00018409939559505505 0.015940593719626965 0 0 0 -0.00020004339722188213 -0.020964981218994067 -0.0056307444547604169 0 -0.0056307444547604169 0.019117791536544859 0 0 0 -0.00046179742061228102 -0.013085510711451968 0.0033286462611589471 0 0.0033286462611589471 -0.0022767095502483729 0 0 0 -0.0038405550654250879 -0.011216660711883254 0.0043487289315164348 0 0.0043487289315164348 0.0016510464920764002 0 0 0 -0.0023914035549517125 -0.012835480550211621 0.0036056863465377849 0 0.0036056863465377849 0.0010793409856141144 0 0 0 -0.0029390348911493744 -0.0065838740430725351 0.0048960742806148372 0 0.0048960742806148372 -0.028099295204762398 0 0 0 -0.0086707923119587471 -0.0023609558587131818 0.0055664509075217528 0 0.0055664509075217528 -0.014198878041531304 0 0 0 -0.0041399584750611007 -0.0026842492697761733 -0.010167300589249861 0 -0.010167300589249861 -0.015017221783272527 0 0 0 -0.0044253677632621891 -0.0064652327444192914 -0.0094489421973126264 0 -0.0094489421973126264 -0.027281395261450403 0 0 0 -0.0084366570014674513 0.00093271836267947578 -0.017652872513414027 0 -0.017652872513414027 0.064605206952919381 0 0 0 0.016384481328899719 -0.0011877769742156818 0.015254903028086853 0 0.015254903028086853 -0.0045882627101878626 0 0 0 -0.0014440099211008306 -0.00092634595946972098 -0.0028232954100427254 0 -0.0028232954100427254 -0.0049802778353904564 0 0 0 -0.0014766559487151554 -0.0012357482886016236 -0.012337695438583651 0 -0.012337695438583651 -0.006040204309598507 0 0 0 -0.0018189881495499494 -0.0012154002488855564 0.0038731549435611079 0 0.0038731549435611079 -0.0070373390028379834 0 0 0 -0.002063184812930885 -0.031521765979115601 0.024645958489031325 0 0.024645958489031325 -0.0023399559136345616 0 0 0 -0.0084654304731874852 -0.01198887311240826 -0.020017943683724778 0 -0.020017943683724778 0.0051769208918439613 0 0 0 -0.0017029880551410193 -0.0056552611104473405 -0.01641003931868712 0 -0.01641003931868712 0.0070767653724355117 0 0 0 0.00035537606549707057 -0.01401832213262813 -0.0016793060279435253 0 -0.0016793060279435253 0.022631406492382978 0 0 0 0.0021532710899387071 -0.00087316377306523307 0.0093979106785438693 0 0.0093979106785438693 -0.017793338263206948 0 0 0 -0.0046666255090674902 0.00016400962886597981 -0.0013151375684959388 0 -0.0013151375684959388 -0.0018055459527239748 0 0 0 -0.00041038408096438772 0.00017648911333623118 0.0016982823284537041 0 0.0016982823284537041 -0.0024383702176109523 0 0 0 -0.00056547027606912437 -0.0013480700019858904 -0.0076629733641541131 0 -0.0076629733641541131 -0.016469729992938387 0 0 0 -0.0044544499987310138 -0.013992276362327499 -0.0043000675911248343 0 -0.0043000675911248343 -0.017228518740544541 0 0 0 -0.007805198775718003 0.016529586762450074 -0.01580634284520907 0 -0.01580634284520907 0.003843786908505134 0 0 0 0.0050933434177388298 0.0098017523463197059 0.00059300568759609873 0 0.00059300568759609873 0.03243005907729915 0 0 0 0.010557952855904704 0.014839634515730726 -0.0034962600368426966 0 -0.0034962600368426966 0.062611880412402954 0 0 0 0.019362878732033406 -0.0039636529948276801 0.0045807205922973023 0 0.0045807205922973023 -0.0034612051186468755 0 0 0 -0.0018562145283686389 -0.050811589421138059 0.023116739937662889 0 0.023116739937662889 0.00148644846771262 0 0 0 -0.01233128523835636 -0.05176831693969508 0.019829368733014122 0 0.019829368733014122 -0.0010562885924305654 0 0 0 -0.013206151383031384 -0.014031166809287524 -0.0057403143995606865 0 -0.0057403143995606865 -0.0062663195728573269 0 0 0 -0.0050743715955362404 -0.012163299029054978 0.00070302013731286285 0 0.00070302013731286285 0.0071522917055076426 0 0 0 -0.001252751830886828 -0.017710769940168479 -0.011345176654701916 0 -0.011345176654701916 0.007169078372403128 0 0 0 -0.0026354228919413438 -0.014307746178433053 -0.013401422794808479 0 -0.013401422794808479 0.014054616996740273 0 0 0 -6.3282295423215847e-05 -0.031475190449690382 0.024232736108249719 0 0.024232736108249719 -0.0027066438050100672 0 0 0 -0.0085454585636750569 -0.011598582178153571 -0.017762757834588833 0 -0.017762757834588833 0.0068693448580272598 0 0 0 -0.0011823093300314946 -0.012683606830935112 -0.018454946389051541 0 -0.018454946389051541 0.0061627640811656725 0 0 0 -0.0016302106874423461 -0.041998449994804954 0.0026508305471023646 0 0.0026508305471023646 -0.0037094867133854389 0 0 0 -0.011426984177047598 -0.05876241123397663 -0.007287149518418184 0 -0.007287149518418184 -0.0067484560184098465 0 0 0 -0.016377716813096622 -0.053478820793151791 -0.009296584773420229 0 -0.009296584773420229 -0.00024758166357262824 0 0 0 -0.013431600614181109 -0.039621090970793311 0.0037220280122965735 0 0.0037220280122965735 -0.00027928678069317819 0 0 0 -0.0099750944378716351 -0.014360204591969333 -5.7946421620414489e-05 0 -5.7946421620414489e-05 0.01055478303653656 0 0 0 -0.00095135538885819031 -0.047582789164271277 0.019001701377047153 0 0.019001701377047153 -0.0027887900958192269 0 0 0 -0.01259289481502246 -0.004284383365575184 -0.015608585029979749 0 -0.015608585029979749 0.011200223495827721 0 0 0 0.001728960032563065 -0.0043615887513113183 -0.015862545959613381 0 -0.015862545959613381 0.009497463245726534 0 0 0 0.0012839686236038039 -0.028634426467112707 -0.016407245256201963 0 -0.016407245256201963 0.0057941631258691811 0 0 0 -0.0057100658353108971 -0.015403297993477574 -0.0050148073573069163 0 -0.0050148073573069163 -0.010563923652584337 0 0 0 -0.0064918054115154916 -0.0012490880742860068 -0.010795490390067398 0 -0.010795490390067398 -0.0045918548583931962 0 0 0 -0.0014602357331697999 -0.012058722028899599 -0.0024054045221651348 0 -0.0024054045221651348 0.0069901823329244842 0 0 0 -0.0012671349239937839 -0.03446526682895619 0.0053755508879769513 0 0.0053755508879769513 -0.0022609061195620105 0 0 0 -0.0091815432371295455 -0.052705202757613284 0.03035175665831169 0 0.03035175665831169 0.0097669621837188636 0 0 0 -0.010734560143473543 -0.03313099711972578 -0.013650590354380737 0 -0.013650590354380737 0.0060061624977048034 0 0 0 -0.0067812086555052442 -0.0071946961709138668 0.027632398183815354 0 0.027632398183815354 0.0029868960950681089 0 0 0 -0.0010519500189615505 -0.021892353369077834 -0.014835728444354324 0 -0.014835728444354324 -0.0028023075312343312 0 0 0 -0.0061736652250779303 -0.0020891972692765881 0.032367906002541136 0 0.032367906002541136 0.0034447234297680929 0 0 0 0.00033888154012295946 -0.032061101272549825 0.0046677413762874834 0 0.0046677413762874834 0.00010215706030738958 0 0 0 -0.0079897360530606105 -0.013291999691058145 0.0016818951959297773 0 0.0016818951959297773 0.0048278322238724438 0 0 0 -0.0021160418667964254 -0.028142343770479417 -0.01464070797528999 0 -0.01464070797528999 0.0022491196897993504 0 0 0 -0.0064733060201700443 -0.0028982370976265402 0.0075964777193056054 0 0.0075964777193056054 0.0046292117434004534 0 0 0 0.00043274366144344448 -0.0040439341293734832 -0.011499017155297303 0 -0.011499017155297303 0.014018449907888697 0 0 0 0.0024936289446288451 -0.012140751041350237 0.0024411613275651485 0 0.0024411613275651485 0.00051281113332178976 0 0 0 -0.0029069849770071146 0.00094441814536061486 0.00050703935563434221 0 0.00050703935563434221 -0.00062398335057078924 0 0 0 8.0108698697678449e-05 -0.0043482254070195125 0.0024144185536738583 0 0.0024144185536738583 -0.0020392647601967795 0 0 0 -0.0015968725418042951 -0.0005857756764773292 -0.011950103302033166 0 -0.011950103302033166 -0.004637588198903142 0 0 0 -0.0013058409688450068 -0.000144465911703473 -0.0055772132061170376 0 -0.0055772132061170376 -0.0033920523491661747 0 0 0 -0.00088412956521743968 -0.0003825676712612136 0.0065381824505701402 0 0.0065381824505701402 0.0035385800696197123 0 0 0 0.00078900309958962467 0.00066473431035185548 -0.00037353470748324735 0 -0.00037353470748324735 -0.00040248643780449456 0 0 0 6.5561968136895743e-05 0.0011975099970618075 0.013753997938857676 0 0.013753997938857676 0.0028138177417238452 0 0 0 0.0010028319346961911 -0.0032212441903318734 -0.0017503116947681363 0 -0.0017503116947681363 -0.0014457028450860498 0 0 0 -0.0011667367588544808 -0.014850381966615339 -0.0065817543174768178 0 -0.0065817543174768178 -0.011862068071468501 0 0 0 -0.0066781125095209393 -0.016253304208172614 -0.0070722006481241132 0 -0.0070722006481241132 0.006062353029627765 0 0 0 -0.0025477377946362401 -0.019306459138728194 -0.0076900179663581189 0 -0.0076900179663581189 0.0052500713713699021 0 0 0 -0.0035140969418395451 -0.0094124756954767751 -0.0019528591938752227 0 -0.0019528591938752227 -0.015331527407957131 0 0 0 -0.00618600077585847 -0.0097324092276531438 -0.0009995505343996236 0 -0.0009995505343996236 -0.014470682209789698 0 0 0 -0.0060507728593606758 -0.0042730003351939376 0.01713578446094733 0 0.01713578446094733 0.049936539049346543 0 0 0 0.011415884678538147 -0.018805165447721629 -0.012810541309253552 0 -0.012810541309253552 0.0033942985173357268 0 0 0 -0.0038527167325964687 -0.019864651336574148 -0.018127291049199086 0 -0.018127291049199086 0.0011690782135181238 0 0 0 -0.0046738932807639938 -0.025494950330378484 0.0034351374321790881 0 0.0034351374321790881 0.0016914084795090038 0 0 0 -0.0059508854627173735 -0.059648446285844814 0.018868998545844673 0 0.018868998545844673 0.0025507975755563184 0 0 0 -0.014274412177572027 -0.048078675557168105 0.028183148211854581 0 0.028183148211854581 0.022892239740199827 0 0 0 -0.0062966089542421111 0.00023633314641602343 0.016106356382986207 0 0.016106356382986207 0.032712239039994456 0 0 0 0.008237143046602613 -0.012764344619290047 -0.0065027899451743452 0 -0.0065027899451743452 0.0032925894986250981 0 0 0 -0.002367938780166251 -0.014653095362328339 -0.0084048688778227271 0 -0.0084048688778227271 0.00020735497895796318 0 0 0 -0.00361143509584258 0.016113880471022905 0.020175000314662111 0 0.020175000314662111 0.033361728434813803 0 0 0 0.012368902226459186 -0.032553911398044755 -0.012433453168165465 0 -0.012433453168165465 0.010679882935445806 0 0 0 -0.0054685071156497234 -0.038618150646650654 -0.0079912046021872185 0 -0.0079912046021872185 0.0010013968115879512 0 0 0 -0.009404188458765686 0.0009934465079295754 0.013857931551833649 0 0.013857931551833649 0.024039945838050497 0 0 0 0.0062583480864950233 0.0091979533650368497 0.016452385612697476 0 0.016452385612697476 0.018497278004356753 0 0 0 0.0069238078423484025 -0.019577292935274382 -0.0091882300804758121 0 -0.0091882300804758121 0.011221874104574092 0 0 0 -0.0020888547076750585 -0.01269364891610103 -0.00062896124287244062 0 -0.00062896124287244062 0.0055369781383172965 0 0 0 -0.0017891676944459321 -0.012179294262241878 0.00010938193099167565 0 0.00010938193099167565 0.010345053289117362 0 0 0 -0.00045856024328113157 -0.011850259738201193 0.00069760821195570359 0 0.00069760821195570359 0.017891344858548729 0 0 0 0.0015102712800868869 0.010965862931424875 0.014262556742240973 0 0.014262556742240973 0.056556940109509846 0 0 0 0.016880700760233625 -0.02091005899550008 -0.0041344688838856891 0 -0.0041344688838856891 0.00015279177154758905 0 0 0 -0.0051893168059881645 -0.032052677961353013 0.0058770723218814665 0 0.0058770723218814665 0.00017134269825327432 0 0 0 -0.0079703338157749437 -0.0068982383206956134 0.0038888774912720974 0 0.0038888774912720974 -0.0038884467342067876 0 0 0 -0.0026966712637256003 0.033101988534832094 0.011111272074438294 0 0.011111272074438294 0.031039883652271616 0 0 0 0.016035468046775858 -0.012271499750939663 -0.0047815826526399763 0 -0.0047815826526399763 -0.011054700231501235 0 0 0 -0.0058315499956102523 -0.023819862793682051 -0.017430643775601856 0 -0.017430643775601856 -0.0019991871606948319 0 0 0 -0.0064547624885942269 -0.039321322575856785 -0.014894619831845576 0 -0.014894619831845576 -0.00077343598095641619 0 0 0 -0.010023689639203304 -0.016184138430571038 -0.0065733958063285414 0 -0.0065733958063285414 0.021743173903795376 0 0 0 0.0013897588683060846 
</DataArray>
<DataArray type="Float64" Name="cross_section_updated" format="ascii">
0.0010045408966156335 0.0010113943553278937 0.0010159625137786702 0.0010205890160052266 0.0010257034357013639 0.0010316004704977466 0.0010384491949108096 0.0010458725318780238 0.0010538578774544219 0.0010614379613636032 0.0020171364429330059 0.0020448089107955548 0.0020648480632550837 0.0020840067456392489 0.0021037000886753175 0.0021241205495274294 0.0021454971734763358 0.0021670630324218208 0.0021887479013719753 0.002209507311059386 1 1 1 1 1 1 1 1 1 1 1 1 1 1 1 1 1 1 1 1 1 1 1 1 1 1 1 1 1 1 1 1 1 1 1 1 1 1 1 1 1 1 1 1 1 1 1 1 1 1 1 1 1 1 1 1 1 1 1 1 1 1 1 1 1 1 1 1 1 1 1 1 1 1 1 1 1 1 1 1 1 1 1 1 1 1 1 1 1 1 1 1 1 1 1 1 1 1 1 1 1 1 1 1 1 1 1 1 1 1 1 1 1 1 1 1 1 1 1 1 1 1 1 1 1 1 1 1 1 1 1 1 1 1 1 1 1 1 1 1 1 1 1 1 1 1 1 1 1 1 1 1 1 1 1 1 1 1 1 1 1 1 1 1 1 1 1 1 1 1 1 1 1 1 1 1 1 1 1 1 1 1 1 1 1 1 1 1 1 1 1 1 1 1 1 1 1 1 1 1 1 1 1 1 1 1 1 1 1 1 1 1 1 1 1 1 1 1 1 1 1 1 1 1 1 1 1 1 1 1 1 1 1 1 1 1 1 1 1 1 1 1 1 1 1 1 1 1 1 1 1 1 1 1 1 1 1 1 1 1 1 1 1 1 1 1 1 1 1 1 1 1 1 1 1 1 1 1 1 1 1 1 1 1 1 1 1 1 1 1 1 1 1 1 1 1 1 1 1 1 1 1 1 1 1 1 1 1 1 1 1 1 1 1 1 1 1 1 1 1 1 1 1 1 1 1 1 1 1 1 1 1 1 1 1 1 1 1 1 1 1 1 1 1 1 1 1 1 1 1 1 1 1 1 1 1 1 1 1 1 1 1 1 1 1 1 1 1 1 1 1 1 1 1 1 1 1 1 1 1 1 1 1 1 1 1 1 1 1 1 1 1 1 1 1 1 1 1 1 1 1 1 1 1 1 1 1 1 1 1 1 1 1 1 1 1 1 1 1 1 1 1 1 1 1 1 1 1 1 1 1 1 1 1 1 1 1 1 1 1 1 1 1 1 1 1 1 1 1 1 1 1 1 1 1 1 1 1 1 1 1 1 1 1 1 1 1 1 1 1 1 1 1 1 1 1 1 1 1 1 1 1 1 1 1 1 1 1 1 1 1 1 1 1 1 1 1 1 1 1 1 1 1 1 1 1 1 1 1 1 1 1 1 1 1 1 1 1 1 1 1 1 1 1 1 1 1 1 1 1 1 1 1 1 1 1 1 1 1 1 1 1 1 1 1 1 1 1 1 1 1 1 1 1 1 1 1 1 1 1 1 1 1 1 1 1 1 1 1 1 1 1 1 1 1 1 1 1 1 1 1 1 1 1 1 1 1 1 1 1 1 1 1 1 1 1 1 1 1 1 1 1 1 1 1 1 1 1 1 1 1 1 1 1 1 1 1 1 1 1 1 1 1 1 1 1 1 1 1 1 1 1 1 1 1 1 1 1 1 1 1 1 1 1 1 1 1 1 1 1 1 1 1 1 1 1 1 1 1 1 1 1 1 1 1 1 1 1 1 1 1 1 1 1 1 1 1 1 1 1 1 1 1 1 1 1 1 1 1 1 1 1 1 1 1 1 1 1 1 1 1 1 1 1 1 1 1 1 1 1 1 1 1 1 1 1 1 1 1 1 1 1 1 1 1 1 1 1 1 1 1 1 1 1 1 1 1 1 1 1 1 1 1 1 1 1 1 1 1 1 1 1 1 1 1 1 1 1 1 1 1 1 1 1 1 1 1 1 1 1 1 1 1 1 1 1 1 1 1 1 1 1 1 1 1 1 1 1 1 1 1 1 1 1 1 1 1 1 1 1 1 1 1 1 1 1 1 1 1 1 1 1 1 1 1 1 1 1 1 1 1 1 1 1 1 1 1 1 1 1 1 1 1 1 1 1 1 1 1 1 1 1 1 1 1 1 1 1 1 1 1 1 1 1 1 1 1 1 1 1 1 1 1 1 1 1 1 1 1 1 1 1 1 1 1 1 1 1 1 1 1 1 1 1 1 1 1 1 1 1 1 1 1 1 1 1 1 1 1 1 1 1 1 1 1 1 1 1 1 1 1 1 1 1 1 1 1 1 1 1 1 1 1 1 1 1 1 1 1 1 1 1 1 1 1 1 1 1 1 1 1 1 1 1 1 1 1 1 1 1 1 1 1 1 1 1 1 1 1 1 1 1 1 1 1 1 1 1 1 1 1 1 1 1 1 1 1 1 1 1 1 1 1 1 1 1 1 1 1 1 1 1 1 1 1 1 1 1 1 1 1 1 1 1 1 1 1 1 1 1 1 1 1 1 1 1 1 1 1 1 1 1 1 1 1 1 1 1 1 1 1 1 1 1 
</DataArray>
<DataArray type="Float64" Name="displacement_divergence" format="ascii">
0.0045318067348215502 0.01138412042126786 0.015949663823792058 0.020577266897757313 0.025693167053953962 0.031590541868318694 0.03843727653708686 0.045858923036974218 0.053850481137232634 0.061401685062320285 0.0086229027798762539 0.022411884941619043 0.032428930455324315 0.042003292071919961 0.051845195157535433 0.062050144492082265 0.072733707446827472 0.083497265336929694 0.094394839294508079 0.10454177898484439 -2.759086800201648e-06 4.5982271645394161e-06 -6.5209543936325091e-06 -4.5982912811181701e-06 -3.8592215576353927e-05 -2.727337658042517e-05 -4.2150198846905089e-05 -2.8719345766553305e-05 -3.7591721830402321e-05 -6.5557677689732073e-05 -4.3319925106558707e-06 -5.0609839771087371e-06 -1.3119173602736425e-05 -1.3598421796966877e-05 -1.5428265474763783e-05 -1.0290597960370826e-05 0.00011682249686632666 -1.0438790082302951e-05 -3.4693536012345323e-06 -1.2831082133920799e-05 -2.6296374045795077e-06 -8.1386852096179772e-06 -1.0370057415216892e-05 -1.172847344770563e-05 9.4629537069807238e-05 -7.8884134201750555e-05 -4.2723460440512423e-05 -2.329954093960887e-05 -1.4345567154585746e-05 -3.3535528302107149e-05 6.3516632017286833e-06 -9.6604042028757453e-06 -1.2875096606119454e-05 -7.5055007040193602e-06 -1.6933363443553257e-05 -2.3909867042992976e-05 1.6016399924778011e-05 -3.4501770748287256e-05 0.00011586545683278367 -9.6273309281212855e-06 -6.735569934120415e-06 1.6199065739152103e-05 1.3053641930364833e-05 -5.4057134248309234e-06 -1.0545113482490384e-05 -1.0834762233350068e-05 -1.1308107017819351e-06 -2.6863689386693636e-06 0.00012151617718537659 -5.4474217976352213e-06 7.4768822858868134e-06 -2.0312325955889753e-05 9.2200361358114213e-06 -4.3139909210527703e-06 -2.5332550796062928e-06 -4.4521837395292054e-05 -3.8897209123718753e-06 2.2162807451493304e-05 1.7468260780358289e-05 -1.5125428923712034e-06 -1.5328205643974939e-05 3.6842559951404658e-05 -1.017652567129678e-05 -7.2442119835599921e-06 -9.1553068773967067e-06 -2.9621550371720762e-05 -4.154484728184729e-05 -1.5884429015817242e-05 -1.269993385487919e-05 -3.1788140879390796e-05 -2.4444226006344077e-05 -7.5579138943316082e-06 -2.7954920604364588e-05 -4.031733032956552e-05 -8.7080254333370892e-06 -4.2475201502761514e-06 3.0519208398942428e-05 -4.0195623088095311e-06 -8.774388494111712e-06 -1.373771244689241e-05 -2.0805816025403108e-05 -4.1625064309893567e-05 -3.0660516392971137e-05 -1.1660758483455585e-05 -1.4109812675777364e-05 -6.3754458709045208e-06 -6.0721671745238431e-06 -5.6076564759121777e-06 -2.0235584612700899e-05 -1.2101263663721429e-05 -3.5653290288331745e-06 -5.1099475787475112e-06 -5.7163143648164489e-06 -8.3115278350718159e-06 3.7056836817872692e-06 -1.2615162513490187e-05 1.6779175565411062e-05 3.8290980119442056e-05 -9.7348052978331497e-07 -5.7376597762507937e-06 4.4381604480076692e-05 3.0308774282082252e-05 -7.8422923793717719e-06 -9.9065144067531892e-06 1.8097367205971264e-05 4.7498825436059766e-06 1.6467680875787598e-06 -2.1685822414617276e-05 -1.9491256666931368e-05 1.3716722389753683e-05 -8.7820611342657659e-06 2.0554249397366142e-05 -3.3570322749661231e-05 -5.5266442506555963e-05 1.9927058293980117e-06 5.2570299657297395e-05 -5.4899724251155431e-06 -3.8010571843824324e-06 -4.969573256444773e-06 -5.7718837717748474e-06 -5.3298629828215857e-06 -4.5056832901974155e-06 8.8406060618604503e-06 -9.6062978634068479e-06 -7.2858027834602373e-06 -8.4212154677181266e-06 3.9640076109601118e-06 -5.7932216223246895e-05 -1.2619318635382086e-05 -8.9105916893909181e-06 -1.9668139658399322e-05 -4.4995864240872808e-05 -2.7933026170913423e-05 -2.9166656298970341e-05 -4.8330330096310955e-05 -4.434760938277837e-05 -1.1268941146612311e-05 -3.3349061419950704e-05 1.9866089759883339e-05 6.1235214300847303e-06 6.3204212686932475e-06 -1.6928959661863577e-05 -5.936835121053371e-06 4.3183151388887098e-06 -1.4869987197507371e-05 -1.0989402374504226e-05 -1.4772842262242976e-05 -1.3593605024428644e-05 -1.058112015092469e-06 -2.0011397078277833e-05 -1.7789204773023125e-05 -8.1994760094236322e-06 -5.9640207119293733e-06 -8.2120328152063817e-06 -8.5887627750306177e-06 -1.3756097088197625e-05 2.6274678149080822e-06 -5.4543539186200431e-06 -1.2212347953722832e-05 1.3648287510123794e-05 -9.8129014051448388e-06 -7.5204024466789441e-06 -4.1605694631358027e-05 -3.0648324065998424e-05 4.8566182295091622e-05 -5.8108421806197982e-06 4.8143659712910714e-06 -2.3134924102081382e-05 -3.0725535032518467e-05 -4.9782275453234622e-05 -1.3934029840948593e-05 -2.7242805106936757e-05 -3.5501382180884553e-05 -2.9007257490080685e-05 -1.5968956763524215e-05 -1.5095063840909691e-05 -2.0089235146509554e-05 -1.1153336305779523e-05 -3.8697561846124176e-06 -1.3311365761797594e-05 -7.2978607749508168e-06 -1.011713088589555e-05 -1.9375569191008335e-05 -1.6749059141874098e-05 -9.1442668207926799e-06 -9.0822728414878388e-06 -1.1579098536204212e-05 1.5908021112915694e-05 3.7125460604199294e-05 8.7087250534975186e-07 -5.4581405649180961e-06 -1.0307068264730899e-05 -2.0505374440381785e-05 3.3529863610553103e-06 -1.4416421251661516e-05 -1.048185233108327e-05 -8.8305748548449681e-06 -3.1024989672416047e-05 -4.7799399873921241e-05 -5.3183611158273914e-06 -1.9438225711344196e-05 -2.3125958450935151e-05 -6.3546616426509383e-05 -3.5935431108173696e-05 4.5078158305159892e-05 0.00012121367178644606 -2.0006661102384951e-06 -8.8697371396111234e-06 1.2282800024720464e-05 -1.9406306258863888e-05 -8.0484107715049232e-06 -1.7940704770989541e-05 -1.8047273247222577e-05 -5.6751113777135445e-05 -1.5616746984711046e-05 -7.3635737209388433e-06 -7.6436650366345293e-07 -1.2739393410465474e-05 -1.0454060822764521e-06 3.0407679208699573e-06 -2.5353606121038034e-05 -1.2156512096909728e-05 -4.1027227842736545e-05 -1.0041911147146794e-05 -1.118657340224246e-05 -1.2012973257686296e-05 -9.7196902641910133e-06 -1.2398912204609655e-05 4.2611690232389083e-05 -4.3989223096059664e-06 -8.1459804564986151e-06 -4.2422745279466259e-06 2.6525343280902355e-05 -3.0690751261056842e-05 -5.9812227470582801e-06 -4.8774293915737212e-05 -3.0991847476749654e-05 -3.2518838724788232e-05 -6.710290919500492e-06 -4.4104135694056845e-06 5.5032795635584784e-06 3.8498519710915386e-06 -4.8040514205917548e-06 -1.7483182351040946e-05 -1.0342740914247479e-05 -6.630978103785803e-06 4.7147801619355323e-06 -7.9352749049357678e-06 -1.3233669014920801e-05 -9.575927542786666e-06 -6.6720190693562217e-06 -2.8104802380046425e-05 -2.1370905829728534e-05 -2.5798995673530955e-05 -4.0387724859982494e-05 -3.0629779398670611e-05 -1.0901021857329936e-05 4.9751784289023488e-05 -3.0907748928203512e-05 -2.3660380558150931e-05 -1.7735411852905931e-06 -1.6211842132858467e-05 -1.9315193079634367e-05 -3.9378808988213118e-05 -4.0301728947749878e-05 -3.3889172985630649e-06 -5.0392500319268885e-06 -1.8031083561224628e-05 -1.8930623537772207e-05 -1.3377897041817205e-05 2.1534980339046569e-05 3.9553333666134116e-05 -1.5935847441558681e-05 -2.493772690633689e-05 -1.9878659571190662e-05 -3.7360242506934979e-05 -2.3891201822949329e-06 -8.4674415087297077e-06 -7.5158590930762847e-06 -1.4993231919329409e-05 -1.858561609861963e-05 -1.716025272561414e-05 -1.6867785723815146e-05 -2.6033164717412439e-05 -3.9273856783410537e-05 -3.0609934347291077e-05 -2.3726300087405923e-05 -1.8894155886245006e-05 -2.4551216956337596e-05 -1.1644022664697917e-05 1.5886910155029621e-05 -3.1330398963134964e-06 -8.2233878960159996e-06 -4.9028950876769256e-06 -1.8837023023916811e-05 -2.3448926310285454e-05 -3.12997485256798e-06 3.7744444199391174e-06 -3.7775739651469721e-05 1.6338241136759613e-05 -1.4094305005887277e-05 4.1671318662598575e-06 -4.0553196149931831e-05 -2.7231866185015624e-05 4.4669768284818254e-06 -5.7972615883816107e-06 -9.8291665970065523e-06 -4.06131706694986e-05 -2.7669239589750379e-05 1.1257680819653745e-05 -1.0094133778713139e-05 -1.1911366527296227e-05 -2.2879373578215613e-05 -1.803471048252979e-05 5.3260782182246654e-07 1.2019681631280819e-06 -1.6369848325394956e-05 -1.4406527374869802e-05 -1.5010309584943719e-05 -1.465372619216283e-05 -1.0665926740841707e-05 9.8673621727811136e-06 1.3451101643234286e-06 -4.8110026631166536e-06 -1.4851971766490814e-05 -6.0936564605503993e-07 1.8055392253644302e-06 7.7808041663511885e-06 -1.7844793116337729e-05 -9.6852896152763678e-06 -3.1523025392717032e-05 -2.4202872735061116e-05 -6.529395465706099e-07 2.325821238094081e-05 4.1130574132997066e-05 1.8317942628191873e-06 4.5757176065348664e-06 -1.6336422942990567e-05 -2.047815902936291e-05 -1.0924901017179912e-05 -1.4503646126621194e-05 -5.1613717012258969e-06 -1.2314005146920573e-05 -9.3583616152624746e-06 -1.144028228553624e-05 -1.2379062867787986e-05 -5.1946495545348761e-06 -2.2496775805406783e-06 -5.8306681358470669e-06 -8.5522822077311374e-06 -2.6145498742166409e-05 -2.113988466386028e-05 1.1514900986163944e-05 -3.9196065729405163e-05 -2.8282062578350262e-05 -1.8984424140489325e-05 1.2963713261963223e-05 1.3131147092268961e-05 3.2305494303402622e-07 -1.2227838432932094e-05 -2.7173025477981696e-06 -1.1884952325787765e-05 -2.7008282163762214e-05 -1.9619678944386677e-05 1.4191686018718869e-05 1.7944504463825628e-06 6.7162886921836923e-06 2.2316877491297744e-06 3.3148470952423423e-07 2.4029293987911018e-05 1.4112236784380802e-05 -8.8292583921801768e-07 -1.0385049081939159e-05 8.1873125563795899e-06 -6.8733944513349105e-06 -1.8071864218117408e-05 8.0285676834387329e-06 -9.4242001611433937e-06 -3.6018263951254808e-05 -1.690961597706773e-05 1.7119097317786794e-07 1.6423689416839631e-05 -6.2901957753814814e-05 -6.5671086263968586e-06 -2.5875282999429913e-06 -9.430545307671132e-06 -1.8499252509826362e-05 -1.1629240954681722e-05 -5.0248837084012934e-06 -2.837475098666983e-06 -7.4589559952316082e-06 -4.0357905928770782e-06 -2.7892617160510092e-05 3.1797926474931896e-05 -1.2332980619327645e-05 -3.9297095999588443e-06 -2.656902230913745e-06 -1.0672723604473848e-05 4.0958288856449837e-07 2.0801422610860972e-06 -5.8902445281981859e-07 -3.5566157821308495e-06 -2.3334721145127013e-05 -6.8319489804081606e-06 -3.4825851846323236e-07 -2.6303794645598654e-05 4.1606311049247876e-05 -1.0625878650154588e-05 -9.7802675821582856e-06 -4.3495066059938701e-06 -5.0302482222603368e-06 1.332512548235885e-05 -1.0956284148979473e-05 -1.14843593492045e-05 -3.4242659908885656e-06 -2.6407691971023117e-05 -2.1177511754454396e-05 -3.1863011407691142e-06 -3.1593109988417578e-05 -4.3191189164113125e-05 -2.0468497884994024e-06 -3.5158342601599194e-07 5.0610573291120771e-06 -1.7973027334909766e-05 4.452798661328295e-05 -8.1563253114269963e-06 1.2754740053951599e-06 2.8005776416873502e-05 -4.6096824693551761e-06 -1.1708161729455813e-05 -7.8266119176721889e-06 -7.6357120915392114e-06 2.3795458237600627e-06 5.7877861502561578e-06 -7.0890732861484708e-06 -4.0858211385627881e-05 -7.3397123230183899e-05 2.7306062871077755e-05 -1.8342187870206562e-05 1.4189983154898284e-05 2.7247623485184751e-05 4.7526700364963932e-05 3.2211991211967194e-05 -1.6535837875546536e-05 -1.6594487123781834e-05 3.238427469884106e-05 1.2183088510549017e-05 -1.5480503127904459e-06 -7.2970962026299227e-06 -6.4811049026174301e-06 -4.793427692099516e-06 -8.6991784112473974e-06 -4.4289053720055943e-06 -2.3005302796296162e-06 -3.3943534719171295e-06 1.3583299865573302e-05 -5.0350517691566919e-06 -4.1303641637843898e-06 7.5259944463987424e-06 -8.6831693901074074e-06 -6.6114149766958639e-06 -7.0386827506378018e-06 4.0808159936975806e-07 -2.8157890943270855e-05 2.1340928388384245e-05 4.7639978567016545e-06 8.4531301064220572e-06 -1.2694030721832627e-05 -1.6389201311945312e-05 -8.6776135543113406e-05 -4.5818143134982424e-05 -7.7135819191614617e-06 -1.1566507490357539e-05 6.1339360206631358e-06 6.1773362280819011e-06 2.207558616432631e-06 -3.8082079174063111e-05 -2.674412312387928e-05 2.903195076250269e-05 -2.9653116635129993e-05 -2.2712077257421904e-05 -1.4696215973530858e-05 3.8071442464042492e-05 2.9104537747178618e-06 -5.3845994562692521e-06 -2.0332687160364113e-05 -1.9526293706548536e-05 -3.5969211900626149e-05 -5.914355588203093e-05 -1.2949911164811977e-05 1.7155462941788888e-05 3.474343534728941e-06 7.2166685428380225e-06 4.7622430259821419e-06 1.6100091529183519e-05 1.6783665624463203e-05 -2.2154348649568232e-05 -8.611181443093351e-06 2.3659474265414306e-06 2.9937536572186769e-05 -3.3138677459518659e-05 -5.2348712916673972e-05 -2.1744454392992329e-05 2.3574459157803848e-05 -2.4803203332115894e-07 -3.0596800089185581e-05 -2.2949063476245893e-05 -8.8117642033763434e-06 5.5379672836909173e-06 -5.4501215763490284e-06 -9.0088674445179567e-06 -2.5595881711328082e-05 1.2735232484999072e-05 1.3383523340313689e-05 4.6957703238670806e-06 -3.2623997476132632e-06 6.8413264570878837e-07 5.5509538980091617e-06 2.8176026236858154e-05 2.4979068564295361e-07 1.3083333378309438e-05 3.1371486128414956e-07 1.7155199125430635e-06 -2.2164329330509579e-06 1.885039134833408e-07 -4.6261626551924102e-05 -5.3720797163816274e-05 -6.749225161071414e-06 -9.7699888302176087e-06 1.5921556572522864e-05 -2.2038938601473346e-05 -1.9099857047965598e-05 -2.2465684087635374e-05 -2.9469531425106993e-05 -2.169777476368354e-05 -1.6289752744952585e-05 -1.1451620345128919e-05 -1.1941214887951999e-05 -1.1571196712649626e-05 -1.3271972971773278e-05 -1.000114689737484e-05 -1.1753612983077255e-05 -1.6319692672063805e-05 -1.5638239831615757e-05 -4.3773444355926054e-06 -1.9248345976178116e-05 -2.2178400520353164e-05 4.0952942235947005e-06 -4.1206913592528096e-06 -2.7558532180137932e-05 -2.3382263038669785e-05 2.2700187568160178e-05 -2.3212562806093173e-05 -1.2841116804175789e-05 1.1980283677988737e-05 1.5020227438278072e-06 -7.3418790316384365e-07 -4.3527005361223948e-05 -3.0275600566467255e-05 1.0729985247555848e-05 4.3361615464450855e-07 -6.3936790583384154e-06 -2.484287217869092e-05 -3.6078907102901625e-05 -4.2411794568338762e-06 -4.7055842181394585e-06 -8.1951170071942832e-06 2.6126398654762183e-06 -9.6413812800207781e-06 4.8276364349429597e-05 -1.1935198462805163e-05 -2.6491789425330675e-05 1.6911400498247835e-05 1.7489445988216608e-05 -2.5277528058256734e-05 -2.4752179430746854e-07 -3.4100637847881571e-05 -5.8025581594646189e-05 -3.4600410673650672e-05 -6.0082024407659472e-05 -2.7715626216793936e-05 -3.772157161317422e-05 1.4787345493096649e-06 6.264692921804353e-06 1.4085544831608267e-05 3.6920089624943283e-05 8.6447117802377846e-06 3.0376846478562654e-05 7.6039691178070149e-06 -7.651877019038818e-06 8.0140008023905652e-06 6.0228585689473327e-07 7.6256411612484009e-06 -5.2465580600976822e-05 4.6875351664592141e-06 5.1235561689752008e-05 4.7027408787016169e-05 1.9721860529516022e-05 -6.4962248338603864e-05 -3.6850266249839939e-05 4.8799297040321049e-06 -3.1248984302805925e-05 -2.0784072997339764e-05 -1.5133170276159348e-06 2.6180946332321233e-06 1.4059079920645374e-05 -1.287113203388493e-05 -1.5990366075139943e-05 -1.7133787269578735e-05 -6.2379876104905617e-06 -5.6856220518061804e-06 -9.8571182789566132e-06 -8.7726345319045487e-06 -2.001379731574488e-05 -1.3824948131711729e-05 -1.9924526009521057e-05 -2.4466120643890073e-05 -3.1025007687094378e-05 -5.5400263612445069e-05 -2.3597268341250768e-05 -1.4793833609660398e-06 -1.70435402773765e-05 -3.7753030012675372e-05 -5.3556736643357695e-05 -6.0533442474180601e-06 1.5136588950313864e-05 -3.8781258558006934e-05 -7.1303727045208534e-05 -1.6757328182398943e-05 -3.1794780805983875e-05 -2.20099856310994e-05 5.61392733280262e-05 -4.7565066297984006e-05 -3.0191182942390748e-05 -1.2855770978253825e-05 -1.1878907620320477e-05 6.6912208744836606e-06 -5.1069896944000567e-06 1.8101475202714548e-06 5.0693660714040104e-05 -2.3305871174680912e-05 -6.5581335674138309e-06 4.9985742553478128e-05 -2.7867579968549026e-05 -8.4429714946042866e-05 -4.5192631155698584e-05 8.1286535014994974e-06 -3.0129308090417221e-05 -3.5750798642960651e-05 2.412330996702061e-05 -1.9187196697372953e-05 -8.0910873839666814e-06 3.6791131125895726e-05 -8.323879132890585e-06 -3.3403690533083451e-06 6.1166648941205219e-06 -7.3478408263543527e-06 -2.005966405334899e-05 1.6846082494718136e-05 -1.2890832739520834e-05 2.1501467852768038e-05 -2.9441139753568748e-05 -1.3777746931818968e-05 -2.3350132175682276e-05 -3.0089067938200275e-05 -3.2108536315929775e-05 -2.6755773205847141e-05 -3.0353809008289287e-05 -1.7650549556179405e-05 -2.0883889524156963e-05 -1.7705298221157286e-05 -1.7178990104322938e-05 -2.3799108232265727e-06 1.2320982215026476e-05 -1.5888964959834284e-06 -2.7823387160593794e-06 -1.9648995844182926e-06 5.0794282162048014e-06 -2.6269720705836795e-06 -4.6541068825275788e-05 -8.8292164558376217e-05 4.7173929028891269e-06 6.5302649609094211e-06 -1.9012174891451432e-05 -6.3275985364203214e-06 -1.3129427425515784e-05 -9.9311931361918423e-06 2.7906405273179484e-05 -2.9502601735756335e-05 -2.6087777796340033e-05 -3.5919609776340742e-05 -4.4318604029746005e-05 -4.277256505116954e-05 2.9624363915476868e-05 1.5239408681275352e-05 -1.5418203418234873e-05 -1.5390047492070403e-05 1.9072656124234442e-06 -2.4603082091754931e-05 1.4431477822093386e-05 -8.3962785149232932e-06 -1.0578510514156766e-05 3.6543314454671373e-05 -7.8349431552823118e-05 -4.7913165637366072e-06 -2.1060083598363676e-05 -2.4602149316610562e-05 2.0928949266546594e-06 -3.3531989391047607e-05 -5.6481171652204552e-05 1.8967374325477241e-05 -1.8398318806267609e-05 1.4618648088646769e-05 3.3532103644401889e-06 -8.1452262687409238e-07 -2.8781674295224577e-06 -6.4271826039801507e-06 -1.1059239547608126e-05 3.1775916544013347e-05 2.8779083775548771e-05 -1.4005135062783642e-05 -1.2874225707231509e-05 3.4454324877857424e-06 -4.9664747567767717e-07 7.6841027211332381e-07 1.6501193833432307e-05 -4.7839510330697421e-06 2.0873029980892499e-05 4.692591300983744e-06 -2.927912494847995e-05 -3.3223810787817937e-05 -5.7475908199234866e-05 1.3137647758647183e-05 1.620235224887039e-05 -4.7228684220729915e-06 -6.9954105848467418e-06 -5.1571673448059279e-05 -3.1355392313673207e-05 -2.800465160988696e-05 2.410688956684193e-05 -1.3221538469021651e-05 -7.2980765076104228e-06 -2.1026524114298062e-06 -1.7613605370971216e-05 -1.6758755499249333e-05 1.487903364010713e-06 1.0253152043246284e-05 -2.7192991343579783e-05 -2.8831139210807021e-05 -4.8263602336040632e-05 -1.771330918567916e-05 -2.5115893330345115e-05 -2.3766619004809015e-05 -2.0273643741348182e-05 -3.3111181988562771e-06 -3.1113897401938688e-05 -3.5771257817757513e-05 -2.1421471748210158e-05 -1.9299673900257178e-05 -6.0781101518808494e-06 3.9751753811632289e-05 4.5877811317950459e-05 -4.1395612901527002e-05 4.0938537385959672e-05 3.3618873068094507e-05 -1.646996091431308e-05 -1.0254956905336001e-05 -4.5127433544860226e-05 4.4097808067385515e-06 3.6895749385201779e-05 -8.8469050893631468e-06 -3.6274921899590018e-05 -6.3109578259871568e-05 -2.3817270127975956e-05 2.5923331953046176e-06 -5.1128819394955969e-06 1.3981295683626008e-05 -3.3585202198341788e-05 -2.8720486893614026e-05 -4.0283170831176591e-05 8.1880694427280268e-06 -2.1112177348071955e-05 2.4074769569071222e-05 -3.6993492854382767e-06 -6.7926093376589284e-06 -3.512258420719623e-05 -6.1100635738427052e-05 -2.7605053036777963e-05 -9.778833357274952e-07 1.0689543013436305e-05 -1.4306386346553113e-05 -9.302814605629357e-06 -2.0269765940069214e-05 -1.8443962829675864e-05 -7.736084310212615e-06 -7.3160203090551942e-06 -3.7093349302113444e-05 -6.7973821957931848e-05 -2.2258609822398283e-05 3.6688155878793758e-05 2.6547150765654113e-05 -1.8105951264316697e-05 4.6647577857811869e-05 2.7098664324435228e-06 -9.8681368992542561e-06 2.7933433236732247e-05 4.8247617120009947e-05 -3.2484376499159644e-05 -1.8655096722648964e-05 -2.9927047498270094e-06 -3.2469662427200147e-05 7.789630626932418e-06 -4.7123634610066512e-06 -1.2313187410772135e-05 4.1978630310381387e-05 -1.4046057776386571e-05 -5.3646040514642687e-06 -2.2512782636444307e-06 -3.6033034970486995e-07 2.5937588512500796e-05 4.5541785801891997e-05 5.7219450455800965e-06 1.204869042168562e-05 -2.0706988075376863e-06 1.7342825563716389e-05 -2.0112478163733597e-05 -2.3731186349188732e-05 -1.9015288038960664e-05 -2.365640216075952e-05 -6.5068040368480417e-06 -2.2522582783048896e-06 -5.9162376248507035e-07 -1.9221299765115221e-05 -7.7922045613353095e-06 -3.8455143126696703e-06 -6.5000172837120681e-06 -6.3895003566574564e-06 -8.9253961721150112e-06 -9.0232091197385729e-06 5.8058628938021121e-05 -6.2245127254151594e-06 -2.060508596705079e-05 1.6723983587959082e-08 4.5045278084684687e-05 3.6627272306125904e-05 1.7894926581034625e-05 -3.6485768169745858e-08 8.1385935750603567e-08 2.5386904858490725e-05 1.4808431206573755e-07 -6.8334655741946123e-06 -8.9937977777651512e-06 -1.7251372361324983e-05 -1.5721533442431077e-05 -1.0138356168375007e-05 -1.5247440467489222e-05 -7.8588093852872184e-06 1.9524963780496313e-05 3.7228631833647295e-05 5.5841205762914028e-06 -1.5353891442979398e-05 5.8939889489711961e-06 2.5138407109747649e-05 -5.5727899666227628e-06 -1.9447188377821627e-06 -5.183764719171851e-06 -1.588616055045065e-05 -1.6834232329638297e-06 3.4326983792696338e-06 -1.2375578420653831e-05 -9.106773916943081e-07 1.4518540297073831e-05 -7.2276196482680573e-06 2.7992506643853023e-05 7.2587813303019212e-06 -7.8948384738530277e-06 -2.1939195724632757e-05 3.2659908412536651e-06 6.6948261961094455e-06 7.2666825385995918e-05 6.2154100492460898e-05 4.0819540454633835e-05 1.3399641740425298e-05 -2.4128789822616594e-05 -1.3067245478838891e-05 -3.1049662600948237e-05 -2.385389629118553e-05 -2.7005504283288175e-06 -2.9757081597673967e-05 -3.1860121616327072e-05 -4.116720468386222e-05 -4.4437402562223311e-05 -8.2604436172641174e-06 -4.3241537811265052e-06 2.4086340216250991e-05 1.9702018439710827e-05 2.543569041322915e-05 2.1115372588145385e-06 -1.956306081135057e-06 -4.0620968788995104e-06 -1.2534140592316667e-06 -1.5119855904575186e-06 -8.6013138022865521e-06 -1.0359944740797569e-05 -3.7243867959125263e-05 -5.2028078228133536e-05 -4.9805847093630485e-05 -3.5893879611096448e-05 -3.9141867284492077e-06 -1.1161757398960434e-05 -5.2878912559248617e-06 -6.8402150841241041e-06 -8.2733029571265422e-06 -5.7416903173022086e-06 -5.5012558878408817e-06 3.0699457648217701e-05 0.00012666779901830558 -1.5050932616071101e-05 6.7609512537657223e-06 -1.9907271791973636e-06 -2.0138467984504884e-06 9.6445593631179494e-06 -1.2927087012987995e-05 2.5836781275086754e-05 2.5286850246830761e-06 -1.7367749567655678e-05 1.0694898329074434e-06 5.3089836721154256e-06 -1.2121107909996668e-05 8.8683622127422052e-06 -8.5652288284715252e-06 -2.5452002225788889e-05 -1.5285390388581237e-05 -1.3325687219012355e-05 -5.0010849305470338e-07 -1.154493551530709e-06 -9.6013876635627144e-06 -5.9785088873792871e-06 -7.3475872278734266e-06 -2.16769807798969e-05 -1.034989618765278e-05 -1.1063419408155475e-05 -2.1091642503668587e-05 4.0961203322249285e-05 -3.6100248027512438e-06 -3.6916398717876109e-06 -4.5474703738750859e-06 -5.1579620323272731e-06 -2.1163576182969216e-05 -4.2574701378528257e-06 8.8844016374279786e-07 5.3831777248467709e-06 -1.166656377266876e-05 -1.0259602024119234e-06 -1.4136756901726721e-06 -1.1136124996827474e-05 -1.9512996939295073e-05 1.2733358544346964e-05 2.6394882139761755e-05 4.8407196830083576e-05 -4.6405363209215959e-06 -3.0828213095891299e-05 -3.3015378457578598e-05 -1.268592898884054e-05 -3.1318795772170932e-06 -6.5885572298533955e-06 -1.5820573855801332e-07 -2.1363646409188267e-05 -2.9557733250789014e-06 -4.075526718605991e-06 -2.8567460442618992e-05 -4.0944292032741535e-05 -3.3579001535452746e-05 -2.4937736094679071e-05 -2.3783884721454814e-06 -3.1482237037556027e-05 4.3224000814074195e-06 3.2099215590093363e-06 -1.4275164588277179e-05 -1.6229513528788798e-05 -3.6505893329244891e-06 -3.1678373099844819e-06 -2.2953858092823877e-05 -2.683640035868411e-05 -1.6953021638763154e-05 -2.6298750474035737e-06 -1.5434163062694988e-05 8.4720385030707772e-07 -1.9974340132651518e-05 -5.2901046669910643e-06 -1.618326505042531e-05 1.0818591536087221e-06 6.234072361572065e-06 -7.2674624425177906e-06 2.0027174674457776e-07 -3.9921813545116744e-06 -3.2646024221124129e-06 -2.2103239130429747e-06 1.9725077489742004e-06 1.6390492034207456e-07 2.5070798367402003e-06 -2.9168418971363668e-06 -1.6695281273802374e-05 -6.3693444865907216e-06 -8.7852423545989322e-06 -1.5465001939646105e-05 -1.5126932148401724e-05 2.8539711696345377e-05 -9.6317918314912075e-06 -1.1684733201910039e-05 -1.4877213656793458e-05 -3.568603044392998e-05 -1.5741522385605148e-05 2.0592857616506547e-05 -5.9198469504156796e-06 -9.0285877396064501e-06 3.0922255566147956e-05 -1.3671267789124437e-05 -2.351047114691415e-05 1.564587021623756e-05 1.7309519605870981e-05 -5.2221367691877027e-06 -4.4729192361148194e-06 -1.1464006082028257e-06 3.775678200217218e-06 4.2201751900583853e-05 -1.2973292014970363e-05 -1.9925834539437359e-05 -6.7416781593139988e-06 4.0088670116939559e-05 -1.4578874989025633e-05 -1.6136906221485598e-05 -2.5059224098008256e-05 3.4743971707651357e-06 
</DataArray>
</CellData>
</Piece>
</UnstructuredGrid>
</VTKFile>
