<?xml version="1.0"?>
<VTKFile type="UnstructuredGrid" version="0.1" byte_order="LittleEndian">
<UnstructuredGrid>
<Piece NumberOfPoints="3142" NumberOfCells="1054">
<Points>
<DataArray type="Float64" NumberOfComponents="3" format="ascii">
0.5 0.29999999999999999 0 0.54999999999999993 0.29999999999999999 0 0.54999999999999993 0.29999999999999999 0 0.59999999999999976 0.29999999999999999 0 0.59999999999999976 0.29999999999999999 0 0.6499999999999998 0.29999999999999999 0 0.6499999999999998 0.29999999999999999 0 0.69999999999999984 0.29999999999999999 0 0.69999999999999984 0.29999999999999999 0 0.74999999999999989 0.29999999999999999 0 0.74999999999999989 0.29999999999999999 0 0.79999999999999982 0.29999999999999999 0 0.79999999999999982 0.29999999999999999 0 0.84999999999999987 0.29999999999999999 0 0.84999999999999987 0.29999999999999999 0 0.89999999999999991 0.29999999999999999 0 0.89999999999999991 0.29999999999999999 0 0.94999999999999996 0.29999999999999999 0 0.94999999999999996 0.29999999999999999 0 1 0.29999999999999999 0 0.5 0.69999999999999996 0 0.54999999999999993 0.69999999999999996 0 0.54999999999999993 0.69999999999999996 0 0.59999999999999976 0.69999999999999996 0 0.59999999999999976 0.69999999999999996 0 0.6499999999999998 0.69999999999999996 0 0.6499999999999998 0.69999999999999996 0 0.69999999999999984 0.69999999999999996 0 0.69999999999999984 0.69999999999999996 0 0.74999999999999989 0.69999999999999996 0 0.74999999999999989 0.69999999999999996 0 0.79999999999999982 0.69999999999999996 0 0.79999999999999982 0.69999999999999996 0 0.84999999999999987 0.69999999999999996 0 0.84999999999999987 0.69999999999999996 0 0.89999999999999991 0.69999999999999996 0 0.89999999999999991 0.69999999999999996 0 0.94999999999999996 0.69999999999999996 0 0.94999999999999996 0.69999999999999996 0 1 0.69999999999999996 0 0.40076539126862748 0.34589349467022118 0 0.33277555741076909 0.36432196682010132 0 0.36575549820117997 0.31677992835137742 0 0.38083244760691543 0.38531983672244652 0 0.33277555741076909 0.36432196682010132 0 0.40076539126862748 0.34589349467022118 0 0.56836770495988642 0.3523062350852913 0 0.52289427570932567 0.3932284363388488 0 0.52752007115234678 0.33170632466418198 0 0.52752007115234678 0.33170632466418198 0 0.52289427570932567 0.3932284363388488 0 0.49077833859261139 0.35229981449445641 0 0.10000000000041601 1 0 0.053064897599294662 0.95186845269532028 0 0.10266856499240549 0.95548163909968886 0 0.099999999999814668 0 0 0.10266856499169109 0.044518360900210059 0 0.053064897599215843 0.048131547304697528 0 0.050000000000207989 1 0 0.053064897599294662 0.95186845269532028 0 0.10000000000041601 1 0 0.049999999999899652 0 0 0.099999999999814668 0 0 0.053064897599215843 0.048131547304697528 0 0.24999999999941211 0 0 0.29999999999926641 0 0 0.27499999999933927 0.060310814194988557 0 0.30000000000124832 1 0 0.25000000000104028 1 0 0.27609987656793722 0.94991445621608572 0 0.15720202157091859 0.60665697304410315 0 0.19914261668318661 0.62286739485272158 0 0.16500388252850301 0.66612077714085194 0 0.2236846579037573 0.67380363126050236 0 0.16500388252850301 0.66612077714085194 0 0.19914261668318661 0.62286739485272158 0 0.1247745017231483 0.27198077544791172 0 0.168349569971391 0.28054490850913671 0 0.14223753364722069 0.3341983344262433 0 0 0.75000000000034661 0 0 0.7000000000006934 0 0.049706944316475897 0.72477277076253799 0 0 0.30000000000124832 0 0 0.25000000000104028 0 0.049706944316556423 0.27522722923869108 0 0.59999999999999976 0.29999999999999999 0 0.61959173890754571 0.33832250091341232 0 0.56836770495988642 0.3523062350852913 0 0.5 0.69999999999999996 0 0.43323420005758778 0.6913544522562407 0 0.47913475093885149 0.66010775372412711 0 1 0.14999999999961891 0 0.95391631417672862 0.19584263333809451 0 0.93677536231883773 0.14999999999999089 0 1 0.84999999999982645 0 0.95391631417670719 0.89584263333814784 0 0.93677536231884972 0.85000000000000286 0 1 0.84999999999982645 0 0.93677536231884972 0.85000000000000286 0 0.95386563387742829 0.80414874155775029 0 1 0.14999999999961891 0 0.93677536231883773 0.14999999999999089 0 0.95386563387744361 0.1041487415577465 0 0.90416666666660628 0.9041666666666166 0 0.88088768115933802 0.84674609810493673 0 0.93677536231884972 0.85000000000000286 0 0.90416666666668166 0.20416666666667119 0 0.88088768115941807 0.14674609810479519 0 0.93677536231883773 0.14999999999999089 0 0.1247745017231483 0.27198077544791172 0 0.14223753364722069 0.3341983344262433 0 0.093851963071650835 0.30582068233324772 0 0.5 0.69999999999999996 0 0.45582236402875981 0.73896743678908217 0 0.43323420005758778 0.6913544522562407 0 0.55000000000173355 1 0 0.50000000000205869 1 0 0.52122150208832174 0.94089974453840242 0 0.49999999999869432 0 0 0.5499999999988151 0 0 0.52375890611712683 0.059318771819432882 0 0.54999999999999993 0.29999999999999999 0 0.59999999999999976 0.29999999999999999 0 0.56836770495988642 0.3523062350852913 0 0.50202631463681879 0.87892870825713787 0 0.44003836461056539 0.88093474584252718 0 0.45677673713123867 0.84253684404072415 0 0.33403534827021109 0.84402799729020661 0 0.35864759629805099 0.87963482415279515 0 0.30864387279288652 0.89906554525974958 0 0.53245488764484505 0.55078124999999989 0 0.47793794143994173 0.52940715638744962 0 0.53330375813596242 0.50827942741749099 0 0.82709327591102189 0.14937141670914489 0 0.81283102246527783 0.1881007222486438 0 0.77144070960558853 0.14311854477243749 0 0.82709327591091286 0.84937141670920724 0 0.81159157511211755 0.88795995483179491 0 0.76901770135486491 0.84293557325473656 0 0.77144070960558853 0.14311854477243749 0 0.81283102246527783 0.1881007222486438 0 0.76587607630038135 0.18880039518954719 0 0.76901770135486491 0.84293557325473656 0 0.81159157511211755 0.88795995483179491 0 0.76891166905518427 0.88835469571185499 0 0.33403534827021109 0.84402799729020661 0 0.30864387279288652 0.89906554525974958 0 0.29209212897034281 0.84715728365233667 0 0.57412547362576272 0.58273804879550706 0 0.5166924242153631 0.59825134841919447 0 0.53245488764484505 0.55078124999999989 0 0.50202631463681879 0.87892870825713787 0 0.47401147028110507 0.91529957330468115 0 0.44003836461056539 0.88093474584252718 0 0.5 0.69999999999999996 0 0.54999999999999993 0.69999999999999996 0 0.55363780716230748 0.74348740161571747 0 1 0.34999999999993492 0 0.95871855522754235 0.40006508612975411 0 0.95780851984364423 0.34215720972155339 0 1 0.64999999999986979 0 0.9578014258160763 0.65787212321113708 0 0.95867599106212187 0.60011091146651041 0 0.46666084890304671 0.57634471035397938 0 0.47793794143994173 0.52940715638744962 0 0.53245488764484505 0.55078124999999989 0 0.94999999999999996 0.29999999999999999 0 0.89898474358614167 0.25391965591104898 0 0.94399509803921056 0.24399509803922639 0 0.94999999999979179 1 0 0.89898474358632463 0.95391965591118966 0 0.94399509803919068 0.9439950980391687 0 0 0.65000000000104008 0 0.050069554451969707 0.61308520079857043 0 0.046634677244967337 0.671418230738282 0 0 0.35000000000145642 0 0.046389130980076937 0.32668781832131749 0 0.050583896093752537 0.38543522283434112 0 0.50202631463681879 0.87892870825713787 0 0.50627822638148745 0.8263979829520941 0 0.55899371797446828 0.85003102233514438 0 0.54782696902220018 0.79245182748204157 0 0.55899371797446828 0.85003102233514438 0 0.50627822638148745 0.8263979829520941 0 0.50945740445113552 0.75476055527778108 0 0.5 0.69999999999999996 0 0.55363780716230748 0.74348740161571747 0 0.84999999999965292 1 0 0.85170973911348691 0.93569607295217616 0 0.89898474358632463 0.95391965591118966 0 0.84999999999999987 0.29999999999999999 0 0.8517097391133297 0.2356960729520409 0 0.89898474358614167 0.25391965591104898 0 0.86956835336234861 0.571283299838105 0 0.82862096804812391 0.55037090955459045 0 0.86907294890112186 0.52008116128001669 0 0.49102375406324739 0.49123754822244059 0 0.53330375813596242 0.50827942741749099 0 0.47793794143994173 0.52940715638744962 0 0.57611405284611883 0.50165903596042916 0 0.61547661924074692 0.48539576058873962 0 0.62042975506801734 0.54295974692364424 0 0.71406021706547751 0.63292083137662503 0 0.67529834988829951 0.61613270668143583 0 0.71809016091162536 0.58185040402320831 0 0.65000000000104008 1 0 0.62065498684670595 0.95224934003983619 0 0.68015064798562208 0.95924320340003011 0 0.84999999999960507 0 0 0.899991664607802 0.045289349238254978 0 0.85491058998398861 0.060047533455626502 0 0.84999999999999987 0.69999999999999996 0 0.89999166460796554 0.74528934923809909 0 0.85491058998424563 0.76004753345552634 0 0.89999999999999991 0.29999999999999999 0 0.89898474358614167 0.25391965591104898 0 0.94999999999999996 0.29999999999999999 0 0.94999999999979179 1 0 0.89999999999958358 1 0 0.89898474358632463 0.95391965591118966 0 0.86411095495256451 0.42388805655111889 0 0.81308179852519835 0.39754945808726527 0 0.86844634540301924 0.38530937474099819 0 0.5 0.29999999999999999 0 0.49695729691142171 0.25014895411178018 0 0.54248833945060504 0.2520322959927106 0 0.86411095495256451 0.42388805655111889 0 0.81973119833356312 0.43505687159469048 0 0.81308179852519835 0.39754945808726527 0 0.67323294229744413 0.57556450033612505 0 0.71809016091162536 0.58185040402320831 0 0.67529834988829951 0.61613270668143583 0 0.6236733212988993 0.14864538214901801 0 0.68391457121233579 0.14440470121196541 0 0.64011864159029941 0.18789607982138171 0 0 0.050000000000207989 0 0.053064897599215843 0.048131547304697528 0 0.044310582753132287 0.101412518374475 0 0 0.94999999999979179 0 0.0443105827531413 0.89858748162559932 0 0.053064897599294662 0.95186845269532028 0 1 0.34999999999993492 0 1 0.39999999999978308 0 0.95871855522754235 0.40006508612975411 0 1 0.59999999999973963 0 1 0.64999999999986979 0 0.95867599106212187 0.60011091146651041 0 0 0.84999999999965292 0 0.065374659239661639 0.8551091961254178 0 0.0443105827531413 0.89858748162559932 0 0 0.15000000000062411 0 0.044310582753132287 0.101412518374475 0 0.065374659239632718 0.1448908038746782 0 0.16500388252850301 0.66612077714085194 0 0.1020579365089687 0.69352219419301997 0 0.1241190223511371 0.64391885572885044 0 0.14999999999970359 0 0 0.14618258501891079 0.062070108745602003 0 0.10266856499169109 0.044518360900210059 0 0.15000000000062411 1 0 0.10266856499240549 0.95548163909968886 0 0.14617343800780541 0.93808063414349496 0 0.7152569930854884 0.5237994455134295 0 0.67569444444444449 0.53500863336860327 0 0.69385896817107129 0.48377516041410151 0 0.6541250972820879 0.49999999999999989 0 0.62042975506801734 0.54295974692364424 0 0.61547661924074692 0.48539576058873962 0 0.94999999999999996 0.69999999999999996 0 0.94399509803918602 0.75600490196082126 0 0.89999166460796554 0.74528934923809909 0 0.94999999999986839 0 0 0.94399509803922566 0.056004901960802607 0 0.899991664607802 0.045289349238254978 0 0.6541250972820879 0.49999999999999989 0 0.69385896817107129 0.48377516041410151 0 0.67569444444444449 0.53500863336860327 0 0.82862096804812391 0.55037090955459045 0 0.81723410853263523 0.59419663659258926 0 0.77151014687832564 0.54436834383023036 0 0.7250000000005199 0.89375000000045834 0 0.66412543161245952 0.88015090885499059 0 0.68697391633157634 0.84450604838764298 0 0 0.94999999999979179 0 0 0.89999999999958358 0 0.0443105827531413 0.89858748162559932 0 0 0.10000000000041601 0 0 0.050000000000207989 0 0.044310582753132287 0.101412518374475 0 0.16500388252850301 0.66612077714085194 0 0.15332765547575641 0.71200081858233666 0 0.1020579365089687 0.69352219419301997 0 0.90299850604011456 0.79563452813489832 0 0.93677536231884972 0.85000000000000286 0 0.88088768115933802 0.84674609810493673 0 0.90299850604006393 0.09563452813493091 0 0.93677536231883773 0.14999999999999089 0 0.88088768115941807 0.14674609810479519 0 0.68391457121233579 0.14440470121196541 0 0.6865991819015953 0.189116534044597 0 0.64011864159029941 0.18789607982138171 0 0.085622222639554768 0.53333248912060549 0 0.1216098864341134 0.50637075089503902 0 0.1154888278694548 0.56733818459978413 0 0.21858834311891909 0.81980263716112767 0 0.22556077506376701 0.77837424984191617 0 0.26104540868854792 0.81401944968719064 0 0.81723410853263523 0.59419663659258926 0 0.77293540622714185 0.59448302402785813 0 0.77151014687832564 0.54436834383023036 0 0.1154888278694548 0.56733818459978413 0 0.1216098864341134 0.50637075089503902 0 0.14934928745814749 0.55042914607228977 0 0.1216098864341134 0.50637075089503902 0 0.068743045408989428 0.48853989837882689 0 0.113541300460994 0.46208784312094731 0 0.078358742472063481 0.43365249433908948 0 0.113541300460994 0.46208784312094731 0 0.068743045408989428 0.48853989837882689 0 0.83573492347052902 0.36590755630746369 0 0.81308179852519835 0.39754945808726527 0 0.78145581580700685 0.34881365920033602 0 0.57611405284611883 0.50165903596042916 0 0.62042975506801734 0.54295974692364424 0 0.57435499076887508 0.54267261987897775 0 0.86956835336234861 0.571283299838105 0 0.81723410853263523 0.59419663659258926 0 0.82862096804812391 0.55037090955459045 0 0.46666084890304671 0.57634471035397938 0 0.53245488764484505 0.55078124999999989 0 0.5166924242153631 0.59825134841919447 0 0.89999999999999991 0.69999999999999996 0 0.94999999999999996 0.69999999999999996 0 0.89999166460796554 0.74528934923809909 0 0.89999999999973679 0 0 0.94999999999986839 0 0 0.899991664607802 0.045289349238254978 0 0.84999999999960507 0 0 0.89999999999973679 0 0 0.899991664607802 0.045289349238254978 0 0.84999999999999987 0.69999999999999996 0 0.89999999999999991 0.69999999999999996 0 0.89999166460796554 0.74528934923809909 0 0.43545892161006339 0.61093128915313821 0 0.4089290844030305 0.58728915500154233 0 0.46666084890304671 0.57634471035397938 0 0.1650278706801647 0.38791388161335733 0 0.1117088112799664 0.38831403004970022 0 0.14223753364722069 0.3341983344262433 0 0.087545339447545459 0.35122518864182262 0 0.14223753364722069 0.3341983344262433 0 0.1117088112799664 0.38831403004970022 0 0.6916490518212759 0.75387992374886192 0 0.72501250972655151 0.74067302935308721 0 0.72500000000000064 0.7952620967744265 0 0.72501250972655151 0.74067302935308721 0 0.75841349681148107 0.75422312624214749 0 0.72500000000000064 0.7952620967744265 0 0.57412547362576272 0.58273804879550706 0 0.53245488764484505 0.55078124999999989 0 0.57435499076887508 0.54267261987897775 0 1 0.54999999999963112 0 0.95867599106212187 0.60011091146651041 0 0.93732437411268477 0.55911392101136159 0 1 0.44999999999963131 0 0.93814194660195893 0.44426664081746747 0 0.95871855522754235 0.40006508612975411 0 0.4089290844030305 0.58728915500154233 0 0.42644501560315817 0.54603747078095544 0 0.46666084890304671 0.57634471035397938 0 0.89999999999958358 1 0 0.84999999999965292 1 0 0.89898474358632463 0.95391965591118966 0 0.84999999999999987 0.29999999999999999 0 0.89898474358614167 0.25391965591104898 0 0.89999999999999991 0.29999999999999999 0 0.29999999999926641 0 0 0.32541448401678508 0.046215317981507749 0 0.27499999999933927 0.060310814194988557 0 0.30000000000124832 1 0 0.27609987656793722 0.94991445621608572 0 0.32544832635163229 0.95485394099568932 0 0.57412547362576272 0.58273804879550706 0 0.62042975506801734 0.54295974692364424 0 0.63065402604362242 0.59661356661633302 0 0.5 0.29999999999999999 0 0.54248833945060504 0.2520322959927106 0 0.54999999999999993 0.29999999999999999 0 0.67323294229744413 0.57556450033612505 0 0.62042975506801734 0.54295974692364424 0 0.67569444444444449 0.53500863336860327 0 0.6541250972820879 0.49999999999999989 0 0.67569444444444449 0.53500863336860327 0 0.62042975506801734 0.54295974692364424 0 1 0.14999999999961891 0 1 0.19999999999974799 0 0.95391631417672862 0.19584263333809451 0 1 0.84999999999982645 0 1 0.8999999999998336 0 0.95391631417670719 0.89584263333814784 0 1 0.7999999999998193 0 1 0.84999999999982645 0 0.95386563387742829 0.80414874155775029 0 1 0.099999999999753911 0 1 0.14999999999961891 0 0.95386563387744361 0.1041487415577465 0 0.4656888918609538 0.78493261229743638 0 0.50627822638148745 0.8263979829520941 0 0.45677673713123867 0.84253684404072415 0 0.6879972333610942 0.43038561374960838 0 0.72622533758026719 0.40265885511101601 0 0.73483647259922602 0.44789725365921768 0 0.67323294229744413 0.57556450033612505 0 0.67569444444444449 0.53500863336860327 0 0.71809016091162536 0.58185040402320831 0 0.7152569930854884 0.5237994455134295 0 0.71809016091162536 0.58185040402320831 0 0.67569444444444449 0.53500863336860327 0 0.65394964615507722 0.22666784374016369 0 0.59814117807200873 0.23398510860739519 0 0.64011864159029941 0.18789607982138171 0 0.55000000000173355 1 0 0.52122150208832174 0.94089974453840242 0 0.57382506491224949 0.9629411906298494 0 0.39801143831225599 0.16651381068160659 0 0.44288491854585582 0.14116182884956319 0 0.42905200079338551 0.19982395548231649 0 0.47357141910802508 0.1873585799078378 0 0.42905200079338551 0.19982395548231649 0 0.44288491854585582 0.14116182884956319 0 0.90594285160987287 0.4141265964174129 0 0.88594198078881503 0.46167788676578442 0 0.86411095495256451 0.42388805655111889 0 0.65507451745379841 0.92229208810758578 0 0.68015064798562208 0.95924320340003011 0 0.62065498684670595 0.95224934003983619 0 0.35312867752657662 0.084946736076730367 0 0.39591832466117061 0.056982757562006353 0 0.39823268594401579 0.1116623613130045 0 0.43698630808430822 0.080423614171545449 0 0.39823268594401579 0.1116623613130045 0 0.39591832466117061 0.056982757562006353 0 0.4367309254023824 0.92065556789053882 0 0.39641108128798319 0.94356127926187128 0 0.39767323751400468 0.89584229130535065 0 0.35752321586431363 0.9185439911803448 0 0.39767323751400468 0.89584229130535065 0 0.39641108128798319 0.94356127926187128 0 0.77354604466818633 0.40378688774472771 0 0.77972660463949339 0.45529290596363098 0 0.73483647259922602 0.44789725365921768 0 0.5499999999988151 0 0 0.57396793757665954 0.037011367187645222 0 0.52375890611712683 0.059318771819432882 0 0.64753070846764316 0.77332939069435502 0 0.60294066490120068 0.80851322453934582 0 0.59636844454254345 0.75937156204589151 0 0.49102375406324739 0.49123754822244059 0 0.48858720058566618 0.43964267759203868 0 0.53823865529665704 0.45873898050322898 0 0.28307294598219601 0.50789252727458634 0 0.29110487519241501 0.56588143995431495 0 0.25115337790845271 0.54719303014923271 0 0.79680861578988083 0.92656778056766709 0 0.81159157511211755 0.88795995483179491 0 0.85170973911348691 0.93569607295217616 0 0.79680861578956375 0.22656778056752541 0 0.81283102246527783 0.1881007222486438 0 0.8517097391133297 0.2356960729520409 0 0.57412547362576272 0.58273804879550706 0 0.57435499076887508 0.54267261987897775 0 0.62042975506801734 0.54295974692364424 0 0.93814194660195893 0.44426664081746747 0 0.88594198078881503 0.46167788676578442 0 0.90594285160987287 0.4141265964174129 0 0.7152569930854884 0.5237994455134295 0 0.73947346780852752 0.49062440112282169 0 0.77151014687832564 0.54436834383023036 0 0 0.7000000000006934 0 0.046634677244967337 0.671418230738282 0 0.049706944316475897 0.72477277076253799 0 0 0.30000000000124832 0 0.049706944316556423 0.27522722923869108 0 0.046389130980076937 0.32668781832131749 0 0.59814117807200873 0.23398510860739519 0 0.59443395090188023 0.18455690917515069 0 0.64011864159029941 0.18789607982138171 0 0.21858834311891909 0.81980263716112767 0 0.26104540868854792 0.81401944968719064 0 0.2401283238295133 0.85648409884788523 0 0.39536230704883951 0.84069429572832477 0 0.45677673713123867 0.84253684404072415 0 0.44003836461056539 0.88093474584252718 0 0.086179601630648681 0.64647209519980475 0 0.050069554451969707 0.61308520079857043 0 0.1024350934457823 0.60772393977513839 0 0.077693244765132896 0.56932317963405099 0 0.1024350934457823 0.60772393977513839 0 0.050069554451969707 0.61308520079857043 0 0.078358742472063481 0.43365249433908948 0 0.050583896093752537 0.38543522283434112 0 0.1117088112799664 0.38831403004970022 0 0.087545339447545459 0.35122518864182262 0 0.1117088112799664 0.38831403004970022 0 0.050583896093752537 0.38543522283434112 0 0.33403534827021109 0.84402799729020661 0 0.35642984951668422 0.80994399665655703 0 0.39536230704883951 0.84069429572832477 0 0.28307294598219601 0.50789252727458634 0 0.33190227185843768 0.52715113583864037 0 0.29110487519241501 0.56588143995431495 0 0.2236846579037573 0.67380363126050236 0 0.19068556247388771 0.71028988922845504 0 0.16500388252850301 0.66612077714085194 0 0.26104540868854792 0.81401944968719064 0 0.22556077506376701 0.77837424984191617 0 0.2792923945214143 0.77665808831789485 0 0.38244435121258652 0.51653317813019495 0 0.37272913873093971 0.56192925302619479 0 0.33190227185843768 0.52715113583864037 0 0.25195515620380449 0.25883339815888678 0 0.29132859388405002 0.27203693976649962 0 0.24432083401701241 0.3006253385567515 0 0.29348325746214782 0.31350119524708198 0 0.24432083401701241 0.3006253385567515 0 0.29132859388405002 0.27203693976649962 0 0 0.89999999999958358 0 0 0.84999999999965292 0 0.0443105827531413 0.89858748162559932 0 0 0.15000000000062411 0 0 0.10000000000041601 0 0.044310582753132287 0.101412518374475 0 0.59999999999999976 0.69999999999999996 0 0.59636844454254345 0.75937156204589151 0 0.55363780716230748 0.74348740161571747 0 0.1650278706801647 0.38791388161335733 0 0.22033343844674469 0.36963382230740238 0 0.191953871957803 0.42546416763755879 0 0.52289427570932567 0.3932284363388488 0 0.46655310992796922 0.39650496622958609 0 0.49077833859261139 0.35229981449445641 0 0.91696753777131557 0.497780560203536 0 0.88594198078881503 0.46167788676578442 0 0.93814194660195893 0.44426664081746747 0 0.24999999999941211 0 0 0.27499999999933927 0.060310814194988557 0 0.22668068146512929 0.045875643423131329 0 0.25000000000104028 1 0 0.22850979588452081 0.95594428570238643 0 0.27609987656793722 0.94991445621608572 0 0.77846603114747959 0.49850927265137401 0 0.77151014687832564 0.54436834383023036 0 0.73947346780852752 0.49062440112282169 0 0.27499999999933927 0.060310814194988557 0 0.27474541102162192 0.11822029332053539 0 0.24218496799700481 0.089025544070598317 0 0.27270076654418179 0.87751467830216623 0 0.29209212897034281 0.84715728365233667 0 0.30864387279288652 0.89906554525974958 0 0.3096713403101819 0.085471541595262421 0 0.27474541102162192 0.11822029332053539 0 0.27499999999933927 0.060310814194988557 0 0.17933913398461551 0.2350063570234002 0 0.18124454140915969 0.18790916706335251 0 0.224700362040408 0.22206622194729711 0 0.18269480424590959 0.75905448272264375 0 0.22556077506376701 0.77837424984191617 0 0.17777405986036951 0.81832336108265358 0 0.35864759629805099 0.87963482415279515 0 0.33403534827021109 0.84402799729020661 0 0.39536230704883951 0.84069429572832477 0 0.77354604466818633 0.40378688774472771 0 0.73483647259922602 0.44789725365921768 0 0.72622533758026719 0.40265885511101601 0 0.80185942888539485 0.77452061303608133 0 0.85491058998424563 0.76004753345552634 0 0.84725310900444062 0.80779732082917555 0 0.80185942888501827 0.074520613036224564 0 0.85491058998398861 0.060047533455626502 0 0.84725310900442086 0.10779732082922661 0 0.086179601630648681 0.64647209519980475 0 0.046634677244967337 0.671418230738282 0 0.050069554451969707 0.61308520079857043 0 0.087545339447545459 0.35122518864182262 0 0.050583896093752537 0.38543522283434112 0 0.046389130980076937 0.32668781832131749 0 0 0.75000000000034661 0 0.049706944316475897 0.72477277076253799 0 0.04408157711937423 0.7728941757575627 0 0 0.25000000000104028 0 0.044081577119474857 0.2271058242433576 0 0.049706944316556423 0.27522722923869108 0 0.52289427570932567 0.3932284363388488 0 0.56836770495988642 0.3523062350852913 0 0.57744073070774993 0.41535148636609359 0 0.6084546825910605 0.37989672713932537 0 0.57744073070774993 0.41535148636609359 0 0.56836770495988642 0.3523062350852913 0 0.61343887413683884 0.856862479058357 0 0.55899371797446828 0.85003102233514438 0 0.60294066490120068 0.80851322453934582 0 0.54782696902220018 0.79245182748204157 0 0.60294066490120068 0.80851322453934582 0 0.55899371797446828 0.85003102233514438 0 0.40326160981139969 0.73346192995102844 0 0.36622285152418499 0.69092437780804039 0 0.43323420005758778 0.6913544522562407 0 0.52289427570932567 0.3932284363388488 0 0.48858720058566618 0.43964267759203868 0 0.46655310992796922 0.39650496622958609 0 0.15720202157091859 0.60665697304410315 0 0.1154888278694548 0.56733818459978413 0 0.14934928745814749 0.55042914607228977 0 0.6879972333610942 0.43038561374960838 0 0.73483647259922602 0.44789725365921768 0 0.69385896817107129 0.48377516041410151 0 0.7250000000005199 0.89375000000045834 0 0.68987011941058407 0.92105047536677087 0 0.66412543161245952 0.88015090885499059 0 0.83573492347052902 0.36590755630746369 0 0.78145581580700685 0.34881365920033602 0 0.82500000000000062 0.33010209762754811 0 0.82862096804812391 0.55037090955459045 0 0.81441713509985358 0.51161854125224959 0 0.86907294890112186 0.52008116128001669 0 0.19670163708476801 0.31472518408333222 0 0.14223753364722069 0.3341983344262433 0 0.168349569971391 0.28054490850913671 0 0.50202631463681879 0.87892870825713787 0 0.45677673713123867 0.84253684404072415 0 0.50627822638148745 0.8263979829520941 0 0.099999999999814668 0 0 0.14999999999970359 0 0 0.10266856499169109 0.044518360900210059 0 0.15000000000062411 1 0 0.10000000000041601 1 0 0.10266856499240549 0.95548163909968886 0 0.67323294229744413 0.57556450033612505 0 0.63065402604362242 0.59661356661633302 0 0.62042975506801734 0.54295974692364424 0 0.083105206071467416 0.20007701332709979 0 0.13737030665753211 0.20313708640667491 0 0.095326043202144745 0.24554465089224409 0 0.083105206071452636 0.79992298667296435 0 0.090953281884486245 0.7564451946902494 0 0.1382744753146134 0.79650574229207483 0 0.50000000000205869 1 0 0.47135117303824892 0.95556877749289892 0 0.52122150208832174 0.94089974453840242 0 0.49999999999869432 0 0 0.52375890611712683 0.059318771819432882 0 0.47040171442036788 0.044141676406503738 0 0.4656888918609538 0.78493261229743638 0 0.45582236402875981 0.73896743678908217 0 0.50945740445113552 0.75476055527778108 0 0.5 0.69999999999999996 0 0.50945740445113552 0.75476055527778108 0 0.45582236402875981 0.73896743678908217 0 0.55306006949600994 0.20198184231352201 0 0.56202748619534593 0.15054058349222879 0 0.59443395090188023 0.18455690917515069 0 0.6236733212988993 0.14864538214901801 0 0.59443395090188023 0.18455690917515069 0 0.56202748619534593 0.15054058349222879 0 0.57412547362576272 0.58273804879550706 0 0.5498280205245758 0.6290146943450976 0 0.5166924242153631 0.59825134841919447 0 0.91696753777131557 0.497780560203536 0 0.93814194660195893 0.44426664081746747 0 0.96228564064454991 0.48206450662049471 0 0.15720202157091859 0.60665697304410315 0 0.16500388252850301 0.66612077714085194 0 0.1241190223511371 0.64391885572885044 0 0.44288491854585582 0.14116182884956319 0 0.47881186583059909 0.093591717165689425 0 0.48466639505193998 0.1421439844745814 0 1 0.54999999999963112 0 0.93732437411268477 0.55911392101136159 0 0.95631871884947484 0.51827533208233789 0 0.57724883562309992 0.92155686857100794 0 0.57382506491224949 0.9629411906298494 0 0.52122150208832174 0.94089974453840242 0 0.85170973911348691 0.93569607295217616 0 0.81159157511211755 0.88795995483179491 0 0.85600844944837662 0.88483418979512773 0 0.8517097391133297 0.2356960729520409 0 0.81283102246527783 0.1881007222486438 0 0.85600844944842547 0.1848341897950983 0 0.27866744612395528 0.38416094670951489 0 0.29124338931648802 0.43334555462578611 0 0.24049127783545701 0.41270748208749802 0 0.6084546825910605 0.37989672713932537 0 0.56836770495988642 0.3523062350852913 0 0.61959173890754571 0.33832250091341232 0 0.20050006573841939 0.53248514016039872 0 0.25115337790845271 0.54719303014923271 0 0.22549374774072969 0.58452645269293457 0 0.26573297623774761 0.59828298563722948 0 0.22549374774072969 0.58452645269293457 0 0.25115337790845271 0.54719303014923271 0 0.26104540868854792 0.81401944968719064 0 0.29209212897034281 0.84715728365233667 0 0.2401283238295133 0.85648409884788523 0 0.6236733212988993 0.14864538214901801 0 0.65290632656860115 0.11434202593454081 0 0.68391457121233579 0.14440470121196541 0 0.19901705110390991 0.9175543425573498 0 0.19741632902693801 0.86755867406447229 0 0.24536017905392571 0.90704567837671446 0 0.72500000000000064 0.7952620967744265 0 0.76901770135486491 0.84293557325473656 0 0.72863726579783861 0.85390518901155588 0 0.72500000000000064 0.7952620967744265 0 0.72863726579783861 0.85390518901155588 0 0.68697391633157634 0.84450604838764298 0 0.7250000000005199 0.89375000000045834 0 0.68697391633157634 0.84450604838764298 0 0.72863726579783861 0.85390518901155588 0 0.72525833953073282 0.1032114801687094 0 0.77144070960558853 0.14311854477243749 0 0.72634814642510737 0.16106886917518889 0 0.72525833953073282 0.1032114801687094 0 0.72634814642510737 0.16106886917518889 0 0.68391457121233579 0.14440470121196541 0 0.36622285152418499 0.69092437780804039 0 0.3977710372045391 0.65868194622830212 0 0.43323420005758778 0.6913544522562407 0 0 0.65000000000104008 0 0 0.60000000000138687 0 0.050069554451969707 0.61308520079857043 0 0 0.40000000000166441 0 0 0.35000000000145642 0 0.050583896093752537 0.38543522283434112 0 0.22033343844674469 0.36963382230740238 0 0.24049127783545701 0.41270748208749802 0 0.191953871957803 0.42546416763755879 0 0.5 0.29999999999999999 0 0.4604742573284204 0.27846934318264788 0 0.49695729691142171 0.25014895411178018 0 0.19741632902693801 0.86755867406447229 0 0.2401283238295133 0.85648409884788523 0 0.24536017905392571 0.90704567837671446 0 0 0.50000000000205869 0 0.068743045408989428 0.48853989837882689 0 0.044576108720083309 0.53509043209532614 0 0.15000000000062411 1 0 0.14617343800780541 0.93808063414349496 0 0.18474005699953849 0.96231585248064622 0 0.14999999999970359 0 0 0.184418230509967 0.038773194583122873 0 0.14618258501891079 0.062070108745602003 0 0.57667858002728545 0.078486105337742612 0 0.52375890611712683 0.059318771819432882 0 0.57396793757665954 0.037011367187645222 0 0.113541300460994 0.46208784312094731 0 0.078358742472063481 0.43365249433908948 0 0.13773355295499351 0.42497777642586831 0 0.77354604466818633 0.40378688774472771 0 0.78145581580700685 0.34881365920033602 0 0.81308179852519835 0.39754945808726527 0 0.38244435121258652 0.51653317813019495 0 0.33190227185843768 0.52715113583864037 0 0.35024835142131061 0.48654922671676981 0 0.64753070846764316 0.77332939069435502 0 0.65005442820240822 0.82644988530054031 0 0.60294066490120068 0.80851322453934582 0 0.15720202157091859 0.60665697304410315 0 0.1024350934457823 0.60772393977513839 0 0.1154888278694548 0.56733818459978413 0 0.90416666666660628 0.9041666666666166 0 0.85600844944837662 0.88483418979512773 0 0.88088768115933802 0.84674609810493673 0 0.90416666666668166 0.20416666666667119 0 0.85600844944842547 0.1848341897950983 0 0.88088768115941807 0.14674609810479519 0 0.078358742472063481 0.43365249433908948 0 0.1117088112799664 0.38831403004970022 0 0.13773355295499351 0.42497777642586831 0 0.38244435121258652 0.51653317813019495 0 0.3908716102680424 0.47010282357248828 0 0.43507373378304309 0.49699695397193322 0 0.90299850604011456 0.79563452813489832 0 0.95386563387742829 0.80414874155775029 0 0.93677536231884972 0.85000000000000286 0 0.90416666666660628 0.9041666666666166 0 0.93677536231884972 0.85000000000000286 0 0.95391631417670719 0.89584263333814784 0 0.90299850604006393 0.09563452813493091 0 0.95386563387744361 0.1041487415577465 0 0.93677536231883773 0.14999999999999089 0 0.90416666666668166 0.20416666666667119 0 0.93677536231883773 0.14999999999999089 0 0.95391631417672862 0.19584263333809451 0 0.39536230704883951 0.84069429572832477 0 0.44003836461056539 0.88093474584252718 0 0.39767323751400468 0.89584229130535065 0 0.51076801031701946 0.1202837388510348 0 0.52375890611712683 0.059318771819432882 0 0.54979595918804436 0.1060565713905809 0 0.57667858002728545 0.078486105337742612 0 0.54979595918804436 0.1060565713905809 0 0.52375890611712683 0.059318771819432882 0 0.57724883562309992 0.92155686857100794 0 0.52122150208832174 0.94089974453840242 0 0.54783390826260769 0.89287767010860219 0 0.50202631463681879 0.87892870825713787 0 0.54783390826260769 0.89287767010860219 0 0.52122150208832174 0.94089974453840242 0 0.087545339447545459 0.35122518864182262 0 0.093851963071650835 0.30582068233324772 0 0.14223753364722069 0.3341983344262433 0 0.54999999999999993 0.69999999999999996 0 0.59999999999999976 0.69999999999999996 0 0.55363780716230748 0.74348740161571747 0 0.083105206071452636 0.79992298667296435 0 0.1074251789111534 0.83564394292147814 0 0.065374659239661639 0.8551091961254178 0 0.083105206071467416 0.20007701332709979 0 0.065374659239632718 0.1448908038746782 0 0.106902708054812 0.16453234188234539 0 0.52289427570932567 0.3932284363388488 0 0.53823865529665704 0.45873898050322898 0 0.48858720058566618 0.43964267759203868 0 0.13737030665753211 0.20313708640667491 0 0.14377654328998779 0.2442024734791064 0 0.095326043202144745 0.24554465089224409 0 0.1382744753146134 0.79650574229207483 0 0.090953281884486245 0.7564451946902494 0 0.14335651144331049 0.75565258250209677 0 0.27270076654418179 0.87751467830216623 0 0.30864387279288652 0.89906554525974958 0 0.24536017905392571 0.90704567837671446 0 0.27609987656793722 0.94991445621608572 0 0.24536017905392571 0.90704567837671446 0 0.30864387279288652 0.89906554525974958 0 0.90299850604011456 0.79563452813489832 0 0.84725310900444062 0.80779732082917555 0 0.85491058998424563 0.76004753345552634 0 0.90299850604006393 0.09563452813493091 0 0.84725310900442086 0.10779732082922661 0 0.85491058998398861 0.060047533455626502 0 1 0.54999999999963112 0 1 0.59999999999973963 0 0.95867599106212187 0.60011091146651041 0 1 0.39999999999978308 0 1 0.44999999999963131 0 0.95871855522754235 0.40006508612975411 0 0.28040350263641872 0.23054717217092141 0 0.25195515620380449 0.25883339815888678 0 0.224700362040408 0.22206622194729711 0 0.84999999999999987 0.29999999999999999 0 0.87430060258887643 0.34056085888204451 0 0.82500000000000062 0.33010209762754811 0 0.84999999999999987 0.69999999999999996 0 0.82457059160610424 0.66831947184359608 0 0.87712158428786946 0.65709029563313581 0 0.86956835336234861 0.571283299838105 0 0.87159648282691515 0.61285406320581504 0 0.81723410853263523 0.59419663659258926 0 0.43698630808430822 0.080423614171545449 0 0.47881186583059909 0.093591717165689425 0 0.44288491854585582 0.14116182884956319 0 1 0.44999999999963131 0 0.96228564064454991 0.48206450662049471 0 0.93814194660195893 0.44426664081746747 0 0.35752321586431363 0.9185439911803448 0 0.30864387279288652 0.89906554525974958 0 0.35864759629805099 0.87963482415279515 0 0.29124338931648802 0.43334555462578611 0 0.25982634974572738 0.46097799597715272 0 0.24049127783545701 0.41270748208749802 0 0.51076801031701946 0.1202837388510348 0 0.56202748619534593 0.15054058349222879 0 0.51729576145820033 0.1683240575987815 0 0.55306006949600994 0.20198184231352201 0 0.51729576145820033 0.1683240575987815 0 0.56202748619534593 0.15054058349222879 0 0.26429849586623999 0.19346700179430079 0 0.28040350263641872 0.23054717217092141 0 0.224700362040408 0.22206622194729711 0 0.51076801031701946 0.1202837388510348 0 0.48466639505193998 0.1421439844745814 0 0.47881186583059909 0.093591717165689425 0 0.2185883431182947 0.18019736283949719 0 0.26429849586623999 0.19346700179430079 0 0.224700362040408 0.22206622194729711 0 0.18269480424590959 0.75905448272264375 0 0.2248999640082178 0.72584299459689172 0 0.22556077506376701 0.77837424984191617 0 0.51076801031701946 0.1202837388510348 0 0.47881186583059909 0.093591717165689425 0 0.52375890611712683 0.059318771819432882 0 0.50202631463681879 0.87892870825713787 0 0.52122150208832174 0.94089974453840242 0 0.47401147028110507 0.91529957330468115 0 0 0.84999999999965292 0 0.038512288486097702 0.8155852717111195 0 0.065374659239661639 0.8551091961254178 0 0 0.15000000000062411 0 0.065374659239632718 0.1448908038746782 0 0.038512288486115001 0.1844147282893184 0 0.2185883431182947 0.18019736283949719 0 0.224700362040408 0.22206622194729711 0 0.18124454140915969 0.18790916706335251 0 0.21858834311891909 0.81980263716112767 0 0.17777405986036951 0.81832336108265358 0 0.22556077506376701 0.77837424984191617 0 0.1215415378367805 0.72939333680004137 0 0.1020579365089687 0.69352219419301997 0 0.15332765547575641 0.71200081858233666 0 0.49695729691142171 0.25014895411178018 0 0.50760557329222289 0.20700468884612061 0 0.54248833945060504 0.2520322959927106 0 0.15720202157091859 0.60665697304410315 0 0.14934928745814749 0.55042914607228977 0 0.18381867841758909 0.57774125163628387 0 0.90416666666660628 0.9041666666666166 0 0.85170973911348691 0.93569607295217616 0 0.85600844944837662 0.88483418979512773 0 0.90416666666668166 0.20416666666667119 0 0.8517097391133297 0.2356960729520409 0 0.85600844944842547 0.1848341897950983 0 0.17933913398461551 0.2350063570234002 0 0.13737030665753211 0.20313708640667491 0 0.18124454140915969 0.18790916706335251 0 0.18269480424590959 0.75905448272264375 0 0.17777405986036951 0.81832336108265358 0 0.1382744753146134 0.79650574229207483 0 0.1216098864341134 0.50637075089503902 0 0.15801167086041079 0.46008690540259539 0 0.16618607197337229 0.50652878253548905 0 0.50760557329222289 0.20700468884612061 0 0.55306006949600994 0.20198184231352201 0 0.54248833945060504 0.2520322959927106 0 0.75000000000034661 1 0 0.7000000000006934 1 0 0.7250000000005199 0.94981617647078953 0 0.69999999999999984 0.29999999999999999 0 0.72500000000000064 0.2498161764706 0 0.74999999999999989 0.29999999999999999 0 0.72525833953073282 0.1032114801687094 0 0.68391457121233579 0.14440470121196541 0 0.68330259535470161 0.10038702501083881 0 0.43249999999999988 0.43937499999999979 0 0.46655310992796922 0.39650496622958609 0 0.48858720058566618 0.43964267759203868 0 0.19901705110390991 0.9175543425573498 0 0.14617343800780541 0.93808063414349496 0 0.16206583317966519 0.89685560785156404 0 0.19922788606653311 0.085920220746880993 0 0.16141998738593399 0.10404039647458049 0 0.14618258501891079 0.062070108745602003 0 0.31378396441836959 0.70157213313026345 0 0.26439878998046262 0.7048065392091396 0 0.27820712747429932 0.65530134213254643 0 0.1216098864341134 0.50637075089503902 0 0.113541300460994 0.46208784312094731 0 0.15801167086041079 0.46008690540259539 0 0.6084546825910605 0.37989672713932537 0 0.65481233915350323 0.35652751921065562 0 0.63912439215427275 0.41063340167983359 0 0.19901705110390991 0.9175543425573498 0 0.18474005699953849 0.96231585248064622 0 0.14617343800780541 0.93808063414349496 0 0.19922788606653311 0.085920220746880993 0 0.14618258501891079 0.062070108745602003 0 0.184418230509967 0.038773194583122873 0 0.38244435121258652 0.51653317813019495 0 0.35024835142131061 0.48654922671676981 0 0.3908716102680424 0.47010282357248828 0 0.82709327591102189 0.14937141670914489 0 0.77144070960558853 0.14311854477243749 0 0.80076557130237269 0.1154587552654202 0 0.82709327591091286 0.84937141670920724 0 0.76901770135486491 0.84293557325473656 0 0.80041942726660109 0.81543261647703358 0 0.43698630808430822 0.080423614171545449 0 0.44288491854585582 0.14116182884956319 0 0.39823268594401579 0.1116623613130045 0 0.39801143831225599 0.16651381068160659 0 0.39823268594401579 0.1116623613130045 0 0.44288491854585582 0.14116182884956319 0 0.36575549820117997 0.31677992835137742 0 0.3786248352540974 0.27082301512024259 0 0.41914690343363781 0.30688979866601612 0 0.42377727103934271 0.25099357235810238 0 0.41914690343363781 0.30688979866601612 0 0.3786248352540974 0.27082301512024259 0 0.049706944316475897 0.72477277076253799 0 0.1020579365089687 0.69352219419301997 0 0.090953281884486245 0.7564451946902494 0 0.1215415378367805 0.72939333680004137 0 0.090953281884486245 0.7564451946902494 0 0.1020579365089687 0.69352219419301997 0 0.1247745017231483 0.27198077544791172 0 0.093851963071650835 0.30582068233324772 0 0.095326043202144745 0.24554465089224409 0 0.049706944316556423 0.27522722923869108 0 0.095326043202144745 0.24554465089224409 0 0.093851963071650835 0.30582068233324772 0 0.77354604466818633 0.40378688774472771 0 0.81973119833356312 0.43505687159469048 0 0.77972660463949339 0.45529290596363098 0 0.43249999999999988 0.43937499999999979 0 0.43507373378304309 0.49699695397193322 0 0.3908716102680424 0.47010282357248828 0 0.26573297623774761 0.59828298563722948 0 0.2459498854893499 0.63248470766216769 0 0.22549374774072969 0.58452645269293457 0 0.72500000000000064 0.7952620967744265 0 0.77094201086366854 0.79647480515688507 0 0.76901770135486491 0.84293557325473656 0 0.72525833953073282 0.1032114801687094 0 0.76878382444651716 0.097147941686331368 0 0.77144070960558853 0.14311854477243749 0 0.72500000000000064 0.7952620967744265 0 0.68697391633157634 0.84450604838764298 0 0.68024162096458085 0.79868546898116533 0 0.31378396441836959 0.70157213313026345 0 0.29904318922293632 0.74132814928635593 0 0.26439878998046262 0.7048065392091396 0 0.31378396441836959 0.70157213313026345 0 0.35415581127540569 0.73730480045900215 0 0.29904318922293632 0.74132814928635593 0 0.61343887413683884 0.856862479058357 0 0.65005442820240822 0.82644988530054031 0 0.66412543161245952 0.88015090885499059 0 0.68697391633157634 0.84450604838764298 0 0.66412543161245952 0.88015090885499059 0 0.65005442820240822 0.82644988530054031 0 0.083411279318375747 0.91030024466934134 0 0.065374659239661639 0.8551091961254178 0 0.10562472963403439 0.87143394428979881 0 0.083411279318303222 0.089699755330707398 0 0.1053400320299198 0.12877248826361379 0 0.065374659239632718 0.1448908038746782 0 0.55306006949600994 0.20198184231352201 0 0.59443395090188023 0.18455690917515069 0 0.59814117807200873 0.23398510860739519 0 0.84999999999999987 0.29999999999999999 0 0.89999999999999991 0.29999999999999999 0 0.87430060258887643 0.34056085888204451 0 0.84999999999999987 0.69999999999999996 0 0.87712158428786946 0.65709029563313581 0 0.89999999999999991 0.69999999999999996 0 0.34258405725730701 0.4444034294386992 0 0.3908716102680424 0.47010282357248828 0 0.35024835142131061 0.48654922671676981 0 0.26573297623774761 0.59828298563722948 0 0.31502927232353312 0.6134992213375432 0 0.27820712747429932 0.65530134213254643 0 0.91696753777131557 0.497780560203536 0 0.86907294890112186 0.52008116128001669 0 0.88594198078881503 0.46167788676578442 0 0.84723782639812573 0.48638347960178252 0 0.88594198078881503 0.46167788676578442 0 0.86907294890112186 0.52008116128001669 0 0.7152569930854884 0.5237994455134295 0 0.77151014687832564 0.54436834383023036 0 0.71809016091162536 0.58185040402320831 0 0.90416666666660628 0.9041666666666166 0 0.89898474358632463 0.95391965591118966 0 0.85170973911348691 0.93569607295217616 0 0.90416666666668166 0.20416666666667119 0 0.89898474358614167 0.25391965591104898 0 0.8517097391133297 0.2356960729520409 0 0.91750694127107502 0.36982372220068471 0 0.95780851984364423 0.34215720972155339 0 0.95871855522754235 0.40006508612975411 0 0.91750694127105259 0.63017627779935648 0 0.95867599106212187 0.60011091146651041 0 0.9578014258160763 0.65787212321113708 0 0.90299850604011456 0.79563452813489832 0 0.88088768115933802 0.84674609810493673 0 0.84725310900444062 0.80779732082917555 0 0.90299850604006393 0.09563452813493091 0 0.88088768115941807 0.14674609810479519 0 0.84725310900442086 0.10779732082922661 0 0.1216098864341134 0.50637075089503902 0 0.16618607197337229 0.50652878253548905 0 0.14934928745814749 0.55042914607228977 0 0.20050006573841939 0.53248514016039872 0 0.14934928745814749 0.55042914607228977 0 0.16618607197337229 0.50652878253548905 0 0.80185942888539485 0.77452061303608133 0 0.84725310900444062 0.80779732082917555 0 0.80041942726660109 0.81543261647703358 0 0.80185942888501827 0.074520613036224564 0 0.84725310900442086 0.10779732082922661 0 0.80076557130237269 0.1154587552654202 0 0.083105206071452636 0.79992298667296435 0 0.065374659239661639 0.8551091961254178 0 0.038512288486097702 0.8155852717111195 0 0.083105206071467416 0.20007701332709979 0 0.038512288486115001 0.1844147282893184 0 0.065374659239632718 0.1448908038746782 0 0.54782696902220018 0.79245182748204157 0 0.59636844454254345 0.75937156204589151 0 0.60294066490120068 0.80851322453934582 0 0.083411279318375747 0.91030024466934134 0 0.0443105827531413 0.89858748162559932 0 0.065374659239661639 0.8551091961254178 0 0.083411279318303222 0.089699755330707398 0 0.065374659239632718 0.1448908038746782 0 0.044310582753132287 0.101412518374475 0 0.84999999999965292 1 0 0.81486180804382891 0.96321394949790495 0 0.85170973911348691 0.93569607295217616 0 0.84999999999999987 0.29999999999999999 0 0.81486180804364938 0.26321394949780091 0 0.8517097391133297 0.2356960729520409 0 0.4656888918609538 0.78493261229743638 0 0.45677673713123867 0.84253684404072415 0 0.42609163930740518 0.80361684430568059 0 0.39536230704883951 0.84069429572832477 0 0.42609163930740518 0.80361684430568059 0 0.45677673713123867 0.84253684404072415 0 0.6236733212988993 0.14864538214901801 0 0.56202748619534593 0.15054058349222879 0 0.58516465772821369 0.11653801664834119 0 0.57412547362576272 0.58273804879550706 0 0.63065402604362242 0.59661356661633302 0 0.5991018319127801 0.62925360607495295 0 0.61343887413683884 0.856862479058357 0 0.5832743223239254 0.88483152652961872 0 0.55899371797446828 0.85003102233514438 0 0.50202631463681879 0.87892870825713787 0 0.55899371797446828 0.85003102233514438 0 0.54783390826260769 0.89287767010860219 0 0.51076801031701946 0.1202837388510348 0 0.54979595918804436 0.1060565713905809 0 0.56202748619534593 0.15054058349222879 0 0.55306006949600994 0.20198184231352201 0 0.59814117807200873 0.23398510860739519 0 0.54248833945060504 0.2520322959927106 0 0.83573492347052902 0.36590755630746369 0 0.82500000000000062 0.33010209762754811 0 0.87430060258887643 0.34056085888204451 0 0.83758014339878906 0.63222013025741819 0 0.87712158428786946 0.65709029563313581 0 0.82457059160610424 0.66831947184359608 0 0.49102375406324739 0.49123754822244059 0 0.53823865529665704 0.45873898050322898 0 0.53330375813596242 0.50827942741749099 0 0.52289427570932567 0.3932284363388488 0 0.57744073070774993 0.41535148636609359 0 0.53823865529665704 0.45873898050322898 0 0.4089290844030305 0.58728915500154233 0 0.37272913873093971 0.56192925302619479 0 0.42644501560315817 0.54603747078095544 0 0.49695729691142171 0.25014895411178018 0 0.4604742573284204 0.27846934318264788 0 0.46429753744194407 0.22870891180733599 0 0.90299850604011456 0.79563452813489832 0 0.85491058998424563 0.76004753345552634 0 0.89999166460796554 0.74528934923809909 0 0.90299850604006393 0.09563452813493091 0 0.85491058998398861 0.060047533455626502 0 0.899991664607802 0.045289349238254978 0 0.38244435121258652 0.51653317813019495 0 0.42644501560315817 0.54603747078095544 0 0.37272913873093971 0.56192925302619479 0 0.71406021706547751 0.63292083137662503 0 0.71809016091162536 0.58185040402320831 0 0.74994237037456724 0.62775548192980357 0 0.84723782639812573 0.48638347960178252 0 0.86907294890112186 0.52008116128001669 0 0.81441713509985358 0.51161854125224959 0 0.33122374654748771 0.57588941099433744 0 0.33190227185843768 0.52715113583864037 0 0.37272913873093971 0.56192925302619479 0 0.086179601630648681 0.64647209519980475 0 0.1241190223511371 0.64391885572885044 0 0.1020579365089687 0.69352219419301997 0 0.59999999999894682 0 0 0.64999999999907843 0 0 0.61940220174112337 0.047251958781050582 0 0.18269480424590959 0.75905448272264375 0 0.14335651144331049 0.75565258250209677 0 0.15332765547575641 0.71200081858233666 0 0.22549374774072969 0.58452645269293457 0 0.2459498854893499 0.63248470766216769 0 0.19914261668318661 0.62286739485272158 0 0.38244435121258652 0.51653317813019495 0 0.43507373378304309 0.49699695397193322 0 0.42644501560315817 0.54603747078095544 0 0.65000000000104008 1 0 0.60000000000138687 1 0 0.62065498684670595 0.95224934003983619 0 0.078358742472063481 0.43365249433908948 0 0.068743045408989428 0.48853989837882689 0 0.033550201249889847 0.46247875832467239 0 0.2236846579037573 0.67380363126050236 0 0.27820712747429932 0.65530134213254643 0 0.26439878998046262 0.7048065392091396 0 0.6879972333610942 0.43038561374960838 0 0.68128176404677243 0.38629093627004979 0 0.72622533758026719 0.40265885511101601 0 0.72525833953073282 0.1032114801687094 0 0.7010294155333181 0.056779085686491267 0 0.7527966693318906 0.053051678021508272 0 0.18269480424590959 0.75905448272264375 0 0.15332765547575641 0.71200081858233666 0 0.19068556247388771 0.71028988922845504 0 0.1216098864341134 0.50637075089503902 0 0.085622222639554768 0.53333248912060549 0 0.068743045408989428 0.48853989837882689 0 0.25676291524611189 0.7436741304886243 0 0.26439878998046262 0.7048065392091396 0 0.29904318922293632 0.74132814928635593 0 0.65481233915350323 0.35652751921065562 0 0.68128176404677243 0.38629093627004979 0 0.63912439215427275 0.41063340167983359 0 0.83573492347052902 0.36590755630746369 0 0.86844634540301924 0.38530937474099819 0 0.81308179852519835 0.39754945808726527 0 0.27270076654418179 0.87751467830216623 0 0.2401283238295133 0.85648409884788523 0 0.29209212897034281 0.84715728365233667 0 0.84999999999999987 0.69999999999999996 0 0.85491058998424563 0.76004753345552634 0 0.81864958914779962 0.73589050177899629 0 0.84999999999960507 0 0 0.85491058998398861 0.060047533455626502 0 0.81864958914740749 0.035890501779055867 0 0.18381867841758909 0.57774125163628387 0 0.19914261668318661 0.62286739485272158 0 0.15720202157091859 0.60665697304410315 0 0.22549374774072969 0.58452645269293457 0 0.19914261668318661 0.62286739485272158 0 0.18381867841758909 0.57774125163628387 0 0.79680861578988083 0.92656778056766709 0 0.85170973911348691 0.93569607295217616 0 0.81486180804382891 0.96321394949790495 0 0.79680861578956375 0.22656778056752541 0 0.8517097391133297 0.2356960729520409 0 0.81486180804364938 0.26321394949780091 0 0.20050006573841939 0.53248514016039872 0 0.23975172658309729 0.49475499200540818 0 0.25115337790845271 0.54719303014923271 0 0.28307294598219601 0.50789252727458634 0 0.25115337790845271 0.54719303014923271 0 0.23975172658309729 0.49475499200540818 0 0.20050006573841939 0.53248514016039872 0 0.18381867841758909 0.57774125163628387 0 0.14934928745814749 0.55042914607228977 0 0.19922788606653311 0.085920220746880993 0 0.22985637510995899 0.1298347970200906 0 0.18652628422869419 0.14162325200928061 0 0.33758650185219202 0.23837101504325639 0 0.38831533174504851 0.2189834941785925 0 0.3786248352540974 0.27082301512024259 0 0.42377727103934271 0.25099357235810238 0 0.3786248352540974 0.27082301512024259 0 0.38831533174504851 0.2189834941785925 0 0.19922788606653311 0.085920220746880993 0 0.18652628422869419 0.14162325200928061 0 0.16141998738593399 0.10404039647458049 0 0.54782696902220018 0.79245182748204157 0 0.55363780716230748 0.74348740161571747 0 0.59636844454254345 0.75937156204589151 0 0.82709327591091286 0.84937141670920724 0 0.88088768115933802 0.84674609810493673 0 0.85600844944837662 0.88483418979512773 0 0.82709327591102189 0.14937141670914489 0 0.88088768115941807 0.14674609810479519 0 0.85600844944842547 0.1848341897950983 0 0.27866744612395528 0.38416094670951489 0 0.22033343844674469 0.36963382230740238 0 0.25966125648670141 0.34351016742083729 0 0 0.50000000000205869 0 0.033550201249889847 0.46247875832467239 0 0.068743045408989428 0.48853989837882689 0 0.31378396441836959 0.70157213313026345 0 0.36622285152418499 0.69092437780804039 0 0.35415581127540569 0.73730480045900215 0 0.77293540622714185 0.59448302402785813 0 0.71809016091162536 0.58185040402320831 0 0.77151014687832564 0.54436834383023036 0 0.7152569930854884 0.5237994455134295 0 0.69385896817107129 0.48377516041410151 0 0.73947346780852752 0.49062440112282169 0 0.15801167086041079 0.46008690540259539 0 0.191953871957803 0.42546416763755879 0 0.19604738184454831 0.47787523520405789 0 0.57667858002728545 0.078486105337742612 0 0.61940220174112337 0.047251958781050582 0 0.61956000905586006 0.1043312481793135 0 0.65408113592120842 0.073941773121567966 0 0.61956000905586006 0.1043312481793135 0 0.61940220174112337 0.047251958781050582 0 0 0.55000000000173355 0 0 0.50000000000205869 0 0.044576108720083309 0.53509043209532614 0 0.65507451745379841 0.92229208810758578 0 0.62065498684670595 0.95224934003983619 0 0.61885627562261258 0.90282959257498208 0 0.57724883562309992 0.92155686857100794 0 0.61885627562261258 0.90282959257498208 0 0.62065498684670595 0.95224934003983619 0 0.91750694127107502 0.36982372220068471 0 0.86844634540301924 0.38530937474099819 0 0.87430060258887643 0.34056085888204451 0 0.91750694127105259 0.63017627779935648 0 0.87712158428786946 0.65709029563313581 0 0.87159648282691515 0.61285406320581504 0 0.33123028043633618 0.77629643437932982 0 0.29904318922293632 0.74132814928635593 0 0.35415581127540569 0.73730480045900215 0 0.86411095495256451 0.42388805655111889 0 0.84925632466077294 0.45359738909549091 0 0.81973119833356312 0.43505687159469048 0 0.43846182030517877 0.64845797726506715 0 0.47913475093885149 0.66010775372412711 0 0.43323420005758778 0.6913544522562407 0 0.18269480424590959 0.75905448272264375 0 0.19068556247388771 0.71028988922845504 0 0.2248999640082178 0.72584299459689172 0 0.39536230704883951 0.84069429572832477 0 0.38586766253264881 0.78219501014812498 0 0.42609163930740518 0.80361684430568059 0 0.59999999999999976 0.69999999999999996 0 0.63221990677827677 0.73442891067859706 0 0.59636844454254345 0.75937156204589151 0 0.27866744612395528 0.38416094670951489 0 0.24049127783545701 0.41270748208749802 0 0.22033343844674469 0.36963382230740238 0 0.82709327591091286 0.84937141670920724 0 0.84725310900444062 0.80779732082917555 0 0.88088768115933802 0.84674609810493673 0 0.82709327591102189 0.14937141670914489 0 0.84725310900442086 0.10779732082922661 0 0.88088768115941807 0.14674609810479519 0 0.1650278706801647 0.38791388161335733 0 0.18434624290945251 0.35208838264196463 0 0.22033343844674469 0.36963382230740238 0 0.4409427642593301 0.35743108089689513 0 0.49077833859261139 0.35229981449445641 0 0.46655310992796922 0.39650496622958609 0 0.80185942888539485 0.77452061303608133 0 0.81864958914779962 0.73589050177899629 0 0.85491058998424563 0.76004753345552634 0 0.80185942888501827 0.074520613036224564 0 0.81864958914740749 0.035890501779055867 0 0.85491058998398861 0.060047533455626502 0 0.29999999999926641 0 0 0.34999999999912063 0 0 0.32541448401678508 0.046215317981507749 0 0.35000000000145642 1 0 0.30000000000124832 1 0 0.32544832635163229 0.95485394099568932 0 0.4656888918609538 0.78493261229743638 0 0.50731287292894423 0.78963574450233831 0 0.50627822638148745 0.8263979829520941 0 0.2185883431182947 0.18019736283949719 0 0.25557216766470708 0.15874861286892261 0 0.26429849586623999 0.19346700179430079 0 1 0.29999999999999999 0 1 0.34999999999993492 0 0.95780851984364423 0.34215720972155339 0 1 0.29999999999999999 0 0.95780851984364423 0.34215720972155339 0 0.94999999999999996 0.29999999999999999 0 1 0.69999999999999996 0 0.94999999999999996 0.69999999999999996 0 0.9578014258160763 0.65787212321113708 0 1 0.69999999999999996 0 0.9578014258160763 0.65787212321113708 0 1 0.64999999999986979 0 0.91750694127107502 0.36982372220068471 0 0.90594285160987287 0.4141265964174129 0 0.86844634540301924 0.38530937474099819 0 0.91750694127105259 0.63017627779935648 0 0.87159648282691515 0.61285406320581504 0 0.91143117093204207 0.58709913730335972 0 0.74999999999999989 0.69999999999999996 0 0.7750489929959945 0.66593931409600093 0 0.79999999999999982 0.69999999999999996 0 0.74999999999999989 0.29999999999999999 0 0.79999999999999982 0.29999999999999999 0 0.78145581580700685 0.34881365920033602 0 0.54999999999999993 0.69999999999999996 0 0.57484956128872922 0.66573805030881994 0 0.59999999999999976 0.69999999999999996 0 0.90299850604011456 0.79563452813489832 0 0.94399509803918602 0.75600490196082126 0 0.95386563387742829 0.80414874155775029 0 0.90416666666660628 0.9041666666666166 0 0.95391631417670719 0.89584263333814784 0 0.94399509803919068 0.9439950980391687 0 0.90299850604006393 0.09563452813493091 0 0.94399509803922566 0.056004901960802607 0 0.95386563387744361 0.1041487415577465 0 0.90416666666668166 0.20416666666667119 0 0.95391631417672862 0.19584263333809451 0 0.94399509803921056 0.24399509803922639 0 0.22278230690790279 0.44824268025881547 0 0.19604738184454831 0.47787523520405789 0 0.191953871957803 0.42546416763755879 0 0.90299850604011456 0.79563452813489832 0 0.89999166460796554 0.74528934923809909 0 0.94399509803918602 0.75600490196082126 0 0.90299850604006393 0.09563452813493091 0 0.899991664607802 0.045289349238254978 0 0.94399509803922566 0.056004901960802607 0 0.49102375406324739 0.49123754822244059 0 0.47793794143994173 0.52940715638744962 0 0.43507373378304309 0.49699695397193322 0 0.90416666666660628 0.9041666666666166 0 0.94399509803919068 0.9439950980391687 0 0.89898474358632463 0.95391965591118966 0 0.90416666666668166 0.20416666666667119 0 0.94399509803921056 0.24399509803922639 0 0.89898474358614167 0.25391965591104898 0 0.65394964615507722 0.22666784374016369 0 0.62657463266645097 0.26524202571255862 0 0.59814117807200873 0.23398510860739519 0 0.6084546825910605 0.37989672713932537 0 0.63912439215427275 0.41063340167983359 0 0.57744073070774993 0.41535148636609359 0 0.61209567303293111 0.44669033081290321 0 0.57744073070774993 0.41535148636609359 0 0.63912439215427275 0.41063340167983359 0 0.25676291524611189 0.7436741304886243 0 0.22556077506376701 0.77837424984191617 0 0.2248999640082178 0.72584299459689172 0 0.61343887413683884 0.856862479058357 0 0.60294066490120068 0.80851322453934582 0 0.65005442820240822 0.82644988530054031 0 0.64999999999907843 0 0 0.66369801598854572 0.036327466368102787 0 0.61940220174112337 0.047251958781050582 0 0.40326160981139969 0.73346192995102844 0 0.38586766253264881 0.78219501014812498 0 0.35415581127540569 0.73730480045900215 0 0.33123028043633618 0.77629643437932982 0 0.35415581127540569 0.73730480045900215 0 0.38586766253264881 0.78219501014812498 0 0.26573297623774761 0.59828298563722948 0 0.29110487519241501 0.56588143995431495 0 0.31502927232353312 0.6134992213375432 0 0.77846603114747959 0.49850927265137401 0 0.81441713509985358 0.51161854125224959 0 0.77151014687832564 0.54436834383023036 0 0.82862096804812391 0.55037090955459045 0 0.77151014687832564 0.54436834383023036 0 0.81441713509985358 0.51161854125224959 0 0.50000000000205869 1 0 0.45000000000187229 1 0 0.47135117303824892 0.95556877749289892 0 0.44999999999882923 0 0 0.49999999999869432 0 0 0.47040171442036788 0.044141676406503738 0 0 0.7000000000006934 0 0 0.65000000000104008 0 0.046634677244967337 0.671418230738282 0 0 0.35000000000145642 0 0 0.30000000000124832 0 0.046389130980076937 0.32668781832131749 0 0.31378396441836959 0.70157213313026345 0 0.27820712747429932 0.65530134213254643 0 0.32263089806001177 0.66003674931826484 0 0.33122374654748771 0.57588941099433744 0 0.31502927232353312 0.6134992213375432 0 0.29110487519241501 0.56588143995431495 0 0.26573297623774761 0.59828298563722948 0 0.27820712747429932 0.65530134213254643 0 0.2459498854893499 0.63248470766216769 0 0.14474682429600511 0.85524784522713515 0 0.16206583317966519 0.89685560785156404 0 0.1241151115713819 0.9045666525468371 0 0.14332333627550789 0.14578431753966009 0 0.12372429750337779 0.095814237875728972 0 0.16141998738593399 0.10404039647458049 0 0.64753070846764316 0.77332939069435502 0 0.59636844454254345 0.75937156204589151 0 0.63221990677827677 0.73442891067859706 0 0.14474682429600511 0.85524784522713515 0 0.1241151115713819 0.9045666525468371 0 0.10562472963403439 0.87143394428979881 0 0.14332333627550789 0.14578431753966009 0 0.1053400320299198 0.12877248826361379 0 0.12372429750337779 0.095814237875728972 0 0.77354604466818633 0.40378688774472771 0 0.81308179852519835 0.39754945808726527 0 0.81973119833356312 0.43505687159469048 0 0.54782696902220018 0.79245182748204157 0 0.50945740445113552 0.75476055527778108 0 0.55363780716230748 0.74348740161571747 0 0.2236846579037573 0.67380363126050236 0 0.2459498854893499 0.63248470766216769 0 0.27820712747429932 0.65530134213254643 0 0.77293540622714185 0.59448302402785813 0 0.74994237037456724 0.62775548192980357 0 0.71809016091162536 0.58185040402320831 0 0 0.79999999999999982 0 0 0.75000000000034661 0 0.04408157711937423 0.7728941757575627 0 0 0.25000000000104028 0 0 0.20000000000083221 0 0.044081577119474857 0.2271058242433576 0 0.19999999999955789 0 0 0.24999999999941211 0 0 0.22668068146512929 0.045875643423131329 0 0.25000000000104028 1 0 0.20000000000083221 1 0 0.22850979588452081 0.95594428570238643 0 0.47357141910802508 0.1873585799078378 0 0.44288491854585582 0.14116182884956319 0 0.48466639505193998 0.1421439844745814 0 0.59999999999999976 0.29999999999999999 0 0.5794309697024993 0.27124795968204829 0 0.62657463266645097 0.26524202571255862 0 0.43249999999999988 0.43937499999999979 0 0.42161023666869668 0.39493916313643851 0 0.46655310992796922 0.39650496622958609 0 0.31068898841644388 0.47541502461811092 0 0.33190227185843768 0.52715113583864037 0 0.28307294598219601 0.50789252727458634 0 0.35024835142131061 0.48654922671676981 0 0.33190227185843768 0.52715113583864037 0 0.31068898841644388 0.47541502461811092 0 0.35864735590330371 0.63903383440414463 0 0.36622285152418499 0.69092437780804039 0 0.32263089806001177 0.66003674931826484 0 0.31378396441836959 0.70157213313026345 0 0.32263089806001177 0.66003674931826484 0 0.36622285152418499 0.69092437780804039 0 0.86956835336234861 0.571283299838105 0 0.90900154012161016 0.53607784105648792 0 0.91143117093204207 0.58709913730335972 0 0.6499999999999998 0.29999999999999999 0 0.65481233915350323 0.35652751921065562 0 0.61959173890754571 0.33832250091341232 0 0.4409427642593301 0.35743108089689513 0 0.46226845272279993 0.31901800744800313 0 0.49077833859261139 0.35229981449445641 0 0.5 0.29999999999999999 0 0.49077833859261139 0.35229981449445641 0 0.46226845272279993 0.31901800744800313 0 0.14999999999970359 0 0 0.19999999999955789 0 0 0.184418230509967 0.038773194583122873 0 0.20000000000083221 1 0 0.15000000000062411 1 0 0.18474005699953849 0.96231585248064622 0 1 0.49999999999950101 0 1 0.54999999999963112 0 0.95631871884947484 0.51827533208233789 0 0.38586766253264881 0.78219501014812498 0 0.42676259796334498 0.76772545931379299 0 0.42609163930740518 0.80361684430568059 0 0.20050006573841939 0.53248514016039872 0 0.22549374774072969 0.58452645269293457 0 0.18381867841758909 0.57774125163628387 0 0.065374659239661639 0.8551091961254178 0 0.1074251789111534 0.83564394292147814 0 0.10562472963403439 0.87143394428979881 0 0.065374659239632718 0.1448908038746782 0 0.1053400320299198 0.12877248826361379 0 0.106902708054812 0.16453234188234539 0 0.1650278706801647 0.38791388161335733 0 0.14223753364722069 0.3341983344262433 0 0.18434624290945251 0.35208838264196463 0 0.43249999999999988 0.43937499999999979 0 0.46111841286828259 0.46690301029591341 0 0.43507373378304309 0.49699695397193322 0 0.83758014339878906 0.63222013025741819 0 0.81723410853263523 0.59419663659258926 0 0.87159648282691515 0.61285406320581504 0 0.19670163708476801 0.31472518408333222 0 0.18434624290945251 0.35208838264196463 0 0.14223753364722069 0.3341983344262433 0 0.75000000000034661 1 0 0.7250000000005199 0.94981617647078953 0 0.770759834363826 0.95919399014344442 0 0.74999999999999989 0.29999999999999999 0 0.72500000000000064 0.2498161764706 0 0.77075983436335049 0.25919399014334171 0 0.69999999999999984 0.29999999999999999 0 0.67933712972090698 0.25920070958121938 0 0.72500000000000064 0.2498161764706 0 0.57611405284611883 0.50165903596042916 0 0.53330375813596242 0.50827942741749099 0 0.53823865529665704 0.45873898050322898 0 0.6499999999999998 0.29999999999999999 0 0.68887083591306764 0.33632058575757479 0 0.65481233915350323 0.35652751921065562 0 0.27866744612395528 0.38416094670951489 0 0.33277555741076909 0.36432196682010132 0 0.31778888742534622 0.40581751814196781 0 0.49102375406324739 0.49123754822244059 0 0.43507373378304309 0.49699695397193322 0 0.46111841286828259 0.46690301029591341 0 0.94999999999999996 0.69999999999999996 0 0.97166519676947294 0.73337114490064459 0 0.94399509803918602 0.75600490196082126 0 0.94999999999986839 0 0 0.97166519676946894 0.033371144900598393 0 0.94399509803922566 0.056004901960802607 0 0.94999999999999996 0.29999999999999999 0 0.94399509803921056 0.24399509803922639 0 0.97166519676951801 0.26662885509932011 0 0.94999999999979179 1 0 0.94399509803919068 0.9439950980391687 0 0.97166519676946206 0.96662885509935492 0 0.34258405725730701 0.4444034294386992 0 0.29124338931648802 0.43334555462578611 0 0.31778888742534622 0.40581751814196781 0 0.27866744612395528 0.38416094670951489 0 0.31778888742534622 0.40581751814196781 0 0.29124338931648802 0.43334555462578611 0 0.36575549820117997 0.31677992835137742 0 0.33277555741076909 0.36432196682010132 0 0.32752639306529541 0.32610012995269699 0 0.35752321586431363 0.9185439911803448 0 0.32544832635163229 0.95485394099568932 0 0.30864387279288652 0.89906554525974958 0 0.27609987656793722 0.94991445621608572 0 0.30864387279288652 0.89906554525974958 0 0.32544832635163229 0.95485394099568932 0 0.33123028043633618 0.77629643437932982 0 0.30857225866488791 0.81101973481716805 0 0.2792923945214143 0.77665808831789485 0 0.33758650185219202 0.23837101504325639 0 0.29132859388405002 0.27203693976649962 0 0.28040350263641872 0.23054717217092141 0 0.4409427642593301 0.35743108089689513 0 0.41914690343363781 0.30688979866601612 0 0.46226845272279993 0.31901800744800313 0 0.14332333627550789 0.14578431753966009 0 0.13737030665753211 0.20313708640667491 0 0.106902708054812 0.16453234188234539 0 0.083105206071467416 0.20007701332709979 0 0.106902708054812 0.16453234188234539 0 0.13737030665753211 0.20313708640667491 0 0.083105206071452636 0.79992298667296435 0 0.1382744753146134 0.79650574229207483 0 0.1074251789111534 0.83564394292147814 0 0.14474682429600511 0.85524784522713515 0 0.1074251789111534 0.83564394292147814 0 0.1382744753146134 0.79650574229207483 0 0.65408113592120842 0.073941773121567966 0 0.7010294155333181 0.056779085686491267 0 0.68330259535470161 0.10038702501083881 0 0.72525833953073282 0.1032114801687094 0 0.68330259535470161 0.10038702501083881 0 0.7010294155333181 0.056779085686491267 0 0.049706944316475897 0.72477277076253799 0 0.046634677244967337 0.671418230738282 0 0.1020579365089687 0.69352219419301997 0 0.086179601630648681 0.64647209519980475 0 0.1020579365089687 0.69352219419301997 0 0.046634677244967337 0.671418230738282 0 0.087545339447545459 0.35122518864182262 0 0.046389130980076937 0.32668781832131749 0 0.093851963071650835 0.30582068233324772 0 0.049706944316556423 0.27522722923869108 0 0.093851963071650835 0.30582068233324772 0 0.046389130980076937 0.32668781832131749 0 0.82709327591091286 0.84937141670920724 0 0.80041942726660109 0.81543261647703358 0 0.84725310900444062 0.80779732082917555 0 0.82709327591102189 0.14937141670914489 0 0.80076557130237269 0.1154587552654202 0 0.84725310900442086 0.10779732082922661 0 0.17933913398461551 0.2350063570234002 0 0.14377654328998779 0.2442024734791064 0 0.13737030665753211 0.20313708640667491 0 0.18269480424590959 0.75905448272264375 0 0.1382744753146134 0.79650574229207483 0 0.14335651144331049 0.75565258250209677 0 0.33758650185219202 0.23837101504325639 0 0.3786248352540974 0.27082301512024259 0 0.33402499257867951 0.28911035184473982 0 0.14332333627550789 0.14578431753966009 0 0.18124454140915969 0.18790916706335251 0 0.13737030665753211 0.20313708640667491 0 0.14474682429600511 0.85524784522713515 0 0.1382744753146134 0.79650574229207483 0 0.17777405986036951 0.81832336108265358 0 0.5 0.29999999999999999 0 0.52752007115234678 0.33170632466418198 0 0.49077833859261139 0.35229981449445641 0 0.27866744612395528 0.38416094670951489 0 0.29644548887253103 0.34914008784168082 0 0.33277555741076909 0.36432196682010132 0 0 0.84999999999965292 0 0 0.79999999999999982 0 0.038512288486097702 0.8155852717111195 0 0 0.20000000000083221 0 0 0.15000000000062411 0 0.038512288486115001 0.1844147282893184 0 0.40326160981139969 0.73346192995102844 0 0.35415581127540569 0.73730480045900215 0 0.36622285152418499 0.69092437780804039 0 0.91696753777131557 0.497780560203536 0 0.96228564064454991 0.48206450662049471 0 0.95631871884947484 0.51827533208233789 0 0.33758650185219202 0.23837101504325639 0 0.31255190597181792 0.19850845631528771 0 0.3572130504031617 0.1874703368446563 0 0.59814117807200873 0.23398510860739519 0 0.62657463266645097 0.26524202571255862 0 0.5794309697024993 0.27124795968204829 0 0.34258405725730701 0.4444034294386992 0 0.31068898841644388 0.47541502461811092 0 0.29124338931648802 0.43334555462578611 0 0.38083244760691543 0.38531983672244652 0 0.35221190152536241 0.40457127605439203 0 0.33277555741076909 0.36432196682010132 0 0.083411279318375747 0.91030024466934134 0 0.10266856499240549 0.95548163909968886 0 0.053064897599294662 0.95186845269532028 0 0.083411279318303222 0.089699755330707398 0 0.053064897599215843 0.048131547304697528 0 0.10266856499169109 0.044518360900210059 0 0.42377727103934271 0.25099357235810238 0 0.4604742573284204 0.27846934318264788 0 0.41914690343363781 0.30688979866601612 0 0.28307294598219601 0.50789252727458634 0 0.25982634974572738 0.46097799597715272 0 0.31068898841644388 0.47541502461811092 0 0.29348325746214782 0.31350119524708198 0 0.29132859388405002 0.27203693976649962 0 0.33402499257867951 0.28911035184473982 0 0.35312867752657662 0.084946736076730367 0 0.39823268594401579 0.1116623613130045 0 0.36246644853392812 0.1399454205365751 0 0.7000000000006934 1 0 0.68015064798562208 0.95924320340003011 0 0.7250000000005199 0.94981617647078953 0 0.42377727103934271 0.25099357235810238 0 0.38831533174504851 0.2189834941785925 0 0.42905200079338551 0.19982395548231649 0 0.53823865529665704 0.45873898050322898 0 0.57744073070774993 0.41535148636609359 0 0.57975577671020095 0.46172033326338591 0 0.33758650185219202 0.23837101504325639 0 0.3572130504031617 0.1874703368446563 0 0.38831533174504851 0.2189834941785925 0 0.29124338931648802 0.43334555462578611 0 0.31068898841644388 0.47541502461811092 0 0.25982634974572738 0.46097799597715272 0 0.6084546825910605 0.37989672713932537 0 0.61959173890754571 0.33832250091341232 0 0.65481233915350323 0.35652751921065562 0 0.40326160981139969 0.73346192995102844 0 0.43323420005758778 0.6913544522562407 0 0.45582236402875981 0.73896743678908217 0 0.33758650185219202 0.23837101504325639 0 0.28040350263641872 0.23054717217092141 0 0.31255190597181792 0.19850845631528771 0 0.79999999999999982 1 0 0.75000000000034661 1 0 0.770759834363826 0.95919399014344442 0 0.74999999999999989 0.29999999999999999 0 0.77075983436335049 0.25919399014334171 0 0.79999999999999982 0.29999999999999999 0 0.6499999999999998 0.29999999999999999 0 0.67933712972090698 0.25920070958121938 0 0.69999999999999984 0.29999999999999999 0 0.39536230704883951 0.84069429572832477 0 0.39767323751400468 0.89584229130535065 0 0.35864759629805099 0.87963482415279515 0 0.54999999999999993 0.69999999999999996 0 0.52584555706968406 0.66664215091846768 0 0.57484956128872922 0.66573805030881994 0 0.35312867752657662 0.084946736076730367 0 0.32541448401678508 0.046215317981507749 0 0.3615861437013822 0.03582617922508851 0 0.35752321586431363 0.9185439911803448 0 0.36184234618600131 0.96443954459096326 0 0.32544832635163229 0.95485394099568932 0 0.35312867752657662 0.084946736076730367 0 0.3615861437013822 0.03582617922508851 0 0.39591832466117061 0.056982757562006353 0 0.35752321586431363 0.9185439911803448 0 0.39641108128798319 0.94356127926187128 0 0.36184234618600131 0.96443954459096326 0 0.083411279318303222 0.089699755330707398 0 0.044310582753132287 0.101412518374475 0 0.053064897599215843 0.048131547304697528 0 0.083411279318375747 0.91030024466934134 0 0.053064897599294662 0.95186845269532028 0 0.0443105827531413 0.89858748162559932 0 0.38083244760691543 0.38531983672244652 0 0.40076539126862748 0.34589349467022118 0 0.42161023666869668 0.39493916313643851 0 0.4409427642593301 0.35743108089689513 0 0.42161023666869668 0.39493916313643851 0 0.40076539126862748 0.34589349467022118 0 0.79999999999999982 0.29999999999999999 0 0.82500000000000062 0.33010209762754811 0 0.78145581580700685 0.34881365920033602 0 0.79999999999999982 0.69999999999999996 0 0.7750489929959945 0.66593931409600093 0 0.82457059160610424 0.66831947184359608 0 0.59999999999999976 0.69999999999999996 0 0.57484956128872922 0.66573805030881994 0 0.62460753523532009 0.66851202781000296 0 0.74999999999999989 0.69999999999999996 0 0.72500000000000064 0.67022701834392062 0 0.7750489929959945 0.66593931409600093 0 0.74999999999999989 0.29999999999999999 0 0.78145581580700685 0.34881365920033602 0 0.73090396928863699 0.33699297293167962 0 0.33758650185219202 0.23837101504325639 0 0.33402499257867951 0.28911035184473982 0 0.29132859388405002 0.27203693976649962 0 0.36575549820117997 0.31677992835137742 0 0.41914690343363781 0.30688979866601612 0 0.40076539126862748 0.34589349467022118 0 0.4409427642593301 0.35743108089689513 0 0.40076539126862748 0.34589349467022118 0 0.41914690343363781 0.30688979866601612 0 0.34258405725730701 0.4444034294386992 0 0.38707855792647411 0.42299362914874578 0 0.3908716102680424 0.47010282357248828 0 0.7000000000006934 1 0 0.65000000000104008 1 0 0.68015064798562208 0.95924320340003011 0 0.49102375406324739 0.49123754822244059 0 0.46111841286828259 0.46690301029591341 0 0.48858720058566618 0.43964267759203868 0 0.4656888918609538 0.78493261229743638 0 0.42676259796334498 0.76772545931379299 0 0.45582236402875981 0.73896743678908217 0 0.40326160981139969 0.73346192995102844 0 0.45582236402875981 0.73896743678908217 0 0.42676259796334498 0.76772545931379299 0 0.59999999999999976 0.29999999999999999 0 0.62657463266645097 0.26524202571255862 0 0.6499999999999998 0.29999999999999999 0 0.40000000000166441 1 0 0.36184234618600131 0.96443954459096326 0 0.39641108128798319 0.94356127926187128 0 0.3999999999989749 0 0 0.39591832466117061 0.056982757562006353 0 0.3615861437013822 0.03582617922508851 0 0.43249999999999988 0.43937499999999979 0 0.48858720058566618 0.43964267759203868 0 0.46111841286828259 0.46690301029591341 0 0.7250000000005199 0.89375000000045834 0 0.7250000000005199 0.94981617647078953 0 0.68987011941058407 0.92105047536677087 0 0.7250000000005199 0.89375000000045834 0 0.75729602384198635 0.92353652857884294 0 0.7250000000005199 0.94981617647078953 0 0.72500000000001008 0.19776155966387679 0 0.75668890529066124 0.2244279804069782 0 0.72500000000000064 0.2498161764706 0 0.72500000000001008 0.19776155966387679 0 0.72500000000000064 0.2498161764706 0 0.69397719155551807 0.2245125647000914 0 0.79999999999999982 0.29999999999999999 0 0.81486180804364938 0.26321394949780091 0 0.84999999999999987 0.29999999999999999 0 0.84999999999965292 1 0 0.79999999999999982 1 0 0.81486180804382891 0.96321394949790495 0 0.1247745017231483 0.27198077544791172 0 0.095326043202144745 0.24554465089224409 0 0.14377654328998779 0.2442024734791064 0 0.1215415378367805 0.72939333680004137 0 0.14335651144331049 0.75565258250209677 0 0.090953281884486245 0.7564451946902494 0 0.72500000000001008 0.19776155966387679 0 0.72634814642510737 0.16106886917518889 0 0.76587607630038135 0.18880039518954719 0 0.72500000000001008 0.19776155966387679 0 0.6865991819015953 0.189116534044597 0 0.72634814642510737 0.16106886917518889 0 0.77144070960558853 0.14311854477243749 0 0.76587607630038135 0.18880039518954719 0 0.72634814642510737 0.16106886917518889 0 0.68391457121233579 0.14440470121196541 0 0.72634814642510737 0.16106886917518889 0 0.6865991819015953 0.189116534044597 0 0.7250000000005199 0.89375000000045834 0 0.72863726579783861 0.85390518901155588 0 0.76891166905518427 0.88835469571185499 0 0.76901770135486491 0.84293557325473656 0 0.76891166905518427 0.88835469571185499 0 0.72863726579783861 0.85390518901155588 0 0 0.20000000000083221 0 0.038512288486115001 0.1844147282893184 0 0.044081577119474857 0.2271058242433576 0 0 0.79999999999999982 0 0.04408157711937423 0.7728941757575627 0 0.038512288486097702 0.8155852717111195 0 0.52375890611712683 0.059318771819432882 0 0.47881186583059909 0.093591717165689425 0 0.47040171442036788 0.044141676406503738 0 0.52122150208832174 0.94089974453840242 0 0.47135117303824892 0.95556877749289892 0 0.47401147028110507 0.91529957330468115 0 0.27474541102162192 0.11822029332053539 0 0.3096713403101819 0.085471541595262421 0 0.32215584939770009 0.1218492143506909 0 0.22278230690790279 0.44824268025881547 0 0.24049127783545701 0.41270748208749802 0 0.25982634974572738 0.46097799597715272 0 0.93732437411268477 0.55911392101136159 0 0.91143117093204207 0.58709913730335972 0 0.90900154012161016 0.53607784105648792 0 0.19901705110390991 0.9175543425573498 0 0.24536017905392571 0.90704567837671446 0 0.22850979588452081 0.95594428570238643 0 0.27609987656793722 0.94991445621608572 0 0.22850979588452081 0.95594428570238643 0 0.24536017905392571 0.90704567837671446 0 0.15720202157091859 0.60665697304410315 0 0.1241190223511371 0.64391885572885044 0 0.1024350934457823 0.60772393977513839 0 0.6499999999999998 0.69999999999999996 0 0.675261390228442 0.65996937624687813 0 0.69999999999999984 0.69999999999999996 0 0.3999999999989749 0 0 0.4320097814748517 0.037406712692169303 0 0.39591832466117061 0.056982757562006353 0 0.40000000000166441 1 0 0.39641108128798319 0.94356127926187128 0 0.4308986359464303 0.96395712492906194 0 0.54999999999999993 0.29999999999999999 0 0.56836770495988642 0.3523062350852913 0 0.52752007115234678 0.33170632466418198 0 0.14474682429600511 0.85524784522713515 0 0.17777405986036951 0.81832336108265358 0 0.19741632902693801 0.86755867406447229 0 0.21858834311891909 0.81980263716112767 0 0.19741632902693801 0.86755867406447229 0 0.17777405986036951 0.81832336108265358 0 0.54782696902220018 0.79245182748204157 0 0.50731287292894423 0.78963574450233831 0 0.50945740445113552 0.75476055527778108 0 0.20000000000083221 1 0 0.18474005699953849 0.96231585248064622 0 0.22850979588452081 0.95594428570238643 0 0.19999999999955789 0 0 0.22668068146512929 0.045875643423131329 0 0.184418230509967 0.038773194583122873 0 0.77846603114747959 0.49850927265137401 0 0.73947346780852752 0.49062440112282169 0 0.77972660463949339 0.45529290596363098 0 0.73483647259922602 0.44789725365921768 0 0.77972660463949339 0.45529290596363098 0 0.73947346780852752 0.49062440112282169 0 0.34258405725730701 0.4444034294386992 0 0.35024835142131061 0.48654922671676981 0 0.31068898841644388 0.47541502461811092 0 0.33123028043633618 0.77629643437932982 0 0.2792923945214143 0.77665808831789485 0 0.29904318922293632 0.74132814928635593 0 0.26573297623774761 0.59828298563722948 0 0.25115337790845271 0.54719303014923271 0 0.29110487519241501 0.56588143995431495 0 0.4656888918609538 0.78493261229743638 0 0.50945740445113552 0.75476055527778108 0 0.50731287292894423 0.78963574450233831 0 0.35312867752657662 0.084946736076730367 0 0.36246644853392812 0.1399454205365751 0 0.32215584939770009 0.1218492143506909 0 0.29348325746214782 0.31350119524708198 0 0.25966125648670141 0.34351016742083729 0 0.24432083401701241 0.3006253385567515 0 0.59999999999999976 0.69999999999999996 0 0.6499999999999998 0.69999999999999996 0 0.63221990677827677 0.73442891067859706 0 0.69999999999921003 0 0 0.7010294155333181 0.056779085686491267 0 0.66369801598854572 0.036327466368102787 0 0.40000000000166441 1 0 0.35000000000145642 1 0 0.36184234618600131 0.96443954459096326 0 0.34999999999912063 0 0 0.3999999999989749 0 0 0.3615861437013822 0.03582617922508851 0 0.43507373378304309 0.49699695397193322 0 0.47793794143994173 0.52940715638744962 0 0.42644501560315817 0.54603747078095544 0 0.14474682429600511 0.85524784522713515 0 0.19741632902693801 0.86755867406447229 0 0.16206583317966519 0.89685560785156404 0 0.19901705110390991 0.9175543425573498 0 0.16206583317966519 0.89685560785156404 0 0.19741632902693801 0.86755867406447229 0 0.35864735590330371 0.63903383440414463 0 0.3977710372045391 0.65868194622830212 0 0.36622285152418499 0.69092437780804039 0 0.7527966693318906 0.053051678021508272 0 0.7010294155333181 0.056779085686491267 0 0.72683645290270404 0.027797073151180601 0 0.71508799138962864 0.36622814920737751 0 0.72622533758026719 0.40265885511101601 0 0.68128176404677243 0.38629093627004979 0 0.79999999999999982 0.69999999999999996 0 0.84999999999999987 0.69999999999999996 0 0.81864958914779962 0.73589050177899629 0 0.79999999999947335 0 0 0.84999999999960507 0 0 0.81864958914740749 0.035890501779055867 0 0.39536230704883951 0.84069429572832477 0 0.35642984951668422 0.80994399665655703 0 0.38586766253264881 0.78219501014812498 0 0.42377727103934271 0.25099357235810238 0 0.46429753744194407 0.22870891180733599 0 0.4604742573284204 0.27846934318264788 0 0.39801143831225599 0.16651381068160659 0 0.42905200079338551 0.19982395548231649 0 0.38831533174504851 0.2189834941785925 0 0.79999999999999982 1 0 0.770759834363826 0.95919399014344442 0 0.81486180804382891 0.96321394949790495 0 0.79999999999999982 0.29999999999999999 0 0.77075983436335049 0.25919399014334171 0 0.81486180804364938 0.26321394949780091 0 0.25195515620380449 0.25883339815888678 0 0.21049769590865089 0.26857363548218488 0 0.224700362040408 0.22206622194729711 0 0.40326160981139969 0.73346192995102844 0 0.42676259796334498 0.76772545931379299 0 0.38586766253264881 0.78219501014812498 0 0.35312867752657662 0.084946736076730367 0 0.3096713403101819 0.085471541595262421 0 0.32541448401678508 0.046215317981507749 0 0.59999999999999976 0.29999999999999999 0 0.6499999999999998 0.29999999999999999 0 0.61959173890754571 0.33832250091341232 0 0.2185883431182947 0.18019736283949719 0 0.18652628422869419 0.14162325200928061 0 0.22985637510995899 0.1298347970200906 0 0.64999999999907843 0 0 0.69999999999921003 0 0 0.66369801598854572 0.036327466368102787 0 0.27499999999933927 0.060310814194988557 0 0.24218496799700481 0.089025544070598317 0 0.22668068146512929 0.045875643423131329 0 0.19922788606653311 0.085920220746880993 0 0.22668068146512929 0.045875643423131329 0 0.24218496799700481 0.089025544070598317 0 0.65507451745379841 0.92229208810758578 0 0.66412543161245952 0.88015090885499059 0 0.68987011941058407 0.92105047536677087 0 0.049706944316475897 0.72477277076253799 0 0.090953281884486245 0.7564451946902494 0 0.04408157711937423 0.7728941757575627 0 0.083105206071452636 0.79992298667296435 0 0.04408157711937423 0.7728941757575627 0 0.090953281884486245 0.7564451946902494 0 0.083105206071467416 0.20007701332709979 0 0.095326043202144745 0.24554465089224409 0 0.044081577119474857 0.2271058242433576 0 0.049706944316556423 0.27522722923869108 0 0.044081577119474857 0.2271058242433576 0 0.095326043202144745 0.24554465089224409 0 0.36575549820117997 0.31677992835137742 0 0.33402499257867951 0.28911035184473982 0 0.3786248352540974 0.27082301512024259 0 0.53245488764484505 0.55078124999999989 0 0.53330375813596242 0.50827942741749099 0 0.57435499076887508 0.54267261987897775 0 0.57611405284611883 0.50165903596042916 0 0.57435499076887508 0.54267261987897775 0 0.53330375813596242 0.50827942741749099 0 0.6499999999999998 0.29999999999999999 0 0.69999999999999984 0.29999999999999999 0 0.68887083591306764 0.33632058575757479 0 0.57611405284611883 0.50165903596042916 0 0.53823865529665704 0.45873898050322898 0 0.57975577671020095 0.46172033326338591 0 0.7750489929959945 0.66593931409600093 0 0.72500000000000064 0.67022701834392062 0 0.74994237037456724 0.62775548192980357 0 0.78145581580700685 0.34881365920033602 0 0.74764719760526988 0.3719647154012321 0 0.73090396928863699 0.33699297293167962 0 0.3999999999989749 0 0 0.44999999999882923 0 0 0.4320097814748517 0.037406712692169303 0 0.45000000000187229 1 0 0.40000000000166441 1 0 0.4308986359464303 0.96395712492906194 0 0.57484956128872922 0.66573805030881994 0 0.5991018319127801 0.62925360607495295 0 0.62460753523532009 0.66851202781000296 0 0.7750489929959945 0.66593931409600093 0 0.79884539758237771 0.62875045078114233 0 0.82457059160610424 0.66831947184359608 0 0.39801143831225599 0.16651381068160659 0 0.36246644853392812 0.1399454205365751 0 0.39823268594401579 0.1116623613130045 0 0.078358742472063481 0.43365249433908948 0 0.033550201249889847 0.46247875832467239 0 0.035463093262830522 0.42673416072819947 0 0.25676291524611189 0.7436741304886243 0 0.2792923945214143 0.77665808831789485 0 0.22556077506376701 0.77837424984191617 0 0.2236846579037573 0.67380363126050236 0 0.2248999640082178 0.72584299459689172 0 0.19068556247388771 0.71028988922845504 0 0.50715858906372158 0.63295939104129484 0 0.5166924242153631 0.59825134841919447 0 0.5498280205245758 0.6290146943450976 0 0.14618258501891079 0.062070108745602003 0 0.12372429750337779 0.095814237875728972 0 0.10266856499169109 0.044518360900210059 0 0.083411279318303222 0.089699755330707398 0 0.10266856499169109 0.044518360900210059 0 0.12372429750337779 0.095814237875728972 0 0.083411279318375747 0.91030024466934134 0 0.1241151115713819 0.9045666525468371 0 0.10266856499240549 0.95548163909968886 0 0.14617343800780541 0.93808063414349496 0 0.10266856499240549 0.95548163909968886 0 0.1241151115713819 0.9045666525468371 0 0.5499999999988151 0 0 0.59999999999894682 0 0 0.57396793757665954 0.037011367187645222 0 0.54782696902220018 0.79245182748204157 0 0.50627822638148745 0.8263979829520941 0 0.50731287292894423 0.78963574450233831 0 0.6499999999999998 0.29999999999999999 0 0.62657463266645097 0.26524202571255862 0 0.67933712972090698 0.25920070958121938 0 0.86956835336234861 0.571283299838105 0 0.86907294890112186 0.52008116128001669 0 0.90900154012161016 0.53607784105648792 0 0.17933913398461551 0.2350063570234002 0 0.224700362040408 0.22206622194729711 0 0.21049769590865089 0.26857363548218488 0 0.43249999999999988 0.43937499999999979 0 0.3908716102680424 0.47010282357248828 0 0.38707855792647411 0.42299362914874578 0 0.27474541102162192 0.11822029332053539 0 0.22985637510995899 0.1298347970200906 0 0.24218496799700481 0.089025544070598317 0 0.64753070846764316 0.77332939069435502 0 0.66427993341343905 0.73232764502436276 0 0.6916490518212759 0.75387992374886192 0 0 0.40000000000166441 0 0.050583896093752537 0.38543522283434112 0 0.035463093262830522 0.42673416072819947 0 0.73483647259922602 0.44789725365921768 0 0.73947346780852752 0.49062440112282169 0 0.69385896817107129 0.48377516041410151 0 0.57484956128872922 0.66573805030881994 0 0.52584555706968406 0.66664215091846768 0 0.5498280205245758 0.6290146943450976 0 0.60000000000138687 1 0 0.55000000000173355 1 0 0.57382506491224949 0.9629411906298494 0 0.068743045408989428 0.48853989837882689 0 0.085622222639554768 0.53333248912060549 0 0.044576108720083309 0.53509043209532614 0 0.083105206071467416 0.20007701332709979 0 0.044081577119474857 0.2271058242433576 0 0.038512288486115001 0.1844147282893184 0 0.083105206071452636 0.79992298667296435 0 0.038512288486097702 0.8155852717111195 0 0.04408157711937423 0.7728941757575627 0 0.28307294598219601 0.50789252727458634 0 0.23975172658309729 0.49475499200540818 0 0.25982634974572738 0.46097799597715272 0 0.43698630808430822 0.080423614171545449 0 0.39591832466117061 0.056982757562006353 0 0.4320097814748517 0.037406712692169303 0 0.4367309254023824 0.92065556789053882 0 0.4308986359464303 0.96395712492906194 0 0.39641108128798319 0.94356127926187128 0 0.80185942888539485 0.77452061303608133 0 0.75841349681148107 0.75422312624214749 0 0.78578450296893509 0.73292684821144505 0 0.80185942888501827 0.074520613036224564 0 0.7527966693318906 0.053051678021508272 0 0.78393852574753176 0.032039079577822822 0 0.6499999999999998 0.69999999999999996 0 0.62460753523532009 0.66851202781000296 0 0.675261390228442 0.65996937624687813 0 0.33123028043633618 0.77629643437932982 0 0.38586766253264881 0.78219501014812498 0 0.35642984951668422 0.80994399665655703 0 0.6405463747586706 0.63290524857395714 0 0.675261390228442 0.65996937624687813 0 0.62460753523532009 0.66851202781000296 0 0.22278230690790279 0.44824268025881547 0 0.191953871957803 0.42546416763755879 0 0.24049127783545701 0.41270748208749802 0 0.077693244765132896 0.56932317963405099 0 0.050069554451969707 0.61308520079857043 0 0.034381862692950467 0.57372682250960894 0 0.25195515620380449 0.25883339815888678 0 0.24432083401701241 0.3006253385567515 0 0.21049769590865089 0.26857363548218488 0 0.46666084890304671 0.57634471035397938 0 0.5166924242153631 0.59825134841919447 0 0.47095389620662098 0.61892551373708504 0 0.50715858906372158 0.63295939104129484 0 0.47095389620662098 0.61892551373708504 0 0.5166924242153631 0.59825134841919447 0 0.72525833953073282 0.1032114801687094 0 0.7527966693318906 0.053051678021508272 0 0.76878382444651716 0.097147941686331368 0 0.80185942888501827 0.074520613036224564 0 0.76878382444651716 0.097147941686331368 0 0.7527966693318906 0.053051678021508272 0 0.72500000000000064 0.7952620967744265 0 0.75841349681148107 0.75422312624214749 0 0.77094201086366854 0.79647480515688507 0 0.80185942888539485 0.77452061303608133 0 0.77094201086366854 0.79647480515688507 0 0.75841349681148107 0.75422312624214749 0 0.72500000000000064 0.7952620967744265 0 0.68024162096458085 0.79868546898116533 0 0.6916490518212759 0.75387992374886192 0 0.64753070846764316 0.77332939069435502 0 0.6916490518212759 0.75387992374886192 0 0.68024162096458085 0.79868546898116533 0 0 0.50000000000205869 0 0 0.45000000000187229 0 0.033550201249889847 0.46247875832467239 0 0.69999999999999984 0.69999999999999996 0 0.675261390228442 0.65996937624687813 0 0.72500000000000064 0.67022701834392062 0 0.71406021706547751 0.63292083137662503 0 0.72500000000000064 0.67022701834392062 0 0.675261390228442 0.65996937624687813 0 0.65408113592120842 0.073941773121567966 0 0.61940220174112337 0.047251958781050582 0 0.66369801598854572 0.036327466368102787 0 0.59999999999894682 0 0 0.61940220174112337 0.047251958781050582 0 0.57396793757665954 0.037011367187645222 0 0.60000000000138687 1 0 0.57382506491224949 0.9629411906298494 0 0.62065498684670595 0.95224934003983619 0 0.33122374654748771 0.57588941099433744 0 0.35765792684946668 0.6000687869219653 0 0.31502927232353312 0.6134992213375432 0 0.35864735590330371 0.63903383440414463 0 0.31502927232353312 0.6134992213375432 0 0.35765792684946668 0.6000687869219653 0 0.15801167086041079 0.46008690540259539 0 0.19604738184454831 0.47787523520405789 0 0.16618607197337229 0.50652878253548905 0 0.078358742472063481 0.43365249433908948 0 0.035463093262830522 0.42673416072819947 0 0.050583896093752537 0.38543522283434112 0 0.19901705110390991 0.9175543425573498 0 0.22850979588452081 0.95594428570238643 0 0.18474005699953849 0.96231585248064622 0 0.19922788606653311 0.085920220746880993 0 0.184418230509967 0.038773194583122873 0 0.22668068146512929 0.045875643423131329 0 0.19922788606653311 0.085920220746880993 0 0.24218496799700481 0.089025544070598317 0 0.22985637510995899 0.1298347970200906 0 0.74999999999999989 0.69999999999999996 0 0.78578450296893509 0.73292684821144505 0 0.75841349681148107 0.75422312624214749 0 0.74999999999934175 0 0 0.78393852574753176 0.032039079577822822 0 0.7527966693318906 0.053051678021508272 0 0 0.60000000000138687 0 0.034381862692950467 0.57372682250960894 0 0.050069554451969707 0.61308520079857043 0 0.2236846579037573 0.67380363126050236 0 0.26439878998046262 0.7048065392091396 0 0.2248999640082178 0.72584299459689172 0 0.6236733212988993 0.14864538214901801 0 0.58516465772821369 0.11653801664834119 0 0.61956000905586006 0.1043312481793135 0 0.26104540868854792 0.81401944968719064 0 0.2792923945214143 0.77665808831789485 0 0.30857225866488791 0.81101973481716805 0 0.42377727103934271 0.25099357235810238 0 0.42905200079338551 0.19982395548231649 0 0.46429753744194407 0.22870891180733599 0 0.27820712747429932 0.65530134213254643 0 0.31502927232353312 0.6134992213375432 0 0.32263089806001177 0.66003674931826484 0 0.61343887413683884 0.856862479058357 0 0.61885627562261258 0.90282959257498208 0 0.5832743223239254 0.88483152652961872 0 0.43698630808430822 0.080423614171545449 0 0.47040171442036788 0.044141676406503738 0 0.47881186583059909 0.093591717165689425 0 0.4367309254023824 0.92065556789053882 0 0.47401147028110507 0.91529957330468115 0 0.47135117303824892 0.95556877749289892 0 0.91696753777131557 0.497780560203536 0 0.95631871884947484 0.51827533208233789 0 0.90900154012161016 0.53607784105648792 0 0.93732437411268477 0.55911392101136159 0 0.90900154012161016 0.53607784105648792 0 0.95631871884947484 0.51827533208233789 0 0.27474541102162192 0.11822029332053539 0 0.25557216766470708 0.15874861286892261 0 0.22985637510995899 0.1298347970200906 0 0.2185883431182947 0.18019736283949719 0 0.22985637510995899 0.1298347970200906 0 0.25557216766470708 0.15874861286892261 0 0.29348325746214782 0.31350119524708198 0 0.33402499257867951 0.28911035184473982 0 0.32752639306529541 0.32610012995269699 0 0.27499999999933927 0.060310814194988557 0 0.32541448401678508 0.046215317981507749 0 0.3096713403101819 0.085471541595262421 0 0.27270076654418179 0.87751467830216623 0 0.24536017905392571 0.90704567837671446 0 0.2401283238295133 0.85648409884788523 0 1 0.44999999999963131 0 1 0.49999999999950101 0 0.96228564064454991 0.48206450662049471 0 0.61343887413683884 0.856862479058357 0 0.66412543161245952 0.88015090885499059 0 0.61885627562261258 0.90282959257498208 0 0 0.45000000000187229 0 0 0.40000000000166441 0 0.035463093262830522 0.42673416072819947 0 0.69999999999999984 0.69999999999999996 0 0.6916490518212759 0.75387992374886192 0 0.66427993341343905 0.73232764502436276 0 0.43846182030517877 0.64845797726506715 0 0.43323420005758778 0.6913544522562407 0 0.3977710372045391 0.65868194622830212 0 0.4367309254023824 0.92065556789053882 0 0.44003836461056539 0.88093474584252718 0 0.47401147028110507 0.91529957330468115 0 0.43846182030517877 0.64845797726506715 0 0.39743091024207589 0.6239520004230239 0 0.43545892161006339 0.61093128915313821 0 0.43846182030517877 0.64845797726506715 0 0.3977710372045391 0.65868194622830212 0 0.39743091024207589 0.6239520004230239 0 0.26429849586623999 0.19346700179430079 0 0.29336099386129338 0.15892013001050981 0 0.31255190597181792 0.19850845631528771 0 0.19670163708476801 0.31472518408333222 0 0.21049769590865089 0.26857363548218488 0 0.24432083401701241 0.3006253385567515 0 0.57724883562309992 0.92155686857100794 0 0.62065498684670595 0.95224934003983619 0 0.57382506491224949 0.9629411906298494 0 0.4409427642593301 0.35743108089689513 0 0.46655310992796922 0.39650496622958609 0 0.42161023666869668 0.39493916313643851 0 0.46666084890304671 0.57634471035397938 0 0.47095389620662098 0.61892551373708504 0 0.43545892161006339 0.61093128915313821 0 0.6879972333610942 0.43038561374960838 0 0.65178832218679827 0.45929119821019959 0 0.63912439215427275 0.41063340167983359 0 0.43698630808430822 0.080423614171545449 0 0.4320097814748517 0.037406712692169303 0 0.47040171442036788 0.044141676406503738 0 0.4367309254023824 0.92065556789053882 0 0.47135117303824892 0.95556877749289892 0 0.4308986359464303 0.96395712492906194 0 0.79680861578988083 0.92656778056766709 0 0.81486180804382891 0.96321394949790495 0 0.770759834363826 0.95919399014344442 0 0.79680861578956375 0.22656778056752541 0 0.81486180804364938 0.26321394949780091 0 0.77075983436335049 0.25919399014334171 0 0.71508799138962864 0.36622814920737751 0 0.68128176404677243 0.38629093627004979 0 0.68887083591306764 0.33632058575757479 0 0.35864735590330371 0.63903383440414463 0 0.32263089806001177 0.66003674931826484 0 0.31502927232353312 0.6134992213375432 0 0.21858834311891909 0.81980263716112767 0 0.2401283238295133 0.85648409884788523 0 0.19741632902693801 0.86755867406447229 0 0.35312867752657662 0.084946736076730367 0 0.32215584939770009 0.1218492143506909 0 0.3096713403101819 0.085471541595262421 0 0.35752321586431363 0.9185439911803448 0 0.35864759629805099 0.87963482415279515 0 0.39767323751400468 0.89584229130535065 0 0.41914690343363781 0.30688979866601612 0 0.4604742573284204 0.27846934318264788 0 0.46226845272279993 0.31901800744800313 0 0.33084213324567391 0.16272720141332131 0 0.32215584939770009 0.1218492143506909 0 0.36246644853392812 0.1399454205365751 0 0.46666084890304671 0.57634471035397938 0 0.42644501560315817 0.54603747078095544 0 0.47793794143994173 0.52940715638744962 0 0 0.60000000000138687 0 0 0.55000000000173355 0 0.034381862692950467 0.57372682250960894 0 0.77354604466818633 0.40378688774472771 0 0.74764719760526988 0.3719647154012321 0 0.78145581580700685 0.34881365920033602 0 0.34999999999912063 0 0 0.3615861437013822 0.03582617922508851 0 0.32541448401678508 0.046215317981507749 0 0.35000000000145642 1 0 0.32544832635163229 0.95485394099568932 0 0.36184234618600131 0.96443954459096326 0 0.57667858002728545 0.078486105337742612 0 0.57396793757665954 0.037011367187645222 0 0.61940220174112337 0.047251958781050582 0 0.47357141910802508 0.1873585799078378 0 0.50760557329222289 0.20700468884612061 0 0.46429753744194407 0.22870891180733599 0 0.49695729691142171 0.25014895411178018 0 0.46429753744194407 0.22870891180733599 0 0.50760557329222289 0.20700468884612061 0 0.33084213324567391 0.16272720141332131 0 0.3572130504031617 0.1874703368446563 0 0.31255190597181792 0.19850845631528771 0 0.6879972333610942 0.43038561374960838 0 0.63912439215427275 0.41063340167983359 0 0.68128176404677243 0.38629093627004979 0 0.65408113592120842 0.073941773121567966 0 0.65290632656860115 0.11434202593454081 0 0.61956000905586006 0.1043312481793135 0 0.33084213324567391 0.16272720141332131 0 0.31255190597181792 0.19850845631528771 0 0.29336099386129338 0.15892013001050981 0 0.61209567303293111 0.44669033081290321 0 0.63912439215427275 0.41063340167983359 0 0.65178832218679827 0.45929119821019959 0 0.086179601630648681 0.64647209519980475 0 0.1024350934457823 0.60772393977513839 0 0.1241190223511371 0.64391885572885044 0 0.44999999999882923 0 0 0.47040171442036788 0.044141676406503738 0 0.4320097814748517 0.037406712692169303 0 0.45000000000187229 1 0 0.4308986359464303 0.96395712492906194 0 0.47135117303824892 0.95556877749289892 0 0.74999999999934175 0 0 0.7527966693318906 0.053051678021508272 0 0.72683645290270404 0.027797073151180601 0 0.74999999999999989 0.69999999999999996 0 0.75841349681148107 0.75422312624214749 0 0.72501250972655151 0.74067302935308721 0 0.69999999999999984 0.69999999999999996 0 0.72501250972655151 0.74067302935308721 0 0.6916490518212759 0.75387992374886192 0 0.74999999999934175 0 0 0.79999999999947335 0 0 0.78393852574753176 0.032039079577822822 0 0.74999999999999989 0.69999999999999996 0 0.79999999999999982 0.69999999999999996 0 0.78578450296893509 0.73292684821144505 0 0.6405463747586706 0.63290524857395714 0 0.5991018319127801 0.62925360607495295 0 0.63065402604362242 0.59661356661633302 0 0.65481233915350323 0.35652751921065562 0 0.68887083591306764 0.33632058575757479 0 0.68128176404677243 0.38629093627004979 0 0.89999999999999991 0.29999999999999999 0 0.94999999999999996 0.29999999999999999 0 0.92012390126144183 0.33123581297173937 0 0.89999999999999991 0.69999999999999996 0 0.92057473616084773 0.66770436535372446 0 0.94999999999999996 0.69999999999999996 0 0.4367309254023824 0.92065556789053882 0 0.39767323751400468 0.89584229130535065 0 0.44003836461056539 0.88093474584252718 0 0.2185883431182947 0.18019736283949719 0 0.18124454140915969 0.18790916706335251 0 0.18652628422869419 0.14162325200928061 0 0.20050006573841939 0.53248514016039872 0 0.19604738184454831 0.47787523520405789 0 0.23975172658309729 0.49475499200540818 0 0.65507451745379841 0.92229208810758578 0 0.61885627562261258 0.90282959257498208 0 0.66412543161245952 0.88015090885499059 0 0.65394964615507722 0.22666784374016369 0 0.67933712972090698 0.25920070958121938 0 0.62657463266645097 0.26524202571255862 0 0.077693244765132896 0.56932317963405099 0 0.034381862692950467 0.57372682250960894 0 0.044576108720083309 0.53509043209532614 0 0.39801143831225599 0.16651381068160659 0 0.38831533174504851 0.2189834941785925 0 0.3572130504031617 0.1874703368446563 0 0.6499999999999998 0.69999999999999996 0 0.69999999999999984 0.69999999999999996 0 0.66427993341343905 0.73232764502436276 0 0.1215415378367805 0.72939333680004137 0 0.15332765547575641 0.71200081858233666 0 0.14335651144331049 0.75565258250209677 0 0.6405463747586706 0.63290524857395714 0 0.63065402604362242 0.59661356661633302 0 0.67529834988829951 0.61613270668143583 0 0.67323294229744413 0.57556450033612505 0 0.67529834988829951 0.61613270668143583 0 0.63065402604362242 0.59661356661633302 0 0.91750694127107502 0.36982372220068471 0 0.87430060258887643 0.34056085888204451 0 0.92012390126144183 0.33123581297173937 0 0.89999999999999991 0.29999999999999999 0 0.92012390126144183 0.33123581297173937 0 0.87430060258887643 0.34056085888204451 0 0.89999999999999991 0.69999999999999996 0 0.87712158428786946 0.65709029563313581 0 0.92057473616084773 0.66770436535372446 0 0.91750694127105259 0.63017627779935648 0 0.92057473616084773 0.66770436535372446 0 0.87712158428786946 0.65709029563313581 0 0.33122374654748771 0.57588941099433744 0 0.29110487519241501 0.56588143995431495 0 0.33190227185843768 0.52715113583864037 0 0.57484956128872922 0.66573805030881994 0 0.5498280205245758 0.6290146943450976 0 0.5991018319127801 0.62925360607495295 0 0.57412547362576272 0.58273804879550706 0 0.5991018319127801 0.62925360607495295 0 0.5498280205245758 0.6290146943450976 0 0.65408113592120842 0.073941773121567966 0 0.66369801598854572 0.036327466368102787 0 0.7010294155333181 0.056779085686491267 0 0.27474541102162192 0.11822029332053539 0 0.32215584939770009 0.1218492143506909 0 0.29336099386129338 0.15892013001050981 0 0.33084213324567391 0.16272720141332131 0 0.29336099386129338 0.15892013001050981 0 0.32215584939770009 0.1218492143506909 0 0.5 0.29999999999999999 0 0.54999999999999993 0.29999999999999999 0 0.52752007115234678 0.33170632466418198 0 0.83573492347052902 0.36590755630746369 0 0.87430060258887643 0.34056085888204451 0 0.86844634540301924 0.38530937474099819 0 0.83758014339878906 0.63222013025741819 0 0.87159648282691515 0.61285406320581504 0 0.87712158428786946 0.65709029563313581 0 0.22278230690790279 0.44824268025881547 0 0.23975172658309729 0.49475499200540818 0 0.19604738184454831 0.47787523520405789 0 1 0.49999999999950101 0 0.95631871884947484 0.51827533208233789 0 0.96228564064454991 0.48206450662049471 0 0.1650278706801647 0.38791388161335733 0 0.13773355295499351 0.42497777642586831 0 0.1117088112799664 0.38831403004970022 0 0.61209567303293111 0.44669033081290321 0 0.57975577671020095 0.46172033326338591 0 0.57744073070774993 0.41535148636609359 0 0.077693244765132896 0.56932317963405099 0 0.1154888278694548 0.56733818459978413 0 0.1024350934457823 0.60772393977513839 0 0.68697391633157634 0.84450604838764298 0 0.65005442820240822 0.82644988530054031 0 0.68024162096458085 0.79868546898116533 0 0.76901770135486491 0.84293557325473656 0 0.77094201086366854 0.79647480515688507 0 0.80041942726660109 0.81543261647703358 0 0.77144070960558853 0.14311854477243749 0 0.76878382444651716 0.097147941686331368 0 0.80076557130237269 0.1154587552654202 0 0.5 0.69999999999999996 0 0.52584555706968406 0.66664215091846768 0 0.54999999999999993 0.69999999999999996 0 0.077693244765132896 0.56932317963405099 0 0.044576108720083309 0.53509043209532614 0 0.085622222639554768 0.53333248912060549 0 0.69999999999921003 0 0 0.72683645290270404 0.027797073151180601 0 0.7010294155333181 0.056779085686491267 0 1 0 0 0.97166519676946894 0.033371144900598393 0 0.94999999999986839 0 0 1 0.69999999999999996 0 0.97166519676947294 0.73337114490064459 0 0.94999999999999996 0.69999999999999996 0 1 0.69999999999999996 0 1 0.74999999999993494 0 0.97166519676947294 0.73337114490064459 0 1 0.29999999999999999 0 0.97166519676951801 0.26662885509932011 0 1 0.24999999999987299 0 1 1 0 0.94999999999979179 1 0 0.97166519676946206 0.96662885509935492 0 1 0 0 1 0.049999999999896842 0 0.97166519676946894 0.033371144900598393 0 1 0.29999999999999999 0 0.94999999999999996 0.29999999999999999 0 0.97166519676951801 0.26662885509932011 0 1 1 0 0.97166519676946206 0.96662885509935492 0 1 0.94999999999997109 0 0 0.55000000000173355 0 0.044576108720083309 0.53509043209532614 0 0.034381862692950467 0.57372682250960894 0 0.6879972333610942 0.43038561374960838 0 0.69385896817107129 0.48377516041410151 0 0.65178832218679827 0.45929119821019959 0 0.33084213324567391 0.16272720141332131 0 0.36246644853392812 0.1399454205365751 0 0.3572130504031617 0.1874703368446563 0 0.65408113592120842 0.073941773121567966 0 0.68330259535470161 0.10038702501083881 0 0.65290632656860115 0.11434202593454081 0 0.16500388252850301 0.66612077714085194 0 0.19068556247388771 0.71028988922845504 0 0.15332765547575641 0.71200081858233666 0 0.82709327591091286 0.84937141670920724 0 0.85600844944837662 0.88483418979512773 0 0.81159157511211755 0.88795995483179491 0 0.82709327591102189 0.14937141670914489 0 0.85600844944842547 0.1848341897950983 0 0.81283102246527783 0.1881007222486438 0 0.79999999999999982 0.29999999999999999 0 0.84999999999999987 0.29999999999999999 0 0.82500000000000062 0.33010209762754811 0 0.79999999999999982 0.69999999999999996 0 0.82457059160610424 0.66831947184359608 0 0.84999999999999987 0.69999999999999996 0 0.59999999999999976 0.69999999999999996 0 0.62460753523532009 0.66851202781000296 0 0.6499999999999998 0.69999999999999996 0 0.39801143831225599 0.16651381068160659 0 0.3572130504031617 0.1874703368446563 0 0.36246644853392812 0.1399454205365751 0 0.69999999999999984 0.29999999999999999 0 0.74999999999999989 0.29999999999999999 0 0.73090396928863699 0.33699297293167962 0 0.69999999999999984 0.69999999999999996 0 0.72500000000000064 0.67022701834392062 0 0.74999999999999989 0.69999999999999996 0 0.6236733212988993 0.14864538214901801 0 0.64011864159029941 0.18789607982138171 0 0.59443395090188023 0.18455690917515069 0 0.20050006573841939 0.53248514016039872 0 0.16618607197337229 0.50652878253548905 0 0.19604738184454831 0.47787523520405789 0 0.79680861578956375 0.22656778056752541 0 0.76587607630038135 0.18880039518954719 0 0.81283102246527783 0.1881007222486438 0 0.79680861578988083 0.92656778056766709 0 0.76891166905518427 0.88835469571185499 0 0.81159157511211755 0.88795995483179491 0 0.71406021706547751 0.63292083137662503 0 0.675261390228442 0.65996937624687813 0 0.67529834988829951 0.61613270668143583 0 0.6405463747586706 0.63290524857395714 0 0.67529834988829951 0.61613270668143583 0 0.675261390228442 0.65996937624687813 0 0.19670163708476801 0.31472518408333222 0 0.168349569971391 0.28054490850913671 0 0.21049769590865089 0.26857363548218488 0 0.47357141910802508 0.1873585799078378 0 0.46429753744194407 0.22870891180733599 0 0.42905200079338551 0.19982395548231649 0 0.59814117807200873 0.23398510860739519 0 0.5794309697024993 0.27124795968204829 0 0.54248833945060504 0.2520322959927106 0 0.6541250972820879 0.49999999999999989 0 0.65178832218679827 0.45929119821019959 0 0.69385896817107129 0.48377516041410151 0 0.54999999999999993 0.29999999999999999 0 0.5794309697024993 0.27124795968204829 0 0.59999999999999976 0.29999999999999999 0 0.7750489929959945 0.66593931409600093 0 0.74994237037456724 0.62775548192980357 0 0.79884539758237771 0.62875045078114233 0 0.77293540622714185 0.59448302402785813 0 0.79884539758237771 0.62875045078114233 0 0.74994237037456724 0.62775548192980357 0 0.14332333627550789 0.14578431753966009 0 0.16141998738593399 0.10404039647458049 0 0.18652628422869419 0.14162325200928061 0 0.38083244760691543 0.38531983672244652 0 0.42161023666869668 0.39493916313643851 0 0.38707855792647411 0.42299362914874578 0 0.43249999999999988 0.43937499999999979 0 0.38707855792647411 0.42299362914874578 0 0.42161023666869668 0.39493916313643851 0 0.43846182030517877 0.64845797726506715 0 0.47095389620662098 0.61892551373708504 0 0.47913475093885149 0.66010775372412711 0 0.50715858906372158 0.63295939104129484 0 0.47913475093885149 0.66010775372412711 0 0.47095389620662098 0.61892551373708504 0 0.69999999999999984 0.69999999999999996 0 0.74999999999999989 0.69999999999999996 0 0.72501250972655151 0.74067302935308721 0 0.4089290844030305 0.58728915500154233 0 0.35765792684946668 0.6000687869219653 0 0.37272913873093971 0.56192925302619479 0 0.69999999999921003 0 0 0.74999999999934175 0 0 0.72683645290270404 0.027797073151180601 0 0.17933913398461551 0.2350063570234002 0 0.21049769590865089 0.26857363548218488 0 0.168349569971391 0.28054490850913671 0 0.14474682429600511 0.85524784522713515 0 0.10562472963403439 0.87143394428979881 0 0.1074251789111534 0.83564394292147814 0 0.14332333627550789 0.14578431753966009 0 0.106902708054812 0.16453234188234539 0 0.1053400320299198 0.12877248826361379 0 0.2236846579037573 0.67380363126050236 0 0.19914261668318661 0.62286739485272158 0 0.2459498854893499 0.63248470766216769 0 0.049999999999899652 0 0 0.053064897599215843 0.048131547304697528 0 0.02576622439977887 0.024532886826226379 0 0 0.050000000000207989 0 0.02576622439977887 0.024532886826226379 0 0.053064897599215843 0.048131547304697528 0 0.050000000000207989 1 0 0.025766224399875661 0.97546711317377799 0 0.053064897599294662 0.95186845269532028 0 0 0.94999999999979179 0 0.053064897599294662 0.95186845269532028 0 0.025766224399875661 0.97546711317377799 0 0.47357141910802508 0.1873585799078378 0 0.48466639505193998 0.1421439844745814 0 0.51729576145820033 0.1683240575987815 0 0.077693244765132896 0.56932317963405099 0 0.085622222639554768 0.53333248912060549 0 0.1154888278694548 0.56733818459978413 0 0.64753070846764316 0.77332939069435502 0 0.63221990677827677 0.73442891067859706 0 0.66427993341343905 0.73232764502436276 0 0.4656888918609538 0.78493261229743638 0 0.42609163930740518 0.80361684430568059 0 0.42676259796334498 0.76772545931379299 0 0.4089290844030305 0.58728915500154233 0 0.39743091024207589 0.6239520004230239 0 0.35765792684946668 0.6000687869219653 0 0.55306006949600994 0.20198184231352201 0 0.50760557329222289 0.20700468884612061 0 0.51729576145820033 0.1683240575987815 0 1 0.8999999999998336 0 1 0.94999999999997109 0 0.97435614836744289 0.92499999999990257 0 1 0.19999999999974799 0 1 0.24999999999987299 0 0.97435614836740092 0.22499999999981049 0 1 0.74999999999993494 0 1 0.7999999999998193 0 0.97435614836745565 0.77499999999987745 0 1 0.049999999999896842 0 1 0.099999999999753911 0 0.97435614836748241 0.074999999999825387 0 0.86411095495256451 0.42388805655111889 0 0.86844634540301924 0.38530937474099819 0 0.90594285160987287 0.4141265964174129 0 0.86956835336234861 0.571283299838105 0 0.91143117093204207 0.58709913730335972 0 0.87159648282691515 0.61285406320581504 0 0 0 0 0.02576622439977887 0.024532886826226379 0 0 0.050000000000207989 0 0 1 0 0 0.94999999999979179 0 0.025766224399875661 0.97546711317377799 0 0 1 0 0.025766224399875661 0.97546711317377799 0 0.050000000000207989 1 0 0 0 0 0.049999999999899652 0 0 0.02576622439977887 0.024532886826226379 0 0.65394964615507722 0.22666784374016369 0 0.64011864159029941 0.18789607982138171 0 0.6865991819015953 0.189116534044597 0 0.25195515620380449 0.25883339815888678 0 0.28040350263641872 0.23054717217092141 0 0.29132859388405002 0.27203693976649962 0 0.61209567303293111 0.44669033081290321 0 0.65178832218679827 0.45929119821019959 0 0.61547661924074692 0.48539576058873962 0 0.6541250972820879 0.49999999999999989 0 0.61547661924074692 0.48539576058873962 0 0.65178832218679827 0.45929119821019959 0 0.19670163708476801 0.31472518408333222 0 0.24432083401701241 0.3006253385567515 0 0.22615676742807109 0.33458786033114157 0 0.15801167086041079 0.46008690540259539 0 0.13773355295499351 0.42497777642586831 0 0.191953871957803 0.42546416763755879 0 0.1650278706801647 0.38791388161335733 0 0.191953871957803 0.42546416763755879 0 0.13773355295499351 0.42497777642586831 0 0.50715858906372158 0.63295939104129484 0 0.52584555706968406 0.66664215091846768 0 0.47913475093885149 0.66010775372412711 0 0.5 0.69999999999999996 0 0.47913475093885149 0.66010775372412711 0 0.52584555706968406 0.66664215091846768 0 0.51076801031701946 0.1202837388510348 0 0.51729576145820033 0.1683240575987815 0 0.48466639505193998 0.1421439844745814 0 0.71406021706547751 0.63292083137662503 0 0.74994237037456724 0.62775548192980357 0 0.72500000000000064 0.67022701834392062 0 0.71508799138962864 0.36622814920737751 0 0.73090396928863699 0.33699297293167962 0 0.74764719760526988 0.3719647154012321 0 0.22278230690790279 0.44824268025881547 0 0.25982634974572738 0.46097799597715272 0 0.23975172658309729 0.49475499200540818 0 0.80185942888539485 0.77452061303608133 0 0.78578450296893509 0.73292684821144505 0 0.81864958914779962 0.73589050177899629 0 0.80185942888501827 0.074520613036224564 0 0.78393852574753176 0.032039079577822822 0 0.81864958914740749 0.035890501779055867 0 0.5 0.29999999999999999 0 0.46226845272279993 0.31901800744800313 0 0.4604742573284204 0.27846934318264788 0 0.6405463747586706 0.63290524857395714 0 0.62460753523532009 0.66851202781000296 0 0.5991018319127801 0.62925360607495295 0 0.79680861578988083 0.92656778056766709 0 0.770759834363826 0.95919399014344442 0 0.75729602384198635 0.92353652857884294 0 0.79680861578956375 0.22656778056752541 0 0.77075983436335049 0.25919399014334171 0 0.75668890529066124 0.2244279804069782 0 0.65394964615507722 0.22666784374016369 0 0.69397719155551807 0.2245125647000914 0 0.67933712972090698 0.25920070958121938 0 0.81973119833356312 0.43505687159469048 0 0.84925632466077294 0.45359738909549091 0 0.81400510706333218 0.47357325943904899 0 0.83758014339878906 0.63222013025741819 0 0.82457059160610424 0.66831947184359608 0 0.79884539758237771 0.62875045078114233 0 0.25676291524611189 0.7436741304886243 0 0.2248999640082178 0.72584299459689172 0 0.26439878998046262 0.7048065392091396 0 0.91696753777131557 0.497780560203536 0 0.90900154012161016 0.53607784105648792 0 0.86907294890112186 0.52008116128001669 0 0.17933913398461551 0.2350063570234002 0 0.168349569971391 0.28054490850913671 0 0.14377654328998779 0.2442024734791064 0 0.1247745017231483 0.27198077544791172 0 0.14377654328998779 0.2442024734791064 0 0.168349569971391 0.28054490850913671 0 0.34258405725730701 0.4444034294386992 0 0.35221190152536241 0.40457127605439203 0 0.38707855792647411 0.42299362914874578 0 0.47357141910802508 0.1873585799078378 0 0.51729576145820033 0.1683240575987815 0 0.50760557329222289 0.20700468884612061 0 0.19670163708476801 0.31472518408333222 0 0.22615676742807109 0.33458786033114157 0 0.18434624290945251 0.35208838264196463 0 0.22033343844674469 0.36963382230740238 0 0.18434624290945251 0.35208838264196463 0 0.22615676742807109 0.33458786033114157 0 0.24432083401701241 0.3006253385567515 0 0.25966125648670141 0.34351016742083729 0 0.22615676742807109 0.33458786033114157 0 0.93814194660195893 0.44426664081746747 0 0.90594285160987287 0.4141265964174129 0 0.95871855522754235 0.40006508612975411 0 0.91750694127107502 0.36982372220068471 0 0.95871855522754235 0.40006508612975411 0 0.90594285160987287 0.4141265964174129 0 0.91750694127105259 0.63017627779935648 0 0.91143117093204207 0.58709913730335972 0 0.95867599106212187 0.60011091146651041 0 0.93732437411268477 0.55911392101136159 0 0.95867599106212187 0.60011091146651041 0 0.91143117093204207 0.58709913730335972 0 0.50715858906372158 0.63295939104129484 0 0.5498280205245758 0.6290146943450976 0 0.52584555706968406 0.66664215091846768 0 0.94399509803918602 0.75600490196082126 0 0.97435614836745565 0.77499999999987745 0 0.95386563387742829 0.80414874155775029 0 0.94399509803922566 0.056004901960802607 0 0.97435614836748241 0.074999999999825387 0 0.95386563387744361 0.1041487415577465 0 0.94399509803921056 0.24399509803922639 0 0.95391631417672862 0.19584263333809451 0 0.97435614836740092 0.22499999999981049 0 0.94399509803919068 0.9439950980391687 0 0.95391631417670719 0.89584263333814784 0 0.97435614836744289 0.92499999999990257 0 0.79680861578988083 0.92656778056766709 0 0.75729602384198635 0.92353652857884294 0 0.76891166905518427 0.88835469571185499 0 0.79680861578956375 0.22656778056752541 0 0.75668890529066124 0.2244279804069782 0 0.76587607630038135 0.18880039518954719 0 0.65394964615507722 0.22666784374016369 0 0.6865991819015953 0.189116534044597 0 0.69397719155551807 0.2245125647000914 0 0.38083244760691543 0.38531983672244652 0 0.38707855792647411 0.42299362914874578 0 0.35221190152536241 0.40457127605439203 0 1 0.7999999999998193 0 0.95386563387742829 0.80414874155775029 0 0.97435614836745565 0.77499999999987745 0 1 0.099999999999753911 0 0.95386563387744361 0.1041487415577465 0 0.97435614836748241 0.074999999999825387 0 1 0.8999999999998336 0 0.97435614836744289 0.92499999999990257 0 0.95391631417670719 0.89584263333814784 0 1 0.19999999999974799 0 0.97435614836740092 0.22499999999981049 0 0.95391631417672862 0.19584263333809451 0 0.84723782639812573 0.48638347960178252 0 0.81400510706333218 0.47357325943904899 0 0.84925632466077294 0.45359738909549091 0 0.54999999999999993 0.29999999999999999 0 0.54248833945060504 0.2520322959927106 0 0.5794309697024993 0.27124795968204829 0 0.94999999999999996 0.29999999999999999 0 0.95780851984364423 0.34215720972155339 0 0.92012390126144183 0.33123581297173937 0 0.94999999999999996 0.69999999999999996 0 0.92057473616084773 0.66770436535372446 0 0.9578014258160763 0.65787212321113708 0 0.15801167086041079 0.46008690540259539 0 0.113541300460994 0.46208784312094731 0 0.13773355295499351 0.42497777642586831 0 0.7250000000005199 0.94981617647078953 0 0.68015064798562208 0.95924320340003011 0 0.68987011941058407 0.92105047536677087 0 0.65507451745379841 0.92229208810758578 0 0.68987011941058407 0.92105047536677087 0 0.68015064798562208 0.95924320340003011 0 0.77846603114747959 0.49850927265137401 0 0.77972660463949339 0.45529290596363098 0 0.81400510706333218 0.47357325943904899 0 0.27866744612395528 0.38416094670951489 0 0.25966125648670141 0.34351016742083729 0 0.29644548887253103 0.34914008784168082 0 0.61209567303293111 0.44669033081290321 0 0.61547661924074692 0.48539576058873962 0 0.57975577671020095 0.46172033326338591 0 0.57611405284611883 0.50165903596042916 0 0.57975577671020095 0.46172033326338591 0 0.61547661924074692 0.48539576058873962 0 0.7250000000005199 0.89375000000045834 0 0.76891166905518427 0.88835469571185499 0 0.75729602384198635 0.92353652857884294 0 0.72500000000001008 0.19776155966387679 0 0.76587607630038135 0.18880039518954719 0 0.75668890529066124 0.2244279804069782 0 0.72500000000001008 0.19776155966387679 0 0.69397719155551807 0.2245125647000914 0 0.6865991819015953 0.189116534044597 0 0.083411279318303222 0.089699755330707398 0 0.12372429750337779 0.095814237875728972 0 0.1053400320299198 0.12877248826361379 0 0.083411279318375747 0.91030024466934134 0 0.10562472963403439 0.87143394428979881 0 0.1241151115713819 0.9045666525468371 0 0.14617343800780541 0.93808063414349496 0 0.1241151115713819 0.9045666525468371 0 0.16206583317966519 0.89685560785156404 0 0.14618258501891079 0.062070108745602003 0 0.16141998738593399 0.10404039647458049 0 0.12372429750337779 0.095814237875728972 0 0.33277555741076909 0.36432196682010132 0 0.35221190152536241 0.40457127605439203 0 0.31778888742534622 0.40581751814196781 0 0.7250000000005199 0.94981617647078953 0 0.75729602384198635 0.92353652857884294 0 0.770759834363826 0.95919399014344442 0 0.72500000000000064 0.2498161764706 0 0.75668890529066124 0.2244279804069782 0 0.77075983436335049 0.25919399014334171 0 0.72500000000000064 0.2498161764706 0 0.67933712972090698 0.25920070958121938 0 0.69397719155551807 0.2245125647000914 0 0.6236733212988993 0.14864538214901801 0 0.61956000905586006 0.1043312481793135 0 0.65290632656860115 0.11434202593454081 0 0.81973119833356312 0.43505687159469048 0 0.81400510706333218 0.47357325943904899 0 0.77972660463949339 0.45529290596363098 0 0.25676291524611189 0.7436741304886243 0 0.29904318922293632 0.74132814928635593 0 0.2792923945214143 0.77665808831789485 0 0.36575549820117997 0.31677992835137742 0 0.32752639306529541 0.32610012995269699 0 0.33402499257867951 0.28911035184473982 0 0.14332333627550789 0.14578431753966009 0 0.18652628422869419 0.14162325200928061 0 0.18124454140915969 0.18790916706335251 0 0.57724883562309992 0.92155686857100794 0 0.5832743223239254 0.88483152652961872 0 0.61885627562261258 0.90282959257498208 0 0.57667858002728545 0.078486105337742612 0 0.61956000905586006 0.1043312481793135 0 0.58516465772821369 0.11653801664834119 0 0.80185942888539485 0.77452061303608133 0 0.80041942726660109 0.81543261647703358 0 0.77094201086366854 0.79647480515688507 0 0.80185942888501827 0.074520613036224564 0 0.80076557130237269 0.1154587552654202 0 0.76878382444651716 0.097147941686331368 0 0.64753070846764316 0.77332939069435502 0 0.68024162096458085 0.79868546898116533 0 0.65005442820240822 0.82644988530054031 0 0.26429849586623999 0.19346700179430079 0 0.25557216766470708 0.15874861286892261 0 0.29336099386129338 0.15892013001050981 0 0.29348325746214782 0.31350119524708198 0 0.29644548887253103 0.34914008784168082 0 0.25966125648670141 0.34351016742083729 0 0.68391457121233579 0.14440470121196541 0 0.65290632656860115 0.11434202593454081 0 0.68330259535470161 0.10038702501083881 0 0.91750694127107502 0.36982372220068471 0 0.92012390126144183 0.33123581297173937 0 0.95780851984364423 0.34215720972155339 0 0.91750694127105259 0.63017627779935648 0 0.9578014258160763 0.65787212321113708 0 0.92057473616084773 0.66770436535372446 0 0.22033343844674469 0.36963382230740238 0 0.22615676742807109 0.33458786033114157 0 0.25966125648670141 0.34351016742083729 0 1 0.94999999999997109 0 0.97166519676946206 0.96662885509935492 0 0.97435614836744289 0.92499999999990257 0 0.94399509803919068 0.9439950980391687 0 0.97435614836744289 0.92499999999990257 0 0.97166519676946206 0.96662885509935492 0 0.94399509803921056 0.24399509803922639 0 0.97435614836740092 0.22499999999981049 0 0.97166519676951801 0.26662885509932011 0 1 0.24999999999987299 0 0.97166519676951801 0.26662885509932011 0 0.97435614836740092 0.22499999999981049 0 1 0.74999999999993494 0 0.97435614836745565 0.77499999999987745 0 0.97166519676947294 0.73337114490064459 0 1 0.049999999999896842 0 0.97435614836748241 0.074999999999825387 0 0.97166519676946894 0.033371144900598393 0 0.94399509803918602 0.75600490196082126 0 0.97166519676947294 0.73337114490064459 0 0.97435614836745565 0.77499999999987745 0 0.94399509803922566 0.056004901960802607 0 0.97166519676946894 0.033371144900598393 0 0.97435614836748241 0.074999999999825387 0 0.77846603114747959 0.49850927265137401 0 0.81400510706333218 0.47357325943904899 0 0.81441713509985358 0.51161854125224959 0 0.77354604466818633 0.40378688774472771 0 0.72622533758026719 0.40265885511101601 0 0.74764719760526988 0.3719647154012321 0 0.71508799138962864 0.36622814920737751 0 0.74764719760526988 0.3719647154012321 0 0.72622533758026719 0.40265885511101601 0 0.84723782639812573 0.48638347960178252 0 0.84925632466077294 0.45359738909549091 0 0.88594198078881503 0.46167788676578442 0 0.86411095495256451 0.42388805655111889 0 0.88594198078881503 0.46167788676578442 0 0.84925632466077294 0.45359738909549091 0 0.43846182030517877 0.64845797726506715 0 0.43545892161006339 0.61093128915313821 0 0.47095389620662098 0.61892551373708504 0 0.33123028043633618 0.77629643437932982 0 0.35642984951668422 0.80994399665655703 0 0.30857225866488791 0.81101973481716805 0 0.33403534827021109 0.84402799729020661 0 0.30857225866488791 0.81101973481716805 0 0.35642984951668422 0.80994399665655703 0 0.26429849586623999 0.19346700179430079 0 0.31255190597181792 0.19850845631528771 0 0.28040350263641872 0.23054717217092141 0 0.57724883562309992 0.92155686857100794 0 0.54783390826260769 0.89287767010860219 0 0.5832743223239254 0.88483152652961872 0 0.55899371797446828 0.85003102233514438 0 0.5832743223239254 0.88483152652961872 0 0.54783390826260769 0.89287767010860219 0 0.4089290844030305 0.58728915500154233 0 0.43545892161006339 0.61093128915313821 0 0.39743091024207589 0.6239520004230239 0 0.77293540622714185 0.59448302402785813 0 0.81723410853263523 0.59419663659258926 0 0.79884539758237771 0.62875045078114233 0 0.83758014339878906 0.63222013025741819 0 0.79884539758237771 0.62875045078114233 0 0.81723410853263523 0.59419663659258926 0 0.35864735590330371 0.63903383440414463 0 0.39743091024207589 0.6239520004230239 0 0.3977710372045391 0.65868194622830212 0 0.56202748619534593 0.15054058349222879 0 0.54979595918804436 0.1060565713905809 0 0.58516465772821369 0.11653801664834119 0 0.57667858002728545 0.078486105337742612 0 0.58516465772821369 0.11653801664834119 0 0.54979595918804436 0.1060565713905809 0 0.33122374654748771 0.57588941099433744 0 0.37272913873093971 0.56192925302619479 0 0.35765792684946668 0.6000687869219653 0 0.35864735590330371 0.63903383440414463 0 0.35765792684946668 0.6000687869219653 0 0.39743091024207589 0.6239520004230239 0 0.71508799138962864 0.36622814920737751 0 0.68887083591306764 0.33632058575757479 0 0.73090396928863699 0.33699297293167962 0 0.29348325746214782 0.31350119524708198 0 0.32752639306529541 0.32610012995269699 0 0.29644548887253103 0.34914008784168082 0 0.33277555741076909 0.36432196682010132 0 0.29644548887253103 0.34914008784168082 0 0.32752639306529541 0.32610012995269699 0 0.34258405725730701 0.4444034294386992 0 0.31778888742534622 0.40581751814196781 0 0.35221190152536241 0.40457127605439203 0 0.79999999999999982 0.69999999999999996 0 0.81864958914779962 0.73589050177899629 0 0.78578450296893509 0.73292684821144505 0 0.79999999999947335 0 0 0.81864958914740749 0.035890501779055867 0 0.78393852574753176 0.032039079577822822 0 0.27474541102162192 0.11822029332053539 0 0.29336099386129338 0.15892013001050981 0 0.25557216766470708 0.15874861286892261 0 0 0.45000000000187229 0 0.035463093262830522 0.42673416072819947 0 0.033550201249889847 0.46247875832467239 0 0.6499999999999998 0.69999999999999996 0 0.66427993341343905 0.73232764502436276 0 0.63221990677827677 0.73442891067859706 0 0.84723782639812573 0.48638347960178252 0 0.81441713509985358 0.51161854125224959 0 0.81400510706333218 0.47357325943904899 0 0.26104540868854792 0.81401944968719064 0 0.30857225866488791 0.81101973481716805 0 0.29209212897034281 0.84715728365233667 0 0.33403534827021109 0.84402799729020661 0 0.29209212897034281 0.84715728365233667 0 0.30857225866488791 0.81101973481716805 0 0.69999999999999984 0.29999999999999999 0 0.73090396928863699 0.33699297293167962 0 0.68887083591306764 0.33632058575757479 0 
</DataArray>
</Points>
<Cells>
<DataArray type="UInt32" Name="connectivity" format="ascii">
0 1 2 3 4 5 6 7 8 9 10 11 12 13 14 15 16 17 18 19 20 21 22 23 24 25 26 27 28 29 30 31 32 33 34 35 36 37 38 39 40 41 42 43 44 45 46 47 48 49 50 51 52 53 54 55 56 57 58 59 60 61 62 63 64 65 66 67 68 69 70 71 72 73 74 75 76 77 78 79 80 81 82 83 84 85 86 87 88 89 90 91 92 93 94 95 96 97 98 99 100 101 102 103 104 105 106 107 108 109 110 111 112 113 114 115 116 117 118 119 120 121 122 123 124 125 126 127 128 129 130 131 132 133 134 135 136 137 138 139 140 141 142 143 144 145 146 147 148 149 150 151 152 153 154 155 156 157 158 159 160 161 162 163 164 165 166 167 168 169 170 171 172 173 174 175 176 177 178 179 180 181 182 183 184 185 186 187 188 189 190 191 192 193 194 195 196 197 198 199 200 201 202 203 204 205 206 207 208 209 210 211 212 213 214 215 216 217 218 219 220 221 222 223 224 225 226 227 228 229 230 231 232 233 234 235 236 237 238 239 240 241 242 243 244 245 246 247 248 249 250 251 252 253 254 255 256 257 258 259 260 261 262 263 264 265 266 267 268 269 270 271 272 273 274 275 276 277 278 279 280 281 282 283 284 285 286 287 288 289 290 291 292 293 294 295 296 297 298 299 300 301 302 303 304 305 306 307 308 309 310 311 312 313 314 315 316 317 318 319 320 321 322 323 324 325 326 327 328 329 330 331 332 333 334 335 336 337 338 339 340 341 342 343 344 345 346 347 348 349 350 351 352 353 354 355 356 357 358 359 360 361 362 363 364 365 366 367 368 369 370 371 372 373 374 375 376 377 378 379 380 381 382 383 384 385 386 387 388 389 390 391 392 393 394 395 396 397 398 399 400 401 402 403 404 405 406 407 408 409 410 411 412 413 414 415 416 417 418 419 420 421 422 423 424 425 426 427 428 429 430 431 432 433 434 435 436 437 438 439 440 441 442 443 444 445 446 447 448 449 450 451 452 453 454 455 456 457 458 459 460 461 462 463 464 465 466 467 468 469 470 471 472 473 474 475 476 477 478 479 480 481 482 483 484 485 486 487 488 489 490 491 492 493 494 495 496 497 498 499 500 501 502 503 504 505 506 507 508 509 510 511 512 513 514 515 516 517 518 519 520 521 522 523 524 525 526 527 528 529 530 531 532 533 534 535 536 537 538 539 540 541 542 543 544 545 546 547 548 549 550 551 552 553 554 555 556 557 558 559 560 561 562 563 564 565 566 567 568 569 570 571 572 573 574 575 576 577 578 579 580 581 582 583 584 585 586 587 588 589 590 591 592 593 594 595 596 597 598 599 600 601 602 603 604 605 606 607 608 609 610 611 612 613 614 615 616 617 618 619 620 621 622 623 624 625 626 627 628 629 630 631 632 633 634 635 636 637 638 639 640 641 642 643 644 645 646 647 648 649 650 651 652 653 654 655 656 657 658 659 660 661 662 663 664 665 666 667 668 669 670 671 672 673 674 675 676 677 678 679 680 681 682 683 684 685 686 687 688 689 690 691 692 693 694 695 696 697 698 699 700 701 702 703 704 705 706 707 708 709 710 711 712 713 714 715 716 717 718 719 720 721 722 723 724 725 726 727 728 729 730 731 732 733 734 735 736 737 738 739 740 741 742 743 744 745 746 747 748 749 750 751 752 753 754 755 756 757 758 759 760 761 762 763 764 765 766 767 768 769 770 771 772 773 774 775 776 777 778 779 780 781 782 783 784 785 786 787 788 789 790 791 792 793 794 795 796 797 798 799 800 801 802 803 804 805 806 807 808 809 810 811 812 813 814 815 816 817 818 819 820 821 822 823 824 825 826 827 828 829 830 831 832 833 834 835 836 837 838 839 840 841 842 843 844 845 846 847 848 849 850 851 852 853 854 855 856 857 858 859 860 861 862 863 864 865 866 867 868 869 870 871 872 873 874 875 876 877 878 879 880 881 882 883 884 885 886 887 888 889 890 891 892 893 894 895 896 897 898 899 900 901 902 903 904 905 906 907 908 909 910 911 912 913 914 915 916 917 918 919 920 921 922 923 924 925 926 927 928 929 930 931 932 933 934 935 936 937 938 939 940 941 942 943 944 945 946 947 948 949 950 951 952 953 954 955 956 957 958 959 960 961 962 963 964 965 966 967 968 969 970 971 972 973 974 975 976 977 978 979 980 981 982 983 984 985 986 987 988 989 990 991 992 993 994 995 996 997 998 999 1000 1001 1002 1003 1004 1005 1006 1007 1008 1009 1010 1011 1012 1013 1014 1015 1016 1017 1018 1019 1020 1021 1022 1023 1024 1025 1026 1027 1028 1029 1030 1031 1032 1033 1034 1035 1036 1037 1038 1039 1040 1041 1042 1043 1044 1045 1046 1047 1048 1049 1050 1051 1052 1053 1054 1055 1056 1057 1058 1059 1060 1061 1062 1063 1064 1065 1066 1067 1068 1069 1070 1071 1072 1073 1074 1075 1076 1077 1078 1079 1080 1081 1082 1083 1084 1085 1086 1087 1088 1089 1090 1091 1092 1093 1094 1095 1096 1097 1098 1099 1100 1101 1102 1103 1104 1105 1106 1107 1108 1109 1110 1111 1112 1113 1114 1115 1116 1117 1118 1119 1120 1121 1122 1123 1124 1125 1126 1127 1128 1129 1130 1131 1132 1133 1134 1135 1136 1137 1138 1139 1140 1141 1142 1143 1144 1145 1146 1147 1148 1149 1150 1151 1152 1153 1154 1155 1156 1157 1158 1159 1160 1161 1162 1163 1164 1165 1166 1167 1168 1169 1170 1171 1172 1173 1174 1175 1176 1177 1178 1179 1180 1181 1182 1183 1184 1185 1186 1187 1188 1189 1190 1191 1192 1193 1194 1195 1196 1197 1198 1199 1200 1201 1202 1203 1204 1205 1206 1207 1208 1209 1210 1211 1212 1213 1214 1215 1216 1217 1218 1219 1220 1221 1222 1223 1224 1225 1226 1227 1228 1229 1230 1231 1232 1233 1234 1235 1236 1237 1238 1239 1240 1241 1242 1243 1244 1245 1246 1247 1248 1249 1250 1251 1252 1253 1254 1255 1256 1257 1258 1259 1260 1261 1262 1263 1264 1265 1266 1267 1268 1269 1270 1271 1272 1273 1274 1275 1276 1277 1278 1279 1280 1281 1282 1283 1284 1285 1286 1287 1288 1289 1290 1291 1292 1293 1294 1295 1296 1297 1298 1299 1300 1301 1302 1303 1304 1305 1306 1307 1308 1309 1310 1311 1312 1313 1314 1315 1316 1317 1318 1319 1320 1321 1322 1323 1324 1325 1326 1327 1328 1329 1330 1331 1332 1333 1334 1335 1336 1337 1338 1339 1340 1341 1342 1343 1344 1345 1346 1347 1348 1349 1350 1351 1352 1353 1354 1355 1356 1357 1358 1359 1360 1361 1362 1363 1364 1365 1366 1367 1368 1369 1370 1371 1372 1373 1374 1375 1376 1377 1378 1379 1380 1381 1382 1383 1384 1385 1386 1387 1388 1389 1390 1391 1392 1393 1394 1395 1396 1397 1398 1399 1400 1401 1402 1403 1404 1405 1406 1407 1408 1409 1410 1411 1412 1413 1414 1415 1416 1417 1418 1419 1420 1421 1422 1423 1424 1425 1426 1427 1428 1429 1430 1431 1432 1433 1434 1435 1436 1437 1438 1439 1440 1441 1442 1443 1444 1445 1446 1447 1448 1449 1450 1451 1452 1453 1454 1455 1456 1457 1458 1459 1460 1461 1462 1463 1464 1465 1466 1467 1468 1469 1470 1471 1472 1473 1474 1475 1476 1477 1478 1479 1480 1481 1482 1483 1484 1485 1486 1487 1488 1489 1490 1491 1492 1493 1494 1495 1496 1497 1498 1499 1500 1501 1502 1503 1504 1505 1506 1507 1508 1509 1510 1511 1512 1513 1514 1515 1516 1517 1518 1519 1520 1521 1522 1523 1524 1525 1526 1527 1528 1529 1530 1531 1532 1533 1534 1535 1536 1537 1538 1539 1540 1541 1542 1543 1544 1545 1546 1547 1548 1549 1550 1551 1552 1553 1554 1555 1556 1557 1558 1559 1560 1561 1562 1563 1564 1565 1566 1567 1568 1569 1570 1571 1572 1573 1574 1575 1576 1577 1578 1579 1580 1581 1582 1583 1584 1585 1586 1587 1588 1589 1590 1591 1592 1593 1594 1595 1596 1597 1598 1599 1600 1601 1602 1603 1604 1605 1606 1607 1608 1609 1610 1611 1612 1613 1614 1615 1616 1617 1618 1619 1620 1621 1622 1623 1624 1625 1626 1627 1628 1629 1630 1631 1632 1633 1634 1635 1636 1637 1638 1639 1640 1641 1642 1643 1644 1645 1646 1647 1648 1649 1650 1651 1652 1653 1654 1655 1656 1657 1658 1659 1660 1661 1662 1663 1664 1665 1666 1667 1668 1669 1670 1671 1672 1673 1674 1675 1676 1677 1678 1679 1680 1681 1682 1683 1684 1685 1686 1687 1688 1689 1690 1691 1692 1693 1694 1695 1696 1697 1698 1699 1700 1701 1702 1703 1704 1705 1706 1707 1708 1709 1710 1711 1712 1713 1714 1715 1716 1717 1718 1719 1720 1721 1722 1723 1724 1725 1726 1727 1728 1729 1730 1731 1732 1733 1734 1735 1736 1737 1738 1739 1740 1741 1742 1743 1744 1745 1746 1747 1748 1749 1750 1751 1752 1753 1754 1755 1756 1757 1758 1759 1760 1761 1762 1763 1764 1765 1766 1767 1768 1769 1770 1771 1772 1773 1774 1775 1776 1777 1778 1779 1780 1781 1782 1783 1784 1785 1786 1787 1788 1789 1790 1791 1792 1793 1794 1795 1796 1797 1798 1799 1800 1801 1802 1803 1804 1805 1806 1807 1808 1809 1810 1811 1812 1813 1814 1815 1816 1817 1818 1819 1820 1821 1822 1823 1824 1825 1826 1827 1828 1829 1830 1831 1832 1833 1834 1835 1836 1837 1838 1839 1840 1841 1842 1843 1844 1845 1846 1847 1848 1849 1850 1851 1852 1853 1854 1855 1856 1857 1858 1859 1860 1861 1862 1863 1864 1865 1866 1867 1868 1869 1870 1871 1872 1873 1874 1875 1876 1877 1878 1879 1880 1881 1882 1883 1884 1885 1886 1887 1888 1889 1890 1891 1892 1893 1894 1895 1896 1897 1898 1899 1900 1901 1902 1903 1904 1905 1906 1907 1908 1909 1910 1911 1912 1913 1914 1915 1916 1917 1918 1919 1920 1921 1922 1923 1924 1925 1926 1927 1928 1929 1930 1931 1932 1933 1934 1935 1936 1937 1938 1939 1940 1941 1942 1943 1944 1945 1946 1947 1948 1949 1950 1951 1952 1953 1954 1955 1956 1957 1958 1959 1960 1961 1962 1963 1964 1965 1966 1967 1968 1969 1970 1971 1972 1973 1974 1975 1976 1977 1978 1979 1980 1981 1982 1983 1984 1985 1986 1987 1988 1989 1990 1991 1992 1993 1994 1995 1996 1997 1998 1999 2000 2001 2002 2003 2004 2005 2006 2007 2008 2009 2010 2011 2012 2013 2014 2015 2016 2017 2018 2019 2020 2021 2022 2023 2024 2025 2026 2027 2028 2029 2030 2031 2032 2033 2034 2035 2036 2037 2038 2039 2040 2041 2042 2043 2044 2045 2046 2047 2048 2049 2050 2051 2052 2053 2054 2055 2056 2057 2058 2059 2060 2061 2062 2063 2064 2065 2066 2067 2068 2069 2070 2071 2072 2073 2074 2075 2076 2077 2078 2079 2080 2081 2082 2083 2084 2085 2086 2087 2088 2089 2090 2091 2092 2093 2094 2095 2096 2097 2098 2099 2100 2101 2102 2103 2104 2105 2106 2107 2108 2109 2110 2111 2112 2113 2114 2115 2116 2117 2118 2119 2120 2121 2122 2123 2124 2125 2126 2127 2128 2129 2130 2131 2132 2133 2134 2135 2136 2137 2138 2139 2140 2141 2142 2143 2144 2145 2146 2147 2148 2149 2150 2151 2152 2153 2154 2155 2156 2157 2158 2159 2160 2161 2162 2163 2164 2165 2166 2167 2168 2169 2170 2171 2172 2173 2174 2175 2176 2177 2178 2179 2180 2181 2182 2183 2184 2185 2186 2187 2188 2189 2190 2191 2192 2193 2194 2195 2196 2197 2198 2199 2200 2201 2202 2203 2204 2205 2206 2207 2208 2209 2210 2211 2212 2213 2214 2215 2216 2217 2218 2219 2220 2221 2222 2223 2224 2225 2226 2227 2228 2229 2230 2231 2232 2233 2234 2235 2236 2237 2238 2239 2240 2241 2242 2243 2244 2245 2246 2247 2248 2249 2250 2251 2252 2253 2254 2255 2256 2257 2258 2259 2260 2261 2262 2263 2264 2265 2266 2267 2268 2269 2270 2271 2272 2273 2274 2275 2276 2277 2278 2279 2280 2281 2282 2283 2284 2285 2286 2287 2288 2289 2290 2291 2292 2293 2294 2295 2296 2297 2298 2299 2300 2301 2302 2303 2304 2305 2306 2307 2308 2309 2310 2311 2312 2313 2314 2315 2316 2317 2318 2319 2320 2321 2322 2323 2324 2325 2326 2327 2328 2329 2330 2331 2332 2333 2334 2335 2336 2337 2338 2339 2340 2341 2342 2343 2344 2345 2346 2347 2348 2349 2350 2351 2352 2353 2354 2355 2356 2357 2358 2359 2360 2361 2362 2363 2364 2365 2366 2367 2368 2369 2370 2371 2372 2373 2374 2375 2376 2377 2378 2379 2380 2381 2382 2383 2384 2385 2386 2387 2388 2389 2390 2391 2392 2393 2394 2395 2396 2397 2398 2399 2400 2401 2402 2403 2404 2405 2406 2407 2408 2409 2410 2411 2412 2413 2414 2415 2416 2417 2418 2419 2420 2421 2422 2423 2424 2425 2426 2427 2428 2429 2430 2431 2432 2433 2434 2435 2436 2437 2438 2439 2440 2441 2442 2443 2444 2445 2446 2447 2448 2449 2450 2451 2452 2453 2454 2455 2456 2457 2458 2459 2460 2461 2462 2463 2464 2465 2466 2467 2468 2469 2470 2471 2472 2473 2474 2475 2476 2477 2478 2479 2480 2481 2482 2483 2484 2485 2486 2487 2488 2489 2490 2491 2492 2493 2494 2495 2496 2497 2498 2499 2500 2501 2502 2503 2504 2505 2506 2507 2508 2509 2510 2511 2512 2513 2514 2515 2516 2517 2518 2519 2520 2521 2522 2523 2524 2525 2526 2527 2528 2529 2530 2531 2532 2533 2534 2535 2536 2537 2538 2539 2540 2541 2542 2543 2544 2545 2546 2547 2548 2549 2550 2551 2552 2553 2554 2555 2556 2557 2558 2559 2560 2561 2562 2563 2564 2565 2566 2567 2568 2569 2570 2571 2572 2573 2574 2575 2576 2577 2578 2579 2580 2581 2582 2583 2584 2585 2586 2587 2588 2589 2590 2591 2592 2593 2594 2595 2596 2597 2598 2599 2600 2601 2602 2603 2604 2605 2606 2607 2608 2609 2610 2611 2612 2613 2614 2615 2616 2617 2618 2619 2620 2621 2622 2623 2624 2625 2626 2627 2628 2629 2630 2631 2632 2633 2634 2635 2636 2637 2638 2639 2640 2641 2642 2643 2644 2645 2646 2647 2648 2649 2650 2651 2652 2653 2654 2655 2656 2657 2658 2659 2660 2661 2662 2663 2664 2665 2666 2667 2668 2669 2670 2671 2672 2673 2674 2675 2676 2677 2678 2679 2680 2681 2682 2683 2684 2685 2686 2687 2688 2689 2690 2691 2692 2693 2694 2695 2696 2697 2698 2699 2700 2701 2702 2703 2704 2705 2706 2707 2708 2709 2710 2711 2712 2713 2714 2715 2716 2717 2718 2719 2720 2721 2722 2723 2724 2725 2726 2727 2728 2729 2730 2731 2732 2733 2734 2735 2736 2737 2738 2739 2740 2741 2742 2743 2744 2745 2746 2747 2748 2749 2750 2751 2752 2753 2754 2755 2756 2757 2758 2759 2760 2761 2762 2763 2764 2765 2766 2767 2768 2769 2770 2771 2772 2773 2774 2775 2776 2777 2778 2779 2780 2781 2782 2783 2784 2785 2786 2787 2788 2789 2790 2791 2792 2793 2794 2795 2796 2797 2798 2799 2800 2801 2802 2803 2804 2805 2806 2807 2808 2809 2810 2811 2812 2813 2814 2815 2816 2817 2818 2819 2820 2821 2822 2823 2824 2825 2826 2827 2828 2829 2830 2831 2832 2833 2834 2835 2836 2837 2838 2839 2840 2841 2842 2843 2844 2845 2846 2847 2848 2849 2850 2851 2852 2853 2854 2855 2856 2857 2858 2859 2860 2861 2862 2863 2864 2865 2866 2867 2868 2869 2870 2871 2872 2873 2874 2875 2876 2877 2878 2879 2880 2881 2882 2883 2884 2885 2886 2887 2888 2889 2890 2891 2892 2893 2894 2895 2896 2897 2898 2899 2900 2901 2902 2903 2904 2905 2906 2907 2908 2909 2910 2911 2912 2913 2914 2915 2916 2917 2918 2919 2920 2921 2922 2923 2924 2925 2926 2927 2928 2929 2930 2931 2932 2933 2934 2935 2936 2937 2938 2939 2940 2941 2942 2943 2944 2945 2946 2947 2948 2949 2950 2951 2952 2953 2954 2955 2956 2957 2958 2959 2960 2961 2962 2963 2964 2965 2966 2967 2968 2969 2970 2971 2972 2973 2974 2975 2976 2977 2978 2979 2980 2981 2982 2983 2984 2985 2986 2987 2988 2989 2990 2991 2992 2993 2994 2995 2996 2997 2998 2999 3000 3001 3002 3003 3004 3005 3006 3007 3008 3009 3010 3011 3012 3013 3014 3015 3016 3017 3018 3019 3020 3021 3022 3023 3024 3025 3026 3027 3028 3029 3030 3031 3032 3033 3034 3035 3036 3037 3038 3039 3040 3041 3042 3043 3044 3045 3046 3047 3048 3049 3050 3051 3052 3053 3054 3055 3056 3057 3058 3059 3060 3061 3062 3063 3064 3065 3066 3067 3068 3069 3070 3071 3072 3073 3074 3075 3076 3077 3078 3079 3080 3081 3082 3083 3084 3085 3086 3087 3088 3089 3090 3091 3092 3093 3094 3095 3096 3097 3098 3099 3100 3101 3102 3103 3104 3105 3106 3107 3108 3109 3110 3111 3112 3113 3114 3115 3116 3117 3118 3119 3120 3121 3122 3123 3124 3125 3126 3127 3128 3129 3130 3131 3132 3133 3134 3135 3136 3137 3138 3139 3140 3141 
</DataArray>
<DataArray type="UInt32" Name="offsets" format="ascii">
2 4 6 8 10 12 14 16 18 20 22 24 26 28 30 32 34 36 38 40 43 46 49 52 55 58 61 64 67 70 73 76 79 82 85 88 91 94 97 100 103 106 109 112 115 118 121 124 127 130 133 136 139 142 145 148 151 154 157 160 163 166 169 172 175 178 181 184 187 190 193 196 199 202 205 208 211 214 217 220 223 226 229 232 235 238 241 244 247 250 253 256 259 262 265 268 271 274 277 280 283 286 289 292 295 298 301 304 307 310 313 316 319 322 325 328 331 334 337 340 343 346 349 352 355 358 361 364 367 370 373 376 379 382 385 388 391 394 397 400 403 406 409 412 415 418 421 424 427 430 433 436 439 442 445 448 451 454 457 460 463 466 469 472 475 478 481 484 487 490 493 496 499 502 505 508 511 514 517 520 523 526 529 532 535 538 541 544 547 550 553 556 559 562 565 568 571 574 577 580 583 586 589 592 595 598 601 604 607 610 613 616 619 622 625 628 631 634 637 640 643 646 649 652 655 658 661 664 667 670 673 676 679 682 685 688 691 694 697 700 703 706 709 712 715 718 721 724 727 730 733 736 739 742 745 748 751 754 757 760 763 766 769 772 775 778 781 784 787 790 793 796 799 802 805 808 811 814 817 820 823 826 829 832 835 838 841 844 847 850 853 856 859 862 865 868 871 874 877 880 883 886 889 892 895 898 901 904 907 910 913 916 919 922 925 928 931 934 937 940 943 946 949 952 955 958 961 964 967 970 973 976 979 982 985 988 991 994 997 1000 1003 1006 1009 1012 1015 1018 1021 1024 1027 1030 1033 1036 1039 1042 1045 1048 1051 1054 1057 1060 1063 1066 1069 1072 1075 1078 1081 1084 1087 1090 1093 1096 1099 1102 1105 1108 1111 1114 1117 1120 1123 1126 1129 1132 1135 1138 1141 1144 1147 1150 1153 1156 1159 1162 1165 1168 1171 1174 1177 1180 1183 1186 1189 1192 1195 1198 1201 1204 1207 1210 1213 1216 1219 1222 1225 1228 1231 1234 1237 1240 1243 1246 1249 1252 1255 1258 1261 1264 1267 1270 1273 1276 1279 1282 1285 1288 1291 1294 1297 1300 1303 1306 1309 1312 1315 1318 1321 1324 1327 1330 1333 1336 1339 1342 1345 1348 1351 1354 1357 1360 1363 1366 1369 1372 1375 1378 1381 1384 1387 1390 1393 1396 1399 1402 1405 1408 1411 1414 1417 1420 1423 1426 1429 1432 1435 1438 1441 1444 1447 1450 1453 1456 1459 1462 1465 1468 1471 1474 1477 1480 1483 1486 1489 1492 1495 1498 1501 1504 1507 1510 1513 1516 1519 1522 1525 1528 1531 1534 1537 1540 1543 1546 1549 1552 1555 1558 1561 1564 1567 1570 1573 1576 1579 1582 1585 1588 1591 1594 1597 1600 1603 1606 1609 1612 1615 1618 1621 1624 1627 1630 1633 1636 1639 1642 1645 1648 1651 1654 1657 1660 1663 1666 1669 1672 1675 1678 1681 1684 1687 1690 1693 1696 1699 1702 1705 1708 1711 1714 1717 1720 1723 1726 1729 1732 1735 1738 1741 1744 1747 1750 1753 1756 1759 1762 1765 1768 1771 1774 1777 1780 1783 1786 1789 1792 1795 1798 1801 1804 1807 1810 1813 1816 1819 1822 1825 1828 1831 1834 1837 1840 1843 1846 1849 1852 1855 1858 1861 1864 1867 1870 1873 1876 1879 1882 1885 1888 1891 1894 1897 1900 1903 1906 1909 1912 1915 1918 1921 1924 1927 1930 1933 1936 1939 1942 1945 1948 1951 1954 1957 1960 1963 1966 1969 1972 1975 1978 1981 1984 1987 1990 1993 1996 1999 2002 2005 2008 2011 2014 2017 2020 2023 2026 2029 2032 2035 2038 2041 2044 2047 2050 2053 2056 2059 2062 2065 2068 2071 2074 2077 2080 2083 2086 2089 2092 2095 2098 2101 2104 2107 2110 2113 2116 2119 2122 2125 2128 2131 2134 2137 2140 2143 2146 2149 2152 2155 2158 2161 2164 2167 2170 2173 2176 2179 2182 2185 2188 2191 2194 2197 2200 2203 2206 2209 2212 2215 2218 2221 2224 2227 2230 2233 2236 2239 2242 2245 2248 2251 2254 2257 2260 2263 2266 2269 2272 2275 2278 2281 2284 2287 2290 2293 2296 2299 2302 2305 2308 2311 2314 2317 2320 2323 2326 2329 2332 2335 2338 2341 2344 2347 2350 2353 2356 2359 2362 2365 2368 2371 2374 2377 2380 2383 2386 2389 2392 2395 2398 2401 2404 2407 2410 2413 2416 2419 2422 2425 2428 2431 2434 2437 2440 2443 2446 2449 2452 2455 2458 2461 2464 2467 2470 2473 2476 2479 2482 2485 2488 2491 2494 2497 2500 2503 2506 2509 2512 2515 2518 2521 2524 2527 2530 2533 2536 2539 2542 2545 2548 2551 2554 2557 2560 2563 2566 2569 2572 2575 2578 2581 2584 2587 2590 2593 2596 2599 2602 2605 2608 2611 2614 2617 2620 2623 2626 2629 2632 2635 2638 2641 2644 2647 2650 2653 2656 2659 2662 2665 2668 2671 2674 2677 2680 2683 2686 2689 2692 2695 2698 2701 2704 2707 2710 2713 2716 2719 2722 2725 2728 2731 2734 2737 2740 2743 2746 2749 2752 2755 2758 2761 2764 2767 2770 2773 2776 2779 2782 2785 2788 2791 2794 2797 2800 2803 2806 2809 2812 2815 2818 2821 2824 2827 2830 2833 2836 2839 2842 2845 2848 2851 2854 2857 2860 2863 2866 2869 2872 2875 2878 2881 2884 2887 2890 2893 2896 2899 2902 2905 2908 2911 2914 2917 2920 2923 2926 2929 2932 2935 2938 2941 2944 2947 2950 2953 2956 2959 2962 2965 2968 2971 2974 2977 2980 2983 2986 2989 2992 2995 2998 3001 3004 3007 3010 3013 3016 3019 3022 3025 3028 3031 3034 3037 3040 3043 3046 3049 3052 3055 3058 3061 3064 3067 3070 3073 3076 3079 3082 3085 3088 3091 3094 3097 3100 3103 3106 3109 3112 3115 3118 3121 3124 3127 3130 3133 3136 3139 3142 
</DataArray>
<DataArray type="UInt32" Name="types" format="ascii">
3 3 3 3 3 3 3 3 3 3 3 3 3 3 3 3 3 3 3 3 5 5 5 5 5 5 5 5 5 5 5 5 5 5 5 5 5 5 5 5 5 5 5 5 5 5 5 5 5 5 5 5 5 5 5 5 5 5 5 5 5 5 5 5 5 5 5 5 5 5 5 5 5 5 5 5 5 5 5 5 5 5 5 5 5 5 5 5 5 5 5 5 5 5 5 5 5 5 5 5 5 5 5 5 5 5 5 5 5 5 5 5 5 5 5 5 5 5 5 5 5 5 5 5 5 5 5 5 5 5 5 5 5 5 5 5 5 5 5 5 5 5 5 5 5 5 5 5 5 5 5 5 5 5 5 5 5 5 5 5 5 5 5 5 5 5 5 5 5 5 5 5 5 5 5 5 5 5 5 5 5 5 5 5 5 5 5 5 5 5 5 5 5 5 5 5 5 5 5 5 5 5 5 5 5 5 5 5 5 5 5 5 5 5 5 5 5 5 5 5 5 5 5 5 5 5 5 5 5 5 5 5 5 5 5 5 5 5 5 5 5 5 5 5 5 5 5 5 5 5 5 5 5 5 5 5 5 5 5 5 5 5 5 5 5 5 5 5 5 5 5 5 5 5 5 5 5 5 5 5 5 5 5 5 5 5 5 5 5 5 5 5 5 5 5 5 5 5 5 5 5 5 5 5 5 5 5 5 5 5 5 5 5 5 5 5 5 5 5 5 5 5 5 5 5 5 5 5 5 5 5 5 5 5 5 5 5 5 5 5 5 5 5 5 5 5 5 5 5 5 5 5 5 5 5 5 5 5 5 5 5 5 5 5 5 5 5 5 5 5 5 5 5 5 5 5 5 5 5 5 5 5 5 5 5 5 5 5 5 5 5 5 5 5 5 5 5 5 5 5 5 5 5 5 5 5 5 5 5 5 5 5 5 5 5 5 5 5 5 5 5 5 5 5 5 5 5 5 5 5 5 5 5 5 5 5 5 5 5 5 5 5 5 5 5 5 5 5 5 5 5 5 5 5 5 5 5 5 5 5 5 5 5 5 5 5 5 5 5 5 5 5 5 5 5 5 5 5 5 5 5 5 5 5 5 5 5 5 5 5 5 5 5 5 5 5 5 5 5 5 5 5 5 5 5 5 5 5 5 5 5 5 5 5 5 5 5 5 5 5 5 5 5 5 5 5 5 5 5 5 5 5 5 5 5 5 5 5 5 5 5 5 5 5 5 5 5 5 5 5 5 5 5 5 5 5 5 5 5 5 5 5 5 5 5 5 5 5 5 5 5 5 5 5 5 5 5 5 5 5 5 5 5 5 5 5 5 5 5 5 5 5 5 5 5 5 5 5 5 5 5 5 5 5 5 5 5 5 5 5 5 5 5 5 5 5 5 5 5 5 5 5 5 5 5 5 5 5 5 5 5 5 5 5 5 5 5 5 5 5 5 5 5 5 5 5 5 5 5 5 5 5 5 5 5 5 5 5 5 5 5 5 5 5 5 5 5 5 5 5 5 5 5 5 5 5 5 5 5 5 5 5 5 5 5 5 5 5 5 5 5 5 5 5 5 5 5 5 5 5 5 5 5 5 5 5 5 5 5 5 5 5 5 5 5 5 5 5 5 5 5 5 5 5 5 5 5 5 5 5 5 5 5 5 5 5 5 5 5 5 5 5 5 5 5 5 5 5 5 5 5 5 5 5 5 5 5 5 5 5 5 5 5 5 5 5 5 5 5 5 5 5 5 5 5 5 5 5 5 5 5 5 5 5 5 5 5 5 5 5 5 5 5 5 5 5 5 5 5 5 5 5 5 5 5 5 5 5 5 5 5 5 5 5 5 5 5 5 5 5 5 5 5 5 5 5 5 5 5 5 5 5 5 5 5 5 5 5 5 5 5 5 5 5 5 5 5 5 5 5 5 5 5 5 5 5 5 5 5 5 5 5 5 5 5 5 5 5 5 5 5 5 5 5 5 5 5 5 5 5 5 5 5 5 5 5 5 5 5 5 5 5 5 5 5 5 5 5 5 5 5 5 5 5 5 5 5 5 5 5 5 5 5 5 5 5 5 5 5 5 5 5 5 5 5 5 5 5 5 5 5 5 5 5 5 5 5 5 5 5 5 5 5 5 5 5 5 5 5 5 5 5 5 5 5 5 5 5 5 5 5 5 5 5 5 5 5 5 5 5 5 5 5 5 5 5 5 5 5 5 5 5 5 5 5 5 5 5 5 5 5 5 5 5 5 5 5 5 5 5 5 5 5 5 5 5 5 5 5 5 5 5 5 5 5 5 5 5 5 5 5 5 5 5 5 5 5 5 5 5 5 5 5 5 5 5 5 5 5 5 5 5 5 5 5 5 5 5 5 5 5 5 5 5 
</DataArray>
</Cells>
<PointData Scalars="" Vectors="displacement," Tensors="">
<DataArray type="Float64" Name="displacement" NumberOfComponents="3" format="ascii">
-3.011478346493203e-05 -2.7288603696109731e-05 0 -3.2450113265585878e-05 -3.5701776271893719e-05 0 -3.2450113265585878e-05 -3.5701776271893719e-05 0 -3.5133110931729003e-05 -4.51114669035225e-05 0 -3.5133110931729003e-05 -4.51114669035225e-05 0 -3.8084776233512841e-05 -5.5835575761624917e-05 0 -3.8084776233512841e-05 -5.5835575761624917e-05 0 -4.0791657912237002e-05 -6.6790067571887812e-05 0 -4.0791657912237002e-05 -6.6790067571887812e-05 0 -4.3170452549792415e-05 -7.7597239823286809e-05 0 -4.3170452549792415e-05 -7.7597239823286809e-05 0 -4.5414614771736416e-05 -8.8100272875891073e-05 0 -4.5414614771736416e-05 -8.8100272875891073e-05 0 -4.764777342100738e-05 -9.8037116482101102e-05 0 -4.764777342100738e-05 -9.8037116482101102e-05 0 -4.9896309161645433e-05 -0.00010737175885298422 0 -4.9896309161645433e-05 -0.00010737175885298422 0 -5.1344400575860515e-05 -0.00011543246271712894 0 -5.1344400575860515e-05 -0.00011543246271712894 0 -5.5672981847588291e-05 -0.0001234907940909783 0 -5.2668809509603287e-06 2.9889676385790348e-05 0 -8.2744624501243873e-07 4.5821526391174844e-05 0 -8.2744624501243873e-07 4.5821526391174844e-05 0 -2.8087272104572158e-06 5.3818391131365162e-05 0 -2.8087272104572158e-06 5.3818391131365162e-05 0 -5.0864637100640334e-06 6.8492868565908901e-05 0 -5.0864637100640334e-06 6.8492868565908901e-05 0 -7.7420957232634796e-06 8.1700675880442834e-05 0 -7.7420957232634796e-06 8.1700675880442834e-05 0 -1.0704556096935562e-05 9.601345295873911e-05 0 -1.0704556096935562e-05 9.601345295873911e-05 0 -1.3958566933204442e-05 0.0001101795127243526 0 -1.3958566933204442e-05 0.0001101795127243526 0 -1.7228199963757987e-05 0.00012363337161173029 0 -1.7228199963757987e-05 0.00012363337161173029 0 -2.2103575261598995e-05 0.00013803966379327321 0 -2.2103575261598995e-05 0.00013803966379327321 0 -2.1147868732846496e-05 0.00014943437496563644 0 -2.1147868732846496e-05 0.00014943437496563644 0 -4.2898097769760592e-05 0.00016350635719943 0 -2.4938448255987475e-05 -1.3056493914285331e-05 0 -1.9247724054306258e-05 -6.8577867033765472e-06 0 -2.2976278953730247e-05 -1.1832518888420381e-05 0 -2.2633156469003683e-05 -8.8778801416874367e-06 0 -1.9247724054306258e-05 -6.8577867033765472e-06 0 -2.4938448255987475e-05 -1.3056493914285331e-05 0 -4.1415207908615592e-05 -2.1423070265610748e-05 0 -3.6896365144317262e-05 -1.6828967118301674e-05 0 -3.7627105001773075e-05 -2.12675630209826e-05 0 -3.7627105001773075e-05 -2.12675630209826e-05 0 -3.6896365144317262e-05 -1.6828967118301674e-05 0 -3.3895493199199254e-05 -1.9512421087132996e-05 0 -1.8894075278101849e-05 6.6690626533798826e-06 0 -8.2339734983951202e-06 1.9768923337895382e-06 0 -1.7082685653721987e-05 4.1129255115868616e-06 0 -1.4919124252774247e-05 -7.1980155526027766e-06 0 -1.3171836855671614e-05 -5.3933067133755505e-06 0 -6.4155920762904219e-06 -2.6933979045770119e-06 0 -9.8081174492707272e-06 4.7031936358633273e-06 0 -8.2339734983951202e-06 1.9768923337895382e-06 0 -1.8894075278101849e-05 6.6690626533798826e-06 0 -8.0430604272438742e-06 -4.7044549412375567e-06 0 -1.4919124252774247e-05 -7.1980155526027766e-06 0 -6.4155920762904219e-06 -2.6933979045770119e-06 0 -3.6177930070820459e-05 -1.5107400574867142e-05 0 -4.3688593038503957e-05 -1.8931663564484182e-05 0 -3.4801680298051664e-05 -1.4024530089576192e-05 0 -6.2856298719720993e-05 2.1242023217076771e-05 0 -5.0406118976964895e-05 1.5328797281061144e-05 0 -4.9521303203677364e-05 1.4278599099633207e-05 0 -5.8230297893539187e-06 6.2331459424512649e-07 0 -7.470440288747339e-06 1.7182594924333515e-06 0 -7.2734312845679992e-06 5.3444403822617124e-07 0 -9.6805478950034895e-06 2.7034203922934877e-06 0 -7.2734312845679992e-06 5.3444403822617124e-07 0 -7.470440288747339e-06 1.7182594924333515e-06 0 -8.2112401413319701e-06 -8.8761868987066327e-07 0 -1.0931749857716419e-05 -1.9117452349326233e-06 0 -7.8739201481907238e-06 -5.578884868677583e-07 0 -3.4955308998627361e-09 -6.7818940438757538e-10 0 -2.8488241999708309e-09 -4.8532084595154843e-10 0 -3.0859641934300024e-06 -1.0139423177887082e-06 0 -2.9092244306785471e-09 2.0480063379203467e-10 0 -3.3253812115453886e-09 1.9611461479542667e-10 0 -3.1497162917144092e-06 1.5769778841148759e-07 0 -4.6271981573533166e-05 -2.7278422134136652e-05 0 -4.6414098895460661e-05 -2.708102886530335e-05 0 -4.1415207908615592e-05 -2.1423070265610748e-05 0 -7.119286103280859e-06 3.3596938360832282e-05 0 -1.2773855126899019e-05 2.216791572851612e-05 0 -1.567345963171029e-05 2.2010793768429242e-05 0 -6.9947465258178907e-05 -0.00018908363260991711 0 -6.0026400282016874e-05 -0.00017740401707651277 0 -6.9707510805514073e-05 -0.00017365381064690435 0 -8.5450919766630998e-05 0.00038732799161568055 0 -0.00011018181857467979 0.0003622498179088454 0 -8.4938555869039484e-05 0.00035179391603958851 0 -8.5450919766630998e-05 0.00038732799161568055 0 -8.4938555869039484e-05 0.00035179391603958851 0 -6.103434182711464e-05 0.00036012242299346457 0 -6.9947465258178907e-05 -0.00018908363260991711 0 -6.9707510805514073e-05 -0.00017365381064690435 0 -8.0314246492198604e-05 -0.00017820317021763744 0 -0.00011439218330504937 0.00033266524845379031 0 -8.215262964688576e-05 0.00031755516761989926 0 -8.4938555869039484e-05 0.00035179391603958851 0 -5.7493496218842837e-05 -0.00016381601264955025 0 -6.9682269569384774e-05 -0.0001578625161122753 0 -6.9707510805514073e-05 -0.00017365381064690435 0 -8.2112401413319701e-06 -8.8761868987066327e-07 0 -7.8739201481907238e-06 -5.578884868677583e-07 0 -5.542336348296833e-06 -7.4230621580849164e-08 0 -7.119286103280859e-06 3.3596938360832282e-05 0 -1.8795767269902709e-05 3.1073905419689465e-05 0 -1.2773855126899019e-05 2.216791572851612e-05 0 -0.00013517473354433788 0.00010516528967112448 0 -0.0001220833652703255 7.9555346215955922e-05 0 -0.00010020067779810763 8.4840519190382114e-05 0 -7.6630596453139242e-05 -4.7885665036257082e-05 0 -8.3989441868538244e-05 -5.9558484622907628e-05 0 -6.7452263310896609e-05 -5.0353001979418342e-05 0 -3.9763846402227093e-05 -2.3118626106414704e-05 0 -4.6271981573533166e-05 -2.7278422134136652e-05 0 -4.1415207908615592e-05 -2.1423070265610748e-05 0 -7.1922936072802706e-05 6.9660504630886767e-05 0 -6.2767266926398089e-05 4.3795945049169444e-05 0 -5.2585910440102573e-05 4.6175428217768818e-05 0 -3.7776034688766195e-05 1.5690638817610471e-05 0 -4.954761126540993e-05 2.2149875907429247e-05 0 -4.6152961834755838e-05 1.4955947320733002e-05 0 -3.1385634247609455e-05 -6.3749329998336571e-06 0 -2.7542805345573227e-05 -1.3966374429021635e-06 0 -3.3507593383612499e-05 -9.9017441706594282e-06 0 -6.772950664790187e-05 -0.00014131367270339259 0 -5.8382833077449951e-05 -0.00013597522467508963 0 -6.7203393737097844e-05 -0.00012348160422809935 0 -8.1987228264369184e-05 0.00028278998064922283 0 -0.00010282165687040731 0.00027313481529118208 0 -7.6142938713795582e-05 0.0002435760320919678 0 -6.7203393737097844e-05 -0.00012348160422809935 0 -5.8382833077449951e-05 -0.00013597522467508963 0 -5.6394210589544571e-05 -0.00012057262632466297 0 -7.6142938713795582e-05 0.0002435760320919678 0 -0.00010282165687040731 0.00027313481529118208 0 -0.00010109379701100087 0.00024431218359728842 0 -3.7776034688766195e-05 1.5690638817610471e-05 0 -4.6152961834755838e-05 1.4955947320733002e-05 0 -3.3390544171323817e-05 1.0465234481490553e-05 0 -3.2169523710375369e-05 -1.2017973754441196e-05 0 -2.7268783657030514e-05 1.3433038531074e-06 0 -3.1385634247609455e-05 -6.3749329998336571e-06 0 -7.1922936072802706e-05 6.9660504630886767e-05 0 -8.0810091863734414e-05 6.0528917483115029e-05 0 -6.2767266926398089e-05 4.3795945049169444e-05 0 -7.119286103280859e-06 3.3596938360832282e-05 0 5.5405522483513657e-06 8.5827373692332656e-05 0 -2.189887118382647e-05 8.9399566946719161e-05 0 -6.2107468630664432e-05 -6.1153268030709432e-05 0 -5.6941866046882967e-05 -5.659587251815716e-05 0 -6.2283878378026862e-05 -5.8365005532044347e-05 0 -4.4250950424007465e-05 -5.4883048900318104e-05 0 -4.2708785270063728e-05 -5.2269618458091933e-05 0 -4.4215186060223363e-05 -5.6872474694941816e-05 0 -2.3620367354765694e-05 5.6480183926217618e-06 0 -2.7542805345573227e-05 -1.3966374429021635e-06 0 -3.1385634247609455e-05 -6.3749329998336571e-06 0 -3.8263400420686093e-05 -0.00017020686790128378 0 -4.648469298829124e-05 -0.00015997983445684646 0 -5.0035972982835575e-05 -0.00017311132672216776 0 -0.00017066834274031799 0.0003601851064231426 0 -0.00014317540019230269 0.00032962997891818253 0 -0.00013764964399533389 0.00035657911781178316 0 -2.4329330970480558e-09 -3.8192170541320314e-10 0 -2.0776889212719501e-06 -4.0316666222255414e-07 0 -2.2878261632601912e-06 -7.001561113604641e-07 0 -2.6070569015877402e-09 2.2960908471658218e-10 0 -2.5594864340606318e-06 2.6416273526929059e-07 0 -2.4323916360932494e-06 3.3963590139197243e-07 0 -7.1922936072802706e-05 6.9660504630886767e-05 0 -5.3123189791686476e-05 6.6412132859575799e-05 0 -6.7841249427837491e-05 9.9757913902956324e-05 0 -4.3776498264487703e-05 8.8319299131457403e-05 0 -6.7841249427837491e-05 9.9757913902956324e-05 0 -5.3123189791686476e-05 6.6412132859575813e-05 0 -2.7144515008463345e-05 5.5771482467972351e-05 0 -7.119286103280859e-06 3.3596938360832282e-05 0 -2.189887118382647e-05 8.9399566946719161e-05 0 -0.00017050723965497189 0.0002991673991847203 0 -0.00013148498281322454 0.00029988735688069832 0 -0.00014317540019230269 0.00032962997891818253 0 -3.2878933449418976e-05 -0.00014136897824259788 0 -4.8907311793726564e-05 -0.00014664060096091115 0 -4.648469298829124e-05 -0.00015997983445684646 0 -4.3583655080644107e-05 -5.0597343096252997e-05 0 -4.3745307815833331e-05 -4.703581563600434e-05 0 -4.6577607073330812e-05 -5.0804468837094422e-05 0 -3.0533167483410421e-05 -6.5287922661106748e-06 0 -3.3507593383612499e-05 -9.9017441706594282e-06 0 -2.7542805345573227e-05 -1.3966374429021635e-06 0 -3.6914389834161221e-05 -1.6121253827778065e-05 0 -3.9837973033523152e-05 -2.2121705913207344e-05 0 -3.6949041013622194e-05 -2.1599752834505538e-05 0 -3.2102607732759372e-05 -3.2290228535557548e-05 0 -3.2062087444345715e-05 -2.845659812570081e-05 0 -3.7214327746939329e-05 -3.4745416060419299e-05 0 -0.00015597924490944238 0.00016665673751361159 0 -0.00012318431320728409 0.00014508903042199071 0 -0.0001348844368877744 0.00018511230402697495 0 -0.00010664535025729782 -0.00014947252102368288 0 -9.4732409474568958e-05 -0.0001637655873662336 0 -9.0193999676404341e-05 -0.0001506528754003457 0 6.9273705792104363e-07 0.00028554741266120895 0 -2.8270827288738845e-05 0.00032346859049055943 0 -3.4159487798718908e-05 0.0002966183017403603 0 -3.557003593753674e-05 -0.00015573531306013744 0 -4.648469298829124e-05 -0.00015997983445684646 0 -3.8263400420686093e-05 -0.00017020686790128378 0 -0.00017066834274031799 0.0003601851064231426 0 -0.00017079334789083431 0.00033015015828043718 0 -0.00014317540019230269 0.00032962997891818253 0 -5.3562462388986129e-05 -5.005445621706958e-05 0 -5.4085503264123525e-05 -4.633635320514702e-05 0 -5.6769462860525344e-05 -5.1050998181437728e-05 0 -3.0380038447250568e-05 -2.7548216092851361e-05 0 -3.4377283499640003e-05 -3.2846211660400053e-05 0 -3.5961165198674629e-05 -4.5717822929535371e-05 0 -5.3562462388986129e-05 -5.005445621706958e-05 0 -5.1465001430435363e-05 -4.633660372455298e-05 0 -5.4085503264123525e-05 -4.633635320514702e-05 0 -3.603632419803826e-05 -2.9027304988281617e-05 0 -3.7214327746939329e-05 -3.4745416060419299e-05 0 -3.2062087444345715e-05 -2.845659812570081e-05 0 -5.8489308831774168e-05 -7.5041674128550795e-05 0 -6.2782431865736094e-05 -9.4559700454190419e-05 0 -5.1187301768727204e-05 -7.9190513850742805e-05 0 -4.797243045149774e-09 3.1152395018727885e-10 0 -6.4155920762904219e-06 -2.6933979045770119e-06 0 -4.4606898169434446e-06 -1.154275958472823e-06 0 -6.2629114572337427e-09 -7.5197860300138566e-10 0 -5.6275740058893869e-06 1.6085052572375555e-07 0 -8.2339734983951202e-06 1.9768923337895382e-06 0 -6.2107468630664432e-05 -6.1153268030709432e-05 0 -5.7095802095102395e-05 -6.0265039897929517e-05 0 -5.6941866046882967e-05 -5.659587251815716e-05 0 -4.4895481065112302e-05 -5.8006373608125739e-05 0 -4.4250950424007465e-05 -5.4883048900318104e-05 0 -4.4215186060223363e-05 -5.6872474694941816e-05 0 -4.8427083697665507e-09 -1.0450192279137714e-09 0 -7.3635328262043579e-06 -4.6119660140771601e-07 0 -5.627574005889386e-06 1.6085052572375507e-07 0 -4.0388097377904349e-09 3.1517828346776171e-10 0 -4.4606898169434446e-06 -1.154275958472823e-06 0 -6.0655219232898324e-06 -1.0937405037795137e-06 0 -7.2734312845679992e-06 5.3444403822617124e-07 0 -5.3247220099785955e-06 -8.4036143429155732e-07 0 -5.2266000051829049e-06 -1.2309631498036716e-07 0 -2.1724917806086161e-05 -9.4990942412681622e-06 0 -1.802424257299473e-05 -6.626251174712168e-06 0 -1.3171836855671614e-05 -5.3933067133755505e-06 0 -2.8480409630102762e-05 8.641036077077929e-06 0 -1.7082685653721991e-05 4.1129255115868616e-06 0 -2.3661981449175395e-05 4.7471785463384667e-06 0 -4.1703841460507816e-05 -3.491391832934306e-05 0 -3.9437095320156264e-05 -2.9786882919222352e-05 0 -4.3518399034627212e-05 -3.2439320023379418e-05 0 -4.0875040111327479e-05 -2.7076852406679698e-05 0 -3.6949041013622194e-05 -2.1599752834505538e-05 0 -3.9837973033523152e-05 -2.2121705913207344e-05 0 -6.8274001967111514e-06 0.00034603280851174217 0 -3.6010780979150547e-05 0.00035093273869478468 0 -2.8270827288738845e-05 0.00032346859049055943 0 -0.00010687960349393425 -0.0001772704961300061 0 -9.2207246314959538e-05 -0.00017564086854387239 0 -9.4732409474568958e-05 -0.0001637655873662336 0 -4.0875040111327479e-05 -2.7076852406679698e-05 0 -4.3518399034627212e-05 -3.2439320023379418e-05 0 -3.9437095320156264e-05 -2.9786882919222352e-05 0 -4.3745307815833331e-05 -4.703581563600434e-05 0 -4.0406429902948024e-05 -4.5087993975068686e-05 0 -4.2217968589510768e-05 -4.1391049855114182e-05 0 -0.00010154660054045969 0.00021425644242022173 0 -9.0188279065132613e-05 0.00017173000522708752 0 -7.3321556617061373e-05 0.00018671061081034537 0 -6.2629114572337427e-09 -7.5197860300138566e-10 0 -6.7381063689534149e-09 5.374676986697757e-10 0 -5.627574005889386e-06 1.6085052572375507e-07 0 -5.332617846389428e-09 -8.0580486787139889e-10 0 -4.797243045149774e-09 3.1152395018727885e-10 0 -4.4606898169434446e-06 -1.154275958472823e-06 0 -7.2734312845679992e-06 5.3444403822617124e-07 0 -8.4302365868010371e-06 9.2240409314953199e-08 0 -5.3247220099785955e-06 -8.4036143429155732e-07 0 -5.5334414120200895e-05 0.00032970841801882925 0 -8.4938555869039484e-05 0.00035179391603958851 0 -8.215262964688576e-05 0.00031755516761989926 0 -8.2024206806877978e-05 -0.00016454941478732008 0 -6.9707510805514073e-05 -0.00017365381064690435 0 -6.9682269569384774e-05 -0.0001578625161122753 0 -6.2782431865736094e-05 -9.4559700454190419e-05 0 -5.2963381734273234e-05 -9.438742425633696e-05 0 -5.1187301768727204e-05 -7.9190513850742805e-05 0 -3.1890663280478386e-06 1.6583127119048405e-07 0 -4.5458864140590967e-06 4.2172964991327193e-07 0 -4.2065394401412963e-06 2.1235638915166578e-07 0 -2.1611573367815063e-05 3.7320760163583962e-06 0 -1.7526579120267235e-05 3.2616341429669273e-06 0 -2.483482080391178e-05 6.4921228719106304e-06 0 -4.0406429902948024e-05 -4.5087993975068686e-05 0 -3.8514969940510231e-05 -4.0445109167449653e-05 0 -4.2217968589510768e-05 -4.1391049855114182e-05 0 -4.2065394401412963e-06 2.1235638915166578e-07 0 -4.5458864140590967e-06 4.2172964991327193e-07 0 -5.3909904356222277e-06 6.2811512467952782e-07 0 -4.5458864140590967e-06 4.2172964991327193e-07 0 -2.6594055039961028e-06 2.5731139904874681e-07 0 -4.611999350176052e-06 3.653594240032513e-07 0 -3.3568160793180611e-06 3.5548080881791531e-07 0 -4.611999350176052e-06 3.653594240032513e-07 0 -2.6594055039961028e-06 2.5731139904874681e-07 0 -5.7182494948251061e-05 -4.9260339278833163e-05 0 -5.4085503264123525e-05 -4.633635320514702e-05 0 -5.6222489482189798e-05 -4.5309406903286425e-05 0 -3.6914389834161221e-05 -1.6121253827778065e-05 0 -3.6949041013622187e-05 -2.1599752834505535e-05 0 -3.4557068619952759e-05 -1.4011407687654715e-05 0 -4.3583655080644107e-05 -5.0597343096252997e-05 0 -4.0406429902948024e-05 -4.5087993975068686e-05 0 -4.3745307815833331e-05 -4.703581563600434e-05 0 -2.3620367354765694e-05 5.6480183926217618e-06 0 -3.1385634247609455e-05 -6.3749329998336554e-06 0 -2.7268783657030514e-05 1.3433038531074e-06 0 -2.9941239940256861e-06 0.00031559557171146702 0 -6.8274001967111514e-06 0.00034603280851174217 0 -2.8270827288738845e-05 0.00032346859049055943 0 -0.00010693303316716715 -0.00016371603300826466 0 -0.00010687960349393425 -0.0001772704961300061 0 -9.4732409474568958e-05 -0.0001637655873662336 0 -0.00010664535025729782 -0.00014947252102368288 0 -0.00010693303316716715 -0.00016371603300826466 0 -9.4732409474568958e-05 -0.0001637655873662336 0 6.9273705792104363e-07 0.00028554741266120895 0 -2.9941239940256861e-06 0.00031559557171146702 0 -2.8270827288738845e-05 0.00032346859049055943 0 -1.7913724873273577e-05 1.1587560028350323e-05 0 -1.7391412799077008e-05 8.7756464493947399e-06 0 -2.3620367354765694e-05 5.6480183926217618e-06 0 -8.0697626514727074e-06 -3.9319191502083939e-07 0 -5.3215787407993352e-06 1.8176273526483264e-07 0 -7.8739201481907238e-06 -5.578884868677583e-07 0 -4.5774762643051039e-06 1.9647817677969173e-07 0 -7.8739201481907238e-06 -5.578884868677583e-07 0 -5.3215787407993352e-06 1.8176273526483264e-07 0 -2.4084617304996015e-05 0.0001873639443632282 0 -1.7145760272656126e-05 0.00020903799894919341 0 -4.8369031743274693e-05 0.00021199955942756356 0 -1.7145760272656126e-05 0.00020903799894919341 0 -2.6295141200171982e-05 0.00023243929983449396 0 -4.8369031743274693e-05 0.00021199955942756356 0 -3.2169523710375369e-05 -1.2017973754441196e-05 0 -3.1385634247609455e-05 -6.3749329998336588e-06 0 -3.4557068619952759e-05 -1.4011407687654715e-05 0 -4.5861131070443683e-05 -5.9821187347862852e-05 0 -4.421518606022337e-05 -5.6872474694941816e-05 0 -4.537537226512925e-05 -5.6263490783932801e-05 0 -5.2159474981278071e-05 -5.996063965775284e-05 0 -5.2775639293627654e-05 -5.5228238574244548e-05 0 -5.6941866046882967e-05 -5.659587251815716e-05 0 -1.7391412799077008e-05 8.7756464493947399e-06 0 -2.1335414264358706e-05 3.6984746556702465e-06 0 -2.3620367354765694e-05 5.6480183926217618e-06 0 -0.00017079334789083431 0.00033015015828043718 0 -0.00017050723965497189 0.0002991673991847203 0 -0.00014317540019230269 0.00032962997891818253 0 -3.2878933449418976e-05 -0.00014136897824259788 0 -4.648469298829124e-05 -0.00015997983445684646 0 -3.557003593753674e-05 -0.00015573531306013744 0 -4.3688593038503957e-05 -1.8931663564484182e-05 0 -4.3030791606132932e-05 -1.8879638168132989e-05 0 -3.4801680298051664e-05 -1.4024530089576192e-05 0 -6.2856298719720993e-05 2.1242023217076771e-05 0 -4.9521303203677364e-05 1.4278599099633207e-05 0 -6.1016936112082314e-05 2.1413965561561332e-05 0 -3.2169523710375369e-05 -1.2017973754441196e-05 0 -3.6949041013622194e-05 -2.1599752834505538e-05 0 -3.2566063742619161e-05 -2.2423714584661349e-05 0 -3.0380038447250568e-05 -2.7548216092851361e-05 0 -3.5961165198674629e-05 -4.5717822929535371e-05 0 -2.5405861114202566e-05 -4.7789349169534905e-05 0 -3.603632419803826e-05 -2.9027304988281617e-05 0 -3.6949041013622194e-05 -2.1599752834505538e-05 0 -3.9437095320156264e-05 -2.9786882919222352e-05 0 -4.0875040111327479e-05 -2.7076852406679698e-05 0 -3.9437095320156264e-05 -2.9786882919222352e-05 0 -3.6949041013622194e-05 -2.1599752834505538e-05 0 -6.9947465258178907e-05 -0.00018908363260991711 0 -5.9552464091428964e-05 -0.00018784491834852694 0 -6.0026400282016874e-05 -0.00017740401707651277 0 -8.5450919766630998e-05 0.00038732799161568055 0 -0.00011284673117038666 0.00038837394385952972 0 -0.00011018181857467978 0.0003622498179088454 0 -5.9692248997369656e-05 0.00038480650142973564 0 -8.5450919766630998e-05 0.00038732799161568055 0 -6.103434182711464e-05 0.00036012242299346457 0 -8.1497797099241263e-05 -0.00018958190428739984 0 -6.9947465258178907e-05 -0.00018908363260991711 0 -8.0314246492198604e-05 -0.00017820317021763744 0 -3.4161459013535867e-05 4.2362097421149244e-05 0 -5.3123189791686476e-05 6.6412132859575813e-05 0 -5.2585910440102573e-05 4.6175428217768818e-05 0 -4.6272571479889995e-05 -3.2283338998677703e-05 0 -4.984897180504998e-05 -3.7406762165089159e-05 0 -4.7395625983631497e-05 -3.7597394594698157e-05 0 -3.603632419803826e-05 -2.9027304988281617e-05 0 -3.9437095320156264e-05 -2.9786882919222352e-05 0 -3.7214327746939329e-05 -3.4745416060419299e-05 0 -4.1703841460507816e-05 -3.491391832934306e-05 0 -3.7214327746939329e-05 -3.4745416060419299e-05 0 -3.9437095320156264e-05 -2.9786882919222352e-05 0 -4.3247375906371997e-05 -8.2621763656685611e-05 0 -4.0143919755629086e-05 -6.433972313310355e-05 0 -5.1187301768727204e-05 -7.9190513850742805e-05 0 -0.00013517473354433788 0.00010516528967112448 0 -0.00010020067779810763 8.4840519190382114e-05 0 -0.00012110139250152942 0.0001163304746248101 0 -3.7137648887047373e-05 -2.1816417554554297e-05 0 -4.4775782738322709e-05 -2.9754866484677533e-05 0 -3.5773202620315191e-05 -2.4484342322624225e-05 0 -4.1093198319363516e-05 -3.2815277926377364e-05 0 -3.5773202620315191e-05 -2.4484342322624225e-05 0 -4.4775782738322709e-05 -2.9754866484677533e-05 0 -5.5125235457332768e-05 -5.2981917100683074e-05 0 -5.0952663945213779e-05 -5.167361829006716e-05 0 -5.3562462388986129e-05 -5.005445621706958e-05 0 -0.00011146589473224572 0.00016683066302358563 0 -0.0001348844368877744 0.00018511230402697495 0 -0.00012318431320728409 0.00014508903042199071 0 -4.2245469274074135e-05 -1.9943145159696731e-05 0 -5.1358106008463941e-05 -2.6576144382751456e-05 0 -4.4184509349749596e-05 -2.4334636399962768e-05 0 -5.3188408970071214e-05 -3.1693822889956503e-05 0 -4.4184509349749596e-05 -2.4334636399962768e-05 0 -5.1358106008463941e-05 -2.6576144382751456e-05 0 -7.5474741012297505e-05 4.6218172985263047e-05 0 -7.4260322512023026e-05 3.5806448489583324e-05 0 -6.0403353041216538e-05 3.2344393126202267e-05 0 -5.9329793189094776e-05 2.4509781915048136e-05 0 -6.0403353041216538e-05 3.2344393126202267e-05 0 -7.4260322512023026e-05 3.5806448489583324e-05 0 -5.1972321946606476e-05 -4.2449037365735993e-05 0 -4.8680188119751284e-05 -4.241853681439657e-05 0 -4.7395625983631497e-05 -3.7597394594698157e-05 0 -8.3989441868538244e-05 -5.9558484622907628e-05 0 -7.8292330805542818e-05 -6.4303126418859604e-05 0 -6.7452263310896609e-05 -5.0353001979418342e-05 0 -3.4840025481065295e-05 0.00015774480646461468 0 -5.2301365366116457e-05 0.00012733174078680411 0 -2.827073596949096e-05 0.00012119756284923868 0 -3.0533167483410421e-05 -6.5287922661106748e-06 0 -3.2172551949261594e-05 -1.0880044624861348e-05 0 -3.6067580369597228e-05 -1.3797777976932908e-05 0 -1.1767765737392505e-05 1.5241206232740943e-06 0 -1.0887112325086401e-05 4.0322064814771551e-06 0 -9.3366987687723794e-06 2.3466256029388615e-06 0 -0.00012427926746230231 0.00026380975822343163 0 -0.00010282165687040731 0.00027313481529118208 0 -0.00013148498281322454 0.00029988735688069832 0 -4.8816132194470344e-05 -0.00012942681903628978 0 -5.8382833077449951e-05 -0.00013597522467508963 0 -4.8907311793726557e-05 -0.00014664060096091115 0 -3.2169523710375369e-05 -1.2017973754441196e-05 0 -3.4557068619952752e-05 -1.4011407687654715e-05 0 -3.6949041013622194e-05 -2.1599752834505538e-05 0 -5.2775639293627654e-05 -5.5228238574244548e-05 0 -5.0952663945213779e-05 -5.167361829006716e-05 0 -5.5125235457332768e-05 -5.2981917100683074e-05 0 -4.1703841460507816e-05 -3.491391832934306e-05 0 -4.4852069585517466e-05 -3.7896436475821792e-05 0 -4.2217968589510768e-05 -4.1391049855114182e-05 0 -2.8488241999708309e-09 -4.8532084595154843e-10 0 -2.2878261632601912e-06 -7.001561113604641e-07 0 -3.0859641934300024e-06 -1.0139423177887082e-06 0 -2.9092244306785471e-09 2.0480063379203467e-10 0 -3.1497162917144092e-06 1.5769778841148759e-07 0 -2.5594864340606318e-06 2.6416273526929059e-07 0 -4.0143919755629086e-05 -6.433972313310355e-05 0 -4.9757475761407929e-05 -6.4871296524817392e-05 0 -5.1187301768727204e-05 -7.9190513850742805e-05 0 -2.1611573367815063e-05 3.7320760163583962e-06 0 -2.483482080391178e-05 6.4921228719106304e-06 0 -2.8825740038189145e-05 6.2047775825187751e-06 0 -4.4066141654108224e-05 2.6997096191861109e-05 0 -5.2585910440102566e-05 4.6175428217768818e-05 0 -6.2767266926398089e-05 4.3795945049169444e-05 0 -3.777526911810479e-06 -5.7329826928060036e-07 0 -2.0776889212719501e-06 -4.0316666222255414e-07 0 -3.9708834176433561e-06 -1.7384304641344818e-07 0 -2.9146255291544681e-06 -5.4540484873542027e-08 0 -3.9708834176433561e-06 -1.7384304641344818e-07 0 -2.0776889212719501e-06 -4.0316666222255414e-07 0 -3.3568160793180611e-06 3.5548080881791531e-07 0 -2.4323916360932494e-06 3.3963590139197238e-07 0 -5.3215787407993352e-06 1.8176273526483264e-07 0 -4.5774762643051039e-06 1.9647817677969173e-07 0 -5.3215787407993352e-06 1.8176273526483264e-07 0 -2.4323916360932494e-06 3.3963590139197243e-07 0 -3.7776034688766195e-05 1.5690638817610471e-05 0 -3.2218646515018667e-05 1.7530084859381739e-05 0 -4.4066141654108224e-05 2.6997096191861109e-05 0 -1.1767765737392505e-05 1.5241206232740943e-06 0 -1.4243856425000871e-05 2.8987412088195974e-06 0 -1.0887112325086401e-05 4.0322064814771551e-06 0 -9.6805478950034895e-06 2.7034203922934877e-06 0 -1.0171795019683343e-05 1.3543962641713193e-06 0 -7.2734312845679992e-06 5.3444403822617124e-07 0 -2.483482080391178e-05 6.4921228719106304e-06 0 -1.7526579120267235e-05 3.2616341429669273e-06 0 -2.0931649784699856e-05 7.1719087936941282e-06 0 -1.8690881104854336e-05 1.7879332523233722e-06 0 -1.5827220390129282e-05 5.819324414777324e-06 0 -1.4243856425000871e-05 2.898741208819597e-06 0 -1.7846021236289631e-05 -5.8731335403993801e-06 0 -1.9965856875147866e-05 -7.8333865301862806e-06 0 -1.538442238022494e-05 -4.3748611163467653e-06 0 -1.8190831647811063e-05 -6.6688354527532756e-06 0 -1.538442238022494e-05 -4.3748611163467653e-06 0 -1.9965856875147866e-05 -7.8333865301862806e-06 0 -6.7381063689533098e-09 5.3746769866977291e-10 0 -4.8427083697665507e-09 -1.0450192279137714e-09 0 -5.627574005889386e-06 1.6085052572375507e-07 0 -4.0388097377904349e-09 3.1517828346776171e-10 0 -5.332617846389428e-09 -8.0580486787139889e-10 0 -4.4606898169434446e-06 -1.154275958472823e-06 0 8.4569025925003504e-06 0.00012261652134140289 0 -2.827073596949096e-05 0.00012119756284923868 0 -2.189887118382647e-05 8.9399566946719161e-05 0 -8.0697626514727074e-06 -3.9319191502083939e-07 0 -1.1582479356152098e-05 -1.8762645432228744e-06 0 -8.694970237187152e-06 -2.6225065420169241e-07 0 -3.6896365144317262e-05 -1.6828967118301674e-05 0 -3.0806883849175458e-05 -1.3573143795956554e-05 0 -3.3895493199199254e-05 -1.9512421087132996e-05 0 -4.861665060131525e-05 -5.4395351054331387e-05 0 -5.0952663945213779e-05 -5.167361829006716e-05 0 -5.2775639293627654e-05 -5.5228238574244548e-05 0 -3.6177930070820459e-05 -1.5107400574867142e-05 0 -3.4801680298051664e-05 -1.4024530089576192e-05 0 -2.9475639374637858e-05 -1.1448665688576114e-05 0 -5.0406118976964895e-05 1.5328797281061144e-05 0 -4.0637733520486624e-05 1.0312878335551849e-05 0 -4.9521303203677364e-05 1.4278599099633207e-05 0 -4.5641794416837427e-05 -4.2194424524338781e-05 0 -4.2217968589510768e-05 -4.1391049855114182e-05 0 -4.4852069585517466e-05 -3.7896436475821792e-05 0 -3.4801680298051664e-05 -1.4024530089576192e-05 0 -2.9695102342889835e-05 -1.1632695854997828e-05 0 -2.8278233024298068e-05 -1.0595913972998166e-05 0 -3.6506230218655445e-05 9.8468729534448127e-06 0 -3.3390544171323817e-05 1.0465234481490553e-05 0 -4.6152961834755838e-05 1.4955947320733002e-05 0 -3.6836108281555696e-05 -1.5722266712611069e-05 0 -2.9695102342889835e-05 -1.1632695854997828e-05 0 -3.4801680298051664e-05 -1.4024530089576192e-05 0 -1.3394045724260118e-05 -3.0669604248675778e-06 0 -1.5630004294445399e-05 -4.1678451154914583e-06 0 -1.7640721442491587e-05 -5.3191053557966155e-06 0 -1.2845901036025581e-05 1.0078541859029749e-06 0 -1.7526579120267235e-05 3.2616341429669273e-06 0 -1.7416680798175569e-05 1.4912476506964049e-06 0 -4.954761126540993e-05 2.2149875907429247e-05 0 -3.7776034688766195e-05 1.5690638817610471e-05 0 -4.4066141654108224e-05 2.6997096191861109e-05 0 -5.1972321946606476e-05 -4.2449037365735993e-05 0 -4.7395625983631497e-05 -3.7597394594698157e-05 0 -4.984897180504998e-05 -3.7406762165089159e-05 0 -3.9792378965611273e-05 0.00026297292805073017 0 -3.4159487798718908e-05 0.0002966183017403603 0 -6.0012942471287618e-05 0.00029471464595327883 0 -8.5051039770704751e-05 -0.00013423988838009984 0 -9.0193999676404341e-05 -0.0001506528754003457 0 -7.809181345508001e-05 -0.00014804813929779204 0 -3.777526911810479e-06 -5.7329826928060036e-07 0 -2.2878261632601912e-06 -7.001561113604641e-07 0 -2.0776889212719501e-06 -4.0316666222255414e-07 0 -4.5774762643051039e-06 1.9647817677969173e-07 0 -2.4323916360932489e-06 3.3963590139197243e-07 0 -2.5594864340606318e-06 2.6416273526929059e-07 0 -3.4955308998627361e-09 -6.7818940438757538e-10 0 -3.0859641934300024e-06 -1.0139423177887082e-06 0 -3.4037213954463257e-06 -1.002548838843319e-06 0 -3.3253812115453886e-09 1.9611461479542667e-10 0 -3.1934715796605238e-06 -1.9578172913222991e-08 0 -3.1497162917144092e-06 1.5769778841148759e-07 0 -3.6896365144317262e-05 -1.6828967118301674e-05 0 -4.1415207908615592e-05 -2.1423070265610748e-05 0 -4.0567113569313045e-05 -1.9622692560879365e-05 0 -4.384249791974291e-05 -2.4105850829557156e-05 0 -4.0567113569313045e-05 -1.9622692560879365e-05 0 -4.1415207908615592e-05 -2.1423070265610748e-05 0 -7.5016018989819511e-05 0.0001363314036749993 0 -6.7841249427837491e-05 9.9757913902956324e-05 0 -5.2301365366116457e-05 0.00012733174078680411 0 -4.3776498264487703e-05 8.8319299131457403e-05 0 -5.2301365366116457e-05 0.00012733174078680411 0 -6.7841249427837491e-05 9.9757913902956324e-05 0 -1.8314379028446353e-05 2.096477239554363e-05 0 -1.3681815137620575e-05 1.3795117765924304e-05 0 -1.2773855126899019e-05 2.216791572851612e-05 0 -3.6896365144317262e-05 -1.6828967118301674e-05 0 -3.2172551949261594e-05 -1.0880044624861348e-05 0 -3.0806883849175458e-05 -1.3573143795956554e-05 0 -5.8230297893539187e-06 6.2331459424512649e-07 0 -4.2065394401412963e-06 2.1235638915166578e-07 0 -5.3909904356222277e-06 6.2811512467952782e-07 0 -4.6272571479889995e-05 -3.2283338998677703e-05 0 -4.7395625983631497e-05 -3.7597394594698157e-05 0 -4.3518399034627212e-05 -3.2439320023379418e-05 0 -0.00010154660054045969 0.00021425644242022173 0 -0.00011409468196920323 0.00019057907889446111 0 -9.0188279065132613e-05 0.00017173000522708752 0 -5.7182494948251061e-05 -4.9260339278833163e-05 0 -5.6222489482189798e-05 -4.5309406903286425e-05 0 -5.936672435925777e-05 -5.0415521308298339e-05 0 -4.3745307815833331e-05 -4.703581563600434e-05 0 -4.5855804146353436e-05 -4.5806479573128816e-05 0 -4.6577607073330812e-05 -5.0804468837094422e-05 0 -1.1748756553441844e-05 -2.2296956362339529e-06 0 -7.8739201481907238e-06 -5.578884868677583e-07 0 -1.0931749857716419e-05 -1.9117452349326233e-06 0 -7.1922936072802706e-05 6.9660504630886767e-05 0 -5.2585910440102573e-05 4.6175428217768818e-05 0 -5.3123189791686476e-05 6.6412132859575813e-05 0 -1.4919124252774247e-05 -7.1980155526027766e-06 0 -2.1724917806086161e-05 -9.4990942412681622e-06 0 -1.3171836855671614e-05 -5.3933067133755505e-06 0 -2.8480409630102762e-05 8.641036077077929e-06 0 -1.8894075278101849e-05 6.6690626533798826e-06 0 -1.7082685653721987e-05 4.1129255115868616e-06 0 -3.603632419803826e-05 -2.9027304988281617e-05 0 -3.2566063742619161e-05 -2.2423714584661349e-05 0 -3.6949041013622194e-05 -2.1599752834505538e-05 0 -6.6731963202556533e-06 -7.9890395151226882e-07 0 -1.110590550437616e-05 -2.1733343575249995e-06 0 -6.6793099775830914e-06 -5.2895990427362273e-07 0 -7.4203917334708331e-06 -9.7171484202496841e-07 0 -6.4337423619026302e-06 -1.1260774915871657e-06 0 -1.2071513899848958e-05 -1.6055360379301465e-07 0 -0.0001220833652703255 7.9555346215955922e-05 0 -9.555916378957378e-05 6.2589190721867261e-05 0 -0.00010020067779810763 8.4840519190382114e-05 0 -7.6630596453139242e-05 -4.7885665036257082e-05 0 -6.7452263310896609e-05 -5.0353001979418342e-05 0 -6.3530613130642133e-05 -3.9472675863759202e-05 0 -3.4161459013535867e-05 4.2362097421149244e-05 0 -1.8795767269902709e-05 3.1073905419689465e-05 0 -2.7144515008463345e-05 5.5771482467972351e-05 0 -7.119286103280859e-06 3.3596938360832282e-05 0 -2.7144515008463345e-05 5.5771482467972351e-05 0 -1.8795767269902709e-05 3.1073905419689465e-05 0 -4.4414272662179617e-05 -5.1432517722013092e-05 0 -5.4008370882622684e-05 -5.6392254399335031e-05 0 -4.9757475761407929e-05 -6.4871296524817392e-05 0 -5.8489308831774168e-05 -7.5041674128550795e-05 0 -4.9757475761407929e-05 -6.4871296524817392e-05 0 -5.4008370882622684e-05 -5.6392254399335031e-05 0 -3.2169523710375369e-05 -1.2017973754441196e-05 0 -2.692198247390777e-05 -3.1483259230177374e-06 0 -2.7268783657030514e-05 1.3433038531074e-06 0 -4.861665060131525e-05 -5.4395351054331387e-05 0 -5.2775639293627661e-05 -5.5228238574244555e-05 0 -4.980040695281684e-05 -5.7440270555866236e-05 0 -5.8230297893539187e-06 6.2331459424512649e-07 0 -7.2734312845679992e-06 5.3444403822617124e-07 0 -5.2266000051829049e-06 -1.2309631498036716e-07 0 -4.4775782738322709e-05 -2.9754866484677533e-05 0 -5.5963765875201203e-05 -3.8827673609018878e-05 0 -4.8764798227406749e-05 -3.7685342081502823e-05 0 -4.5861131070443683e-05 -5.9821187347862852e-05 0 -4.537537226512925e-05 -5.6263490783932801e-05 0 -4.7423224458363364e-05 -5.7406400468699305e-05 0 -0.00010126954178536276 0.00011570092237755082 0 -0.00012110139250152942 0.0001163304746248101 0 -0.00010020067779810763 8.4840519190382114e-05 0 -0.00013148498281322454 0.00029988735688069832 0 -0.00010282165687040731 0.00027313481529118208 0 -0.00010253717578368551 0.00030222037463100522 0 -4.8907311793726557e-05 -0.00014664060096091115 0 -5.8382833077449951e-05 -0.00013597522467508963 0 -6.0560581999133439e-05 -0.00014963497118655926 0 -1.4833557144211075e-05 -3.3306152547416506e-06 0 -1.4337235149537119e-05 -1.7671433421928225e-06 0 -1.1679378317646444e-05 -1.3147974693661591e-06 0 -4.384249791974291e-05 -2.4105850829557156e-05 0 -4.1415207908615592e-05 -2.1423070265610748e-05 0 -4.6414098895460661e-05 -2.708102886530335e-05 0 -7.3808225229987669e-06 1.2271122487185446e-06 0 -9.3366987687723794e-06 2.3466256029388615e-06 0 -8.0428083118730611e-06 2.3573509397861466e-06 0 -9.5286639671704707e-06 3.9409484642569833e-06 0 -8.0428083118730611e-06 2.3573509397861466e-06 0 -9.3366987687723794e-06 2.3466256029388615e-06 0 -2.483482080391178e-05 6.4921228719106304e-06 0 -3.3390544171323817e-05 1.0465234481490553e-05 0 -2.8825740038189145e-05 6.2047775825187751e-06 0 -5.8489308831774168e-05 -7.5041674128550795e-05 0 -6.7632443181551399e-05 -8.5292877707309294e-05 0 -6.2782431865736094e-05 -9.4559700454190419e-05 0 -3.0728956014435538e-05 6.1849925978922224e-06 0 -2.4754487043556595e-05 3.7576964780008049e-06 0 -3.6991146763216074e-05 8.656615459931896e-06 0 -4.8369031743274693e-05 0.00021199955942756356 0 -7.6142938713795582e-05 0.0002435760320919678 0 -8.0336848698774722e-05 0.00021601941003759233 0 -4.8369031743274693e-05 0.00021199955942756356 0 -8.0336848698774722e-05 0.00021601941003759233 0 -7.3321556617061373e-05 0.00018671061081034537 0 -0.00010154660054045969 0.00021425644242022173 0 -7.3321556617061373e-05 0.0001867106108103454 0 -8.0336848698774722e-05 0.00021601941003759233 0 -7.4497969576853987e-05 -0.00010902095647627508 0 -6.7203393737097844e-05 -0.00012348160422809935 0 -6.105536351024971e-05 -0.00010821326655953198 0 -7.4497969576853987e-05 -0.00010902095647627508 0 -6.105536351024971e-05 -0.00010821326655953198 0 -6.2782431865736094e-05 -9.4559700454190419e-05 0 -1.3681815137620575e-05 1.3795117765924304e-05 0 -1.3166945080074411e-05 1.5428376239092709e-05 0 -1.2773855126899019e-05 2.216791572851612e-05 0 -2.4329330970480558e-09 -3.8192170541320314e-10 0 -2.0238678856923228e-09 -3.6900066155231424e-11 0 -2.0776889212719501e-06 -4.0316666222255414e-07 0 -2.2966855325754074e-09 1.6641154190511281e-10 0 -2.6070569015877402e-09 2.2960908471658218e-10 0 -2.4323916360932494e-06 3.3963590139197243e-07 0 -1.1582479356152098e-05 -1.8762645432228744e-06 0 -1.1679378317646446e-05 -1.3147974693661593e-06 0 -8.694970237187152e-06 -2.6225065420169241e-07 0 -3.0380038447250568e-05 -2.7548216092851361e-05 0 -2.9992827480237112e-05 -2.4148421076916129e-05 0 -3.4377283499640003e-05 -3.2846211660400053e-05 0 -2.4754487043556595e-05 3.7576964780008053e-06 0 -2.8825740038189145e-05 6.2047775825187751e-06 0 -3.6991146763216074e-05 8.656615459931896e-06 0 -2.0065862962701837e-09 1.2725987365920526e-10 0 -2.6594055039961028e-06 2.5731139904874681e-07 0 -1.7037441357662743e-06 3.6267973387617972e-08 0 -2.8480409630102762e-05 8.641036077077929e-06 0 -2.3661981449175395e-05 4.7471785463384667e-06 0 -3.2678347658070017e-05 7.9785173329822513e-06 0 -2.1724917806086161e-05 -9.4990942412681622e-06 0 -2.431053631809278e-05 -9.4509349691809607e-06 0 -1.802424257299473e-05 -6.6262511747121672e-06 0 -6.9332408439174307e-05 -6.3394770316951932e-05 0 -6.7452263310896609e-05 -5.0353001979418342e-05 0 -7.8292330805542818e-05 -6.4303126418859604e-05 0 -4.611999350176052e-06 3.653594240032513e-07 0 -3.3568160793180611e-06 3.5548080881791531e-07 0 -6.0851071560398026e-06 2.0378080660076114e-07 0 -5.1972321946606476e-05 -4.2449037365735993e-05 0 -5.6222489482189798e-05 -4.5309406903286425e-05 0 -5.4085503264123525e-05 -4.633635320514702e-05 0 -1.8690881104854336e-05 1.7879332523233722e-06 0 -1.4243856425000871e-05 2.898741208819597e-06 0 -1.7088335037041624e-05 -5.0061465047320237e-08 0 -3.4840025481065295e-05 0.00015774480646461468 0 -6.2437777469631276e-05 0.00016064919918131899 0 -5.2301365366116457e-05 0.00012733174078680411 0 -5.8230297893539187e-06 6.2331459424512649e-07 0 -3.9708834176433561e-06 -1.7384304641344818e-07 0 -4.2065394401412963e-06 2.1235638915166578e-07 0 -0.00011439218330504937 0.00033266524845379031 0 -0.00010253717578368551 0.00030222037463100522 0 -8.215262964688576e-05 0.00031755516761989926 0 -5.7493496218842837e-05 -0.00016381601264955025 0 -6.0560581999133439e-05 -0.00014963497118655926 0 -6.9682269569384774e-05 -0.0001578625161122753 0 -3.3568160793180611e-06 3.5548080881791531e-07 0 -5.3215787407993352e-06 1.8176273526483264e-07 0 -6.0851071560398026e-06 2.0378080660076114e-07 0 -1.8690881104854336e-05 1.7879332523233722e-06 0 -2.1254080389682734e-05 -2.6100066665995759e-06 0 -2.4631072466577144e-05 -1.9286121937743225e-06 0 -5.5334414120200895e-05 0.00032970841801882925 0 -6.103434182711464e-05 0.00036012242299346457 0 -8.4938555869039484e-05 0.00035179391603958851 0 -0.00011439218330504937 0.00033266524845379031 0 -8.4938555869039484e-05 0.00035179391603958846 0 -0.00011018181857467978 0.0003622498179088454 0 -8.2024206806877978e-05 -0.00016454941478732008 0 -8.0314246492198604e-05 -0.00017820317021763744 0 -6.9707510805514073e-05 -0.00017365381064690435 0 -5.7493496218842837e-05 -0.00016381601264955025 0 -6.9707510805514073e-05 -0.00017365381064690435 0 -6.0026400282016874e-05 -0.00017740401707651277 0 -4.4066141654108224e-05 2.6997096191861109e-05 0 -6.2767266926398089e-05 4.3795945049169444e-05 0 -6.0403353041216538e-05 3.2344393126202267e-05 0 -5.4814782780840114e-05 -4.450060238904366e-05 0 -6.7452263310896609e-05 -5.0353001979418342e-05 0 -6.118138089696544e-05 -5.5124336232043336e-05 0 -6.9332408439174307e-05 -6.3394770316951932e-05 0 -6.118138089696544e-05 -5.5124336232043336e-05 0 -6.7452263310896609e-05 -5.0353001979418342e-05 0 -0.00010126954178536276 0.00011570092237755082 0 -0.00010020067779810763 8.4840519190382114e-05 0 -8.4193938472212809e-05 9.6540369100981869e-05 0 -7.1922936072802706e-05 6.9660504630886767e-05 0 -8.4193938472212809e-05 9.6540369100981869e-05 0 -0.00010020067779810763 8.4840519190382114e-05 0 -4.5774762643051039e-06 1.9647817677969173e-07 0 -5.542336348296833e-06 -7.4230621580849164e-08 0 -7.8739201481907238e-06 -5.578884868677583e-07 0 5.5405522483513657e-06 8.5827373692332656e-05 0 8.4569025925003504e-06 0.00012261652134140289 0 -2.189887118382647e-05 8.9399566946719161e-05 0 -7.4203917334708331e-06 -9.7171484202496841e-07 0 -1.1362338055337057e-05 -2.5226719985583185e-07 0 -7.363532826204357e-06 -4.6119660140771585e-07 0 -6.6731963202556533e-06 -7.9890395151226882e-07 0 -6.0655219232898324e-06 -1.0937405037795137e-06 0 -9.6087991570226874e-06 -1.9489867223939591e-06 0 -3.6896365144317262e-05 -1.6828967118301674e-05 0 -3.6067580369597228e-05 -1.3797777976932908e-05 0 -3.2172551949261594e-05 -1.0880044624861348e-05 0 -1.110590550437616e-05 -2.1733343575249995e-06 0 -1.0370873845677666e-05 -1.752994724013155e-06 0 -6.6793099775830914e-06 -5.2895990427362273e-07 0 -1.2071513899848958e-05 -1.6055360379301465e-07 0 -6.4337423619026311e-06 -1.1260774915871657e-06 0 -1.0099409413757138e-05 -1.1850183970160228e-07 0 -3.6506230218655445e-05 9.8468729534448127e-06 0 -4.6152961834755838e-05 1.4955947320733002e-05 0 -3.6991146763216074e-05 8.656615459931896e-06 0 -4.9521303203677364e-05 1.4278599099633207e-05 0 -3.6991146763216074e-05 8.656615459931896e-06 0 -4.6152961834755838e-05 1.4955947320733002e-05 0 -5.5334414120200895e-05 0.00032970841801882925 0 -6.0012942471287618e-05 0.00029471464595327883 0 -3.4159487798718908e-05 0.0002966183017403603 0 -8.2024206806877978e-05 -0.00016454941478732008 0 -7.809181345508001e-05 -0.00014804813929779204 0 -9.0193999676404341e-05 -0.0001506528754003457 0 -4.5861131070443683e-05 -5.9821187347862852e-05 0 -4.4895481065112302e-05 -5.8006373608125739e-05 0 -4.4215186060223363e-05 -5.6872474694941816e-05 0 -5.7095802095102395e-05 -6.0265039897929517e-05 0 -5.2159474981278071e-05 -5.996063965775284e-05 0 -5.6941866046882967e-05 -5.659587251815716e-05 0 -2.1619344753791769e-05 -8.3348528313661962e-06 0 -1.7846021236289631e-05 -5.8731335403993801e-06 0 -1.7640721442491587e-05 -5.3191053557966155e-06 0 -6.2073297268812282e-05 -5.4881550794597505e-05 0 -6.0324230683930949e-05 -5.3395098293382812e-05 0 -5.936672435925777e-05 -5.0415521308298339e-05 0 -3.4073550431721982e-05 -3.745154567073206e-05 0 -3.5157929568474043e-05 -4.0034066681475462e-05 0 -3.8956269668070112e-05 -4.6145227643792284e-05 0 -4.3583655080644107e-05 -5.0597343096252997e-05 0 -4.1374320264450648e-05 -4.9298592192928397e-05 0 -4.0406429902948024e-05 -4.5087993975068686e-05 0 -5.3188408970071214e-05 -3.1693822889956503e-05 0 -5.5963765875201203e-05 -3.8827673609018878e-05 0 -4.4775782738322709e-05 -2.9754866484677533e-05 0 -5.2159474981278071e-05 -5.996063965775284e-05 0 -4.980040695281684e-05 -5.7440270555866236e-05 0 -5.2775639293627654e-05 -5.5228238574244548e-05 0 -5.9329793189094776e-05 2.4509781915048136e-05 0 -4.6152961834755838e-05 1.4955947320733002e-05 0 -4.954761126540993e-05 2.2149875907429247e-05 0 -1.4337235149537119e-05 -1.7671433421928227e-06 0 -1.1607948570069639e-05 -1.3848281585624718e-07 0 -1.1679378317646444e-05 -1.3147974693661591e-06 0 -5.4814782780840114e-05 -4.450060238904366e-05 0 -5.4008370882622684e-05 -5.6392254399335031e-05 0 -4.7493503955073081e-05 -4.3616674274093547e-05 0 -4.4414272662179617e-05 -5.1432517722013092e-05 0 -4.7493503955073081e-05 -4.3616674274093547e-05 0 -5.4008370882622684e-05 -5.6392254399335031e-05 0 -2.2749655605459425e-05 -8.3865188438584246e-06 0 -2.1619344753791769e-05 -8.3348528313661962e-06 0 -1.7640721442491587e-05 -5.3191053557966155e-06 0 -5.4814782780840114e-05 -4.450060238904366e-05 0 -4.8764798227406749e-05 -3.7685342081502823e-05 0 -5.5963765875201203e-05 -3.8827673609018878e-05 0 -1.9471224845291881e-05 -6.1399298946234354e-06 0 -2.2749655605459425e-05 -8.3865188438584246e-06 0 -1.7640721442491587e-05 -5.3191053557966155e-06 0 -1.2845901036025581e-05 1.0078541859029749e-06 0 -1.267257924150897e-05 2.8640677228390834e-06 0 -1.7526579120267235e-05 3.2616341429669273e-06 0 -5.4814782780840114e-05 -4.450060238904366e-05 0 -5.5963765875201203e-05 -3.8827673609018878e-05 0 -6.7452263310896609e-05 -5.0353001979418342e-05 0 -7.1922936072802706e-05 6.9660504630886767e-05 0 -0.00010020067779810763 8.4840519190382114e-05 0 -8.0810091863734414e-05 6.0528917483115029e-05 0 -4.8427083697665507e-09 -1.0450192279137714e-09 0 -3.6076998751720073e-06 -7.3914692255007177e-07 0 -7.363532826204357e-06 -4.6119660140771585e-07 0 -4.0388097377904349e-09 3.1517828346776171e-10 0 -6.0655219232898324e-06 -1.0937405037795137e-06 0 -3.13839952088929e-06 -2.5238888900313036e-07 0 -1.9471224845291881e-05 -6.1399298946234354e-06 0 -1.7640721442491587e-05 -5.3191053557966155e-06 0 -1.5630004294445399e-05 -4.1678451154914583e-06 0 -2.1611573367815063e-05 3.7320760163583962e-06 0 -1.7416680798175569e-05 1.4912476506964049e-06 0 -1.7526579120267235e-05 3.2616341429669273e-06 0 -7.4702582805845558e-06 -6.5622452587971655e-07 0 -5.3247220099785955e-06 -8.4036143429155732e-07 0 -8.4302365868010371e-06 9.2240409314953199e-08 0 -3.4377283499640003e-05 -3.2846211660400053e-05 0 -4.0982075431756837e-05 -3.8848514129683411e-05 0 -3.5961165198674629e-05 -4.5717822929535371e-05 0 -5.8230297893539187e-06 6.2331459424512649e-07 0 -5.3909904356222277e-06 6.2811512467952793e-07 0 -6.5815253467400788e-06 1.2117338303712296e-06 0 -0.00011439218330504937 0.00033266524845379031 0 -0.00013148498281322454 0.00029988735688069832 0 -0.00010253717578368551 0.00030222037463100522 0 -5.7493496218842837e-05 -0.00016381601264955025 0 -4.8907311793726557e-05 -0.00014664060096091115 0 -6.0560581999133439e-05 -0.00014963497118655926 0 -1.3394045724260118e-05 -3.0669604248675778e-06 0 -1.110590550437616e-05 -2.1733343575249995e-06 0 -1.5630004294445399e-05 -4.1678451154914583e-06 0 -1.2845901036025581e-05 1.0078541859029749e-06 0 -1.7416680798175569e-05 1.4912476506964049e-06 0 -1.2071513899848958e-05 -1.6055360379301465e-07 0 -4.5458864140590967e-06 4.2172964991327193e-07 0 -6.4873076943795647e-06 3.5378427436703677e-07 0 -6.2833025601860157e-06 6.5813755143805278e-07 0 -4.0982075431756837e-05 -3.8848514129683411e-05 0 -4.4414272662179617e-05 -5.1432517722013092e-05 0 -3.5961165198674629e-05 -4.5717822929535371e-05 0 -0.00016694939009579286 0.00023365479244212729 0 -0.00016261198590301353 0.00020010320119790388 0 -0.00013342275103013395 0.00021551900380948914 0 -2.5924284988085717e-05 -9.4116540926008336e-05 0 -4.0201600620726091e-05 -0.00010493349314559136 0 -2.7794091945911698e-05 -0.0001098595871345214 0 -7.4497969576853987e-05 -0.00010902095647627508 0 -6.278243186573608e-05 -9.4559700454190419e-05 0 -7.2768418045639818e-05 -9.5404465932830197e-05 0 -2.6341887385713336e-05 -7.4031461058983828e-06 0 -3.0806883849175451e-05 -1.3573143795956552e-05 0 -3.2172551949261594e-05 -1.0880044624861348e-05 0 -3.0728956014435538e-05 6.1849925978922224e-06 0 -2.3661981449175391e-05 4.7471785463384658e-06 0 -2.2739879157482441e-05 3.3619196122669623e-06 0 -2.3274541831315788e-05 -8.2329657889180725e-06 0 -1.7781276544850785e-05 -5.7605812442885093e-06 0 -1.802424257299473e-05 -6.6262511747121672e-06 0 -1.3810239029250232e-05 8.9791234780899659e-06 0 -1.271577228695466e-05 5.1854827890742957e-06 0 -1.0585295192981966e-05 5.6217084101110813e-06 0 -4.5458864140590967e-06 4.2172964991327193e-07 0 -4.611999350176052e-06 3.653594240032513e-07 0 -6.4873076943795647e-06 3.5378427436703677e-07 0 -4.384249791974291e-05 -2.4105850829557156e-05 0 -4.8160761223460222e-05 -3.0428994401047722e-05 0 -4.4560198414106075e-05 -2.6702461589494749e-05 0 -3.0728956014435538e-05 6.1849925978922224e-06 0 -3.2678347658070017e-05 7.9785173329822513e-06 0 -2.3661981449175395e-05 4.7471785463384667e-06 0 -2.3274541831315788e-05 -8.2329657889180725e-06 0 -1.802424257299473e-05 -6.6262511747121664e-06 0 -2.4310536318092783e-05 -9.4509349691809624e-06 0 -1.8690881104854336e-05 1.7879332523233722e-06 0 -1.7088335037041624e-05 -5.0061465047320237e-08 0 -2.1254080389682734e-05 -2.6100066665995759e-06 0 -6.772950664790187e-05 -0.00014131367270339259 0 -6.720339373709783e-05 -0.00012348160422809932 0 -7.486180611530431e-05 -0.00013340130729909639 0 -8.1987228264369184e-05 0.00028278998064922283 0 -7.6142938713795582e-05 0.0002435760320919678 0 -6.238376539572216e-05 0.00026394878954537593 0 -5.3188408970071214e-05 -3.1693822889956503e-05 0 -4.4775782738322709e-05 -2.9754866484677533e-05 0 -4.4184509349749596e-05 -2.4334636399962768e-05 0 -3.7137648887047373e-05 -2.1816417554554297e-05 0 -4.4184509349749596e-05 -2.4334636399962768e-05 0 -4.4775782738322709e-05 -2.9754866484677533e-05 0 -2.2976278953730247e-05 -1.1832518888420381e-05 0 -2.5970856706573419e-05 -1.5091746829389194e-05 0 -2.6630942054203557e-05 -1.7398133304793702e-05 0 -3.0104253838911467e-05 -2.0993128843515674e-05 0 -2.6630942054203557e-05 -1.7398133304793702e-05 0 -2.5970856706573419e-05 -1.5091746829389194e-05 0 -3.0859641934300024e-06 -1.0139423177887082e-06 0 -5.3247220099785955e-06 -8.4036143429155732e-07 0 -6.4337423619026311e-06 -1.1260774915871657e-06 0 -7.4702582805845558e-06 -6.5622452587971655e-07 0 -6.4337423619026311e-06 -1.1260774915871657e-06 0 -5.3247220099785955e-06 -8.4036143429155732e-07 0 -8.2112401413319701e-06 -8.8761868987066327e-07 0 -5.542336348296833e-06 -7.4230621580849164e-08 0 -6.6793099775830914e-06 -5.2895990427362273e-07 0 -3.1497162917144092e-06 1.5769778841148759e-07 0 -6.6793099775830914e-06 -5.2895990427362273e-07 0 -5.542336348296833e-06 -7.4230621580849164e-08 0 -5.1972321946606476e-05 -4.2449037365735993e-05 0 -5.1465001430435363e-05 -4.633660372455298e-05 0 -4.8680188119751284e-05 -4.241853681439657e-05 0 -2.6341887385713336e-05 -7.4031461058983828e-06 0 -2.4631072466577144e-05 -1.9286121937743225e-06 0 -2.1254080389682734e-05 -2.6100066665995759e-06 0 -9.5286639671704707e-06 3.9409484642569833e-06 0 -9.1636994572899971e-06 3.6481809497492395e-06 0 -8.0428083118730611e-06 2.3573509397861466e-06 0 -4.8369031743274693e-05 0.00021199955942756356 0 -5.0798205510050062e-05 0.00024336016593602081 0 -7.6142938713795582e-05 0.0002435760320919678 0 -7.4497969576853987e-05 -0.00010902095647627508 0 -7.8049249576519279e-05 -0.00012339107872048986 0 -6.7203393737097844e-05 -0.00012348160422809935 0 -4.8369031743274693e-05 0.00021199955942756356 0 -7.3321556617061373e-05 0.00018671061081034537 0 -4.8883231001012568e-05 0.00018100209933739423 0 -1.3810239029250232e-05 8.9791234780899659e-06 0 -1.7293107556463334e-05 8.3191925511346855e-06 0 -1.271577228695466e-05 5.1854827890742957e-06 0 -1.3810239029250232e-05 8.9791234780899659e-06 0 -1.8310738426914463e-05 1.4121919708413151e-05 0 -1.7293107556463334e-05 8.3191925511346855e-06 0 -7.5016018989819511e-05 0.0001363314036749993 0 -6.2437777469631276e-05 0.00016064919918131902 0 -9.0188279065132613e-05 0.00017173000522708752 0 -7.3321556617061373e-05 0.00018671061081034537 0 -9.0188279065132613e-05 0.00017173000522708752 0 -6.2437777469631276e-05 0.00016064919918131902 0 -1.1601645258827655e-05 1.2898759153938751e-06 0 -7.3635328262043579e-06 -4.6119660140771579e-07 0 -1.3029708474505294e-05 5.5230821768505287e-07 0 -9.101177855360449e-06 -2.85656719125734e-06 0 -1.0523490284423355e-05 -2.673742280635364e-06 0 -6.0655219232898324e-06 -1.0937405037795137e-06 0 -4.4414272662179617e-05 -5.1432517722013092e-05 0 -4.9757475761407929e-05 -6.4871296524817392e-05 0 -4.0143919755629086e-05 -6.433972313310355e-05 0 -6.2073297268812282e-05 -5.4881550794597505e-05 0 -6.3382351735056849e-05 -5.8534469533990761e-05 0 -6.0324230683930949e-05 -5.3395098293382812e-05 0 -3.4073550431721982e-05 -3.745154567073206e-05 0 -3.8956269668070112e-05 -4.6145227643792284e-05 0 -3.7027509580442292e-05 -4.1181254297237264e-05 0 -1.7790381732668788e-05 -2.7444598699231458e-06 0 -2.1254080389682734e-05 -2.6100066665995759e-06 0 -1.7088335037041624e-05 -5.0061465047320237e-08 0 -9.5286639671704707e-06 3.9409484642569833e-06 0 -1.1243536836438036e-05 6.8230568538703992e-06 0 -1.0585295192981966e-05 5.6217084101110813e-06 0 -4.861665060131525e-05 -5.4395351054331387e-05 0 -4.6577607073330812e-05 -5.0804468837094422e-05 0 -5.0952663945213779e-05 -5.167361829006716e-05 0 -4.8481971374302662e-05 -4.8723562173759836e-05 0 -5.0952663945213779e-05 -5.167361829006716e-05 0 -4.6577607073330812e-05 -5.0804468837094422e-05 0 -4.1703841460507816e-05 -3.491391832934306e-05 0 -4.2217968589510768e-05 -4.1391049855114182e-05 0 -3.7214327746939329e-05 -3.4745416060419299e-05 0 -0.00011439218330504937 0.00033266524845379031 0 -0.00014317540019230269 0.00032962997891818253 0 -0.00013148498281322454 0.00029988735688069832 0 -5.7493496218842837e-05 -0.00016381601264955025 0 -4.648469298829124e-05 -0.00015997983445684646 0 -4.8907311793726557e-05 -0.00014664060096091115 0 -5.9175677953190164e-05 -5.4598084153739222e-05 0 -6.2283878378026862e-05 -5.8365005532044347e-05 0 -5.6941866046882967e-05 -5.659587251815716e-05 0 -4.2160325408751441e-05 -5.2166158695825776e-05 0 -4.4215186060223363e-05 -5.6872474694941816e-05 0 -4.2708785270063728e-05 -5.2269618458091933e-05 0 -5.5334414120200895e-05 0.00032970841801882925 0 -8.215262964688576e-05 0.00031755516761989926 0 -6.0012942471287618e-05 0.00029471464595327883 0 -8.2024206806877978e-05 -0.00016454941478732008 0 -6.9682269569384774e-05 -0.0001578625161122753 0 -7.809181345508001e-05 -0.00014804813929779204 0 -4.5458864140590967e-06 4.2172964991327193e-07 0 -6.2833025601860157e-06 6.5813755143805278e-07 0 -5.3909904356222277e-06 6.2811512467952782e-07 0 -7.3808225229987669e-06 1.2271122487185446e-06 0 -5.3909904356222277e-06 6.2811512467952782e-07 0 -6.2833025601860157e-06 6.5813755143805278e-07 0 -3.9792378965611273e-05 0.00026297292805073017 0 -6.0012942471287618e-05 0.00029471464595327883 0 -6.238376539572216e-05 0.00026394878954537593 0 -8.5051039770704751e-05 -0.00013423988838009984 0 -7.809181345508001e-05 -0.00014804813929779204 0 -7.486180611530431e-05 -0.00013340130729909639 0 -7.4203917334708331e-06 -9.7171484202496841e-07 0 -7.363532826204357e-06 -4.6119660140771579e-07 0 -3.6076998751720073e-06 -7.3914692255007177e-07 0 -6.6731963202556533e-06 -7.9890395151226882e-07 0 -3.13839952088929e-06 -2.5238888900313036e-07 0 -6.0655219232898324e-06 -1.0937405037795137e-06 0 -4.3776498264487703e-05 8.8319299131457403e-05 0 -2.827073596949096e-05 0.00012119756284923868 0 -5.2301365366116457e-05 0.00012733174078680411 0 -1.1601645258827655e-05 1.2898759153938751e-06 0 -5.627574005889386e-06 1.6085052572375507e-07 0 -7.363532826204357e-06 -4.6119660140771585e-07 0 -9.101177855360449e-06 -2.85656719125734e-06 0 -6.0655219232898324e-06 -1.0937405037795137e-06 0 -4.4606898169434446e-06 -1.154275958472823e-06 0 -0.00017050723965497189 0.0002991673991847203 0 -0.0001469524983667127 0.00027616006556326067 0 -0.00013148498281322454 0.00029988735688069832 0 -3.2878933449418976e-05 -0.00014136897824259788 0 -4.0556736031894134e-05 -0.00013329546272630569 0 -4.8907311793726557e-05 -0.00014664060096091115 0 -3.4161459013535867e-05 4.2362097421149244e-05 0 -5.2585910440102573e-05 4.6175428217768818e-05 0 -3.6551918411982705e-05 3.1951704758182381e-05 0 -4.4066141654108224e-05 2.6997096191861109e-05 0 -3.6551918411982705e-05 3.1951704758182388e-05 0 -5.2585910440102573e-05 4.6175428217768818e-05 0 -5.8489308831774168e-05 -7.5041674128550795e-05 0 -5.4008370882622684e-05 -5.6392254399335031e-05 0 -6.2248191394198319e-05 -6.4492503712998767e-05 0 -3.2169523710375369e-05 -1.2017973754441196e-05 0 -3.2566063742619161e-05 -2.2423714584661349e-05 0 -2.7886269728702905e-05 -1.5909152070672501e-05 0 -7.5016018989819511e-05 0.0001363314036749993 0 -8.5236194504948669e-05 0.00011752347743726514 0 -6.7841249427837491e-05 9.9757913902956324e-05 0 -7.1922936072802706e-05 6.9660504630886767e-05 0 -6.7841249427837491e-05 9.9757913902956324e-05 0 -8.4193938472212809e-05 9.6540369100981869e-05 0 -5.4814782780840114e-05 -4.450060238904366e-05 0 -6.118138089696544e-05 -5.5124336232043336e-05 0 -5.4008370882622684e-05 -5.6392254399335031e-05 0 -4.4414272662179617e-05 -5.1432517722013092e-05 0 -4.0143919755629086e-05 -6.433972313310355e-05 0 -3.5961165198674629e-05 -4.5717822929535371e-05 0 -5.7182494948251061e-05 -4.9260339278833163e-05 0 -5.936672435925777e-05 -5.0415521308298339e-05 0 -6.0324230683930949e-05 -5.3395098293382812e-05 0 -3.8696999875941453e-05 -4.4871656867856099e-05 0 -3.8956269668070112e-05 -4.6145227643792284e-05 0 -3.5157929568474043e-05 -4.0034066681475462e-05 0 -3.0533167483410421e-05 -6.5287922661106748e-06 0 -3.6067580369597228e-05 -1.3797777976932908e-05 0 -3.3507593383612499e-05 -9.9017441706594282e-06 0 -3.6896365144317262e-05 -1.6828967118301674e-05 0 -4.0567113569313045e-05 -1.9622692560879365e-05 0 -3.6067580369597228e-05 -1.3797777976932908e-05 0 -1.7391412799077008e-05 8.7756464493947399e-06 0 -1.5827220390129282e-05 5.819324414777324e-06 0 -2.1335414264358709e-05 3.6984746556702461e-06 0 -3.4377283499640003e-05 -3.2846211660400053e-05 0 -2.9992827480237112e-05 -2.4148421076916129e-05 0 -3.493096237691612e-05 -2.8308139635696151e-05 0 -5.5334414120200895e-05 0.00032970841801882925 0 -3.4159487798718908e-05 0.0002966183017403603 0 -2.8270827288738845e-05 0.00032346859049055943 0 -8.2024206806877978e-05 -0.00016454941478732008 0 -9.0193999676404341e-05 -0.0001506528754003457 0 -9.4732409474568958e-05 -0.0001637655873662336 0 -1.8690881104854336e-05 1.7879332523233722e-06 0 -2.1335414264358709e-05 3.6984746556702461e-06 0 -1.5827220390129282e-05 5.819324414777324e-06 0 -3.2102607732759372e-05 -3.2290228535557548e-05 0 -3.7214327746939329e-05 -3.4745416060419299e-05 0 -3.4479271592655015e-05 -3.6530311780008167e-05 0 -4.8481971374302662e-05 -4.8723562173759836e-05 0 -4.6577607073330812e-05 -5.0804468837094422e-05 0 -4.5855804146353436e-05 -4.5806479573128816e-05 0 -1.2750174577736758e-05 5.7449811504225937e-06 0 -1.4243856425000869e-05 2.898741208819597e-06 0 -1.5827220390129282e-05 5.819324414777324e-06 0 -3.777526911810479e-06 -5.7329826928060036e-07 0 -5.2266000051829049e-06 -1.2309631498036716e-07 0 -5.3247220099785955e-06 -8.4036143429155732e-07 0 -9.0845797753779853e-05 -7.3071957683423021e-05 0 -9.6346993856736901e-05 -8.765553964235153e-05 0 -8.0541616584097243e-05 -7.6938940448457852e-05 0 -1.2845901036025581e-05 1.0078541859029749e-06 0 -1.0099409413757138e-05 -1.1850183970160228e-07 0 -8.4302365868010371e-06 9.2240409314953199e-08 0 -8.0428083118730611e-06 2.3573509397861466e-06 0 -9.1636994572899971e-06 3.6481809497492395e-06 0 -7.470440288747339e-06 1.7182594924333515e-06 0 -1.8690881104854336e-05 1.7879332523233722e-06 0 -2.4631072466577144e-05 -1.9286121937743225e-06 0 -2.1335414264358709e-05 3.6984746556702461e-06 0 -0.00015597924490944238 0.00016665673751361159 0 -0.00014704269800731257 0.00013487091400691954 0 -0.00012318431320728409 0.00014508903042199071 0 -3.3568160793180611e-06 3.5548080881791531e-07 0 -2.6594055039961028e-06 2.5731139904874681e-07 0 -1.3753530352434481e-06 2.0483430685467101e-07 0 -9.6805478950034895e-06 2.7034203922934877e-06 0 -1.0585295192981966e-05 5.6217084101110813e-06 0 -1.271577228695466e-05 5.1854827890742957e-06 0 -4.6272571479889995e-05 -3.2283338998677703e-05 0 -4.8304527200195856e-05 -3.2530839999244968e-05 0 -4.984897180504998e-05 -3.7406762165089159e-05 0 -7.4497969576853987e-05 -0.00010902095647627508 0 -8.4676408328337668e-05 -0.00010212182241742598 0 -8.860552040983813e-05 -0.00011885199377119155 0 -1.2845901036025581e-05 1.0078541859029749e-06 0 -8.4302365868010371e-06 9.2240409314953199e-08 0 -1.0171795019683341e-05 1.3543962641713191e-06 0 -4.5458864140590967e-06 4.2172964991327193e-07 0 -3.1890663280478386e-06 1.6583127119048405e-07 0 -2.6594055039961028e-06 2.5731139904874681e-07 0 -1.5816996328289151e-05 5.0086450869318718e-06 0 -1.271577228695466e-05 5.1854827890742957e-06 0 -1.7293107556463334e-05 8.3191925511346855e-06 0 -4.8160761223460222e-05 -3.0428994401047725e-05 0 -4.8304527200195856e-05 -3.2530839999244968e-05 0 -4.4560198414106075e-05 -2.6702461589494749e-05 0 -5.7182494948251061e-05 -4.9260339278833163e-05 0 -5.6769462860525344e-05 -5.1050998181437728e-05 0 -5.4085503264123525e-05 -4.633635320514702e-05 0 -3.6506230218655445e-05 9.8468729534448127e-06 0 -2.8825740038189145e-05 6.2047775825187751e-06 0 -3.3390544171323817e-05 1.0465234481490553e-05 0 6.9273705792104363e-07 0.00028554741266120895 0 -3.4159487798718908e-05 0.0002966183017403603 0 -1.8354817631858642e-05 0.00027054423074189635 0 -0.00010664535025729782 -0.00014947252102368288 0 -9.0193999676404341e-05 -0.0001506528754003457 0 -9.5933560111075147e-05 -0.00013977420972713232 0 -6.5815253467400788e-06 1.2117338303712296e-06 0 -7.470440288747339e-06 1.7182594924333515e-06 0 -5.8230297893539187e-06 6.2331459424512649e-07 0 -8.0428083118730611e-06 2.3573509397861466e-06 0 -7.470440288747339e-06 1.7182594924333515e-06 0 -6.5815253467400788e-06 1.2117338303712296e-06 0 -0.00012427926746230231 0.00026380975822343163 0 -0.00013148498281322454 0.00029988735688069832 0 -0.0001469524983667127 0.00027616006556326067 0 -4.8816132194470344e-05 -0.00012942681903628978 0 -4.8907311793726564e-05 -0.00014664060096091115 0 -4.0556736031894134e-05 -0.00013329546272630569 0 -7.3808225229987669e-06 1.2271122487185446e-06 0 -9.7540030225658183e-06 9.1391379983272807e-07 0 -9.3366987687723794e-06 2.3466256029388615e-06 0 -1.1767765737392505e-05 1.5241206232740943e-06 0 -9.3366987687723794e-06 2.3466256029388615e-06 0 -9.7540030225658183e-06 9.1391379983272807e-07 0 -7.3808225229987669e-06 1.2271122487185446e-06 0 -6.5815253467400788e-06 1.2117338303712296e-06 0 -5.3909904356222277e-06 6.2811512467952782e-07 0 -2.3274541831315788e-05 -8.2329657889180725e-06 0 -2.3883621542262992e-05 -8.3319928782788888e-06 0 -1.852093321367526e-05 -5.6922941557286921e-06 0 -2.5373061353108662e-05 -1.2454717272182328e-05 0 -3.0648351452260864e-05 -1.8291073478100325e-05 0 -2.5970856706573419e-05 -1.5091746829389194e-05 0 -3.0104253838911467e-05 -2.0993128843515674e-05 0 -2.5970856706573419e-05 -1.5091746829389194e-05 0 -3.0648351452260864e-05 -1.8291073478100325e-05 0 -2.3274541831315788e-05 -8.2329657889180725e-06 0 -1.852093321367526e-05 -5.6922941557286921e-06 0 -1.7781276544850785e-05 -5.7605812442885093e-06 0 -4.3776498264487703e-05 8.8319299131457403e-05 0 -2.189887118382647e-05 8.9399566946719161e-05 0 -2.827073596949096e-05 0.00012119756284923868 0 -8.1987228264369184e-05 0.00028278998064922283 0 -8.215262964688576e-05 0.00031755516761989926 0 -0.00010253717578368551 0.00030222037463100522 0 -6.772950664790187e-05 -0.00014131367270339259 0 -6.9682269569384774e-05 -0.0001578625161122753 0 -6.0560581999133439e-05 -0.00014963497118655926 0 -1.4833557144211075e-05 -3.3306152547416506e-06 0 -1.1582479356152098e-05 -1.8762645432228747e-06 0 -1.4807609804866802e-05 -3.9321857395275502e-06 0 -2.0065862962701837e-09 1.2725987365920526e-10 0 -1.3753530352434481e-06 2.0483430685467101e-07 0 -2.6594055039961028e-06 2.5731139904874681e-07 0 -1.3810239029250232e-05 8.9791234780899659e-06 0 -1.3681815137620575e-05 1.3795117765924304e-05 0 -1.8310738426914463e-05 1.4121919708413151e-05 0 -3.8514969940510231e-05 -4.0445109167449653e-05 0 -3.7214327746939329e-05 -3.4745416060419299e-05 0 -4.2217968589510768e-05 -4.1391049855114182e-05 0 -4.1703841460507816e-05 -3.491391832934306e-05 0 -4.3518399034627212e-05 -3.2439320023379418e-05 0 -4.4852069585517466e-05 -3.7896436475821792e-05 0 -6.4873076943795647e-06 3.5378427436703677e-07 0 -8.694970237187152e-06 -2.6225065420169241e-07 0 -7.9580140783619409e-06 4.549452261181436e-07 0 -6.9332408439174307e-05 -6.3394770316951932e-05 0 -8.0541616584097243e-05 -7.6938940448457852e-05 0 -6.7429198904017451e-05 -7.5167199031793888e-05 0 -7.7109135723795683e-05 -8.6740012047226619e-05 0 -6.7429198904017451e-05 -7.5167199031793888e-05 0 -8.0541616584097243e-05 -7.6938940448457852e-05 0 -1.9901059627283064e-09 -1.1056342799213826e-10 0 -2.0065862962702768e-09 1.2725987365920725e-10 0 -1.7037441357662743e-06 3.6267973387617972e-08 0 -0.00011146589473224572 0.00016683066302358563 0 -0.00012318431320728409 0.00014508903042199071 0 -9.750527139187506e-05 0.00014163545677434614 0 -0.00010126954178536276 0.00011570092237755082 0 -9.750527139187506e-05 0.00014163545677434614 0 -0.00012318431320728409 0.00014508903042199071 0 -5.9175677953190164e-05 -5.4598084153739222e-05 0 -5.6769462860525344e-05 -5.1050998181437728e-05 0 -6.0324230683930949e-05 -5.3395098293382812e-05 0 -4.2160325408751441e-05 -5.2166158695825776e-05 0 -3.8956269668070112e-05 -4.6145227643792284e-05 0 -4.1374320264450648e-05 -4.9298592192928397e-05 0 -2.382901370882826e-05 1.2555695686962796e-05 0 -1.7293107556463334e-05 8.3191925511346855e-06 0 -1.8310738426914463e-05 1.4121919708413151e-05 0 -5.3562462388986129e-05 -5.005445621706958e-05 0 -5.0857525095104325e-05 -4.8759446357277716e-05 0 -5.1465001430435363e-05 -4.633660372455298e-05 0 -1.4830086913643792e-05 1.7048860874199512e-05 0 -1.567345963171029e-05 2.2010793768429242e-05 0 -1.2773855126899019e-05 2.216791572851612e-05 0 -1.2845901036025581e-05 1.0078541859029749e-06 0 -1.0171795019683341e-05 1.3543962641713191e-06 0 -1.267257924150897e-05 2.8640677228390834e-06 0 -4.4066141654108224e-05 2.6997096191861109e-05 0 -2.7649140708010848e-05 2.0909499425647274e-05 0 -3.6551918411982705e-05 3.1951704758182381e-05 0 8.4569025925003504e-06 0.00012261652134140289 0 -1.2155394375082753e-05 0.00014603886608990978 0 -2.827073596949096e-05 0.00012119756284923868 0 -1.4833557144211075e-05 -3.3306152547416506e-06 0 -1.1679378317646444e-05 -1.3147974693661593e-06 0 -1.1582479356152098e-05 -1.8762645432228744e-06 0 -8.1987228264369184e-05 0.00028278998064922283 0 -6.0012942471287618e-05 0.00029471464595327883 0 -8.215262964688576e-05 0.00031755516761989926 0 -6.772950664790187e-05 -0.00014131367270339259 0 -7.809181345508001e-05 -0.00014804813929779204 0 -6.9682269569384774e-05 -0.0001578625161122753 0 -8.0697626514727074e-06 -3.9319191502083939e-07 0 -9.9414577168203971e-06 -1.3074214496913347e-06 0 -1.1582479356152098e-05 -1.8762645432228744e-06 0 -2.8329200906923004e-05 -1.5729126071400394e-05 0 -3.3895493199199254e-05 -1.9512421087132996e-05 0 -3.0806883849175458e-05 -1.3573143795956554e-05 0 -3.9792378965611273e-05 0.00026297292805073017 0 -1.8354817631858642e-05 0.00027054423074189635 0 -3.4159487798718908e-05 0.0002966183017403603 0 -8.5051039770704751e-05 -0.00013423988838009984 0 -9.5933560111075147e-05 -0.00013977420972713229 0 -9.0193999676404341e-05 -0.0001506528754003457 0 -4.3688593038503957e-05 -1.8931663564484182e-05 0 -5.1695828121201759e-05 -2.3787370243757993e-05 0 -4.3030791606132932e-05 -1.8879638168132989e-05 0 -7.6588654489993864e-05 2.9887187496901692e-05 0 -6.2856298719720993e-05 2.1242023217076771e-05 0 -6.1016936112082314e-05 2.1413965561561332e-05 0 -3.4161459013535867e-05 4.2362097421149244e-05 0 -3.9432621637903979e-05 6.181178790511639e-05 0 -5.3123189791686476e-05 6.6412132859575813e-05 0 -1.9471224845291881e-05 -6.1399298946234354e-06 0 -2.4453953086643263e-05 -8.9398894288913014e-06 0 -2.2749655605459425e-05 -8.3865188438584246e-06 0 -6.5838176343194064e-05 -6.4530676727997188e-05 0 -6.2107468630664432e-05 -6.1153268030709432e-05 0 -6.2283878378026862e-05 -5.8365005532044347e-05 0 -6.5838176343194064e-05 -6.4530676727997188e-05 0 -6.2283878378026862e-05 -5.8365005532044347e-05 0 -6.4702200911598723e-05 -6.1621355082564329e-05 0 -4.2754401156202465e-05 -4.7679654539033849e-05 0 -4.0118186901858673e-05 -4.4609192761007466e-05 0 -4.2708785270063728e-05 -5.2269618458091933e-05 0 -4.2754401156202465e-05 -4.7679654539033849e-05 0 -4.2708785270063728e-05 -5.2269618458091933e-05 0 -4.4250950424007465e-05 -5.4883048900318104e-05 0 -5.9175677953190164e-05 -5.4598084153739222e-05 0 -5.5125235457332768e-05 -5.2981917100683074e-05 0 -5.6769462860525344e-05 -5.1050998181437728e-05 0 -4.2160325408751441e-05 -5.2166158695825776e-05 0 -4.1374320264450648e-05 -4.9298592192928397e-05 0 -4.3761185847301649e-05 -5.3800074177764056e-05 0 -2.7462589591122502e-05 -2.9258358481630414e-05 0 -3.2403405666954653e-05 -3.5822263294211415e-05 0 -3.0800073594441118e-05 -3.3363703669702184e-05 0 -5.834738644603838e-05 -4.5320001234297339e-05 0 -6.0417861041959955e-05 -5.0555096118302424e-05 0 -5.6222489482189798e-05 -4.5309406903286425e-05 0 -9.3968749648819392e-06 -1.9568069465381332e-07 0 -2.0945666784133845e-05 -9.3815454097800231e-06 0 -1.478160138988725e-05 -1.2458980041666719e-05 0 -5.5334414120200895e-05 0.00032970841801882925 0 -3.6010780979150547e-05 0.00035093273869478474 0 -6.103434182711464e-05 0.00036012242299346457 0 -0.00011439218330504937 0.00033266524845379031 0 -0.00011018181857467978 0.0003622498179088454 0 -0.00013764964399533389 0.00035657911781178316 0 -8.2024206806877978e-05 -0.00016454941478732008 0 -9.2207246314959538e-05 -0.00017564086854387239 0 -8.0314246492198604e-05 -0.00017820317021763744 0 -5.7493496218842837e-05 -0.00016381601264955025 0 -6.0026400282016874e-05 -0.00017740401707651277 0 -5.0035972982835575e-05 -0.00017311132672216776 0 -9.835420148404037e-06 -1.6921738931330047e-07 0 -7.9580140783619409e-06 4.549452261181436e-07 0 -8.694970237187152e-06 -2.6225065420169241e-07 0 -5.5334414120200895e-05 0.00032970841801882925 0 -2.8270827288738842e-05 0.00032346859049055943 0 -3.6010780979150547e-05 0.00035093273869478474 0 -8.2024206806877978e-05 -0.00016454941478732008 0 -9.4732409474568958e-05 -0.0001637655873662336 0 -9.2207246314959538e-05 -0.00017564086854387239 0 -3.0533167483410421e-05 -6.5287922661106748e-06 0 -2.7542805345573227e-05 -1.3966374429021635e-06 0 -2.4631072466577144e-05 -1.9286121937743225e-06 0 -0.00011439218330504937 0.00033266524845379031 0 -0.00013764964399533389 0.00035657911781178316 0 -0.00014317540019230269 0.00032962997891818253 0 -5.7493496218842837e-05 -0.00016381601264955025 0 -5.0035972982835575e-05 -0.00017311132672216776 0 -4.648469298829124e-05 -0.00015997983445684646 0 -4.3247375906371997e-05 -8.2621763656685611e-05 0 -3.3345654419832276e-05 -7.2586387342161762e-05 0 -4.0143919755629086e-05 -6.433972313310355e-05 0 -4.384249791974291e-05 -2.4105850829557156e-05 0 -4.4560198414106075e-05 -2.6702461589494749e-05 0 -4.0567113569313045e-05 -1.9622692560879365e-05 0 -4.1423694648514213e-05 -2.2629846782317449e-05 0 -4.0567113569313045e-05 -1.9622692560879365e-05 0 -4.4560198414106075e-05 -2.6702461589494749e-05 0 -1.5816996328289151e-05 5.0086450869318718e-06 0 -1.7526579120267235e-05 3.2616341429669273e-06 0 -1.267257924150897e-05 2.8640677228390834e-06 0 -7.5016018989819511e-05 0.0001363314036749993 0 -5.2301365366116457e-05 0.00012733174078680411 0 -6.2437777469631276e-05 0.00016064919918131902 0 -9.6346993856736901e-05 -8.765553964235153e-05 0 -8.7440032339861884e-05 -9.0810054227303996e-05 0 -8.0541616584097243e-05 -7.6938940448457852e-05 0 -1.8314379028446353e-05 2.096477239554363e-05 0 -2.7649140708010848e-05 2.0909499425647271e-05 0 -1.8310738426914463e-05 1.4121919708413151e-05 0 -2.382901370882826e-05 1.2555695686962796e-05 0 -1.8310738426914463e-05 1.4121919708413151e-05 0 -2.7649140708010848e-05 2.0909499425647271e-05 0 -9.5286639671704707e-06 3.9409484642569833e-06 0 -1.0887112325086401e-05 4.0322064814771551e-06 0 -1.1243536836438036e-05 6.8230568538703992e-06 0 -4.5641794416837427e-05 -4.2194424524338781e-05 0 -4.5855804146353436e-05 -4.5806479573128816e-05 0 -4.2217968589510768e-05 -4.1391049855114182e-05 0 -4.3745307815833331e-05 -4.703581563600434e-05 0 -4.2217968589510768e-05 -4.1391049855114182e-05 0 -4.5855804146353436e-05 -4.5806479573128816e-05 0 -0.0001220833652703255 7.9555346215955922e-05 0 -0.00010718603466105956 5.8250047310109057e-05 0 -9.555916378957378e-05 6.2589190721867261e-05 0 -6.8478863307509672e-05 -3.7986281041648062e-05 0 -7.6630596453139242e-05 -4.7885665036257082e-05 0 -6.3530613130642133e-05 -3.9472675863759202e-05 0 -2.8488241999708309e-09 -4.8532084595154843e-10 0 -2.4329330970480558e-09 -3.8192170541320314e-10 0 -2.2878261632601912e-06 -7.001561113604641e-07 0 -2.6070569015877402e-09 2.2960908471658218e-10 0 -2.9092244306785471e-09 2.0480063379203467e-10 0 -2.5594864340606318e-06 2.6416273526929059e-07 0 -1.3810239029250232e-05 8.9791234780899659e-06 0 -1.0585295192981964e-05 5.6217084101110813e-06 0 -1.1942383890614584e-05 8.8240239146739458e-06 0 -1.2750174577736758e-05 5.7449811504225937e-06 0 -1.1243536836438036e-05 6.8230568538703992e-06 0 -1.0887112325086401e-05 4.0322064814771551e-06 0 -9.5286639671704707e-06 3.9409484642569833e-06 0 -1.0585295192981966e-05 5.6217084101110804e-06 0 -9.1636994572899971e-06 3.6481809497492395e-06 0 -1.6927452731757827e-05 1.1692713679761889e-06 0 -2.2739879157482441e-05 3.3619196122669623e-06 0 -1.7670205425769828e-05 2.2753395693304821e-06 0 -1.3856321115402461e-05 -3.6741326878563967e-06 0 -1.376274535260323e-05 -4.3874808234033108e-06 0 -1.7781276544850785e-05 -5.7605812442885093e-06 0 -3.4840025481065295e-05 0.00015774480646461468 0 -2.827073596949096e-05 0.00012119756284923868 0 -1.2155394375082753e-05 0.00014603886608990978 0 -1.6927452731757827e-05 1.1692713679761889e-06 0 -1.7670205425769825e-05 2.2753395693304817e-06 0 -1.3029708474505294e-05 5.5230821768505287e-07 0 -1.3856321115402461e-05 -3.6741326878563967e-06 0 -1.0523490284423355e-05 -2.673742280635364e-06 0 -1.376274535260323e-05 -4.3874808234033108e-06 0 -5.1972321946606476e-05 -4.2449037365735993e-05 0 -5.4085503264123525e-05 -4.633635320514702e-05 0 -5.1465001430435363e-05 -4.633660372455298e-05 0 -4.3776498264487703e-05 8.8319299131457403e-05 0 -2.7144515008463345e-05 5.5771482467972351e-05 0 -2.189887118382647e-05 8.9399566946719161e-05 0 -9.6805478950034895e-06 2.7034203922934877e-06 0 -9.1636994572899971e-06 3.6481809497492395e-06 0 -1.0585295192981966e-05 5.6217084101110813e-06 0 -3.8514969940510231e-05 -4.0445109167449653e-05 0 -3.4479271592655015e-05 -3.6530311780008167e-05 0 -3.7214327746939329e-05 -3.4745416060419299e-05 0 -4.3908664623861229e-09 -4.1442670583882301e-10 0 -3.4955308998627361e-09 -6.7818940438757538e-10 0 -3.4037213954463257e-06 -1.002548838843319e-06 0 -3.3253812115453886e-09 1.9611461479542667e-10 0 -3.8787887161738228e-09 -6.6311953648167714e-11 0 -3.1934715796605238e-06 -1.9578172913222991e-08 0 -2.8811599514033055e-05 -1.2039043156531433e-05 0 -3.6177930070820459e-05 -1.5107400574867142e-05 0 -2.9475639374637858e-05 -1.1448665688576114e-05 0 -5.0406118976964895e-05 1.5328797281061144e-05 0 -3.8932877581774495e-05 1.1385587477259228e-05 0 -4.0637733520486624e-05 1.0312878335551849e-05 0 -4.1093198319363516e-05 -3.2815277926377364e-05 0 -4.4775782738322709e-05 -2.9754866484677533e-05 0 -4.8764798227406749e-05 -3.7685342081502823e-05 0 -2.4001234531435091e-05 -6.3060132272219188e-05 0 -3.1476899118186325e-05 -5.7374173642440023e-05 0 -3.3345654419832269e-05 -7.2586387342161749e-05 0 -2.6341887385713336e-05 -7.4031461058983828e-06 0 -2.6138802902462539e-05 -1.0811868341860598e-05 0 -3.0806883849175458e-05 -1.3573143795956554e-05 0 -1.4441386234151701e-05 -8.4415708215916844e-08 0 -1.4243856425000871e-05 2.898741208819597e-06 0 -1.1767765737392505e-05 1.5241206232740943e-06 0 -1.7088335037041624e-05 -5.0061465047320237e-08 0 -1.4243856425000871e-05 2.898741208819597e-06 0 -1.4441386234151701e-05 -8.4415708215916844e-08 0 -1.2483311011700615e-05 1.07748883507636e-05 0 -1.3681815137620575e-05 1.3795117765924304e-05 0 -1.1942383890614584e-05 8.8240239146739458e-06 0 -1.3810239029250232e-05 8.9791234780899659e-06 0 -1.1942383890614584e-05 8.8240239146739458e-06 0 -1.3681815137620575e-05 1.3795117765924304e-05 0 -4.3583655080644107e-05 -5.0597343096252997e-05 0 -4.6224598608242907e-05 -5.4166396949917837e-05 0 -4.3761185847301649e-05 -5.3800074177764056e-05 0 -5.1579038009432524e-05 -3.3075619247587376e-05 0 -4.8160761223460222e-05 -3.0428994401047725e-05 0 -4.6414098895460661e-05 -2.708102886530335e-05 0 -2.8329200906923004e-05 -1.5729126071400394e-05 0 -2.9226318959417781e-05 -2.1311380281833109e-05 0 -3.3895493199199254e-05 -1.9512421087132996e-05 0 -3.0380038447250568e-05 -2.7548216092851361e-05 0 -3.3895493199199254e-05 -1.9512421087132996e-05 0 -2.9226318959417781e-05 -2.1311380281833109e-05 0 -2.1724917806086161e-05 -9.4990942412681622e-06 0 -2.8811599514033058e-05 -1.2039043156531435e-05 0 -2.4310536318092783e-05 -9.4509349691809624e-06 0 -3.8932877581774495e-05 1.1385587477259228e-05 0 -2.8480409630102762e-05 8.641036077077929e-06 0 -3.2678347658070017e-05 7.9785173329822513e-06 0 -4.8505096131486584e-05 -6.0048269249638249e-05 0 -4.5861131070443683e-05 -5.9821187347862852e-05 0 -4.7423224458363364e-05 -5.7406400468699305e-05 0 -2.7649140708010848e-05 2.0909499425647271e-05 0 -2.6040601935067865e-05 2.8139768925003455e-05 0 -3.6551918411982705e-05 3.1951704758182381e-05 0 -7.3808225229987669e-06 1.2271122487185446e-06 0 -8.0428083118730611e-06 2.3573509397861466e-06 0 -6.5815253467400788e-06 1.2117338303712296e-06 0 -7.363532826204357e-06 -4.6119660140771585e-07 0 -1.1362338055337056e-05 -2.52267199855832e-07 0 -1.3029708474505294e-05 5.5230821768505287e-07 0 -6.0655219232898324e-06 -1.0937405037795137e-06 0 -1.0523490284423355e-05 -2.673742280635364e-06 0 -9.6087991570226874e-06 -1.9489867223939591e-06 0 -8.0697626514727074e-06 -3.9319191502083939e-07 0 -7.8739201481907238e-06 -5.578884868677583e-07 0 -9.9414577168203971e-06 -1.3074214496913347e-06 0 -2.6341887385713336e-05 -7.4031461058983828e-06 0 -2.8435020790127088e-05 -6.6125256236477567e-06 0 -2.4631072466577144e-05 -1.9286121937743225e-06 0 -3.8696999875941453e-05 -4.4871656867856099e-05 0 -4.0406429902948024e-05 -4.5087993975068686e-05 0 -4.1374320264450648e-05 -4.9298592192928397e-05 0 -1.1748756553441844e-05 -2.2296956362339529e-06 0 -9.9414577168203954e-06 -1.3074214496913345e-06 0 -7.8739201481907238e-06 -5.578884868677583e-07 0 -0.00016694939009579286 0.00023365479244212729 0 -0.00013342275103013395 0.00021551900380948914 0 -0.00014240505624556484 0.00024684447231811769 0 -2.7794091945911698e-05 -0.0001098595871345214 0 -4.0201600620726091e-05 -0.00010493349314559136 0 -3.9648528081927874e-05 -0.00011931738524154272 0 -2.5924284988085717e-05 -9.4116540926008336e-05 0 -3.6145608867393204e-05 -8.9677319516246932e-05 0 -4.0201600620726091e-05 -0.00010493349314559136 0 -3.6914389834161221e-05 -1.6121253827778065e-05 0 -3.3507593383612499e-05 -9.9017441706594282e-06 0 -3.6067580369597228e-05 -1.3797777976932908e-05 0 -5.1579038009432524e-05 -3.3075619247587376e-05 0 -5.1856264646234892e-05 -3.5620737900667674e-05 0 -4.8160761223460222e-05 -3.0428994401047725e-05 0 -1.4833557144211075e-05 -3.3306152547416506e-06 0 -1.9247724054306258e-05 -6.8577867033765472e-06 0 -1.6999255689838647e-05 -4.0530299954377488e-06 0 -3.0533167483410421e-05 -6.5287922661106748e-06 0 -2.4631072466577144e-05 -1.9286121937743225e-06 0 -2.8435020790127088e-05 -6.6125256236477558e-06 0 -6.8274001967111514e-06 0.00034603280851174217 0 -2.5497655571039816e-05 0.00036369021797705308 0 -3.6010780979150547e-05 0.00035093273869478474 0 -0.00010687960349393425 -0.0001772704961300061 0 -9.8141955507041417e-05 -0.00018287112969805758 0 -9.2207246314959538e-05 -0.00017564086854387239 0 -3.8263400420686093e-05 -0.00017020686790128378 0 -5.0035972982835568e-05 -0.00017311132672216776 0 -4.6040710402896502e-05 -0.00017857406721552462 0 -0.00017066834274031799 0.0003601851064231426 0 -0.00013764964399533389 0.00035657911781178316 0 -0.00015099459384188425 0.00037283517969383074 0 -1.7790381732668788e-05 -2.7444598699231458e-06 0 -1.4337235149537119e-05 -1.7671433421928227e-06 0 -1.6999255689838647e-05 -4.0530299954377488e-06 0 -1.4833557144211075e-05 -3.3306152547416506e-06 0 -1.6999255689838647e-05 -4.0530299954377488e-06 0 -1.4337235149537119e-05 -1.7671433421928227e-06 0 -2.2976278953730247e-05 -1.1832518888420381e-05 0 -1.9247724054306258e-05 -6.8577867033765463e-06 0 -2.0033603434665693e-05 -8.3697873891507801e-06 0 -5.9329793189094776e-05 2.4509781915048136e-05 0 -6.1016936112082314e-05 2.1413965561561332e-05 0 -4.6152961834755838e-05 1.4955947320733002e-05 0 -4.9521303203677364e-05 1.4278599099633207e-05 0 -4.6152961834755838e-05 1.4955947320733002e-05 0 -6.1016936112082314e-05 2.1413965561561332e-05 0 -2.382901370882826e-05 1.2555695686962796e-05 0 -2.8493484990518903e-05 1.0942871249609309e-05 0 -2.0931649784699856e-05 7.1719087936941282e-06 0 -2.5373061353108662e-05 -1.2454717272182328e-05 0 -1.9965856875147866e-05 -7.8333865301862806e-06 0 -2.1619344753791769e-05 -8.3348528313661962e-06 0 -2.8329200906923004e-05 -1.5729126071400394e-05 0 -2.6630942054203557e-05 -1.7398133304793702e-05 0 -2.9226318959417781e-05 -2.1311380281833109e-05 0 -1.3856321115402461e-05 -3.6741326878563967e-06 0 -1.1105905504376158e-05 -2.1733343575249991e-06 0 -9.6087991570226874e-06 -1.9489867223939591e-06 0 -6.6731963202556533e-06 -7.9890395151226882e-07 0 -9.6087991570226874e-06 -1.9489867223939591e-06 0 -1.110590550437616e-05 -2.1733343575249995e-06 0 -7.4203917334708331e-06 -9.7171484202496841e-07 0 -1.2071513899848958e-05 -1.6055360379301465e-07 0 -1.1362338055337057e-05 -2.5226719985583185e-07 0 -1.6927452731757827e-05 1.1692713679761889e-06 0 -1.1362338055337056e-05 -2.5226719985583206e-07 0 -1.2071513899848958e-05 -1.6055360379301465e-07 0 -7.7109135723795683e-05 -8.6740012047226619e-05 0 -8.4676408328337668e-05 -0.00010212182241742598 0 -7.2768418045639818e-05 -9.5404465932830197e-05 0 -7.4497969576853987e-05 -0.00010902095647627508 0 -7.2768418045639818e-05 -9.5404465932830197e-05 0 -8.4676408328337668e-05 -0.00010212182241742598 0 -3.0859641934300024e-06 -1.0139423177887082e-06 0 -2.2878261632601912e-06 -7.001561113604641e-07 0 -5.3247220099785955e-06 -8.4036143429155732e-07 0 -3.777526911810479e-06 -5.7329826928060036e-07 0 -5.3247220099785955e-06 -8.4036143429155732e-07 0 -2.2878261632601912e-06 -7.001561113604641e-07 0 -4.5774762643051039e-06 1.9647817677969173e-07 0 -2.5594864340606318e-06 2.6416273526929059e-07 0 -5.542336348296833e-06 -7.4230621580849164e-08 0 -3.1497162917144092e-06 1.5769778841148759e-07 0 -5.542336348296833e-06 -7.4230621580849164e-08 0 -2.5594864340606318e-06 2.6416273526929059e-07 0 -8.1987228264369184e-05 0.00028278998064922283 0 -6.238376539572216e-05 0.00026394878954537593 0 -6.0012942471287618e-05 0.00029471464595327883 0 -6.772950664790187e-05 -0.00014131367270339259 0 -7.486180611530431e-05 -0.00013340130729909639 0 -7.809181345508001e-05 -0.00014804813929779204 0 -1.3394045724260118e-05 -3.0669604248675778e-06 0 -1.0370873845677664e-05 -1.752994724013155e-06 0 -1.110590550437616e-05 -2.1733343575249995e-06 0 -1.2845901036025581e-05 1.0078541859029749e-06 0 -1.2071513899848958e-05 -1.6055360379301465e-07 0 -1.0099409413757138e-05 -1.1850183970160228e-07 0 -2.5373061353108662e-05 -1.2454717272182328e-05 0 -2.5970856706573419e-05 -1.5091746829389194e-05 0 -2.203404272099595e-05 -1.0354253672586591e-05 0 -1.3856321115402461e-05 -3.6741326878563967e-06 0 -1.5630004294445399e-05 -4.1678451154914583e-06 0 -1.110590550437616e-05 -2.1733343575249995e-06 0 -1.6927452731757827e-05 1.1692713679761889e-06 0 -1.2071513899848958e-05 -1.6055360379301465e-07 0 -1.7416680798175569e-05 1.4912476506964049e-06 0 -3.0380038447250568e-05 -2.7548216092851361e-05 0 -3.7627105001773075e-05 -2.12675630209826e-05 0 -3.3895493199199254e-05 -1.9512421087132996e-05 0 -1.4833557144211075e-05 -3.3306152547416506e-06 0 -1.7135035912179156e-05 -5.588041130712644e-06 0 -1.9247724054306258e-05 -6.8577867033765472e-06 0 -4.8427083697665507e-09 -1.0450192279137714e-09 0 -4.3908664623861229e-09 -4.1442670583882301e-10 0 -3.6076998751720073e-06 -7.3914692255007177e-07 0 -3.8787887161738228e-09 -6.6311953648167714e-11 0 -4.0388097377904349e-09 3.1517828346776171e-10 0 -3.13839952088929e-06 -2.5238888900313036e-07 0 -1.8314379028446353e-05 2.096477239554363e-05 0 -1.8310738426914463e-05 1.4121919708413151e-05 0 -1.3681815137620575e-05 1.3795117765924304e-05 0 -4.861665060131525e-05 -5.4395351054331387e-05 0 -4.980040695281684e-05 -5.7440270555866236e-05 0 -4.7423224458363364e-05 -5.7406400468699305e-05 0 -2.5373061353108662e-05 -1.2454717272182328e-05 0 -2.6554020235184303e-05 -1.1748276352093768e-05 0 -3.1270389668807709e-05 -1.6215046388688446e-05 0 -4.0143919755629086e-05 -6.433972313310355e-05 0 -3.3345654419832269e-05 -7.2586387342161749e-05 0 -3.1476899118186325e-05 -5.7374173642440023e-05 0 -1.7790381732668788e-05 -2.7444598699231458e-06 0 -1.4441386234151701e-05 -8.4415708215916844e-08 0 -1.4337235149537119e-05 -1.7671433421928227e-06 0 -2.2633156469003683e-05 -8.8778801416874367e-06 0 -1.9721318569887334e-05 -5.778530516706583e-06 0 -1.9247724054306258e-05 -6.8577867033765472e-06 0 -1.1601645258827655e-05 1.2898759153938751e-06 0 -1.7082685653721987e-05 4.1129255115868616e-06 0 -8.2339734983951202e-06 1.9768923337895382e-06 0 -9.101177855360449e-06 -2.85656719125734e-06 0 -6.4155920762904219e-06 -2.6933979045770119e-06 0 -1.3171836855671614e-05 -5.3933067133755505e-06 0 -3.0104253838911467e-05 -2.0993128843515674e-05 0 -2.9992827480237112e-05 -2.4148421076916133e-05 0 -2.6630942054203557e-05 -1.7398133304793702e-05 0 -1.1767765737392505e-05 1.5241206232740943e-06 0 -1.1607948570069639e-05 -1.3848281585624718e-07 0 -1.4441386234151701e-05 -8.4415708215916844e-08 0 -1.8190831647811063e-05 -6.6688354527532756e-06 0 -1.9965856875147866e-05 -7.8333865301862806e-06 0 -2.203404272099595e-05 -1.0354253672586591e-05 0 -4.2245469274074135e-05 -1.9943145159696731e-05 0 -4.4184509349749596e-05 -2.4334636399962768e-05 0 -3.685875767342919e-05 -1.8686396410980454e-05 0 -0.00016261198590301356 0.00020010320119790388 0 -0.0001348844368877744 0.00018511230402697495 0 -0.00013342275103013395 0.00021551900380948914 0 -3.0104253838911467e-05 -2.0993128843515674e-05 0 -3.0648351452260864e-05 -1.8291073478100325e-05 0 -3.5773202620315191e-05 -2.4484342322624225e-05 0 -3.6067580369597228e-05 -1.3797777976932908e-05 0 -4.0567113569313045e-05 -1.9622692560879365e-05 0 -3.8764870515076205e-05 -1.8188166947693804e-05 0 -2.5373061353108662e-05 -1.2454717272182328e-05 0 -3.1270389668807709e-05 -1.6215046388688446e-05 0 -3.0648351452260864e-05 -1.8291073478100325e-05 0 -1.4337235149537119e-05 -1.7671433421928227e-06 0 -1.4441386234151701e-05 -8.4415708215916844e-08 0 -1.1607948570069639e-05 -1.3848281585624718e-07 0 -4.384249791974291e-05 -2.4105850829557156e-05 0 -4.6414098895460661e-05 -2.708102886530335e-05 0 -4.8160761223460222e-05 -3.0428994401047725e-05 0 -1.8314379028446353e-05 2.096477239554363e-05 0 -1.2773855126899019e-05 2.216791572851612e-05 0 -1.8795767269902709e-05 3.1073905419689465e-05 0 -2.5373061353108662e-05 -1.2454717272182328e-05 0 -2.1619344753791769e-05 -8.3348528313661962e-06 0 -2.6554020235184303e-05 -1.1748276352093768e-05 0 -0.00016949711237616304 0.000266815138908654 0 -0.00016694939009579286 0.00023365479244212729 0 -0.00014240505624556484 0.00024684447231811769 0 -2.7794091945911698e-05 -0.0001098595871345214 0 -3.9648528081927874e-05 -0.00011931738524154272 0 -3.0100949527592387e-05 -0.00012563098781233437 0 -2.454650562134011e-05 -7.8529317369328158e-05 0 -3.6145608867393204e-05 -8.9677319516246932e-05 0 -2.5924284988085717e-05 -9.4116540926008336e-05 0 -4.4066141654108224e-05 2.6997096191861109e-05 0 -6.0403353041216538e-05 3.2344393126202267e-05 0 -4.954761126540993e-05 2.2149875907429247e-05 0 -9.3968749648819392e-06 -1.9568069465381332e-07 0 -2.0585579549682764e-05 9.6364296169574323e-06 0 -2.0945666784133845e-05 -9.3815454097800231e-06 0 -4.2245469274074135e-05 -1.9943145159696731e-05 0 -4.3030791606132932e-05 -1.8879638168132989e-05 0 -4.9340307313567028e-05 -2.323253686130883e-05 0 -5.9329793189094776e-05 2.4509781915048136e-05 0 -7.1743076881015613e-05 2.9116962145530647e-05 0 -6.1016936112082314e-05 2.1413965561561332e-05 0 -4.2245469274074135e-05 -1.9943145159696731e-05 0 -4.9340307313567028e-05 -2.323253686130883e-05 0 -5.1358106008463941e-05 -2.6576144382751456e-05 0 -5.9329793189094776e-05 2.4509781915048136e-05 0 -7.4260322512023026e-05 3.5806448489583324e-05 0 -7.1743076881015613e-05 2.9116962145530647e-05 0 -9.101177855360449e-06 -2.85656719125734e-06 0 -4.4606898169434446e-06 -1.154275958472823e-06 0 -6.4155920762904219e-06 -2.6933979045770119e-06 0 -1.1601645258827655e-05 1.2898759153938751e-06 0 -8.2339734983951202e-06 1.9768923337895382e-06 0 -5.627574005889386e-06 1.6085052572375507e-07 0 -2.2633156469003683e-05 -8.8778801416874367e-06 0 -2.4938448255987475e-05 -1.3056493914285331e-05 0 -2.6138802902462539e-05 -1.0811868341860598e-05 0 -2.8329200906923004e-05 -1.5729126071400394e-05 0 -2.6138802902462539e-05 -1.0811868341860598e-05 0 -2.4938448255987475e-05 -1.3056493914285331e-05 0 -6.0417861041959955e-05 -5.0555096118302424e-05 0 -5.936672435925777e-05 -5.0415521308298339e-05 0 -5.6222489482189798e-05 -4.5309406903286425e-05 0 -3.0800073594441118e-05 -3.3363703669702184e-05 0 -3.2403405666954653e-05 -3.5822263294211415e-05 0 -3.5157929568474043e-05 -4.0034066681475462e-05 0 -1.478160138988725e-05 -1.2458980041666719e-05 0 -2.0945666784133845e-05 -9.3815454097800231e-06 0 -2.2608149902053638e-05 -1.9012651227714563e-05 0 -2.7462589591122502e-05 -2.9258358481630414e-05 0 -2.8868418014571957e-05 -3.0635477223665425e-05 0 -3.2403405666954653e-05 -3.5822263294211415e-05 0 -5.834738644603838e-05 -4.5320001234297339e-05 0 -5.6222489482189798e-05 -4.5309406903286425e-05 0 -5.4455176892093597e-05 -4.0624905736088136e-05 0 -2.5373061353108662e-05 -1.2454717272182328e-05 0 -2.203404272099595e-05 -1.0354253672586591e-05 0 -1.9965856875147866e-05 -7.8333865301862806e-06 0 -2.2976278953730247e-05 -1.1832518888420381e-05 0 -2.6630942054203557e-05 -1.7398133304793702e-05 0 -2.4938448255987475e-05 -1.3056493914285331e-05 0 -2.8329200906923004e-05 -1.5729126071400394e-05 0 -2.4938448255987475e-05 -1.3056493914285331e-05 0 -2.6630942054203557e-05 -1.7398133304793702e-05 0 -1.7790381732668788e-05 -2.7444598699231458e-06 0 -2.2283827406913058e-05 -6.3230728284682692e-06 0 -2.1254080389682734e-05 -2.6100066665995759e-06 0 -0.00016261198590301356 0.00020010320119790388 0 -0.00015597924490944238 0.00016665673751361159 0 -0.0001348844368877744 0.00018511230402697495 0 -3.0533167483410421e-05 -6.5287922661106748e-06 0 -2.8435020790127088e-05 -6.612525623647755e-06 0 -3.2172551949261594e-05 -1.0880044624861348e-05 0 -3.4161459013535867e-05 4.2362097421149244e-05 0 -2.6040601935067865e-05 2.8139768925003455e-05 0 -1.8795767269902709e-05 3.1073905419689465e-05 0 -1.8314379028446353e-05 2.096477239554363e-05 0 -1.8795767269902709e-05 3.1073905419689465e-05 0 -2.6040601935067865e-05 2.8139768925003455e-05 0 -2.4001234531435091e-05 -6.3060132272219188e-05 0 -3.3345654419832269e-05 -7.2586387342161749e-05 0 -2.454650562134011e-05 -7.8529317369328158e-05 0 -9.1590913861074605e-05 4.1649783306065221e-05 0 -7.1743076881015613e-05 2.9116962145530647e-05 0 -7.4260322512023026e-05 3.5806448489583324e-05 0 -6.0037787745728533e-05 -2.9951943521760781e-05 0 -5.1358106008463941e-05 -2.6576144382751456e-05 0 -4.9340307313567028e-05 -2.323253686130883e-05 0 -2.6341887385713336e-05 -7.4031461058983828e-06 0 -3.2172551949261588e-05 -1.0880044624861346e-05 0 -2.8435020790127088e-05 -6.6125256236477558e-06 0 -0.00010154660054045969 0.00021425644242022173 0 -0.00013342275103013395 0.00021551900380948914 0 -0.00011409468196920323 0.00019057907889446111 0 -0.00010154660054045969 0.00021425644242022173 0 -0.00012045896553428424 0.00023698026330739273 0 -0.00013342275103013395 0.00021551900380948914 0 -5.2634899955402753e-05 -0.00010682737750493379 0 -4.7628474320522189e-05 -0.00011634309957311682 0 -4.0201600620726091e-05 -0.00010493349314559136 0 -5.2634899955402753e-05 -0.00010682737750493379 0 -4.0201600620726091e-05 -0.00010493349314559136 0 -4.5134169931700769e-05 -9.5779472792756286e-05 0 -3.0100949527592387e-05 -0.00012563098781233437 0 -4.0556736031894134e-05 -0.00013329546272630569 0 -3.2878933449418976e-05 -0.00014136897824259788 0 -0.00017050723965497189 0.0002991673991847203 0 -0.00016949711237616304 0.000266815138908654 0 -0.0001469524983667127 0.00027616006556326067 0 -8.2112401413319701e-06 -8.8761868987066327e-07 0 -6.6793099775830914e-06 -5.2895990427362273e-07 0 -1.0370873845677666e-05 -1.752994724013155e-06 0 -7.4702582805845558e-06 -6.5622452587971655e-07 0 -1.0099409413757138e-05 -1.1850183970160228e-07 0 -6.4337423619026311e-06 -1.1260774915871657e-06 0 -5.2634899955402753e-05 -0.00010682737750493379 0 -6.105536351024971e-05 -0.00010821326655953198 0 -5.6394210589544571e-05 -0.00012057262632466297 0 -5.2634899955402753e-05 -0.00010682737750493379 0 -5.2963381734273234e-05 -9.438742425633696e-05 0 -6.105536351024971e-05 -0.00010821326655953198 0 -6.7203393737097844e-05 -0.00012348160422809935 0 -5.6394210589544571e-05 -0.00012057262632466297 0 -6.105536351024971e-05 -0.00010821326655953198 0 -6.2782431865736094e-05 -9.4559700454190419e-05 0 -6.105536351024971e-05 -0.00010821326655953198 0 -5.2963381734273234e-05 -9.438742425633696e-05 0 -0.00010154660054045969 0.00021425644242022173 0 -8.0336848698774722e-05 0.00021601941003759233 0 -0.00010109379701100087 0.00024431218359728842 0 -7.6142938713795582e-05 0.0002435760320919678 0 -0.00010109379701100087 0.00024431218359728842 0 -8.0336848698774722e-05 0.00021601941003759233 0 -3.8787887161738228e-09 -6.6311953648167714e-11 0 -3.13839952088929e-06 -2.5238888900313036e-07 0 -3.1934715796605238e-06 -1.9578172913222991e-08 0 -4.3908664623861229e-09 -4.1442670583882301e-10 0 -3.4037213954463257e-06 -1.002548838843319e-06 0 -3.6076998751720073e-06 -7.3914692255007177e-07 0 -6.7452263310896609e-05 -5.0353001979418342e-05 0 -5.5963765875201203e-05 -3.8827673609018878e-05 0 -6.3530613130642133e-05 -3.9472675863759202e-05 0 -0.00010020067779810763 8.4840519190382114e-05 0 -9.555916378957378e-05 6.2589190721867261e-05 0 -8.0810091863734414e-05 6.0528917483115029e-05 0 -2.9695102342889835e-05 -1.1632695854997828e-05 0 -3.6836108281555696e-05 -1.5722266712611069e-05 0 -3.4562422915916397e-05 -1.5323393793678773e-05 0 -9.835420148404037e-06 -1.6921738931330047e-07 0 -1.1679378317646444e-05 -1.3147974693661591e-06 0 -1.1607948570069639e-05 -1.3848281585624718e-07 0 -4.537537226512925e-05 -5.6263490783932801e-05 0 -4.3761185847301649e-05 -5.3800074177764056e-05 0 -4.6224598608242907e-05 -5.4166396949917837e-05 0 -3.0728956014435538e-05 6.1849925978922224e-06 0 -3.6991146763216074e-05 8.656615459931896e-06 0 -4.0637733520486624e-05 1.0312878335551849e-05 0 -4.9521303203677364e-05 1.4278599099633207e-05 0 -4.0637733520486624e-05 1.0312878335551849e-05 0 -3.6991146763216074e-05 8.656615459931896e-06 0 -5.8230297893539187e-06 6.2331459424512649e-07 0 -5.2266000051829049e-06 -1.2309631498036716e-07 0 -3.9708834176433561e-06 -1.7384304641344818e-07 0 -1.9695872211536435e-05 -1.9634783452417574e-05 0 -2.6870922254532595e-05 -2.6313829820355626e-05 0 -2.3691060050729564e-05 -2.4796049696080839e-05 0 -6.0037787745728533e-05 -2.9951943521760781e-05 0 -5.9321123266971856e-05 -3.2963181568407922e-05 0 -5.1358106008463941e-05 -2.6576144382751456e-05 0 -9.1590913861074605e-05 4.1649783306065221e-05 0 -7.4260322512023012e-05 3.5806448489583317e-05 0 -8.8846627194128498e-05 4.7997349835270143e-05 0 -3.9763846402227093e-05 -2.3118626106414704e-05 0 -4.1415207908615585e-05 -2.1423070265610745e-05 0 -3.7627105001773075e-05 -2.12675630209826e-05 0 -1.6927452731757827e-05 1.1692713679761889e-06 0 -1.7416680798175569e-05 1.4912476506964049e-06 0 -2.4754487043556595e-05 3.7576964780008053e-06 0 -2.1611573367815063e-05 3.7320760163583962e-06 0 -2.4754487043556595e-05 3.7576964780008057e-06 0 -1.7416680798175569e-05 1.4912476506964049e-06 0 -4.3776498264487703e-05 8.8319299131457403e-05 0 -3.9432621637903979e-05 6.1811787905116403e-05 0 -2.7144515008463345e-05 5.5771482467972351e-05 0 -3.8932877581774495e-05 1.1385587477259228e-05 0 -3.2678347658070017e-05 7.9785173329822513e-06 0 -4.0637733520486624e-05 1.0312878335551849e-05 0 -2.8811599514033055e-05 -1.2039043156531433e-05 0 -2.9475639374637858e-05 -1.1448665688576114e-05 0 -2.4310536318092783e-05 -9.4509349691809624e-06 0 -4.5641794416837427e-05 -4.2194424524338781e-05 0 -4.4852069585517466e-05 -3.7896436475821792e-05 0 -4.8680188119751284e-05 -4.241853681439657e-05 0 -4.7395625983631497e-05 -3.7597394594698157e-05 0 -4.8680188119751284e-05 -4.241853681439657e-05 0 -4.4852069585517466e-05 -3.7896436475821792e-05 0 -1.7790381732668788e-05 -2.7444598699231458e-06 0 -1.7088335037041624e-05 -5.0061465047320237e-08 0 -1.4441386234151701e-05 -8.4415708215916844e-08 0 -2.382901370882826e-05 1.2555695686962796e-05 0 -2.0931649784699856e-05 7.1719087936941273e-06 0 -1.7293107556463334e-05 8.3191925511346855e-06 0 -9.5286639671704707e-06 3.9409484642569833e-06 0 -9.3366987687723794e-06 2.3466256029388615e-06 0 -1.0887112325086401e-05 4.0322064814771551e-06 0 -3.4161459013535867e-05 4.2362097421149244e-05 0 -2.7144515008463345e-05 5.5771482467972351e-05 0 -3.9432621637903979e-05 6.1811787905116403e-05 0 -4.2245469274074135e-05 -1.9943145159696731e-05 0 -3.685875767342919e-05 -1.8686396410980454e-05 0 -3.4562422915916397e-05 -1.5323393793678773e-05 0 -1.8190831647811063e-05 -6.6688354527532756e-06 0 -1.4807609804866802e-05 -3.9321857395275502e-06 0 -1.538442238022494e-05 -4.3748611163467653e-06 0 8.4569025925003504e-06 0.00012261652134140289 0 9.2175291316366928e-06 0.00015566682173437523 0 -1.2155394375082753e-05 0.00014603886608990978 0 -0.00010061715135690031 -0.00010314647785853461 0 -8.4676408328337668e-05 -0.00010212182241742598 0 -8.7440032339861884e-05 -9.0810054227303996e-05 0 -9.1590913861074605e-05 4.1649783306065221e-05 0 -7.6588654489993864e-05 2.9887187496901692e-05 0 -7.1743076881015613e-05 2.9116962145530647e-05 0 -5.1695828121201759e-05 -2.3787370243757993e-05 0 -6.0037787745728533e-05 -2.9951943521760781e-05 0 -4.9340307313567028e-05 -2.323253686130883e-05 0 -2.4631072466577144e-05 -1.9286121937743225e-06 0 -2.7542805345573227e-05 -1.3966374429021635e-06 0 -2.1335414264358709e-05 3.6984746556702461e-06 0 -1.6927452731757827e-05 1.1692713679761889e-06 0 -2.4754487043556595e-05 3.7576964780008053e-06 0 -2.2739879157482441e-05 3.3619196122669623e-06 0 -3.0728956014435538e-05 6.1849925978922224e-06 0 -2.2739879157482441e-05 3.3619196122669623e-06 0 -2.4754487043556595e-05 3.7576964780008053e-06 0 -1.2483311011700615e-05 1.07748883507636e-05 0 -1.3166945080074411e-05 1.5428376239092712e-05 0 -1.3681815137620575e-05 1.3795117765924304e-05 0 -8.860552040983813e-05 -0.00011885199377119155 0 -8.4676408328337668e-05 -0.00010212182241742598 0 -9.4429084707744915e-05 -0.0001109537374201564 0 -5.1571272942588593e-05 -3.7324948883700811e-05 0 -4.984897180504998e-05 -3.7406762165089159e-05 0 -4.8304527200195856e-05 -3.2530839999244968e-05 0 4.074047000533478e-06 0.00025338521745944548 0 6.9273705792104363e-07 0.00028554741266120895 0 -1.8354817631858642e-05 0.00027054423074189635 0 -0.00010574036470103672 -0.00013442331213313146 0 -0.00010664535025729782 -0.00014947252102368288 0 -9.5933560111075147e-05 -0.00013977420972713232 0 -4.4066141654108224e-05 2.6997096191861109e-05 0 -3.2218646515018667e-05 1.7530084859381739e-05 0 -2.7649140708010848e-05 2.0909499425647271e-05 0 -3.0104253838911467e-05 -2.0993128843515674e-05 0 -3.493096237691612e-05 -2.8308139635696151e-05 0 -2.9992827480237112e-05 -2.4148421076916129e-05 0 -3.7137648887047373e-05 -2.1816417554554297e-05 0 -3.5773202620315191e-05 -2.4484342322624225e-05 0 -3.0648351452260864e-05 -1.8291073478100325e-05 0 -0.00016949711237616304 0.000266815138908654 0 -0.00014240505624556484 0.00024684447231811769 0 -0.0001469524983667127 0.00027616006556326067 0 -3.0100949527592387e-05 -0.00012563098781233437 0 -3.9648528081927874e-05 -0.00011931738524154272 0 -4.0556736031894134e-05 -0.00013329546272630569 0 -1.7846021236289631e-05 -5.8731335403993801e-06 0 -1.4341033631622383e-05 -3.63178972636325e-06 0 -1.7640721442491587e-05 -5.3191053557966155e-06 0 -1.8314379028446353e-05 2.096477239554363e-05 0 -2.6040601935067865e-05 2.8139768925003455e-05 0 -2.7649140708010848e-05 2.0909499425647271e-05 0 -4.2245469274074135e-05 -1.9943145159696731e-05 0 -3.6836108281555696e-05 -1.5722266712611069e-05 0 -4.3030791606132932e-05 -1.8879638168132989e-05 0 -4.6271981573533166e-05 -2.7278422134136652e-05 0 -5.1579038009432524e-05 -3.3075619247587376e-05 0 -4.6414098895460661e-05 -2.708102886530335e-05 0 -1.9471224845291881e-05 -6.1399298946234354e-06 0 -1.852093321367526e-05 -5.6922941557286921e-06 0 -2.3883621542262992e-05 -8.3319928782788888e-06 0 -9.6346993856736901e-05 -8.765553964235153e-05 0 -0.00010061715135690031 -0.00010314647785853461 0 -8.7440032339861884e-05 -9.0810054227303996e-05 0 -3.4801680298051664e-05 -1.4024530089576192e-05 0 -2.8278233024298068e-05 -1.0595913972998166e-05 0 -2.9475639374637858e-05 -1.1448665688576114e-05 0 -2.3274541831315788e-05 -8.2329657889180725e-06 0 -2.9475639374637858e-05 -1.1448665688576114e-05 0 -2.8278233024298068e-05 -1.0595913972998166e-05 0 -0.00011146589473224572 0.00016683066302358563 0 -9.0188279065132613e-05 0.00017173000522708752 0 -0.00011409468196920323 0.00019057907889446111 0 -3.0859641934300024e-06 -1.0139423177887082e-06 0 -6.4337423619026311e-06 -1.1260774915871657e-06 0 -3.4037213954463257e-06 -1.002548838843319e-06 0 -7.4203917334708331e-06 -9.7171484202496841e-07 0 -3.4037213954463257e-06 -1.002548838843319e-06 0 -6.4337423619026311e-06 -1.1260774915871657e-06 0 -6.6731963202556533e-06 -7.9890395151226882e-07 0 -6.6793099775830914e-06 -5.2895990427362273e-07 0 -3.1934715796605238e-06 -1.9578172913222991e-08 0 -3.1497162917144092e-06 1.5769778841148759e-07 0 -3.1934715796605238e-06 -1.9578172913222991e-08 0 -6.6793099775830914e-06 -5.2895990427362273e-07 0 -2.2976278953730247e-05 -1.1832518888420381e-05 0 -2.203404272099595e-05 -1.035425367258659e-05 0 -2.5970856706573419e-05 -1.5091746829389194e-05 0 -3.1385634247609455e-05 -6.3749329998336571e-06 0 -3.3507593383612499e-05 -9.9017441706594282e-06 0 -3.4557068619952759e-05 -1.4011407687654715e-05 0 -3.6914389834161221e-05 -1.6121253827778065e-05 0 -3.4557068619952759e-05 -1.4011407687654715e-05 0 -3.3507593383612499e-05 -9.9017441706594282e-06 0 -5.1579038009432524e-05 -3.3075619247587376e-05 0 -5.5527115591119235e-05 -3.9450508965865442e-05 0 -5.1856264646234892e-05 -3.5620737900667674e-05 0 -3.6914389834161221e-05 -1.6121253827778065e-05 0 -3.6067580369597228e-05 -1.3797777976932908e-05 0 -3.8764870515076205e-05 -1.8188166947693804e-05 0 -3.2403405666954653e-05 -3.5822263294211415e-05 0 -2.8868418014571957e-05 -3.0635477223665425e-05 0 -3.4479271592655015e-05 -3.6530311780008167e-05 0 -5.6222489482189798e-05 -4.5309406903286425e-05 0 -5.297531857451929e-05 -4.0716784638760379e-05 0 -5.4455176892093597e-05 -4.0624905736088136e-05 0 -6.0037787745728533e-05 -2.9951943521760781e-05 0 -6.8478863307509672e-05 -3.7986281041648062e-05 0 -5.9321123266971856e-05 -3.2963181568407922e-05 0 -0.00010718603466105956 5.8250047310109057e-05 0 -9.1590913861074605e-05 4.1649783306065221e-05 0 -8.8846627194128498e-05 4.7997349835270143e-05 0 -2.0945666784133845e-05 -9.3815454097800231e-06 0 -2.7886269728702905e-05 -1.5909152070672501e-05 0 -2.2608149902053638e-05 -1.9012651227714563e-05 0 -3.2403405666954653e-05 -3.5822263294211415e-05 0 -3.697456024895325e-05 -4.1405776831497194e-05 0 -3.5157929568474043e-05 -4.0034066681475462e-05 0 -3.7137648887047373e-05 -2.1816417554554297e-05 0 -3.685875767342919e-05 -1.8686396410980454e-05 0 -4.4184509349749596e-05 -2.4334636399962768e-05 0 -3.3568160793180611e-06 3.5548080881791531e-07 0 -1.3753530352434481e-06 2.0483430685467101e-07 0 -1.5553159511314406e-06 2.4898224201893815e-07 0 -1.5816996328289151e-05 5.0086450869318718e-06 0 -2.0931649784699856e-05 7.1719087936941282e-06 0 -1.7526579120267235e-05 3.2616341429669273e-06 0 -9.6805478950034895e-06 2.7034203922934877e-06 0 -1.267257924150897e-05 2.8640677228390834e-06 0 -1.0171795019683341e-05 1.3543962641713191e-06 0 -2.3151894913336861e-05 8.6590692258797347e-06 0 -2.7268783657030514e-05 1.3433038531074e-06 0 -2.692198247390777e-05 -3.1483259230177395e-06 0 -1.802424257299473e-05 -6.6262511747121672e-06 0 -1.376274535260323e-05 -4.3874808234033108e-06 0 -1.3171836855671614e-05 -5.3933067133755505e-06 0 -9.101177855360449e-06 -2.85656719125734e-06 0 -1.3171836855671614e-05 -5.3933067133755505e-06 0 -1.376274535260323e-05 -4.3874808234033108e-06 0 -1.1601645258827655e-05 1.2898759153938751e-06 0 -1.7670205425769828e-05 2.2753395693304821e-06 0 -1.7082685653721987e-05 4.1129255115868616e-06 0 -2.3661981449175395e-05 4.7471785463384667e-06 0 -1.7082685653721987e-05 4.1129255115868616e-06 0 -1.7670205425769828e-05 2.2753395693304821e-06 0 -8.3989441868538244e-05 -5.9558484622907628e-05 0 -9.0845797753779853e-05 -7.3071957683423021e-05 0 -7.8292330805542818e-05 -6.4303126418859604e-05 0 -4.3776498264487703e-05 8.8319299131457403e-05 0 -5.3123189791686476e-05 6.6412132859575813e-05 0 -3.9432621637903979e-05 6.1811787905116403e-05 0 -2.454650562134011e-05 -7.8529317369328158e-05 0 -3.3345654419832269e-05 -7.2586387342161749e-05 0 -3.6145608867393204e-05 -8.9677319516246932e-05 0 -4.3583655080644107e-05 -5.0597343096252997e-05 0 -4.6577607073330812e-05 -5.0804468837094422e-05 0 -4.6224598608242907e-05 -5.4166396949917837e-05 0 -1.3394045724260118e-05 -3.0669604248675778e-06 0 -1.7640721442491587e-05 -5.3191053557966155e-06 0 -1.4341033631622383e-05 -3.63178972636325e-06 0 -2.6341887385713336e-05 -7.4031461058983828e-06 0 -2.1254080389682734e-05 -2.6100066665995759e-06 0 -2.2283827406913058e-05 -6.3230728284682692e-06 0 -2.9695102342889835e-05 -1.1632695854997828e-05 0 -2.3883621542262992e-05 -8.3319928782788888e-06 0 -2.8278233024298068e-05 -1.0595913972998166e-05 0 -3.4840025481065295e-05 0.00015774480646461468 0 -1.0843752845013219e-05 0.00016761904103539788 0 -2.4084617304996015e-05 0.0001873639443632282 0 -2.2966855325754074e-09 1.6641154190511281e-10 0 -2.4323916360932494e-06 3.3963590139197243e-07 0 -1.5553159511314406e-06 2.4898224201893815e-07 0 -4.7395625983631497e-05 -3.7597394594698157e-05 0 -4.4852069585517466e-05 -3.7896436475821792e-05 0 -4.3518399034627212e-05 -3.2439320023379418e-05 0 -2.0945666784133845e-05 -9.3815454097800231e-06 0 -2.0585579549682764e-05 9.6364296169574323e-06 0 -2.692198247390777e-05 -3.1483259230177395e-06 0 -0.00014704269800731257 0.00013487091400691954 0 -0.00013517473354433788 0.00010516528967112448 0 -0.00012110139250152942 0.0001163304746248101 0 -2.6594055039961028e-06 2.5731139904874681e-07 0 -3.1890663280478386e-06 1.6583127119048405e-07 0 -1.7037441357662743e-06 3.6267973387617972e-08 0 -6.6731963202556533e-06 -7.9890395151226882e-07 0 -3.1934715796605238e-06 -1.9578172913222991e-08 0 -3.13839952088929e-06 -2.5238888900313036e-07 0 -7.4203917334708331e-06 -9.7171484202496841e-07 0 -3.6076998751720073e-06 -7.3914692255007177e-07 0 -3.4037213954463257e-06 -1.002548838843319e-06 0 -1.1767765737392505e-05 1.5241206232740943e-06 0 -9.7540030225658183e-06 9.1391379983272807e-07 0 -1.1607948570069639e-05 -1.3848281585624718e-07 0 -5.3188408970071214e-05 -3.1693822889956503e-05 0 -5.1358106008463941e-05 -2.6576144382751456e-05 0 -5.9321123266971856e-05 -3.2963181568407922e-05 0 -7.5474741012297505e-05 4.6218172985263047e-05 0 -8.8846627194128498e-05 4.7997349835270143e-05 0 -7.4260322512023026e-05 3.5806448489583324e-05 0 -3.9792378965611273e-05 0.00026297292805073017 0 -2.6295141200171982e-05 0.00023243929983449396 0 -1.4912993844925172e-05 0.0002486475134872028 0 -8.5051039770704751e-05 -0.00013423988838009984 0 -8.8605520409838117e-05 -0.00011885199377119155 0 -9.5866099973628043e-05 -0.00012907624077903535 0 -1.9695872211536435e-05 -1.9634783452417574e-05 0 -2.2608149902053638e-05 -1.9012651227714563e-05 0 -2.6870922254532595e-05 -2.6313829820355626e-05 0 -2.382901370882826e-05 1.2555695686962796e-05 0 -2.7649140708010848e-05 2.0909499425647271e-05 0 -3.2218646515018667e-05 1.7530084859381739e-05 0 -2.8672292622076604e-05 -2.3063406265481139e-05 0 -2.6870922254532595e-05 -2.6313829820355626e-05 0 -2.2608149902053638e-05 -1.9012651227714563e-05 0 -9.835420148404037e-06 -1.6921738931330047e-07 0 -8.694970237187152e-06 -2.6225065420169241e-07 0 -1.1679378317646444e-05 -1.3147974693661591e-06 0 -2.9146255291544681e-06 -5.4540484873542027e-08 0 -2.0776889212719501e-06 -4.0316666222255414e-07 0 -1.35963000020318e-06 -1.3974171843452855e-07 0 -1.7846021236289631e-05 -5.8731335403993801e-06 0 -1.538442238022494e-05 -4.3748611163467653e-06 0 -1.4341033631622383e-05 -3.63178972636325e-06 0 -2.3620367354765694e-05 5.6480183926217618e-06 0 -2.7268783657030514e-05 1.3433038531074e-06 0 -2.0432446509818103e-05 1.2401515564845057e-05 0 -2.3151894913336861e-05 8.6590692258797347e-06 0 -2.0432446509818103e-05 1.2401515564845057e-05 0 -2.7268783657030514e-05 1.3433038531074e-06 0 -7.4497969576853987e-05 -0.00010902095647627508 0 -8.860552040983813e-05 -0.00011885199377119155 0 -7.8049249576519279e-05 -0.00012339107872048986 0 -8.5051039770704751e-05 -0.00013423988838009984 0 -7.8049249576519279e-05 -0.00012339107872048986 0 -8.860552040983813e-05 -0.00011885199377119155 0 -4.8369031743274693e-05 0.00021199955942756356 0 -2.6295141200171982e-05 0.00023243929983449396 0 -5.0798205510050062e-05 0.00024336016593602081 0 -3.9792378965611273e-05 0.00026297292805073017 0 -5.0798205510050062e-05 0.00024336016593602081 0 -2.6295141200171982e-05 0.00023243929983449396 0 -4.8369031743274693e-05 0.00021199955942756356 0 -4.8883231001012568e-05 0.00018100209933739423 0 -2.4084617304996015e-05 0.0001873639443632282 0 -3.4840025481065295e-05 0.00015774480646461468 0 -2.4084617304996015e-05 0.0001873639443632282 0 -4.8883231001012568e-05 0.00018100209933739423 0 -2.0065862962701837e-09 1.2725987365920526e-10 0 -2.0946578955993955e-09 1.3677392847521976e-10 0 -1.3753530352434481e-06 2.0483430685467101e-07 0 -2.3691060050729564e-05 -2.4796049696080839e-05 0 -2.6870922254532595e-05 -2.6313829820355626e-05 0 -2.8868418014571957e-05 -3.0635477223665425e-05 0 -3.2102607732759372e-05 -3.2290228535557548e-05 0 -2.8868418014571957e-05 -3.0635477223665425e-05 0 -2.6870922254532595e-05 -2.6313829820355626e-05 0 -7.7109135723795683e-05 -8.6740012047226619e-05 0 -8.0541616584097243e-05 -7.6938940448457852e-05 0 -8.7440032339861884e-05 -9.0810054227303996e-05 0 -9.0845797753779853e-05 -7.3071957683423021e-05 0 -8.0541616584097243e-05 -7.6938940448457852e-05 0 -7.8292330805542818e-05 -6.4303126418859604e-05 0 -0.00014704269800731257 0.00013487091400691954 0 -0.00012110139250152942 0.0001163304746248101 0 -0.00012318431320728409 0.00014508903042199071 0 -1.2750174577736758e-05 5.7449811504225937e-06 0 -1.3418772451229465e-05 8.3467336520001497e-06 0 -1.1243536836438036e-05 6.8230568538703992e-06 0 -1.2483311011700615e-05 1.07748883507636e-05 0 -1.1243536836438036e-05 6.8230568538703992e-06 0 -1.3418772451229465e-05 8.3467336520001497e-06 0 -6.4873076943795647e-06 3.5378427436703677e-07 0 -7.9580140783619409e-06 4.549452261181436e-07 0 -6.2833025601860157e-06 6.5813755143805278e-07 0 -3.3568160793180611e-06 3.5548080881791531e-07 0 -1.5553159511314404e-06 2.489822420189381e-07 0 -2.4323916360932494e-06 3.3963590139197243e-07 0 -3.0728956014435538e-05 6.1849925978922224e-06 0 -4.0637733520486624e-05 1.0312878335551849e-05 0 -3.2678347658070017e-05 7.9785173329822513e-06 0 -2.3274541831315788e-05 -8.2329657889180725e-06 0 -2.4310536318092783e-05 -9.4509349691809624e-06 0 -2.9475639374637858e-05 -1.1448665688576114e-05 0 -2.3274541831315788e-05 -8.2329657889180725e-06 0 -2.8278233024298068e-05 -1.0595913972998166e-05 0 -2.3883621542262992e-05 -8.3319928782788888e-06 0 6.6185973930814005e-06 0.00022126058103457628 0 -1.4912993844925172e-05 0.0002486475134872028 0 -2.6295141200171982e-05 0.00023243929983449396 0 -0.00010377390725678524 -0.00011879242631583684 0 -9.5866099973628056e-05 -0.00012907624077903535 0 -8.860552040983813e-05 -0.00011885199377119155 0 -2.0238678856923228e-09 -3.6900066155231424e-11 0 -1.35963000020318e-06 -1.3974171843452858e-07 0 -2.0776889212719501e-06 -4.0316666222255414e-07 0 -9.6805478950034895e-06 2.7034203922934877e-06 0 -1.271577228695466e-05 5.1854827890742965e-06 0 -1.267257924150897e-05 2.8640677228390834e-06 0 -5.8489308831774168e-05 -7.5041674128550795e-05 0 -6.2248191394198319e-05 -6.4492503712998767e-05 0 -6.7429198904017451e-05 -7.5167199031793888e-05 0 -2.483482080391178e-05 6.4921228719106304e-06 0 -2.0931649784699852e-05 7.1719087936941273e-06 0 -2.8493484990518903e-05 1.0942871249609309e-05 0 -3.0104253838911467e-05 -2.0993128843515674e-05 0 -3.5773202620315191e-05 -2.4484342322624225e-05 0 -3.493096237691612e-05 -2.8308139635696151e-05 0 -1.0585295192981966e-05 5.6217084101110813e-06 0 -1.1243536836438036e-05 6.8230568538703992e-06 0 -1.1942383890614584e-05 8.8240239146739458e-06 0 -7.5016018989819511e-05 0.0001363314036749993 0 -9.750527139187506e-05 0.00014163545677434614 0 -8.5236194504948669e-05 0.00011752347743726514 0 -5.3188408970071214e-05 -3.1693822889956503e-05 0 -6.3530613130642133e-05 -3.9472675863759202e-05 0 -5.5963765875201203e-05 -3.8827673609018878e-05 0 -7.5474741012297505e-05 4.6218172985263047e-05 0 -8.0810091863734414e-05 6.0528917483115029e-05 0 -9.555916378957378e-05 6.2589190721867261e-05 0 -4.861665060131525e-05 -5.4395351054331387e-05 0 -4.7423224458363364e-05 -5.7406400468699305e-05 0 -4.6224598608242907e-05 -5.4166396949917837e-05 0 -4.537537226512925e-05 -5.6263490783932801e-05 0 -4.6224598608242907e-05 -5.4166396949917837e-05 0 -4.7423224458363364e-05 -5.7406400468699305e-05 0 -2.9695102342889835e-05 -1.1632695854997828e-05 0 -2.4453953086643263e-05 -8.9398894288913014e-06 0 -2.3883621542262992e-05 -8.3319928782788888e-06 0 -1.9471224845291881e-05 -6.1399298946234354e-06 0 -2.3883621542262992e-05 -8.3319928782788888e-06 0 -2.4453953086643263e-05 -8.9398894288913014e-06 0 -1.8190831647811063e-05 -6.6688354527532756e-06 0 -2.203404272099595e-05 -1.0354253672586591e-05 0 -2.0033603434665693e-05 -8.3697873891507801e-06 0 -3.4801680298051664e-05 -1.4024530089576192e-05 0 -4.3030791606132932e-05 -1.8879638168132989e-05 0 -3.6836108281555696e-05 -1.5722266712611069e-05 0 -3.6506230218655445e-05 9.8468729534448127e-06 0 -3.6991146763216074e-05 8.656615459931896e-06 0 -2.8825740038189145e-05 6.2047775825187751e-06 0 -5.2159474981278071e-05 -5.996063965775284e-05 0 -4.8505096131486584e-05 -6.0048269249638249e-05 0 -4.980040695281684e-05 -5.7440270555866236e-05 0 -7.5016018989819511e-05 0.0001363314036749993 0 -9.0188279065132613e-05 0.00017173000522708752 0 -9.750527139187506e-05 0.00014163545677434614 0 -2.0946578955993955e-09 1.3677392847521976e-10 0 -2.2966855325754074e-09 1.6641154190511281e-10 0 -1.5553159511314406e-06 2.4898224201893815e-07 0 8.3737196362129988e-06 0.00018859232612027181 0 -2.4084617304996015e-05 0.0001873639443632282 0 -1.0843752845013219e-05 0.00016761904103539788 0 -1.4830086913643792e-05 1.7048860874199512e-05 0 -1.2773855126899019e-05 2.216791572851612e-05 0 -1.3166945080074411e-05 1.5428376239092709e-05 0 -7.5474741012297505e-05 4.6218172985263047e-05 0 -6.2767266926398089e-05 4.3795945049169444e-05 0 -8.0810091863734414e-05 6.0528917483115029e-05 0 -1.4830086913643792e-05 1.7048860874199512e-05 0 -1.4480156676781849e-05 1.2180273758011035e-05 0 -1.7913724873273577e-05 1.1587560028350323e-05 0 -1.4830086913643792e-05 1.7048860874199512e-05 0 -1.3166945080074411e-05 1.5428376239092709e-05 0 -1.4480156676781849e-05 1.2180273758011035e-05 0 -2.2749655605459425e-05 -8.3865188438584246e-06 0 -2.8128343604717706e-05 -1.1570381625095028e-05 0 -2.6554020235184303e-05 -1.1748276352093768e-05 0 -1.1748756553441844e-05 -2.2296956362339529e-06 0 -1.4341033631622383e-05 -3.63178972636325e-06 0 -1.538442238022494e-05 -4.3748611163467653e-06 0 -0.00010126954178536276 0.00011570092237755082 0 -0.00012318431320728409 0.00014508903042199071 0 -0.00012110139250152942 0.0001163304746248101 0 -2.8329200906923004e-05 -1.5729126071400394e-05 0 -3.0806883849175458e-05 -1.3573143795956554e-05 0 -2.6138802902462539e-05 -1.0811868341860598e-05 0 -2.3620367354765694e-05 5.6480183926217618e-06 0 -2.0432446509818103e-05 1.2401515564845057e-05 0 -1.7913724873273577e-05 1.1587560028350323e-05 0 -4.6272571479889995e-05 -3.2283338998677703e-05 0 -4.2976690518190651e-05 -2.7311045214170488e-05 0 -4.4560198414106075e-05 -2.6702461589494749e-05 0 -5.3188408970071214e-05 -3.1693822889956503e-05 0 -5.9321123266971856e-05 -3.2963181568407922e-05 0 -6.3530613130642133e-05 -3.9472675863759202e-05 0 -7.5474741012297505e-05 4.6218172985263047e-05 0 -9.555916378957378e-05 6.2589190721867261e-05 0 -8.8846627194128498e-05 4.7997349835270143e-05 0 -0.00012427926746230231 0.00026380975822343163 0 -0.0001469524983667127 0.00027616006556326067 0 -0.00014240505624556484 0.00024684447231811769 0 -4.8816132194470344e-05 -0.00012942681903628978 0 -4.0556736031894134e-05 -0.00013329546272630569 0 -3.9648528081927874e-05 -0.00011931738524154272 0 -5.1571272942588593e-05 -3.7324948883700811e-05 0 -4.8304527200195856e-05 -3.2530839999244968e-05 0 -5.1856264646234892e-05 -3.5620737900667674e-05 0 -1.2483311011700615e-05 1.07748883507636e-05 0 -1.1942383890614584e-05 8.8240239146739458e-06 0 -1.1243536836438036e-05 6.8230568538703992e-06 0 -2.1611573367815063e-05 3.7320760163583962e-06 0 -2.8825740038189145e-05 6.2047775825187751e-06 0 -2.4754487043556595e-05 3.7576964780008053e-06 0 -4.2245469274074135e-05 -1.9943145159696731e-05 0 -3.4562422915916397e-05 -1.5323393793678773e-05 0 -3.6836108281555696e-05 -1.5722266712611069e-05 0 -5.9329793189094776e-05 2.4509781915048136e-05 0 -4.954761126540993e-05 2.2149875907429247e-05 0 -6.0403353041216538e-05 3.2344393126202267e-05 0 -2.6630942054203557e-05 -1.7398133304793702e-05 0 -2.9992827480237112e-05 -2.4148421076916129e-05 0 -2.9226318959417781e-05 -2.1311380281833109e-05 0 -3.1375340407087443e-05 -1.460942289072718e-05 0 -3.4562422915916397e-05 -1.5323393793678773e-05 0 -3.685875767342919e-05 -1.8686396410980454e-05 0 -2.3620367354765694e-05 5.6480183926217618e-06 0 -2.1335414264358709e-05 3.6984746556702461e-06 0 -2.7542805345573227e-05 -1.3966374429021635e-06 0 -2.0238678856923228e-09 -3.6900066155231424e-11 0 -1.9901059627280574e-09 -1.1056342799211266e-10 0 -1.35963000020318e-06 -1.3974171843452855e-07 0 -5.1972321946606476e-05 -4.2449037365735993e-05 0 -5.297531857451929e-05 -4.0716784638760379e-05 0 -5.6222489482189798e-05 -4.5309406903286425e-05 0 -5.1695828121201759e-05 -2.3787370243757993e-05 0 -4.9340307313567028e-05 -2.323253686130883e-05 0 -4.3030791606132932e-05 -1.8879638168132989e-05 0 -7.6588654489993864e-05 2.9887187496901692e-05 0 -6.1016936112082314e-05 2.1413965561561332e-05 0 -7.1743076881015613e-05 2.9116962145530647e-05 0 -6.9332408439174307e-05 -6.3394770316951932e-05 0 -7.8292330805542818e-05 -6.4303126418859604e-05 0 -8.0541616584097243e-05 -7.6938940448457852e-05 0 -4.1093198319363516e-05 -3.2815277926377364e-05 0 -4.0982075431756837e-05 -3.8848514129683411e-05 0 -3.493096237691612e-05 -2.8308139635696151e-05 0 -3.4377283499640003e-05 -3.2846211660400053e-05 0 -3.493096237691612e-05 -2.8308139635696151e-05 0 -4.0982075431756837e-05 -3.8848514129683411e-05 0 -3.1375340407087443e-05 -1.460942289072718e-05 0 -3.1270389668807709e-05 -1.6215046388688446e-05 0 -2.6554020235184303e-05 -1.1748276352093768e-05 0 -4.6272571479889995e-05 -3.2283338998677703e-05 0 -4.4560198414106075e-05 -2.6702461589494749e-05 0 -4.8304527200195856e-05 -3.2530839999244968e-05 0 -7.7109135723795683e-05 -8.6740012047226619e-05 0 -6.7632443181551399e-05 -8.5292877707309294e-05 0 -6.7429198904017451e-05 -7.5167199031793888e-05 0 -3.1375340407087443e-05 -1.460942289072718e-05 0 -2.6554020235184303e-05 -1.1748276352093768e-05 0 -2.8128343604717706e-05 -1.1570381625095028e-05 0 -4.1423694648514213e-05 -2.2629846782317449e-05 0 -4.4560198414106075e-05 -2.6702461589494749e-05 0 -4.2976690518190651e-05 -2.7311045214170488e-05 0 -3.777526911810479e-06 -5.7329826928060036e-07 0 -3.9708834176433569e-06 -1.7384304641344812e-07 0 -5.2266000051829049e-06 -1.2309631498036716e-07 0 -6.8478863307509672e-05 -3.7986281041648062e-05 0 -6.3530613130642133e-05 -3.9472675863759202e-05 0 -5.9321123266971856e-05 -3.2963181568407922e-05 0 -0.00010718603466105956 5.8250047310109057e-05 0 -8.8846627194128498e-05 4.7997349835270143e-05 0 -9.555916378957378e-05 6.2589190721867261e-05 0 -0.00010377390725678524 -0.00011879242631583684 0 -8.860552040983813e-05 -0.00011885199377119155 0 -9.4429084707744915e-05 -0.0001109537374201564 0 6.6185973930814005e-06 0.00022126058103457628 0 -2.6295141200171982e-05 0.00023243929983449396 0 -1.7145760272656126e-05 0.00020903799894919341 0 8.3737196362129988e-06 0.00018859232612027181 0 -1.7145760272656126e-05 0.00020903799894919341 0 -2.4084617304996015e-05 0.0001873639443632282 0 -0.00010377390725678524 -0.00011879242631583684 0 -0.0001057403647010367 -0.00013442331213313146 0 -9.5866099973628043e-05 -0.00012907624077903535 0 6.6185973930814005e-06 0.00022126058103457628 0 4.074047000533478e-06 0.00025338521745944548 0 -1.4912993844925172e-05 0.0002486475134872028 0 -2.8672292622076604e-05 -2.3063406265481139e-05 0 -2.7886269728702905e-05 -1.5909152070672501e-05 0 -3.2566063742619161e-05 -2.2423714584661349e-05 0 -4.8160761223460222e-05 -3.0428994401047725e-05 0 -5.1856264646234892e-05 -3.5620737900667674e-05 0 -4.8304527200195856e-05 -3.2530839999244968e-05 0 -6.3382351735056849e-05 -5.8534469533990761e-05 0 -6.4702200911598723e-05 -6.1621355082564329e-05 0 -6.219053370732909e-05 -5.693198934563075e-05 0 -3.7027509580442292e-05 -4.1181254297237264e-05 0 -4.0493665409021801e-05 -4.822836683102658e-05 0 -4.0118186901858673e-05 -4.4609192761007466e-05 0 -7.5474741012297505e-05 4.6218172985263047e-05 0 -6.0403353041216538e-05 3.2344393126202267e-05 0 -6.2767266926398089e-05 4.3795945049169444e-05 0 -1.9471224845291881e-05 -6.1399298946234354e-06 0 -1.5630004294445399e-05 -4.1678451154914583e-06 0 -1.852093321367526e-05 -5.6922941557286921e-06 0 -7.3808225229987669e-06 1.2271122487185446e-06 0 -7.9580140783619409e-06 4.549452261181436e-07 0 -9.7540030225658183e-06 9.1391379983272807e-07 0 -0.00011146589473224572 0.00016683066302358563 0 -9.750527139187506e-05 0.00014163545677434614 0 -9.0188279065132613e-05 0.00017173000522708752 0 -4.3247375906371997e-05 -8.2621763656685611e-05 0 -3.6145608867393204e-05 -8.9677319516246932e-05 0 -3.3345654419832269e-05 -7.2586387342161749e-05 0 -2.9146255291544681e-06 -5.4540484873542027e-08 0 -1.35963000020318e-06 -1.3974171843452855e-07 0 -1.7037441357662743e-06 3.6267973387617972e-08 0 -3.7137648887047373e-05 -2.1816417554554297e-05 0 -3.0648351452260864e-05 -1.8291073478100325e-05 0 -3.1270389668807709e-05 -1.6215046388688446e-05 0 9.2175291316366928e-06 0.00015566682173437523 0 8.3737196362130022e-06 0.00018859232612027181 0 -1.0843752845013219e-05 0.00016761904103539788 0 -7.4702582805845558e-06 -6.5622452587971655e-07 0 -8.4302365868010371e-06 9.2240409314953199e-08 0 -1.0099409413757138e-05 -1.1850183970160228e-07 0 -2.8672292622076604e-05 -2.3063406265481139e-05 0 -3.2566063742619161e-05 -2.2423714584661349e-05 0 -3.2062087444345715e-05 -2.845659812570081e-05 0 -3.603632419803826e-05 -2.9027304988281617e-05 0 -3.2062087444345715e-05 -2.845659812570081e-05 0 -3.2566063742619161e-05 -2.2423714584661349e-05 0 -5.9175677953190164e-05 -5.4598084153739222e-05 0 -6.0324230683930949e-05 -5.3395098293382812e-05 0 -6.219053370732909e-05 -5.693198934563075e-05 0 -6.3382351735056849e-05 -5.8534469533990761e-05 0 -6.219053370732909e-05 -5.693198934563075e-05 0 -6.0324230683930949e-05 -5.3395098293382812e-05 0 -3.7027509580442292e-05 -4.1181254297237264e-05 0 -3.8956269668070112e-05 -4.6145227643792284e-05 0 -4.0493665409021801e-05 -4.822836683102658e-05 0 -4.2160325408751441e-05 -5.2166158695825776e-05 0 -4.0493665409021801e-05 -4.822836683102658e-05 0 -3.8956269668070112e-05 -4.6145227643792284e-05 0 -1.2750174577736758e-05 5.7449811504225937e-06 0 -1.0887112325086401e-05 4.0322064814771551e-06 0 -1.4243856425000871e-05 2.898741208819597e-06 0 -2.0945666784133845e-05 -9.3815454097800231e-06 0 -2.692198247390777e-05 -3.1483259230177395e-06 0 -2.7886269728702905e-05 -1.5909152070672501e-05 0 -3.2169523710375369e-05 -1.2017973754441196e-05 0 -2.7886269728702905e-05 -1.5909152070672501e-05 0 -2.692198247390777e-05 -3.1483259230177395e-06 0 -7.7109135723795683e-05 -8.6740012047226619e-05 0 -8.7440032339861884e-05 -9.0810054227303996e-05 0 -8.4676408328337668e-05 -0.00010212182241742598 0 -2.9695102342889835e-05 -1.1632695854997828e-05 0 -3.4562422915916397e-05 -1.5323393793678773e-05 0 -2.8128343604717706e-05 -1.1570381625095028e-05 0 -3.1375340407087443e-05 -1.460942289072718e-05 0 -2.8128343604717706e-05 -1.1570381625095028e-05 0 -3.4562422915916397e-05 -1.5323393793678773e-05 0 -3.0380038447250568e-05 -2.7548216092851361e-05 0 -3.9763846402227093e-05 -2.3118626106414704e-05 0 -3.7627105001773075e-05 -2.12675630209826e-05 0 -5.7182494948251061e-05 -4.9260339278833163e-05 0 -6.0324230683930949e-05 -5.3395098293382812e-05 0 -5.6769462860525344e-05 -5.1050998181437728e-05 0 -3.8696999875941453e-05 -4.4871656867856099e-05 0 -4.1374320264450648e-05 -4.9298592192928397e-05 0 -3.8956269668070112e-05 -4.6145227643792284e-05 0 -9.835420148404037e-06 -1.6921738931330047e-07 0 -9.7540030225658166e-06 9.1391379983272807e-07 0 -7.9580140783619409e-06 4.549452261181436e-07 0 -4.8505096131486584e-05 -6.0048269249638249e-05 0 -4.7423224458363364e-05 -5.7406400468699305e-05 0 -4.980040695281684e-05 -5.7440270555866236e-05 0 -8.0697626514727074e-06 -3.9319191502083939e-07 0 -6.0851071560398026e-06 2.0378080660076114e-07 0 -5.3215787407993352e-06 1.8176273526483264e-07 0 -4.1423694648514213e-05 -2.2629846782317449e-05 0 -3.8764870515076205e-05 -1.8188166947693804e-05 0 -4.0567113569313045e-05 -1.9622692560879365e-05 0 -2.9146255291544681e-06 -5.4540484873542027e-08 0 -4.2065394401412963e-06 2.1235638915166578e-07 0 -3.9708834176433561e-06 -1.7384304641344818e-07 0 -7.3321556617061373e-05 0.00018671061081034537 0 -6.2437777469631276e-05 0.00016064919918131902 0 -4.8883231001012568e-05 0.00018100209933739423 0 -7.6142938713795582e-05 0.0002435760320919678 0 -5.0798205510050062e-05 0.00024336016593602081 0 -6.238376539572216e-05 0.00026394878954537593 0 -6.7203393737097844e-05 -0.00012348160422809935 0 -7.8049249576519279e-05 -0.00012339107872048986 0 -7.486180611530431e-05 -0.00013340130729909639 0 -7.119286103280859e-06 3.3596938360832282e-05 0 -2.0585579549682764e-05 9.6364296169574323e-06 0 -9.3968749648819392e-06 -1.9568069465381332e-07 0 -2.9146255291544681e-06 -5.4540484873542027e-08 0 -1.7037441357662743e-06 3.6267973387617972e-08 0 -3.1890663280478386e-06 1.6583127119048405e-07 0 -0.00010061715135690031 -0.00010314647785853461 0 -9.4429084707744901e-05 -0.0001109537374201564 0 -8.4676408328337668e-05 -0.00010212182241742598 0 -0.00010677980514931215 -0.00019017153813977465 0 -9.8141955507041417e-05 -0.00018287112969805758 0 -0.00010687960349393425 -0.0001772704961300061 0 -1.0556209884172015e-05 0.00037223362943552548 0 -2.5497655571039813e-05 0.00036369021797705308 0 -6.8274001967111514e-06 0.00034603280851174217 0 -1.0556209884172015e-05 0.00037223362943552548 0 -3.4965006849868954e-05 0.00038037009117001673 0 -2.5497655571039816e-05 0.00036369021797705308 0 -4.0455467521029213e-05 -0.00018140783428999865 0 -4.6040710402896502e-05 -0.00017857406721552462 0 -4.9887738186639581e-05 -0.00018564176043537998 0 -0.00017051530594210744 0.0003893578311917283 0 -0.00017066834274031799 0.0003601851064231426 0 -0.00015099459384188425 0.00037283517969383074 0 -0.00010677980514931215 -0.00019017153813977465 0 -9.3888878549939036e-05 -0.00019005031139696839 0 -9.8141955507041417e-05 -0.00018287112969805758 0 -4.0455467521029213e-05 -0.00018140783428999865 0 -3.8263400420686093e-05 -0.00017020686790128378 0 -4.6040710402896502e-05 -0.00017857406721552462 0 -0.00017051530594210744 0.0003893578311917283 0 -0.00015099459384188425 0.00037283517969383074 0 -0.0001413380245279255 0.00038917141128737813 0 -1.9901059627283064e-09 -1.1056342799213826e-10 0 -1.7037441357662743e-06 3.6267973387617972e-08 0 -1.35963000020318e-06 -1.3974171843452855e-07 0 -4.6272571479889995e-05 -3.2283338998677703e-05 0 -4.3518399034627212e-05 -3.2439320023379418e-05 0 -4.2976690518190651e-05 -2.7311045214170488e-05 0 -3.1375340407087443e-05 -1.460942289072718e-05 0 -3.685875767342919e-05 -1.8686396410980454e-05 0 -3.1270389668807709e-05 -1.6215046388688446e-05 0 -7.7109135723795683e-05 -8.6740012047226619e-05 0 -7.2768418045639818e-05 -9.5404465932830197e-05 0 -6.7632443181551399e-05 -8.5292877707309294e-05 0 -7.2734312845679992e-06 5.3444403822617124e-07 0 -1.0171795019683341e-05 1.3543962641713191e-06 0 -8.4302365868010371e-06 9.2240409314953199e-08 0 -8.1987228264369184e-05 0.00028278998064922283 0 -0.00010253717578368551 0.00030222037463100522 0 -0.00010282165687040731 0.00027313481529118208 0 -6.772950664790187e-05 -0.00014131367270339259 0 -6.0560581999133439e-05 -0.00014963497118655926 0 -5.8382833077449951e-05 -0.00013597522467508963 0 -6.0417861041959955e-05 -5.0555096118302424e-05 0 -6.2073297268812282e-05 -5.4881550794597505e-05 0 -5.936672435925777e-05 -5.0415521308298339e-05 0 -3.0800073594441118e-05 -3.3363703669702184e-05 0 -3.5157929568474043e-05 -4.0034066681475462e-05 0 -3.4073550431721982e-05 -3.745154567073206e-05 0 -1.478160138988725e-05 -1.2458980041666719e-05 0 -2.2608149902053638e-05 -1.9012651227714563e-05 0 -1.9695872211536435e-05 -1.9634783452417574e-05 0 -3.7137648887047373e-05 -2.1816417554554297e-05 0 -3.1270389668807709e-05 -1.6215046388688446e-05 0 -3.685875767342919e-05 -1.8686396410980454e-05 0 -5.5527115591119235e-05 -3.9450508965865442e-05 0 -5.834738644603838e-05 -4.5320001234297339e-05 0 -5.4455176892093597e-05 -4.0624905736088136e-05 0 -2.3691060050729564e-05 -2.4796049696080839e-05 0 -2.8868418014571957e-05 -3.0635477223665425e-05 0 -2.7462589591122502e-05 -2.9258358481630414e-05 0 -5.8489308831774168e-05 -7.5041674128550795e-05 0 -5.1187301768727211e-05 -7.9190513850742805e-05 0 -4.9757475761407929e-05 -6.4871296524817392e-05 0 -7.3808225229987669e-06 1.2271122487185446e-06 0 -6.2833025601860157e-06 6.5813755143805267e-07 0 -7.9580140783619409e-06 4.549452261181436e-07 0 -4.8816132194470344e-05 -0.00012942681903628978 0 -5.6394210589544571e-05 -0.00012057262632466297 0 -5.8382833077449951e-05 -0.00013597522467508963 0 -0.00012427926746230231 0.00026380975822343163 0 -0.00010109379701100087 0.00024431218359728842 0 -0.00010282165687040731 0.00027313481529118208 0 -3.2102607732759372e-05 -3.2290228535557548e-05 0 -2.6870922254532595e-05 -2.6313829820355626e-05 0 -3.2062087444345715e-05 -2.845659812570081e-05 0 -2.8672292622076604e-05 -2.3063406265481139e-05 0 -3.2062087444345715e-05 -2.8456598125700807e-05 0 -2.6870922254532595e-05 -2.6313829820355626e-05 0 -1.1748756553441844e-05 -2.2296956362339529e-06 0 -1.0931749857716419e-05 -1.9117452349326233e-06 0 -1.4341033631622383e-05 -3.63178972636325e-06 0 -4.1093198319363516e-05 -3.2815277926377364e-05 0 -3.493096237691612e-05 -2.8308139635696148e-05 0 -3.5773202620315191e-05 -2.4484342322624225e-05 0 -4.0143919755629086e-05 -6.433972313310355e-05 0 -3.1476899118186325e-05 -5.7374173642440023e-05 0 -3.5961165198674629e-05 -4.5717822929535371e-05 0 -4.0875040111327479e-05 -2.7076852406679698e-05 0 -4.2976690518190651e-05 -2.7311045214170488e-05 0 -4.3518399034627212e-05 -3.2439320023379418e-05 0 -2.5405861114202566e-05 -4.7789349169534905e-05 0 -3.1476899118186325e-05 -5.7374173642440023e-05 0 -2.4001234531435091e-05 -6.3060132272219188e-05 0 -3.2403405666954653e-05 -3.5822263294211415e-05 0 -3.4479271592655015e-05 -3.6530311780008167e-05 0 -3.697456024895325e-05 -4.1405776831497194e-05 0 -3.8514969940510231e-05 -4.0445109167449653e-05 0 -3.697456024895325e-05 -4.1405776831497194e-05 0 -3.4479271592655015e-05 -3.6530311780008167e-05 0 -1.3856321115402461e-05 -3.6741326878563967e-06 0 -1.7781276544850785e-05 -5.7605812442885093e-06 0 -1.852093321367526e-05 -5.6922941557286921e-06 0 -2.2633156469003683e-05 -8.8778801416874367e-06 0 -2.6138802902462539e-05 -1.0811868341860598e-05 0 -2.2283827406913058e-05 -6.3230728284682692e-06 0 -2.6341887385713336e-05 -7.4031461058983828e-06 0 -2.2283827406913058e-05 -6.3230728284682692e-06 0 -2.6138802902462539e-05 -1.0811868341860598e-05 0 -1.4830086913643792e-05 1.7048860874199512e-05 0 -2.0432446509818103e-05 1.2401515564845057e-05 0 -1.567345963171029e-05 2.2010793768429242e-05 0 -2.3151894913336861e-05 8.6590692258797347e-06 0 -1.567345963171029e-05 2.2010793768429242e-05 0 -2.0432446509818103e-05 1.2401515564845057e-05 0 8.3737196362129988e-06 0.00018859232612027181 0 6.6185973930814005e-06 0.00022126058103457628 0 -1.7145760272656126e-05 0.00020903799894919341 0 -1.7391412799077008e-05 8.7756464493947399e-06 0 -1.3418772451229465e-05 8.3467336520001497e-06 0 -1.5827220390129282e-05 5.819324414777324e-06 0 -0.00010061715135690031 -0.00010314647785853461 0 -0.00010377390725678524 -0.00011879242631583684 0 -9.4429084707744915e-05 -0.0001109537374201564 0 -1.3394045724260118e-05 -3.0669604248675778e-06 0 -1.4341033631622383e-05 -3.63178972636325e-06 0 -1.0931749857716419e-05 -1.9117452349326233e-06 0 -1.6927452731757827e-05 1.1692713679761889e-06 0 -1.3029708474505294e-05 5.5230821768505287e-07 0 -1.1362338055337057e-05 -2.5226719985583185e-07 0 -1.3856321115402461e-05 -3.6741326878563967e-06 0 -9.6087991570226874e-06 -1.9489867223939591e-06 0 -1.0523490284423355e-05 -2.673742280635364e-06 0 -9.6805478950034895e-06 2.7034203922934877e-06 0 -7.470440288747339e-06 1.7182594924333515e-06 0 -9.1636994572899971e-06 3.6481809497492395e-06 0 -8.0430604272438742e-06 -4.7044549412375567e-06 0 -6.4155920762904219e-06 -2.6933979045770119e-06 0 -3.3215001607937987e-06 -1.6158347431039004e-06 0 -4.797243045149774e-09 3.1152395018727885e-10 0 -3.3215001607937987e-06 -1.6158347431039002e-06 0 -6.4155920762904219e-06 -2.6933979045770119e-06 0 -9.8081174492707272e-06 4.7031936358633273e-06 0 -4.1278837695211724e-06 1.4359870075790803e-06 0 -8.2339734983951202e-06 1.9768923337895382e-06 0 -6.2629114572337427e-09 -7.5197860300138566e-10 0 -8.2339734983951202e-06 1.9768923337895382e-06 0 -4.1278837695211724e-06 1.4359870075790803e-06 0 -4.1093198319363516e-05 -3.2815277926377364e-05 0 -4.8764798227406749e-05 -3.7685342081502823e-05 0 -4.7493503955073081e-05 -4.3616674274093547e-05 0 -2.9146255291544681e-06 -5.4540484873542027e-08 0 -3.1890663280478386e-06 1.6583127119048405e-07 0 -4.2065394401412963e-06 2.1235638915166578e-07 0 -3.4840025481065295e-05 0.00015774480646461468 0 -1.2155394375082754e-05 0.00014603886608990978 0 -1.0843752845013219e-05 0.00016761904103539788 0 -3.4161459013535867e-05 4.2362097421149244e-05 0 -3.6551918411982705e-05 3.1951704758182375e-05 0 -2.6040601935067865e-05 2.8139768925003455e-05 0 -1.7391412799077008e-05 8.7756464493947399e-06 0 -1.4480156676781849e-05 1.2180273758011035e-05 0 -1.3418772451229465e-05 8.3467336520001497e-06 0 -4.4414272662179617e-05 -5.1432517722013092e-05 0 -4.0982075431756837e-05 -3.8848514129683411e-05 0 -4.7493503955073081e-05 -4.3616674274093547e-05 0 -0.00011284673117038666 0.00038837394385952972 0 -0.0001413380245279255 0.00038917141128737813 0 -0.00012685688499423209 0.00037417949177684048 0 -5.9552464091428964e-05 -0.00018784491834852694 0 -4.9887738186639581e-05 -0.00018564176043537998 0 -5.4372096038545986e-05 -0.00018138633423049318 0 -3.4965006849868954e-05 0.00038037009117001673 0 -5.9692248997369656e-05 0.00038480650142973564 0 -4.6612263946254319e-05 0.0003695389892798304 0 -9.3888878549939036e-05 -0.00019005031139696839 0 -8.1497797099241263e-05 -0.00018958190428739984 0 -8.7536095363048631e-05 -0.00018343807444265361 0 -5.3562462388986129e-05 -5.005445621706958e-05 0 -5.6769462860525344e-05 -5.1050998181437728e-05 0 -5.5125235457332768e-05 -5.2981917100683074e-05 0 -4.3583655080644107e-05 -5.0597343096252997e-05 0 -4.3761185847301649e-05 -5.3800074177764056e-05 0 -4.1374320264450648e-05 -4.9298592192928397e-05 0 -9.5581692692151778e-09 -4.0909289170470109e-09 0 -3.3215001607937995e-06 -1.6158347431039009e-06 0 -4.797243045149774e-09 3.1152395018727885e-10 0 -1.1085146229712943e-08 4.7327779905202749e-09 0 -6.2629114572337427e-09 -7.5197860300138566e-10 0 -4.1278837695211724e-06 1.4359870075790803e-06 0 -1.1085146229712943e-08 4.7327779905202749e-09 0 -4.1278837695211724e-06 1.4359870075790803e-06 0 -9.8081174492707272e-06 4.7031936358633273e-06 0 -9.5581692692151778e-09 -4.0909289170470109e-09 0 -8.0430604272438742e-06 -4.7044549412375567e-06 0 -3.3215001607937987e-06 -1.6158347431039004e-06 0 -4.3247375906371997e-05 -8.2621763656685611e-05 0 -5.1187301768727204e-05 -7.9190513850742791e-05 0 -5.2963381734273234e-05 -9.438742425633696e-05 0 -1.7846021236289631e-05 -5.8731335403993801e-06 0 -2.1619344753791769e-05 -8.3348528313661962e-06 0 -1.9965856875147866e-05 -7.8333865301862806e-06 0 -4.1423694648514213e-05 -2.2629846782317449e-05 0 -4.2976690518190644e-05 -2.7311045214170488e-05 0 -3.9837973033523152e-05 -2.2121705913207344e-05 0 -4.0875040111327479e-05 -2.7076852406679698e-05 0 -3.9837973033523152e-05 -2.2121705913207344e-05 0 -4.2976690518190651e-05 -2.7311045214170488e-05 0 -1.1748756553441844e-05 -2.2296956362339529e-06 0 -1.538442238022494e-05 -4.3748611163467653e-06 0 -1.2991980770126995e-05 -2.8569354319472331e-06 0 -6.4873076943795647e-06 3.5378427436703677e-07 0 -6.0851071560398026e-06 2.0378080660076114e-07 0 -8.694970237187152e-06 -2.6225065420169241e-07 0 -8.0697626514727074e-06 -3.9319191502083939e-07 0 -8.694970237187152e-06 -2.6225065420169241e-07 0 -6.0851071560398026e-06 2.0378080660076114e-07 0 -2.3151894913336861e-05 8.6590692258797347e-06 0 -2.0585579549682764e-05 9.6364296169574323e-06 0 -1.567345963171029e-05 2.2010793768429242e-05 0 -7.119286103280859e-06 3.3596938360832282e-05 0 -1.567345963171029e-05 2.2010793768429245e-05 0 -2.0585579549682764e-05 9.6364296169574323e-06 0 -5.4814782780840114e-05 -4.450060238904366e-05 0 -4.7493503955073081e-05 -4.3616674274093547e-05 0 -4.8764798227406749e-05 -3.7685342081502823e-05 0 -3.2102607732759372e-05 -3.2290228535557548e-05 0 -3.4479271592655015e-05 -3.6530311780008167e-05 0 -2.8868418014571957e-05 -3.0635477223665425e-05 0 -5.1571272942588593e-05 -3.7324948883700811e-05 0 -5.4455176892093597e-05 -4.0624905736088136e-05 0 -5.297531857451929e-05 -4.0716784638760379e-05 0 -9.835420148404037e-06 -1.6921738931330047e-07 0 -1.1607948570069639e-05 -1.3848281585624718e-07 0 -9.7540030225658183e-06 9.1391379983272807e-07 0 -3.9792378965611273e-05 0.00026297292805073017 0 -1.4912993844925172e-05 0.0002486475134872028 0 -1.8354817631858642e-05 0.00027054423074189635 0 -8.5051039770704751e-05 -0.00013423988838009984 0 -9.5866099973628043e-05 -0.00012907624077903535 0 -9.5933560111075147e-05 -0.00013977420972713232 0 -3.0380038447250568e-05 -2.7548216092851361e-05 0 -2.9226318959417781e-05 -2.1311380281833109e-05 0 -2.9992827480237112e-05 -2.4148421076916129e-05 0 -2.8672292622076604e-05 -2.3063406265481139e-05 0 -2.2608149902053638e-05 -1.9012651227714563e-05 0 -2.7886269728702905e-05 -1.5909152070672501e-05 0 -0.00012427926746230231 0.00026380975822343163 0 -0.00014240505624556484 0.00024684447231811769 0 -0.00012045896553428424 0.00023698026330739273 0 -4.8816132194470344e-05 -0.00012942681903628978 0 -3.9648528081927874e-05 -0.00011931738524154272 0 -4.7628474320522189e-05 -0.00011634309957311682 0 -4.3247375906371997e-05 -8.2621763656685611e-05 0 -4.5134169931700769e-05 -9.5779472792756286e-05 0 -3.6145608867393204e-05 -8.9677319516246932e-05 0 -5.1465001430435363e-05 -4.633660372455298e-05 0 -5.0857525095104325e-05 -4.8759446357277716e-05 0 -4.8502446704681611e-05 -4.5713348283139722e-05 0 -3.8696999875941453e-05 -4.4871656867856099e-05 0 -3.5157929568474043e-05 -4.0034066681475462e-05 0 -3.697456024895325e-05 -4.1405776831497194e-05 0 -1.5816996328289151e-05 5.0086450869318718e-06 0 -1.267257924150897e-05 2.8640677228390834e-06 0 -1.271577228695466e-05 5.1854827890742957e-06 0 -4.861665060131525e-05 -5.4395351054331387e-05 0 -4.6224598608242907e-05 -5.4166396949917837e-05 0 -4.6577607073330812e-05 -5.0804468837094422e-05 0 -1.3394045724260118e-05 -3.0669604248675778e-06 0 -1.0931749857716419e-05 -1.9117452349326233e-06 0 -1.0370873845677666e-05 -1.752994724013155e-06 0 -8.2112401413319701e-06 -8.8761868987066327e-07 0 -1.0370873845677666e-05 -1.752994724013155e-06 0 -1.0931749857716419e-05 -1.9117452349326233e-06 0 -1.7790381732668788e-05 -2.7444598699231458e-06 0 -1.9721318569887334e-05 -5.7785305167065822e-06 0 -2.2283827406913058e-05 -6.3230728284682692e-06 0 -4.1093198319363516e-05 -3.2815277926377364e-05 0 -4.7493503955073081e-05 -4.3616674274093547e-05 0 -4.0982075431756837e-05 -3.8848514129683411e-05 0 -1.1748756553441844e-05 -2.2296956362339529e-06 0 -1.2991980770126995e-05 -2.8569354319472331e-06 0 -9.9414577168203971e-06 -1.3074214496913347e-06 0 -1.1582479356152098e-05 -1.8762645432228744e-06 0 -9.9414577168203971e-06 -1.3074214496913347e-06 0 -1.2991980770126995e-05 -2.8569354319472331e-06 0 -1.538442238022494e-05 -4.3748611163467653e-06 0 -1.4807609804866802e-05 -3.9321857395275502e-06 0 -1.2991980770126995e-05 -2.8569354319472331e-06 0 -5.2775639293627654e-05 -5.5228238574244548e-05 0 -5.5125235457332768e-05 -5.2981917100683074e-05 0 -5.6941866046882967e-05 -5.659587251815716e-05 0 -5.9175677953190164e-05 -5.4598084153739222e-05 0 -5.694186604688296e-05 -5.659587251815716e-05 0 -5.5125235457332768e-05 -5.2981917100683074e-05 0 -4.2160325408751441e-05 -5.2166158695825776e-05 0 -4.3761185847301649e-05 -5.3800074177764056e-05 0 -4.4215186060223363e-05 -5.6872474694941816e-05 0 -4.537537226512925e-05 -5.6263490783932801e-05 0 -4.4215186060223363e-05 -5.6872474694941816e-05 0 -4.3761185847301649e-05 -5.3800074177764056e-05 0 -2.3151894913336861e-05 8.6590692258797347e-06 0 -2.692198247390777e-05 -3.1483259230177395e-06 0 -2.0585579549682764e-05 9.6364296169574323e-06 0 -3.6010780979150547e-05 0.00035093273869478474 0 -4.6612263946254319e-05 0.0003695389892798304 0 -6.103434182711464e-05 0.00036012242299346457 0 -9.2207246314959538e-05 -0.00017564086854387239 0 -8.7536095363048631e-05 -0.00018343807444265361 0 -8.0314246492198604e-05 -0.00017820317021763744 0 -5.0035972982835575e-05 -0.00017311132672216776 0 -6.0026400282016874e-05 -0.00017740401707651277 0 -5.4372096038545986e-05 -0.00018138633423049318 0 -0.00013764964399533389 0.00035657911781178316 0 -0.00011018181857467978 0.0003622498179088454 0 -0.00012685688499423209 0.00037417949177684048 0 -0.00012427926746230231 0.00026380975822343163 0 -0.00012045896553428423 0.00023698026330739273 0 -0.00010109379701100087 0.00024431218359728842 0 -4.8816132194470344e-05 -0.00012942681903628978 0 -4.7628474320522189e-05 -0.00011634309957311682 0 -5.6394210589544571e-05 -0.00012057262632466297 0 -4.3247375906371997e-05 -8.2621763656685611e-05 0 -5.2963381734273234e-05 -9.438742425633696e-05 0 -4.5134169931700769e-05 -9.5779472792756286e-05 0 -2.2633156469003683e-05 -8.8778801416874367e-06 0 -2.2283827406913058e-05 -6.3230728284682692e-06 0 -1.9721318569887334e-05 -5.7785305167065822e-06 0 -5.9692248997369656e-05 0.00038480650142973564 0 -6.103434182711464e-05 0.00036012242299346457 0 -4.6612263946254319e-05 0.0003695389892798304 0 -8.1497797099241263e-05 -0.00018958190428739984 0 -8.0314246492198604e-05 -0.00017820317021763744 0 -8.7536095363048631e-05 -0.00018343807444265361 0 -0.00011284673117038666 0.00038837394385952972 0 -0.00012685688499423209 0.00037417949177684048 0 -0.00011018181857467978 0.0003622498179088454 0 -5.9552464091428964e-05 -0.00018784491834852694 0 -5.4372096038545986e-05 -0.00018138633423049318 0 -6.0026400282016874e-05 -0.00017740401707651277 0 -4.8481971374302662e-05 -4.8723562173759836e-05 0 -4.8502446704681611e-05 -4.5713348283139722e-05 0 -5.0857525095104325e-05 -4.8759446357277716e-05 0 -2.5405861114202566e-05 -4.7789349169534905e-05 0 -3.5961165198674629e-05 -4.5717822929535371e-05 0 -3.1476899118186325e-05 -5.7374173642440023e-05 0 -6.4702200911598723e-05 -6.1621355082564329e-05 0 -6.2283878378026862e-05 -5.8365005532044347e-05 0 -6.219053370732909e-05 -5.693198934563075e-05 0 -4.0118186901858673e-05 -4.4609192761007466e-05 0 -4.0493665409021801e-05 -4.822836683102658e-05 0 -4.2708785270063728e-05 -5.2269618458091933e-05 0 -6.4873076943795647e-06 3.5378427436703677e-07 0 -4.611999350176052e-06 3.653594240032513e-07 0 -6.0851071560398026e-06 2.0378080660076114e-07 0 -0.00013342275103013395 0.00021551900380948914 0 -0.0001348844368877744 0.00018511230402697495 0 -0.00011409468196920323 0.00019057907889446111 0 -0.00011146589473224572 0.00016683066302358563 0 -0.00011409468196920323 0.00019057907889446111 0 -0.0001348844368877744 0.00018511230402697495 0 -4.5641794416837427e-05 -4.2194424524338781e-05 0 -4.8680188119751284e-05 -4.241853681439657e-05 0 -4.8502446704681611e-05 -4.5713348283139722e-05 0 -1.4833557144211075e-05 -3.3306152547416506e-06 0 -1.4807609804866802e-05 -3.9321857395275502e-06 0 -1.7135035912179156e-05 -5.588041130712644e-06 0 -4.1423694648514213e-05 -2.2629846782317449e-05 0 -3.9837973033523152e-05 -2.2121705913207344e-05 0 -3.8764870515076205e-05 -1.8188166947693804e-05 0 -3.6914389834161221e-05 -1.6121253827778065e-05 0 -3.8764870515076205e-05 -1.8188166947693804e-05 0 -3.9837973033523152e-05 -2.2121705913207344e-05 0 -0.00010154660054045969 0.00021425644242022173 0 -0.00010109379701100087 0.00024431218359728842 0 -0.00012045896553428424 0.00023698026330739273 0 -5.2634899955402753e-05 -0.00010682737750493379 0 -5.6394210589544571e-05 -0.00012057262632466297 0 -4.7628474320522189e-05 -0.00011634309957311682 0 -5.2634899955402753e-05 -0.00010682737750493379 0 -4.5134169931700769e-05 -9.5779472792756286e-05 0 -5.2963381734273234e-05 -9.438742425633696e-05 0 -9.101177855360449e-06 -2.85656719125734e-06 0 -1.3762745352603232e-05 -4.3874808234033108e-06 0 -1.0523490284423355e-05 -2.673742280635364e-06 0 -1.1601645258827655e-05 1.2898759153938751e-06 0 -1.3029708474505294e-05 5.5230821768505287e-07 0 -1.7670205425769828e-05 2.2753395693304821e-06 0 -2.3661981449175395e-05 4.7471785463384667e-06 0 -1.7670205425769828e-05 2.2753395693304821e-06 0 -2.2739879157482441e-05 3.3619196122669623e-06 0 -1.802424257299473e-05 -6.6262511747121672e-06 0 -1.7781276544850785e-05 -5.7605812442885093e-06 0 -1.376274535260323e-05 -4.3874808234033108e-06 0 -1.9247724054306258e-05 -6.8577867033765472e-06 0 -1.9721318569887334e-05 -5.7785305167065822e-06 0 -1.6999255689838647e-05 -4.0530299954377488e-06 0 -0.00013342275103013395 0.00021551900380948914 0 -0.00012045896553428424 0.00023698026330739273 0 -0.00014240505624556484 0.00024684447231811769 0 -4.0201600620726091e-05 -0.00010493349314559136 0 -4.7628474320522189e-05 -0.00011634309957311682 0 -3.9648528081927874e-05 -0.00011931738524154272 0 -4.0201600620726091e-05 -0.00010493349314559136 0 -3.6145608867393204e-05 -8.9677319516246932e-05 0 -4.5134169931700769e-05 -9.5779472792756286e-05 0 -5.8489308831774168e-05 -7.5041674128550795e-05 0 -6.7429198904017451e-05 -7.5167199031793888e-05 0 -6.7632443181551399e-05 -8.5292877707309294e-05 0 -5.1465001430435363e-05 -4.633660372455298e-05 0 -4.8502446704681611e-05 -4.5713348283139722e-05 0 -4.8680188119751284e-05 -4.241853681439657e-05 0 -1.5816996328289151e-05 5.0086450869318718e-06 0 -1.7293107556463334e-05 8.3191925511346855e-06 0 -2.0931649784699856e-05 7.1719087936941282e-06 0 -2.2976278953730247e-05 -1.1832518888420381e-05 0 -2.0033603434665693e-05 -8.3697873891507801e-06 0 -2.203404272099595e-05 -1.0354253672586591e-05 0 -1.3856321115402461e-05 -3.6741326878563967e-06 0 -1.8520933213675263e-05 -5.6922941557286912e-06 0 -1.5630004294445399e-05 -4.1678451154914583e-06 0 -0.00010126954178536276 0.00011570092237755082 0 -8.5236194504948669e-05 0.00011752347743726514 0 -9.750527139187506e-05 0.00014163545677434614 0 -6.9332408439174307e-05 -6.3394770316951932e-05 0 -6.7429198904017451e-05 -7.5167199031793888e-05 0 -6.2248191394198319e-05 -6.4492503712998767e-05 0 -3.9792378965611273e-05 0.00026297292805073017 0 -6.238376539572216e-05 0.00026394878954537593 0 -5.0798205510050062e-05 0.00024336016593602081 0 -8.5051039770704751e-05 -0.00013423988838009984 0 -7.486180611530431e-05 -0.00013340130729909639 0 -7.8049249576519279e-05 -0.00012339107872048986 0 -3.4840025481065295e-05 0.00015774480646461468 0 -4.8883231001012568e-05 0.00018100209933739423 0 -6.2437777469631276e-05 0.00016064919918131902 0 -2.2749655605459425e-05 -8.3865188438584246e-06 0 -2.4453953086643263e-05 -8.9398894288912997e-06 0 -2.8128343604717706e-05 -1.1570381625095028e-05 0 -1.8190831647811063e-05 -6.6688354527532756e-06 0 -1.7135035912179156e-05 -5.588041130712644e-06 0 -1.4807609804866802e-05 -3.9321857395275502e-06 0 -6.2782431865736094e-05 -9.4559700454190419e-05 0 -6.7632443181551399e-05 -8.5292877707309294e-05 0 -7.2768418045639818e-05 -9.5404465932830197e-05 0 -5.9175677953190164e-05 -5.4598084153739222e-05 0 -6.219053370732909e-05 -5.693198934563075e-05 0 -6.2283878378026862e-05 -5.8365005532044347e-05 0 -4.2160325408751441e-05 -5.2166158695825776e-05 0 -4.2708785270063722e-05 -5.2269618458091933e-05 0 -4.0493665409021801e-05 -4.822836683102658e-05 0 -1.1582479356152098e-05 -1.8762645432228744e-06 0 -1.2991980770126995e-05 -2.8569354319472331e-06 0 -1.4807609804866802e-05 -3.9321857395275502e-06 0 -0.0001413380245279255 0.00038917141128737813 0 -0.00015099459384188425 0.00037283517969383074 0 -0.00012685688499423209 0.00037417949177684048 0 -0.00013764964399533389 0.00035657911781178316 0 -0.00012685688499423209 0.00037417949177684048 0 -0.00015099459384188425 0.00037283517969383074 0 -5.0035972982835575e-05 -0.00017311132672216776 0 -5.4372096038545986e-05 -0.00018138633423049318 0 -4.6040710402896502e-05 -0.00017857406721552462 0 -4.9887738186639581e-05 -0.00018564176043537998 0 -4.6040710402896502e-05 -0.00017857406721552462 0 -5.4372096038545986e-05 -0.00018138633423049318 0 -3.4965006849868954e-05 0.00038037009117001673 0 -4.6612263946254319e-05 0.0003695389892798304 0 -2.5497655571039816e-05 0.00036369021797705308 0 -9.3888878549939036e-05 -0.00019005031139696839 0 -8.7536095363048631e-05 -0.00018343807444265361 0 -9.8141955507041417e-05 -0.00018287112969805758 0 -3.6010780979150547e-05 0.00035093273869478474 0 -2.5497655571039816e-05 0.00036369021797705308 0 -4.6612263946254319e-05 0.0003695389892798304 0 -9.2207246314959538e-05 -0.00017564086854387239 0 -9.8141955507041417e-05 -0.00018287112969805758 0 -8.7536095363048631e-05 -0.00018343807444265361 0 -4.5641794416837427e-05 -4.2194424524338781e-05 0 -4.8502446704681611e-05 -4.5713348283139722e-05 0 -4.5855804146353436e-05 -4.5806479573128816e-05 0 -5.1972321946606476e-05 -4.2449037365735993e-05 0 -4.984897180504998e-05 -3.7406762165089159e-05 0 -5.297531857451929e-05 -4.0716784638760379e-05 0 -5.1571272942588593e-05 -3.7324948883700811e-05 0 -5.297531857451929e-05 -4.0716784638760379e-05 0 -4.984897180504998e-05 -3.7406762165089159e-05 0 -4.8481971374302662e-05 -4.8723562173759836e-05 0 -5.0857525095104325e-05 -4.8759446357277716e-05 0 -5.0952663945213779e-05 -5.167361829006716e-05 0 -5.3562462388986129e-05 -5.005445621706958e-05 0 -5.0952663945213779e-05 -5.167361829006716e-05 0 -5.0857525095104325e-05 -4.8759446357277716e-05 0 -1.4830086913643792e-05 1.7048860874199512e-05 0 -1.7913724873273577e-05 1.1587560028350323e-05 0 -2.0432446509818103e-05 1.2401515564845057e-05 0 -2.382901370882826e-05 1.2555695686962796e-05 0 -3.2218646515018667e-05 1.7530084859381739e-05 0 -2.8493484990518903e-05 1.0942871249609309e-05 0 -3.7776034688766195e-05 1.5690638817610471e-05 0 -2.8493484990518903e-05 1.0942871249609309e-05 0 -3.2218646515018667e-05 1.7530084859381739e-05 0 -2.2749655605459425e-05 -8.3865188438584246e-06 0 -2.6554020235184303e-05 -1.1748276352093768e-05 0 -2.1619344753791769e-05 -8.3348528313661962e-06 0 -0.00010126954178536276 0.00011570092237755082 0 -8.4193938472212809e-05 9.6540369100981869e-05 0 -8.5236194504948669e-05 0.00011752347743726514 0 -6.7841249427837491e-05 9.9757913902956324e-05 0 -8.5236194504948669e-05 0.00011752347743726514 0 -8.4193938472212809e-05 9.6540369100981869e-05 0 -1.7391412799077008e-05 8.7756464493947399e-06 0 -1.7913724873273577e-05 1.1587560028350323e-05 0 -1.4480156676781849e-05 1.2180273758011035e-05 0 -3.8514969940510231e-05 -4.0445109167449653e-05 0 -4.0406429902948024e-05 -4.5087993975068686e-05 0 -3.697456024895325e-05 -4.1405776831497194e-05 0 -3.8696999875941453e-05 -4.4871656867856099e-05 0 -3.697456024895325e-05 -4.1405776831497194e-05 0 -4.0406429902948024e-05 -4.5087993975068686e-05 0 -1.2483311011700615e-05 1.07748883507636e-05 0 -1.4480156676781849e-05 1.2180273758011035e-05 0 -1.3166945080074411e-05 1.5428376239092709e-05 0 -5.4008370882622684e-05 -5.6392254399335031e-05 0 -6.118138089696544e-05 -5.5124336232043336e-05 0 -6.2248191394198319e-05 -6.4492503712998767e-05 0 -6.9332408439174307e-05 -6.3394770316951932e-05 0 -6.2248191394198319e-05 -6.4492503712998767e-05 0 -6.118138089696544e-05 -5.5124336232043336e-05 0 -1.2750174577736758e-05 5.7449811504225937e-06 0 -1.5827220390129282e-05 5.819324414777324e-06 0 -1.3418772451229465e-05 8.3467336520001497e-06 0 -1.2483311011700615e-05 1.07748883507636e-05 0 -1.3418772451229465e-05 8.3467336520001497e-06 0 -1.4480156676781849e-05 1.2180273758011035e-05 0 -5.1571272942588593e-05 -3.7324948883700811e-05 0 -5.1856264646234892e-05 -3.5620737900667674e-05 0 -5.4455176892093597e-05 -4.0624905736088136e-05 0 -1.8190831647811063e-05 -6.6688354527532756e-06 0 -2.0033603434665693e-05 -8.3697873891507801e-06 0 -1.7135035912179156e-05 -5.588041130712644e-06 0 -1.9247724054306258e-05 -6.8577867033765472e-06 0 -1.7135035912179156e-05 -5.588041130712644e-06 0 -2.0033603434665693e-05 -8.3697873891507801e-06 0 -1.7790381732668788e-05 -2.7444598699231458e-06 0 -1.6999255689838647e-05 -4.0530299954377488e-06 0 -1.9721318569887334e-05 -5.7785305167065822e-06 0 4.074047000533478e-06 0.00025338521745944548 0 -1.8354817631858642e-05 0.00027054423074189635 0 -1.4912993844925172e-05 0.0002486475134872028 0 -0.00010574036470103672 -0.00013442331213313146 0 -9.5933560111075147e-05 -0.00013977420972713232 0 -9.5866099973628043e-05 -0.00012907624077903535 0 -2.9695102342889835e-05 -1.1632695854997828e-05 0 -2.8128343604717706e-05 -1.1570381625095028e-05 0 -2.4453953086643263e-05 -8.9398894288913014e-06 0 -2.0946578955993955e-09 1.3677392847521976e-10 0 -1.5553159511314408e-06 2.4898224201893815e-07 0 -1.3753530352434481e-06 2.0483430685467101e-07 0 9.2175291316366928e-06 0.00015566682173437523 0 -1.0843752845013219e-05 0.00016761904103539788 0 -1.2155394375082753e-05 0.00014603886608990978 0 -4.8481971374302662e-05 -4.8723562173759836e-05 0 -4.5855804146353436e-05 -4.5806479573128816e-05 0 -4.8502446704681611e-05 -4.5713348283139722e-05 0 -2.483482080391178e-05 6.4921228719106304e-06 0 -2.8493484990518903e-05 1.0942871249609309e-05 0 -3.3390544171323817e-05 1.0465234481490553e-05 0 -3.7776034688766195e-05 1.5690638817610471e-05 0 -3.3390544171323817e-05 1.0465234481490553e-05 0 -2.8493484990518903e-05 1.0942871249609309e-05 0 -5.5527115591119235e-05 -3.9450508965865442e-05 0 -5.4455176892093597e-05 -4.0624905736088136e-05 0 -5.1856264646234892e-05 -3.5620737900667674e-05 0 
</DataArray>
</PointData>
<CellData Scalars="region_id,cross_section_updated,displacement_divergence," Vectors="" Tensors="stress,">
<DataArray type="Float64" Name="region_id" format="ascii">
2 2 2 2 2 2 2 2 2 2 3 3 3 3 3 3 3 3 3 3 1 1 1 1 1 1 1 1 1 1 1 1 1 1 1 1 1 1 1 1 1 1 1 1 1 1 1 1 1 1 1 1 1 1 1 1 1 1 1 1 1 1 1 1 1 1 1 1 1 1 1 1 1 1 1 1 1 1 1 1 1 1 1 1 1 1 1 1 1 1 1 1 1 1 1 1 1 1 1 1 1 1 1 1 1 1 1 1 1 1 1 1 1 1 1 1 1 1 1 1 1 1 1 1 1 1 1 1 1 1 1 1 1 1 1 1 1 1 1 1 1 1 1 1 1 1 1 1 1 1 1 1 1 1 1 1 1 1 1 1 1 1 1 1 1 1 1 1 1 1 1 1 1 1 1 1 1 1 1 1 1 1 1 1 1 1 1 1 1 1 1 1 1 1 1 1 1 1 1 1 1 1 1 1 1 1 1 1 1 1 1 1 1 1 1 1 1 1 1 1 1 1 1 1 1 1 1 1 1 1 1 1 1 1 1 1 1 1 1 1 1 1 1 1 1 1 1 1 1 1 1 1 1 1 1 1 1 1 1 1 1 1 1 1 1 1 1 1 1 1 1 1 1 1 1 1 1 1 1 1 1 1 1 1 1 1 1 1 1 1 1 1 1 1 1 1 1 1 1 1 1 1 1 1 1 1 1 1 1 1 1 1 1 1 1 1 1 1 1 1 1 1 1 1 1 1 1 1 1 1 1 1 1 1 1 1 1 1 1 1 1 1 1 1 1 1 1 1 1 1 1 1 1 1 1 1 1 1 1 1 1 1 1 1 1 1 1 1 1 1 1 1 1 1 1 1 1 1 1 1 1 1 1 1 1 1 1 1 1 1 1 1 1 1 1 1 1 1 1 1 1 1 1 1 1 1 1 1 1 1 1 1 1 1 1 1 1 1 1 1 1 1 1 1 1 1 1 1 1 1 1 1 1 1 1 1 1 1 1 1 1 1 1 1 1 1 1 1 1 1 1 1 1 1 1 1 1 1 1 1 1 1 1 1 1 1 1 1 1 1 1 1 1 1 1 1 1 1 1 1 1 1 1 1 1 1 1 1 1 1 1 1 1 1 1 1 1 1 1 1 1 1 1 1 1 1 1 1 1 1 1 1 1 1 1 1 1 1 1 1 1 1 1 1 1 1 1 1 1 1 1 1 1 1 1 1 1 1 1 1 1 1 1 1 1 1 1 1 1 1 1 1 1 1 1 1 1 1 1 1 1 1 1 1 1 1 1 1 1 1 1 1 1 1 1 1 1 1 1 1 1 1 1 1 1 1 1 1 1 1 1 1 1 1 1 1 1 1 1 1 1 1 1 1 1 1 1 1 1 1 1 1 1 1 1 1 1 1 1 1 1 1 1 1 1 1 1 1 1 1 1 1 1 1 1 1 1 1 1 1 1 1 1 1 1 1 1 1 1 1 1 1 1 1 1 1 1 1 1 1 1 1 1 1 1 1 1 1 1 1 1 1 1 1 1 1 1 1 1 1 1 1 1 1 1 1 1 1 1 1 1 1 1 1 1 1 1 1 1 1 1 1 1 1 1 1 1 1 1 1 1 1 1 1 1 1 1 1 1 1 1 1 1 1 1 1 1 1 1 1 1 1 1 1 1 1 1 1 1 1 1 1 1 1 1 1 1 1 1 1 1 1 1 1 1 1 1 1 1 1 1 1 1 1 1 1 1 1 1 1 1 1 1 1 1 1 1 1 1 1 1 1 1 1 1 1 1 1 1 1 1 1 1 1 1 1 1 1 1 1 1 1 1 1 1 1 1 1 1 1 1 1 1 1 1 1 1 1 1 1 1 1 1 1 1 1 1 1 1 1 1 1 1 1 1 1 1 1 1 1 1 1 1 1 1 1 1 1 1 1 1 1 1 1 1 1 1 1 1 1 1 1 1 1 1 1 1 1 1 1 1 1 1 1 1 1 1 1 1 1 1 1 1 1 1 1 1 1 1 1 1 1 1 1 1 1 1 1 1 1 1 1 1 1 1 1 1 1 1 1 1 1 1 1 1 1 1 1 1 1 1 1 1 1 1 1 1 1 1 1 1 1 1 1 1 1 1 1 1 1 1 1 1 1 1 1 1 1 1 1 1 1 1 1 1 1 1 1 1 1 1 1 1 1 1 1 1 1 1 1 1 1 1 1 1 1 1 1 1 1 1 1 1 1 1 1 1 1 1 1 1 1 1 1 1 1 1 1 1 1 1 1 1 1 1 1 1 1 1 1 1 1 1 1 1 1 1 1 1 1 1 1 1 1 1 1 1 1 1 1 1 1 1 1 1 1 1 1 1 1 1 1 1 1 1 1 1 1 1 1 1 1 1 1 
</DataArray>
<DataArray type="Float64" Name="stress" NumberOfComponents="9" format="ascii">
-5.6047915215692444e-05 -6.7305380606271984e-05 0 -6.7305380606271984e-05 -1.8682638405230788e-05 0 0 0 -1.8682638405230788e-05 -6.4391943987435218e-05 -7.5277525053030518e-05 0 -7.5277525053030518e-05 -2.1463981329145055e-05 0 0 0 -2.1463981329145055e-05 -7.0839967242812053e-05 -8.5792870864819285e-05 0 -8.5792870864819285e-05 -2.3613322414270702e-05 0 0 0 -2.3613322414270702e-05 -6.4965160289379696e-05 -8.7635934482103105e-05 0 -8.7635934482103105e-05 -2.1655053429793286e-05 0 0 0 -2.1655053429793286e-05 -5.7091071301330074e-05 -8.6457378011191863e-05 0 -8.6457378011191863e-05 -1.903035710044325e-05 0 0 0 -1.903035710044325e-05 -5.3859893326655989e-05 -8.4024264420834221e-05 0 -8.4024264420834221e-05 -1.7953297775552015e-05 0 0 0 -1.7953297775552015e-05 -5.3595807582503072e-05 -7.9494748849680231e-05 0 -7.9494748849680231e-05 -1.7865269194167709e-05 0 0 0 -1.7865269194167709e-05 -5.3964857775313114e-05 -7.4677138967064842e-05 0 -7.4677138967064842e-05 -1.7988285925104371e-05 0 0 0 -1.7988285925104371e-05 -3.4754193941161863e-05 -6.4485630913157631e-05 0 -6.4485630913157631e-05 -1.1584731313720657e-05 0 0 0 -1.1584731313720657e-05 -0.00010388595052146662 -6.446665099079491e-05 0 -6.446665099079491e-05 -3.4628650173822205e-05 0 0 0 -3.4628650173822205e-05 0.00010654643294274951 0.00012745480004307618 0 0.00012745480004307618 3.5515477647583176e-05 0 0 0 3.5515477647583176e-05 -4.7550743170674824e-05 6.3974917921522762e-05 0 6.3974917921522762e-05 -1.5850247723558273e-05 0 0 0 -1.5850247723558273e-05 -5.4665675990563553e-05 0.00011739581947634985 0 0.00011739581947634985 -1.8221891996854527e-05 0 0 0 -1.8221891996854527e-05 -6.3735168316786655e-05 0.00010566245851627136 0 0.00010566245851627136 -2.1245056105595549e-05 0 0 0 -2.1245056105595549e-05 -7.1099048968129957e-05 0.0001145022166263701 0 0.0001145022166263701 -2.3699682989376634e-05 0 0 0 -2.3699682989376634e-05 -7.8096260070453229e-05 0.00011332847812490815 0 0.00011332847812490815 -2.6032086690151081e-05 0 0 0 -2.6032086690151081e-05 -7.8471192733284994e-05 0.00010763087109902142 0 0.00010763087109902142 -2.6157064244428313e-05 0 0 0 -2.6157064244428313e-05 -0.00011700900714818407 0.0001152503374523431 0 0.0001152503374523431 -3.900300238272804e-05 0 0 0 -3.900300238272804e-05 2.2936956690059948e-05 9.115768937890587e-05 0 9.115768937890587e-05 7.6456522300199917e-06 0 0 0 7.6456522300199917e-06 -0.00052200549688593797 0.0001125758578703485 0 0.0001125758578703485 -0.0001740018322953126 0 0 0 -0.0001740018322953126 -0.07189087740978195 -0.020909563543617303 0 -0.020909563543617303 0.03041334851691585 0 0 0 -0.010369382223216539 -0.06659001875257782 -0.021456046785136337 0 -0.021456046785136337 0.051832186877858788 0 0 0 -0.0036894579686797407 -0.086450774527837032 -0.013598896250781922 0 -0.013598896250781922 0.045033540095988644 0 0 0 -0.010354308607962104 -0.090269531753901316 -0.0012907790795999019 0 -0.0012907790795999019 0.046252338538294795 0 0 0 -0.011004298303901618 -0.18569899011926072 -0.0049790949920498068 0 -0.0049790949920498068 0.0018208961989136657 0 0 0 -0.04596952348008676 -0.14187479590310484 -0.0016183523934575166 0 -0.0016183523934575166 -0.00077342712375142418 0 0 0 -0.035662055756714078 -0.19440445035273282 -0.0019836320976089339 0 -0.0019836320976089339 -0.0017120500154259762 0 0 0 -0.049029125092039702 -0.1470422562570203 -0.0029205097193662332 0 -0.0029205097193662332 -0.0010586839363689871 0 0 0 -0.037025235048347316 -0.16039213044149331 0.0034401323976747666 0 0.0034401323976747666 -0.00049396139133528472 0 0 0 -0.04022152295820712 -0.26576573854173019 -0.011663534209140132 0 -0.011663534209140132 -0.00048571209211656363 0 0 0 -0.066562862658461758 -0.039809304064909928 0.0031379215506030034 0 0.0031379215506030034 -0.018797969931181047 0 0 0 -0.014651818499022751 -0.044608898896475381 0.0046129245101360229 0 0.0046129245101360229 -0.013125555402605148 0 0 0 -0.014433613574770124 -0.075610344506831684 -0.00067699147983620121 0 -0.00067699147983620121 -0.011773242269218985 0 0 0 -0.021845896694012656 -0.074424825182817317 -0.0081598607147803578 0 -0.0081598607147803578 -0.024812389590185769 0 0 0 -0.024809303693250774 -0.075963583238857116 0.0012707359997497607 0 0.0012707359997497607 -0.025321009111213776 0 0 0 -0.025321148087517724 -0.082201472358858205 -0.022067009867327264 0 -0.022067009867327264 0.030277038939997031 0 0 0 -0.012981108354715262 0.15947228539821251 0.13030817677290582 0 0.13030817677290582 0.28302080723903633 0 0 0 0.1106232731593122 -0.00077616209414932413 -0.012578860699994587 0 -0.012578860699994587 0.0098163717418340291 0 0 0 0.0022600524119211762 -0.0025506079370050116 0.0057634689921326476 0 0.0057634689921326476 0.018280542632436614 0 0 0 0.0039324836738581226 0.0014132912413766796 0.015066304159526782 0 0.015066304159526782 0.030172240167372522 0 0 0 0.0078963828521874113 -0.0012521696300265006 -0.0056532074668075106 0 -0.0056532074668075106 0.0083883491338765381 0 0 0 0.0017840448759625094 -0.015034532767611131 0.022965968066307241 0 0.022965968066307241 0.01113273601661513 0 0 0 -0.00097544918774894462 -0.011291809473289338 -0.026244476577991449 0 -0.026244476577991449 0.0081094117201110372 0 0 0 -0.00079559943829454749 -0.069906229205627182 0.0027975913203197702 0 0.0027975913203197702 -0.012952841139878863 0 0 0 -0.020714767586376519 0.17432924969201063 -0.0083939837105521109 0 -0.0083939837105521109 0.17839443001265404 0 0 0 0.088180919926166196 -0.27639634276771208 0.019167609575927003 0 0.019167609575927003 0.0086585412391033678 0 0 0 -0.066934450382152288 -0.15584765539356193 -0.0079114985388566584 0 -0.0079114985388566584 0.0034231404037128321 0 0 0 -0.038106128747462387 -0.13154293290479546 -0.027623756485962644 0 -0.027623756485962644 0.021891852249204535 0 0 0 -0.027412770163897704 -0.14156758648823353 0.034773120492246873 0 0.034773120492246873 0.082554386721936712 0 0 0 -0.014753299941574149 -0.15989348530443526 -0.02185534765571584 0 -0.02185534765571584 0.015615750251303989 0 0 0 -0.036069433763282838 -0.075025521387183949 -0.029898485112473634 0 -0.029898485112473634 0.060885733644129164 0 0 0 -0.0035349469357636859 -0.034516397412124866 -0.037662784211260014 0 -0.037662784211260014 0.0088211322033026063 0 0 0 -0.0064238163022053429 -0.038815966259069246 0.046954566617282145 0 0.046954566617282145 0.0085483614976993305 0 0 0 -0.0075669011903425343 -0.037170150713330075 -0.038317807333162923 0 -0.038317807333162923 0.012958265206276742 0 0 0 -0.0060529713767633053 -0.0475652089680767 0.050412801072910796 0 0.050412801072910796 0.0031154955455692246 0 0 0 -0.011112428355626758 -0.12577435590162916 -0.031837667781045728 0 -0.031837667781045728 0.0068220438707337627 0 0 0 -0.029738078007723913 -0.044103485640575688 -0.057269201338991133 0 -0.057269201338991133 0.085300627850306537 0 0 0 0.010299285552432737 -0.16265596035950783 0.020925974851385087 0 0.020925974851385087 0.02270826451872443 0 0 0 -0.034986923960195843 0.30173995675098864 0.15698168460415643 0 0.15698168460415643 0.094990215748502749 0 0 0 0.099182543124872846 -0.0029329963542873427 0.0081917723367834205 0 0.0081917723367834205 0.032816386588928603 0 0 0 0.0074708475586602319 -0.0065347862255004663 -0.0086402311683233951 0 -0.0086402311683233951 0.082059625905891664 0 0 0 0.018881209920097841 -0.066390553704314084 -0.030534872800149791 0 -0.030534872800149791 0.10279196875130953 0 0 0 0.0091003537617488552 -0.0056689716083431207 -0.024087726997664483 0 -0.024087726997664483 0.08474676304710016 0 0 0 0.019769447859689038 -0.0084017737868884446 0.0039849327287111436 0 0.0039849327287111436 -0.0026022182037639396 0 0 0 -0.0027509979976625409 -0.057652956660112407 -0.0074603217457193394 0 -0.0074603217457193394 -0.025423011583737491 0 0 0 -0.020768992060962478 -0.062251904752008855 0.0048013877145923999 0 0.0048013877145923999 -0.01984607606616989 0 0 0 -0.020524495204544684 -0.093884398541296543 0.086601136749103524 0 0.086601136749103524 0.085056970521531411 0 0 0 -0.0022068570049412761 -0.087401561794094002 0.078726917434375432 0 0.078726917434375432 0.059630829619980785 0 0 0 -0.0069426830435282139 0.13399533924942333 0.18323926159018877 0 0.18323926159018877 0.32406626490811369 0 0 0 0.11451540103938421 -0.013679297190773668 0.0079348975846991188 0 0.0079348975846991188 0.00128082681176242 0 0 0 -0.0030996175947525378 -0.023772695690709535 -0.025000504280881408 0 -0.025000504280881408 0.070712507852037879 0 0 0 0.011734953040331973 -0.029288287940348712 -0.012304450336451833 0 -0.012304450336451833 -0.0045242803922074248 0 0 0 -0.0084531420831390758 -0.069823459794730619 -0.028025872966712696 0 -0.028025872966712696 0.077101828074504275 0 0 0 0.0018195920699434018 -0.053470784014442357 -0.035581788835264389 0 -0.035581788835264389 0.0050271969700595998 0 0 0 -0.012110896761095696 -0.035938801118760022 -0.0076252151744547192 0 -0.0076252151744547192 0.029555774047975825 0 0 0 -0.0015957567676960771 -0.13343964836433719 0.023140569080077444 0 0.023140569080077444 -0.00048879954612512932 0 0 0 -0.033482111977615858 -0.011225881453920339 -0.0058824072992461618 0 -0.0058824072992461618 0.00054834357258570776 0 0 0 -0.0026693844703336023 -0.016554360158666626 0.025269095795044993 0 0.025269095795044993 0.13541451895091328 0 0 0 0.029715039698061219 -0.025245484701124445 -0.020553130983487655 0 -0.020553130983487655 0.096638872818184882 0 0 0 0.017848347029265275 0.002221621507052074 0.00052021276344117566 0 0.00052021276344117566 -0.0013354651118575589 0 0 0 0.00022153909879873979 -0.030369462661800961 -0.00072380834387369974 0 -0.00072380834387369974 0.0076646129997715029 0 0 0 -0.0056762124155074201 0.003697592165453966 -0.082122803211755857 0 -0.082122803211755857 0.13333281041376319 0 0 0 0.034257600644804279 -0.028409108194064336 -0.002117678669725287 0 -0.002117678669725287 0.0056885587021366923 0 0 0 -0.0056801373729820082 -0.040049487492837155 -0.012144086262153769 0 -0.012144086262153769 0.0087360259492977876 0 0 0 -0.0078283653858848279 -0.05612879699846085 -0.044893694642169968 0 -0.044893694642169968 0.012423392102677067 0 0 0 -0.010926351223946029 -0.13599047478109674 -0.013238472035919465 0 -0.013238472035919465 -0.023286499996153485 0 0 0 -0.03981924369431257 -0.17381425009531229 0.0050796679277468511 0 0.0050796679277468511 -0.027939603277244061 0 0 0 -0.050438463343139089 0.002820735251809496 0.004551832481435647 0 0.004551832481435647 0.019889111916632108 0 0 0 0.0056774617921104987 0.0052731582678647304 -0.0057523834544974672 0 -0.0057523834544974672 0.068388646522344443 0 0 0 0.018415451197552279 -0.12955454310469178 -0.0087730289572814212 0 -0.0087730289572814212 -0.031985402521228515 0 0 0 -0.04038498640648007 -0.10687789880064998 -0.0033212471323720164 0 -0.0033212471323720164 -0.025862252772326868 0 0 0 -0.033185037893244208 -0.04970525765129994 -9.9477086253718411e-05 0 -9.9477086253718411e-05 -0.022846530107704863 0 0 0 -0.018137946939751199 -0.14135161688420095 0.0022479238317287542 0 0.0022479238317287542 -0.00075663958460733295 0 0 0 -0.035527064117202078 -0.1893535089425078 -0.011218663831439327 0 -0.011218663831439327 0.0014045877557659764 0 0 0 -0.046987230296685424 -0.043733150715106583 -0.024713582724159758 0 -0.024713582724159758 -0.0076704437654872004 0 0 0 -0.012850898620148488 -0.048493966410344314 -0.032720538160423696 0 -0.032720538160423696 0.0059951481705968201 0 0 0 -0.010624704559936915 0.0028876503930247432 0.024514027359727741 0 0.024514027359727741 0.16147724737571634 0 0 0 0.041091224442184715 -0.0074350290726980794 -0.0034386690631591499 0 -0.0034386690631591499 -0.0023099081112198383 0 0 0 -0.0024362342959793615 -0.045869354390492695 -0.027008078928248178 0 -0.027008078928248178 -0.010397589800307805 0 0 0 -0.014066736047700146 -0.033286261898668609 -0.013344893143325542 0 -0.013344893143325542 0.0083877549229569304 0 0 0 -0.0062246267439278608 -0.075265226313378841 0.069870100825650427 0 0.069870100825650427 0.00059446734527224265 0 0 0 -0.018667689742026372 -0.15223099404093723 0.0014506489779894968 0 0.0014506489779894968 -0.050771172868081284 0 0 0 -0.050750541727254628 -0.1206665819583493 -0.010416591002404361 0 -0.010416591002404361 -0.040246030334234927 0 0 0 -0.040228153073146054 -0.058425971534247438 -0.0069486521834921707 0 -0.0069486521834921707 -0.024369323788805537 0 0 0 -0.020698823830763245 -0.011959578338659904 0.031297701432175362 0 0.031297701432175362 0.02436244736647275 0 0 0 0.003100717256953045 -0.013630675816965754 -0.019077948857620264 0 -0.019077948857620264 0.0044010350093235395 0 0 0 -0.0023074102019104981 -0.043447946978375493 -0.042127038056544164 0 -0.042127038056544164 0.010606568196896149 0 0 0 -0.0082103446953699505 -0.044688270834999669 0.0027330209920526441 0 0.0027330209920526441 -0.018033722385652162 0 0 0 -0.015680498305162952 -0.10060645773314247 -0.018351117099812131 0 -0.018351117099812131 -0.009194613686517604 0 0 0 -0.027450267854914973 -0.041913986079642473 -0.011830522733879849 0 -0.011830522733879849 0.0093377432600426635 0 0 0 -0.0081440607049000358 -0.041607621721001402 0.00531347937702349 0 0.00531347937702349 -0.01634133906707947 0 0 0 -0.014487240197020216 -0.045966950072001043 0.004549770565434718 0 0.004549770565434718 -0.014519611599484729 0 0 0 -0.015121640417871446 -0.048905937080781649 0.0028670234894467672 0 0.0028670234894467672 -0.017927189811141817 0 0 0 -0.016708281722980868 -0.034348968274688474 -0.0054434699829378763 0 -0.0054434699829378763 0.023625918100129373 0 0 0 -0.0026807625436398586 -0.044964291086145428 -0.043895046131976284 0 -0.043895046131976284 0.03233667746299701 0 0 0 -0.0031569034057870593 -0.029323819872972112 -0.01146490978373424 0 -0.01146490978373424 0.010797868617911099 0 0 0 -0.0046314878137652671 -0.069378724400741665 -0.03307882574735177 0 -0.03307882574735177 0.10168426549788731 0 0 0 0.0080763852742864115 -0.022418535198732936 0.020245913464948639 0 0.020245913464948639 0.1780740713756721 0 0 0 0.038913884044234237 0.00082468585831607655 -0.00067851433211774093 0 -0.00067851433211774093 -0.00094544151194853043 0 0 0 -3.0188913408002449e-05 -0.0073630306779328691 -0.0061914074821963812 0 -0.0061914074821963812 -0.0036773858022103312 0 0 0 -0.0027601041200358001 -0.018905144451336842 0.017133507043565199 0 0.017133507043565199 0.1792436739705785 0 0 0 0.040084632379810525 -0.051625689288750297 0.022215332920441172 0 0.022215332920441172 0.1408734919036394 0 0 0 0.022311950653722275 -0.058640327527311624 0.0029753491628805293 0 0.0029753491628805293 -0.011422031715900813 0 0 0 -0.017515589810803103 -0.063505888189181472 0.0017587273614816175 0 0.0017587273614816175 -0.013551568842720204 0 0 0 -0.019264364257975432 -0.00036265896646470175 0.039678978962814915 0 0.039678978962814915 0.057911864613629405 0 0 0 0.014387301411791231 -0.028499433844725752 0.042626466486480941 0 0.042626466486480941 0.048534742171446155 0 0 0 0.0050088270816801561 -0.057569400671462545 -0.04543762725404081 0 -0.04543762725404081 0.032825634431487061 0 0 0 -0.0061859415599938017 0.0014140854070740505 -0.009886433738690914 0 -0.009886433738690914 0.015056074309900525 0 0 0 0.0041175399292436299 -0.0003829685978276598 0.0074851295744111854 0 0.0074851295744111854 -0.0049062319309061131 0 0 0 -0.0013223001321834293 -0.073620152000656205 0.0082444970111709703 0 0.0082444970111709703 0.091550898099521189 0 0 0 0.0044826865247162735 -0.0078121594818942874 0.0081751626085674843 0 0.0081751626085674843 -0.005125551350463553 0 0 0 -0.0032344277080893491 -0.025209742741572949 -0.019711769490434072 0 -0.019711769490434072 0.096601331014817937 0 0 0 0.017847897068311358 -0.14688221174039973 0.002775781049257714 0 0.002775781049257714 0.0010415697446403971 0 0 0 -0.036460160498939839 -0.23055726979368513 -0.010253500107977015 0 -0.010253500107977015 0.0015970703550712839 0 0 0 -0.057240049859653468 -0.025798039911727647 -0.040822741649907485 0 -0.040822741649907485 0.0134687957087129 0 0 0 -0.0030823110507536555 0.12746372962363217 -0.080140555826685111 0 -0.080140555826685111 0.064043839555824045 0 0 0 0.047876892294864082 -0.035966590537070742 -0.02595780569588188 0 -0.02595780569588188 -0.0015104733981966545 0 0 0 -0.0093692659838168213 -0.038018108022680505 -0.033241147339057392 0 -0.033241147339057392 0.00091082639460288162 0 0 0 -0.0092768204070194232 -0.00025562997995447548 -0.0083595544434842406 0 -0.0083595544434842406 0.026340694249603589 0 0 0 0.0065212660674121674 -0.0017103242657698914 0.0068324265714614363 0 0.0068324265714614363 0.02174353978018928 0 0 0 0.0050083038786050693 -0.00051275057036725968 0.0097636516234489434 0 0.0097636516234489434 0.053620873776695888 0 0 0 0.013277030801582157 -0.0018705566044959609 -0.0058962145465641935 0 -0.0058962145465641935 0.010006276918161408 0 0 0 0.0020339300784163617 -0.090968400491761636 0.045860435727803683 0 0.045860435727803683 0.11508895992677415 0 0 0 0.0060301398587530586 -0.049685749661990131 -0.022859678627366153 0 -0.022859678627366153 0.0033992796830786265 0 0 0 -0.011571617494727848 -0.040869593281404208 -0.018973846968396546 0 -0.018973846968396546 -0.0019969831093938697 0 0 0 -0.010716644097699506 -0.038240283068278452 -0.019189452529493001 0 -0.019189452529493001 -0.0030384092312756364 0 0 0 -0.0103196730748886 -0.022131163438906531 -0.043778461867841359 0 -0.043778461867841359 0.021522429627347517 0 0 0 -0.00015218345288969815 -0.19884788969459616 0.028256823111560081 0 0.028256823111560081 0.0039451564748713697 0 0 0 -0.048725683304931156 -0.093407048918416058 -0.0059164496101876823 0 -0.0059164496101876823 0.028093070180876034 0 0 0 -0.01632849468438502 -0.078745702884741836 -0.015712348096943454 0 -0.015712348096943454 0.025965679989835233 0 0 0 -0.013195005723726588 -0.023315962830721793 0.0037584941204774625 0 0.0037584941204774625 -0.010045230572975572 0 0 0 -0.0083402983509244244 -0.14267356827455979 0.049655170095777468 0 0.049655170095777468 -0.0032422459095053924 0 0 0 -0.036478953546015824 -0.1300518697687926 0.0046642575796497499 0 0.0046642575796497499 0.0060089531475839841 0 0 0 -0.031010729155302147 -0.12792376512790418 -0.0061212801832619124 0 -0.0061212801832619124 0.007933010322491163 0 0 0 -0.029997688701353248 -0.20544076773421902 0.0033547706942504418 0 0.0033547706942504418 0.017484501230170091 0 0 0 -0.046989066626012294 -0.20103750125268183 -0.022309182335682493 0 -0.022309182335682493 0.017138947289396023 0 0 0 -0.045974638490821507 -0.042422106681034445 -0.016381868155031065 0 -0.016381868155031065 0.00052760955445586843 0 0 0 -0.01047362428164459 -0.12139271652996161 -0.012752924803514643 0 -0.012752924803514643 0.0023865884934105575 0 0 0 -0.029751532009137854 0.018396253477919511 0.086537633116684498 0 0.086537633116684498 0.038558294426985107 0 0 0 0.014238636976226071 -0.075325685051990388 -0.022700837716975175 0 -0.022700837716975175 0.069527762726546954 0 0 0 -0.0014494805813608444 -0.042910888005007142 0.018186520103936996 0 0.018186520103936996 0.028361916305977071 0 0 0 -0.0036372429247575164 -0.040025511828869487 0.034318198688336299 0 0.034318198688336299 -0.0032277684532866502 0 0 0 -0.010813320070538923 -0.033442813859013654 -0.035104543945540301 0 -0.035104543945540301 0.02839339331007884 0 0 0 -0.0012623551372336617 -0.043217716402802017 -0.042283550652731872 0 -0.042283550652731872 0.037657293233948279 0 0 0 -0.001390105792213476 -0.008417841786794833 0.0065792662481393704 0 0.0065792662481393704 -0.0042067257395903557 0 0 0 -0.0031561418815964082 -0.039675482996528844 -0.018877213545390514 0 -0.018877213545390514 -0.0082973137591900725 0 0 0 -0.011993199188929771 -0.069357934600271773 -0.011878966491881042 0 -0.011878966491881042 -0.028288598216933299 0 0 0 -0.024411633204301265 -0.070464126067414687 0.0047888569657566615 0 0.0047888569657566615 -0.020982861733383058 0 0 0 -0.022861746950199435 -0.04113681119560858 -0.047210443787660372 0 -0.047210443787660372 0.023036228618139254 0 0 0 -0.004525145644367401 -0.10329173172642349 -0.028852345728674955 0 -0.028852345728674955 -0.0055548189556791916 0 0 0 -0.027211637670525687 -0.1256185888352811 -0.0045369521142149226 0 -0.0045369521142149226 0.036208352454624393 0 0 0 -0.022352559095164204 -0.04823136433519902 -0.0028642416048124683 0 -0.0028642416048124683 -0.025519288168007907 0 0 0 -0.018437663125801734 -0.046094222004769952 -5.6690366163228943e-05 0 -5.6690366163228943e-05 -0.02129701945176847 0 0 0 -0.016847810364134609 -0.056441453327617457 0.0022437041745372926 0 0.0022437041745372926 -0.016822299595766071 0 0 0 -0.018315938230845874 -0.056815384234074777 0.0033705032482521549 0 0.0033705032482521549 -0.017523376246999876 0 0 0 -0.018584690120268661 -0.11080730648530279 -0.020330184986322913 0 -0.020330184986322913 0.037361533495556765 0 0 0 -0.018361443247436493 -0.055319805387211221 0.014091054836724954 0 0.014091054836724954 0.025960994927681558 0 0 0 -0.0073397026148824228 -0.043389019288246178 -0.0031332979627888427 0 -0.0031332979627888427 -0.017842887568858844 0 0 0 -0.015307976714276254 -0.074269845923036162 -0.025691981264627378 0 -0.025691981264627378 -0.005959475035360623 0 0 0 -0.020057330239599186 -0.058678768674390314 0.017142749919142948 0 0.017142749919142948 0.074371625490340348 0 0 0 0.0039232142039875321 -0.073127423641501654 -0.004802672652981177 0 -0.004802672652981177 0.0025166303560877762 0 0 0 -0.017652698321353473 -0.070713667982408815 -0.0033422759428600943 0 -0.0033422759428600943 0.0094222114608597252 0 0 0 -0.015322864130387304 -0.15220983223090312 0.0014324166391441072 0 0.0014324166391441072 -0.050702851022533878 0 0 0 -0.050728170813359244 -0.12065007490497157 -0.010402528356585042 0 -0.010402528356585042 -0.040192777327762053 0 0 0 -0.040210713058183405 0.10330159633111946 0.049008251600971553 0 0.049008251600971553 0.056979862404339832 0 0 0 0.040070364683864823 -0.05960757982075969 0.0010447489864774486 0 0.0010447489864774486 -0.0002814162695184844 0 0 0 -0.014972249022569554 -0.086504294921113389 -0.016252051931742683 0 -0.016252051931742683 0.084305364254385173 0 0 0 -0.00054973266668206788 -0.017686663040872241 0.00045837074475002515 0 0.00045837074475002515 -0.019880339742482378 0 0 0 -0.009391750695838641 -0.14201750986536638 0.0044909090342286628 0 0.0044909090342286628 0.0014218874833492878 0 0 0 -0.035148905595504328 -0.21513588219549115 -0.012399750987539149 0 -0.012399750987539149 0.0018287344944815653 0 0 0 -0.053326786925252397 -0.04084800296970479 -0.016370128490302227 0 -0.016370128490302227 -0.012788756572046395 0 0 0 -0.01340918988543769 -0.13012023118258736 0.0076161424090181312 0 0.0076161424090181312 0.00036138790381961541 0 0 0 -0.032439710819691908 -0.15911194861360189 -0.034625010032855244 0 -0.034625010032855244 0.0012814328151989074 0 0 0 -0.039457628949600781 -0.13035372277705187 0.0035822823099924267 0 0.0035822823099924267 0.00023626996962855529 0 0 0 -0.032529363201855913 -0.088566701474031659 0.00028603619760497745 0 0.00028603619760497745 -0.0064656374074139183 0 0 0 -0.023758084720361398 -0.081272971837353769 -0.014375518794679455 0 -0.014375518794679455 -0.014216858362209456 0 0 0 -0.023872457549890827 -0.11860184953248773 -0.025242628142316148 0 -0.025242628142316148 0.01594740647111309 0 0 0 -0.025663610765343653 -0.049192767558228989 -0.017552497343013063 0 -0.017552497343013063 0.00082067400655327916 0 0 0 -0.0120930233879189 -0.026252409550628908 0.041378859083822328 0 0.041378859083822328 0.060227890151755226 0 0 0 0.0084938701502816905 -0.032820280974561689 -0.023673691737085278 0 -0.023673691737085278 -0.0054348649584246012 0 0 0 -0.0095637864832465169 -0.051818073100025445 -0.0024196313070606271 0 -0.0024196313070606271 -0.022703630555413419 0 0 0 -0.018630425913859713 -0.062485958385005258 0.0013594635847454016 0 0.0013594635847454016 -0.019266542056945838 0 0 0 -0.020438125110487777 -0.084296623418026531 -0.014507557287713706 0 -0.014507557287713706 -0.030532543677140631 0 0 0 -0.028707291773791783 -0.079929027911246578 0.004085510899434602 0 0.004085510899434602 -0.022885666090414737 0 0 0 -0.025703673500415327 -0.077451761619318521 -0.016848473224075997 0 -0.016848473224075997 0.014881186564148441 0 0 0 -0.015642643763792541 -0.076026260446405702 -0.02859763336690066 0 -0.02859763336690066 0.019870221641232477 0 0 0 -0.014039009701293237 -0.073282513742531474 0.08520280487904619 0 0.08520280487904619 0.019740987680580524 0 0 0 -0.013385381515487849 -0.01579696276964182 0.11108470414326643 0 0.11108470414326643 0.064127898758960189 0 0 0 0.012082733997329509 0.041230167191459666 0.0012715554023183528 0 0.0012715554023183528 0.077839733593009164 0 0 0 0.029767475196117194 -0.092384839769207985 -0.011890222050482638 0 -0.011890222050482638 0.064452889696297172 0 0 0 -0.0069829875182277484 -0.044217171033411086 0.0035289089554518976 0 0.0035289089554518976 -0.016534076194669321 0 0 0 -0.015187811807020099 -0.05016098626667187 -0.024252288187709345 0 -0.024252288187709345 -0.0061146974165930956 0 0 0 -0.014068920920816352 -0.06837337043997338 0.059843187023339461 0 0.059843187023339461 0.0034310558866690322 0 0 0 -0.01623557863832592 -0.025003843960994754 -0.0073518511618506088 0 -0.0073518511618506088 0.055372053594141546 0 0 0 0.0075920524082866425 -0.026767994106192378 -0.011547919189566325 0 -0.011547919189566325 -0.0068936784540240548 0 0 0 -0.0084154181400542261 -0.068769994603255308 0.00033604139739415364 0 0.00033604139739415364 -0.0096293166866734531 0 0 0 -0.019599827822482173 -0.11818750593768357 0.028845734114775923 0 0.028845734114775923 0.064604346133783075 0 0 0 -0.013395789950975179 -0.14602016506149901 0.00055452549268472846 0 0.00055452549268472846 -0.0024897077715669569 0 0 0 -0.037127468208266512 -0.20615933877901418 -0.0050967218625154785 0 -0.0050967218625154785 -0.0049526178115381347 0 0 0 -0.052777989147638107 -0.039903776023923671 -0.023930264187394065 0 -0.023930264187394065 0.00053851328045823044 0 0 0 -0.0098413156858662976 -0.094346417772206981 -0.0015603040700383403 0 -0.0015603040700383403 -0.017645171299655489 0 0 0 -0.027997897267965619 -0.10150761877212637 -0.0092992061598561916 0 -0.0092992061598561916 -0.027143005564536537 0 0 0 -0.032162656084165721 -0.23934358151341018 0.0072432755694286088 0 0.0072432755694286088 0.0046413936182903015 0 0 0 -0.058675546973780079 -0.14104932957008504 -0.0035737489042889092 0 -0.0035737489042889092 0.001231669719261419 0 0 0 -0.034954414962705849 -0.010647246144397132 0.037269439389493675 0 0.037269439389493675 0.16353356814524395 0 0 0 0.038221580500211655 0.07647731238519194 0.0010261211309140483 0 0.0010261211309140483 0.39119408067775957 0 0 0 0.11691784826573785 -0.048347481818552626 -0.051895629897402151 0 -0.051895629897402151 0.029693239053204201 0 0 0 -0.0046635606913370958 -0.065130670372289923 -0.04506948956122564 0 -0.04506948956122564 0.018647980896474237 0 0 0 -0.011620672368953866 -0.044085443433163736 -0.052332685280384102 0 -0.052332685280384102 0.071711874001442591 0 0 0 0.0069066076420697337 -0.0039540110184975719 0.0025915602111263869 0 0.0025915602111263869 -0.01494438817268684 0 0 0 -0.0047245997977960474 -0.049123346636908538 -0.00039990583078733095 0 -0.00039990583078733095 -0.020514363155352967 0 0 0 -0.017409427448065378 -0.10046912773348612 -0.012265400205207555 0 -0.012265400205207555 0.016160730791776712 0 0 0 -0.02107709923542736 8.971266381407883e-05 -0.00264007735401868 0 -0.00264007735401868 0.0018429979115719419 0 0 0 0.00048317764384653294 -0.20290758650318494 0.030993928892191547 0 0.030993928892191547 -0.00089610074395610195 0 0 0 -0.05095092181178526 -0.036806405361146322 0.033398327283010065 0 0.033398327283010065 -0.002101748521045721 0 0 0 -0.0097270384705478996 -0.027043636518820469 -0.035046509994710817 0 -0.035046509994710817 0.025482738040651487 0 0 0 -0.0003902246195421899 -0.060423168055808538 0.00073304103500282727 0 0.00073304103500282727 0.020413430912724816 0 0 0 -0.010002434285770932 -0.08636991170984612 -0.023824626105689861 0 -0.023824626105689861 0.019514720684966402 0 0 0 -0.016713797756219978 -0.043532657213631837 0.010049157747680178 0 0.010049157747680178 -0.00074786144373593932 0 0 0 -0.011070129664341951 -0.038538831737304935 0.015720144770089338 0 0.015720144770089338 0.010764402000775511 0 0 0 -0.0069436074341323543 -0.12309233336951317 -0.024782458304836295 0 -0.024782458304836295 -0.0016924429720986539 0 0 0 -0.031196194085402945 -0.057350871399798109 -0.041342151133145322 0 -0.041342151133145322 0.0066777212768314165 0 0 0 -0.012668287530741673 -0.17466384145382166 -0.020185899551255632 0 -0.020185899551255632 -0.0086160345627706129 0 0 0 -0.045819969004148059 -0.041878224073029324 0.058801138640430128 0 0.058801138640430128 0.013546366912770225 0 0 0 -0.0070829642900649414 -0.045147299334146324 0.062198939710067069 0 0.062198939710067069 0.01190516140575415 0 0 0 -0.008310534482098314 -0.048955045747757442 0.06496969742233194 0 0.06496969742233194 0.0045539116773092303 0 0 0 -0.011100283517611942 -0.044157370761671921 -0.038961551017965612 0 -0.038961551017965612 0.0068131941345099811 0 0 0 -0.0093360441567903463 -0.053034750417170921 -0.038553919175223661 0 -0.038553919175223661 0.0038363900344895105 0 0 0 -0.012299590095670436 0.044741262074332877 0.048718049333590904 0 0.048718049333590904 0.09081054435552427 0 0 0 0.033887951607464301 -0.049746953555989556 -0.003223109191054019 0 -0.003223109191054019 -0.016589678313634081 0 0 0 -0.016584157967405911 -0.05764741841426841 0.0026867450140209319 0 0.0026867450140209319 -0.019217154352336108 0 0 0 -0.019216143191651127 -0.058076965424229944 0.0029442341578926126 0 0.0029442341578926126 0.0026615522682238257 0 0 0 -0.01385385328900153 -0.020231480734967888 -0.026118155043211549 0 -0.026118155043211549 0.11630900776977515 0 0 0 0.024019381758701802 -0.14374792234378303 -0.031851570617460079 0 -0.031851570617460079 -0.0037008901960534635 0 0 0 -0.036862203134959165 -0.047516336119740814 0.0014933286735705077 0 0.0014933286735705077 -0.019115642456041991 0 0 0 -0.016657994643945701 -0.20681162923699514 -0.0079493183064810735 0 -0.0079493183064810735 -0.0048949107947835677 0 0 0 -0.052926635007944693 -0.14233641463588714 0.0015934923762019881 0 0.0015934923762019881 -0.0011890554095851935 0 0 0 -0.035881367511368126 -0.12426817714567351 -0.014758147485815221 0 -0.014758147485815221 0.00010230963689239481 0 0 0 -0.031041466877195334 -0.052064324696325139 0.0034579738158591203 0 0.0034579738158591203 -0.01418521537639229 0 0 0 -0.016562385018179353 -0.035146793818598962 -0.0083873172095422777 0 -0.0083873172095422777 0.029633464144224103 0 0 0 -0.001378332418593628 -0.069435104607138809 0.010421482954281091 0 0.010421482954281091 0.050745256968285059 0 0 0 -0.0046724619097134306 -0.012625529993005542 0.072122598456959786 0 0.072122598456959786 0.018689230156608089 0 0 0 0.0015159250409005273 -0.042657869118641216 0.0037327824413783297 0 0.0037327824413783297 -0.019434056848012794 0 0 0 -0.0155229814916635 -0.02650339617079478 0.030998157397901238 0 0.030998157397901238 -0.00010444073348203631 0 0 0 -0.0066519592260689819 -0.023352414474719474 -0.031719792909280842 0 -0.031719792909280842 0.012215808240465087 0 0 0 -0.0027841515585635968 -0.052392429643870551 0.0033792252374122058 0 0.0033792252374122058 -0.015131052808418222 0 0 0 -0.0168808706130722 -0.083730902238497246 -0.00031616441928586543 0 -0.00031616441928586543 0.0657652769955996 0 0 0 -0.0044914063107244018 -0.012484051757715164 0.02455034262958361 0 0.02455034262958361 0.037223806360660916 0 0 0 0.0061849386507364379 -0.0063160697207853556 0.019024473930227881 0 0.019024473930227881 0.0036474834602682193 0 0 0 -0.00066714656512956161 -0.0060772594250584344 -0.015500359880480846 0 -0.015500359880480846 -0.0028581079644478535 0 0 0 -0.0022338418473764055 -0.0099445421538316703 -0.021305916784531309 0 -0.021305916784531309 0.017082321169294978 0 0 0 0.0017844447538658548 -0.1555023612104621 0.0041471213987911426 0 0.0041471213987911426 0.038183310880626764 0 0 0 -0.029329762582458868 -0.097449613541105568 -0.028052750738279841 0 -0.028052750738279841 0.011454400630648953 0 0 0 -0.021498803227614299 -0.10882667527984163 -0.027814238355428123 0 -0.027814238355428123 0.010767494432700642 0 0 0 -0.024514795211785234 -0.16859693990226021 0.060743385030536889 0 0.060743385030536889 0.025062940775447018 0 0 0 -0.035883499781703354 -0.14291902896980335 0.061336112847050428 0 0.061336112847050428 0.026789063262936841 0 0 0 -0.0290324914267166 -0.065606817639129414 0.00039371476083940263 0 0.00039371476083940263 -0.017357775902417261 0 0 0 -0.020741148385386668 0.078229798628774216 0.039971879498614991 0 0.039971879498614991 0.048042973860787264 0 0 0 0.031568193122390453 -0.12828166432012383 -0.0095253178451210722 0 -0.0095253178451210722 -0.029168853843446016 0 0 0 -0.039362629540892473 -0.10772311360064142 -0.0031695328674766904 0 -0.0031695328674766904 -0.020865326794720414 0 0 0 -0.032147110098840456 -0.083482564810372001 -0.020017028442443602 0 -0.020017028442443602 0.042549177558634244 0 0 0 -0.010233346812934439 -0.084798705908724278 0.0019137650965010064 0 0.0019137650965010064 -0.013209162853617369 0 0 0 -0.024501967190585394 -0.084431432074051668 -0.015133661824577796 0 -0.015133661824577796 -0.026687739432200631 0 0 0 -0.027779792876563077 -0.17602243311589494 -0.025359611935021925 0 -0.025359611935021925 0.0039459308594053388 0 0 0 -0.043019125564122337 -0.17796002945645975 -0.026558613229644382 0 -0.026558613229644382 -0.00085553692701298423 0 0 0 -0.044703891595868218 -0.017333370001115789 0.037747743230470365 0 0.037747743230470365 0.061428996417804527 0 0 0 0.011023906604171962 -0.016020565730621383 -0.017397566287464472 0 -0.017397566287464472 0.0024848374549248931 0 0 0 -0.0033839320689241781 -0.0051742446570019777 -0.0032115243376807934 0 -0.0032115243376807934 0.036991278228640366 0 0 0 0.0079542583929096116 -0.0018527386912280397 0.0039417531989658361 0 0.0039417531989658361 0.0058762922267128204 0 0 0 0.0010058883838710564 -0.084163623983998986 -0.0020212700893505395 0 -0.0020212700893505395 0.0020817414659656391 0 0 0 -0.02052047062950834 -0.0058899393669000766 -0.0061649542089710629 0 -0.0061649542089710629 0.087065192014364579 0 0 0 0.020293813161866181 -0.006840248453269665 -0.0022622052480556487 0 -0.0022622052480556487 0.15693133084756861 0 0 0 0.037522770598574701 -0.029743134001737392 -0.013897362759130005 0 -0.013897362759130005 0.0280771935913815 0 0 0 -0.00041648510258895932 -0.1161095400021141 -0.014714722712643832 0 -0.014714722712643832 0.014647880958604476 0 0 0 -0.025365414760877281 -0.00070546465799115055 0.00054068118289712919 0 0.00054068118289712919 -0.011181896143401371 0 0 0 -0.0029718402003481303 -0.17473750709886468 -0.034764903365391744 0 -0.034764903365391744 0.011668959724608796 0 0 0 -0.04076713684356395 -0.062583487314475175 0.0017365445343127308 0 0.0017365445343127308 0.014739572617425537 0 0 0 -0.011960978674262407 -0.075125433444862499 -0.040265169177033877 0 -0.040265169177033877 0.032852411506220092 0 0 0 -0.010568255484660616 -0.072143978831849864 -0.037028947384482869 0 -0.037028947384482869 0.029392129814576728 0 0 0 -0.010687962254318339 -0.087074842487614892 0.0030639311114445122 0 0.0030639311114445122 -0.00057532641409055452 0 0 0 -0.021912542225426369 -0.097297290222303989 -0.02367999242868804 0 -0.02367999242868804 0.020865076598985843 0 0 0 -0.019108053405829495 -0.094593784904843825 -0.00027145123677838577 0 -0.00027145123677838577 -0.0017025218462489722 0 0 0 -0.024074076687773206 -0.078740741969169567 -0.016840345775593013 0 -0.016840345775593013 -0.018837656739437908 0 0 0 -0.024394599677151869 -0.12000092257574846 -0.014517180499364513 0 -0.014517180499364513 0.012671063235735636 0 0 0 -0.026832464835003234 -0.19443091103646487 0.025505471903309318 0 0.025505471903309318 0.044729912898646473 0 0 0 -0.037425249534454641 -0.12824779581828047 -0.011030988412331331 0 -0.011030988412331331 -0.02943819055753668 0 0 0 -0.039421496593954296 -0.10598155268689192 -0.0017017647877400227 0 -0.0017017647877400227 -0.02416003193368095 0 0 0 -0.032535396155143212 -0.098698117627555371 0.0038733194890370887 0 0.0038733194890370887 -0.0046173509668405478 0 0 0 -0.025828867148598965 -0.11013731719768835 -0.024415164485721997 0 -0.024415164485721997 -0.01487681124868194 0 0 0 -0.031253532111592576 -0.06057446774589683 -0.0052583025854631617 0 -0.0052583025854631617 -0.026487175622210771 0 0 0 -0.021765410842026909 -0.021384757018768255 -0.056999580921594128 0 -0.056999580921594128 0.066097120102373674 0 0 0 0.011178090770901358 -0.039490830945901494 0.0063593695693428751 0 0.0063593695693428751 -0.016102140143037152 0 0 0 -0.013898242772234651 -0.017608669868366622 0.023462869797352015 0 0.023462869797352015 0.0019307165493094303 0 0 0 -0.0039194883297639649 -0.019683634834147368 -0.032343696718854953 0 -0.032343696718854953 0.028499840830716217 0 0 0 0.0022040514991419347 -0.096708541443041279 0.0024166932244144325 0 0.0024166932244144325 -0.0089377403420344559 0 0 0 -0.026411570446268927 -0.10194406135585986 -0.019521239071232641 0 -0.019521239071232641 -0.02212214937426054 0 0 0 -0.031016552682530108 -0.044570119217984337 0.0066174435463348252 0 0.0066174435463348252 -0.0088583578537207407 0 0 0 -0.013357119267926272 -0.047031298099729946 -0.045579283811734393 0 -0.045579283811734393 0.045158693887480839 0 0 0 -0.00046815105306224902 -0.093257609818204745 0.018468148104353904 0 0.018468148104353904 -0.0021789611148124166 0 0 0 -0.023859142733254401 -0.021398247006316318 -0.019596058874999711 0 -0.019596058874999711 0.055472904281913316 0 0 0 0.008518664318899305 -0.058367932737600214 -0.039396826367956606 0 -0.039396826367956606 0.005851579491736647 0 0 0 -0.013129088311465864 -0.087141955449084083 -0.016378926398033684 0 -0.016378926398033684 0.071565213791768306 0 0 0 -0.0038941854143289545 -0.18026301411722967 -0.015835773655459545 0 -0.015835773655459545 -0.0047739033840854539 0 0 0 -0.046259229375328781 -0.13055944114902213 0.0010324753824741788 0 0.0010324753824741788 -0.0032091035423100767 0 0 0 -0.033442136172833037 -0.025394474037694691 0.011010469623168304 0 0.011010469623168304 0.0052412746638135499 0 0 0 -0.0050382998434703036 -0.049588500532306845 0.0035602234586204272 0 0.0035602234586204272 -0.015132544513507554 0 0 0 -0.016180261261453603 -0.070031008787167809 -0.02911162932676177 0 -0.02911162932676177 0.013292338794367198 0 0 0 -0.01418466749820016 -0.18408915151045965 -0.019830064488012673 0 -0.019830064488012673 -0.0020132669263900616 0 0 0 -0.046525604609212401 -0.13564758573398919 0.0051979390979889351 0 0.0051979390979889351 -0.0013106546062131019 0 0 0 -0.03423956008505058 -0.067911952030286132 0.0051479541364395538 0 0.0051479541364395538 0.073243934620045179 0 0 0 0.0013329956474397581 -0.036729198959481124 -0.033546302449425636 0 -0.033546302449425636 0.0057961774867569815 0 0 0 -0.0077332553681808136 -0.037418916654522683 0.050467816337668003 0 0.050467816337668003 0.01611581728860223 0 0 0 -0.0053257748414798911 -0.11562896502768932 -0.0011477989199877303 0 -0.0011477989199877303 0.011279467890017117 0 0 0 -0.026087374284418045 -0.09930710510224218 -0.0092950790986383036 0 -0.0092950790986383036 0.015217051473120687 0 0 0 -0.021022513407280362 -0.05375318055092343 -0.019032233564965279 0 -0.019032233564965279 0.029027666072318367 0 0 0 -0.006181378619651276 -0.057812559735589519 -0.019882769560200048 0 -0.019882769560200048 0.039937653983306474 0 0 0 -0.0044687264380707803 -0.073240666582338909 -0.010983917069023944 0 -0.010983917069023944 -0.029129663372440294 0 0 0 -0.025592582488694799 -0.071215088424472814 -0.0058111662698311362 0 -0.0058111662698311362 -0.026051231983573179 0 0 0 -0.024316580102011483 -0.078131013367712998 -0.00053271628495322413 0 -0.00053271628495322413 -0.018480364739538523 0 0 0 -0.024152844526812888 -0.076463522556651425 0.0027750862082673018 0 0.0027750862082673018 -0.017709660917311902 0 0 0 -0.023543295868490827 -0.037520802346141247 -0.0095673303095950568 0 -0.0095673303095950568 -9.2769955655214176e-05 0 0 0 -0.009403393075449018 -0.077741234618755622 -0.0038189475364941231 0 -0.0038189475364941231 0.077503949170199787 0 0 0 -5.9321362138940997e-05 -0.035906552236829786 0.010550925355384242 0 0.010550925355384242 0.00068033959591350807 0 0 0 -0.0088065531602290591 -0.032966833442392929 0.053857902643377115 0 0.053857902643377115 0.024085907024453235 0 0 0 -0.0022202316044848125 -0.051210844988447635 -0.035626247546577783 0 -0.035626247546577783 0.0010368997739402808 0 0 0 -0.012543486303626894 -0.025745105828022918 0.066074936336813606 0 0.066074936336813606 0.015498979709559713 0 0 0 -0.0025615315296156904 -0.029441145692970655 -0.0082372419538000799 0 -0.0082372419538000799 0.0031768462658608027 0 0 0 -0.0065660748567774874 -0.021436473501166314 0.0039568406406039897 0 0.0039568406406039897 0.017455842357389451 0 0 0 -0.00099515778594422288 -0.073835359278045187 0.075147063389933266 0 0.075147063389933266 0.0037025574095221891 0 0 0 -0.017533200467130694 -0.048091290999427661 0.075915601609603867 0 0.075915601609603867 0.010126413546267088 0 0 0 -0.0094912193632901154 -0.14082147836374287 -0.0085179208924385779 0 -0.0085179208924385779 -0.018045515537064322 0 0 0 -0.039716748475201784 -0.11475166664107786 -0.0037333925488941874 0 -0.0037333925488941874 -0.014881980285573576 0 0 0 -0.032408411731662853 -0.041325478466543553 -0.045018868939188911 0 -0.045018868939188911 0.022535132997012042 0 0 0 -0.0046975863673829332 0.00074981276397079188 -0.0057003487001465536 0 -0.0057003487001465536 0.086028924131564599 0 0 0 0.021694684223883764 -0.008712630444720898 0.00074187698159150495 0 0.00074187698159150495 0.16291549418393669 0 0 0 0.038550715934803942 -0.078990765732851576 -0.00068130395894334722 0 -0.00068130395894334722 0.048571394179333642 0 0 0 -0.0076048428883794808 -0.030248250650818501 0.016491793210817174 0 0.016491793210817174 0.0090056048607166372 0 0 0 -0.0053106614475254554 -0.013797277970495347 -0.0025100031493874575 0 -0.0025100031493874575 -0.012946965526302145 0 0 0 -0.0066860608741993732 -0.027065155142712682 -0.0050258776303764852 0 -0.0050258776303764852 -0.018350775811897035 0 0 0 -0.011353982738652402 -0.042246487056160353 -0.01564739049445725 0 -0.01564739049445725 -0.0048266740325506596 0 0 0 -0.011768290272177767 -0.026268974563565917 0.018604865889266353 0 0.018604865889266353 -0.004120991032482979 0 0 0 -0.007597491399012779 -0.020932624037329262 -0.032794623254337463 0 -0.032794623254337463 0.041955354598586125 0 0 0 0.0052556826403141188 -0.0037061170563361667 0.0082971311175062401 0 0.0082971311175062401 0.032554433761003754 0 0 0 0.0072120791761669523 -0.0059230865503892005 -0.012456792450788401 0 -0.012456792450788401 0.082109291398977824 0 0 0 0.019046551212147156 -0.02556581154968085 0.038634684838160016 0 0.038634684838160016 0.031268039296028061 0 0 0 0.0014255569365870802 -0.022435811474589173 -0.024960922041423306 0 -0.024960922041423306 -0.0042099431039515078 0 0 0 -0.0066614386446351981 -0.046255128509719329 0.0042675670523238786 0 0.0042675670523238786 -0.013980203991565045 0 0 0 -0.015058833125321098 -0.042292195819368848 0.0078001843447360955 0 0.0078001843447360955 -0.0094049028106444367 0 0 0 -0.012924274657503333 -0.028657149918414948 0.044412135222485549 0 0.044412135222485549 0.040842998928619423 0 0 0 0.0030464622525512297 -0.029457880958462024 -0.025977306060906535 0 -0.025977306060906535 0.0031075007483738482 0 0 0 -0.0065875950525220439 -0.11174547103126767 -0.012807593198128592 0 -0.012807593198128592 -0.028140475866599939 0 0 0 -0.034971486724466906 -0.097805521687865188 0.00014620597853087216 0 0.00014620597853087216 -0.021443909801293994 0 0 0 -0.029812357872289797 -0.0026437684523997751 0.084558035136271248 0 0.084558035136271248 0.032591717133590326 0 0 0 0.0074869871702976099 -0.16275772109280484 -0.0033201795569973921 0 -0.0033201795569973921 -0.027895149442319384 0 0 0 -0.047663217633781063 -0.12810034027541381 -0.0078707855178362391 0 -0.0078707855178362391 -0.02175625635390864 0 0 0 -0.037464149157330616 -0.038498566590979388 0.016276532048315362 0 0.016276532048315362 -0.0063850815179460341 0 0 0 -0.011220912027231744 -0.020029457993430477 -0.023552287548090134 0 -0.023552287548090134 0.072060607247166786 0 0 0 0.013007787313433994 -0.071103414765338491 -0.007060301923262069 0 -0.007060301923262069 0.09927547659898614 0 0 0 0.0070430154584118568 -0.10645450994943148 -0.00052718853966182699 0 -0.00052718853966182699 0.094803970809846483 0 0 0 -0.0029126347848962009 -0.066734007700352427 -0.041807844266980212 0 -0.041807844266980212 0.013021338149996176 0 0 0 -0.013428167387589118 -0.033938997809127069 -0.031189568301982509 0 -0.031189568301982509 0.007346253457202967 0 0 0 -0.0066481860879810395 -0.072495925288061147 0.087584025275991517 0 0.087584025275991517 0.024713477905432768 0 0 0 -0.011945611845657012 -0.1398091554687142 0.058643989267892882 0 0.058643989267892882 0.030228961411235211 0 0 0 -0.027395048514369913 -0.096960528893758557 -0.027810343242974267 0 -0.027810343242974267 0.012610703191590078 0 0 0 -0.021087456425542106 -0.0075861291342800286 -0.062078259027765564 0 -0.062078259027765564 0.047285721747946652 0 0 0 0.0099248981534167946 -0.019951680721224191 -0.00019463556620841205 0 -0.00019463556620841205 0.050741030960420874 0 0 0 0.0076973375597992055 -0.026822508086776276 -0.0067893302988156212 0 -0.0067893302988156212 0.09749417710305508 0 0 0 0.017667917254069854 -0.078004458693879383 -0.025691911842830227 0 -0.025691911842830227 0.046497369585787263 0 0 0 -0.0078767722770230614 -0.070282285259362892 -0.018373460515978102 0 -0.018373460515978102 0.045247837056949125 0 0 0 -0.0062586120506034348 -0.053276416118938505 0.022414537977563799 0 0.022414537977563799 0.11193395243251519 0 0 0 0.014664384078394162 -0.027288404580615572 -0.035522860325303357 0 -0.035522860325303357 0.064949225155193968 0 0 0 0.009415205143644606 -0.018715312762344727 0.035628372334647551 0 0.035628372334647551 0.086214186632808776 0 0 0 0.016874718467615679 -0.020521971761769731 -0.014725038095201093 0 -0.014725038095201093 -0.0049543626559795939 0 0 0 -0.0063690836044374421 -0.073145711839734895 0.011925672296864524 0 0.011925672296864524 0.067123900748698936 0 0 0 -0.001505452772759007 -0.047228578705418738 -0.0066278630265729777 0 -0.0066278630265729777 0.026065436897622765 0 0 0 -0.0052907854519490746 -0.030396993916417675 -0.0074751103901840033 0 -0.0074751103901840033 -0.013094769034752152 0 0 0 -0.010872940737792408 -0.053474719354779578 0.020515314717553849 0 0.020515314717553849 0.044786557903993121 0 0 0 -0.0021720403626966146 -0.051198408157394557 -0.0033283724345581503 0 -0.0033283724345581503 -0.027162968897350454 0 0 0 -0.019590344263686249 -0.11685820969550864 -0.011370269548577283 0 -0.011370269548577283 0.0015019215017977317 0 0 0 -0.028839072048427727 -0.07759474946035938 -0.0098597581396283104 0 -0.0098597581396283104 -0.024073550845654362 0 0 0 -0.025417075076503429 -0.037173856605367421 0.012170147848138177 0 0.012170147848138177 -0.0014845899085460523 0 0 0 -0.0096646116284783805 -0.069092191274455039 0.0082677746842826812 0 0.0082677746842826812 0.09373537039887217 0 0 0 0.0061607947811042792 -0.19007872851700891 0.023503851254098287 0 0.023503851254098287 0.0017028161892493898 0 0 0 -0.047093978081939936 -0.049290845216460946 0.0032325575870171706 0 0.0032325575870171706 -0.017872350841634924 0 0 0 -0.016790799014523971 -0.038649011071433412 0.0012681507437570239 0 0.0012681507437570239 -0.0056751883512741741 0 0 0 -0.0110810498556769 -0.055605686545904441 -0.025078507663884975 0 -0.025078507663884975 0.0064625510889164961 0 0 0 -0.012285783864246967 -0.061795285518461418 -0.02893835507923681 0 -0.02893835507923681 1.8538596914030592e-05 0 0 0 -0.015444186730386777 -0.060034193802306637 -0.011694176322499746 0 -0.011694176322499746 -0.021698944417655033 0 0 0 -0.020433284554990414 -0.045045286559042996 0.0024840228242435326 0 0.0024840228242435326 -0.018942845310336492 0 0 0 -0.015997032967344869 -0.043347037823467688 -0.0034782063132598046 0 -0.0034782063132598046 -0.0027664903467047239 0 0 0 -0.01152838204254308 -0.058800175871926375 -0.027715995355384881 0 -0.027715995355384881 0.017282692929877108 0 0 0 -0.010379370735512372 -0.023320998056564513 -0.00073975274284987513 0 -0.00073975274284987513 0.032072684299685017 0 0 0 0.0021879215607800706 -0.12957550317469135 -0.036330882675533124 0 -0.036330882675533124 -0.0046351850533757344 0 0 0 -0.033552672057016772 -0.0093091129769609648 0.021775752550474703 0 0.021775752550474703 0.13854995009166271 0 0 0 0.032310209278675284 -0.028694618116761078 -0.010951333419299436 0 -0.010951333419299436 -0.0040626123161227046 0 0 0 -0.0081893076082208693 -0.042653843415980872 0.0070946763108037103 0 0.0070946763108037103 -0.011321240625921113 0 0 0 -0.013493771010475494 -0.039664933498494787 0.0075664308505871448 0 0.0075664308505871448 -0.011087826102789779 0 0 0 -0.012688189900321143 -0.031303205272816381 0.020500849903455243 0 0.020500849903455243 0.0050014663657851344 0 0 0 -0.0065754347267588109 -0.029848800681737453 -0.030405985913051381 0 -0.030405985913051381 0.046857119124686264 0 0 0 0.0042520796107370362 -0.042804302507815965 0.013031478080276652 0 0.013031478080276652 0.011367952996667555 0 0 0 -0.0078590873777871027 -0.052430779817846482 0.010219962814545139 0 0.010219962814545139 0.010226402178395298 0 0 0 -0.010551094409862802 -0.043248234301901355 0.0068514832221082556 0 0.0068514832221082556 -0.0095443743620437158 0 0 0 -0.013198152165986273 -0.11510862269313916 0.0036699625425728397 0 0.0036699625425728397 -0.0022974491544938275 0 0 0 -0.029351517961908276 -0.072502973893465592 -0.0089051327312504105 0 -0.0089051327312504105 0.022022219715485625 0 0 0 -0.012620188544494995 -0.0516249545151857 -0.013281370444727325 0 -0.013281370444727325 0.026118214772955339 0 0 0 -0.0063766849355575694 -0.12685635864640638 0.0038955559950744761 0 0.0038955559950744761 -0.005521239165051442 0 0 0 -0.033094399452864423 0.044887608427400277 0.11027447780044619 0 0.11027447780044619 0.082642919202228549 0 0 0 0.031882631907407172 -0.028118865474564547 0.036940988639130062 0 0.036940988639130062 0.012139374126835634 0 0 0 -0.0039948728369325615 -0.02428211899280952 -0.033595594733637546 0 -0.033595594733637546 0.0085078104085569706 0 0 0 -0.003943577146063193 -0.063499282379315652 -0.0014475996030911317 0 -0.0014475996030911317 0.010771032657933971 0 0 0 -0.013182062430345413 -0.046901780779720965 0.0022882174671934857 0 0.0022882174671934857 -0.018279461289904615 0 0 0 -0.016295310517406399 -0.0095052490180280724 -0.0024896710037230103 0 -0.0024896710037230103 0.031675719017274118 0 0 0 0.0055426174998114974 -0.040413238825751985 -0.013571255727238121 0 -0.013571255727238121 0.0099689656681701821 0 0 0 -0.0076110682893955062 -0.046102205794079198 -0.021477824162742853 0 -0.021477824162742853 -0.012893767898996322 0 0 0 -0.014748993423268963 -0.050754347393952709 0.005538726143937623 0 0.005538726143937623 -0.0019983917515703775 0 0 0 -0.013188184786380782 -0.10033591357759303 -0.025499471271132335 0 -0.025499471271132335 0.00053025479813562093 0 0 0 -0.024951414694864171 -0.080829687946987527 -0.030891006398745535 0 -0.030891006398745535 0.0070719469018203363 0 0 0 -0.018439435261291659 -0.045813414565532173 0.0003259352472704795 0 0.0003259352472704795 -0.015276211752279318 0 0 0 -0.015272406579452873 -0.11184599756466262 0.062223185350244292 0 0.062223185350244292 0.011200287597634695 0 0 0 -0.025161427491757093 -0.1507357644152465 0.051895747358794209 0 0.051895747358794209 -0.00071435480226078596 0 0 0 -0.037862529804376877 -0.012095140682949812 0.0072000644429819349 0 0.0072000644429819349 0.043727285880122313 0 0 0 0.007908036299293153 -0.014334793455884287 -0.013666198834774879 0 -0.013666198834774879 0.083752045238950634 0 0 0 0.017354312945766504 -0.027020302980288562 -0.020907342003670962 0 -0.020907342003670962 0.015219499902542566 0 0 0 -0.0029502007694364729 -0.032644818011986987 -0.0024653254725450213 0 -0.0024653254725450213 -0.0088040504134100361 0 0 0 -0.01036221710634927 0.011907004654729575 0.051491888436477964 0 0.051491888436477964 0.14228989808326181 0 0 0 0.03854922568449784 -0.053743775376600272 -0.0072443108759039747 0 -0.0072443108759039747 -0.017791612408443971 0 0 0 -0.017883846946261057 -0.068353587280346018 -0.011215564484828244 0 -0.011215564484828244 0.046695806924381522 0 0 0 -0.0054144450889912002 0.031691391098885968 0.035576186934214049 0 0.035576186934214049 0.031154589823742196 0 0 0 0.015711495230656958 -0.063755561072905226 -0.0019674554075794753 0 -0.0019674554075794753 0.0085735495819693128 0 0 0 -0.01379550287273397 -0.024605623099713592 0.041876650053620068 0 0.041876650053620068 0.020805662084010468 0 0 0 -0.00094999025392539238 -0.024416503526611733 -0.027891804563214162 0 -0.027891804563214162 0.0058591636075371323 0 0 0 -0.004639334979768428 -0.062149030722986581 -0.00018780330205072152 0 -0.00018780330205072152 -0.0063617964246444197 0 0 0 -0.01712770678690774 -0.093577489298677138 -0.022646492541234589 0 -0.022646492541234589 0.073661640938171069 0 0 0 -0.0049789620901265763 -0.025412364834649814 0.032647649964447023 0 0.032647649964447023 0.087925908590052781 0 0 0 0.015628385938850631 -0.023358067206834754 -0.013941269989224514 0 -0.013941269989224514 0.002858099772053091 0 0 0 -0.0051249918586953047 -0.17036155800700381 0.0020740814029586154 0 0.0020740814029586154 0.0013783712731421094 0 0 0 -0.042245796683465411 -0.29211451422293377 -0.0090618771219464662 0 -0.0090618771219464662 0.0025272266250060405 0 0 0 -0.072396821899481836 -0.046008806951278292 0.030765868528973117 0 0.030765868528973117 0.13170418057516287 0 0 0 0.021423843405971144 -0.099079846476106584 0.0057562702956476183 0 0.0057562702956476183 -0.00047305101844846709 0 0 0 -0.024888224373638766 0.015393033720964747 -0.0016111978203079413 0 -0.0016111978203079413 0.077182396782553883 0 0 0 0.02314385762587963 0.0079447971205948154 0.0013544597797193747 0 0.0013544597797193747 0.096536818983887107 0 0 0 0.026120404026120592 0.0049170248600005628 -0.0038717065380881599 0 -0.0038717065380881599 0.18346878685800383 0 0 0 0.047096452929501154 0.020472968295329186 -0.0020499780520065736 0 -0.0020499780520065736 0.16049673580544033 0 0 0 0.045242426025192461 -0.01872482071967306 0.0077761334185532105 0 0.0077761334185532105 0.014226572602658305 0 0 0 -0.0011245620292538033 -0.019724242620526966 -0.015713734256303152 0 -0.015713734256303152 0.046083083170773698 0 0 0 0.0065897101375615996 -0.027168097694589138 0.0055452359254003492 0 0.0055452359254003492 0.13209468312862416 0 0 0 0.026231646358508748 -0.022616362588911365 -0.013794634241858561 0 -0.013794634241858561 0.064661286372246884 0 0 0 0.010511230945833894 -0.09314544074411843 0.0054794211252228997 0 0.0054794211252228997 0.065186168967985597 0 0 0 -0.006989817944033222 -0.0028468163500767751 0.028650477857071532 0 0.028650477857071532 0.07448783109636814 0 0 0 0.017910253686573174 -0.011467679812311449 0.00910065172408836 0 0.00910065172408836 0.0014345238862762955 0 0 0 -0.0025082889815086773 -0.0088584747981561573 -0.0080246488920328041 0 -0.0080246488920328041 -0.00095337976338161212 0 0 0 -0.0024529636403844979 -0.0065135728019907191 -0.025365101119835087 0 -0.025365101119835087 0.034145678318631134 0 0 0 0.0069080263791601038 -0.054632964483000271 0.0041844048138483508 0 0.0041844048138483508 -0.0029875408804201928 0 0 0 -0.014405126340855133 -0.01960674095203796 0.027154699013080208 0 0.027154699013080208 0.087271043014617078 0 0 0 0.016916075515644557 -0.0047492831968239807 -0.0069353707392592057 0 -0.0069353707392592057 -0.00098897068320985548 0 0 0 -0.0014345634700082405 -0.077123029998753631 -0.010863245985177983 0 -0.010863245985177983 0.09179260234186111 0 0 0 0.0036673930857768671 -0.0053352858887354415 0.0080015230244523394 0 0.0080015230244523394 -0.00030135523877028447 0 0 0 -0.0014091602818764315 -0.017855172171679312 -0.025256444601288841 0 -0.025256444601288841 0.045052651614105432 0 0 0 0.0067993698606065855 -0.016838571955741899 -0.03362749613124838 0 -0.03362749613124838 0.026941220656602205 0 0 0 0.0025256621752151043 -0.062998457019850809 -0.029728373068571429 0 -0.029728373068571429 0.0087771283948191448 0 0 0 -0.01355533215625794 -0.062517144906364119 -0.028716349880884839 0 -0.028716349880884839 0.0096136669860505952 0 0 0 -0.013225869480078367 -0.054062731373146766 -0.011315550404381557 0 -0.011315550404381557 -0.010800463798981655 0 0 0 -0.016215798793032105 -0.033260608474765307 0.092972593321655861 0 0.092972593321655861 0.026806899298700726 0 0 0 -0.0016134272940160344 -0.093158786535777138 -0.011218605355121758 0 -0.011218605355121758 -0.00056245079297267964 0 0 0 -0.023430309332187593 0.0014032811557965486 -0.021527217275029251 0 -0.021527217275029251 0.05380030915687195 0 0 0 0.013800897578167132 -0.042949327424836647 -0.0095541876185025187 0 -0.0095541876185025187 0.035560986474549305 0 0 0 -0.0018470852375718494 -0.032284741093395568 0.023844666629832756 0 0.023844666629832756 0.026146313884406164 0 0 0 -0.0015346068022473527 -0.036861875268443423 -0.012547012776123953 0 -0.012547012776123953 -0.0099838751278098492 0 0 0 -0.011711437599063401 -0.038648122911486893 -0.01299722130070035 0 -0.01299722130070035 -0.00788556864398271 0 0 0 -0.011633422888867484 -0.31469471810438515 0.0084987891680461617 0 0.0084987891680461617 0.0093450046763123851 0 0 0 -0.076337428357018178 -0.17250796315659117 -0.0042143509329800877 0 -0.0042143509329800877 0.0041870318519265926 0 0 0 -0.042080232826166075 -0.058803809320618489 -0.006005126120131413 0 -0.006005126120131413 -0.019603475621870998 0 0 0 -0.019601821235622374 -0.066137841356515695 0.0022783357494845363 0 0.0022783357494845363 -0.022045417871885509 0 0 0 -0.0220458148071003 -0.022754146586472693 0.0079047526645164012 0 0.0079047526645164012 0.012324024837799763 0 0 0 -0.002607530437168229 -0.044156003967894208 0.020084796385693604 0 0.020084796385693604 0.030597968527554906 0 0 0 -0.0033895088600848465 -0.036341929918428321 0.014878638921752237 0 0.014878638921752237 0.0081942013411234679 0 0 0 -0.0070369321443262394 -0.16416724589580303 -0.016505103047893842 0 -0.016505103047893842 -0.014615359718089416 0 0 0 -0.044695651403473126 -0.12686901339991291 0.00017414759307880778 0 0.00017414759307880778 -0.0089714457737004177 0 0 0 -0.033960114793403329 0.050114259187167054 0.044648769185678006 0 0.044648769185678006 0.040322202218638914 0 0 0 0.022609115351451603 -0.13958246600231991 -0.015329126736866561 0 -0.015329126736866561 -0.0090885737445406452 0 0 0 -0.037167759936715138 -0.11457087574289908 -9.1775020863469475e-05 0 -9.1775020863469475e-05 -0.006351447808933347 0 0 0 -0.030230580887958103 -0.042747382418040103 -0.007386664612781299 0 -0.007386664612781299 0.0038312413887000574 0 0 0 -0.0097290352573348726 0.034005951729439987 0.13315546300502257 0 0.13315546300502257 0.086427772626456845 0 0 0 0.030108431088974097 -0.027676862175194026 0.011902320592985689 0 0.011902320592985689 -0.001423049554099845 0 0 0 -0.0072749779323234738 -0.037652606132507427 -0.0090131573713432833 0 -0.0090131573713432833 0.029633137148676492 0 0 0 -0.0020048672459577199 -0.092548550577680549 -0.0090993185238168323 0 -0.0090993185238168323 -0.030843889921657774 0 0 0 -0.030848110124834578 -0.086833980711260403 -0.00017391596643259911 0 -0.00017391596643259911 -0.028939061803626695 0 0 0 -0.028943260628721774 -0.15736816388786956 0.0039365299096385193 0 0.0039365299096385193 -0.00065933602784024048 0 0 0 -0.039506874978927436 -0.24520405449808649 -0.01237270577392767 0 -0.01237270577392767 -0.0013247142051296401 0 0 0 -0.061632192175804047 -0.094356268191458675 -0.018333118278854421 0 -0.018333118278854421 0.033383413183858512 0 0 0 -0.015243213751900159 0.0049619660713802749 -0.02181535712554683 0 -0.02181535712554683 0.033995250664514254 0 0 0 0.0097393041839735628 -0.08849773577651332 -0.017440176943984018 0 -0.017440176943984018 0.069229526485190096 0 0 0 -0.0048170523228308094 -0.052739648800965738 0.014324463961148502 0 0.014324463961148502 0.04110278295150277 0 0 0 -0.0029092164623657395 -0.066313399775243143 0.0071864627217084571 0 0.0071864627217084571 0.046995243408324498 0 0 0 -0.0048295390917296767 -0.012963188247551709 0.024772317680144276 0 0.024772317680144276 0.045119160435501481 0 0 0 0.0080389930469874429 0.0013584429169876192 0.020130541850705258 0 0.020130541850705258 0.026425027921734956 0 0 0 0.006945867709680649 -0.023063916419189756 -0.012518797260945236 0 -0.012518797260945236 0.0040680441378431187 0 0 0 -0.00474896807033659 -0.078508019136252272 -0.022830526671941076 0 -0.022830526671941076 0.035100165012967754 0 0 0 -0.010851963530821296 -0.095324798563551916 -0.04225819572434443 0 -0.04225819572434443 0.08495169804980518 0 0 0 -0.0025932751284366562 -0.030233961198549951 -0.070444417052103359 0 -0.070444417052103359 0.13567944210915189 0 0 0 0.026361370227650484 -0.15154621402288432 0.0033318246026414339 0 0.0033318246026414339 -0.0010910127587301921 0 0 0 -0.038159306695403628 -0.2235858402512384 -0.010571310104654003 0 -0.010571310104654003 -0.0017995718495084079 0 0 0 -0.056346353025186688 -0.001355913354243384 -0.0022804570508492272 0 -0.0022804570508492272 0.004392442786448225 0 0 0 0.00075913235805121024 -0.033563317961316619 -0.031306909401279309 0 -0.031306909401279309 0.10640355882467822 0 0 0 0.018210060215840373 -0.039254261804187528 0.01218165217157385 0 0.01218165217157385 -0.0032305543178885905 0 0 0 -0.010621204030519032 -0.13402164976272538 -0.014741967354566158 0 -0.014741967354566158 -0.019850059549547758 0 0 0 -0.038467927328068287 -0.11072621191458852 -0.00035657633291564031 0 -0.00035657633291564031 -0.013853822533640529 0 0 0 -0.031145008612057261 -0.064427367042164382 -0.00093514507876428336 0 -0.00093514507876428336 -0.0076591536907948642 0 0 0 -0.018021630183239816 -0.088323374990656955 -0.01287491623625656 0 -0.01287491623625656 0.075074712218683545 0 0 0 -0.0033121656929933335 -0.025757042953403031 -0.012211742911429679 0 -0.012211742911429679 0.053001524006077605 0 0 0 0.0068111202631686019 -0.066691930180792933 0.0013494101634888827 0 0.0013494101634888827 -0.0046495777742012996 0 0 0 -0.017835376988748559 -0.07028766757890903 0.017913441890010429 0 0.017913441890010429 0.00075696356639864959 0 0 0 -0.017382676003127706 -0.025533005999280767 -0.0236093996418556 0 -0.0236093996418556 0.060901365706108823 0 0 0 0.0088420899267070974 -0.018697618292652152 -0.022083004670182205 0 -0.022083004670182205 0.052121904401217778 0 0 0 0.008356071527141351 -0.061179035336605916 -0.036307847619427305 0 -0.036307847619427305 0.049127613111338064 0 0 0 -0.0030128555563169596 -0.060193229867409048 -0.020922939134502383 0 -0.020922939134502383 0.040652709720063629 0 0 0 -0.0048851300368362716 -0.065050404105065823 -0.0072306040915003714 0 -0.0072306040915003714 0.032473031759645388 0 0 0 -0.008144343086355095 -0.084725835944354733 -0.013652295391728481 0 -0.013652295391728481 0.070690742724536848 0 0 0 -0.0035087733049545128 -0.00086012939517710052 0.022920204828992041 0 0.022920204828992041 0.15980897016714746 0 0 0 0.039737210192992478 0.00023433632441927088 0.00065153144873630886 0 0.00065153144873630886 0.0013418524309511959 0 0 0 0.00039404718884239465 -0.0042270319035723203 -0.019783438690849753 0 -0.019783438690849753 0.083977189821077713 0 0 0 0.019937539479376043 0.00057317075557272723 -0.0013279475606120528 0 -0.0013279475606120528 0.0018222790993260851 0 0 0 0.00059886246372387042 -0.066102869719311036 -0.0016817552260347621 0 -0.0016817552260347621 0.035094500788876659 0 0 0 -0.007752092232608615 -0.06817995136649993 -0.0055063094853896842 0 -0.0055063094853896842 0.022637634718275318 0 0 0 -0.011385579162056179 -0.063431370081781041 -0.019275353370662704 0 -0.019275353370662704 0.032523919257624906 0 0 0 -0.0077268627060390199 -0.19697563543946811 -0.01632137045764584 0 -0.01632137045764584 0.0032944152411283345 0 0 0 -0.04842030504958493 -0.22545070501121892 -0.026091478818267122 0 -0.026091478818267122 0.0042634490163517835 0 0 0 -0.055296813998716804 -0.059859752979755536 -0.027082810499423373 0 -0.027082810499423373 0.0027549973787441423 0 0 0 -0.014276188900252861 -0.075617117115140325 -0.0068725753761267119 0 -0.0068725753761267119 0.0091609109312577042 0 0 0 -0.016614051545970662 -0.036440948939283013 -0.049018619843966937 0 -0.049018619843966937 0.075445966319963836 0 0 0 0.0097512543451702544 -0.10757278874578857 0.00082567519876149825 0 0.00082567519876149825 -0.011910030578651875 0 0 0 -0.02987070483111013 -0.093907326347789435 0.00028783410816605841 0 0.00028783410816605841 -0.015474839030275706 0 0 0 -0.027345541344516298 -0.10105634277648917 -0.014202926177950135 0 -0.014202926177950135 -0.023316936677830274 0 0 0 -0.031093319863579858 -0.12679020960551093 -0.01699911683663459 0 -0.01699911683663459 -0.021383912537526577 0 0 0 -0.0370435305357594 -0.076683299764530699 -0.029961986270028662 0 -0.029961986270028662 0.00056754383568247135 0 0 0 -0.019028938982212029 -0.061013337197249662 -0.030603383733054546 0 -0.030603383733054546 0.0026191950122864682 0 0 0 -0.014598535546240798 -0.062319670353294047 -0.0049079684423733415 0 -0.0049079684423733415 -0.027034874011480317 0 0 0 -0.022338636091193589 -0.060023440953949257 -0.0067750854808463637 0 -0.0067750854808463637 -0.025951741414056165 0 0 0 -0.021493795592001357 -0.06626158110388157 0.0034135412938384726 0 0.0034135412938384726 -0.01643895657857259 0 0 0 -0.020675134420613542 -0.070725156690495436 0.000493021903717638 0 0.000493021903717638 -0.021808504066119005 0 0 0 -0.023133415189153607 -0.032543439867858792 0.046102995093482591 0 0.046102995093482591 0.025889822995392997 0 0 0 -0.0016634042181167263 -0.033042498922088548 -0.031656618140028625 0 -0.031656618140028625 -0.00034219687121739284 0 0 0 -0.0083461739483268182 -0.086565666256752119 -0.0012074563806288218 0 -0.0012074563806288218 -0.012450559057415482 0 0 0 -0.024754056328541919 -0.076930650703657802 -0.01117439883186149 0 -0.01117439883186149 -0.022970985413367982 0 0 0 -0.024975409029256455 -0.061744554226462987 -0.012205946585091242 0 -0.012205946585091242 0.016695256881003567 0 0 0 -0.011262324336364829 -0.098742165114314745 0.00036338326212647515 0 0.00036338326212647515 -0.0091797817462648604 0 0 0 -0.026980486715144886 -0.10688697167684152 -0.016373005405832485 0 -0.016373005405832485 -0.015149865154961559 0 0 0 -0.030509209207950777 -0.12094859852450723 -0.020762291903501817 0 -0.020762291903501817 0.13157931298397973 0 0 0 0.0026576786148680698 -0.069341318142133138 -0.0084777130523402966 0 -0.0084777130523402966 0.017996879408372857 0 0 0 -0.012836109683440081 -0.11227575028702665 -0.0076742670466107632 0 -0.0076742670466107632 -0.037438702736146579 0 0 0 -0.037428613255793317 -0.097669671360972973 -0.0026206516832205386 0 -0.0026206516832205386 -0.032564695578716094 0 0 0 -0.032558591734922267 0.008022538880061561 0.016364350851693611 0 0.016364350851693611 0.049822226417060467 0 0 0 0.01446119132428049 -0.0085697618926814378 -0.0023424386726935975 0 -0.0023424386726935975 -0.014324048053122596 0 0 0 -0.0057234524864508973 -0.086478748522226923 -0.0029250169176008589 0 -0.0029250169176008589 0.012807084320038548 0 0 0 -0.018417916050547087 -0.0021861630305737845 -0.036825956529494164 0 -0.036825956529494164 0.027656624820599607 0 0 0 0.0063676154475064695 -0.067247261882048354 0.00042753743502788738 0 0.00042753743502788738 0.035389967519921968 0 0 0 -0.0079643235905315912 -0.075438052095511368 -0.015969361646050333 0 -0.015969361646050333 0.038547038120977567 0 0 0 -0.009222753493633426 -0.19176428119458194 -0.0027940494827682801 0 -0.0027940494827682801 -0.015342707828129985 0 0 0 -0.051776747255678005 -0.14695399140662524 -0.0075534314693401772 0 -0.0075534314693401772 -0.012715611640229024 0 0 0 -0.039917400761713573 -0.027596824518160035 -0.027022599484932838 0 -0.027022599484932838 0.048244007917186971 0 0 0 0.0051617958497567062 -0.060189421328286065 0.0070755490098046211 0 0.0070755490098046211 0.023271494870953806 0 0 0 -0.0092294816143330682 -0.067612603325765158 -0.010190503751510857 0 -0.010190503751510857 0.011398274643853 0 0 0 -0.014053582170478038 -0.11724128288246174 -0.0025156852935743768 0 -0.0025156852935743768 0.007622710239129693 0 0 0 -0.02740464316083302 -0.10653215909014857 0.021443414504453528 0 0.021443414504453528 0.00089755045580286463 0 0 0 -0.026408652158586565 -0.070850225129966637 -0.0093001597169209416 0 -0.0093001597169209416 0.035299771790584633 0 0 0 -0.0088876133348455288 -0.067064726607384786 -0.026438508476017003 0 -0.026438508476017003 0.016415527311617439 0 0 0 -0.012662299823941875 -0.070190847349424518 -0.0051856687000308987 0 -0.0051856687000308987 0.01352592665790664 0 0 0 -0.014166230172879449 -0.057784224035878982 0.0059776372807155247 0 0.0059776372807155247 0.029243721576758003 0 0 0 -0.0071351256147802241 -0.069776137431137655 -0.029329373221172128 0 -0.029329373221172128 0.019932831792365296 0 0 0 -0.012460826409693079 0.045489379858531021 0.021301931917716732 0 0.021301931917716732 0.12269869018265372 0 0 0 0.042047017510296186 -0.079453951294893993 0.00053797305668492473 0 0.00053797305668492473 0.0056356100742324666 0 0 0 -0.018454585305165389 -0.055475717653275858 0.014318369273469236 0 0.014318369273469236 -0.0033729270150049118 0 0 0 -0.014712161167069748 -0.02684363808708623 -0.019357169466694302 0 -0.019357169466694302 0.067107970966306052 0 0 0 0.010066083219804955 -0.013435832431869854 -0.018904758279506217 0 -0.018904758279506217 0.047870382176109505 0 0 0 0.008608637436059885 -0.15444794827815919 -0.025902528191644958 0 -0.025902528191644958 0.041892982611566668 0 0 0 -0.028138741416648159 -0.0067931518315660425 -0.020838780618206182 0 -0.020838780618206182 -0.016716766474481004 0 0 0 -0.0058774795765117807 -0.14837643735175693 0.0055957375071768733 0 0.0055957375071768733 0.0024363987979388879 0 0 0 -0.036485009638454524 -0.24199473263236196 -0.023591305886586894 0 -0.023591305886586894 0.0073465357099333911 0 0 0 -0.058662049230607027 -0.14217197582406144 -0.0015688958123603602 0 -0.0015688958123603602 0.0010170201886200436 0 0 0 -0.035288738908860355 -0.23706253931818716 -0.0035859369136216901 0 -0.0035859369136216901 0.0039163621470298393 0 0 0 -0.058286544292789344 -0.12677369515005368 -0.0074432301156732543 0 -0.0074432301156732543 -0.017875200569208771 0 0 0 -0.036162223929815634 -0.16199709240649673 -0.0021665003678194659 0 -0.0021665003678194659 -0.021082987678394026 0 0 0 -0.045770020021222671 -0.077651261731039256 -0.020521412536172234 0 -0.020521412536172234 0.052269773789740431 0 0 0 -0.0063453719853246923 -0.072013640906467405 -0.031103787400235131 0 -0.031103787400235131 0.065947818828071963 0 0 0 -0.0015164555195988777 -0.020512869174051068 -0.0060085294987797244 0 -0.0060085294987797244 0.073365391859614215 0 0 0 0.013213130671390849 -0.016240105359999951 -0.00029027753123389566 0 -0.00029027753123389566 0.14327185710784285 0 0 0 0.031757937936960717 -0.032556311009960981 0.0066248855494868419 0 0.0066248855494868419 0.047274724709838789 0 0 0 0.0036796034249694243 -0.024808103155125383 0.0025577104604193601 0 0.0025577104604193601 0.12434976954611532 0 0 0 0.024885416597747512 -0.03555121879040618 -0.012555286771956609 0 -0.012555286771956609 0.063419363414678132 0 0 0 0.0069670361560680294 -0.072761745153373705 -0.0051312995598366135 0 -0.0051312995598366135 0.014397595724995991 0 0 0 -0.014591037357094449 -0.052174818517367022 -0.031768594907910397 0 -0.031768594907910397 0.055285671149201576 0 0 0 0.00077771315795865936 -0.074199464799718895 -0.033423208112977755 0 -0.033423208112977755 0.050394282745713392 0 0 0 -0.0059512955135013756 -0.071670666613547485 -0.0048183550919162089 0 -0.0048183550919162089 0.063696758314865404 0 0 0 -0.0019934770746705237 -0.14237303419845682 0.02128702674805525 0 0.02128702674805525 -0.0026236790038742797 0 0 0 -0.036249178300582496 -0.084795186874071407 -0.012786377441210105 0 -0.012786377441210105 0.065140565646200826 0 0 0 -0.0049136553069676209 -0.0068041527644240318 -0.014451706702565847 0 -0.014451706702565847 0.1947220281466423 0 0 0 0.046979468845554595 0.052090355448846382 -0.021037088167354834 0 -0.021037088167354834 0.10641460139988568 0 0 0 0.039626239212183001 0.0019258398099056273 -0.019551639378864505 0 -0.019551639378864505 0.040674869183638718 0 0 0 0.010650177248386017 -0.26332785304013234 -0.017871691306476201 0 -0.017871691306476201 0.0059356390459307518 0 0 0 -0.064348053498550412 -0.15539953683339527 0.0054453644877286433 0 0.0054453644877286433 0.001594163152307336 0 0 0 -0.038451343420272038 -0.087480324377801608 -0.012095840416852873 0 -0.012095840416852873 0.070713585614732233 0 0 0 -0.0041916846907673333 -0.092562987980224332 0.049180065603378953 0 0.049180065603378953 -0.0068339264147549983 0 0 0 -0.024849228598744943 -0.064464420586713755 0.04571841814280031 0 0.04571841814280031 0.0025322627164143796 0 0 0 -0.015483039467574455 -0.037056553290687466 -0.036820317343509323 0 -0.036820317343509323 0.0264559644056237 0 0 0 -0.0026501472212659971 -0.028430467047852667 -0.034359268260363507 0 -0.034359268260363507 0.029331326486569369 0 0 0 0.00022521485967931461 -0.034196531663486518 -0.021189564635522462 0 -0.021189564635522462 0.075201376006441167 0 0 0 0.010251211085738843 -0.021292642979592102 0.010410220512847294 0 0.010410220512847294 0.00077021690543865873 0 0 0 -0.005130606518538805 -0.084907069331999457 0.00049924312010264996 0 0.00049924312010264996 -0.013220715471625274 0 0 0 -0.024531946200906186 -0.082915099707817755 -0.0088778768245624737 0 -0.0088778768245624737 -0.022893447857818373 0 0 0 -0.026452136891409028 -0.040147835516383623 -0.041082516729614493 0 -0.041082516729614493 0.013947089875297441 0 0 0 -0.0065501864102715524 -0.041044545915092767 -0.04072428782470916 0 -0.04072428782470916 0.013684377063431619 0 0 0 -0.0068400422129153426 -0.043726915086976709 -0.039196766243176029 0 -0.039196766243176029 0.010572653340020166 0 0 0 -0.0082885654367391981 -0.046477206799417803 -0.043470099170678345 0 -0.043470099170678345 0.0098218347312708509 0 0 0 -0.0091638430170368768 -0.059482901676616656 0.059731968056061291 0 0.059731968056061291 -0.00015574026340514635 0 0 0 -0.014909660485005333 -0.047358200130702181 0.05512438194412228 0 0.05512438194412228 0.0032138290789911188 0 0 0 -0.011036092762927765 -0.090968861762546788 0.0018932221110910333 0 0.0018932221110910333 -0.023931737392981035 0 0 0 -0.028725149788881955 -0.10304755954886662 -0.014689447013304241 0 -0.014689447013304241 -0.030633268882521547 0 0 0 -0.033420207107847044 -0.12750699395289861 -0.017698133082577699 0 -0.017698133082577699 0.010991166098118454 0 0 0 -0.029128956963695163 -0.21284678806494806 0.03623305247137254 0 0.03623305247137254 0.016770191346545893 0 0 0 -0.049019149179600485 -0.11693656059075999 0.0078257746726359823 0 0.0078257746726359823 0.0022982477759456721 0 0 0 -0.028659578203703601 -0.056146540513729429 0.006075853379604145 0 0.006075853379604145 0.011018389602867487 0 0 0 -0.011282037727715487 -0.0071372246128657557 -0.013743463425188007 0 -0.013743463425188007 0.0095004474528697092 0 0 0 0.00059080571000091897 -0.17523753596876224 -0.026088646153577592 0 -0.026088646153577592 0.0020448483390698713 0 0 0 -0.043298171907423091 -0.21990757886507867 -0.021447509015275701 0 -0.021447509015275701 -0.0034950939915043555 0 0 0 -0.055850668214145735 -0.043809375472782207 5.9293110232822846e-05 0 5.9293110232822846e-05 -0.022318889666781694 0 0 0 -0.016532066284890977 -0.055201343371919426 0.01023612249144773 0 0.01023612249144773 0.090087991592601391 0 0 0 0.0087216620551704982 -0.1529335851077126 -0.0034616067836215347 0 -0.0034616067836215347 0.00070061594675885353 0 0 0 -0.038058242290238464 -0.26724060428294821 0.005022001836345158 0 0.005022001836345158 0.00075809296299296502 0 0 0 -0.066620627829988593 -0.095609527273796124 -0.009313491309680122 0 -0.009313491309680122 0.011881101531558635 0 0 0 -0.020932106435559372 -0.13890794660368733 -0.022658601547618406 0 -0.022658601547618406 -0.01521509241029366 0 0 0 -0.038530759753495271 -0.10877502077525017 -0.022240408129131771 0 -0.022240408129131771 -0.010142477688284832 0 0 0 -0.029729374615883743 -0.013842057289956355 0.11283837657036891 0 0.11283837657036891 0.2220761911127116 0 0 0 0.052058533455688782 -0.20745415694711286 -0.0097609629033111184 0 -0.0097609629033111184 0.00016471211694746302 0 0 0 -0.051822361207541329 -0.14141657431319854 0.0031793423163241352 0 0.0031793423163241352 0.0005759339319016954 0 0 0 -0.035210160095324225 -0.040338095015592268 -0.016526004075138018 0 -0.016526004075138018 -0.011356326315901333 0 0 0 -0.012923605332873345 -0.045050788500002714 -0.017761524217111267 0 -0.017761524217111267 -0.0099594084525382875 0 0 0 -0.013752549238135292 -0.063668781743305619 0.0049325786702377515 0 0.0049325786702377515 0.050470570075992663 0 0 0 -0.0032995529168282044 -0.057837700255948366 -0.012344652537263835 0 -0.012344652537263835 0.0080008225096781516 0 0 0 -0.012459219436567553 -0.042461433800568917 0.016115336390706142 0 0.016115336390706142 0.0094396127850223804 0 0 0 -0.008255455253886634 -0.023256980385708115 0.034785950546935396 0 0.034785950546935396 0.20615456407519028 0 0 0 0.045724395922370653 -0.11508695064692635 0.0060313157053704658 0 0.0060313157053704658 0.004377876912518619 0 0 0 -0.027677268433601951 -0.068324116630767096 -0.0068384961256711778 0 -0.0068384961256711778 0.0090184694971828655 0 0 0 -0.014826411783396085 0.042941183012611184 0.019231203993610106 0 0.019231203993610106 0.080143450533108229 0 0 0 0.030771158386429853 -0.087181900960578707 -0.013529542229137603 0 -0.013529542229137603 -0.003699431195883153 0 0 0 -0.02272033303911563 -0.32005293760399045 -0.0003729008950499324 0 -0.0003729008950499324 -1.4213066797386098e-05 0 0 0 -0.080016787667696848 -0.17806338003237837 -0.0014349113175459089 0 -0.0014349113175459089 -0.00030472412586590725 0 0 0 -0.044592026039561028 -0.084480477129273507 -0.0067422016493506771 0 -0.0067422016493506771 0.081917676515085941 0 0 0 -0.00064070015354688453 -0.13985541620903891 -0.0181728162113492 0 -0.0181728162113492 -0.0085205415994950018 0 0 0 -0.037093989452133477 -0.16361272086155926 -0.025812317848517053 0 -0.025812317848517053 -0.0044618574189973226 0 0 0 -0.042018644570139103 0.010021260329894477 0.029855699323352761 0 0.029855699323352761 0.050348935575329268 0 0 0 0.015092548976305936 -0.059002203151781618 -0.013811684243628122 0 -0.013811684243628122 -0.00033555124865625174 0 0 0 -0.014834438600109578 -0.055734684673129142 -0.022456372432623384 0 -0.022456372432623384 0.018536475597947577 0 0 0 -0.0092995522687953636 -0.023612217999288809 0.021383737521986242 0 0.021383737521986242 0.1455671823293283 0 0 0 0.030488741082510096 -0.018795942070787941 -0.0073347138702596236 0 -0.0073347138702596236 0.0015312493881936007 0 0 0 -0.004316173170648252 -0.084129053087608027 -0.032242518370501683 0 -0.032242518370501683 0.050991267906622451 0 0 0 -0.0082844462952463838 -0.051746060800434701 -0.01857164130134438 0 -0.01857164130134438 0.060405250196578386 0 0 0 0.0021647973490358796 -0.071762632407049526 -0.0087624838668088484 0 -0.0087624838668088484 0.021748209332733137 0 0 0 -0.012503605768579146 -0.049084191369495711 0.012871181320950331 0 0.012871181320950331 -0.0014256084171062611 0 0 0 -0.012627449946650104 -0.022839489286576531 -0.023158436675598137 0 -0.023158436675598137 0.075001292789327323 0 0 0 0.013040450875687726 -0.07922611225854316 -0.00017605696057007569 0 -0.00017605696057007569 -0.0036903370220640885 0 0 0 -0.020729112320151788 -0.010691087824181683 -0.00050816475427967189 0 -0.00050816475427967189 0.072092169175206999 0 0 0 0.015350270337756322 -0.13112711976394489 0.0047134942872215715 0 0.0047134942872215715 0.00074997536744625393 0 0 0 -0.032594286099124598 -0.10159925433938372 -0.026155807314384945 0 -0.026155807314384945 0.034853848879407345 0 0 0 -0.016686351364994023 -0.1149521508515023 0.0046182981877414403 0 0.0046182981877414403 -0.0043621285999965731 0 0 0 -0.029828569862874715 -0.090488582854033162 -0.012972173705042112 0 -0.012972173705042112 0.0018243314476396044 0 0 0 -0.022166062851598278 -0.14188247813826765 0.003648552952891182 0 0.003648552952891182 -0.00079067332404003654 0 0 0 -0.035668287865576895 -0.12974370589642592 0.0054073438988585659 0 0.0054073438988585659 3.8891475177382784e-05 0 0 0 -0.032426203605312107 -0.10092212967705316 0.063375542801047402 0 0.063375542801047402 -0.0010420842949709908 0 0 0 -0.025491053493006066 -0.083822034994818134 -0.0069710126323004884 0 -0.0069710126323004884 -0.028020006275108974 0 0 0 -0.027960510317481774 -0.091710303486964628 -0.015267807030113389 0 -0.015267807030113389 -0.027068661486717879 0 0 0 -0.029694741243420635 -0.08649174101987743 0.0026890726696346843 0 0.0026890726696346843 -0.018664681769931298 0 0 0 -0.02628910569745219 -0.083599095633156706 -0.0010040659242302498 0 -0.0010040659242302498 -0.022470393411269846 0 0 0 -0.026517372261106634 -0.064837382828587642 -0.016584557733549152 0 -0.016584557733549152 0.028003139580816128 0 0 0 -0.0092085608119428508 -0.047682424743328705 -0.047295268191154205 0 -0.047295268191154205 0.06906372358035083 0 0 0 0.0053453247092555538 -0.067189556930566774 -0.033527129965221641 0 -0.033527129965221641 0.026151152768540849 0 0 0 -0.010259601040506439 -0.068203329906039112 -0.020249890309974317 0 -0.020249890309974317 0.048066975509832188 0 0 0 -0.0050340885990516893 -0.064686965506490862 -0.027442775703498012 0 -0.027442775703498012 0.023062444736178855 0 0 0 -0.010406130192577995 -0.042121158697266403 -0.00046938166940483153 0 -0.00046938166940483153 0.073492540641934445 0 0 0 0.0078428454861669827 -0.041811711309978128 -0.014863728304467944 0 -0.014863728304467944 0.036196400673919715 0 0 0 -0.0014038276590145338 -0.17978445440946411 0.0011745598408670387 0 0.0011745598408670387 0.00087547272717491964 0 0 0 -0.044727245420572326 -0.33087966076037051 -0.0046080789677223283 0 -0.0046080789677223283 0.0054487489137751144 0 0 0 -0.081357727961648918 -0.031550821809816471 -0.013695808677830101 0 -0.013695808677830101 0.041168196963014214 0 0 0 0.002404343788299429 -0.034488767662117448 -0.0019172414622194989 0 -0.0019172414622194989 0.087556333518924889 0 0 0 0.013266891464201819 -0.1061063088363936 0.0024192736730222486 0 0.0024192736730222486 0.013076751275806431 0 0 0 -0.023257389390146849 -0.051368655289634635 0.0021689263642579492 0 0.0021689263642579492 -0.018288535063809255 0 0 0 -0.01741429758836097 -0.074023561550877109 -0.014448870608218877 0 -0.014448870608218877 -0.0081002201303892116 0 0 0 -0.020530945420316572 -0.056119581719513444 -0.0052832987243378524 0 -0.0052832987243378524 -0.016489299243389544 0 0 0 -0.018152220240725735 -0.039975396629875523 -0.066852472424264259 0 -0.066852472424264259 0.13417454457344624 0 0 0 0.023549786985892707 -0.13871121058400418 -0.00095371978685884068 0 -0.00095371978685884068 -0.0063038511886277376 0 0 0 -0.036253765443158018 -0.13072469248366658 -0.0021345984378395022 0 -0.0021345984378395022 -0.003539481991801062 0 0 0 -0.033566043618866934 -0.16843652590147382 -0.0093409041265202671 0 -0.0093409041265202671 -0.0036558286018116559 0 0 0 -0.043023088625821347 -0.19127147016977808 -0.011135355322441131 0 -0.011135355322441131 -0.0095820346772668777 0 0 0 -0.050213376211761238 -0.1458214333591823 -0.011015826601614754 0 -0.011015826601614754 0.0013424765767595659 0 0 0 -0.036119739195605627 -0.040100672204581023 0.10785082017239256 0 0.10785082017239256 0.13945625933069605 0 0 0 0.024838896781528619 -0.0092514954555750206 -0.020267768079268556 0 -0.020267768079268556 0.043783778794393546 0 0 0 0.0086330708347046592 -0.015618872087067262 -0.011015312119911913 0 -0.011015312119911913 -2.2083494048280583e-06 0 0 0 -0.0039052701091180225 -0.087204812555242303 0.0013410045154186243 0 0.0013410045154186243 -0.004392194503860955 0 0 0 -0.022899251764775811 -0.086901277329103743 -0.009538063308583096 0 -0.009538063308583096 0.059723407359933131 0 0 0 -0.0067944674922926565 -0.11782587565144585 0.0040783121130351166 0 0.0040783121130351166 -0.00078742874405729468 0 0 0 -0.029653326098875818 -0.0045065420436203318 0.038797209448417913 0 0.038797209448417913 0.041981555172462048 0 0 0 0.009368753282209985 -0.056122887864282427 0.0043493088383533569 0 0.0043493088383533569 -0.018395170879643749 0 0 0 -0.018629514685981542 -0.044137323325161106 -0.022722832442337304 0 -0.022722832442337304 -0.0082230494898404699 0 0 0 -0.013090093203750354 0.032256387478189805 -0.088280762202807617 0 -0.088280762202807617 0.11050265061234282 0 0 0 0.035689759522633195 -0.25256261331665164 0.024703004895324621 0 0.024703004895324621 0.0018618856856922328 0 0 0 -0.062675181907739574 -0.044604563952917571 0.0019212057901613498 0 0.0019212057901613498 -0.018260667684921059 0 0 0 -0.015716307909459656 -0.096163329907783021 -0.0021463768525286989 0 -0.0021463768525286989 -0.024170879451316532 0 0 0 -0.030083552339774885 -0.1073360013042504 -0.0079566693976088135 0 -0.0079566693976088135 -0.029641934494026054 0 0 0 -0.034244483949569124 -0.050789962864159918 0.010810638936577258 0 0.010810638936577258 0.018795040813127765 0 0 0 -0.0079987305127580399 -0.14300241309142969 0.0026825404477446857 0 0.0026825404477446857 0.0024981778326561566 0 0 0 -0.035126058814693495 -0.23424045426793799 -0.013555134735244612 0 -0.013555134735244612 0.0095520026600888486 0 0 0 -0.056172112901962216 -0.010178462746537331 0.031144709670375192 0 0.031144709670375192 0.091370543077097466 0 0 0 0.020298020082639479 -0.052048138094367813 -0.017870037264055671 0 -0.017870037264055671 -0.0032765825591622999 0 0 0 -0.013831180163382806 -0.038448111877522062 0.004535868753345218 0 0.004535868753345218 0.077773805018427233 0 0 0 0.0098314232852262928 -0.041633489458284823 -0.02612864312794411 0 -0.02612864312794411 0.024802137791278489 0 0 0 -0.0042078379167515556 -0.050645911015259421 0.0033251269451090443 0 0.0033251269451090443 0.039931951461452397 0 0 0 -0.0026784898884517905 -0.056207955713996685 0.0036991643440792438 0 0.0036991643440792438 0.0075691669097937841 0 0 0 -0.01215969720105073 -0.04641884952768547 -0.0010176144117241886 0 -0.0010176144117241886 -0.023137866497121972 0 0 0 -0.017389179006201863 -0.077795737898746831 -0.00091257578860616528 0 -0.00091257578860616528 0.0030168621378894277 0 0 0 -0.018694718940214378 -0.062700565799775121 -0.030659951831301546 0 -0.030659951831301546 0.16577130708319412 0 0 0 0.025767685320854744 -0.065392484761427477 -0.031483991172052091 0 -0.031483991172052091 0.15402659834710439 0 0 0 0.022158528396419248 -0.048723714980069888 -0.028756343763294723 0 -0.028756343763294723 0.00077860875647139949 0 0 0 -0.011986276555899567 -0.040954455878985496 -0.026371129227699464 0 -0.026371129227699464 7.3168915246668575e-06 0 0 0 -0.01023678474686518 -0.022833610165548857 0.044966936631695376 0 0.044966936631695376 0.052660723738051196 0 0 0 0.0074567783931256404 -0.032089917597366124 0.043752745654336067 0 0.043752745654336067 0.051309637173637235 0 0 0 0.0048049298940673335 -0.023741637252287173 0.053499362007081996 0 0.053499362007081996 0.029437085296685872 0 0 0 0.0014238620110995637 0.012753145349197359 0.052877739060613993 0 0.052877739060613993 0.039021453427520392 0 0 0 0.012943649694179271 -0.049118602023030609 0.0024412253419352579 0 0.0024412253419352579 -0.016373070307512942 0 0 0 -0.016372918082635888 -0.035764036669153371 0.0043769117389063639 0 0.0043769117389063639 0.10007036961377214 0 0 0 0.016076583236154712 -0.044397364178223042 0.0010366844595871005 0 0.0010366844595871005 0.064486420435928893 0 0 0 0.0050222640644264627 -0.10069048280274495 -0.022039617938769185 0 -0.022039617938769185 -0.0015251687853408136 0 0 0 -0.02555391289702158 -0.11620006629251245 -0.0093755339114601766 0 -0.0093755339114601766 -0.00069743071454209105 0 0 0 -0.029224374251763496 -0.18819037001087591 0.020578462103431949 0 0.020578462103431949 -0.0016015585472168858 0 0 0 -0.047447982139522948 -0.0329333800271411 0.029091212537028018 0 0.029091212537028018 0.043390235804729657 0 0 0 0.0026142139443971341 -0.02737407231335387 0.032015704152720217 0 0.032015704152720217 0.055857959006137325 0 0 0 0.0071209716731958778 -0.050595754288533565 0.0047045802640018949 0 0.0047045802640018949 -0.0097920261443814431 0 0 0 -0.015096945108228753 -0.051953504836121406 0.0032850267555484978 0 0.0032850267555484978 -0.01861313836955332 0 0 0 -0.017641660801418678 -0.21287596874856632 -0.017780093218249304 0 -0.017780093218249304 -0.0071095006623104751 0 0 0 -0.054996367352719212 -0.14233013926619253 0.0036960409390967564 0 0.0036960409390967564 -0.0016313009588596467 0 0 0 -0.035990360056263042 -0.13072095576321241 0.0052767156493836462 0 0.0052767156493836462 -0.0030111103131378048 0 0 0 -0.033433016519087547 -0.019644718210896528 0.028925157764812859 0 0.028925157764812859 0.10221753046005677 0 0 0 0.020643203062290283 -0.040361921495063457 -0.011920783117186029 0 -0.011920783117186029 0.0032164917598742626 0 0 0 -0.0092863574337974653 -0.050700020720034038 -0.0035822459233357325 0 -0.0035822459233357325 -0.021048171951911616 0 0 0 -0.017937048167986414 -0.036912787464179711 0.0011638648167231411 0 0.0011638648167231411 -0.010497925631847108 0 0 0 -0.011852678274006687 -0.079564575668499837 -0.036256330210034493 0 -0.036256330210034493 0.0061515830349199163 0 0 0 -0.018353248158395008 -0.092112541694724298 -0.020458253854910541 0 -0.020458253854910541 -0.00039213581289185284 0 0 0 -0.023126169376904045 -0.052983416351504137 -0.018868020427402099 0 -0.018868020427402099 0.038446569229650965 0 0 0 -0.0036342117804632756 -0.022642977845183071 0.023397565366107119 0 0.023397565366107119 0.02634606035257292 0 0 0 0.00092577062684746914 -0.10910331927494848 0.072596303474316226 0 0.072596303474316226 0.0039274224255870793 0 0 0 -0.02629397421234031 -0.1274408728759015 -0.0043797823912243294 0 -0.0043797823912243294 0.0049124146541554836 0 0 0 -0.030632114555436574 -0.20622867251581867 0.0062595565481322196 0 0.0062595565481322196 0.013662468886246337 0 0 0 -0.048141550907393138 -0.0059714019340841862 -0.0039203548507968367 0 -0.0039203548507968367 -0.011554486514522289 0 0 0 -0.0043814721121516742 -0.011276318461897361 -0.0094940574293069235 0 -0.0094940574293069235 -0.0087517986657239533 0 0 0 -0.0050070292819052176 -0.11684313638597406 0.0053486176482076819 0 0.0053486176482076819 -0.00047082727223790588 0 0 0 -0.029328490914553015 -0.10349386418639193 0.0032193243393757454 0 0.0032193243393757454 -0.0019100489545898353 0 0 0 -0.026350978285245453 -0.066689675382800948 -0.0094828572175734288 0 -0.0094828572175734288 0.022710459322236975 0 0 0 -0.010994804015140983 -0.14214578850824855 0.0083454849943492213 0 0.0083454849943492213 0.0028457196653968175 0 0 0 -0.034825017210712905 -0.15330644219656833 -0.024256205032684081 0 -0.024256205032684081 -0.0088990851636356061 0 0 0 -0.040551381840051047 -0.0011958381497795007 0.0019078786101709433 0 0.0019078786101709433 -0.0022680440101536573 0 0 0 -0.00086597053998324787 -0.08058640488195512 0.080941941581629595 0 0.080941941581629595 0.010444304497393198 0 0 0 -0.017535525096140869 -0.052554951655819193 0.002808271301827378 0 0.002808271301827378 -0.017518949487692899 0 0 0 -0.017518475285878025 0.02167786637213992 0.022095231815943528 0 0.022095231815943528 0.091849329030430304 0 0 0 0.028381798850642459 0.015557375006586389 0.046529647900212884 0 0.046529647900212884 0.14183762787730197 0 0 0 0.039348750720972082 -0.19200970862081251 0.024610789176948367 0 0.024610789176948367 0.036338204373595723 0 0 0 -0.038917876061804142 -0.015451350220522103 0.048137199043945131 0 0.048137199043945131 0.14723784929135969 0 0 0 0.032946624767709376 -0.00039165484376102455 0.040514593001418457 0 0.040514593001418457 0.098969090376124502 0 0 0 0.024644358883090856 -0.092572319076803647 0.0037024523120438302 0 0.0037024523120438302 0.0020398298633893808 0 0 0 -0.022633122303353556 -0.071197077751767757 -0.001187933889331555 0 -0.001187933889331555 -0.0039388634412836979 0 0 0 -0.018783985298262869 -0.16130565791832474 0.054912477426449779 0 0.054912477426449779 0.018006413964855028 0 0 0 -0.035824810988367428 -0.085769222390263272 -0.02402636676973105 0 -0.02402636676973105 0.075599254676593813 0 0 0 -0.0025424919284174133 -0.043865202732939798 0.028336371058783533 0 0.028336371058783533 0.15596352446119829 0 0 0 0.028024580432064586 -0.056931441091374657 -0.030162340415824884 0 -0.030162340415824884 0.0015413864610059891 0 0 0 -0.013847513657592181 -0.14487663458501737 -0.0079535866292767543 0 -0.0079535866292767543 0.00519178904733128 0 0 0 -0.034921211384421572 -0.24699513367782067 0.015668350651808605 0 0.015668350651808605 0.016067532658965433 0 0 0 -0.057731900254713864 -0.054695608645730198 0.027680329061455122 0 0.027680329061455122 -0.0075673204923081272 0 0 0 -0.015565732284509748 -0.030505467366426897 -0.030069921861783033 0 -0.030069921861783033 0.046312013931493645 0 0 0 0.0039516366412666315 -0.054096595603706166 -0.021415569727461614 0 -0.021415569727461614 0.029209747082408644 0 0 0 -0.0062217121303245193 -0.01357808335282009 0.024350824701231292 0 0.024350824701231292 0.028731822919806693 0 0 0 0.0037884348917466559 -0.14065286145024361 -0.022886166684970823 0 -0.022886166684970823 -0.01562557718336658 0 0 0 -0.039069609658402546 -0.13020568511723396 0.0032770287424073452 0 0.0032770287424073452 0.0036541935174934093 0 0 0 -0.031637872899935124 -0.1790800221161061 -0.0092536806864763621 0 -0.0092536806864763621 0.012191126049205019 0 0 0 -0.041722224016725248 -0.049629942085329282 -0.03599236404716874 0 -0.03599236404716874 0.063365052702300306 0 0 0 0.0034337776542426868 -0.10643527762929766 -0.00052947403364464463 0 -0.00052947403364464463 0.0060200493622477314 0 0 0 -0.025103807066762442 -0.066940253316873366 0.0017904693027718591 0 0.0017904693027718591 0.12375420792429513 0 0 0 0.014203488651855469 -0.047383366068707661 -0.0016251513556466259 0 -0.0016251513556466259 -0.015792883871183359 0 0 0 -0.015794062484972757 -0.04296310203859155 -0.016292413762066082 0 -0.016292413762066082 0.02411867632451592 0 0 0 -0.0047111064285189075 -0.15088149301498502 0.0022940847343272119 0 0.0022940847343272119 0.002805597056341147 0 0 0 -0.037018973989660947 -0.25166735964803805 -0.010466327960371502 0 -0.010466327960371502 0.0064731742196886266 0 0 0 -0.061298546357087508 -0.10332966309129157 -0.025893284771366432 0 -0.025893284771366432 0.0089456428208180283 0 0 0 -0.023596005067618414 -0.063405799810194813 -0.032026543805299984 0 -0.032026543805299984 0.044256493565858701 0 0 0 -0.0047873265610840765 -0.050188871817200553 -0.025131541579769601 0 -0.025131541579769601 0.079496321144444493 0 0 0 0.0073268623318110127 -0.086104155546455341 0.00023414457864810723 0 0.00023414457864810723 0.0065071343208132348 0 0 0 -0.019899255306410513 -0.058812129810744129 -0.027723449118594007 0 -0.027723449118594007 0.0065429038512555548 0 0 0 -0.013067306489872199 -0.080320129252029401 -0.031728045172475627 0 -0.031728045172475627 0.0017667606415383563 0 0 0 -0.019638342152622872 -0.099792256838720089 0.00047831558862745926 0 0.00047831558862745926 0.0057915395788168123 0 0 0 -0.023500179314975771 -0.056763405920756183 -0.031061968919226302 0 -0.031061968919226302 0.0022258491178085982 0 0 0 -0.013634389200736841 -0.048944465800204 5.7407691374543324e-05 0 5.7407691374543324e-05 -0.022166304711003483 0 0 0 -0.017777692627801871 -0.14940963664977078 -0.00037898823960030859 0 -0.00037898823960030859 0.0020747965276001201 0 0 0 -0.036833710030542671 -0.25986164264005307 -0.00042561135321139698 0 -0.00042561135321139698 0.0030388889278829545 0 0 0 -0.06420568842804264 -0.061785455021188818 -0.012252639810786725 0 -0.012252639810786725 -0.0038250223902714375 0 0 0 -0.016402619352865133 0.0061569422928308137 0.022401926417565665 0 0.022401926417565665 0.11298240342290988 0 0 0 0.029784836428934924 -0.0057867449244211056 0.030011187320797106 0 0.030011187320797106 0.086583818729572659 0 0 0 0.020199268451287722 -0.043125324269659426 -0.0096557489961054208 0 -0.0096557489961054208 -0.0035226963772148068 0 0 0 -0.011662005161718669 -0.0076702387821727669 0.017551375976720785 0 0.017551375976720785 0.1398405087765493 0 0 0 0.033042567498593911 -0.022881578461587782 -0.024020350607840375 0 -0.024020350607840375 0.024533815218620303 0 0 0 0.00041305918925804708 -0.070478462345997084 -0.026882851727686757 0 -0.026882851727686757 0.021856237561239333 0 0 0 -0.01215555619618941 0.0047546713976203137 -0.0026303048426084296 0 -0.0026303048426084296 0.098734361491540579 0 0 0 0.025872258222290334 -0.0043645426924564523 -0.0002451172721408823 0 -0.0002451172721408823 0.18470972049327872 0 0 0 0.045086294450205511 -0.1737423842634615 -0.013516664201059458 0 -0.013516664201059458 0.033828820771418355 0 0 0 -0.034978390873010745 -0.09953729115208769 0.0019307105143233135 0 0.0019307105143233135 -0.0037830245025662068 0 0 0 -0.025830078913663498 -0.050488034825848592 0.0078308290231905928 0 0.0078308290231905928 -0.0021996519881211768 0 0 0 -0.013171921703492427 -0.11090265761570639 0.061116044214517662 0 0.061116044214517662 -0.0052676067181236519 0 0 0 -0.029042566083457677 -0.01774063618578775 -0.032697359616562061 0 -0.032697359616562061 0.029241204557150846 0 0 0 0.0028751420928407323 -0.044813368796505361 0.00038534420442012983 0 0.00038534420442012983 -0.019362078972460874 0 0 0 -0.016043861942241566 -0.087962312100665144 -0.0025104552826486493 0 -0.0025104552826486493 0.019962094714175121 0 0 0 -0.017000054346622509 0.0112849131505941 0.018161412637595787 0 0.018161412637595787 0.087858547158899292 0 0 0 0.024785865077372904 -0.069860400594674313 -0.011077248397336193 0 -0.011077248397336193 -0.022615245834271956 0 0 0 -0.023118911607236555 -0.039805264112119126 -0.010540891587259849 0 -0.010540891587259849 0.0099919425990721011 0 0 0 -0.0074533303782617633 -0.030143150341523969 -0.017957001528039557 0 -0.017957001528039557 0.01280516861812929 0 0 0 -0.00433449543084867 -0.0078030572772429529 0.0042548235620746278 0 0.0042548235620746278 0.057155129607066035 0 0 0 0.012338018082455826 0.00075646725615818866 -0.00083117171381819066 0 -0.00083117171381819066 0.095526359769211311 0 0 0 0.024070706756342264 0.00099539199885417817 -0.0056953941901215499 0 -0.0056953941901215499 0.17355218573893627 0 0 0 0.043636894434447626 -0.012178214237714084 -0.010720928928155071 0 -0.010720928928155071 0.11441084365714517 0 0 0 0.025558157354857731 -0.041160355042594271 0.02316954440087482 0 0.02316954440087482 0.048987768558423461 0 0 0 0.0019568533789573218 -0.021814647120988351 -0.032941629829630975 0 -0.032941629829630975 -7.9073092676185119e-05 0 0 0 -0.0054734300534161201 -0.0018630112110897407 -0.062555679578756379 0 -0.062555679578756379 0.058630799727720284 0 0 0 0.014191947129157598 -0.06967158669535814 -0.024106559931055704 0 -0.024106559931055704 0.0055313720508343156 0 0 0 -0.016035053661131032 -0.11593624007785881 0.0031045027639177228 0 0.0031045027639177228 0.0024041809186672869 0 0 0 -0.028383014789797892 -0.10177787391945947 0.0055265185206734169 0 0.0055265185206734169 0.0038986762014439069 0 0 0 -0.024469799429503863 -0.17673399115117583 0.0091680769685689445 0 0.0091680769685689445 0.070361735664970948 0 0 0 -0.026593063871551248 -0.021621622467357715 -0.0017521883308265762 0 -0.0017521883308265762 0.037556476015158546 0 0 0 0.0039837133869501939 -0.020622034360795904 -0.0093604780330751591 0 -0.0093604780330751591 0.080302349703431197 0 0 0 0.014920078835658823 -0.049286920794996233 0.0084976920898033534 0 0.0084976920898033534 0.0077275273274333613 0 0 0 -0.010389848366890705 -0.0004018057590049473 0.00063494001607145023 0 0.00063494001607145023 -0.010480069006311155 0 0 0 -0.0027204686913290255 -0.058425100624396618 0.0019821964805680856 0 0.0019821964805680856 -0.010716616705864717 0 0 0 -0.017285429332565334 -0.060460842637156426 -0.031271692449795802 0 -0.031271692449795802 0.019246193072681161 0 0 0 -0.010303662391118767 -0.04431456041397587 0.00054773611090827763 0 0.00054773611090827763 -0.022671247355969665 0 0 0 -0.016746451942486383 -0.034905469347415785 0.066771633531467423 0 0.066771633531467423 0.012347628802542587 0 0 0 -0.0056394601362184105 -0.036243464718805268 0.052084301896197172 0 0.052084301896197172 0.022802693329811941 0 0 0 -0.0033601928472480058 -0.037283378678139897 -0.033798649494444666 0 -0.033798649494444666 0.0053560047813057121 0 0 0 -0.0079818434742084804 0.023193336256064435 -0.12298154256959212 0 -0.12298154256959212 0.2153456959106628 0 0 0 0.059634758041681814 -0.045633725763619785 0.0010286918666325617 0 0.0010286918666325617 -0.021055846592567783 0 0 0 -0.016672393089046895 -0.064134608801878712 -0.013469978414636707 0 -0.013469978414636707 0.0039733847451386417 0 0 0 -0.015040306014185156 0.0022685683351992836 0.0010063080084479203 0 0.0010063080084479203 0.00041861094980033542 0 0 0 0.00067179482124979373 -0.013923265241133631 0.0051838841025362292 0 0.0051838841025362292 0.19687402427409584 0 0 0 0.045737689758240219 0.0079374877206730785 0.0019975878480922304 0 0.0019975878480922304 0.17622367957626295 0 0 0 0.046040291824234005 0.0037993934232618543 -0.0044377321178477036 0 -0.0044377321178477036 0.091590222242325936 0 0 0 0.023847403916397392 0.0035600093267644795 -0.0016408540254257546 0 -0.0016408540254257546 0.00088567289485474987 0 0 0 0.0011114205554054735 -0.00047646622241646392 0.0012103621775669815 0 0.0012103621775669815 0.0024273484390663915 0 0 0 0.0004877205541625929 -0.010492068342557559 -0.0077708183959103328 0 -0.0077708183959103328 0.10881608939428755 0 0 0 0.024581005262932276 -0.00050447813564735711 -0.001925829055512196 0 -0.001925829055512196 0.0038087985809198699 0 0 0 0.00082608011131846126 -0.048229239598072293 -0.00082215850026379721 0 -0.00082215850026379721 -0.021154085549398158 0 0 0 -0.017345831286867616 -0.050521015420516971 -0.028713221178914117 0 -0.028713221178914117 -0.0049195011429092883 0 0 0 -0.013860129140856561 -0.09922092331497484 0.0030263748465134827 0 0.0030263748465134827 0.010677489133780915 0 0 0 -0.022135858545298454 -0.063925520329108254 -0.035091345406850549 0 -0.035091345406850549 0.0069584242485984937 0 0 0 -0.014241774020127274 -0.058424507980781852 -0.0015110870078662085 0 -0.0015110870078662085 -0.020597278066102953 0 0 0 -0.019755446511721196 -0.033722428335708043 0.04111590421596123 0 0.04111590421596123 0.002863788529656297 0 0 0 -0.0077146599515132142 -0.030942276781086409 -0.034223631749335404 0 -0.034223631749335404 0.013098457048110301 0 0 0 -0.0044609549332440546 -0.0091305800062623232 -0.0096452072382793852 0 -0.0096452072382793852 0.078556178499761486 0 0 0 0.017356399623374874 -0.019706482347033538 0.0020091944298246123 0 0.0020091944298246123 0.15038307054487488 0 0 0 0.032669147049460334 -0.079552037960061522 0.011292650972092116 0 0.011292650972092116 0.075857218705362828 0 0 0 -0.00092370481367465285 -0.090501568689008799 -0.003770775245577021 0 -0.003770775245577021 0.011477038656618699 0 0 0 -0.019756132508097518 -0.041158052421945035 -0.016516751959895909 0 -0.016516751959895909 0.057023177448989548 0 0 0 0.0039662812567611838 -0.042039560439391083 0.0085240833270420757 0 0.0085240833270420757 0.11525920926697442 0 0 0 0.018304912206895785 -0.045003460692677272 -0.043971248640942595 0 -0.043971248640942595 0.013193247703462307 0 0 0 -0.0079525532473038452 -0.045677783144804043 0.0081263709986070902 0 0.0081263709986070902 -0.00068912628936920392 0 0 0 -0.011591727358543306 -0.033139758615572279 -0.038009742640285227 0 -0.038009742640285227 0.025019857363743014 0 0 0 -0.0020299753129574549 -0.048100598038229192 0.040865360270236906 0 0.040865360270236906 0.0022155674592694297 0 0 0 -0.011471257644739774 -0.043266581599382514 -0.00066098924675203619 0 -0.00066098924675203619 0.037609303268664296 0 0 0 -0.001414319582679513 -0.028978039273864081 -0.005306556490268094 0 -0.005306556490268094 0.042361696933178927 0 0 0 0.0033459144148287046 -0.077204076117569201 -8.3801148512824969e-05 0 -8.3801148512824969e-05 -0.0045422358190317924 0 0 0 -0.020436577984150241 -0.070970535782923061 -0.014676169314114196 0 -0.014676169314114196 0.052632577571450512 0 0 0 -0.004584489552868054 0.0094221597951552882 -0.037811378929470729 0 -0.037811378929470729 0.027245376881955274 0 0 0 0.009166884169277606 -0.048009419812432695 -0.030159195586764609 0 -0.030159195586764609 -0.0019330859208895948 0 0 0 -0.012485626433330642 0.042004645949428099 -0.02620328792355886 0 -0.02620328792355886 0.036117836551165849 0 0 0 0.019530620625148432 -0.029311476274367088 -0.0049294301433230325 0 -0.0049294301433230325 0.081147786002383038 0 0 0 0.012959077432004029 -0.044066788505424254 -0.0063345896916597866 0 -0.0063345896916597866 0.036603928308187039 0 0 0 -0.0018657150493092967 -0.11145798869806056 0.0022200880921044441 0 0.0022200880921044441 -0.0040577072419675508 0 0 0 -0.028878923985007035 -0.078591085400038591 -0.016609103272453168 0 -0.016609103272453168 0.057810821510656474 0 0 0 -0.0051950659723455084 -0.079219226239355262 -0.014971398183024814 0 -0.014971398183024814 0.070170576905378035 0 0 0 -0.0022621623334943136 0.020187493549294999 0.074155733066554486 0 0.074155733066554486 0.24322656582539082 0 0 0 0.065853514843671496 -0.045872640608304746 -0.027447746374132428 0 -0.027447746374132428 0.2780947991329466 0 0 0 0.05805553963116046 -0.0017682121110440541 0.01900874546399452 0 0.01900874546399452 0.10702318722729043 0 0 0 0.026313743779061483 -0.051316637457270747 0.025474448685565074 0 0.025474448685565074 0.065213978070807338 0 0 0 0.0034743351533841615 -0.067266633983802837 -0.011739972786801786 0 -0.011739972786801786 0.00023247564069350801 0 0 0 -0.016758539585777221 -0.077758674147888077 0.00040623564159443341 0 0.00040623564159443341 -0.0081472350613787797 0 0 0 -0.021476477302316714 -0.13621158415034851 -0.010836950228952305 0 -0.010836950228952305 -0.020050810279611492 0 0 0 -0.039065598607490003 -0.11267891923822448 -0.0024486435076519573 0 -0.0024486435076519573 -0.014257462035779656 0 0 0 -0.031734095318501028 -0.036539288966650443 0.0050155110173181888 0 0.0050155110173181888 -0.012801205109245505 0 0 0 -0.012335123518973982 -0.16230243018371832 -0.014630230835850296 0 -0.014630230835850296 -0.0040992515205254144 0 0 0 -0.041600420426060929 -0.13960245042857139 -0.016807851889788086 0 -0.016807851889788086 -0.033149188763772805 0 0 0 -0.043187909798086052 -0.20240278464755368 0.01121613594743576 0 0.01121613594743576 -0.0021048511609750714 0 0 0 -0.051126908952132177 -0.17808202511417912 0.012572732392801279 0 0.012572732392801279 -0.038666846960015572 0 0 0 -0.054187218018548658 -0.076336751910134434 -0.029733305059993831 0 -0.029733305059993831 0.030793084321005249 0 0 0 -0.011385916897282286 -0.042860190729913157 0.002765968718586781 0 0.002765968718586781 -0.019215553641466755 0 0 0 -0.015518936092844975 0.017182259660482591 0.036495659230368016 0 0.036495659230368016 0.043149712090083447 0 0 0 0.015082992937641371 -0.049371551006580972 0.0085900266058618335 0 0.0085900266058618335 0.10312819476990021 0 0 0 0.013439160940829753 -0.033665584140173815 0.037585416388629694 0 0.037585416388629694 0.099267811437341244 0 0 0 0.01640055682429185 -0.048052327617443213 -0.046817935920767467 0 -0.046817935920767467 0.043128704918033778 0 0 0 -0.001230905674852345 -0.0046401116494533502 -0.00030173621702811459 0 -0.00030173621702811459 0.015465934577567883 0 0 0 0.002706455732028522 0.0013404194147125989 -0.0062422638184482793 0 -0.0062422638184482793 0.04744750861858827 0 0 0 0.01219698200832516 0.0019691425351432124 0.0057288186974266964 0 0.0057288186974266964 0.095299799719269079 0 0 0 0.024317235563603292 -0.0036108793563982169 -0.00035770467055051824 0 -0.00035770467055051824 0.0087890585520255023 0 0 0 0.0012945447989063772 -0.014752430167022441 0.0061520352169774917 0 0.0061520352169774917 0.014763463516456993 0 0 0 2.758337358514662e-06 -0.015478999173994035 -0.014244709690066165 0 -0.014244709690066165 0.032846927625158173 0 0 0 0.0043419821127910763 -0.15431931484294445 -0.025016478392400801 0 -0.025016478392400801 -0.05134585261981419 0 0 0 -0.051416291865689655 -0.19179632140355024 0.022222275642152685 0 0.022222275642152685 -0.063815098993855443 0 0 0 -0.063902855099351424 -0.21898754063666132 0.022394170685981634 0 0.022394170685981634 -0.029952554517967328 0 0 0 -0.062235023788657154 -0.17958964743075306 -0.024103996096617911 0 -0.024103996096617911 -0.024624797780849028 0 0 0 -0.051053611302900523 -0.041440417584994893 -0.042886108880723972 0 -0.042886108880723972 0.016480472224218667 0 0 0 -0.0062399863401940148 -0.077400408879438651 8.3614637783176182e-05 0 8.3614637783176182e-05 0.0036788794821292492 0 0 0 -0.018430382349327347 -0.054702737162637738 -0.031973561411273554 0 -0.031973561411273554 0.0074707991888685044 0 0 0 -0.011807984493442308 -0.051481602927312353 -0.031571932505352188 0 -0.031571932505352188 -0.00286381040430983 0 0 0 -0.013586353332905532 -0.069327024411559524 -0.0010476494316373885 0 -0.0010476494316373885 0.0030001224359220841 0 0 0 -0.016581725493909356 -0.05422419175612965 0.0031008599636467189 0 0.0031008599636467189 -0.008170804897950041 0 0 0 -0.01559874916351992 -0.0540697179611579 0.0037196092259299081 0 0.0037196092259299081 -0.0076628686814732231 0 0 0 -0.015433146660657772 -0.074357501782175844 -0.058300982404390356 0 -0.058300982404390356 0.17873114888707206 0 0 0 0.026093411776224026 0.010152935275021521 -0.015583666326409784 0 -0.015583666326409784 0.49710576349207258 0 0 0 0.1268146746917736 -0.09286206113110064 -0.022194710740680468 0 -0.022194710740680468 0.02064474813518094 0 0 0 -0.018054328248979803 -0.031570873774937891 -0.002174440821917728 0 -0.002174440821917728 0.070337709228619372 0 0 0 0.0096917088634203563 -0.045645310718358034 -0.017801615569485896 0 -0.017801615569485896 0.039825340237661822 0 0 0 -0.0014549926201740671 -0.055967283800835731 0.0055027966783555123 0 0.0055027966783555123 0.0093768462646197787 0 0 0 -0.011647609384053991 -0.027121308997492655 0.032129730094393238 0 0.032129730094393238 0.087021883729642813 0 0 0 0.014975143683037206 -0.034456331999651479 -0.0164966631204575 0 -0.0164966631204575 -0.0020132854772003661 0 0 0 -0.0091174043692131557 0.0055298965967712221 -0.042951337027349407 0 -0.042951337027349407 0.082477263150231517 0 0 0 0.022001789936750671 -0.025176005565491558 -0.0080146909068635475 0 -0.0080146909068635475 0.029055614855715284 0 0 0 0.000969902322555935 -0.052791557117074728 0.032471060584807532 0 0.032471060584807532 0.0046492141939262766 0 0 0 -0.012035585730787002 -0.032336713370754278 -0.03272230066335724 0 -0.03272230066335724 0.039848429952181963 0 0 0 0.0018779291453570046 -0.025529740036536186 -0.032749691377253594 0 -0.032749691377253594 0.032071593660290443 0 0 0 0.0016354634059385642 -0.028973042394186799 -0.0044802120890353736 0 -0.0044802120890353736 -0.0057729331794871275 0 0 0 -0.0086864938934184122 -0.02246909373455272 -0.0075442263054298353 0 -0.0075442263054298353 0.097661697996919372 0 0 0 0.018798151065591767 -0.055292477278412938 -0.010568005345297799 0 -0.010568005345297799 -0.010095824646270984 0 0 0 -0.016347075481170981 -0.022184462173831687 -0.0082318406942827327 0 -0.0082318406942827327 -0.018752667448484639 0 0 0 -0.010234282405579165 -0.083887725636752564 0.0013513309689098391 0 0.0013513309689098391 -0.0092464514413420872 0 0 0 -0.023283544269523671 -0.076887739256261953 0.0019083493037719539 0 0.0019083493037719539 -0.011454181124039058 0 0 0 -0.022085480095075279 -0.079782016368579109 -0.0089213510103429289 0 -0.0089213510103429289 0.041883457246363401 0 0 0 -0.0094746397805539184 -0.070893050247988421 -0.027702375309855615 0 -0.027702375309855615 0.049859506300254708 0 0 0 -0.0052583859869334004 -0.067648907991731524 -0.0011533336935236147 0 -0.0011533336935236147 -0.00716249699321167 0 0 0 -0.018702851246235826 -0.063003909025192567 0.0011811358439813013 0 0.0011811358439813013 0.0040181349884401002 0 0 0 -0.014746443509188134 -0.066987145263585623 -0.0008871900287428236 0 -0.0008871900287428236 0.0033754146148571515 0 0 0 -0.015902932662182095 -0.013179501522641413 0.0082183394257402953 0 0.0082183394257402953 -0.0055337866654685541 0 0 0 -0.0046783220470273945 -0.0049786292039333824 0.010181427369568896 0 0.010181427369568896 0.01966992323336636 0 0 0 0.0036728235073582582 -0.0051735098892832232 -0.015381426079213667 0 -0.015381426079213667 0.050548487763955929 0 0 0 0.01134374446866826 -0.015501858053122874 -0.012905709545882549 0 -0.012905709545882549 0.018511404032000245 0 0 0 0.00075238649471942587 -0.023361114794430024 -0.056625871410499261 0 -0.056625871410499261 0.17742080294188828 0 0 0 0.038514922036864532 -0.0030947929357449944 0.02075586841365773 0 0.02075586841365773 0.078792082277846731 0 0 0 0.018924322335525545 -0.0012231105337174863 -0.003685136527672439 0 -0.003685136527672439 -0.0011038295529965936 0 0 0 -0.00058173502167857549 -0.0027782065232484499 -0.017784518752190337 0 -0.017784518752190337 0.0394726334068769 0 0 0 0.0091736067209069461 -0.0011682928381555602 0.0040553110502203893 0 0.0040553110502203893 0.0016615623239220056 0 0 0 0.00012331737144166688 -0.05757938575792787 0.04394542798068779 0 0.04394542798068779 -0.0027750268180817272 0 0 0 -0.015088603144002288 -0.036914670800126226 -0.037107404094667798 0 -0.037107404094667798 0.024122324593810696 0 0 0 -0.0031980865515790491 -0.030257242024381403 -0.039484678508805326 0 -0.039484678508805326 0.020705087688852153 0 0 0 -0.0023880385838822571 -0.072239436140860924 -0.013148161485974807 0 -0.013148161485974807 0.05822711147400151 0 0 0 -0.0035030811667148241 0.002928418513238995 0.013523226912016684 0 0.013523226912016684 0.061400585146675013 0 0 0 0.016082250914978502 -0.0016699855125925644 -0.00032820983514569857 0 -0.00032820983514569857 0.0065159628938289416 0 0 0 0.0012114943453096494 -0.0029687274572856026 -0.00059218407372352289 0 -0.00059218407372352289 0.0123918507889762 0 0 0 0.0023557808329233154 0.00026236028113246768 -0.011754712520144706 0 -0.011754712520144706 0.025417601294658532 0 0 0 0.0064199903939476943 -0.033767749522728319 -0.0072314424667321853 0 -0.0072314424667321853 -0.015926009993628698 0 0 0 -0.012423439879089115 0.011758654394124074 -0.040072508382557714 0 -0.040072508382557714 0.011148299219961022 0 0 0 0.0057267384035213642 0.011404613235733066 -0.0010944279925865219 0 -0.0010944279925865219 0.098806932689700144 0 0 0 0.027552886481358244 0.013436539788393487 -0.0042295889005513065 0 -0.0042295889005513065 0.18586714778076363 0 0 0 0.049825921892289238 -0.048200583839165076 0.0050029541858301 0 0.0050029541858301 -0.011468675048206395 0 0 0 -0.014917314721842868 -0.0913156597737661 0.047265759628466741 0 0.047265759628466741 0.0026910388453531553 0 0 0 -0.022156155232103014 -0.10267908639284662 0.045953383587321067 0 0.045953383587321067 -0.0013384450261550995 0 0 0 -0.026004382854750263 -0.037238096125157813 -0.011196485272987111 0 -0.011196485272987111 -0.0099106711647761886 0 0 0 -0.011787191822483653 -0.066209400294388612 -0.0078995809428777514 0 -0.0078995809428777514 0.019112185431076692 0 0 0 -0.011774303715828004 -0.063193902813615338 -0.031940036523650156 0 -0.031940036523650156 0.0046903185064667008 0 0 0 -0.014625896076787125 -0.053012242665266773 -0.038031907234293783 0 -0.038031907234293783 0.024285549635684273 0 0 0 -0.0071816732573956044 -0.064360511851926816 0.046622093555478028 0 0.046622093555478028 -0.0019081101599844885 0 0 0 -0.016567155502977826 -0.034802442981973769 -0.037274576121113234 0 -0.037274576121113234 0.024581162567623771 0 0 0 -0.0025553201035877215 -0.040092236042047924 -0.040160786793799419 0 -0.040160786793799419 0.018193503440716352 0 0 0 -0.0054746831503329485 -0.13306600427872281 -0.0044551206984623001 0 -0.0044551206984623001 -0.014050723192523332 0 0 0 -0.03677918186781156 -0.17354378147134608 -0.0093894488394620293 0 -0.0093894488394620293 -0.019781440946600629 0 0 0 -0.04833130560448666 -0.16047004178823743 -0.016668173685880271 0 -0.016668173685880271 -0.0018274961479544868 0 0 0 -0.04057438448404798 -0.12587392515806251 0.0015487013376282791 0 0.0015487013376282791 -0.0027442006716754883 0 0 0 -0.032154531457434521 -0.073706696634186941 -0.0089381378664281919 0 -0.0089381378664281919 0.028917600120044934 0 0 0 -0.011197274128535446 -0.083382840658484891 0.037509453086314037 0 0.037509453086314037 -0.0068038650562867176 0 0 0 -0.022546676428693235 -0.027561817739985894 -0.031474925196501524 0 -0.031474925196501524 0.039280614878622444 0 0 0 0.0029296992846590264 -0.031449186620842173 -0.033424988575662007 0 -0.033424988575662007 0.030286853794634361 0 0 0 -0.00029058320655184211 -0.069519933102675416 -0.042050847851106798 0 -0.042050847851106798 0.010861064292014388 0 0 0 -0.014664717202665115 -0.039140464368008082 -0.010029161989306867 0 -0.010029161989306867 -0.011177015626791603 0 0 0 -0.012579369998699991 -0.045648568579625862 -0.018991801714782493 0 -0.018991801714782493 -0.0027777493448490898 0 0 0 -0.012106579481118748 -0.064203596523477402 -0.015437789620595888 0 -0.015437789620595888 0.020651364843129072 0 0 0 -0.010888057920087096 -0.11253988028348069 0.002667782487177479 0 0.002667782487177479 -0.0077407993558164245 0 0 0 -0.030070169909824279 -0.11464448763887047 0.077415749151490854 0 0.077415749151490854 0.022411491968162944 0 0 0 -0.023058248917677049 -0.079067362749603243 -0.037372444846327402 0 -0.037372444846327402 0.013541881518798426 0 0 0 -0.016381370307701371 -0.025526135923158194 0.045797475360937145 0 0.045797475360937145 0.042013302785569029 0 0 0 0.0041217917156029238 -0.045854388620662004 -0.028826891213325156 0 -0.028826891213325156 -0.0025506827948795496 0 0 0 -0.012101267853885503 -0.024455453456101228 0.070383219700041022 0 0.070383219700041022 0.014990205670783574 0 0 0 -0.0023663119463293025 -0.10369343094988205 0.0015402026748114056 0 0.0015402026748114056 0.0011403703103681634 0 0 0 -0.025638265159878437 -0.068613570518922459 -0.0059853339504442257 0 -0.0059853339504442257 0.013936083838948145 0 0 0 -0.01366937166999355 -0.067817210613268286 -0.037614216296472436 0 -0.037614216296472436 0.0026373501069087979 0 0 0 -0.016294965126590011 -0.006847554324031703 0.0087898226547794556 0 0.0087898226547794556 0.058291124674955841 0 0 0 0.012860892587731064 -0.011557638205025533 -0.012360720814891868 0 -0.012360720814891868 0.11497226581642472 0 0 0 0.02585365690285002 -0.065904927287499901 -0.0031909218819402771 0 -0.0031909218819402771 0.001167732629171761 0 0 0 -0.016184298664582021 0.0027132849888049648 -8.7283541704064049e-05 0 -8.7283541704064049e-05 0.0064212424655671896 0 0 0 0.0022836318635923725 -0.0069515636546539916 0.0011031429310044416 0 0.0011031429310044416 0.0034410626682266354 0 0 0 -0.00087762524660606189 -0.0012009815301794458 -0.016417963224288679 0 -0.016417963224288679 0.055111309576403755 0 0 0 0.013477582011556244 -0.0014634008659943909 -0.0076627522027497008 0 -0.0076627522027497008 0.056536117427556931 0 0 0 0.013768179140390746 -0.0028800339224650529 0.0085666575845331216 0 0.0085666575845331216 0.11262407361557436 0 0 0 0.027436009923277549 0.0018740961168390857 -0.00012807094824385246 0 -0.00012807094824385246 0.0036838630770184011 0 0 0 0.0013894897984645382 0.0022248681131888937 0.016796213154488537 0 0.016796213154488537 0.11288615288647819 0 0 0 0.028777755249917103 -0.0056878190940845563 -0.0014460554695023831 0 -0.0014460554695023831 0.0014188581749170481 0 0 0 -0.001067240229791766 -0.038278257659231429 -0.012026957334373256 0 -0.012026957334373256 -0.014215631980318832 0 0 0 -0.013123472409887482 -0.042660673575474428 -0.015182454800537154 0 -0.015182454800537154 0.020899450729063407 0 0 0 -0.0054403057116025888 -0.052743038178661494 -0.018314232442779479 0 -0.018314232442779479 0.015791764965463972 0 0 0 -0.0092378183032993388 -0.023463565379262571 -0.0029128479709038535 0 -0.0029128479709038535 -0.011816139660217662 0 0 0 -0.0088199262598699785 -0.023086090976443485 0.00025677977620486292 0 0.00025677977620486292 -0.0039756484999839969 0 0 0 -0.0067654348691069122 -0.050797198156405134 0.031774638882395179 0 0.031774638882395179 0.13915654703757049 0 0 0 0.022089837220291363 -0.080868630818395029 -0.019699611055428168 0 -0.019699611055428168 0.019991300631290093 0 0 0 -0.01521933254677621 -0.084464397031691812 -0.031571774488310472 0 -0.031571774488310472 0.011327577036257253 0 0 0 -0.018284204998858661 -0.089847500545513478 -0.0021320994408791788 0 -0.0021320994408791788 0.0054184923269980367 0 0 0 -0.021107252054628878 -0.14045722477612221 0.057917710613233808 0 0.057917710613233808 0.0058225134786660249 0 0 0 -0.033658677824364158 -0.11438669794962331 0.078949450117563713 0 0.078949450117563713 0.051564258929704287 0 0 0 -0.015705609754979477 -0.045408470714556004 0.03015815527348073 0 0.03015815527348073 0.089992874106031684 0 0 0 0.011146100847868934 -0.030255784401312824 -0.011047160351823782 0 -0.011047160351823782 0.044275726771261681 0 0 0 0.003504985592487242 -0.038617278944079014 -0.0089218449830300237 0 -0.0089218449830300237 0.047143468983240178 0 0 0 0.0021315475097903325 -0.0068454971725928349 0.044200474195377551 0 0.044200474195377551 0.096722096506425881 0 0 0 0.022469149833458268 -0.082532266624304046 -0.037835931145824286 0 -0.037835931145824286 0.023966607884988056 0 0 0 -0.014641414684828852 -0.0967037586665975 -0.027164693064798295 0 -0.027164693064798295 0.0022830054738465777 0 0 0 -0.023605188298187779 -0.042308845453987526 0.026725114081197175 0 0.026725114081197175 0.068287896414039401 0 0 0 0.0064947627400129548 -0.025768313112208594 0.033978384311543042 0 0.033978384311543042 0.056259362131750722 0 0 0 0.0076227622548855319 -0.056215342132923396 -0.022074214282908677 0 -0.022074214282908677 0.032518912956752466 0 0 0 -0.0059241072940426354 -0.066362813700401646 -0.011169149135469944 0 -0.011169149135469944 0.015824115899260111 0 0 0 -0.012634674450285391 -0.066146545425514139 -0.0097321056503961237 0 -0.0097321056503961237 0.028147586571703909 0 0 0 -0.009499739713452568 -0.067756941714109481 -0.0072657918919630804 0 -0.0072657918919630804 0.046343224836062707 0 0 0 -0.0053534292195116864 -0.0055518605504034646 0.02209171646143604 0 0.02209171646143604 0.14574589073551891 0 0 0 0.035048507546278973 -0.03638818218959583 -0.0073883275711181806 0 -0.0073883275711181806 0.00038870388831924174 0 0 0 -0.0089998695753191749 -0.10375890911038516 0.0053519732863564068 0 0.0053519732863564068 0.0010823414893047778 0 0 0 -0.025669141905270136 -0.050718769424789666 0.0036885150182678879 0 0.0036885150182678879 -0.017856497535949131 0 0 0 -0.017143816740184697 0.028419878317755609 0.022825904167721678 0 0.022825904167721678 0.08451487351571263 0 0 0 0.028233687958367115 -0.032160234375796293 -0.0080645906880968954 0 -0.0080645906880968954 -0.012291365714764746 0 0 0 -0.011112900022640315 -0.093537297328273247 -0.032044420445269998 0 -0.032044420445269998 0.0012086032376767419 0 0 0 -0.023082173522649116 -0.12439505382652029 -0.024678614926582985 0 -0.024678614926582985 0.0066768857925965652 0 0 0 -0.029429542008480858 -0.048313798458167412 -0.015371562335878997 0 -0.015371562335878997 0.057098147950543687 0 0 0 0.0021960873730940689 
</DataArray>
<DataArray type="Float64" Name="cross_section_updated" format="ascii">
0.0010123353615315602 0.0010302262166006014 0.0010406177041299117 0.0010500598650409418 0.0010596028089301835 0.001069807738797128 0.0010807816595710161 0.0010918441354870736 0.0011028931781724332 0.0011127313351903605 0.0020430115271934932 0.0021105492778850281 0.002155188553284931 0.0021943449905015727 0.0022319536576662796 0.0022686339303226773 0.0023048739397305445 0.0023398878921703226 0.002373709413640727 0.0024052776426236547 1 1 1 1 1 1 1 1 1 1 1 1 1 1 1 1 1 1 1 1 1 1 1 1 1 1 1 1 1 1 1 1 1 1 1 1 1 1 1 1 1 1 1 1 1 1 1 1 1 1 1 1 1 1 1 1 1 1 1 1 1 1 1 1 1 1 1 1 1 1 1 1 1 1 1 1 1 1 1 1 1 1 1 1 1 1 1 1 1 1 1 1 1 1 1 1 1 1 1 1 1 1 1 1 1 1 1 1 1 1 1 1 1 1 1 1 1 1 1 1 1 1 1 1 1 1 1 1 1 1 1 1 1 1 1 1 1 1 1 1 1 1 1 1 1 1 1 1 1 1 1 1 1 1 1 1 1 1 1 1 1 1 1 1 1 1 1 1 1 1 1 1 1 1 1 1 1 1 1 1 1 1 1 1 1 1 1 1 1 1 1 1 1 1 1 1 1 1 1 1 1 1 1 1 1 1 1 1 1 1 1 1 1 1 1 1 1 1 1 1 1 1 1 1 1 1 1 1 1 1 1 1 1 1 1 1 1 1 1 1 1 1 1 1 1 1 1 1 1 1 1 1 1 1 1 1 1 1 1 1 1 1 1 1 1 1 1 1 1 1 1 1 1 1 1 1 1 1 1 1 1 1 1 1 1 1 1 1 1 1 1 1 1 1 1 1 1 1 1 1 1 1 1 1 1 1 1 1 1 1 1 1 1 1 1 1 1 1 1 1 1 1 1 1 1 1 1 1 1 1 1 1 1 1 1 1 1 1 1 1 1 1 1 1 1 1 1 1 1 1 1 1 1 1 1 1 1 1 1 1 1 1 1 1 1 1 1 1 1 1 1 1 1 1 1 1 1 1 1 1 1 1 1 1 1 1 1 1 1 1 1 1 1 1 1 1 1 1 1 1 1 1 1 1 1 1 1 1 1 1 1 1 1 1 1 1 1 1 1 1 1 1 1 1 1 1 1 1 1 1 1 1 1 1 1 1 1 1 1 1 1 1 1 1 1 1 1 1 1 1 1 1 1 1 1 1 1 1 1 1 1 1 1 1 1 1 1 1 1 1 1 1 1 1 1 1 1 1 1 1 1 1 1 1 1 1 1 1 1 1 1 1 1 1 1 1 1 1 1 1 1 1 1 1 1 1 1 1 1 1 1 1 1 1 1 1 1 1 1 1 1 1 1 1 1 1 1 1 1 1 1 1 1 1 1 1 1 1 1 1 1 1 1 1 1 1 1 1 1 1 1 1 1 1 1 1 1 1 1 1 1 1 1 1 1 1 1 1 1 1 1 1 1 1 1 1 1 1 1 1 1 1 1 1 1 1 1 1 1 1 1 1 1 1 1 1 1 1 1 1 1 1 1 1 1 1 1 1 1 1 1 1 1 1 1 1 1 1 1 1 1 1 1 1 1 1 1 1 1 1 1 1 1 1 1 1 1 1 1 1 1 1 1 1 1 1 1 1 1 1 1 1 1 1 1 1 1 1 1 1 1 1 1 1 1 1 1 1 1 1 1 1 1 1 1 1 1 1 1 1 1 1 1 1 1 1 1 1 1 1 1 1 1 1 1 1 1 1 1 1 1 1 1 1 1 1 1 1 1 1 1 1 1 1 1 1 1 1 1 1 1 1 1 1 1 1 1 1 1 1 1 1 1 1 1 1 1 1 1 1 1 1 1 1 1 1 1 1 1 1 1 1 1 1 1 1 1 1 1 1 1 1 1 1 1 1 1 1 1 1 1 1 1 1 1 1 1 1 1 1 1 1 1 1 1 1 1 1 1 1 1 1 1 1 1 1 1 1 1 1 1 1 1 1 1 1 1 1 1 1 1 1 1 1 1 1 1 1 1 1 1 1 1 1 1 1 1 1 1 1 1 1 1 1 1 1 1 1 1 1 1 1 1 1 1 1 1 1 1 1 1 1 1 1 1 1 1 1 1 1 1 1 1 1 1 1 1 1 1 1 1 1 1 1 1 1 1 1 1 1 1 1 1 1 1 1 1 1 1 1 1 1 1 1 1 1 1 1 1 1 1 1 1 1 1 1 1 1 1 1 1 1 1 1 1 1 1 1 1 1 1 1 1 1 1 1 1 1 1 1 1 1 1 1 1 1 1 1 1 1 1 1 1 1 1 1 1 1 1 1 1 1 1 1 1 1 1 1 1 1 1 1 1 1 1 1 1 1 1 1 1 1 1 1 1 1 1 1 1 1 1 1 1 1 1 1 1 1 1 1 1 1 1 1 1 1 1 1 1 1 1 1 1 1 1 1 1 1 1 1 1 1 1 1 1 1 1 1 1 1 1 1 1 1 1 1 1 1 1 1 1 1 1 1 
</DataArray>
<DataArray type="Float64" Name="displacement_divergence" format="ascii">
0.012288654935547025 0.030172556647278501 0.040558670823875979 0.050005727407367355 0.059555233037432362 0.069762855552689129 0.080736996398030753 0.091799164772260772 0.10286421634414877 0.11264476356492588 0.021594552290865574 0.055235013323205115 0.077548721912473459 0.097119382610522373 0.11591757962566639 0.13425188494461321 0.1523715772046611 0.16984643857920451 0.18687382095093852 0.20220381673108895 -2.5923455558041339e-05 -9.2236449216994212e-06 -2.5885771519905377e-05 -2.7510745759754046e-05 -0.00011492380870021684 -8.9155139391785166e-05 -0.00012257281273009925 -9.2563087620868339e-05 -0.00010055380739551787 -0.00016640715664615439 -3.6629546247556863e-05 -3.6084033936925334e-05 -5.4614741735031661e-05 -6.2023259233126948e-05 -6.3302870218794293e-05 -3.2452770886788222e-05 0.00027655818289828039 5.6501310298031661e-06 9.8312091846462432e-06 1.9740957130467626e-05 4.4601121899062041e-06 -2.4386229693727085e-06 -1.988998595735909e-06 -5.1786918965941262e-05 0.00022045229981541544 -0.00016733612595538037 -9.5265321868655837e-05 -6.8531925409744316e-05 -3.6883249853935209e-05 -9.0173584408207163e-05 -8.837367339409308e-06 -1.6059540755513084e-05 -1.8917252975856648e-05 -1.5132428441907986e-05 -2.778107088906908e-05 -7.4345195019309818e-05 2.5748213881081789e-05 -8.746730990048942e-05 0.00024795635781218214 1.867711889665081e-05 4.7203024800244434e-05 2.2750884404372064e-05 4.942361964922282e-05 -6.8774949941565258e-06 -5.1922480152406193e-05 -5.1311238011361715e-05 -5.5171425123532586e-06 -1.7356707608820281e-05 0.00028628850259846046 -7.7490439868818553e-06 2.9337382600829931e-05 -2.1132855207847776e-05 4.5489801748585461e-06 -3.0277241902739154e-05 -3.9893919192399326e-06 -8.3705279944039195e-05 -6.6734611758336414e-06 7.4287599245153636e-05 4.4620867573163148e-05 5.5384774699622497e-07 -1.4190531038768377e-05 8.5644001612010528e-05 -1.420034343245502e-05 -1.957091346471197e-05 -2.7315878059864813e-05 -9.9548109235781421e-05 -0.00012609615835784769 1.4193654480276099e-05 4.6038627993880621e-05 -0.00010096246601620014 -8.2962594733110534e-05 -4.5344867349377987e-05 -8.8817660293005236e-05 -0.00011746807574171361 -3.2127246550371115e-05 -2.6561761399842242e-05 0.00010272806110546223 -6.090585739948614e-06 -3.5166840119250312e-05 -1.5561566859819727e-05 -4.6669224355066694e-05 -0.00012687635431813659 -0.00010057038268286513 -5.1747059576908109e-05 7.751793142381485e-06 -5.7685255047768089e-06 -2.0525861738425068e-05 -3.9201245762907386e-05 -6.8625669637287502e-05 -2.0360151762249985e-05 -3.6218100492550558e-05 -3.7804101044678612e-05 -4.1770704307452137e-05 -6.7019063590994426e-06 -7.8922585144676569e-06 -1.1578719534413107e-05 2.0190963185716015e-05 9.728471011058535e-05 -7.5472283520006123e-08 -6.9002603000894308e-06 0.00010021158094952569 5.5779876634305683e-05 -4.3788974527007778e-05 -4.8160910644938566e-05 3.5968253529477731e-05 1.2522067704200373e-05 -1.5464853899984656e-05 1.0293849823108888e-05 -3.3057503304584606e-06 1.1206716311790733e-05 -8.086069270224136e-06 4.4619742670777823e-05 -9.1150401247349657e-05 -0.00014310012464913344 -7.7057776268841583e-06 0.0001196922307371603 -2.3423164959542292e-05 -2.3192051017548534e-05 1.6303165168531182e-05 1.2520759696511667e-05 3.3192577003953762e-05 5.0848251960409739e-06 1.5075349646882655e-05 -2.8929043736819851e-05 -2.6791610244248723e-05 -2.5799182687221533e-05 -3.8045863222390709e-07 -0.00012181420826232778 -4.0821236710962322e-05 -3.2987514309316219e-05 -2.0850745877310753e-05 -9.1197383865039474e-05 -7.752682288825522e-05 -7.499422175338312e-05 -0.00011747266656503025 -0.00011493659622705378 -2.6184060704111583e-05 -7.4378830022844671e-05 3.5596592440565508e-05 -3.623701453402171e-06 -9.0931073118937995e-06 -2.7033300176348713e-05 -3.1558878430841195e-06 -3.4752644805336552e-06 -7.8903547039907689e-06 -2.998299797232442e-05 -6.102908301075316e-05 -5.7154367375498588e-05 -1.1312864110918591e-05 -6.8029094176314176e-05 -5.5881397737910345e-05 -4.609415781450434e-05 -4.2119525910336514e-05 -4.5789845577114701e-05 -4.6461725300671642e-05 -4.5903608118591207e-05 -1.8349256537206012e-05 -3.8269941785690648e-05 -5.0143325598997983e-05 9.8080355099689124e-06 -4.4131745803383719e-05 -3.8307160325968279e-05 -0.00012682042703339815 -0.00010052678264545851 0.00010017591170966236 -3.7430622556423858e-05 -1.3743316667050635e-06 -2.3479376739596737e-05 -8.7872263988760744e-05 -0.00013331696731313109 -3.3522974713594175e-05 -8.1099277049229645e-05 -9.8644072374001811e-05 -8.1323408004639738e-05 -5.9395211800903506e-05 -5.9681143874727074e-05 -6.4159026913359176e-05 -3.0232558469797145e-05 2.123467537570433e-05 -2.3909466208115859e-05 -4.65760647846493e-05 -5.1095312776219419e-05 -7.1768229434479466e-05 -6.4259183751038334e-05 -3.9106609409481497e-05 -3.5097524253233157e-05 -3.3463453788719344e-05 3.0206834993323686e-05 7.4418687990293077e-05 -1.7457468795569305e-05 -3.7969529517550245e-05 -3.5172302302040586e-05 -4.0588946595815009e-05 1.898013102071645e-05 -2.1038545350135463e-05 -4.8999569556205445e-05 -3.3489474877437548e-05 -9.2818670520666325e-05 -0.00013194497286909526 -2.4603289214665828e-05 -6.9994743169914057e-05 -8.0406640210414307e-05 -0.0001466888674344504 -8.7386037406764325e-05 9.5553951250529475e-05 0.00029229462066434481 -1.1658901728342659e-05 -2.9051680922384765e-05 1.7266519105174336e-05 -1.1811499494490283e-05 -4.352356862016343e-05 -5.2692748088568322e-05 1.2079441096164711e-06 -0.00012737730452946279 -2.4317596176370686e-05 -9.7556154885544005e-07 -2.5006085714427253e-05 -4.1784494390549988e-05 -2.7675324160854838e-05 -1.7359018585330873e-05 -7.7990485213507506e-05 -3.1670718826853862e-05 -0.00011454992251037 -1.7707410725160966e-05 -2.0776336205245195e-05 -2.7750708794031277e-05 -2.3340110391975675e-05 -3.0748975239175539e-05 8.4719879018660676e-05 -4.1460394918514766e-05 -4.8040357979127828e-05 -3.4634633222503818e-05 6.0048454396754644e-05 -9.2155507837397854e-05 -4.1644986609864237e-05 -0.00013231658751986173 -8.9703418778420163e-05 -7.7603667192988014e-05 -4.1405962545448397e-05 -3.4458310464839128e-06 -1.1681154774283595e-05 3.78981260225152e-06 -3.8807453729158754e-05 -1.6629898065172351e-05 -6.9603788964097725e-06 -4.2202176532680469e-05 -1.1228515776811067e-05 1.5462346626841754e-05 -1.6678664128246326e-06 -5.5846046184415687e-06 4.4611118846637349e-06 -7.3324406456147214e-05 -5.3747008069035551e-05 -6.1286988029463064e-05 -8.9708749454258177e-05 -7.2581228566791526e-05 -5.1852870963466663e-05 7.8920482805976307e-05 -9.8406573852231175e-05 -8.0367775247101173e-05 -2.5583367032336167e-05 -6.1254917976463487e-05 -6.9449482191407658e-05 -0.00010754781391030601 -0.0001117597289896706 2.7559766510428831e-05 -8.4598301723099595e-06 1.9885645982274254e-05 2.5147209596774935e-06 -5.1301176573770893e-05 5.0734532904664928e-05 9.3806926496436743e-05 -1.0412127564730217e-06 -6.3413536902193126e-05 -7.4296005008704777e-06 -0.00010191784210890998 -2.9902446685656009e-05 -2.6420638711651258e-05 -2.6719905635795549e-05 -5.4781355563565898e-05 -4.7770133514574002e-05 -6.018519171943298e-05 -6.0986499192879662e-05 -6.7081162087507563e-05 -9.3563123836136561e-05 -9.8553741484885742e-05 -8.133849038785806e-05 -6.4572167871497456e-05 -7.8133830278981451e-05 -5.4413527105067272e-05 2.7945226927253495e-05 -3.4745606930586681e-05 -9.7987208244089408e-06 5.5101287478559295e-06 -6.6028926115672308e-05 -7.7541381706325315e-05 -3.3392798169815657e-05 -1.1703776326557136e-06 -5.9647856833135171e-05 2.1296660797248158e-05 -3.2822720778664678e-05 -9.7354635358223298e-06 -0.00011564807343832191 -8.3605340432082694e-05 -1.2595749608675748e-05 -4.0450653153634016e-05 -3.5461668745500577e-05 -0.00011631401152303099 -8.5598900212626383e-05 3.3324891185993906e-06 -1.9333138420452901e-05 -1.3314437103699103e-05 -6.5218435711044906e-05 -5.2556283518200937e-05 -1.5453446549128122e-05 -1.1171816095176909e-05 -6.3981456221736993e-05 -6.079145025502867e-05 -6.0382111317032176e-05 -5.8858239671227083e-05 -2.3508482688622354e-05 -1.4830340534726264e-07 -2.2016382900572632e-05 -5.5505790112131068e-06 -3.1358715759066593e-05 -6.403828824039226e-06 -1.6415187141943724e-05 -2.4878944648604878e-06 -4.3833001167826752e-05 -2.3728048408225549e-05 -9.929187118800449e-05 -8.1021029329157046e-05 -1.1743965918456804e-05 5.4236710559709854e-05 9.637678983700972e-05 -1.9012107220948751e-05 -1.3276653618813709e-05 -1.6715152185498407e-05 -2.8384956846631013e-05 -2.9420725680444392e-05 -1.8993728497530447e-05 1.3139206600785752e-05 1.8030197940417355e-05 4.7616378030367968e-05 3.5638923414670412e-06 -1.6653596611588412e-05 -3.7647082813302765e-05 -3.2310686643758312e-05 7.6161556313777967e-06 -1.6468987631304815e-05 -8.7428716811167257e-05 -7.4530894680724478e-05 1.8717467925743851e-05 -0.00011915804408445263 -9.3660372893326549e-05 -2.8052280068079603e-05 3.251946828358547e-05 1.7607538646029848e-05 -7.2815869622405716e-06 -3.3570418468972709e-05 -1.6620465219952581e-05 -2.9864029614142407e-05 -6.8487621285924939e-05 -5.2718641063855638e-05 2.4812245383541861e-05 1.9243343899497968e-05 4.416979313517401e-05 -1.9691930692557566e-05 -1.5646530126508493e-05 3.6660960195985417e-05 2.3538012859111593e-05 4.2186796169039163e-05 -1.5922709011092703e-05 -3.7636319318975684e-06 -1.3226963629872605e-05 -2.7182351844481012e-05 -5.4301009067415693e-06 -4.8975860659215606e-05 -7.2097680121069188e-05 -6.3542687691258589e-05 -2.416152907119594e-05 1.5401986952760658e-05 -0.00011773494520484927 -4.1976997536309908e-05 -2.7702624639192258e-05 -3.0714459660617421e-05 -3.8610466825967108e-05 -5.1083211387476085e-05 -3.9992582418362188e-05 -2.8820955106357751e-05 -2.5948426838780822e-05 5.46980390195035e-06 -8.3881680142541902e-05 8.0775523196687849e-05 -2.0473269020552436e-05 -3.3734427526188739e-05 -3.1720474750802826e-05 -1.6438586816895986e-05 1.0630199026842937e-05 -1.9647718444467767e-05 -2.6377736024656995e-05 -3.2995380414965674e-05 -7.3378794904770657e-05 -3.1550471361237512e-05 -1.5941712338893982e-05 -8.2735998632161e-05 7.9706579768517726e-05 -9.9871820923302934e-06 -9.8589428651580865e-06 -3.2955156075863522e-05 -4.0738276293515988e-05 1.3856543749528772e-05 -1.9027670723488705e-05 -3.6872483558172259e-05 -3.2970461965951961e-05 -6.2378536737160662e-05 -4.6098588153229304e-05 -3.8181016448632176e-05 -6.2903568729392144e-05 -9.4656324510942243e-05 1.9770090748232614e-05 4.3385782364416259e-05 -7.3755019235912343e-06 -2.5905542765873048e-05 9.6373064211244578e-05 -4.4709617365652627e-05 -1.3536112722477999e-05 3.9278738076642568e-05 -3.4488757181834951e-05 -2.3749756348141228e-06 -1.1598337449421521e-05 -4.2819266967269381e-05 -1.2447405225316313e-05 3.9070964847126664e-05 -1.2812479646737976e-05 -0.0001056144917086635 -0.00018099205474870486 5.3559608514927581e-05 -6.2220560934096898e-05 5.785964406469899e-05 6.5301010065301054e-05 0.00011774113232375307 0.00011310606506298123 -2.8114050731341852e-06 1.6474275343903756e-05 6.5579115896271818e-05 2.6278077364584596e-05 -1.7474544860083039e-05 4.4775634216434081e-05 -6.2707224537713463e-06 -6.1324091009612794e-06 1.7270065947900138e-05 -3.6012815852137828e-05 4.22901887891113e-05 -3.5864086750207747e-06 9.1684827144421615e-06 -3.5229007046893787e-06 1.6998424651516481e-05 6.3141554380376523e-06 -3.3888330390644894e-05 -3.306467370019602e-05 -4.053949698258017e-05 -4.0335682350405846e-06 -5.8575773330468619e-05 3.450224394541781e-05 -4.6177130939296896e-06 -3.8365170056183114e-06 -2.9278593997658447e-05 -2.9083557222168857e-05 -0.00019084357089254548 -0.00010520058206541524 -4.9004553089055939e-05 -5.5114537017750744e-05 -6.5188260929205583e-06 -8.4737721502121285e-06 -1.7592330360815625e-05 -0.0001117391285086828 -8.4900286983508372e-05 5.6522788378628695e-05 -9.2919399841787808e-05 -7.5576452219895221e-05 -2.4322588143337216e-05 7.5271077722435928e-05 -1.818744483080867e-05 -5.0121681148944408e-06 -7.7120275312086436e-05 -7.2358151571804438e-05 -9.8767187447318638e-05 -0.00015408048043951013 -3.8108034379750262e-05 2.4348260459933777e-05 -1.2042630807076879e-05 -7.2730411559144237e-06 -1.2073847729324107e-05 2.0097482617468553e-05 1.7364669274201582e-05 -1.1872420175841831e-05 -2.712990882705344e-05 -6.4831878210916589e-06 6.5903425569126226e-05 -9.5398266738509112e-05 -0.00014086588256296672 1.897830895127826e-06 4.5525150539600786e-05 -2.6553010076297562e-05 -9.6169818320170707e-05 -7.7862521530143162e-05 -4.5054075458099546e-05 -8.2804142324832945e-06 1.7027800657921444e-05 -4.4588442471871385e-05 -4.3456690007819421e-05 2.2105224816767978e-05 2.0890178817853941e-05 -7.5321388907922948e-06 -1.2212825092090839e-05 -2.0360857715887804e-05 -8.7719332623862906e-06 9.9343025482481577e-05 9.8511797210626417e-07 4.9843848698441105e-05 1.4971561593101358e-06 -1.9380230581521522e-05 -2.846394790514045e-05 -1.9317156765097436e-05 -0.00012105076262396245 -0.00013824203499679226 -3.5690472250632187e-05 -4.1535128864926692e-05 2.4378135862925459e-05 -7.4676762077775316e-05 -6.8363853361290712e-05 -7.7733299658949655e-05 -9.260882633939847e-05 -4.7572347455530125e-05 -3.6496338865602256e-05 -5.584659022798396e-05 -5.3734488980003377e-05 -5.1687836051533852e-05 -5.7833537972884041e-05 -4.1585105452924404e-06 -2.086543487081656e-05 -6.1885140821354721e-05 -6.2438522573141146e-05 -2.815581084091205e-05 -6.7451216787862322e-05 -7.627302301987681e-05 6.6441965371703674e-06 -3.2090274208600134e-05 -9.3571533139483274e-05 -8.1396479337305679e-05 3.6152978310701237e-05 -1.4308631216127313e-05 -4.6044790126367649e-05 1.5919038618766044e-05 -1.9910808976328991e-05 -2.3056883734083611e-05 -0.00012944186813919494 -9.9793501904283933e-05 1.2904489624391755e-05 -2.3073704035832641e-05 -3.51339554261951e-05 -6.8511607902082617e-05 -6.602163039646624e-05 -2.221903333711364e-05 -3.1655749559854785e-05 -3.5415575432198729e-05 -1.7837814036950585e-05 -3.1152066024232769e-05 0.00010511754377574048 -4.6136463262913497e-05 -3.678040291767333e-05 2.5165208049512467e-05 2.1521593590150163e-05 -7.0346853541620297e-05 -1.4693698941279504e-05 -9.121252409613641e-05 -0.00014665512307651779 -8.8221847272151237e-05 -0.00014571636073197343 -9.0405559824539074e-05 -0.0001144250500530567 -1.5863429963311666e-05 -3.7911387989972571e-06 3.3032826678477522e-05 7.9394844842402084e-05 9.1990085624234935e-06 6.221354149436864e-05 1.741759039016941e-05 -3.6477593392736183e-05 1.9442828948967243e-06 -1.4878238783753311e-05 -4.9836926866761959e-06 -9.0622945751456588e-05 -1.2284138267419073e-05 0.0001174486721138865 9.906559803045758e-05 2.6625443120965224e-05 -0.00016087013374637609 -9.6128358550680152e-05 -1.047921172691842e-05 -6.2123071496862116e-05 -3.8707598668936277e-05 -6.6253680531648887e-06 5.6303714919821717e-07 2.5628027714346855e-05 -1.2826516296346457e-05 -6.1329865502265419e-05 -6.6130342228522585e-05 -1.63754660256788e-05 -1.7100105532288565e-05 -2.0721413591847911e-05 -2.29096075425924e-05 -3.7274151212513549e-05 -2.7590231907320175e-05 -7.1812874472204904e-05 -8.3550517769617584e-05 -7.2822392409237972e-05 -0.00012254787294900104 -7.1648945509258889e-05 -2.820509431928874e-05 1.4770142750021326e-06 -0.00010824542976855758 -0.00013962667053536444 -4.1330165712227447e-05 2.1804155137926157e-05 -9.5145605725596293e-05 -0.0001665515695749712 -5.2330266088898754e-05 -9.6326899383738178e-05 -7.4323436539709274e-05 0.00013014633363922154 -0.00012955590301885324 -8.8025400238310537e-05 -3.2309013332183561e-05 -3.4381373095338148e-05 -8.2488822920705507e-06 -3.1148048591418887e-05 -2.0638638134716572e-05 0.00011431098980592695 -6.91931710840049e-05 -3.7066029458490186e-05 7.6927895966074841e-05 -5.6800832597789092e-05 -0.00020004196916924212 -0.00011148006509890268 -1.6017503838671718e-06 -9.2734973630333566e-05 -0.00010504661142534782 3.773137244076491e-05 -3.708609650027346e-05 -2.324888067198799e-05 7.6221852706274962e-05 -1.0790432926621307e-05 -2.0711115738115786e-05 5.4119933725897858e-06 -3.1259014421447929e-05 -3.1568624866626371e-05 3.2601127189219384e-05 -5.1822780800379518e-05 3.8375675844390758e-05 -8.1485715247811509e-05 -4.1715878412485114e-05 -7.4571424657186804e-05 -5.5415157128995644e-05 -8.9170719663942251e-05 -8.1065509013280402e-05 -6.3727633732515217e-05 -6.990127579370445e-05 -7.423685310855156e-05 -6.5722764243630476e-05 -6.6293430652766591e-05 -2.3021402029857181e-05 1.3363311773138801e-05 -2.5649002601266206e-05 -1.2585221497629227e-05 -2.6015325481445019e-05 1.9607113715417552e-05 -3.509569147536239e-06 -0.0001118181135514307 -0.00020339431990412226 6.0108594707485095e-06 3.3167228660504556e-05 -5.8143473475367178e-05 -4.353574397090243e-05 -5.1327363550791371e-05 -4.5380550601814267e-05 5.8874467464731643e-05 -9.0634413607894936e-05 -8.3915109047167223e-05 -0.00010755772156455337 -0.00012553344052940299 -9.0299347989014405e-05 6.2097241953821885e-05 2.15826770867619e-05 -9.7631752727949193e-06 -5.7248129411939462e-05 -1.6986168730731701e-05 -7.4133315247189616e-05 2.3421883205525674e-05 -4.6573786714953866e-05 -3.2725233009375869e-05 8.9224398806582957e-05 -0.00015668795476934949 -3.9290769773649159e-05 -7.5208880849437216e-05 -8.5611209873922824e-05 -1.9996826281895054e-05 -8.7815147036733685e-05 -0.00014043028225490576 5.0745050206598905e-05 -3.4577950408456841e-05 2.457855821306565e-05 -1.0519594791878685e-05 -6.696224721129229e-06 -3.0399243002626811e-05 -4.3472947515504669e-05 -4.6736797350535981e-05 6.4419213302136825e-05 5.5396320991048082e-05 -2.9965691389749124e-05 -2.5591961867162463e-05 1.8641945982814448e-05 1.2012324735168924e-05 3.5596550277492561e-06 3.2359124235448351e-05 -4.0932295206589724e-05 4.019145809038688e-05 1.2555660161066361e-05 -6.3884782242554748e-05 -7.3060935629409352e-05 -0.00011861995534880737 6.5355348609927939e-06 1.7802429182989742e-05 -3.7742362770571902e-05 -4.4104152003546695e-05 -0.0001374909183817979 -8.9975900140657668e-05 -8.3582541297718929e-05 5.1608007655724875e-05 -2.3215893584493334e-05 -4.4842620419966041e-05 -2.9631695685016757e-05 -4.5883120395988353e-05 -5.7815423442260044e-05 -9.0855294511581528e-06 2.3144265671186826e-06 -6.5734935530850072e-05 -7.6580286388591148e-05 -0.00012035387726848238 -1.0953680280379298e-05 -1.2517573204763252e-05 -7.3321227286382503e-05 -6.5877445713113694e-05 -2.7487010037852361e-05 -8.7062543026782179e-05 -0.0001013784546001275 -2.1649263499583712e-06 -4.3838812740351618e-05 -4.3796188214695076e-05 7.0954497126606399e-05 9.8371876802430368e-05 -9.7294690154511062e-05 8.236656191927354e-05 6.1610897207727141e-05 -5.6582805758383933e-05 -4.6959963245657142e-05 -8.9562027470918831e-05 -6.3562298210434942e-06 7.006145108016151e-05 -3.4618784143980311e-05 -8.7303028461054098e-05 -0.00014432975063678472 -3.8914330711274474e-05 9.8790916031659889e-06 -1.5554280325811155e-05 9.4710872293666518e-06 -9.7674024146006402e-05 -7.9094682249837556e-05 -0.00010430556004181312 8.5844441356069381e-06 -6.2759517666906018e-05 3.5508721629638735e-05 -3.9485156212431891e-05 -1.1777766071297143e-05 -9.2547434974152488e-05 -0.00015324636589271825 -5.8990012669046153e-05 -1.1968316402710135e-05 1.8317155829527458e-05 -4.9748138266026191e-05 -3.2668266224680667e-05 -4.9095855381557377e-05 -5.8750448287439442e-05 -3.4085973001842396e-05 -4.4444231569504678e-05 -9.2084275076356585e-05 -0.00016051422107010672 -4.1006548382163145e-05 7.4462091072337788e-05 5.0498171128219617e-05 -2.9155012904296014e-05 8.2606418746485229e-05 1.0326479731452868e-06 -3.038889049047336e-05 6.4680645555725532e-05 0.00011271573612551362 -8.7445977182526967e-05 -6.4575197284158693e-05 -3.2929804258731088e-05 -7.2606415208643308e-05 7.1878552321020129e-06 -4.0109654855603898e-05 -4.2500135866556263e-05 6.1964662693433405e-05 -5.7797279018091403e-05 -1.8633325945654415e-05 -1.0836238577121525e-05 3.0845045206139444e-05 6.0176766890856158e-05 0.00010909223608611895 6.3895393387144444e-05 4.8921334473932791e-06 -1.3683575133540223e-05 3.5479867822893974e-05 -4.0087634152827212e-05 -7.0957536974494727e-05 -6.1174498573759528e-05 -6.6482659678878124e-05 9.9592834673757971e-06 3.7300197089147071e-05 -2.5974620917226715e-05 -6.8011717283228239e-06 -4.3213573331413345e-05 -2.5759155977797229e-05 -4.1866129856215938e-05 -1.4098650340545887e-05 -8.4004821181198281e-06 -1.995460868552129e-05 0.00014908689510420448 -4.1680982722617238e-05 -3.7600765035462761e-05 1.6794870531244843e-06 0.00011434422439560166 0.00011510072956058526 5.9618509790992837e-05 2.7785513885148633e-06 1.2193013854067598e-06 6.1452513157332633e-05 2.0652002782938286e-06 -4.336457821716903e-05 -3.4650322852141372e-05 -5.5339646363246082e-05 -3.5604435050318097e-05 -4.9388616279302996e-05 -1.9286649878783903e-05 -1.115238733310998e-05 4.3390999058437246e-05 8.1672867623650632e-05 -2.3092620341865931e-06 -4.9390331270243672e-05 9.9157031419024391e-06 4.576228051723951e-05 -1.988138311825947e-05 -2.8979318396358251e-05 -5.0749382823939322e-06 -2.8678144111849053e-05 -3.5357989566987998e-06 8.3647860370716573e-06 -5.1091444960375636e-05 -1.1461223882169982e-05 2.2917210423194505e-05 -3.1214066083326524e-05 4.8826551562870975e-05 3.2397693580010246e-05 -4.6642876232731072e-06 -7.219730996251754e-05 -1.2987664930863872e-05 -5.6554058337356756e-06 0.00016463378710917869 0.00014513884907790115 6.5784359447654088e-05 8.6858378834604787e-06 -4.189634896444288e-05 -5.369119325579182e-05 -9.7663996518725018e-05 -7.9335238296252521e-05 -3.0837808797434967e-05 -0.00010400105106515233 -0.00010796977449521514 -0.00012781727238033043 -0.00013546804504637166 -2.8464792243206006e-05 -3.8797340232112443e-05 3.7707482344103999e-05 3.3597902352074257e-05 4.1001392060729655e-05 -3.0772641871311401e-06 6.7661393300723108e-06 3.0492455020813372e-05 6.0793088909009033e-05 3.2363619972663594e-06 6.8958433962768972e-09 1.0854955281977682e-05 -0.00012854072966422413 -0.00015975713774837852 -0.00015558755947164292 -0.00012763402825725131 -1.5599965850485024e-05 -4.60759558733184e-05 -2.9519961233605827e-05 -3.3965883332264055e-05 -4.1454313734773417e-05 -3.8996872908799792e-05 -3.8582866651644428e-05 6.5233529440560122e-05 0.00031703668672943388 -4.5135820622449599e-05 2.4229272158551082e-05 -3.6374815504351806e-06 -2.9119023460134911e-05 3.7437859207593936e-05 -2.2793510923032516e-05 5.5004474841876855e-05 2.4247558063899427e-06 -3.00889643269674e-05 4.6948228633924075e-06 4.088658514846133e-06 -2.1716234733546369e-05 4.6995377663979225e-05 -4.0867688702927532e-05 -2.5585706013947832e-05 -5.8208860673809168e-05 -5.5213700237688188e-05 -2.3686599451384808e-05 -1.314596496733325e-05 -4.6757128115589562e-05 -3.6866108772970336e-05 -3.9757331655455234e-05 -1.1695805117569119e-05 9.1820587683954721e-06 2.8359361171670524e-05 1.8809662367984736e-06 9.6287305092161355e-05 4.7310805838815875e-05 -1.4543375541960918e-06 2.2934016802267972e-05 3.082934286057111e-07 -3.7721507860006762e-05 -7.995216378947536e-06 -5.9700964597053478e-06 -8.7577029167871452e-06 4.02056272874457e-05 3.0287358632726316e-06 5.889452082308462e-06 1.6049975984869496e-05 -3.1058599697722945e-05 1.4316846008803163e-05 6.8882216203395609e-05 0.00012456480473072322 -3.7293286804607174e-05 -5.5390388080256946e-05 -6.5010957136875727e-05 -2.9467979556209117e-05 -2.9435759289570066e-05 -3.6564740191967897e-05 -1.795418314348883e-05 -4.1417888757445433e-05 -6.3883002589691304e-06 -1.368670787583277e-05 -9.194795466952882e-05 -0.00012082826401121658 -0.00010143596121011994 -8.0386328643586302e-05 -2.7993185321338531e-05 -5.6366691071731492e-05 7.3242482116473752e-06 -7.2645801637996957e-07 -3.6661793006663489e-05 -3.1448424996749843e-05 -3.026644870279688e-05 -2.7220144800217715e-05 -7.5175424774560657e-05 -5.7645622294193112e-05 -4.0953425769253227e-05 1.0304479289006095e-05 -3.025316963471312e-05 -5.9157798658238288e-06 -6.409566289969617e-05 -3.4173429174983949e-05 -4.0737412816475339e-05 3.21522314693277e-05 6.4634142257124962e-05 -4.0460746661455147e-05 5.7090796589838455e-06 -2.1940631165142527e-06 3.3693955028891477e-05 3.4420447850977073e-05 6.8590024808194011e-05 3.4737244961613456e-06 7.1944388124791855e-05 -2.6681005744792416e-06 -3.2808681024718879e-05 -1.3600764279006732e-05 -2.3094545758248035e-05 -2.2049815649674814e-05 -1.6913587172767458e-05 5.5224593050728357e-05 -3.8048331366940451e-05 -4.5710512497146685e-05 -5.2768130136572193e-05 -8.4146694560910743e-05 -3.92640243874491e-05 2.7865252119672109e-05 8.7624639812180789e-06 5.3288687744759439e-06 5.6172874583645634e-05 -3.6603536712072641e-05 -5.9012970745469303e-05 1.6236906850032335e-05 1.9056905637213824e-05 -1.4810268235106519e-05 -3.1586686125713434e-05 -2.374934928363147e-05 -1.3383573048779114e-05 8.7621268865697467e-05 -2.2499673938297573e-05 -6.4172854763175179e-05 -4.2859541850461741e-05 7.0584219895918152e-05 -2.778225005660071e-05 -5.7705433806622911e-05 -7.3573855021202231e-05 5.4902184327352546e-06 
</DataArray>
</CellData>
</Piece>
</UnstructuredGrid>
</VTKFile>
