<?xml version="1.0"?>
<VTKFile type="UnstructuredGrid" version="0.1" byte_order="LittleEndian">
<UnstructuredGrid>
<Piece NumberOfPoints="3142" NumberOfCells="1054">
<Points>
<DataArray type="Float64" NumberOfComponents="3" format="ascii">
0.5 0.29999999999999999 0 0.54999999999999993 0.29999999999999999 0 0.54999999999999993 0.29999999999999999 0 0.59999999999999976 0.29999999999999999 0 0.59999999999999976 0.29999999999999999 0 0.6499999999999998 0.29999999999999999 0 0.6499999999999998 0.29999999999999999 0 0.69999999999999984 0.29999999999999999 0 0.69999999999999984 0.29999999999999999 0 0.74999999999999989 0.29999999999999999 0 0.74999999999999989 0.29999999999999999 0 0.79999999999999982 0.29999999999999999 0 0.79999999999999982 0.29999999999999999 0 0.84999999999999987 0.29999999999999999 0 0.84999999999999987 0.29999999999999999 0 0.89999999999999991 0.29999999999999999 0 0.89999999999999991 0.29999999999999999 0 0.94999999999999996 0.29999999999999999 0 0.94999999999999996 0.29999999999999999 0 1 0.29999999999999999 0 0.5 0.69999999999999996 0 0.54999999999999993 0.69999999999999996 0 0.54999999999999993 0.69999999999999996 0 0.59999999999999976 0.69999999999999996 0 0.59999999999999976 0.69999999999999996 0 0.6499999999999998 0.69999999999999996 0 0.6499999999999998 0.69999999999999996 0 0.69999999999999984 0.69999999999999996 0 0.69999999999999984 0.69999999999999996 0 0.74999999999999989 0.69999999999999996 0 0.74999999999999989 0.69999999999999996 0 0.79999999999999982 0.69999999999999996 0 0.79999999999999982 0.69999999999999996 0 0.84999999999999987 0.69999999999999996 0 0.84999999999999987 0.69999999999999996 0 0.89999999999999991 0.69999999999999996 0 0.89999999999999991 0.69999999999999996 0 0.94999999999999996 0.69999999999999996 0 0.94999999999999996 0.69999999999999996 0 1 0.69999999999999996 0 0.40076539126862748 0.34589349467022118 0 0.33277555741076909 0.36432196682010132 0 0.36575549820117997 0.31677992835137742 0 0.38083244760691543 0.38531983672244652 0 0.33277555741076909 0.36432196682010132 0 0.40076539126862748 0.34589349467022118 0 0.56836770495988642 0.3523062350852913 0 0.52289427570932567 0.3932284363388488 0 0.52752007115234678 0.33170632466418198 0 0.52752007115234678 0.33170632466418198 0 0.52289427570932567 0.3932284363388488 0 0.49077833859261139 0.35229981449445641 0 0.10000000000041601 1 0 0.053064897599294662 0.95186845269532028 0 0.10266856499240549 0.95548163909968886 0 0.099999999999814668 0 0 0.10266856499169109 0.044518360900210059 0 0.053064897599215843 0.048131547304697528 0 0.050000000000207989 1 0 0.053064897599294662 0.95186845269532028 0 0.10000000000041601 1 0 0.049999999999899652 0 0 0.099999999999814668 0 0 0.053064897599215843 0.048131547304697528 0 0.24999999999941211 0 0 0.29999999999926641 0 0 0.27499999999933927 0.060310814194988557 0 0.30000000000124832 1 0 0.25000000000104028 1 0 0.27609987656793722 0.94991445621608572 0 0.15720202157091859 0.60665697304410315 0 0.19914261668318661 0.62286739485272158 0 0.16500388252850301 0.66612077714085194 0 0.2236846579037573 0.67380363126050236 0 0.16500388252850301 0.66612077714085194 0 0.19914261668318661 0.62286739485272158 0 0.1247745017231483 0.27198077544791172 0 0.168349569971391 0.28054490850913671 0 0.14223753364722069 0.3341983344262433 0 0 0.75000000000034661 0 0 0.7000000000006934 0 0.049706944316475897 0.72477277076253799 0 0 0.30000000000124832 0 0 0.25000000000104028 0 0.049706944316556423 0.27522722923869108 0 0.59999999999999976 0.29999999999999999 0 0.61959173890754571 0.33832250091341232 0 0.56836770495988642 0.3523062350852913 0 0.5 0.69999999999999996 0 0.43323420005758778 0.6913544522562407 0 0.47913475093885149 0.66010775372412711 0 1 0.14999999999961891 0 0.95391631417672862 0.19584263333809451 0 0.93677536231883773 0.14999999999999089 0 1 0.84999999999982645 0 0.95391631417670719 0.89584263333814784 0 0.93677536231884972 0.85000000000000286 0 1 0.84999999999982645 0 0.93677536231884972 0.85000000000000286 0 0.95386563387742829 0.80414874155775029 0 1 0.14999999999961891 0 0.93677536231883773 0.14999999999999089 0 0.95386563387744361 0.1041487415577465 0 0.90416666666660628 0.9041666666666166 0 0.88088768115933802 0.84674609810493673 0 0.93677536231884972 0.85000000000000286 0 0.90416666666668166 0.20416666666667119 0 0.88088768115941807 0.14674609810479519 0 0.93677536231883773 0.14999999999999089 0 0.1247745017231483 0.27198077544791172 0 0.14223753364722069 0.3341983344262433 0 0.093851963071650835 0.30582068233324772 0 0.5 0.69999999999999996 0 0.45582236402875981 0.73896743678908217 0 0.43323420005758778 0.6913544522562407 0 0.55000000000173355 1 0 0.50000000000205869 1 0 0.52122150208832174 0.94089974453840242 0 0.49999999999869432 0 0 0.5499999999988151 0 0 0.52375890611712683 0.059318771819432882 0 0.54999999999999993 0.29999999999999999 0 0.59999999999999976 0.29999999999999999 0 0.56836770495988642 0.3523062350852913 0 0.50202631463681879 0.87892870825713787 0 0.44003836461056539 0.88093474584252718 0 0.45677673713123867 0.84253684404072415 0 0.33403534827021109 0.84402799729020661 0 0.35864759629805099 0.87963482415279515 0 0.30864387279288652 0.89906554525974958 0 0.53245488764484505 0.55078124999999989 0 0.47793794143994173 0.52940715638744962 0 0.53330375813596242 0.50827942741749099 0 0.82709327591102189 0.14937141670914489 0 0.81283102246527783 0.1881007222486438 0 0.77144070960558853 0.14311854477243749 0 0.82709327591091286 0.84937141670920724 0 0.81159157511211755 0.88795995483179491 0 0.76901770135486491 0.84293557325473656 0 0.77144070960558853 0.14311854477243749 0 0.81283102246527783 0.1881007222486438 0 0.76587607630038135 0.18880039518954719 0 0.76901770135486491 0.84293557325473656 0 0.81159157511211755 0.88795995483179491 0 0.76891166905518427 0.88835469571185499 0 0.33403534827021109 0.84402799729020661 0 0.30864387279288652 0.89906554525974958 0 0.29209212897034281 0.84715728365233667 0 0.57412547362576272 0.58273804879550706 0 0.5166924242153631 0.59825134841919447 0 0.53245488764484505 0.55078124999999989 0 0.50202631463681879 0.87892870825713787 0 0.47401147028110507 0.91529957330468115 0 0.44003836461056539 0.88093474584252718 0 0.5 0.69999999999999996 0 0.54999999999999993 0.69999999999999996 0 0.55363780716230748 0.74348740161571747 0 1 0.34999999999993492 0 0.95871855522754235 0.40006508612975411 0 0.95780851984364423 0.34215720972155339 0 1 0.64999999999986979 0 0.9578014258160763 0.65787212321113708 0 0.95867599106212187 0.60011091146651041 0 0.46666084890304671 0.57634471035397938 0 0.47793794143994173 0.52940715638744962 0 0.53245488764484505 0.55078124999999989 0 0.94999999999999996 0.29999999999999999 0 0.89898474358614167 0.25391965591104898 0 0.94399509803921056 0.24399509803922639 0 0.94999999999979179 1 0 0.89898474358632463 0.95391965591118966 0 0.94399509803919068 0.9439950980391687 0 0 0.65000000000104008 0 0.050069554451969707 0.61308520079857043 0 0.046634677244967337 0.671418230738282 0 0 0.35000000000145642 0 0.046389130980076937 0.32668781832131749 0 0.050583896093752537 0.38543522283434112 0 0.50202631463681879 0.87892870825713787 0 0.50627822638148745 0.8263979829520941 0 0.55899371797446828 0.85003102233514438 0 0.54782696902220018 0.79245182748204157 0 0.55899371797446828 0.85003102233514438 0 0.50627822638148745 0.8263979829520941 0 0.50945740445113552 0.75476055527778108 0 0.5 0.69999999999999996 0 0.55363780716230748 0.74348740161571747 0 0.84999999999965292 1 0 0.85170973911348691 0.93569607295217616 0 0.89898474358632463 0.95391965591118966 0 0.84999999999999987 0.29999999999999999 0 0.8517097391133297 0.2356960729520409 0 0.89898474358614167 0.25391965591104898 0 0.86956835336234861 0.571283299838105 0 0.82862096804812391 0.55037090955459045 0 0.86907294890112186 0.52008116128001669 0 0.49102375406324739 0.49123754822244059 0 0.53330375813596242 0.50827942741749099 0 0.47793794143994173 0.52940715638744962 0 0.57611405284611883 0.50165903596042916 0 0.61547661924074692 0.48539576058873962 0 0.62042975506801734 0.54295974692364424 0 0.71406021706547751 0.63292083137662503 0 0.67529834988829951 0.61613270668143583 0 0.71809016091162536 0.58185040402320831 0 0.65000000000104008 1 0 0.62065498684670595 0.95224934003983619 0 0.68015064798562208 0.95924320340003011 0 0.84999999999960507 0 0 0.899991664607802 0.045289349238254978 0 0.85491058998398861 0.060047533455626502 0 0.84999999999999987 0.69999999999999996 0 0.89999166460796554 0.74528934923809909 0 0.85491058998424563 0.76004753345552634 0 0.89999999999999991 0.29999999999999999 0 0.89898474358614167 0.25391965591104898 0 0.94999999999999996 0.29999999999999999 0 0.94999999999979179 1 0 0.89999999999958358 1 0 0.89898474358632463 0.95391965591118966 0 0.86411095495256451 0.42388805655111889 0 0.81308179852519835 0.39754945808726527 0 0.86844634540301924 0.38530937474099819 0 0.5 0.29999999999999999 0 0.49695729691142171 0.25014895411178018 0 0.54248833945060504 0.2520322959927106 0 0.86411095495256451 0.42388805655111889 0 0.81973119833356312 0.43505687159469048 0 0.81308179852519835 0.39754945808726527 0 0.67323294229744413 0.57556450033612505 0 0.71809016091162536 0.58185040402320831 0 0.67529834988829951 0.61613270668143583 0 0.6236733212988993 0.14864538214901801 0 0.68391457121233579 0.14440470121196541 0 0.64011864159029941 0.18789607982138171 0 0 0.050000000000207989 0 0.053064897599215843 0.048131547304697528 0 0.044310582753132287 0.101412518374475 0 0 0.94999999999979179 0 0.0443105827531413 0.89858748162559932 0 0.053064897599294662 0.95186845269532028 0 1 0.34999999999993492 0 1 0.39999999999978308 0 0.95871855522754235 0.40006508612975411 0 1 0.59999999999973963 0 1 0.64999999999986979 0 0.95867599106212187 0.60011091146651041 0 0 0.84999999999965292 0 0.065374659239661639 0.8551091961254178 0 0.0443105827531413 0.89858748162559932 0 0 0.15000000000062411 0 0.044310582753132287 0.101412518374475 0 0.065374659239632718 0.1448908038746782 0 0.16500388252850301 0.66612077714085194 0 0.1020579365089687 0.69352219419301997 0 0.1241190223511371 0.64391885572885044 0 0.14999999999970359 0 0 0.14618258501891079 0.062070108745602003 0 0.10266856499169109 0.044518360900210059 0 0.15000000000062411 1 0 0.10266856499240549 0.95548163909968886 0 0.14617343800780541 0.93808063414349496 0 0.7152569930854884 0.5237994455134295 0 0.67569444444444449 0.53500863336860327 0 0.69385896817107129 0.48377516041410151 0 0.6541250972820879 0.49999999999999989 0 0.62042975506801734 0.54295974692364424 0 0.61547661924074692 0.48539576058873962 0 0.94999999999999996 0.69999999999999996 0 0.94399509803918602 0.75600490196082126 0 0.89999166460796554 0.74528934923809909 0 0.94999999999986839 0 0 0.94399509803922566 0.056004901960802607 0 0.899991664607802 0.045289349238254978 0 0.6541250972820879 0.49999999999999989 0 0.69385896817107129 0.48377516041410151 0 0.67569444444444449 0.53500863336860327 0 0.82862096804812391 0.55037090955459045 0 0.81723410853263523 0.59419663659258926 0 0.77151014687832564 0.54436834383023036 0 0.7250000000005199 0.89375000000045834 0 0.66412543161245952 0.88015090885499059 0 0.68697391633157634 0.84450604838764298 0 0 0.94999999999979179 0 0 0.89999999999958358 0 0.0443105827531413 0.89858748162559932 0 0 0.10000000000041601 0 0 0.050000000000207989 0 0.044310582753132287 0.101412518374475 0 0.16500388252850301 0.66612077714085194 0 0.15332765547575641 0.71200081858233666 0 0.1020579365089687 0.69352219419301997 0 0.90299850604011456 0.79563452813489832 0 0.93677536231884972 0.85000000000000286 0 0.88088768115933802 0.84674609810493673 0 0.90299850604006393 0.09563452813493091 0 0.93677536231883773 0.14999999999999089 0 0.88088768115941807 0.14674609810479519 0 0.68391457121233579 0.14440470121196541 0 0.6865991819015953 0.189116534044597 0 0.64011864159029941 0.18789607982138171 0 0.085622222639554768 0.53333248912060549 0 0.1216098864341134 0.50637075089503902 0 0.1154888278694548 0.56733818459978413 0 0.21858834311891909 0.81980263716112767 0 0.22556077506376701 0.77837424984191617 0 0.26104540868854792 0.81401944968719064 0 0.81723410853263523 0.59419663659258926 0 0.77293540622714185 0.59448302402785813 0 0.77151014687832564 0.54436834383023036 0 0.1154888278694548 0.56733818459978413 0 0.1216098864341134 0.50637075089503902 0 0.14934928745814749 0.55042914607228977 0 0.1216098864341134 0.50637075089503902 0 0.068743045408989428 0.48853989837882689 0 0.113541300460994 0.46208784312094731 0 0.078358742472063481 0.43365249433908948 0 0.113541300460994 0.46208784312094731 0 0.068743045408989428 0.48853989837882689 0 0.83573492347052902 0.36590755630746369 0 0.81308179852519835 0.39754945808726527 0 0.78145581580700685 0.34881365920033602 0 0.57611405284611883 0.50165903596042916 0 0.62042975506801734 0.54295974692364424 0 0.57435499076887508 0.54267261987897775 0 0.86956835336234861 0.571283299838105 0 0.81723410853263523 0.59419663659258926 0 0.82862096804812391 0.55037090955459045 0 0.46666084890304671 0.57634471035397938 0 0.53245488764484505 0.55078124999999989 0 0.5166924242153631 0.59825134841919447 0 0.89999999999999991 0.69999999999999996 0 0.94999999999999996 0.69999999999999996 0 0.89999166460796554 0.74528934923809909 0 0.89999999999973679 0 0 0.94999999999986839 0 0 0.899991664607802 0.045289349238254978 0 0.84999999999960507 0 0 0.89999999999973679 0 0 0.899991664607802 0.045289349238254978 0 0.84999999999999987 0.69999999999999996 0 0.89999999999999991 0.69999999999999996 0 0.89999166460796554 0.74528934923809909 0 0.43545892161006339 0.61093128915313821 0 0.4089290844030305 0.58728915500154233 0 0.46666084890304671 0.57634471035397938 0 0.1650278706801647 0.38791388161335733 0 0.1117088112799664 0.38831403004970022 0 0.14223753364722069 0.3341983344262433 0 0.087545339447545459 0.35122518864182262 0 0.14223753364722069 0.3341983344262433 0 0.1117088112799664 0.38831403004970022 0 0.6916490518212759 0.75387992374886192 0 0.72501250972655151 0.74067302935308721 0 0.72500000000000064 0.7952620967744265 0 0.72501250972655151 0.74067302935308721 0 0.75841349681148107 0.75422312624214749 0 0.72500000000000064 0.7952620967744265 0 0.57412547362576272 0.58273804879550706 0 0.53245488764484505 0.55078124999999989 0 0.57435499076887508 0.54267261987897775 0 1 0.54999999999963112 0 0.95867599106212187 0.60011091146651041 0 0.93732437411268477 0.55911392101136159 0 1 0.44999999999963131 0 0.93814194660195893 0.44426664081746747 0 0.95871855522754235 0.40006508612975411 0 0.4089290844030305 0.58728915500154233 0 0.42644501560315817 0.54603747078095544 0 0.46666084890304671 0.57634471035397938 0 0.89999999999958358 1 0 0.84999999999965292 1 0 0.89898474358632463 0.95391965591118966 0 0.84999999999999987 0.29999999999999999 0 0.89898474358614167 0.25391965591104898 0 0.89999999999999991 0.29999999999999999 0 0.29999999999926641 0 0 0.32541448401678508 0.046215317981507749 0 0.27499999999933927 0.060310814194988557 0 0.30000000000124832 1 0 0.27609987656793722 0.94991445621608572 0 0.32544832635163229 0.95485394099568932 0 0.57412547362576272 0.58273804879550706 0 0.62042975506801734 0.54295974692364424 0 0.63065402604362242 0.59661356661633302 0 0.5 0.29999999999999999 0 0.54248833945060504 0.2520322959927106 0 0.54999999999999993 0.29999999999999999 0 0.67323294229744413 0.57556450033612505 0 0.62042975506801734 0.54295974692364424 0 0.67569444444444449 0.53500863336860327 0 0.6541250972820879 0.49999999999999989 0 0.67569444444444449 0.53500863336860327 0 0.62042975506801734 0.54295974692364424 0 1 0.14999999999961891 0 1 0.19999999999974799 0 0.95391631417672862 0.19584263333809451 0 1 0.84999999999982645 0 1 0.8999999999998336 0 0.95391631417670719 0.89584263333814784 0 1 0.7999999999998193 0 1 0.84999999999982645 0 0.95386563387742829 0.80414874155775029 0 1 0.099999999999753911 0 1 0.14999999999961891 0 0.95386563387744361 0.1041487415577465 0 0.4656888918609538 0.78493261229743638 0 0.50627822638148745 0.8263979829520941 0 0.45677673713123867 0.84253684404072415 0 0.6879972333610942 0.43038561374960838 0 0.72622533758026719 0.40265885511101601 0 0.73483647259922602 0.44789725365921768 0 0.67323294229744413 0.57556450033612505 0 0.67569444444444449 0.53500863336860327 0 0.71809016091162536 0.58185040402320831 0 0.7152569930854884 0.5237994455134295 0 0.71809016091162536 0.58185040402320831 0 0.67569444444444449 0.53500863336860327 0 0.65394964615507722 0.22666784374016369 0 0.59814117807200873 0.23398510860739519 0 0.64011864159029941 0.18789607982138171 0 0.55000000000173355 1 0 0.52122150208832174 0.94089974453840242 0 0.57382506491224949 0.9629411906298494 0 0.39801143831225599 0.16651381068160659 0 0.44288491854585582 0.14116182884956319 0 0.42905200079338551 0.19982395548231649 0 0.47357141910802508 0.1873585799078378 0 0.42905200079338551 0.19982395548231649 0 0.44288491854585582 0.14116182884956319 0 0.90594285160987287 0.4141265964174129 0 0.88594198078881503 0.46167788676578442 0 0.86411095495256451 0.42388805655111889 0 0.65507451745379841 0.92229208810758578 0 0.68015064798562208 0.95924320340003011 0 0.62065498684670595 0.95224934003983619 0 0.35312867752657662 0.084946736076730367 0 0.39591832466117061 0.056982757562006353 0 0.39823268594401579 0.1116623613130045 0 0.43698630808430822 0.080423614171545449 0 0.39823268594401579 0.1116623613130045 0 0.39591832466117061 0.056982757562006353 0 0.4367309254023824 0.92065556789053882 0 0.39641108128798319 0.94356127926187128 0 0.39767323751400468 0.89584229130535065 0 0.35752321586431363 0.9185439911803448 0 0.39767323751400468 0.89584229130535065 0 0.39641108128798319 0.94356127926187128 0 0.77354604466818633 0.40378688774472771 0 0.77972660463949339 0.45529290596363098 0 0.73483647259922602 0.44789725365921768 0 0.5499999999988151 0 0 0.57396793757665954 0.037011367187645222 0 0.52375890611712683 0.059318771819432882 0 0.64753070846764316 0.77332939069435502 0 0.60294066490120068 0.80851322453934582 0 0.59636844454254345 0.75937156204589151 0 0.49102375406324739 0.49123754822244059 0 0.48858720058566618 0.43964267759203868 0 0.53823865529665704 0.45873898050322898 0 0.28307294598219601 0.50789252727458634 0 0.29110487519241501 0.56588143995431495 0 0.25115337790845271 0.54719303014923271 0 0.79680861578988083 0.92656778056766709 0 0.81159157511211755 0.88795995483179491 0 0.85170973911348691 0.93569607295217616 0 0.79680861578956375 0.22656778056752541 0 0.81283102246527783 0.1881007222486438 0 0.8517097391133297 0.2356960729520409 0 0.57412547362576272 0.58273804879550706 0 0.57435499076887508 0.54267261987897775 0 0.62042975506801734 0.54295974692364424 0 0.93814194660195893 0.44426664081746747 0 0.88594198078881503 0.46167788676578442 0 0.90594285160987287 0.4141265964174129 0 0.7152569930854884 0.5237994455134295 0 0.73947346780852752 0.49062440112282169 0 0.77151014687832564 0.54436834383023036 0 0 0.7000000000006934 0 0.046634677244967337 0.671418230738282 0 0.049706944316475897 0.72477277076253799 0 0 0.30000000000124832 0 0.049706944316556423 0.27522722923869108 0 0.046389130980076937 0.32668781832131749 0 0.59814117807200873 0.23398510860739519 0 0.59443395090188023 0.18455690917515069 0 0.64011864159029941 0.18789607982138171 0 0.21858834311891909 0.81980263716112767 0 0.26104540868854792 0.81401944968719064 0 0.2401283238295133 0.85648409884788523 0 0.39536230704883951 0.84069429572832477 0 0.45677673713123867 0.84253684404072415 0 0.44003836461056539 0.88093474584252718 0 0.086179601630648681 0.64647209519980475 0 0.050069554451969707 0.61308520079857043 0 0.1024350934457823 0.60772393977513839 0 0.077693244765132896 0.56932317963405099 0 0.1024350934457823 0.60772393977513839 0 0.050069554451969707 0.61308520079857043 0 0.078358742472063481 0.43365249433908948 0 0.050583896093752537 0.38543522283434112 0 0.1117088112799664 0.38831403004970022 0 0.087545339447545459 0.35122518864182262 0 0.1117088112799664 0.38831403004970022 0 0.050583896093752537 0.38543522283434112 0 0.33403534827021109 0.84402799729020661 0 0.35642984951668422 0.80994399665655703 0 0.39536230704883951 0.84069429572832477 0 0.28307294598219601 0.50789252727458634 0 0.33190227185843768 0.52715113583864037 0 0.29110487519241501 0.56588143995431495 0 0.2236846579037573 0.67380363126050236 0 0.19068556247388771 0.71028988922845504 0 0.16500388252850301 0.66612077714085194 0 0.26104540868854792 0.81401944968719064 0 0.22556077506376701 0.77837424984191617 0 0.2792923945214143 0.77665808831789485 0 0.38244435121258652 0.51653317813019495 0 0.37272913873093971 0.56192925302619479 0 0.33190227185843768 0.52715113583864037 0 0.25195515620380449 0.25883339815888678 0 0.29132859388405002 0.27203693976649962 0 0.24432083401701241 0.3006253385567515 0 0.29348325746214782 0.31350119524708198 0 0.24432083401701241 0.3006253385567515 0 0.29132859388405002 0.27203693976649962 0 0 0.89999999999958358 0 0 0.84999999999965292 0 0.0443105827531413 0.89858748162559932 0 0 0.15000000000062411 0 0 0.10000000000041601 0 0.044310582753132287 0.101412518374475 0 0.59999999999999976 0.69999999999999996 0 0.59636844454254345 0.75937156204589151 0 0.55363780716230748 0.74348740161571747 0 0.1650278706801647 0.38791388161335733 0 0.22033343844674469 0.36963382230740238 0 0.191953871957803 0.42546416763755879 0 0.52289427570932567 0.3932284363388488 0 0.46655310992796922 0.39650496622958609 0 0.49077833859261139 0.35229981449445641 0 0.91696753777131557 0.497780560203536 0 0.88594198078881503 0.46167788676578442 0 0.93814194660195893 0.44426664081746747 0 0.24999999999941211 0 0 0.27499999999933927 0.060310814194988557 0 0.22668068146512929 0.045875643423131329 0 0.25000000000104028 1 0 0.22850979588452081 0.95594428570238643 0 0.27609987656793722 0.94991445621608572 0 0.77846603114747959 0.49850927265137401 0 0.77151014687832564 0.54436834383023036 0 0.73947346780852752 0.49062440112282169 0 0.27499999999933927 0.060310814194988557 0 0.27474541102162192 0.11822029332053539 0 0.24218496799700481 0.089025544070598317 0 0.27270076654418179 0.87751467830216623 0 0.29209212897034281 0.84715728365233667 0 0.30864387279288652 0.89906554525974958 0 0.3096713403101819 0.085471541595262421 0 0.27474541102162192 0.11822029332053539 0 0.27499999999933927 0.060310814194988557 0 0.17933913398461551 0.2350063570234002 0 0.18124454140915969 0.18790916706335251 0 0.224700362040408 0.22206622194729711 0 0.18269480424590959 0.75905448272264375 0 0.22556077506376701 0.77837424984191617 0 0.17777405986036951 0.81832336108265358 0 0.35864759629805099 0.87963482415279515 0 0.33403534827021109 0.84402799729020661 0 0.39536230704883951 0.84069429572832477 0 0.77354604466818633 0.40378688774472771 0 0.73483647259922602 0.44789725365921768 0 0.72622533758026719 0.40265885511101601 0 0.80185942888539485 0.77452061303608133 0 0.85491058998424563 0.76004753345552634 0 0.84725310900444062 0.80779732082917555 0 0.80185942888501827 0.074520613036224564 0 0.85491058998398861 0.060047533455626502 0 0.84725310900442086 0.10779732082922661 0 0.086179601630648681 0.64647209519980475 0 0.046634677244967337 0.671418230738282 0 0.050069554451969707 0.61308520079857043 0 0.087545339447545459 0.35122518864182262 0 0.050583896093752537 0.38543522283434112 0 0.046389130980076937 0.32668781832131749 0 0 0.75000000000034661 0 0.049706944316475897 0.72477277076253799 0 0.04408157711937423 0.7728941757575627 0 0 0.25000000000104028 0 0.044081577119474857 0.2271058242433576 0 0.049706944316556423 0.27522722923869108 0 0.52289427570932567 0.3932284363388488 0 0.56836770495988642 0.3523062350852913 0 0.57744073070774993 0.41535148636609359 0 0.6084546825910605 0.37989672713932537 0 0.57744073070774993 0.41535148636609359 0 0.56836770495988642 0.3523062350852913 0 0.61343887413683884 0.856862479058357 0 0.55899371797446828 0.85003102233514438 0 0.60294066490120068 0.80851322453934582 0 0.54782696902220018 0.79245182748204157 0 0.60294066490120068 0.80851322453934582 0 0.55899371797446828 0.85003102233514438 0 0.40326160981139969 0.73346192995102844 0 0.36622285152418499 0.69092437780804039 0 0.43323420005758778 0.6913544522562407 0 0.52289427570932567 0.3932284363388488 0 0.48858720058566618 0.43964267759203868 0 0.46655310992796922 0.39650496622958609 0 0.15720202157091859 0.60665697304410315 0 0.1154888278694548 0.56733818459978413 0 0.14934928745814749 0.55042914607228977 0 0.6879972333610942 0.43038561374960838 0 0.73483647259922602 0.44789725365921768 0 0.69385896817107129 0.48377516041410151 0 0.7250000000005199 0.89375000000045834 0 0.68987011941058407 0.92105047536677087 0 0.66412543161245952 0.88015090885499059 0 0.83573492347052902 0.36590755630746369 0 0.78145581580700685 0.34881365920033602 0 0.82500000000000062 0.33010209762754811 0 0.82862096804812391 0.55037090955459045 0 0.81441713509985358 0.51161854125224959 0 0.86907294890112186 0.52008116128001669 0 0.19670163708476801 0.31472518408333222 0 0.14223753364722069 0.3341983344262433 0 0.168349569971391 0.28054490850913671 0 0.50202631463681879 0.87892870825713787 0 0.45677673713123867 0.84253684404072415 0 0.50627822638148745 0.8263979829520941 0 0.099999999999814668 0 0 0.14999999999970359 0 0 0.10266856499169109 0.044518360900210059 0 0.15000000000062411 1 0 0.10000000000041601 1 0 0.10266856499240549 0.95548163909968886 0 0.67323294229744413 0.57556450033612505 0 0.63065402604362242 0.59661356661633302 0 0.62042975506801734 0.54295974692364424 0 0.083105206071467416 0.20007701332709979 0 0.13737030665753211 0.20313708640667491 0 0.095326043202144745 0.24554465089224409 0 0.083105206071452636 0.79992298667296435 0 0.090953281884486245 0.7564451946902494 0 0.1382744753146134 0.79650574229207483 0 0.50000000000205869 1 0 0.47135117303824892 0.95556877749289892 0 0.52122150208832174 0.94089974453840242 0 0.49999999999869432 0 0 0.52375890611712683 0.059318771819432882 0 0.47040171442036788 0.044141676406503738 0 0.4656888918609538 0.78493261229743638 0 0.45582236402875981 0.73896743678908217 0 0.50945740445113552 0.75476055527778108 0 0.5 0.69999999999999996 0 0.50945740445113552 0.75476055527778108 0 0.45582236402875981 0.73896743678908217 0 0.55306006949600994 0.20198184231352201 0 0.56202748619534593 0.15054058349222879 0 0.59443395090188023 0.18455690917515069 0 0.6236733212988993 0.14864538214901801 0 0.59443395090188023 0.18455690917515069 0 0.56202748619534593 0.15054058349222879 0 0.57412547362576272 0.58273804879550706 0 0.5498280205245758 0.6290146943450976 0 0.5166924242153631 0.59825134841919447 0 0.91696753777131557 0.497780560203536 0 0.93814194660195893 0.44426664081746747 0 0.96228564064454991 0.48206450662049471 0 0.15720202157091859 0.60665697304410315 0 0.16500388252850301 0.66612077714085194 0 0.1241190223511371 0.64391885572885044 0 0.44288491854585582 0.14116182884956319 0 0.47881186583059909 0.093591717165689425 0 0.48466639505193998 0.1421439844745814 0 1 0.54999999999963112 0 0.93732437411268477 0.55911392101136159 0 0.95631871884947484 0.51827533208233789 0 0.57724883562309992 0.92155686857100794 0 0.57382506491224949 0.9629411906298494 0 0.52122150208832174 0.94089974453840242 0 0.85170973911348691 0.93569607295217616 0 0.81159157511211755 0.88795995483179491 0 0.85600844944837662 0.88483418979512773 0 0.8517097391133297 0.2356960729520409 0 0.81283102246527783 0.1881007222486438 0 0.85600844944842547 0.1848341897950983 0 0.27866744612395528 0.38416094670951489 0 0.29124338931648802 0.43334555462578611 0 0.24049127783545701 0.41270748208749802 0 0.6084546825910605 0.37989672713932537 0 0.56836770495988642 0.3523062350852913 0 0.61959173890754571 0.33832250091341232 0 0.20050006573841939 0.53248514016039872 0 0.25115337790845271 0.54719303014923271 0 0.22549374774072969 0.58452645269293457 0 0.26573297623774761 0.59828298563722948 0 0.22549374774072969 0.58452645269293457 0 0.25115337790845271 0.54719303014923271 0 0.26104540868854792 0.81401944968719064 0 0.29209212897034281 0.84715728365233667 0 0.2401283238295133 0.85648409884788523 0 0.6236733212988993 0.14864538214901801 0 0.65290632656860115 0.11434202593454081 0 0.68391457121233579 0.14440470121196541 0 0.19901705110390991 0.9175543425573498 0 0.19741632902693801 0.86755867406447229 0 0.24536017905392571 0.90704567837671446 0 0.72500000000000064 0.7952620967744265 0 0.76901770135486491 0.84293557325473656 0 0.72863726579783861 0.85390518901155588 0 0.72500000000000064 0.7952620967744265 0 0.72863726579783861 0.85390518901155588 0 0.68697391633157634 0.84450604838764298 0 0.7250000000005199 0.89375000000045834 0 0.68697391633157634 0.84450604838764298 0 0.72863726579783861 0.85390518901155588 0 0.72525833953073282 0.1032114801687094 0 0.77144070960558853 0.14311854477243749 0 0.72634814642510737 0.16106886917518889 0 0.72525833953073282 0.1032114801687094 0 0.72634814642510737 0.16106886917518889 0 0.68391457121233579 0.14440470121196541 0 0.36622285152418499 0.69092437780804039 0 0.3977710372045391 0.65868194622830212 0 0.43323420005758778 0.6913544522562407 0 0 0.65000000000104008 0 0 0.60000000000138687 0 0.050069554451969707 0.61308520079857043 0 0 0.40000000000166441 0 0 0.35000000000145642 0 0.050583896093752537 0.38543522283434112 0 0.22033343844674469 0.36963382230740238 0 0.24049127783545701 0.41270748208749802 0 0.191953871957803 0.42546416763755879 0 0.5 0.29999999999999999 0 0.4604742573284204 0.27846934318264788 0 0.49695729691142171 0.25014895411178018 0 0.19741632902693801 0.86755867406447229 0 0.2401283238295133 0.85648409884788523 0 0.24536017905392571 0.90704567837671446 0 0 0.50000000000205869 0 0.068743045408989428 0.48853989837882689 0 0.044576108720083309 0.53509043209532614 0 0.15000000000062411 1 0 0.14617343800780541 0.93808063414349496 0 0.18474005699953849 0.96231585248064622 0 0.14999999999970359 0 0 0.184418230509967 0.038773194583122873 0 0.14618258501891079 0.062070108745602003 0 0.57667858002728545 0.078486105337742612 0 0.52375890611712683 0.059318771819432882 0 0.57396793757665954 0.037011367187645222 0 0.113541300460994 0.46208784312094731 0 0.078358742472063481 0.43365249433908948 0 0.13773355295499351 0.42497777642586831 0 0.77354604466818633 0.40378688774472771 0 0.78145581580700685 0.34881365920033602 0 0.81308179852519835 0.39754945808726527 0 0.38244435121258652 0.51653317813019495 0 0.33190227185843768 0.52715113583864037 0 0.35024835142131061 0.48654922671676981 0 0.64753070846764316 0.77332939069435502 0 0.65005442820240822 0.82644988530054031 0 0.60294066490120068 0.80851322453934582 0 0.15720202157091859 0.60665697304410315 0 0.1024350934457823 0.60772393977513839 0 0.1154888278694548 0.56733818459978413 0 0.90416666666660628 0.9041666666666166 0 0.85600844944837662 0.88483418979512773 0 0.88088768115933802 0.84674609810493673 0 0.90416666666668166 0.20416666666667119 0 0.85600844944842547 0.1848341897950983 0 0.88088768115941807 0.14674609810479519 0 0.078358742472063481 0.43365249433908948 0 0.1117088112799664 0.38831403004970022 0 0.13773355295499351 0.42497777642586831 0 0.38244435121258652 0.51653317813019495 0 0.3908716102680424 0.47010282357248828 0 0.43507373378304309 0.49699695397193322 0 0.90299850604011456 0.79563452813489832 0 0.95386563387742829 0.80414874155775029 0 0.93677536231884972 0.85000000000000286 0 0.90416666666660628 0.9041666666666166 0 0.93677536231884972 0.85000000000000286 0 0.95391631417670719 0.89584263333814784 0 0.90299850604006393 0.09563452813493091 0 0.95386563387744361 0.1041487415577465 0 0.93677536231883773 0.14999999999999089 0 0.90416666666668166 0.20416666666667119 0 0.93677536231883773 0.14999999999999089 0 0.95391631417672862 0.19584263333809451 0 0.39536230704883951 0.84069429572832477 0 0.44003836461056539 0.88093474584252718 0 0.39767323751400468 0.89584229130535065 0 0.51076801031701946 0.1202837388510348 0 0.52375890611712683 0.059318771819432882 0 0.54979595918804436 0.1060565713905809 0 0.57667858002728545 0.078486105337742612 0 0.54979595918804436 0.1060565713905809 0 0.52375890611712683 0.059318771819432882 0 0.57724883562309992 0.92155686857100794 0 0.52122150208832174 0.94089974453840242 0 0.54783390826260769 0.89287767010860219 0 0.50202631463681879 0.87892870825713787 0 0.54783390826260769 0.89287767010860219 0 0.52122150208832174 0.94089974453840242 0 0.087545339447545459 0.35122518864182262 0 0.093851963071650835 0.30582068233324772 0 0.14223753364722069 0.3341983344262433 0 0.54999999999999993 0.69999999999999996 0 0.59999999999999976 0.69999999999999996 0 0.55363780716230748 0.74348740161571747 0 0.083105206071452636 0.79992298667296435 0 0.1074251789111534 0.83564394292147814 0 0.065374659239661639 0.8551091961254178 0 0.083105206071467416 0.20007701332709979 0 0.065374659239632718 0.1448908038746782 0 0.106902708054812 0.16453234188234539 0 0.52289427570932567 0.3932284363388488 0 0.53823865529665704 0.45873898050322898 0 0.48858720058566618 0.43964267759203868 0 0.13737030665753211 0.20313708640667491 0 0.14377654328998779 0.2442024734791064 0 0.095326043202144745 0.24554465089224409 0 0.1382744753146134 0.79650574229207483 0 0.090953281884486245 0.7564451946902494 0 0.14335651144331049 0.75565258250209677 0 0.27270076654418179 0.87751467830216623 0 0.30864387279288652 0.89906554525974958 0 0.24536017905392571 0.90704567837671446 0 0.27609987656793722 0.94991445621608572 0 0.24536017905392571 0.90704567837671446 0 0.30864387279288652 0.89906554525974958 0 0.90299850604011456 0.79563452813489832 0 0.84725310900444062 0.80779732082917555 0 0.85491058998424563 0.76004753345552634 0 0.90299850604006393 0.09563452813493091 0 0.84725310900442086 0.10779732082922661 0 0.85491058998398861 0.060047533455626502 0 1 0.54999999999963112 0 1 0.59999999999973963 0 0.95867599106212187 0.60011091146651041 0 1 0.39999999999978308 0 1 0.44999999999963131 0 0.95871855522754235 0.40006508612975411 0 0.28040350263641872 0.23054717217092141 0 0.25195515620380449 0.25883339815888678 0 0.224700362040408 0.22206622194729711 0 0.84999999999999987 0.29999999999999999 0 0.87430060258887643 0.34056085888204451 0 0.82500000000000062 0.33010209762754811 0 0.84999999999999987 0.69999999999999996 0 0.82457059160610424 0.66831947184359608 0 0.87712158428786946 0.65709029563313581 0 0.86956835336234861 0.571283299838105 0 0.87159648282691515 0.61285406320581504 0 0.81723410853263523 0.59419663659258926 0 0.43698630808430822 0.080423614171545449 0 0.47881186583059909 0.093591717165689425 0 0.44288491854585582 0.14116182884956319 0 1 0.44999999999963131 0 0.96228564064454991 0.48206450662049471 0 0.93814194660195893 0.44426664081746747 0 0.35752321586431363 0.9185439911803448 0 0.30864387279288652 0.89906554525974958 0 0.35864759629805099 0.87963482415279515 0 0.29124338931648802 0.43334555462578611 0 0.25982634974572738 0.46097799597715272 0 0.24049127783545701 0.41270748208749802 0 0.51076801031701946 0.1202837388510348 0 0.56202748619534593 0.15054058349222879 0 0.51729576145820033 0.1683240575987815 0 0.55306006949600994 0.20198184231352201 0 0.51729576145820033 0.1683240575987815 0 0.56202748619534593 0.15054058349222879 0 0.26429849586623999 0.19346700179430079 0 0.28040350263641872 0.23054717217092141 0 0.224700362040408 0.22206622194729711 0 0.51076801031701946 0.1202837388510348 0 0.48466639505193998 0.1421439844745814 0 0.47881186583059909 0.093591717165689425 0 0.2185883431182947 0.18019736283949719 0 0.26429849586623999 0.19346700179430079 0 0.224700362040408 0.22206622194729711 0 0.18269480424590959 0.75905448272264375 0 0.2248999640082178 0.72584299459689172 0 0.22556077506376701 0.77837424984191617 0 0.51076801031701946 0.1202837388510348 0 0.47881186583059909 0.093591717165689425 0 0.52375890611712683 0.059318771819432882 0 0.50202631463681879 0.87892870825713787 0 0.52122150208832174 0.94089974453840242 0 0.47401147028110507 0.91529957330468115 0 0 0.84999999999965292 0 0.038512288486097702 0.8155852717111195 0 0.065374659239661639 0.8551091961254178 0 0 0.15000000000062411 0 0.065374659239632718 0.1448908038746782 0 0.038512288486115001 0.1844147282893184 0 0.2185883431182947 0.18019736283949719 0 0.224700362040408 0.22206622194729711 0 0.18124454140915969 0.18790916706335251 0 0.21858834311891909 0.81980263716112767 0 0.17777405986036951 0.81832336108265358 0 0.22556077506376701 0.77837424984191617 0 0.1215415378367805 0.72939333680004137 0 0.1020579365089687 0.69352219419301997 0 0.15332765547575641 0.71200081858233666 0 0.49695729691142171 0.25014895411178018 0 0.50760557329222289 0.20700468884612061 0 0.54248833945060504 0.2520322959927106 0 0.15720202157091859 0.60665697304410315 0 0.14934928745814749 0.55042914607228977 0 0.18381867841758909 0.57774125163628387 0 0.90416666666660628 0.9041666666666166 0 0.85170973911348691 0.93569607295217616 0 0.85600844944837662 0.88483418979512773 0 0.90416666666668166 0.20416666666667119 0 0.8517097391133297 0.2356960729520409 0 0.85600844944842547 0.1848341897950983 0 0.17933913398461551 0.2350063570234002 0 0.13737030665753211 0.20313708640667491 0 0.18124454140915969 0.18790916706335251 0 0.18269480424590959 0.75905448272264375 0 0.17777405986036951 0.81832336108265358 0 0.1382744753146134 0.79650574229207483 0 0.1216098864341134 0.50637075089503902 0 0.15801167086041079 0.46008690540259539 0 0.16618607197337229 0.50652878253548905 0 0.50760557329222289 0.20700468884612061 0 0.55306006949600994 0.20198184231352201 0 0.54248833945060504 0.2520322959927106 0 0.75000000000034661 1 0 0.7000000000006934 1 0 0.7250000000005199 0.94981617647078953 0 0.69999999999999984 0.29999999999999999 0 0.72500000000000064 0.2498161764706 0 0.74999999999999989 0.29999999999999999 0 0.72525833953073282 0.1032114801687094 0 0.68391457121233579 0.14440470121196541 0 0.68330259535470161 0.10038702501083881 0 0.43249999999999988 0.43937499999999979 0 0.46655310992796922 0.39650496622958609 0 0.48858720058566618 0.43964267759203868 0 0.19901705110390991 0.9175543425573498 0 0.14617343800780541 0.93808063414349496 0 0.16206583317966519 0.89685560785156404 0 0.19922788606653311 0.085920220746880993 0 0.16141998738593399 0.10404039647458049 0 0.14618258501891079 0.062070108745602003 0 0.31378396441836959 0.70157213313026345 0 0.26439878998046262 0.7048065392091396 0 0.27820712747429932 0.65530134213254643 0 0.1216098864341134 0.50637075089503902 0 0.113541300460994 0.46208784312094731 0 0.15801167086041079 0.46008690540259539 0 0.6084546825910605 0.37989672713932537 0 0.65481233915350323 0.35652751921065562 0 0.63912439215427275 0.41063340167983359 0 0.19901705110390991 0.9175543425573498 0 0.18474005699953849 0.96231585248064622 0 0.14617343800780541 0.93808063414349496 0 0.19922788606653311 0.085920220746880993 0 0.14618258501891079 0.062070108745602003 0 0.184418230509967 0.038773194583122873 0 0.38244435121258652 0.51653317813019495 0 0.35024835142131061 0.48654922671676981 0 0.3908716102680424 0.47010282357248828 0 0.82709327591102189 0.14937141670914489 0 0.77144070960558853 0.14311854477243749 0 0.80076557130237269 0.1154587552654202 0 0.82709327591091286 0.84937141670920724 0 0.76901770135486491 0.84293557325473656 0 0.80041942726660109 0.81543261647703358 0 0.43698630808430822 0.080423614171545449 0 0.44288491854585582 0.14116182884956319 0 0.39823268594401579 0.1116623613130045 0 0.39801143831225599 0.16651381068160659 0 0.39823268594401579 0.1116623613130045 0 0.44288491854585582 0.14116182884956319 0 0.36575549820117997 0.31677992835137742 0 0.3786248352540974 0.27082301512024259 0 0.41914690343363781 0.30688979866601612 0 0.42377727103934271 0.25099357235810238 0 0.41914690343363781 0.30688979866601612 0 0.3786248352540974 0.27082301512024259 0 0.049706944316475897 0.72477277076253799 0 0.1020579365089687 0.69352219419301997 0 0.090953281884486245 0.7564451946902494 0 0.1215415378367805 0.72939333680004137 0 0.090953281884486245 0.7564451946902494 0 0.1020579365089687 0.69352219419301997 0 0.1247745017231483 0.27198077544791172 0 0.093851963071650835 0.30582068233324772 0 0.095326043202144745 0.24554465089224409 0 0.049706944316556423 0.27522722923869108 0 0.095326043202144745 0.24554465089224409 0 0.093851963071650835 0.30582068233324772 0 0.77354604466818633 0.40378688774472771 0 0.81973119833356312 0.43505687159469048 0 0.77972660463949339 0.45529290596363098 0 0.43249999999999988 0.43937499999999979 0 0.43507373378304309 0.49699695397193322 0 0.3908716102680424 0.47010282357248828 0 0.26573297623774761 0.59828298563722948 0 0.2459498854893499 0.63248470766216769 0 0.22549374774072969 0.58452645269293457 0 0.72500000000000064 0.7952620967744265 0 0.77094201086366854 0.79647480515688507 0 0.76901770135486491 0.84293557325473656 0 0.72525833953073282 0.1032114801687094 0 0.76878382444651716 0.097147941686331368 0 0.77144070960558853 0.14311854477243749 0 0.72500000000000064 0.7952620967744265 0 0.68697391633157634 0.84450604838764298 0 0.68024162096458085 0.79868546898116533 0 0.31378396441836959 0.70157213313026345 0 0.29904318922293632 0.74132814928635593 0 0.26439878998046262 0.7048065392091396 0 0.31378396441836959 0.70157213313026345 0 0.35415581127540569 0.73730480045900215 0 0.29904318922293632 0.74132814928635593 0 0.61343887413683884 0.856862479058357 0 0.65005442820240822 0.82644988530054031 0 0.66412543161245952 0.88015090885499059 0 0.68697391633157634 0.84450604838764298 0 0.66412543161245952 0.88015090885499059 0 0.65005442820240822 0.82644988530054031 0 0.083411279318375747 0.91030024466934134 0 0.065374659239661639 0.8551091961254178 0 0.10562472963403439 0.87143394428979881 0 0.083411279318303222 0.089699755330707398 0 0.1053400320299198 0.12877248826361379 0 0.065374659239632718 0.1448908038746782 0 0.55306006949600994 0.20198184231352201 0 0.59443395090188023 0.18455690917515069 0 0.59814117807200873 0.23398510860739519 0 0.84999999999999987 0.29999999999999999 0 0.89999999999999991 0.29999999999999999 0 0.87430060258887643 0.34056085888204451 0 0.84999999999999987 0.69999999999999996 0 0.87712158428786946 0.65709029563313581 0 0.89999999999999991 0.69999999999999996 0 0.34258405725730701 0.4444034294386992 0 0.3908716102680424 0.47010282357248828 0 0.35024835142131061 0.48654922671676981 0 0.26573297623774761 0.59828298563722948 0 0.31502927232353312 0.6134992213375432 0 0.27820712747429932 0.65530134213254643 0 0.91696753777131557 0.497780560203536 0 0.86907294890112186 0.52008116128001669 0 0.88594198078881503 0.46167788676578442 0 0.84723782639812573 0.48638347960178252 0 0.88594198078881503 0.46167788676578442 0 0.86907294890112186 0.52008116128001669 0 0.7152569930854884 0.5237994455134295 0 0.77151014687832564 0.54436834383023036 0 0.71809016091162536 0.58185040402320831 0 0.90416666666660628 0.9041666666666166 0 0.89898474358632463 0.95391965591118966 0 0.85170973911348691 0.93569607295217616 0 0.90416666666668166 0.20416666666667119 0 0.89898474358614167 0.25391965591104898 0 0.8517097391133297 0.2356960729520409 0 0.91750694127107502 0.36982372220068471 0 0.95780851984364423 0.34215720972155339 0 0.95871855522754235 0.40006508612975411 0 0.91750694127105259 0.63017627779935648 0 0.95867599106212187 0.60011091146651041 0 0.9578014258160763 0.65787212321113708 0 0.90299850604011456 0.79563452813489832 0 0.88088768115933802 0.84674609810493673 0 0.84725310900444062 0.80779732082917555 0 0.90299850604006393 0.09563452813493091 0 0.88088768115941807 0.14674609810479519 0 0.84725310900442086 0.10779732082922661 0 0.1216098864341134 0.50637075089503902 0 0.16618607197337229 0.50652878253548905 0 0.14934928745814749 0.55042914607228977 0 0.20050006573841939 0.53248514016039872 0 0.14934928745814749 0.55042914607228977 0 0.16618607197337229 0.50652878253548905 0 0.80185942888539485 0.77452061303608133 0 0.84725310900444062 0.80779732082917555 0 0.80041942726660109 0.81543261647703358 0 0.80185942888501827 0.074520613036224564 0 0.84725310900442086 0.10779732082922661 0 0.80076557130237269 0.1154587552654202 0 0.083105206071452636 0.79992298667296435 0 0.065374659239661639 0.8551091961254178 0 0.038512288486097702 0.8155852717111195 0 0.083105206071467416 0.20007701332709979 0 0.038512288486115001 0.1844147282893184 0 0.065374659239632718 0.1448908038746782 0 0.54782696902220018 0.79245182748204157 0 0.59636844454254345 0.75937156204589151 0 0.60294066490120068 0.80851322453934582 0 0.083411279318375747 0.91030024466934134 0 0.0443105827531413 0.89858748162559932 0 0.065374659239661639 0.8551091961254178 0 0.083411279318303222 0.089699755330707398 0 0.065374659239632718 0.1448908038746782 0 0.044310582753132287 0.101412518374475 0 0.84999999999965292 1 0 0.81486180804382891 0.96321394949790495 0 0.85170973911348691 0.93569607295217616 0 0.84999999999999987 0.29999999999999999 0 0.81486180804364938 0.26321394949780091 0 0.8517097391133297 0.2356960729520409 0 0.4656888918609538 0.78493261229743638 0 0.45677673713123867 0.84253684404072415 0 0.42609163930740518 0.80361684430568059 0 0.39536230704883951 0.84069429572832477 0 0.42609163930740518 0.80361684430568059 0 0.45677673713123867 0.84253684404072415 0 0.6236733212988993 0.14864538214901801 0 0.56202748619534593 0.15054058349222879 0 0.58516465772821369 0.11653801664834119 0 0.57412547362576272 0.58273804879550706 0 0.63065402604362242 0.59661356661633302 0 0.5991018319127801 0.62925360607495295 0 0.61343887413683884 0.856862479058357 0 0.5832743223239254 0.88483152652961872 0 0.55899371797446828 0.85003102233514438 0 0.50202631463681879 0.87892870825713787 0 0.55899371797446828 0.85003102233514438 0 0.54783390826260769 0.89287767010860219 0 0.51076801031701946 0.1202837388510348 0 0.54979595918804436 0.1060565713905809 0 0.56202748619534593 0.15054058349222879 0 0.55306006949600994 0.20198184231352201 0 0.59814117807200873 0.23398510860739519 0 0.54248833945060504 0.2520322959927106 0 0.83573492347052902 0.36590755630746369 0 0.82500000000000062 0.33010209762754811 0 0.87430060258887643 0.34056085888204451 0 0.83758014339878906 0.63222013025741819 0 0.87712158428786946 0.65709029563313581 0 0.82457059160610424 0.66831947184359608 0 0.49102375406324739 0.49123754822244059 0 0.53823865529665704 0.45873898050322898 0 0.53330375813596242 0.50827942741749099 0 0.52289427570932567 0.3932284363388488 0 0.57744073070774993 0.41535148636609359 0 0.53823865529665704 0.45873898050322898 0 0.4089290844030305 0.58728915500154233 0 0.37272913873093971 0.56192925302619479 0 0.42644501560315817 0.54603747078095544 0 0.49695729691142171 0.25014895411178018 0 0.4604742573284204 0.27846934318264788 0 0.46429753744194407 0.22870891180733599 0 0.90299850604011456 0.79563452813489832 0 0.85491058998424563 0.76004753345552634 0 0.89999166460796554 0.74528934923809909 0 0.90299850604006393 0.09563452813493091 0 0.85491058998398861 0.060047533455626502 0 0.899991664607802 0.045289349238254978 0 0.38244435121258652 0.51653317813019495 0 0.42644501560315817 0.54603747078095544 0 0.37272913873093971 0.56192925302619479 0 0.71406021706547751 0.63292083137662503 0 0.71809016091162536 0.58185040402320831 0 0.74994237037456724 0.62775548192980357 0 0.84723782639812573 0.48638347960178252 0 0.86907294890112186 0.52008116128001669 0 0.81441713509985358 0.51161854125224959 0 0.33122374654748771 0.57588941099433744 0 0.33190227185843768 0.52715113583864037 0 0.37272913873093971 0.56192925302619479 0 0.086179601630648681 0.64647209519980475 0 0.1241190223511371 0.64391885572885044 0 0.1020579365089687 0.69352219419301997 0 0.59999999999894682 0 0 0.64999999999907843 0 0 0.61940220174112337 0.047251958781050582 0 0.18269480424590959 0.75905448272264375 0 0.14335651144331049 0.75565258250209677 0 0.15332765547575641 0.71200081858233666 0 0.22549374774072969 0.58452645269293457 0 0.2459498854893499 0.63248470766216769 0 0.19914261668318661 0.62286739485272158 0 0.38244435121258652 0.51653317813019495 0 0.43507373378304309 0.49699695397193322 0 0.42644501560315817 0.54603747078095544 0 0.65000000000104008 1 0 0.60000000000138687 1 0 0.62065498684670595 0.95224934003983619 0 0.078358742472063481 0.43365249433908948 0 0.068743045408989428 0.48853989837882689 0 0.033550201249889847 0.46247875832467239 0 0.2236846579037573 0.67380363126050236 0 0.27820712747429932 0.65530134213254643 0 0.26439878998046262 0.7048065392091396 0 0.6879972333610942 0.43038561374960838 0 0.68128176404677243 0.38629093627004979 0 0.72622533758026719 0.40265885511101601 0 0.72525833953073282 0.1032114801687094 0 0.7010294155333181 0.056779085686491267 0 0.7527966693318906 0.053051678021508272 0 0.18269480424590959 0.75905448272264375 0 0.15332765547575641 0.71200081858233666 0 0.19068556247388771 0.71028988922845504 0 0.1216098864341134 0.50637075089503902 0 0.085622222639554768 0.53333248912060549 0 0.068743045408989428 0.48853989837882689 0 0.25676291524611189 0.7436741304886243 0 0.26439878998046262 0.7048065392091396 0 0.29904318922293632 0.74132814928635593 0 0.65481233915350323 0.35652751921065562 0 0.68128176404677243 0.38629093627004979 0 0.63912439215427275 0.41063340167983359 0 0.83573492347052902 0.36590755630746369 0 0.86844634540301924 0.38530937474099819 0 0.81308179852519835 0.39754945808726527 0 0.27270076654418179 0.87751467830216623 0 0.2401283238295133 0.85648409884788523 0 0.29209212897034281 0.84715728365233667 0 0.84999999999999987 0.69999999999999996 0 0.85491058998424563 0.76004753345552634 0 0.81864958914779962 0.73589050177899629 0 0.84999999999960507 0 0 0.85491058998398861 0.060047533455626502 0 0.81864958914740749 0.035890501779055867 0 0.18381867841758909 0.57774125163628387 0 0.19914261668318661 0.62286739485272158 0 0.15720202157091859 0.60665697304410315 0 0.22549374774072969 0.58452645269293457 0 0.19914261668318661 0.62286739485272158 0 0.18381867841758909 0.57774125163628387 0 0.79680861578988083 0.92656778056766709 0 0.85170973911348691 0.93569607295217616 0 0.81486180804382891 0.96321394949790495 0 0.79680861578956375 0.22656778056752541 0 0.8517097391133297 0.2356960729520409 0 0.81486180804364938 0.26321394949780091 0 0.20050006573841939 0.53248514016039872 0 0.23975172658309729 0.49475499200540818 0 0.25115337790845271 0.54719303014923271 0 0.28307294598219601 0.50789252727458634 0 0.25115337790845271 0.54719303014923271 0 0.23975172658309729 0.49475499200540818 0 0.20050006573841939 0.53248514016039872 0 0.18381867841758909 0.57774125163628387 0 0.14934928745814749 0.55042914607228977 0 0.19922788606653311 0.085920220746880993 0 0.22985637510995899 0.1298347970200906 0 0.18652628422869419 0.14162325200928061 0 0.33758650185219202 0.23837101504325639 0 0.38831533174504851 0.2189834941785925 0 0.3786248352540974 0.27082301512024259 0 0.42377727103934271 0.25099357235810238 0 0.3786248352540974 0.27082301512024259 0 0.38831533174504851 0.2189834941785925 0 0.19922788606653311 0.085920220746880993 0 0.18652628422869419 0.14162325200928061 0 0.16141998738593399 0.10404039647458049 0 0.54782696902220018 0.79245182748204157 0 0.55363780716230748 0.74348740161571747 0 0.59636844454254345 0.75937156204589151 0 0.82709327591091286 0.84937141670920724 0 0.88088768115933802 0.84674609810493673 0 0.85600844944837662 0.88483418979512773 0 0.82709327591102189 0.14937141670914489 0 0.88088768115941807 0.14674609810479519 0 0.85600844944842547 0.1848341897950983 0 0.27866744612395528 0.38416094670951489 0 0.22033343844674469 0.36963382230740238 0 0.25966125648670141 0.34351016742083729 0 0 0.50000000000205869 0 0.033550201249889847 0.46247875832467239 0 0.068743045408989428 0.48853989837882689 0 0.31378396441836959 0.70157213313026345 0 0.36622285152418499 0.69092437780804039 0 0.35415581127540569 0.73730480045900215 0 0.77293540622714185 0.59448302402785813 0 0.71809016091162536 0.58185040402320831 0 0.77151014687832564 0.54436834383023036 0 0.7152569930854884 0.5237994455134295 0 0.69385896817107129 0.48377516041410151 0 0.73947346780852752 0.49062440112282169 0 0.15801167086041079 0.46008690540259539 0 0.191953871957803 0.42546416763755879 0 0.19604738184454831 0.47787523520405789 0 0.57667858002728545 0.078486105337742612 0 0.61940220174112337 0.047251958781050582 0 0.61956000905586006 0.1043312481793135 0 0.65408113592120842 0.073941773121567966 0 0.61956000905586006 0.1043312481793135 0 0.61940220174112337 0.047251958781050582 0 0 0.55000000000173355 0 0 0.50000000000205869 0 0.044576108720083309 0.53509043209532614 0 0.65507451745379841 0.92229208810758578 0 0.62065498684670595 0.95224934003983619 0 0.61885627562261258 0.90282959257498208 0 0.57724883562309992 0.92155686857100794 0 0.61885627562261258 0.90282959257498208 0 0.62065498684670595 0.95224934003983619 0 0.91750694127107502 0.36982372220068471 0 0.86844634540301924 0.38530937474099819 0 0.87430060258887643 0.34056085888204451 0 0.91750694127105259 0.63017627779935648 0 0.87712158428786946 0.65709029563313581 0 0.87159648282691515 0.61285406320581504 0 0.33123028043633618 0.77629643437932982 0 0.29904318922293632 0.74132814928635593 0 0.35415581127540569 0.73730480045900215 0 0.86411095495256451 0.42388805655111889 0 0.84925632466077294 0.45359738909549091 0 0.81973119833356312 0.43505687159469048 0 0.43846182030517877 0.64845797726506715 0 0.47913475093885149 0.66010775372412711 0 0.43323420005758778 0.6913544522562407 0 0.18269480424590959 0.75905448272264375 0 0.19068556247388771 0.71028988922845504 0 0.2248999640082178 0.72584299459689172 0 0.39536230704883951 0.84069429572832477 0 0.38586766253264881 0.78219501014812498 0 0.42609163930740518 0.80361684430568059 0 0.59999999999999976 0.69999999999999996 0 0.63221990677827677 0.73442891067859706 0 0.59636844454254345 0.75937156204589151 0 0.27866744612395528 0.38416094670951489 0 0.24049127783545701 0.41270748208749802 0 0.22033343844674469 0.36963382230740238 0 0.82709327591091286 0.84937141670920724 0 0.84725310900444062 0.80779732082917555 0 0.88088768115933802 0.84674609810493673 0 0.82709327591102189 0.14937141670914489 0 0.84725310900442086 0.10779732082922661 0 0.88088768115941807 0.14674609810479519 0 0.1650278706801647 0.38791388161335733 0 0.18434624290945251 0.35208838264196463 0 0.22033343844674469 0.36963382230740238 0 0.4409427642593301 0.35743108089689513 0 0.49077833859261139 0.35229981449445641 0 0.46655310992796922 0.39650496622958609 0 0.80185942888539485 0.77452061303608133 0 0.81864958914779962 0.73589050177899629 0 0.85491058998424563 0.76004753345552634 0 0.80185942888501827 0.074520613036224564 0 0.81864958914740749 0.035890501779055867 0 0.85491058998398861 0.060047533455626502 0 0.29999999999926641 0 0 0.34999999999912063 0 0 0.32541448401678508 0.046215317981507749 0 0.35000000000145642 1 0 0.30000000000124832 1 0 0.32544832635163229 0.95485394099568932 0 0.4656888918609538 0.78493261229743638 0 0.50731287292894423 0.78963574450233831 0 0.50627822638148745 0.8263979829520941 0 0.2185883431182947 0.18019736283949719 0 0.25557216766470708 0.15874861286892261 0 0.26429849586623999 0.19346700179430079 0 1 0.29999999999999999 0 1 0.34999999999993492 0 0.95780851984364423 0.34215720972155339 0 1 0.29999999999999999 0 0.95780851984364423 0.34215720972155339 0 0.94999999999999996 0.29999999999999999 0 1 0.69999999999999996 0 0.94999999999999996 0.69999999999999996 0 0.9578014258160763 0.65787212321113708 0 1 0.69999999999999996 0 0.9578014258160763 0.65787212321113708 0 1 0.64999999999986979 0 0.91750694127107502 0.36982372220068471 0 0.90594285160987287 0.4141265964174129 0 0.86844634540301924 0.38530937474099819 0 0.91750694127105259 0.63017627779935648 0 0.87159648282691515 0.61285406320581504 0 0.91143117093204207 0.58709913730335972 0 0.74999999999999989 0.69999999999999996 0 0.7750489929959945 0.66593931409600093 0 0.79999999999999982 0.69999999999999996 0 0.74999999999999989 0.29999999999999999 0 0.79999999999999982 0.29999999999999999 0 0.78145581580700685 0.34881365920033602 0 0.54999999999999993 0.69999999999999996 0 0.57484956128872922 0.66573805030881994 0 0.59999999999999976 0.69999999999999996 0 0.90299850604011456 0.79563452813489832 0 0.94399509803918602 0.75600490196082126 0 0.95386563387742829 0.80414874155775029 0 0.90416666666660628 0.9041666666666166 0 0.95391631417670719 0.89584263333814784 0 0.94399509803919068 0.9439950980391687 0 0.90299850604006393 0.09563452813493091 0 0.94399509803922566 0.056004901960802607 0 0.95386563387744361 0.1041487415577465 0 0.90416666666668166 0.20416666666667119 0 0.95391631417672862 0.19584263333809451 0 0.94399509803921056 0.24399509803922639 0 0.22278230690790279 0.44824268025881547 0 0.19604738184454831 0.47787523520405789 0 0.191953871957803 0.42546416763755879 0 0.90299850604011456 0.79563452813489832 0 0.89999166460796554 0.74528934923809909 0 0.94399509803918602 0.75600490196082126 0 0.90299850604006393 0.09563452813493091 0 0.899991664607802 0.045289349238254978 0 0.94399509803922566 0.056004901960802607 0 0.49102375406324739 0.49123754822244059 0 0.47793794143994173 0.52940715638744962 0 0.43507373378304309 0.49699695397193322 0 0.90416666666660628 0.9041666666666166 0 0.94399509803919068 0.9439950980391687 0 0.89898474358632463 0.95391965591118966 0 0.90416666666668166 0.20416666666667119 0 0.94399509803921056 0.24399509803922639 0 0.89898474358614167 0.25391965591104898 0 0.65394964615507722 0.22666784374016369 0 0.62657463266645097 0.26524202571255862 0 0.59814117807200873 0.23398510860739519 0 0.6084546825910605 0.37989672713932537 0 0.63912439215427275 0.41063340167983359 0 0.57744073070774993 0.41535148636609359 0 0.61209567303293111 0.44669033081290321 0 0.57744073070774993 0.41535148636609359 0 0.63912439215427275 0.41063340167983359 0 0.25676291524611189 0.7436741304886243 0 0.22556077506376701 0.77837424984191617 0 0.2248999640082178 0.72584299459689172 0 0.61343887413683884 0.856862479058357 0 0.60294066490120068 0.80851322453934582 0 0.65005442820240822 0.82644988530054031 0 0.64999999999907843 0 0 0.66369801598854572 0.036327466368102787 0 0.61940220174112337 0.047251958781050582 0 0.40326160981139969 0.73346192995102844 0 0.38586766253264881 0.78219501014812498 0 0.35415581127540569 0.73730480045900215 0 0.33123028043633618 0.77629643437932982 0 0.35415581127540569 0.73730480045900215 0 0.38586766253264881 0.78219501014812498 0 0.26573297623774761 0.59828298563722948 0 0.29110487519241501 0.56588143995431495 0 0.31502927232353312 0.6134992213375432 0 0.77846603114747959 0.49850927265137401 0 0.81441713509985358 0.51161854125224959 0 0.77151014687832564 0.54436834383023036 0 0.82862096804812391 0.55037090955459045 0 0.77151014687832564 0.54436834383023036 0 0.81441713509985358 0.51161854125224959 0 0.50000000000205869 1 0 0.45000000000187229 1 0 0.47135117303824892 0.95556877749289892 0 0.44999999999882923 0 0 0.49999999999869432 0 0 0.47040171442036788 0.044141676406503738 0 0 0.7000000000006934 0 0 0.65000000000104008 0 0.046634677244967337 0.671418230738282 0 0 0.35000000000145642 0 0 0.30000000000124832 0 0.046389130980076937 0.32668781832131749 0 0.31378396441836959 0.70157213313026345 0 0.27820712747429932 0.65530134213254643 0 0.32263089806001177 0.66003674931826484 0 0.33122374654748771 0.57588941099433744 0 0.31502927232353312 0.6134992213375432 0 0.29110487519241501 0.56588143995431495 0 0.26573297623774761 0.59828298563722948 0 0.27820712747429932 0.65530134213254643 0 0.2459498854893499 0.63248470766216769 0 0.14474682429600511 0.85524784522713515 0 0.16206583317966519 0.89685560785156404 0 0.1241151115713819 0.9045666525468371 0 0.14332333627550789 0.14578431753966009 0 0.12372429750337779 0.095814237875728972 0 0.16141998738593399 0.10404039647458049 0 0.64753070846764316 0.77332939069435502 0 0.59636844454254345 0.75937156204589151 0 0.63221990677827677 0.73442891067859706 0 0.14474682429600511 0.85524784522713515 0 0.1241151115713819 0.9045666525468371 0 0.10562472963403439 0.87143394428979881 0 0.14332333627550789 0.14578431753966009 0 0.1053400320299198 0.12877248826361379 0 0.12372429750337779 0.095814237875728972 0 0.77354604466818633 0.40378688774472771 0 0.81308179852519835 0.39754945808726527 0 0.81973119833356312 0.43505687159469048 0 0.54782696902220018 0.79245182748204157 0 0.50945740445113552 0.75476055527778108 0 0.55363780716230748 0.74348740161571747 0 0.2236846579037573 0.67380363126050236 0 0.2459498854893499 0.63248470766216769 0 0.27820712747429932 0.65530134213254643 0 0.77293540622714185 0.59448302402785813 0 0.74994237037456724 0.62775548192980357 0 0.71809016091162536 0.58185040402320831 0 0 0.79999999999999982 0 0 0.75000000000034661 0 0.04408157711937423 0.7728941757575627 0 0 0.25000000000104028 0 0 0.20000000000083221 0 0.044081577119474857 0.2271058242433576 0 0.19999999999955789 0 0 0.24999999999941211 0 0 0.22668068146512929 0.045875643423131329 0 0.25000000000104028 1 0 0.20000000000083221 1 0 0.22850979588452081 0.95594428570238643 0 0.47357141910802508 0.1873585799078378 0 0.44288491854585582 0.14116182884956319 0 0.48466639505193998 0.1421439844745814 0 0.59999999999999976 0.29999999999999999 0 0.5794309697024993 0.27124795968204829 0 0.62657463266645097 0.26524202571255862 0 0.43249999999999988 0.43937499999999979 0 0.42161023666869668 0.39493916313643851 0 0.46655310992796922 0.39650496622958609 0 0.31068898841644388 0.47541502461811092 0 0.33190227185843768 0.52715113583864037 0 0.28307294598219601 0.50789252727458634 0 0.35024835142131061 0.48654922671676981 0 0.33190227185843768 0.52715113583864037 0 0.31068898841644388 0.47541502461811092 0 0.35864735590330371 0.63903383440414463 0 0.36622285152418499 0.69092437780804039 0 0.32263089806001177 0.66003674931826484 0 0.31378396441836959 0.70157213313026345 0 0.32263089806001177 0.66003674931826484 0 0.36622285152418499 0.69092437780804039 0 0.86956835336234861 0.571283299838105 0 0.90900154012161016 0.53607784105648792 0 0.91143117093204207 0.58709913730335972 0 0.6499999999999998 0.29999999999999999 0 0.65481233915350323 0.35652751921065562 0 0.61959173890754571 0.33832250091341232 0 0.4409427642593301 0.35743108089689513 0 0.46226845272279993 0.31901800744800313 0 0.49077833859261139 0.35229981449445641 0 0.5 0.29999999999999999 0 0.49077833859261139 0.35229981449445641 0 0.46226845272279993 0.31901800744800313 0 0.14999999999970359 0 0 0.19999999999955789 0 0 0.184418230509967 0.038773194583122873 0 0.20000000000083221 1 0 0.15000000000062411 1 0 0.18474005699953849 0.96231585248064622 0 1 0.49999999999950101 0 1 0.54999999999963112 0 0.95631871884947484 0.51827533208233789 0 0.38586766253264881 0.78219501014812498 0 0.42676259796334498 0.76772545931379299 0 0.42609163930740518 0.80361684430568059 0 0.20050006573841939 0.53248514016039872 0 0.22549374774072969 0.58452645269293457 0 0.18381867841758909 0.57774125163628387 0 0.065374659239661639 0.8551091961254178 0 0.1074251789111534 0.83564394292147814 0 0.10562472963403439 0.87143394428979881 0 0.065374659239632718 0.1448908038746782 0 0.1053400320299198 0.12877248826361379 0 0.106902708054812 0.16453234188234539 0 0.1650278706801647 0.38791388161335733 0 0.14223753364722069 0.3341983344262433 0 0.18434624290945251 0.35208838264196463 0 0.43249999999999988 0.43937499999999979 0 0.46111841286828259 0.46690301029591341 0 0.43507373378304309 0.49699695397193322 0 0.83758014339878906 0.63222013025741819 0 0.81723410853263523 0.59419663659258926 0 0.87159648282691515 0.61285406320581504 0 0.19670163708476801 0.31472518408333222 0 0.18434624290945251 0.35208838264196463 0 0.14223753364722069 0.3341983344262433 0 0.75000000000034661 1 0 0.7250000000005199 0.94981617647078953 0 0.770759834363826 0.95919399014344442 0 0.74999999999999989 0.29999999999999999 0 0.72500000000000064 0.2498161764706 0 0.77075983436335049 0.25919399014334171 0 0.69999999999999984 0.29999999999999999 0 0.67933712972090698 0.25920070958121938 0 0.72500000000000064 0.2498161764706 0 0.57611405284611883 0.50165903596042916 0 0.53330375813596242 0.50827942741749099 0 0.53823865529665704 0.45873898050322898 0 0.6499999999999998 0.29999999999999999 0 0.68887083591306764 0.33632058575757479 0 0.65481233915350323 0.35652751921065562 0 0.27866744612395528 0.38416094670951489 0 0.33277555741076909 0.36432196682010132 0 0.31778888742534622 0.40581751814196781 0 0.49102375406324739 0.49123754822244059 0 0.43507373378304309 0.49699695397193322 0 0.46111841286828259 0.46690301029591341 0 0.94999999999999996 0.69999999999999996 0 0.97166519676947294 0.73337114490064459 0 0.94399509803918602 0.75600490196082126 0 0.94999999999986839 0 0 0.97166519676946894 0.033371144900598393 0 0.94399509803922566 0.056004901960802607 0 0.94999999999999996 0.29999999999999999 0 0.94399509803921056 0.24399509803922639 0 0.97166519676951801 0.26662885509932011 0 0.94999999999979179 1 0 0.94399509803919068 0.9439950980391687 0 0.97166519676946206 0.96662885509935492 0 0.34258405725730701 0.4444034294386992 0 0.29124338931648802 0.43334555462578611 0 0.31778888742534622 0.40581751814196781 0 0.27866744612395528 0.38416094670951489 0 0.31778888742534622 0.40581751814196781 0 0.29124338931648802 0.43334555462578611 0 0.36575549820117997 0.31677992835137742 0 0.33277555741076909 0.36432196682010132 0 0.32752639306529541 0.32610012995269699 0 0.35752321586431363 0.9185439911803448 0 0.32544832635163229 0.95485394099568932 0 0.30864387279288652 0.89906554525974958 0 0.27609987656793722 0.94991445621608572 0 0.30864387279288652 0.89906554525974958 0 0.32544832635163229 0.95485394099568932 0 0.33123028043633618 0.77629643437932982 0 0.30857225866488791 0.81101973481716805 0 0.2792923945214143 0.77665808831789485 0 0.33758650185219202 0.23837101504325639 0 0.29132859388405002 0.27203693976649962 0 0.28040350263641872 0.23054717217092141 0 0.4409427642593301 0.35743108089689513 0 0.41914690343363781 0.30688979866601612 0 0.46226845272279993 0.31901800744800313 0 0.14332333627550789 0.14578431753966009 0 0.13737030665753211 0.20313708640667491 0 0.106902708054812 0.16453234188234539 0 0.083105206071467416 0.20007701332709979 0 0.106902708054812 0.16453234188234539 0 0.13737030665753211 0.20313708640667491 0 0.083105206071452636 0.79992298667296435 0 0.1382744753146134 0.79650574229207483 0 0.1074251789111534 0.83564394292147814 0 0.14474682429600511 0.85524784522713515 0 0.1074251789111534 0.83564394292147814 0 0.1382744753146134 0.79650574229207483 0 0.65408113592120842 0.073941773121567966 0 0.7010294155333181 0.056779085686491267 0 0.68330259535470161 0.10038702501083881 0 0.72525833953073282 0.1032114801687094 0 0.68330259535470161 0.10038702501083881 0 0.7010294155333181 0.056779085686491267 0 0.049706944316475897 0.72477277076253799 0 0.046634677244967337 0.671418230738282 0 0.1020579365089687 0.69352219419301997 0 0.086179601630648681 0.64647209519980475 0 0.1020579365089687 0.69352219419301997 0 0.046634677244967337 0.671418230738282 0 0.087545339447545459 0.35122518864182262 0 0.046389130980076937 0.32668781832131749 0 0.093851963071650835 0.30582068233324772 0 0.049706944316556423 0.27522722923869108 0 0.093851963071650835 0.30582068233324772 0 0.046389130980076937 0.32668781832131749 0 0.82709327591091286 0.84937141670920724 0 0.80041942726660109 0.81543261647703358 0 0.84725310900444062 0.80779732082917555 0 0.82709327591102189 0.14937141670914489 0 0.80076557130237269 0.1154587552654202 0 0.84725310900442086 0.10779732082922661 0 0.17933913398461551 0.2350063570234002 0 0.14377654328998779 0.2442024734791064 0 0.13737030665753211 0.20313708640667491 0 0.18269480424590959 0.75905448272264375 0 0.1382744753146134 0.79650574229207483 0 0.14335651144331049 0.75565258250209677 0 0.33758650185219202 0.23837101504325639 0 0.3786248352540974 0.27082301512024259 0 0.33402499257867951 0.28911035184473982 0 0.14332333627550789 0.14578431753966009 0 0.18124454140915969 0.18790916706335251 0 0.13737030665753211 0.20313708640667491 0 0.14474682429600511 0.85524784522713515 0 0.1382744753146134 0.79650574229207483 0 0.17777405986036951 0.81832336108265358 0 0.5 0.29999999999999999 0 0.52752007115234678 0.33170632466418198 0 0.49077833859261139 0.35229981449445641 0 0.27866744612395528 0.38416094670951489 0 0.29644548887253103 0.34914008784168082 0 0.33277555741076909 0.36432196682010132 0 0 0.84999999999965292 0 0 0.79999999999999982 0 0.038512288486097702 0.8155852717111195 0 0 0.20000000000083221 0 0 0.15000000000062411 0 0.038512288486115001 0.1844147282893184 0 0.40326160981139969 0.73346192995102844 0 0.35415581127540569 0.73730480045900215 0 0.36622285152418499 0.69092437780804039 0 0.91696753777131557 0.497780560203536 0 0.96228564064454991 0.48206450662049471 0 0.95631871884947484 0.51827533208233789 0 0.33758650185219202 0.23837101504325639 0 0.31255190597181792 0.19850845631528771 0 0.3572130504031617 0.1874703368446563 0 0.59814117807200873 0.23398510860739519 0 0.62657463266645097 0.26524202571255862 0 0.5794309697024993 0.27124795968204829 0 0.34258405725730701 0.4444034294386992 0 0.31068898841644388 0.47541502461811092 0 0.29124338931648802 0.43334555462578611 0 0.38083244760691543 0.38531983672244652 0 0.35221190152536241 0.40457127605439203 0 0.33277555741076909 0.36432196682010132 0 0.083411279318375747 0.91030024466934134 0 0.10266856499240549 0.95548163909968886 0 0.053064897599294662 0.95186845269532028 0 0.083411279318303222 0.089699755330707398 0 0.053064897599215843 0.048131547304697528 0 0.10266856499169109 0.044518360900210059 0 0.42377727103934271 0.25099357235810238 0 0.4604742573284204 0.27846934318264788 0 0.41914690343363781 0.30688979866601612 0 0.28307294598219601 0.50789252727458634 0 0.25982634974572738 0.46097799597715272 0 0.31068898841644388 0.47541502461811092 0 0.29348325746214782 0.31350119524708198 0 0.29132859388405002 0.27203693976649962 0 0.33402499257867951 0.28911035184473982 0 0.35312867752657662 0.084946736076730367 0 0.39823268594401579 0.1116623613130045 0 0.36246644853392812 0.1399454205365751 0 0.7000000000006934 1 0 0.68015064798562208 0.95924320340003011 0 0.7250000000005199 0.94981617647078953 0 0.42377727103934271 0.25099357235810238 0 0.38831533174504851 0.2189834941785925 0 0.42905200079338551 0.19982395548231649 0 0.53823865529665704 0.45873898050322898 0 0.57744073070774993 0.41535148636609359 0 0.57975577671020095 0.46172033326338591 0 0.33758650185219202 0.23837101504325639 0 0.3572130504031617 0.1874703368446563 0 0.38831533174504851 0.2189834941785925 0 0.29124338931648802 0.43334555462578611 0 0.31068898841644388 0.47541502461811092 0 0.25982634974572738 0.46097799597715272 0 0.6084546825910605 0.37989672713932537 0 0.61959173890754571 0.33832250091341232 0 0.65481233915350323 0.35652751921065562 0 0.40326160981139969 0.73346192995102844 0 0.43323420005758778 0.6913544522562407 0 0.45582236402875981 0.73896743678908217 0 0.33758650185219202 0.23837101504325639 0 0.28040350263641872 0.23054717217092141 0 0.31255190597181792 0.19850845631528771 0 0.79999999999999982 1 0 0.75000000000034661 1 0 0.770759834363826 0.95919399014344442 0 0.74999999999999989 0.29999999999999999 0 0.77075983436335049 0.25919399014334171 0 0.79999999999999982 0.29999999999999999 0 0.6499999999999998 0.29999999999999999 0 0.67933712972090698 0.25920070958121938 0 0.69999999999999984 0.29999999999999999 0 0.39536230704883951 0.84069429572832477 0 0.39767323751400468 0.89584229130535065 0 0.35864759629805099 0.87963482415279515 0 0.54999999999999993 0.69999999999999996 0 0.52584555706968406 0.66664215091846768 0 0.57484956128872922 0.66573805030881994 0 0.35312867752657662 0.084946736076730367 0 0.32541448401678508 0.046215317981507749 0 0.3615861437013822 0.03582617922508851 0 0.35752321586431363 0.9185439911803448 0 0.36184234618600131 0.96443954459096326 0 0.32544832635163229 0.95485394099568932 0 0.35312867752657662 0.084946736076730367 0 0.3615861437013822 0.03582617922508851 0 0.39591832466117061 0.056982757562006353 0 0.35752321586431363 0.9185439911803448 0 0.39641108128798319 0.94356127926187128 0 0.36184234618600131 0.96443954459096326 0 0.083411279318303222 0.089699755330707398 0 0.044310582753132287 0.101412518374475 0 0.053064897599215843 0.048131547304697528 0 0.083411279318375747 0.91030024466934134 0 0.053064897599294662 0.95186845269532028 0 0.0443105827531413 0.89858748162559932 0 0.38083244760691543 0.38531983672244652 0 0.40076539126862748 0.34589349467022118 0 0.42161023666869668 0.39493916313643851 0 0.4409427642593301 0.35743108089689513 0 0.42161023666869668 0.39493916313643851 0 0.40076539126862748 0.34589349467022118 0 0.79999999999999982 0.29999999999999999 0 0.82500000000000062 0.33010209762754811 0 0.78145581580700685 0.34881365920033602 0 0.79999999999999982 0.69999999999999996 0 0.7750489929959945 0.66593931409600093 0 0.82457059160610424 0.66831947184359608 0 0.59999999999999976 0.69999999999999996 0 0.57484956128872922 0.66573805030881994 0 0.62460753523532009 0.66851202781000296 0 0.74999999999999989 0.69999999999999996 0 0.72500000000000064 0.67022701834392062 0 0.7750489929959945 0.66593931409600093 0 0.74999999999999989 0.29999999999999999 0 0.78145581580700685 0.34881365920033602 0 0.73090396928863699 0.33699297293167962 0 0.33758650185219202 0.23837101504325639 0 0.33402499257867951 0.28911035184473982 0 0.29132859388405002 0.27203693976649962 0 0.36575549820117997 0.31677992835137742 0 0.41914690343363781 0.30688979866601612 0 0.40076539126862748 0.34589349467022118 0 0.4409427642593301 0.35743108089689513 0 0.40076539126862748 0.34589349467022118 0 0.41914690343363781 0.30688979866601612 0 0.34258405725730701 0.4444034294386992 0 0.38707855792647411 0.42299362914874578 0 0.3908716102680424 0.47010282357248828 0 0.7000000000006934 1 0 0.65000000000104008 1 0 0.68015064798562208 0.95924320340003011 0 0.49102375406324739 0.49123754822244059 0 0.46111841286828259 0.46690301029591341 0 0.48858720058566618 0.43964267759203868 0 0.4656888918609538 0.78493261229743638 0 0.42676259796334498 0.76772545931379299 0 0.45582236402875981 0.73896743678908217 0 0.40326160981139969 0.73346192995102844 0 0.45582236402875981 0.73896743678908217 0 0.42676259796334498 0.76772545931379299 0 0.59999999999999976 0.29999999999999999 0 0.62657463266645097 0.26524202571255862 0 0.6499999999999998 0.29999999999999999 0 0.40000000000166441 1 0 0.36184234618600131 0.96443954459096326 0 0.39641108128798319 0.94356127926187128 0 0.3999999999989749 0 0 0.39591832466117061 0.056982757562006353 0 0.3615861437013822 0.03582617922508851 0 0.43249999999999988 0.43937499999999979 0 0.48858720058566618 0.43964267759203868 0 0.46111841286828259 0.46690301029591341 0 0.7250000000005199 0.89375000000045834 0 0.7250000000005199 0.94981617647078953 0 0.68987011941058407 0.92105047536677087 0 0.7250000000005199 0.89375000000045834 0 0.75729602384198635 0.92353652857884294 0 0.7250000000005199 0.94981617647078953 0 0.72500000000001008 0.19776155966387679 0 0.75668890529066124 0.2244279804069782 0 0.72500000000000064 0.2498161764706 0 0.72500000000001008 0.19776155966387679 0 0.72500000000000064 0.2498161764706 0 0.69397719155551807 0.2245125647000914 0 0.79999999999999982 0.29999999999999999 0 0.81486180804364938 0.26321394949780091 0 0.84999999999999987 0.29999999999999999 0 0.84999999999965292 1 0 0.79999999999999982 1 0 0.81486180804382891 0.96321394949790495 0 0.1247745017231483 0.27198077544791172 0 0.095326043202144745 0.24554465089224409 0 0.14377654328998779 0.2442024734791064 0 0.1215415378367805 0.72939333680004137 0 0.14335651144331049 0.75565258250209677 0 0.090953281884486245 0.7564451946902494 0 0.72500000000001008 0.19776155966387679 0 0.72634814642510737 0.16106886917518889 0 0.76587607630038135 0.18880039518954719 0 0.72500000000001008 0.19776155966387679 0 0.6865991819015953 0.189116534044597 0 0.72634814642510737 0.16106886917518889 0 0.77144070960558853 0.14311854477243749 0 0.76587607630038135 0.18880039518954719 0 0.72634814642510737 0.16106886917518889 0 0.68391457121233579 0.14440470121196541 0 0.72634814642510737 0.16106886917518889 0 0.6865991819015953 0.189116534044597 0 0.7250000000005199 0.89375000000045834 0 0.72863726579783861 0.85390518901155588 0 0.76891166905518427 0.88835469571185499 0 0.76901770135486491 0.84293557325473656 0 0.76891166905518427 0.88835469571185499 0 0.72863726579783861 0.85390518901155588 0 0 0.20000000000083221 0 0.038512288486115001 0.1844147282893184 0 0.044081577119474857 0.2271058242433576 0 0 0.79999999999999982 0 0.04408157711937423 0.7728941757575627 0 0.038512288486097702 0.8155852717111195 0 0.52375890611712683 0.059318771819432882 0 0.47881186583059909 0.093591717165689425 0 0.47040171442036788 0.044141676406503738 0 0.52122150208832174 0.94089974453840242 0 0.47135117303824892 0.95556877749289892 0 0.47401147028110507 0.91529957330468115 0 0.27474541102162192 0.11822029332053539 0 0.3096713403101819 0.085471541595262421 0 0.32215584939770009 0.1218492143506909 0 0.22278230690790279 0.44824268025881547 0 0.24049127783545701 0.41270748208749802 0 0.25982634974572738 0.46097799597715272 0 0.93732437411268477 0.55911392101136159 0 0.91143117093204207 0.58709913730335972 0 0.90900154012161016 0.53607784105648792 0 0.19901705110390991 0.9175543425573498 0 0.24536017905392571 0.90704567837671446 0 0.22850979588452081 0.95594428570238643 0 0.27609987656793722 0.94991445621608572 0 0.22850979588452081 0.95594428570238643 0 0.24536017905392571 0.90704567837671446 0 0.15720202157091859 0.60665697304410315 0 0.1241190223511371 0.64391885572885044 0 0.1024350934457823 0.60772393977513839 0 0.6499999999999998 0.69999999999999996 0 0.675261390228442 0.65996937624687813 0 0.69999999999999984 0.69999999999999996 0 0.3999999999989749 0 0 0.4320097814748517 0.037406712692169303 0 0.39591832466117061 0.056982757562006353 0 0.40000000000166441 1 0 0.39641108128798319 0.94356127926187128 0 0.4308986359464303 0.96395712492906194 0 0.54999999999999993 0.29999999999999999 0 0.56836770495988642 0.3523062350852913 0 0.52752007115234678 0.33170632466418198 0 0.14474682429600511 0.85524784522713515 0 0.17777405986036951 0.81832336108265358 0 0.19741632902693801 0.86755867406447229 0 0.21858834311891909 0.81980263716112767 0 0.19741632902693801 0.86755867406447229 0 0.17777405986036951 0.81832336108265358 0 0.54782696902220018 0.79245182748204157 0 0.50731287292894423 0.78963574450233831 0 0.50945740445113552 0.75476055527778108 0 0.20000000000083221 1 0 0.18474005699953849 0.96231585248064622 0 0.22850979588452081 0.95594428570238643 0 0.19999999999955789 0 0 0.22668068146512929 0.045875643423131329 0 0.184418230509967 0.038773194583122873 0 0.77846603114747959 0.49850927265137401 0 0.73947346780852752 0.49062440112282169 0 0.77972660463949339 0.45529290596363098 0 0.73483647259922602 0.44789725365921768 0 0.77972660463949339 0.45529290596363098 0 0.73947346780852752 0.49062440112282169 0 0.34258405725730701 0.4444034294386992 0 0.35024835142131061 0.48654922671676981 0 0.31068898841644388 0.47541502461811092 0 0.33123028043633618 0.77629643437932982 0 0.2792923945214143 0.77665808831789485 0 0.29904318922293632 0.74132814928635593 0 0.26573297623774761 0.59828298563722948 0 0.25115337790845271 0.54719303014923271 0 0.29110487519241501 0.56588143995431495 0 0.4656888918609538 0.78493261229743638 0 0.50945740445113552 0.75476055527778108 0 0.50731287292894423 0.78963574450233831 0 0.35312867752657662 0.084946736076730367 0 0.36246644853392812 0.1399454205365751 0 0.32215584939770009 0.1218492143506909 0 0.29348325746214782 0.31350119524708198 0 0.25966125648670141 0.34351016742083729 0 0.24432083401701241 0.3006253385567515 0 0.59999999999999976 0.69999999999999996 0 0.6499999999999998 0.69999999999999996 0 0.63221990677827677 0.73442891067859706 0 0.69999999999921003 0 0 0.7010294155333181 0.056779085686491267 0 0.66369801598854572 0.036327466368102787 0 0.40000000000166441 1 0 0.35000000000145642 1 0 0.36184234618600131 0.96443954459096326 0 0.34999999999912063 0 0 0.3999999999989749 0 0 0.3615861437013822 0.03582617922508851 0 0.43507373378304309 0.49699695397193322 0 0.47793794143994173 0.52940715638744962 0 0.42644501560315817 0.54603747078095544 0 0.14474682429600511 0.85524784522713515 0 0.19741632902693801 0.86755867406447229 0 0.16206583317966519 0.89685560785156404 0 0.19901705110390991 0.9175543425573498 0 0.16206583317966519 0.89685560785156404 0 0.19741632902693801 0.86755867406447229 0 0.35864735590330371 0.63903383440414463 0 0.3977710372045391 0.65868194622830212 0 0.36622285152418499 0.69092437780804039 0 0.7527966693318906 0.053051678021508272 0 0.7010294155333181 0.056779085686491267 0 0.72683645290270404 0.027797073151180601 0 0.71508799138962864 0.36622814920737751 0 0.72622533758026719 0.40265885511101601 0 0.68128176404677243 0.38629093627004979 0 0.79999999999999982 0.69999999999999996 0 0.84999999999999987 0.69999999999999996 0 0.81864958914779962 0.73589050177899629 0 0.79999999999947335 0 0 0.84999999999960507 0 0 0.81864958914740749 0.035890501779055867 0 0.39536230704883951 0.84069429572832477 0 0.35642984951668422 0.80994399665655703 0 0.38586766253264881 0.78219501014812498 0 0.42377727103934271 0.25099357235810238 0 0.46429753744194407 0.22870891180733599 0 0.4604742573284204 0.27846934318264788 0 0.39801143831225599 0.16651381068160659 0 0.42905200079338551 0.19982395548231649 0 0.38831533174504851 0.2189834941785925 0 0.79999999999999982 1 0 0.770759834363826 0.95919399014344442 0 0.81486180804382891 0.96321394949790495 0 0.79999999999999982 0.29999999999999999 0 0.77075983436335049 0.25919399014334171 0 0.81486180804364938 0.26321394949780091 0 0.25195515620380449 0.25883339815888678 0 0.21049769590865089 0.26857363548218488 0 0.224700362040408 0.22206622194729711 0 0.40326160981139969 0.73346192995102844 0 0.42676259796334498 0.76772545931379299 0 0.38586766253264881 0.78219501014812498 0 0.35312867752657662 0.084946736076730367 0 0.3096713403101819 0.085471541595262421 0 0.32541448401678508 0.046215317981507749 0 0.59999999999999976 0.29999999999999999 0 0.6499999999999998 0.29999999999999999 0 0.61959173890754571 0.33832250091341232 0 0.2185883431182947 0.18019736283949719 0 0.18652628422869419 0.14162325200928061 0 0.22985637510995899 0.1298347970200906 0 0.64999999999907843 0 0 0.69999999999921003 0 0 0.66369801598854572 0.036327466368102787 0 0.27499999999933927 0.060310814194988557 0 0.24218496799700481 0.089025544070598317 0 0.22668068146512929 0.045875643423131329 0 0.19922788606653311 0.085920220746880993 0 0.22668068146512929 0.045875643423131329 0 0.24218496799700481 0.089025544070598317 0 0.65507451745379841 0.92229208810758578 0 0.66412543161245952 0.88015090885499059 0 0.68987011941058407 0.92105047536677087 0 0.049706944316475897 0.72477277076253799 0 0.090953281884486245 0.7564451946902494 0 0.04408157711937423 0.7728941757575627 0 0.083105206071452636 0.79992298667296435 0 0.04408157711937423 0.7728941757575627 0 0.090953281884486245 0.7564451946902494 0 0.083105206071467416 0.20007701332709979 0 0.095326043202144745 0.24554465089224409 0 0.044081577119474857 0.2271058242433576 0 0.049706944316556423 0.27522722923869108 0 0.044081577119474857 0.2271058242433576 0 0.095326043202144745 0.24554465089224409 0 0.36575549820117997 0.31677992835137742 0 0.33402499257867951 0.28911035184473982 0 0.3786248352540974 0.27082301512024259 0 0.53245488764484505 0.55078124999999989 0 0.53330375813596242 0.50827942741749099 0 0.57435499076887508 0.54267261987897775 0 0.57611405284611883 0.50165903596042916 0 0.57435499076887508 0.54267261987897775 0 0.53330375813596242 0.50827942741749099 0 0.6499999999999998 0.29999999999999999 0 0.69999999999999984 0.29999999999999999 0 0.68887083591306764 0.33632058575757479 0 0.57611405284611883 0.50165903596042916 0 0.53823865529665704 0.45873898050322898 0 0.57975577671020095 0.46172033326338591 0 0.7750489929959945 0.66593931409600093 0 0.72500000000000064 0.67022701834392062 0 0.74994237037456724 0.62775548192980357 0 0.78145581580700685 0.34881365920033602 0 0.74764719760526988 0.3719647154012321 0 0.73090396928863699 0.33699297293167962 0 0.3999999999989749 0 0 0.44999999999882923 0 0 0.4320097814748517 0.037406712692169303 0 0.45000000000187229 1 0 0.40000000000166441 1 0 0.4308986359464303 0.96395712492906194 0 0.57484956128872922 0.66573805030881994 0 0.5991018319127801 0.62925360607495295 0 0.62460753523532009 0.66851202781000296 0 0.7750489929959945 0.66593931409600093 0 0.79884539758237771 0.62875045078114233 0 0.82457059160610424 0.66831947184359608 0 0.39801143831225599 0.16651381068160659 0 0.36246644853392812 0.1399454205365751 0 0.39823268594401579 0.1116623613130045 0 0.078358742472063481 0.43365249433908948 0 0.033550201249889847 0.46247875832467239 0 0.035463093262830522 0.42673416072819947 0 0.25676291524611189 0.7436741304886243 0 0.2792923945214143 0.77665808831789485 0 0.22556077506376701 0.77837424984191617 0 0.2236846579037573 0.67380363126050236 0 0.2248999640082178 0.72584299459689172 0 0.19068556247388771 0.71028988922845504 0 0.50715858906372158 0.63295939104129484 0 0.5166924242153631 0.59825134841919447 0 0.5498280205245758 0.6290146943450976 0 0.14618258501891079 0.062070108745602003 0 0.12372429750337779 0.095814237875728972 0 0.10266856499169109 0.044518360900210059 0 0.083411279318303222 0.089699755330707398 0 0.10266856499169109 0.044518360900210059 0 0.12372429750337779 0.095814237875728972 0 0.083411279318375747 0.91030024466934134 0 0.1241151115713819 0.9045666525468371 0 0.10266856499240549 0.95548163909968886 0 0.14617343800780541 0.93808063414349496 0 0.10266856499240549 0.95548163909968886 0 0.1241151115713819 0.9045666525468371 0 0.5499999999988151 0 0 0.59999999999894682 0 0 0.57396793757665954 0.037011367187645222 0 0.54782696902220018 0.79245182748204157 0 0.50627822638148745 0.8263979829520941 0 0.50731287292894423 0.78963574450233831 0 0.6499999999999998 0.29999999999999999 0 0.62657463266645097 0.26524202571255862 0 0.67933712972090698 0.25920070958121938 0 0.86956835336234861 0.571283299838105 0 0.86907294890112186 0.52008116128001669 0 0.90900154012161016 0.53607784105648792 0 0.17933913398461551 0.2350063570234002 0 0.224700362040408 0.22206622194729711 0 0.21049769590865089 0.26857363548218488 0 0.43249999999999988 0.43937499999999979 0 0.3908716102680424 0.47010282357248828 0 0.38707855792647411 0.42299362914874578 0 0.27474541102162192 0.11822029332053539 0 0.22985637510995899 0.1298347970200906 0 0.24218496799700481 0.089025544070598317 0 0.64753070846764316 0.77332939069435502 0 0.66427993341343905 0.73232764502436276 0 0.6916490518212759 0.75387992374886192 0 0 0.40000000000166441 0 0.050583896093752537 0.38543522283434112 0 0.035463093262830522 0.42673416072819947 0 0.73483647259922602 0.44789725365921768 0 0.73947346780852752 0.49062440112282169 0 0.69385896817107129 0.48377516041410151 0 0.57484956128872922 0.66573805030881994 0 0.52584555706968406 0.66664215091846768 0 0.5498280205245758 0.6290146943450976 0 0.60000000000138687 1 0 0.55000000000173355 1 0 0.57382506491224949 0.9629411906298494 0 0.068743045408989428 0.48853989837882689 0 0.085622222639554768 0.53333248912060549 0 0.044576108720083309 0.53509043209532614 0 0.083105206071467416 0.20007701332709979 0 0.044081577119474857 0.2271058242433576 0 0.038512288486115001 0.1844147282893184 0 0.083105206071452636 0.79992298667296435 0 0.038512288486097702 0.8155852717111195 0 0.04408157711937423 0.7728941757575627 0 0.28307294598219601 0.50789252727458634 0 0.23975172658309729 0.49475499200540818 0 0.25982634974572738 0.46097799597715272 0 0.43698630808430822 0.080423614171545449 0 0.39591832466117061 0.056982757562006353 0 0.4320097814748517 0.037406712692169303 0 0.4367309254023824 0.92065556789053882 0 0.4308986359464303 0.96395712492906194 0 0.39641108128798319 0.94356127926187128 0 0.80185942888539485 0.77452061303608133 0 0.75841349681148107 0.75422312624214749 0 0.78578450296893509 0.73292684821144505 0 0.80185942888501827 0.074520613036224564 0 0.7527966693318906 0.053051678021508272 0 0.78393852574753176 0.032039079577822822 0 0.6499999999999998 0.69999999999999996 0 0.62460753523532009 0.66851202781000296 0 0.675261390228442 0.65996937624687813 0 0.33123028043633618 0.77629643437932982 0 0.38586766253264881 0.78219501014812498 0 0.35642984951668422 0.80994399665655703 0 0.6405463747586706 0.63290524857395714 0 0.675261390228442 0.65996937624687813 0 0.62460753523532009 0.66851202781000296 0 0.22278230690790279 0.44824268025881547 0 0.191953871957803 0.42546416763755879 0 0.24049127783545701 0.41270748208749802 0 0.077693244765132896 0.56932317963405099 0 0.050069554451969707 0.61308520079857043 0 0.034381862692950467 0.57372682250960894 0 0.25195515620380449 0.25883339815888678 0 0.24432083401701241 0.3006253385567515 0 0.21049769590865089 0.26857363548218488 0 0.46666084890304671 0.57634471035397938 0 0.5166924242153631 0.59825134841919447 0 0.47095389620662098 0.61892551373708504 0 0.50715858906372158 0.63295939104129484 0 0.47095389620662098 0.61892551373708504 0 0.5166924242153631 0.59825134841919447 0 0.72525833953073282 0.1032114801687094 0 0.7527966693318906 0.053051678021508272 0 0.76878382444651716 0.097147941686331368 0 0.80185942888501827 0.074520613036224564 0 0.76878382444651716 0.097147941686331368 0 0.7527966693318906 0.053051678021508272 0 0.72500000000000064 0.7952620967744265 0 0.75841349681148107 0.75422312624214749 0 0.77094201086366854 0.79647480515688507 0 0.80185942888539485 0.77452061303608133 0 0.77094201086366854 0.79647480515688507 0 0.75841349681148107 0.75422312624214749 0 0.72500000000000064 0.7952620967744265 0 0.68024162096458085 0.79868546898116533 0 0.6916490518212759 0.75387992374886192 0 0.64753070846764316 0.77332939069435502 0 0.6916490518212759 0.75387992374886192 0 0.68024162096458085 0.79868546898116533 0 0 0.50000000000205869 0 0 0.45000000000187229 0 0.033550201249889847 0.46247875832467239 0 0.69999999999999984 0.69999999999999996 0 0.675261390228442 0.65996937624687813 0 0.72500000000000064 0.67022701834392062 0 0.71406021706547751 0.63292083137662503 0 0.72500000000000064 0.67022701834392062 0 0.675261390228442 0.65996937624687813 0 0.65408113592120842 0.073941773121567966 0 0.61940220174112337 0.047251958781050582 0 0.66369801598854572 0.036327466368102787 0 0.59999999999894682 0 0 0.61940220174112337 0.047251958781050582 0 0.57396793757665954 0.037011367187645222 0 0.60000000000138687 1 0 0.57382506491224949 0.9629411906298494 0 0.62065498684670595 0.95224934003983619 0 0.33122374654748771 0.57588941099433744 0 0.35765792684946668 0.6000687869219653 0 0.31502927232353312 0.6134992213375432 0 0.35864735590330371 0.63903383440414463 0 0.31502927232353312 0.6134992213375432 0 0.35765792684946668 0.6000687869219653 0 0.15801167086041079 0.46008690540259539 0 0.19604738184454831 0.47787523520405789 0 0.16618607197337229 0.50652878253548905 0 0.078358742472063481 0.43365249433908948 0 0.035463093262830522 0.42673416072819947 0 0.050583896093752537 0.38543522283434112 0 0.19901705110390991 0.9175543425573498 0 0.22850979588452081 0.95594428570238643 0 0.18474005699953849 0.96231585248064622 0 0.19922788606653311 0.085920220746880993 0 0.184418230509967 0.038773194583122873 0 0.22668068146512929 0.045875643423131329 0 0.19922788606653311 0.085920220746880993 0 0.24218496799700481 0.089025544070598317 0 0.22985637510995899 0.1298347970200906 0 0.74999999999999989 0.69999999999999996 0 0.78578450296893509 0.73292684821144505 0 0.75841349681148107 0.75422312624214749 0 0.74999999999934175 0 0 0.78393852574753176 0.032039079577822822 0 0.7527966693318906 0.053051678021508272 0 0 0.60000000000138687 0 0.034381862692950467 0.57372682250960894 0 0.050069554451969707 0.61308520079857043 0 0.2236846579037573 0.67380363126050236 0 0.26439878998046262 0.7048065392091396 0 0.2248999640082178 0.72584299459689172 0 0.6236733212988993 0.14864538214901801 0 0.58516465772821369 0.11653801664834119 0 0.61956000905586006 0.1043312481793135 0 0.26104540868854792 0.81401944968719064 0 0.2792923945214143 0.77665808831789485 0 0.30857225866488791 0.81101973481716805 0 0.42377727103934271 0.25099357235810238 0 0.42905200079338551 0.19982395548231649 0 0.46429753744194407 0.22870891180733599 0 0.27820712747429932 0.65530134213254643 0 0.31502927232353312 0.6134992213375432 0 0.32263089806001177 0.66003674931826484 0 0.61343887413683884 0.856862479058357 0 0.61885627562261258 0.90282959257498208 0 0.5832743223239254 0.88483152652961872 0 0.43698630808430822 0.080423614171545449 0 0.47040171442036788 0.044141676406503738 0 0.47881186583059909 0.093591717165689425 0 0.4367309254023824 0.92065556789053882 0 0.47401147028110507 0.91529957330468115 0 0.47135117303824892 0.95556877749289892 0 0.91696753777131557 0.497780560203536 0 0.95631871884947484 0.51827533208233789 0 0.90900154012161016 0.53607784105648792 0 0.93732437411268477 0.55911392101136159 0 0.90900154012161016 0.53607784105648792 0 0.95631871884947484 0.51827533208233789 0 0.27474541102162192 0.11822029332053539 0 0.25557216766470708 0.15874861286892261 0 0.22985637510995899 0.1298347970200906 0 0.2185883431182947 0.18019736283949719 0 0.22985637510995899 0.1298347970200906 0 0.25557216766470708 0.15874861286892261 0 0.29348325746214782 0.31350119524708198 0 0.33402499257867951 0.28911035184473982 0 0.32752639306529541 0.32610012995269699 0 0.27499999999933927 0.060310814194988557 0 0.32541448401678508 0.046215317981507749 0 0.3096713403101819 0.085471541595262421 0 0.27270076654418179 0.87751467830216623 0 0.24536017905392571 0.90704567837671446 0 0.2401283238295133 0.85648409884788523 0 1 0.44999999999963131 0 1 0.49999999999950101 0 0.96228564064454991 0.48206450662049471 0 0.61343887413683884 0.856862479058357 0 0.66412543161245952 0.88015090885499059 0 0.61885627562261258 0.90282959257498208 0 0 0.45000000000187229 0 0 0.40000000000166441 0 0.035463093262830522 0.42673416072819947 0 0.69999999999999984 0.69999999999999996 0 0.6916490518212759 0.75387992374886192 0 0.66427993341343905 0.73232764502436276 0 0.43846182030517877 0.64845797726506715 0 0.43323420005758778 0.6913544522562407 0 0.3977710372045391 0.65868194622830212 0 0.4367309254023824 0.92065556789053882 0 0.44003836461056539 0.88093474584252718 0 0.47401147028110507 0.91529957330468115 0 0.43846182030517877 0.64845797726506715 0 0.39743091024207589 0.6239520004230239 0 0.43545892161006339 0.61093128915313821 0 0.43846182030517877 0.64845797726506715 0 0.3977710372045391 0.65868194622830212 0 0.39743091024207589 0.6239520004230239 0 0.26429849586623999 0.19346700179430079 0 0.29336099386129338 0.15892013001050981 0 0.31255190597181792 0.19850845631528771 0 0.19670163708476801 0.31472518408333222 0 0.21049769590865089 0.26857363548218488 0 0.24432083401701241 0.3006253385567515 0 0.57724883562309992 0.92155686857100794 0 0.62065498684670595 0.95224934003983619 0 0.57382506491224949 0.9629411906298494 0 0.4409427642593301 0.35743108089689513 0 0.46655310992796922 0.39650496622958609 0 0.42161023666869668 0.39493916313643851 0 0.46666084890304671 0.57634471035397938 0 0.47095389620662098 0.61892551373708504 0 0.43545892161006339 0.61093128915313821 0 0.6879972333610942 0.43038561374960838 0 0.65178832218679827 0.45929119821019959 0 0.63912439215427275 0.41063340167983359 0 0.43698630808430822 0.080423614171545449 0 0.4320097814748517 0.037406712692169303 0 0.47040171442036788 0.044141676406503738 0 0.4367309254023824 0.92065556789053882 0 0.47135117303824892 0.95556877749289892 0 0.4308986359464303 0.96395712492906194 0 0.79680861578988083 0.92656778056766709 0 0.81486180804382891 0.96321394949790495 0 0.770759834363826 0.95919399014344442 0 0.79680861578956375 0.22656778056752541 0 0.81486180804364938 0.26321394949780091 0 0.77075983436335049 0.25919399014334171 0 0.71508799138962864 0.36622814920737751 0 0.68128176404677243 0.38629093627004979 0 0.68887083591306764 0.33632058575757479 0 0.35864735590330371 0.63903383440414463 0 0.32263089806001177 0.66003674931826484 0 0.31502927232353312 0.6134992213375432 0 0.21858834311891909 0.81980263716112767 0 0.2401283238295133 0.85648409884788523 0 0.19741632902693801 0.86755867406447229 0 0.35312867752657662 0.084946736076730367 0 0.32215584939770009 0.1218492143506909 0 0.3096713403101819 0.085471541595262421 0 0.35752321586431363 0.9185439911803448 0 0.35864759629805099 0.87963482415279515 0 0.39767323751400468 0.89584229130535065 0 0.41914690343363781 0.30688979866601612 0 0.4604742573284204 0.27846934318264788 0 0.46226845272279993 0.31901800744800313 0 0.33084213324567391 0.16272720141332131 0 0.32215584939770009 0.1218492143506909 0 0.36246644853392812 0.1399454205365751 0 0.46666084890304671 0.57634471035397938 0 0.42644501560315817 0.54603747078095544 0 0.47793794143994173 0.52940715638744962 0 0 0.60000000000138687 0 0 0.55000000000173355 0 0.034381862692950467 0.57372682250960894 0 0.77354604466818633 0.40378688774472771 0 0.74764719760526988 0.3719647154012321 0 0.78145581580700685 0.34881365920033602 0 0.34999999999912063 0 0 0.3615861437013822 0.03582617922508851 0 0.32541448401678508 0.046215317981507749 0 0.35000000000145642 1 0 0.32544832635163229 0.95485394099568932 0 0.36184234618600131 0.96443954459096326 0 0.57667858002728545 0.078486105337742612 0 0.57396793757665954 0.037011367187645222 0 0.61940220174112337 0.047251958781050582 0 0.47357141910802508 0.1873585799078378 0 0.50760557329222289 0.20700468884612061 0 0.46429753744194407 0.22870891180733599 0 0.49695729691142171 0.25014895411178018 0 0.46429753744194407 0.22870891180733599 0 0.50760557329222289 0.20700468884612061 0 0.33084213324567391 0.16272720141332131 0 0.3572130504031617 0.1874703368446563 0 0.31255190597181792 0.19850845631528771 0 0.6879972333610942 0.43038561374960838 0 0.63912439215427275 0.41063340167983359 0 0.68128176404677243 0.38629093627004979 0 0.65408113592120842 0.073941773121567966 0 0.65290632656860115 0.11434202593454081 0 0.61956000905586006 0.1043312481793135 0 0.33084213324567391 0.16272720141332131 0 0.31255190597181792 0.19850845631528771 0 0.29336099386129338 0.15892013001050981 0 0.61209567303293111 0.44669033081290321 0 0.63912439215427275 0.41063340167983359 0 0.65178832218679827 0.45929119821019959 0 0.086179601630648681 0.64647209519980475 0 0.1024350934457823 0.60772393977513839 0 0.1241190223511371 0.64391885572885044 0 0.44999999999882923 0 0 0.47040171442036788 0.044141676406503738 0 0.4320097814748517 0.037406712692169303 0 0.45000000000187229 1 0 0.4308986359464303 0.96395712492906194 0 0.47135117303824892 0.95556877749289892 0 0.74999999999934175 0 0 0.7527966693318906 0.053051678021508272 0 0.72683645290270404 0.027797073151180601 0 0.74999999999999989 0.69999999999999996 0 0.75841349681148107 0.75422312624214749 0 0.72501250972655151 0.74067302935308721 0 0.69999999999999984 0.69999999999999996 0 0.72501250972655151 0.74067302935308721 0 0.6916490518212759 0.75387992374886192 0 0.74999999999934175 0 0 0.79999999999947335 0 0 0.78393852574753176 0.032039079577822822 0 0.74999999999999989 0.69999999999999996 0 0.79999999999999982 0.69999999999999996 0 0.78578450296893509 0.73292684821144505 0 0.6405463747586706 0.63290524857395714 0 0.5991018319127801 0.62925360607495295 0 0.63065402604362242 0.59661356661633302 0 0.65481233915350323 0.35652751921065562 0 0.68887083591306764 0.33632058575757479 0 0.68128176404677243 0.38629093627004979 0 0.89999999999999991 0.29999999999999999 0 0.94999999999999996 0.29999999999999999 0 0.92012390126144183 0.33123581297173937 0 0.89999999999999991 0.69999999999999996 0 0.92057473616084773 0.66770436535372446 0 0.94999999999999996 0.69999999999999996 0 0.4367309254023824 0.92065556789053882 0 0.39767323751400468 0.89584229130535065 0 0.44003836461056539 0.88093474584252718 0 0.2185883431182947 0.18019736283949719 0 0.18124454140915969 0.18790916706335251 0 0.18652628422869419 0.14162325200928061 0 0.20050006573841939 0.53248514016039872 0 0.19604738184454831 0.47787523520405789 0 0.23975172658309729 0.49475499200540818 0 0.65507451745379841 0.92229208810758578 0 0.61885627562261258 0.90282959257498208 0 0.66412543161245952 0.88015090885499059 0 0.65394964615507722 0.22666784374016369 0 0.67933712972090698 0.25920070958121938 0 0.62657463266645097 0.26524202571255862 0 0.077693244765132896 0.56932317963405099 0 0.034381862692950467 0.57372682250960894 0 0.044576108720083309 0.53509043209532614 0 0.39801143831225599 0.16651381068160659 0 0.38831533174504851 0.2189834941785925 0 0.3572130504031617 0.1874703368446563 0 0.6499999999999998 0.69999999999999996 0 0.69999999999999984 0.69999999999999996 0 0.66427993341343905 0.73232764502436276 0 0.1215415378367805 0.72939333680004137 0 0.15332765547575641 0.71200081858233666 0 0.14335651144331049 0.75565258250209677 0 0.6405463747586706 0.63290524857395714 0 0.63065402604362242 0.59661356661633302 0 0.67529834988829951 0.61613270668143583 0 0.67323294229744413 0.57556450033612505 0 0.67529834988829951 0.61613270668143583 0 0.63065402604362242 0.59661356661633302 0 0.91750694127107502 0.36982372220068471 0 0.87430060258887643 0.34056085888204451 0 0.92012390126144183 0.33123581297173937 0 0.89999999999999991 0.29999999999999999 0 0.92012390126144183 0.33123581297173937 0 0.87430060258887643 0.34056085888204451 0 0.89999999999999991 0.69999999999999996 0 0.87712158428786946 0.65709029563313581 0 0.92057473616084773 0.66770436535372446 0 0.91750694127105259 0.63017627779935648 0 0.92057473616084773 0.66770436535372446 0 0.87712158428786946 0.65709029563313581 0 0.33122374654748771 0.57588941099433744 0 0.29110487519241501 0.56588143995431495 0 0.33190227185843768 0.52715113583864037 0 0.57484956128872922 0.66573805030881994 0 0.5498280205245758 0.6290146943450976 0 0.5991018319127801 0.62925360607495295 0 0.57412547362576272 0.58273804879550706 0 0.5991018319127801 0.62925360607495295 0 0.5498280205245758 0.6290146943450976 0 0.65408113592120842 0.073941773121567966 0 0.66369801598854572 0.036327466368102787 0 0.7010294155333181 0.056779085686491267 0 0.27474541102162192 0.11822029332053539 0 0.32215584939770009 0.1218492143506909 0 0.29336099386129338 0.15892013001050981 0 0.33084213324567391 0.16272720141332131 0 0.29336099386129338 0.15892013001050981 0 0.32215584939770009 0.1218492143506909 0 0.5 0.29999999999999999 0 0.54999999999999993 0.29999999999999999 0 0.52752007115234678 0.33170632466418198 0 0.83573492347052902 0.36590755630746369 0 0.87430060258887643 0.34056085888204451 0 0.86844634540301924 0.38530937474099819 0 0.83758014339878906 0.63222013025741819 0 0.87159648282691515 0.61285406320581504 0 0.87712158428786946 0.65709029563313581 0 0.22278230690790279 0.44824268025881547 0 0.23975172658309729 0.49475499200540818 0 0.19604738184454831 0.47787523520405789 0 1 0.49999999999950101 0 0.95631871884947484 0.51827533208233789 0 0.96228564064454991 0.48206450662049471 0 0.1650278706801647 0.38791388161335733 0 0.13773355295499351 0.42497777642586831 0 0.1117088112799664 0.38831403004970022 0 0.61209567303293111 0.44669033081290321 0 0.57975577671020095 0.46172033326338591 0 0.57744073070774993 0.41535148636609359 0 0.077693244765132896 0.56932317963405099 0 0.1154888278694548 0.56733818459978413 0 0.1024350934457823 0.60772393977513839 0 0.68697391633157634 0.84450604838764298 0 0.65005442820240822 0.82644988530054031 0 0.68024162096458085 0.79868546898116533 0 0.76901770135486491 0.84293557325473656 0 0.77094201086366854 0.79647480515688507 0 0.80041942726660109 0.81543261647703358 0 0.77144070960558853 0.14311854477243749 0 0.76878382444651716 0.097147941686331368 0 0.80076557130237269 0.1154587552654202 0 0.5 0.69999999999999996 0 0.52584555706968406 0.66664215091846768 0 0.54999999999999993 0.69999999999999996 0 0.077693244765132896 0.56932317963405099 0 0.044576108720083309 0.53509043209532614 0 0.085622222639554768 0.53333248912060549 0 0.69999999999921003 0 0 0.72683645290270404 0.027797073151180601 0 0.7010294155333181 0.056779085686491267 0 1 0 0 0.97166519676946894 0.033371144900598393 0 0.94999999999986839 0 0 1 0.69999999999999996 0 0.97166519676947294 0.73337114490064459 0 0.94999999999999996 0.69999999999999996 0 1 0.69999999999999996 0 1 0.74999999999993494 0 0.97166519676947294 0.73337114490064459 0 1 0.29999999999999999 0 0.97166519676951801 0.26662885509932011 0 1 0.24999999999987299 0 1 1 0 0.94999999999979179 1 0 0.97166519676946206 0.96662885509935492 0 1 0 0 1 0.049999999999896842 0 0.97166519676946894 0.033371144900598393 0 1 0.29999999999999999 0 0.94999999999999996 0.29999999999999999 0 0.97166519676951801 0.26662885509932011 0 1 1 0 0.97166519676946206 0.96662885509935492 0 1 0.94999999999997109 0 0 0.55000000000173355 0 0.044576108720083309 0.53509043209532614 0 0.034381862692950467 0.57372682250960894 0 0.6879972333610942 0.43038561374960838 0 0.69385896817107129 0.48377516041410151 0 0.65178832218679827 0.45929119821019959 0 0.33084213324567391 0.16272720141332131 0 0.36246644853392812 0.1399454205365751 0 0.3572130504031617 0.1874703368446563 0 0.65408113592120842 0.073941773121567966 0 0.68330259535470161 0.10038702501083881 0 0.65290632656860115 0.11434202593454081 0 0.16500388252850301 0.66612077714085194 0 0.19068556247388771 0.71028988922845504 0 0.15332765547575641 0.71200081858233666 0 0.82709327591091286 0.84937141670920724 0 0.85600844944837662 0.88483418979512773 0 0.81159157511211755 0.88795995483179491 0 0.82709327591102189 0.14937141670914489 0 0.85600844944842547 0.1848341897950983 0 0.81283102246527783 0.1881007222486438 0 0.79999999999999982 0.29999999999999999 0 0.84999999999999987 0.29999999999999999 0 0.82500000000000062 0.33010209762754811 0 0.79999999999999982 0.69999999999999996 0 0.82457059160610424 0.66831947184359608 0 0.84999999999999987 0.69999999999999996 0 0.59999999999999976 0.69999999999999996 0 0.62460753523532009 0.66851202781000296 0 0.6499999999999998 0.69999999999999996 0 0.39801143831225599 0.16651381068160659 0 0.3572130504031617 0.1874703368446563 0 0.36246644853392812 0.1399454205365751 0 0.69999999999999984 0.29999999999999999 0 0.74999999999999989 0.29999999999999999 0 0.73090396928863699 0.33699297293167962 0 0.69999999999999984 0.69999999999999996 0 0.72500000000000064 0.67022701834392062 0 0.74999999999999989 0.69999999999999996 0 0.6236733212988993 0.14864538214901801 0 0.64011864159029941 0.18789607982138171 0 0.59443395090188023 0.18455690917515069 0 0.20050006573841939 0.53248514016039872 0 0.16618607197337229 0.50652878253548905 0 0.19604738184454831 0.47787523520405789 0 0.79680861578956375 0.22656778056752541 0 0.76587607630038135 0.18880039518954719 0 0.81283102246527783 0.1881007222486438 0 0.79680861578988083 0.92656778056766709 0 0.76891166905518427 0.88835469571185499 0 0.81159157511211755 0.88795995483179491 0 0.71406021706547751 0.63292083137662503 0 0.675261390228442 0.65996937624687813 0 0.67529834988829951 0.61613270668143583 0 0.6405463747586706 0.63290524857395714 0 0.67529834988829951 0.61613270668143583 0 0.675261390228442 0.65996937624687813 0 0.19670163708476801 0.31472518408333222 0 0.168349569971391 0.28054490850913671 0 0.21049769590865089 0.26857363548218488 0 0.47357141910802508 0.1873585799078378 0 0.46429753744194407 0.22870891180733599 0 0.42905200079338551 0.19982395548231649 0 0.59814117807200873 0.23398510860739519 0 0.5794309697024993 0.27124795968204829 0 0.54248833945060504 0.2520322959927106 0 0.6541250972820879 0.49999999999999989 0 0.65178832218679827 0.45929119821019959 0 0.69385896817107129 0.48377516041410151 0 0.54999999999999993 0.29999999999999999 0 0.5794309697024993 0.27124795968204829 0 0.59999999999999976 0.29999999999999999 0 0.7750489929959945 0.66593931409600093 0 0.74994237037456724 0.62775548192980357 0 0.79884539758237771 0.62875045078114233 0 0.77293540622714185 0.59448302402785813 0 0.79884539758237771 0.62875045078114233 0 0.74994237037456724 0.62775548192980357 0 0.14332333627550789 0.14578431753966009 0 0.16141998738593399 0.10404039647458049 0 0.18652628422869419 0.14162325200928061 0 0.38083244760691543 0.38531983672244652 0 0.42161023666869668 0.39493916313643851 0 0.38707855792647411 0.42299362914874578 0 0.43249999999999988 0.43937499999999979 0 0.38707855792647411 0.42299362914874578 0 0.42161023666869668 0.39493916313643851 0 0.43846182030517877 0.64845797726506715 0 0.47095389620662098 0.61892551373708504 0 0.47913475093885149 0.66010775372412711 0 0.50715858906372158 0.63295939104129484 0 0.47913475093885149 0.66010775372412711 0 0.47095389620662098 0.61892551373708504 0 0.69999999999999984 0.69999999999999996 0 0.74999999999999989 0.69999999999999996 0 0.72501250972655151 0.74067302935308721 0 0.4089290844030305 0.58728915500154233 0 0.35765792684946668 0.6000687869219653 0 0.37272913873093971 0.56192925302619479 0 0.69999999999921003 0 0 0.74999999999934175 0 0 0.72683645290270404 0.027797073151180601 0 0.17933913398461551 0.2350063570234002 0 0.21049769590865089 0.26857363548218488 0 0.168349569971391 0.28054490850913671 0 0.14474682429600511 0.85524784522713515 0 0.10562472963403439 0.87143394428979881 0 0.1074251789111534 0.83564394292147814 0 0.14332333627550789 0.14578431753966009 0 0.106902708054812 0.16453234188234539 0 0.1053400320299198 0.12877248826361379 0 0.2236846579037573 0.67380363126050236 0 0.19914261668318661 0.62286739485272158 0 0.2459498854893499 0.63248470766216769 0 0.049999999999899652 0 0 0.053064897599215843 0.048131547304697528 0 0.02576622439977887 0.024532886826226379 0 0 0.050000000000207989 0 0.02576622439977887 0.024532886826226379 0 0.053064897599215843 0.048131547304697528 0 0.050000000000207989 1 0 0.025766224399875661 0.97546711317377799 0 0.053064897599294662 0.95186845269532028 0 0 0.94999999999979179 0 0.053064897599294662 0.95186845269532028 0 0.025766224399875661 0.97546711317377799 0 0.47357141910802508 0.1873585799078378 0 0.48466639505193998 0.1421439844745814 0 0.51729576145820033 0.1683240575987815 0 0.077693244765132896 0.56932317963405099 0 0.085622222639554768 0.53333248912060549 0 0.1154888278694548 0.56733818459978413 0 0.64753070846764316 0.77332939069435502 0 0.63221990677827677 0.73442891067859706 0 0.66427993341343905 0.73232764502436276 0 0.4656888918609538 0.78493261229743638 0 0.42609163930740518 0.80361684430568059 0 0.42676259796334498 0.76772545931379299 0 0.4089290844030305 0.58728915500154233 0 0.39743091024207589 0.6239520004230239 0 0.35765792684946668 0.6000687869219653 0 0.55306006949600994 0.20198184231352201 0 0.50760557329222289 0.20700468884612061 0 0.51729576145820033 0.1683240575987815 0 1 0.8999999999998336 0 1 0.94999999999997109 0 0.97435614836744289 0.92499999999990257 0 1 0.19999999999974799 0 1 0.24999999999987299 0 0.97435614836740092 0.22499999999981049 0 1 0.74999999999993494 0 1 0.7999999999998193 0 0.97435614836745565 0.77499999999987745 0 1 0.049999999999896842 0 1 0.099999999999753911 0 0.97435614836748241 0.074999999999825387 0 0.86411095495256451 0.42388805655111889 0 0.86844634540301924 0.38530937474099819 0 0.90594285160987287 0.4141265964174129 0 0.86956835336234861 0.571283299838105 0 0.91143117093204207 0.58709913730335972 0 0.87159648282691515 0.61285406320581504 0 0 0 0 0.02576622439977887 0.024532886826226379 0 0 0.050000000000207989 0 0 1 0 0 0.94999999999979179 0 0.025766224399875661 0.97546711317377799 0 0 1 0 0.025766224399875661 0.97546711317377799 0 0.050000000000207989 1 0 0 0 0 0.049999999999899652 0 0 0.02576622439977887 0.024532886826226379 0 0.65394964615507722 0.22666784374016369 0 0.64011864159029941 0.18789607982138171 0 0.6865991819015953 0.189116534044597 0 0.25195515620380449 0.25883339815888678 0 0.28040350263641872 0.23054717217092141 0 0.29132859388405002 0.27203693976649962 0 0.61209567303293111 0.44669033081290321 0 0.65178832218679827 0.45929119821019959 0 0.61547661924074692 0.48539576058873962 0 0.6541250972820879 0.49999999999999989 0 0.61547661924074692 0.48539576058873962 0 0.65178832218679827 0.45929119821019959 0 0.19670163708476801 0.31472518408333222 0 0.24432083401701241 0.3006253385567515 0 0.22615676742807109 0.33458786033114157 0 0.15801167086041079 0.46008690540259539 0 0.13773355295499351 0.42497777642586831 0 0.191953871957803 0.42546416763755879 0 0.1650278706801647 0.38791388161335733 0 0.191953871957803 0.42546416763755879 0 0.13773355295499351 0.42497777642586831 0 0.50715858906372158 0.63295939104129484 0 0.52584555706968406 0.66664215091846768 0 0.47913475093885149 0.66010775372412711 0 0.5 0.69999999999999996 0 0.47913475093885149 0.66010775372412711 0 0.52584555706968406 0.66664215091846768 0 0.51076801031701946 0.1202837388510348 0 0.51729576145820033 0.1683240575987815 0 0.48466639505193998 0.1421439844745814 0 0.71406021706547751 0.63292083137662503 0 0.74994237037456724 0.62775548192980357 0 0.72500000000000064 0.67022701834392062 0 0.71508799138962864 0.36622814920737751 0 0.73090396928863699 0.33699297293167962 0 0.74764719760526988 0.3719647154012321 0 0.22278230690790279 0.44824268025881547 0 0.25982634974572738 0.46097799597715272 0 0.23975172658309729 0.49475499200540818 0 0.80185942888539485 0.77452061303608133 0 0.78578450296893509 0.73292684821144505 0 0.81864958914779962 0.73589050177899629 0 0.80185942888501827 0.074520613036224564 0 0.78393852574753176 0.032039079577822822 0 0.81864958914740749 0.035890501779055867 0 0.5 0.29999999999999999 0 0.46226845272279993 0.31901800744800313 0 0.4604742573284204 0.27846934318264788 0 0.6405463747586706 0.63290524857395714 0 0.62460753523532009 0.66851202781000296 0 0.5991018319127801 0.62925360607495295 0 0.79680861578988083 0.92656778056766709 0 0.770759834363826 0.95919399014344442 0 0.75729602384198635 0.92353652857884294 0 0.79680861578956375 0.22656778056752541 0 0.77075983436335049 0.25919399014334171 0 0.75668890529066124 0.2244279804069782 0 0.65394964615507722 0.22666784374016369 0 0.69397719155551807 0.2245125647000914 0 0.67933712972090698 0.25920070958121938 0 0.81973119833356312 0.43505687159469048 0 0.84925632466077294 0.45359738909549091 0 0.81400510706333218 0.47357325943904899 0 0.83758014339878906 0.63222013025741819 0 0.82457059160610424 0.66831947184359608 0 0.79884539758237771 0.62875045078114233 0 0.25676291524611189 0.7436741304886243 0 0.2248999640082178 0.72584299459689172 0 0.26439878998046262 0.7048065392091396 0 0.91696753777131557 0.497780560203536 0 0.90900154012161016 0.53607784105648792 0 0.86907294890112186 0.52008116128001669 0 0.17933913398461551 0.2350063570234002 0 0.168349569971391 0.28054490850913671 0 0.14377654328998779 0.2442024734791064 0 0.1247745017231483 0.27198077544791172 0 0.14377654328998779 0.2442024734791064 0 0.168349569971391 0.28054490850913671 0 0.34258405725730701 0.4444034294386992 0 0.35221190152536241 0.40457127605439203 0 0.38707855792647411 0.42299362914874578 0 0.47357141910802508 0.1873585799078378 0 0.51729576145820033 0.1683240575987815 0 0.50760557329222289 0.20700468884612061 0 0.19670163708476801 0.31472518408333222 0 0.22615676742807109 0.33458786033114157 0 0.18434624290945251 0.35208838264196463 0 0.22033343844674469 0.36963382230740238 0 0.18434624290945251 0.35208838264196463 0 0.22615676742807109 0.33458786033114157 0 0.24432083401701241 0.3006253385567515 0 0.25966125648670141 0.34351016742083729 0 0.22615676742807109 0.33458786033114157 0 0.93814194660195893 0.44426664081746747 0 0.90594285160987287 0.4141265964174129 0 0.95871855522754235 0.40006508612975411 0 0.91750694127107502 0.36982372220068471 0 0.95871855522754235 0.40006508612975411 0 0.90594285160987287 0.4141265964174129 0 0.91750694127105259 0.63017627779935648 0 0.91143117093204207 0.58709913730335972 0 0.95867599106212187 0.60011091146651041 0 0.93732437411268477 0.55911392101136159 0 0.95867599106212187 0.60011091146651041 0 0.91143117093204207 0.58709913730335972 0 0.50715858906372158 0.63295939104129484 0 0.5498280205245758 0.6290146943450976 0 0.52584555706968406 0.66664215091846768 0 0.94399509803918602 0.75600490196082126 0 0.97435614836745565 0.77499999999987745 0 0.95386563387742829 0.80414874155775029 0 0.94399509803922566 0.056004901960802607 0 0.97435614836748241 0.074999999999825387 0 0.95386563387744361 0.1041487415577465 0 0.94399509803921056 0.24399509803922639 0 0.95391631417672862 0.19584263333809451 0 0.97435614836740092 0.22499999999981049 0 0.94399509803919068 0.9439950980391687 0 0.95391631417670719 0.89584263333814784 0 0.97435614836744289 0.92499999999990257 0 0.79680861578988083 0.92656778056766709 0 0.75729602384198635 0.92353652857884294 0 0.76891166905518427 0.88835469571185499 0 0.79680861578956375 0.22656778056752541 0 0.75668890529066124 0.2244279804069782 0 0.76587607630038135 0.18880039518954719 0 0.65394964615507722 0.22666784374016369 0 0.6865991819015953 0.189116534044597 0 0.69397719155551807 0.2245125647000914 0 0.38083244760691543 0.38531983672244652 0 0.38707855792647411 0.42299362914874578 0 0.35221190152536241 0.40457127605439203 0 1 0.7999999999998193 0 0.95386563387742829 0.80414874155775029 0 0.97435614836745565 0.77499999999987745 0 1 0.099999999999753911 0 0.95386563387744361 0.1041487415577465 0 0.97435614836748241 0.074999999999825387 0 1 0.8999999999998336 0 0.97435614836744289 0.92499999999990257 0 0.95391631417670719 0.89584263333814784 0 1 0.19999999999974799 0 0.97435614836740092 0.22499999999981049 0 0.95391631417672862 0.19584263333809451 0 0.84723782639812573 0.48638347960178252 0 0.81400510706333218 0.47357325943904899 0 0.84925632466077294 0.45359738909549091 0 0.54999999999999993 0.29999999999999999 0 0.54248833945060504 0.2520322959927106 0 0.5794309697024993 0.27124795968204829 0 0.94999999999999996 0.29999999999999999 0 0.95780851984364423 0.34215720972155339 0 0.92012390126144183 0.33123581297173937 0 0.94999999999999996 0.69999999999999996 0 0.92057473616084773 0.66770436535372446 0 0.9578014258160763 0.65787212321113708 0 0.15801167086041079 0.46008690540259539 0 0.113541300460994 0.46208784312094731 0 0.13773355295499351 0.42497777642586831 0 0.7250000000005199 0.94981617647078953 0 0.68015064798562208 0.95924320340003011 0 0.68987011941058407 0.92105047536677087 0 0.65507451745379841 0.92229208810758578 0 0.68987011941058407 0.92105047536677087 0 0.68015064798562208 0.95924320340003011 0 0.77846603114747959 0.49850927265137401 0 0.77972660463949339 0.45529290596363098 0 0.81400510706333218 0.47357325943904899 0 0.27866744612395528 0.38416094670951489 0 0.25966125648670141 0.34351016742083729 0 0.29644548887253103 0.34914008784168082 0 0.61209567303293111 0.44669033081290321 0 0.61547661924074692 0.48539576058873962 0 0.57975577671020095 0.46172033326338591 0 0.57611405284611883 0.50165903596042916 0 0.57975577671020095 0.46172033326338591 0 0.61547661924074692 0.48539576058873962 0 0.7250000000005199 0.89375000000045834 0 0.76891166905518427 0.88835469571185499 0 0.75729602384198635 0.92353652857884294 0 0.72500000000001008 0.19776155966387679 0 0.76587607630038135 0.18880039518954719 0 0.75668890529066124 0.2244279804069782 0 0.72500000000001008 0.19776155966387679 0 0.69397719155551807 0.2245125647000914 0 0.6865991819015953 0.189116534044597 0 0.083411279318303222 0.089699755330707398 0 0.12372429750337779 0.095814237875728972 0 0.1053400320299198 0.12877248826361379 0 0.083411279318375747 0.91030024466934134 0 0.10562472963403439 0.87143394428979881 0 0.1241151115713819 0.9045666525468371 0 0.14617343800780541 0.93808063414349496 0 0.1241151115713819 0.9045666525468371 0 0.16206583317966519 0.89685560785156404 0 0.14618258501891079 0.062070108745602003 0 0.16141998738593399 0.10404039647458049 0 0.12372429750337779 0.095814237875728972 0 0.33277555741076909 0.36432196682010132 0 0.35221190152536241 0.40457127605439203 0 0.31778888742534622 0.40581751814196781 0 0.7250000000005199 0.94981617647078953 0 0.75729602384198635 0.92353652857884294 0 0.770759834363826 0.95919399014344442 0 0.72500000000000064 0.2498161764706 0 0.75668890529066124 0.2244279804069782 0 0.77075983436335049 0.25919399014334171 0 0.72500000000000064 0.2498161764706 0 0.67933712972090698 0.25920070958121938 0 0.69397719155551807 0.2245125647000914 0 0.6236733212988993 0.14864538214901801 0 0.61956000905586006 0.1043312481793135 0 0.65290632656860115 0.11434202593454081 0 0.81973119833356312 0.43505687159469048 0 0.81400510706333218 0.47357325943904899 0 0.77972660463949339 0.45529290596363098 0 0.25676291524611189 0.7436741304886243 0 0.29904318922293632 0.74132814928635593 0 0.2792923945214143 0.77665808831789485 0 0.36575549820117997 0.31677992835137742 0 0.32752639306529541 0.32610012995269699 0 0.33402499257867951 0.28911035184473982 0 0.14332333627550789 0.14578431753966009 0 0.18652628422869419 0.14162325200928061 0 0.18124454140915969 0.18790916706335251 0 0.57724883562309992 0.92155686857100794 0 0.5832743223239254 0.88483152652961872 0 0.61885627562261258 0.90282959257498208 0 0.57667858002728545 0.078486105337742612 0 0.61956000905586006 0.1043312481793135 0 0.58516465772821369 0.11653801664834119 0 0.80185942888539485 0.77452061303608133 0 0.80041942726660109 0.81543261647703358 0 0.77094201086366854 0.79647480515688507 0 0.80185942888501827 0.074520613036224564 0 0.80076557130237269 0.1154587552654202 0 0.76878382444651716 0.097147941686331368 0 0.64753070846764316 0.77332939069435502 0 0.68024162096458085 0.79868546898116533 0 0.65005442820240822 0.82644988530054031 0 0.26429849586623999 0.19346700179430079 0 0.25557216766470708 0.15874861286892261 0 0.29336099386129338 0.15892013001050981 0 0.29348325746214782 0.31350119524708198 0 0.29644548887253103 0.34914008784168082 0 0.25966125648670141 0.34351016742083729 0 0.68391457121233579 0.14440470121196541 0 0.65290632656860115 0.11434202593454081 0 0.68330259535470161 0.10038702501083881 0 0.91750694127107502 0.36982372220068471 0 0.92012390126144183 0.33123581297173937 0 0.95780851984364423 0.34215720972155339 0 0.91750694127105259 0.63017627779935648 0 0.9578014258160763 0.65787212321113708 0 0.92057473616084773 0.66770436535372446 0 0.22033343844674469 0.36963382230740238 0 0.22615676742807109 0.33458786033114157 0 0.25966125648670141 0.34351016742083729 0 1 0.94999999999997109 0 0.97166519676946206 0.96662885509935492 0 0.97435614836744289 0.92499999999990257 0 0.94399509803919068 0.9439950980391687 0 0.97435614836744289 0.92499999999990257 0 0.97166519676946206 0.96662885509935492 0 0.94399509803921056 0.24399509803922639 0 0.97435614836740092 0.22499999999981049 0 0.97166519676951801 0.26662885509932011 0 1 0.24999999999987299 0 0.97166519676951801 0.26662885509932011 0 0.97435614836740092 0.22499999999981049 0 1 0.74999999999993494 0 0.97435614836745565 0.77499999999987745 0 0.97166519676947294 0.73337114490064459 0 1 0.049999999999896842 0 0.97435614836748241 0.074999999999825387 0 0.97166519676946894 0.033371144900598393 0 0.94399509803918602 0.75600490196082126 0 0.97166519676947294 0.73337114490064459 0 0.97435614836745565 0.77499999999987745 0 0.94399509803922566 0.056004901960802607 0 0.97166519676946894 0.033371144900598393 0 0.97435614836748241 0.074999999999825387 0 0.77846603114747959 0.49850927265137401 0 0.81400510706333218 0.47357325943904899 0 0.81441713509985358 0.51161854125224959 0 0.77354604466818633 0.40378688774472771 0 0.72622533758026719 0.40265885511101601 0 0.74764719760526988 0.3719647154012321 0 0.71508799138962864 0.36622814920737751 0 0.74764719760526988 0.3719647154012321 0 0.72622533758026719 0.40265885511101601 0 0.84723782639812573 0.48638347960178252 0 0.84925632466077294 0.45359738909549091 0 0.88594198078881503 0.46167788676578442 0 0.86411095495256451 0.42388805655111889 0 0.88594198078881503 0.46167788676578442 0 0.84925632466077294 0.45359738909549091 0 0.43846182030517877 0.64845797726506715 0 0.43545892161006339 0.61093128915313821 0 0.47095389620662098 0.61892551373708504 0 0.33123028043633618 0.77629643437932982 0 0.35642984951668422 0.80994399665655703 0 0.30857225866488791 0.81101973481716805 0 0.33403534827021109 0.84402799729020661 0 0.30857225866488791 0.81101973481716805 0 0.35642984951668422 0.80994399665655703 0 0.26429849586623999 0.19346700179430079 0 0.31255190597181792 0.19850845631528771 0 0.28040350263641872 0.23054717217092141 0 0.57724883562309992 0.92155686857100794 0 0.54783390826260769 0.89287767010860219 0 0.5832743223239254 0.88483152652961872 0 0.55899371797446828 0.85003102233514438 0 0.5832743223239254 0.88483152652961872 0 0.54783390826260769 0.89287767010860219 0 0.4089290844030305 0.58728915500154233 0 0.43545892161006339 0.61093128915313821 0 0.39743091024207589 0.6239520004230239 0 0.77293540622714185 0.59448302402785813 0 0.81723410853263523 0.59419663659258926 0 0.79884539758237771 0.62875045078114233 0 0.83758014339878906 0.63222013025741819 0 0.79884539758237771 0.62875045078114233 0 0.81723410853263523 0.59419663659258926 0 0.35864735590330371 0.63903383440414463 0 0.39743091024207589 0.6239520004230239 0 0.3977710372045391 0.65868194622830212 0 0.56202748619534593 0.15054058349222879 0 0.54979595918804436 0.1060565713905809 0 0.58516465772821369 0.11653801664834119 0 0.57667858002728545 0.078486105337742612 0 0.58516465772821369 0.11653801664834119 0 0.54979595918804436 0.1060565713905809 0 0.33122374654748771 0.57588941099433744 0 0.37272913873093971 0.56192925302619479 0 0.35765792684946668 0.6000687869219653 0 0.35864735590330371 0.63903383440414463 0 0.35765792684946668 0.6000687869219653 0 0.39743091024207589 0.6239520004230239 0 0.71508799138962864 0.36622814920737751 0 0.68887083591306764 0.33632058575757479 0 0.73090396928863699 0.33699297293167962 0 0.29348325746214782 0.31350119524708198 0 0.32752639306529541 0.32610012995269699 0 0.29644548887253103 0.34914008784168082 0 0.33277555741076909 0.36432196682010132 0 0.29644548887253103 0.34914008784168082 0 0.32752639306529541 0.32610012995269699 0 0.34258405725730701 0.4444034294386992 0 0.31778888742534622 0.40581751814196781 0 0.35221190152536241 0.40457127605439203 0 0.79999999999999982 0.69999999999999996 0 0.81864958914779962 0.73589050177899629 0 0.78578450296893509 0.73292684821144505 0 0.79999999999947335 0 0 0.81864958914740749 0.035890501779055867 0 0.78393852574753176 0.032039079577822822 0 0.27474541102162192 0.11822029332053539 0 0.29336099386129338 0.15892013001050981 0 0.25557216766470708 0.15874861286892261 0 0 0.45000000000187229 0 0.035463093262830522 0.42673416072819947 0 0.033550201249889847 0.46247875832467239 0 0.6499999999999998 0.69999999999999996 0 0.66427993341343905 0.73232764502436276 0 0.63221990677827677 0.73442891067859706 0 0.84723782639812573 0.48638347960178252 0 0.81441713509985358 0.51161854125224959 0 0.81400510706333218 0.47357325943904899 0 0.26104540868854792 0.81401944968719064 0 0.30857225866488791 0.81101973481716805 0 0.29209212897034281 0.84715728365233667 0 0.33403534827021109 0.84402799729020661 0 0.29209212897034281 0.84715728365233667 0 0.30857225866488791 0.81101973481716805 0 0.69999999999999984 0.29999999999999999 0 0.73090396928863699 0.33699297293167962 0 0.68887083591306764 0.33632058575757479 0 
</DataArray>
</Points>
<Cells>
<DataArray type="UInt32" Name="connectivity" format="ascii">
0 1 2 3 4 5 6 7 8 9 10 11 12 13 14 15 16 17 18 19 20 21 22 23 24 25 26 27 28 29 30 31 32 33 34 35 36 37 38 39 40 41 42 43 44 45 46 47 48 49 50 51 52 53 54 55 56 57 58 59 60 61 62 63 64 65 66 67 68 69 70 71 72 73 74 75 76 77 78 79 80 81 82 83 84 85 86 87 88 89 90 91 92 93 94 95 96 97 98 99 100 101 102 103 104 105 106 107 108 109 110 111 112 113 114 115 116 117 118 119 120 121 122 123 124 125 126 127 128 129 130 131 132 133 134 135 136 137 138 139 140 141 142 143 144 145 146 147 148 149 150 151 152 153 154 155 156 157 158 159 160 161 162 163 164 165 166 167 168 169 170 171 172 173 174 175 176 177 178 179 180 181 182 183 184 185 186 187 188 189 190 191 192 193 194 195 196 197 198 199 200 201 202 203 204 205 206 207 208 209 210 211 212 213 214 215 216 217 218 219 220 221 222 223 224 225 226 227 228 229 230 231 232 233 234 235 236 237 238 239 240 241 242 243 244 245 246 247 248 249 250 251 252 253 254 255 256 257 258 259 260 261 262 263 264 265 266 267 268 269 270 271 272 273 274 275 276 277 278 279 280 281 282 283 284 285 286 287 288 289 290 291 292 293 294 295 296 297 298 299 300 301 302 303 304 305 306 307 308 309 310 311 312 313 314 315 316 317 318 319 320 321 322 323 324 325 326 327 328 329 330 331 332 333 334 335 336 337 338 339 340 341 342 343 344 345 346 347 348 349 350 351 352 353 354 355 356 357 358 359 360 361 362 363 364 365 366 367 368 369 370 371 372 373 374 375 376 377 378 379 380 381 382 383 384 385 386 387 388 389 390 391 392 393 394 395 396 397 398 399 400 401 402 403 404 405 406 407 408 409 410 411 412 413 414 415 416 417 418 419 420 421 422 423 424 425 426 427 428 429 430 431 432 433 434 435 436 437 438 439 440 441 442 443 444 445 446 447 448 449 450 451 452 453 454 455 456 457 458 459 460 461 462 463 464 465 466 467 468 469 470 471 472 473 474 475 476 477 478 479 480 481 482 483 484 485 486 487 488 489 490 491 492 493 494 495 496 497 498 499 500 501 502 503 504 505 506 507 508 509 510 511 512 513 514 515 516 517 518 519 520 521 522 523 524 525 526 527 528 529 530 531 532 533 534 535 536 537 538 539 540 541 542 543 544 545 546 547 548 549 550 551 552 553 554 555 556 557 558 559 560 561 562 563 564 565 566 567 568 569 570 571 572 573 574 575 576 577 578 579 580 581 582 583 584 585 586 587 588 589 590 591 592 593 594 595 596 597 598 599 600 601 602 603 604 605 606 607 608 609 610 611 612 613 614 615 616 617 618 619 620 621 622 623 624 625 626 627 628 629 630 631 632 633 634 635 636 637 638 639 640 641 642 643 644 645 646 647 648 649 650 651 652 653 654 655 656 657 658 659 660 661 662 663 664 665 666 667 668 669 670 671 672 673 674 675 676 677 678 679 680 681 682 683 684 685 686 687 688 689 690 691 692 693 694 695 696 697 698 699 700 701 702 703 704 705 706 707 708 709 710 711 712 713 714 715 716 717 718 719 720 721 722 723 724 725 726 727 728 729 730 731 732 733 734 735 736 737 738 739 740 741 742 743 744 745 746 747 748 749 750 751 752 753 754 755 756 757 758 759 760 761 762 763 764 765 766 767 768 769 770 771 772 773 774 775 776 777 778 779 780 781 782 783 784 785 786 787 788 789 790 791 792 793 794 795 796 797 798 799 800 801 802 803 804 805 806 807 808 809 810 811 812 813 814 815 816 817 818 819 820 821 822 823 824 825 826 827 828 829 830 831 832 833 834 835 836 837 838 839 840 841 842 843 844 845 846 847 848 849 850 851 852 853 854 855 856 857 858 859 860 861 862 863 864 865 866 867 868 869 870 871 872 873 874 875 876 877 878 879 880 881 882 883 884 885 886 887 888 889 890 891 892 893 894 895 896 897 898 899 900 901 902 903 904 905 906 907 908 909 910 911 912 913 914 915 916 917 918 919 920 921 922 923 924 925 926 927 928 929 930 931 932 933 934 935 936 937 938 939 940 941 942 943 944 945 946 947 948 949 950 951 952 953 954 955 956 957 958 959 960 961 962 963 964 965 966 967 968 969 970 971 972 973 974 975 976 977 978 979 980 981 982 983 984 985 986 987 988 989 990 991 992 993 994 995 996 997 998 999 1000 1001 1002 1003 1004 1005 1006 1007 1008 1009 1010 1011 1012 1013 1014 1015 1016 1017 1018 1019 1020 1021 1022 1023 1024 1025 1026 1027 1028 1029 1030 1031 1032 1033 1034 1035 1036 1037 1038 1039 1040 1041 1042 1043 1044 1045 1046 1047 1048 1049 1050 1051 1052 1053 1054 1055 1056 1057 1058 1059 1060 1061 1062 1063 1064 1065 1066 1067 1068 1069 1070 1071 1072 1073 1074 1075 1076 1077 1078 1079 1080 1081 1082 1083 1084 1085 1086 1087 1088 1089 1090 1091 1092 1093 1094 1095 1096 1097 1098 1099 1100 1101 1102 1103 1104 1105 1106 1107 1108 1109 1110 1111 1112 1113 1114 1115 1116 1117 1118 1119 1120 1121 1122 1123 1124 1125 1126 1127 1128 1129 1130 1131 1132 1133 1134 1135 1136 1137 1138 1139 1140 1141 1142 1143 1144 1145 1146 1147 1148 1149 1150 1151 1152 1153 1154 1155 1156 1157 1158 1159 1160 1161 1162 1163 1164 1165 1166 1167 1168 1169 1170 1171 1172 1173 1174 1175 1176 1177 1178 1179 1180 1181 1182 1183 1184 1185 1186 1187 1188 1189 1190 1191 1192 1193 1194 1195 1196 1197 1198 1199 1200 1201 1202 1203 1204 1205 1206 1207 1208 1209 1210 1211 1212 1213 1214 1215 1216 1217 1218 1219 1220 1221 1222 1223 1224 1225 1226 1227 1228 1229 1230 1231 1232 1233 1234 1235 1236 1237 1238 1239 1240 1241 1242 1243 1244 1245 1246 1247 1248 1249 1250 1251 1252 1253 1254 1255 1256 1257 1258 1259 1260 1261 1262 1263 1264 1265 1266 1267 1268 1269 1270 1271 1272 1273 1274 1275 1276 1277 1278 1279 1280 1281 1282 1283 1284 1285 1286 1287 1288 1289 1290 1291 1292 1293 1294 1295 1296 1297 1298 1299 1300 1301 1302 1303 1304 1305 1306 1307 1308 1309 1310 1311 1312 1313 1314 1315 1316 1317 1318 1319 1320 1321 1322 1323 1324 1325 1326 1327 1328 1329 1330 1331 1332 1333 1334 1335 1336 1337 1338 1339 1340 1341 1342 1343 1344 1345 1346 1347 1348 1349 1350 1351 1352 1353 1354 1355 1356 1357 1358 1359 1360 1361 1362 1363 1364 1365 1366 1367 1368 1369 1370 1371 1372 1373 1374 1375 1376 1377 1378 1379 1380 1381 1382 1383 1384 1385 1386 1387 1388 1389 1390 1391 1392 1393 1394 1395 1396 1397 1398 1399 1400 1401 1402 1403 1404 1405 1406 1407 1408 1409 1410 1411 1412 1413 1414 1415 1416 1417 1418 1419 1420 1421 1422 1423 1424 1425 1426 1427 1428 1429 1430 1431 1432 1433 1434 1435 1436 1437 1438 1439 1440 1441 1442 1443 1444 1445 1446 1447 1448 1449 1450 1451 1452 1453 1454 1455 1456 1457 1458 1459 1460 1461 1462 1463 1464 1465 1466 1467 1468 1469 1470 1471 1472 1473 1474 1475 1476 1477 1478 1479 1480 1481 1482 1483 1484 1485 1486 1487 1488 1489 1490 1491 1492 1493 1494 1495 1496 1497 1498 1499 1500 1501 1502 1503 1504 1505 1506 1507 1508 1509 1510 1511 1512 1513 1514 1515 1516 1517 1518 1519 1520 1521 1522 1523 1524 1525 1526 1527 1528 1529 1530 1531 1532 1533 1534 1535 1536 1537 1538 1539 1540 1541 1542 1543 1544 1545 1546 1547 1548 1549 1550 1551 1552 1553 1554 1555 1556 1557 1558 1559 1560 1561 1562 1563 1564 1565 1566 1567 1568 1569 1570 1571 1572 1573 1574 1575 1576 1577 1578 1579 1580 1581 1582 1583 1584 1585 1586 1587 1588 1589 1590 1591 1592 1593 1594 1595 1596 1597 1598 1599 1600 1601 1602 1603 1604 1605 1606 1607 1608 1609 1610 1611 1612 1613 1614 1615 1616 1617 1618 1619 1620 1621 1622 1623 1624 1625 1626 1627 1628 1629 1630 1631 1632 1633 1634 1635 1636 1637 1638 1639 1640 1641 1642 1643 1644 1645 1646 1647 1648 1649 1650 1651 1652 1653 1654 1655 1656 1657 1658 1659 1660 1661 1662 1663 1664 1665 1666 1667 1668 1669 1670 1671 1672 1673 1674 1675 1676 1677 1678 1679 1680 1681 1682 1683 1684 1685 1686 1687 1688 1689 1690 1691 1692 1693 1694 1695 1696 1697 1698 1699 1700 1701 1702 1703 1704 1705 1706 1707 1708 1709 1710 1711 1712 1713 1714 1715 1716 1717 1718 1719 1720 1721 1722 1723 1724 1725 1726 1727 1728 1729 1730 1731 1732 1733 1734 1735 1736 1737 1738 1739 1740 1741 1742 1743 1744 1745 1746 1747 1748 1749 1750 1751 1752 1753 1754 1755 1756 1757 1758 1759 1760 1761 1762 1763 1764 1765 1766 1767 1768 1769 1770 1771 1772 1773 1774 1775 1776 1777 1778 1779 1780 1781 1782 1783 1784 1785 1786 1787 1788 1789 1790 1791 1792 1793 1794 1795 1796 1797 1798 1799 1800 1801 1802 1803 1804 1805 1806 1807 1808 1809 1810 1811 1812 1813 1814 1815 1816 1817 1818 1819 1820 1821 1822 1823 1824 1825 1826 1827 1828 1829 1830 1831 1832 1833 1834 1835 1836 1837 1838 1839 1840 1841 1842 1843 1844 1845 1846 1847 1848 1849 1850 1851 1852 1853 1854 1855 1856 1857 1858 1859 1860 1861 1862 1863 1864 1865 1866 1867 1868 1869 1870 1871 1872 1873 1874 1875 1876 1877 1878 1879 1880 1881 1882 1883 1884 1885 1886 1887 1888 1889 1890 1891 1892 1893 1894 1895 1896 1897 1898 1899 1900 1901 1902 1903 1904 1905 1906 1907 1908 1909 1910 1911 1912 1913 1914 1915 1916 1917 1918 1919 1920 1921 1922 1923 1924 1925 1926 1927 1928 1929 1930 1931 1932 1933 1934 1935 1936 1937 1938 1939 1940 1941 1942 1943 1944 1945 1946 1947 1948 1949 1950 1951 1952 1953 1954 1955 1956 1957 1958 1959 1960 1961 1962 1963 1964 1965 1966 1967 1968 1969 1970 1971 1972 1973 1974 1975 1976 1977 1978 1979 1980 1981 1982 1983 1984 1985 1986 1987 1988 1989 1990 1991 1992 1993 1994 1995 1996 1997 1998 1999 2000 2001 2002 2003 2004 2005 2006 2007 2008 2009 2010 2011 2012 2013 2014 2015 2016 2017 2018 2019 2020 2021 2022 2023 2024 2025 2026 2027 2028 2029 2030 2031 2032 2033 2034 2035 2036 2037 2038 2039 2040 2041 2042 2043 2044 2045 2046 2047 2048 2049 2050 2051 2052 2053 2054 2055 2056 2057 2058 2059 2060 2061 2062 2063 2064 2065 2066 2067 2068 2069 2070 2071 2072 2073 2074 2075 2076 2077 2078 2079 2080 2081 2082 2083 2084 2085 2086 2087 2088 2089 2090 2091 2092 2093 2094 2095 2096 2097 2098 2099 2100 2101 2102 2103 2104 2105 2106 2107 2108 2109 2110 2111 2112 2113 2114 2115 2116 2117 2118 2119 2120 2121 2122 2123 2124 2125 2126 2127 2128 2129 2130 2131 2132 2133 2134 2135 2136 2137 2138 2139 2140 2141 2142 2143 2144 2145 2146 2147 2148 2149 2150 2151 2152 2153 2154 2155 2156 2157 2158 2159 2160 2161 2162 2163 2164 2165 2166 2167 2168 2169 2170 2171 2172 2173 2174 2175 2176 2177 2178 2179 2180 2181 2182 2183 2184 2185 2186 2187 2188 2189 2190 2191 2192 2193 2194 2195 2196 2197 2198 2199 2200 2201 2202 2203 2204 2205 2206 2207 2208 2209 2210 2211 2212 2213 2214 2215 2216 2217 2218 2219 2220 2221 2222 2223 2224 2225 2226 2227 2228 2229 2230 2231 2232 2233 2234 2235 2236 2237 2238 2239 2240 2241 2242 2243 2244 2245 2246 2247 2248 2249 2250 2251 2252 2253 2254 2255 2256 2257 2258 2259 2260 2261 2262 2263 2264 2265 2266 2267 2268 2269 2270 2271 2272 2273 2274 2275 2276 2277 2278 2279 2280 2281 2282 2283 2284 2285 2286 2287 2288 2289 2290 2291 2292 2293 2294 2295 2296 2297 2298 2299 2300 2301 2302 2303 2304 2305 2306 2307 2308 2309 2310 2311 2312 2313 2314 2315 2316 2317 2318 2319 2320 2321 2322 2323 2324 2325 2326 2327 2328 2329 2330 2331 2332 2333 2334 2335 2336 2337 2338 2339 2340 2341 2342 2343 2344 2345 2346 2347 2348 2349 2350 2351 2352 2353 2354 2355 2356 2357 2358 2359 2360 2361 2362 2363 2364 2365 2366 2367 2368 2369 2370 2371 2372 2373 2374 2375 2376 2377 2378 2379 2380 2381 2382 2383 2384 2385 2386 2387 2388 2389 2390 2391 2392 2393 2394 2395 2396 2397 2398 2399 2400 2401 2402 2403 2404 2405 2406 2407 2408 2409 2410 2411 2412 2413 2414 2415 2416 2417 2418 2419 2420 2421 2422 2423 2424 2425 2426 2427 2428 2429 2430 2431 2432 2433 2434 2435 2436 2437 2438 2439 2440 2441 2442 2443 2444 2445 2446 2447 2448 2449 2450 2451 2452 2453 2454 2455 2456 2457 2458 2459 2460 2461 2462 2463 2464 2465 2466 2467 2468 2469 2470 2471 2472 2473 2474 2475 2476 2477 2478 2479 2480 2481 2482 2483 2484 2485 2486 2487 2488 2489 2490 2491 2492 2493 2494 2495 2496 2497 2498 2499 2500 2501 2502 2503 2504 2505 2506 2507 2508 2509 2510 2511 2512 2513 2514 2515 2516 2517 2518 2519 2520 2521 2522 2523 2524 2525 2526 2527 2528 2529 2530 2531 2532 2533 2534 2535 2536 2537 2538 2539 2540 2541 2542 2543 2544 2545 2546 2547 2548 2549 2550 2551 2552 2553 2554 2555 2556 2557 2558 2559 2560 2561 2562 2563 2564 2565 2566 2567 2568 2569 2570 2571 2572 2573 2574 2575 2576 2577 2578 2579 2580 2581 2582 2583 2584 2585 2586 2587 2588 2589 2590 2591 2592 2593 2594 2595 2596 2597 2598 2599 2600 2601 2602 2603 2604 2605 2606 2607 2608 2609 2610 2611 2612 2613 2614 2615 2616 2617 2618 2619 2620 2621 2622 2623 2624 2625 2626 2627 2628 2629 2630 2631 2632 2633 2634 2635 2636 2637 2638 2639 2640 2641 2642 2643 2644 2645 2646 2647 2648 2649 2650 2651 2652 2653 2654 2655 2656 2657 2658 2659 2660 2661 2662 2663 2664 2665 2666 2667 2668 2669 2670 2671 2672 2673 2674 2675 2676 2677 2678 2679 2680 2681 2682 2683 2684 2685 2686 2687 2688 2689 2690 2691 2692 2693 2694 2695 2696 2697 2698 2699 2700 2701 2702 2703 2704 2705 2706 2707 2708 2709 2710 2711 2712 2713 2714 2715 2716 2717 2718 2719 2720 2721 2722 2723 2724 2725 2726 2727 2728 2729 2730 2731 2732 2733 2734 2735 2736 2737 2738 2739 2740 2741 2742 2743 2744 2745 2746 2747 2748 2749 2750 2751 2752 2753 2754 2755 2756 2757 2758 2759 2760 2761 2762 2763 2764 2765 2766 2767 2768 2769 2770 2771 2772 2773 2774 2775 2776 2777 2778 2779 2780 2781 2782 2783 2784 2785 2786 2787 2788 2789 2790 2791 2792 2793 2794 2795 2796 2797 2798 2799 2800 2801 2802 2803 2804 2805 2806 2807 2808 2809 2810 2811 2812 2813 2814 2815 2816 2817 2818 2819 2820 2821 2822 2823 2824 2825 2826 2827 2828 2829 2830 2831 2832 2833 2834 2835 2836 2837 2838 2839 2840 2841 2842 2843 2844 2845 2846 2847 2848 2849 2850 2851 2852 2853 2854 2855 2856 2857 2858 2859 2860 2861 2862 2863 2864 2865 2866 2867 2868 2869 2870 2871 2872 2873 2874 2875 2876 2877 2878 2879 2880 2881 2882 2883 2884 2885 2886 2887 2888 2889 2890 2891 2892 2893 2894 2895 2896 2897 2898 2899 2900 2901 2902 2903 2904 2905 2906 2907 2908 2909 2910 2911 2912 2913 2914 2915 2916 2917 2918 2919 2920 2921 2922 2923 2924 2925 2926 2927 2928 2929 2930 2931 2932 2933 2934 2935 2936 2937 2938 2939 2940 2941 2942 2943 2944 2945 2946 2947 2948 2949 2950 2951 2952 2953 2954 2955 2956 2957 2958 2959 2960 2961 2962 2963 2964 2965 2966 2967 2968 2969 2970 2971 2972 2973 2974 2975 2976 2977 2978 2979 2980 2981 2982 2983 2984 2985 2986 2987 2988 2989 2990 2991 2992 2993 2994 2995 2996 2997 2998 2999 3000 3001 3002 3003 3004 3005 3006 3007 3008 3009 3010 3011 3012 3013 3014 3015 3016 3017 3018 3019 3020 3021 3022 3023 3024 3025 3026 3027 3028 3029 3030 3031 3032 3033 3034 3035 3036 3037 3038 3039 3040 3041 3042 3043 3044 3045 3046 3047 3048 3049 3050 3051 3052 3053 3054 3055 3056 3057 3058 3059 3060 3061 3062 3063 3064 3065 3066 3067 3068 3069 3070 3071 3072 3073 3074 3075 3076 3077 3078 3079 3080 3081 3082 3083 3084 3085 3086 3087 3088 3089 3090 3091 3092 3093 3094 3095 3096 3097 3098 3099 3100 3101 3102 3103 3104 3105 3106 3107 3108 3109 3110 3111 3112 3113 3114 3115 3116 3117 3118 3119 3120 3121 3122 3123 3124 3125 3126 3127 3128 3129 3130 3131 3132 3133 3134 3135 3136 3137 3138 3139 3140 3141 
</DataArray>
<DataArray type="UInt32" Name="offsets" format="ascii">
2 4 6 8 10 12 14 16 18 20 22 24 26 28 30 32 34 36 38 40 43 46 49 52 55 58 61 64 67 70 73 76 79 82 85 88 91 94 97 100 103 106 109 112 115 118 121 124 127 130 133 136 139 142 145 148 151 154 157 160 163 166 169 172 175 178 181 184 187 190 193 196 199 202 205 208 211 214 217 220 223 226 229 232 235 238 241 244 247 250 253 256 259 262 265 268 271 274 277 280 283 286 289 292 295 298 301 304 307 310 313 316 319 322 325 328 331 334 337 340 343 346 349 352 355 358 361 364 367 370 373 376 379 382 385 388 391 394 397 400 403 406 409 412 415 418 421 424 427 430 433 436 439 442 445 448 451 454 457 460 463 466 469 472 475 478 481 484 487 490 493 496 499 502 505 508 511 514 517 520 523 526 529 532 535 538 541 544 547 550 553 556 559 562 565 568 571 574 577 580 583 586 589 592 595 598 601 604 607 610 613 616 619 622 625 628 631 634 637 640 643 646 649 652 655 658 661 664 667 670 673 676 679 682 685 688 691 694 697 700 703 706 709 712 715 718 721 724 727 730 733 736 739 742 745 748 751 754 757 760 763 766 769 772 775 778 781 784 787 790 793 796 799 802 805 808 811 814 817 820 823 826 829 832 835 838 841 844 847 850 853 856 859 862 865 868 871 874 877 880 883 886 889 892 895 898 901 904 907 910 913 916 919 922 925 928 931 934 937 940 943 946 949 952 955 958 961 964 967 970 973 976 979 982 985 988 991 994 997 1000 1003 1006 1009 1012 1015 1018 1021 1024 1027 1030 1033 1036 1039 1042 1045 1048 1051 1054 1057 1060 1063 1066 1069 1072 1075 1078 1081 1084 1087 1090 1093 1096 1099 1102 1105 1108 1111 1114 1117 1120 1123 1126 1129 1132 1135 1138 1141 1144 1147 1150 1153 1156 1159 1162 1165 1168 1171 1174 1177 1180 1183 1186 1189 1192 1195 1198 1201 1204 1207 1210 1213 1216 1219 1222 1225 1228 1231 1234 1237 1240 1243 1246 1249 1252 1255 1258 1261 1264 1267 1270 1273 1276 1279 1282 1285 1288 1291 1294 1297 1300 1303 1306 1309 1312 1315 1318 1321 1324 1327 1330 1333 1336 1339 1342 1345 1348 1351 1354 1357 1360 1363 1366 1369 1372 1375 1378 1381 1384 1387 1390 1393 1396 1399 1402 1405 1408 1411 1414 1417 1420 1423 1426 1429 1432 1435 1438 1441 1444 1447 1450 1453 1456 1459 1462 1465 1468 1471 1474 1477 1480 1483 1486 1489 1492 1495 1498 1501 1504 1507 1510 1513 1516 1519 1522 1525 1528 1531 1534 1537 1540 1543 1546 1549 1552 1555 1558 1561 1564 1567 1570 1573 1576 1579 1582 1585 1588 1591 1594 1597 1600 1603 1606 1609 1612 1615 1618 1621 1624 1627 1630 1633 1636 1639 1642 1645 1648 1651 1654 1657 1660 1663 1666 1669 1672 1675 1678 1681 1684 1687 1690 1693 1696 1699 1702 1705 1708 1711 1714 1717 1720 1723 1726 1729 1732 1735 1738 1741 1744 1747 1750 1753 1756 1759 1762 1765 1768 1771 1774 1777 1780 1783 1786 1789 1792 1795 1798 1801 1804 1807 1810 1813 1816 1819 1822 1825 1828 1831 1834 1837 1840 1843 1846 1849 1852 1855 1858 1861 1864 1867 1870 1873 1876 1879 1882 1885 1888 1891 1894 1897 1900 1903 1906 1909 1912 1915 1918 1921 1924 1927 1930 1933 1936 1939 1942 1945 1948 1951 1954 1957 1960 1963 1966 1969 1972 1975 1978 1981 1984 1987 1990 1993 1996 1999 2002 2005 2008 2011 2014 2017 2020 2023 2026 2029 2032 2035 2038 2041 2044 2047 2050 2053 2056 2059 2062 2065 2068 2071 2074 2077 2080 2083 2086 2089 2092 2095 2098 2101 2104 2107 2110 2113 2116 2119 2122 2125 2128 2131 2134 2137 2140 2143 2146 2149 2152 2155 2158 2161 2164 2167 2170 2173 2176 2179 2182 2185 2188 2191 2194 2197 2200 2203 2206 2209 2212 2215 2218 2221 2224 2227 2230 2233 2236 2239 2242 2245 2248 2251 2254 2257 2260 2263 2266 2269 2272 2275 2278 2281 2284 2287 2290 2293 2296 2299 2302 2305 2308 2311 2314 2317 2320 2323 2326 2329 2332 2335 2338 2341 2344 2347 2350 2353 2356 2359 2362 2365 2368 2371 2374 2377 2380 2383 2386 2389 2392 2395 2398 2401 2404 2407 2410 2413 2416 2419 2422 2425 2428 2431 2434 2437 2440 2443 2446 2449 2452 2455 2458 2461 2464 2467 2470 2473 2476 2479 2482 2485 2488 2491 2494 2497 2500 2503 2506 2509 2512 2515 2518 2521 2524 2527 2530 2533 2536 2539 2542 2545 2548 2551 2554 2557 2560 2563 2566 2569 2572 2575 2578 2581 2584 2587 2590 2593 2596 2599 2602 2605 2608 2611 2614 2617 2620 2623 2626 2629 2632 2635 2638 2641 2644 2647 2650 2653 2656 2659 2662 2665 2668 2671 2674 2677 2680 2683 2686 2689 2692 2695 2698 2701 2704 2707 2710 2713 2716 2719 2722 2725 2728 2731 2734 2737 2740 2743 2746 2749 2752 2755 2758 2761 2764 2767 2770 2773 2776 2779 2782 2785 2788 2791 2794 2797 2800 2803 2806 2809 2812 2815 2818 2821 2824 2827 2830 2833 2836 2839 2842 2845 2848 2851 2854 2857 2860 2863 2866 2869 2872 2875 2878 2881 2884 2887 2890 2893 2896 2899 2902 2905 2908 2911 2914 2917 2920 2923 2926 2929 2932 2935 2938 2941 2944 2947 2950 2953 2956 2959 2962 2965 2968 2971 2974 2977 2980 2983 2986 2989 2992 2995 2998 3001 3004 3007 3010 3013 3016 3019 3022 3025 3028 3031 3034 3037 3040 3043 3046 3049 3052 3055 3058 3061 3064 3067 3070 3073 3076 3079 3082 3085 3088 3091 3094 3097 3100 3103 3106 3109 3112 3115 3118 3121 3124 3127 3130 3133 3136 3139 3142 
</DataArray>
<DataArray type="UInt32" Name="types" format="ascii">
3 3 3 3 3 3 3 3 3 3 3 3 3 3 3 3 3 3 3 3 5 5 5 5 5 5 5 5 5 5 5 5 5 5 5 5 5 5 5 5 5 5 5 5 5 5 5 5 5 5 5 5 5 5 5 5 5 5 5 5 5 5 5 5 5 5 5 5 5 5 5 5 5 5 5 5 5 5 5 5 5 5 5 5 5 5 5 5 5 5 5 5 5 5 5 5 5 5 5 5 5 5 5 5 5 5 5 5 5 5 5 5 5 5 5 5 5 5 5 5 5 5 5 5 5 5 5 5 5 5 5 5 5 5 5 5 5 5 5 5 5 5 5 5 5 5 5 5 5 5 5 5 5 5 5 5 5 5 5 5 5 5 5 5 5 5 5 5 5 5 5 5 5 5 5 5 5 5 5 5 5 5 5 5 5 5 5 5 5 5 5 5 5 5 5 5 5 5 5 5 5 5 5 5 5 5 5 5 5 5 5 5 5 5 5 5 5 5 5 5 5 5 5 5 5 5 5 5 5 5 5 5 5 5 5 5 5 5 5 5 5 5 5 5 5 5 5 5 5 5 5 5 5 5 5 5 5 5 5 5 5 5 5 5 5 5 5 5 5 5 5 5 5 5 5 5 5 5 5 5 5 5 5 5 5 5 5 5 5 5 5 5 5 5 5 5 5 5 5 5 5 5 5 5 5 5 5 5 5 5 5 5 5 5 5 5 5 5 5 5 5 5 5 5 5 5 5 5 5 5 5 5 5 5 5 5 5 5 5 5 5 5 5 5 5 5 5 5 5 5 5 5 5 5 5 5 5 5 5 5 5 5 5 5 5 5 5 5 5 5 5 5 5 5 5 5 5 5 5 5 5 5 5 5 5 5 5 5 5 5 5 5 5 5 5 5 5 5 5 5 5 5 5 5 5 5 5 5 5 5 5 5 5 5 5 5 5 5 5 5 5 5 5 5 5 5 5 5 5 5 5 5 5 5 5 5 5 5 5 5 5 5 5 5 5 5 5 5 5 5 5 5 5 5 5 5 5 5 5 5 5 5 5 5 5 5 5 5 5 5 5 5 5 5 5 5 5 5 5 5 5 5 5 5 5 5 5 5 5 5 5 5 5 5 5 5 5 5 5 5 5 5 5 5 5 5 5 5 5 5 5 5 5 5 5 5 5 5 5 5 5 5 5 5 5 5 5 5 5 5 5 5 5 5 5 5 5 5 5 5 5 5 5 5 5 5 5 5 5 5 5 5 5 5 5 5 5 5 5 5 5 5 5 5 5 5 5 5 5 5 5 5 5 5 5 5 5 5 5 5 5 5 5 5 5 5 5 5 5 5 5 5 5 5 5 5 5 5 5 5 5 5 5 5 5 5 5 5 5 5 5 5 5 5 5 5 5 5 5 5 5 5 5 5 5 5 5 5 5 5 5 5 5 5 5 5 5 5 5 5 5 5 5 5 5 5 5 5 5 5 5 5 5 5 5 5 5 5 5 5 5 5 5 5 5 5 5 5 5 5 5 5 5 5 5 5 5 5 5 5 5 5 5 5 5 5 5 5 5 5 5 5 5 5 5 5 5 5 5 5 5 5 5 5 5 5 5 5 5 5 5 5 5 5 5 5 5 5 5 5 5 5 5 5 5 5 5 5 5 5 5 5 5 5 5 5 5 5 5 5 5 5 5 5 5 5 5 5 5 5 5 5 5 5 5 5 5 5 5 5 5 5 5 5 5 5 5 5 5 5 5 5 5 5 5 5 5 5 5 5 5 5 5 5 5 5 5 5 5 5 5 5 5 5 5 5 5 5 5 5 5 5 5 5 5 5 5 5 5 5 5 5 5 5 5 5 5 5 5 5 5 5 5 5 5 5 5 5 5 5 5 5 5 5 5 5 5 5 5 5 5 5 5 5 5 5 5 5 5 5 5 5 5 5 5 5 5 5 5 5 5 5 5 5 5 5 5 5 5 5 5 5 5 5 5 5 5 5 5 5 5 5 5 5 5 5 5 5 5 5 5 5 5 5 5 5 5 5 5 5 5 5 5 5 5 5 5 5 5 5 5 5 5 5 5 5 5 5 5 5 5 5 5 5 5 5 5 5 5 5 5 5 5 5 5 5 5 5 5 5 5 5 5 5 5 5 5 5 5 5 5 5 5 5 5 5 5 5 5 5 5 5 5 5 5 5 5 5 5 5 5 5 5 5 5 5 5 5 5 5 5 5 5 5 5 5 5 5 5 5 5 5 5 5 5 5 5 5 5 5 5 5 5 5 5 5 5 5 5 5 5 5 5 5 5 5 5 5 5 5 5 5 5 5 5 5 5 5 5 5 5 5 5 5 5 5 5 5 5 5 5 5 5 5 5 5 5 5 5 5 5 5 5 5 
</DataArray>
</Cells>
<PointData Scalars="" Vectors="displacement," Tensors="">
<DataArray type="Float64" Name="displacement" NumberOfComponents="3" format="ascii">
-3.082591649293122e-05 -2.6423453412290987e-05 0 -3.3325437511558053e-05 -3.2291681413023046e-05 0 -3.3325437511558053e-05 -3.2291681413023046e-05 0 -3.6018829723128487e-05 -4.047860711545562e-05 0 -3.6018829723128487e-05 -4.047860711545562e-05 0 -3.9003583901768237e-05 -5.0698301802609889e-05 0 -3.9003583901768237e-05 -5.0698301802609889e-05 0 -4.1759973504035838e-05 -6.0999067768996574e-05 0 -4.1759973504035838e-05 -6.0999067768996574e-05 0 -4.4188554542665e-05 -6.9954438261855668e-05 0 -4.4188554542665e-05 -6.9954438261855668e-05 0 -4.645282787459066e-05 -7.9485842545660372e-05 0 -4.645282787459066e-05 -7.9485842545660372e-05 0 -4.869604899189133e-05 -8.770601873713999e-05 0 -4.869604899189133e-05 -8.770601873713999e-05 0 -5.070549226053848e-05 -9.6789030624114001e-05 0 -5.070549226053848e-05 -9.6789030624114001e-05 0 -5.2149975705623343e-05 -0.00010400814128661081 0 -5.2149975705623343e-05 -0.00010400814128661081 0 -5.4150868044702715e-05 -0.0001062601911743984 0 -9.6926238229976239e-06 3.0834833398316446e-05 0 -6.4180330179240461e-06 4.114436400630488e-05 0 -6.4180330179240461e-06 4.114436400630488e-05 0 -8.3746172339779601e-06 5.1897573401653458e-05 0 -8.3746172339779601e-06 5.1897573401653458e-05 0 -1.0800874768606289e-05 5.9671913890211166e-05 0 -1.0800874768606289e-05 5.9671913890211166e-05 0 -1.3578007209291089e-05 7.4328193531873196e-05 0 -1.3578007209291089e-05 7.4328193531873196e-05 0 -1.6651875164899846e-05 8.6360254440686097e-05 0 -1.6651875164899846e-05 8.6360254440686097e-05 0 -1.9932030238224232e-05 9.8438290572835102e-05 0 -1.9932030238224232e-05 9.8438290572835102e-05 0 -2.3220105375243102e-05 0.00010985082265987855 0 -2.3220105375243102e-05 0.00010985082265987855 0 -2.7254212228652479e-05 0.00012503645840263294 0 -2.7254212228652479e-05 0.00012503645840263294 0 -2.7448568285463865e-05 0.00013569754090423687 0 -2.7448568285463865e-05 0.00013569754090423687 0 -4.0683554107606461e-05 0.00013554484958161952 0 -2.5453148609263901e-05 -1.2409661297948492e-05 0 -1.9813699544698445e-05 -6.7925738756383547e-06 0 -2.3357937637602614e-05 -1.1391842305120177e-05 0 -2.3275072393729459e-05 -8.5572322620549525e-06 0 -1.9813699544698445e-05 -6.7925738756383547e-06 0 -2.5453148609263901e-05 -1.2409661297948492e-05 0 -4.1508490784767701e-05 -1.9937503101457042e-05 0 -3.716418215974297e-05 -1.563139201913469e-05 0 -3.778263751967568e-05 -1.9848053375216509e-05 0 -3.778263751967568e-05 -1.9848053375216509e-05 0 -3.716418215974297e-05 -1.563139201913469e-05 0 -3.4199564739319357e-05 -1.8141597874420342e-05 0 -1.8010345133518606e-05 6.7267858593137751e-06 0 -7.847406682739364e-06 2.1150969390780497e-06 0 -1.6247235826238239e-05 4.3296156956401391e-06 0 -1.4309668881287697e-05 -7.2030431473770993e-06 0 -1.2587076792337949e-05 -5.5044109171697868e-06 0 -6.1410100685393819e-06 -2.7650260624277805e-06 0 -9.4090314880815116e-06 4.6850679464675273e-06 0 -7.847406682739364e-06 2.1150969390780497e-06 0 -1.8010345133518606e-05 6.7267858593137751e-06 0 -7.7612081003301765e-06 -4.6704095253661799e-06 0 -1.4309668881287697e-05 -7.2030431473770993e-06 0 -6.1410100685393819e-06 -2.7650260624277805e-06 0 -3.4213862476172349e-05 -1.484692125741258e-05 0 -4.1184135766225923e-05 -1.8367033209683869e-05 0 -3.3022361181452412e-05 -1.3827051688708435e-05 0 -5.8833532044143399e-05 2.0341475467814318e-05 0 -4.7358135331628549e-05 1.4970159144112967e-05 0 -4.6693762256816459e-05 1.3960254608165072e-05 0 -6.5242130712541554e-06 5.7589131131346169e-07 0 -8.3946635520777655e-06 1.6026759414462858e-06 0 -7.9136451042739449e-06 6.3729594625085826e-07 0 -1.0634988575057039e-05 2.6438680282822118e-06 0 -7.9136451042739466e-06 6.3729594625085837e-07 0 -8.3946635520777655e-06 1.6026759414462858e-06 0 -8.2014883455536924e-06 -1.2438128941171807e-06 0 -1.0961799714089816e-05 -2.2785676349505173e-06 0 -8.0620403296739792e-06 -9.1964576828464559e-07 0 -3.5098775019254716e-09 -5.6466237272836292e-10 0 -2.9313590017982061e-09 -4.1196524377808744e-10 0 -3.155490391607238e-06 -8.1102269200178649e-07 0 -2.9328707290787753e-09 1.2245714800693326e-10 0 -3.293472803695191e-09 1.0392801297220397e-10 0 -3.1479733683022884e-06 -4.8440559754281316e-08 0 -4.6060068561830309e-05 -2.5480135222672347e-05 0 -4.6338674182240717e-05 -2.5041662542520836e-05 0 -4.1508490784767701e-05 -1.9937503101457042e-05 0 -1.1511755247678826e-05 3.0399534207413113e-05 0 -1.5725160948573391e-05 2.0158012760279421e-05 0 -1.8654943398682414e-05 1.9841984848413283e-05 0 -6.7932759605252829e-05 -0.00016748672457485105 0 -5.9337808633868122e-05 -0.00015727975048859558 0 -6.7455851059720239e-05 -0.00015432604391109298 0 -8.3655013336406345e-05 0.00034251442942977883 0 -0.00010460425495321917 0.00032099456132599833 0 -8.2775665924542566e-05 0.00031170220263447508 0 -8.3655013336406345e-05 0.00034251442942977883 0 -8.2775665924542566e-05 0.00031170220263447508 0 -6.2216635003934338e-05 0.00031850917173100899 0 -6.7932759605252829e-05 -0.00016748672457485105 0 -6.7455851059720239e-05 -0.00015432604391109298 0 -7.645102248213607e-05 -0.00015834373091293835 0 -0.0001080938715260146 0.0002952807670351455 0 -8.0006596307814046e-05 0.00028183251645689291 0 -8.2775665924542566e-05 0.00031170220263447508 0 -5.6888148183039869e-05 -0.0001455594571582996 0 -6.7202576653434365e-05 -0.00014070763793026748 0 -6.7455851059720239e-05 -0.00015432604391109298 0 -8.2014883455536924e-06 -1.2438128941171807e-06 0 -8.0620403296739792e-06 -9.1964576828464559e-07 0 -5.605110826148861e-06 -3.8598638198756951e-07 0 -1.1511755247678826e-05 3.0399534207413113e-05 0 -2.1325935067104784e-05 2.840595004494065e-05 0 -1.5725160948573391e-05 2.0158012760279421e-05 0 -0.00012473271309568803 9.5072582789492785e-05 0 -0.00011283059958664745 7.2354768542832123e-05 0 -9.3589186479616215e-05 7.6930431877485228e-05 0 -7.1440791411137735e-05 -4.4280842563930975e-05 0 -7.8185814902492447e-05 -5.4625953970223257e-05 0 -6.3444712673045236e-05 -4.6379003482548882e-05 0 -3.9903067689989567e-05 -2.1827900056489601e-05 0 -4.6060068561830309e-05 -2.5480135222672347e-05 0 -4.1508490784767701e-05 -1.9937503101457042e-05 0 -6.848636540966842e-05 6.3286436824971991e-05 0 -5.9864336090304562e-05 4.028152005286527e-05 0 -5.1040655492579946e-05 4.2285156166387248e-05 0 -3.6750067182730725e-05 1.5009808058018786e-05 0 -4.7419834495562564e-05 2.0922145850392829e-05 0 -4.3943807163038626e-05 1.44865610094145e-05 0 -3.263006414431998e-05 -5.7866360751475526e-06 0 -2.8715132495844485e-05 -1.4735193635543464e-06 0 -3.4416962694593026e-05 -9.086043585884653e-06 0 -6.5304599096370274e-05 -0.0001263384567035975 0 -5.7209854106645497e-05 -0.00012155757688183695 0 -6.4592247232499062e-05 -0.00011078250028365579 0 -7.9553157915019767e-05 0.00025149480877044536 0 -9.7643642090990159e-05 0.0002431782708763619 0 -7.4134927005648667e-05 0.00021708216337299388 0 -6.4592247232499062e-05 -0.00011078250028365579 0 -5.7209854106645497e-05 -0.00012155757688183695 0 -5.5252007773659543e-05 -0.0001080894900150536 0 -7.4134927005648667e-05 0.00021708216337299388 0 -9.7643642090990159e-05 0.0002431782708763619 0 -9.5930075145141518e-05 0.00021786876657073085 0 -3.6750067182730725e-05 1.5009808058018786e-05 0 -4.3943807163038626e-05 1.44865610094145e-05 0 -3.2445097506253951e-05 1.0280861084493176e-05 0 -3.3746543196280774e-05 -1.061551035826037e-05 0 -2.8979598319926327e-05 1.2899971241186671e-06 0 -3.263006414431998e-05 -5.7866360751475526e-06 0 -6.848636540966842e-05 6.3286436824971991e-05 0 -7.6093139699189003e-05 5.5267816196161701e-05 0 -5.9864336090304568e-05 4.028152005286527e-05 0 -1.1511755247678826e-05 3.0399534207413113e-05 0 -7.889694410453172e-07 7.5987814459403839e-05 0 -2.4948214951101564e-05 7.9850253870937255e-05 0 -6.1508708675940015e-05 -5.5027806135549895e-05 0 -5.7315816351435055e-05 -5.0861741094031885e-05 0 -6.1585404516579102e-05 -5.2987726636033732e-05 0 -4.6023509105211008e-05 -4.7819466369576201e-05 0 -4.4585909407984621e-05 -4.4934117181715503e-05 0 -4.64462370303949e-05 -4.9910565847583763e-05 0 -2.5261294955045046e-05 4.9503248141132054e-06 0 -2.8715132495844485e-05 -1.4735193635543464e-06 0 -3.263006414431998e-05 -5.7866360751475526e-06 0 -4.0399024189779998e-05 -0.00014965383178366674 0 -4.7396071985218857e-05 -0.00014181456022928997 0 -5.0622238846739151e-05 -0.00015308774651888384 0 -0.00015705529655339354 0.00031928168950090617 0 -0.00013309232934616768 0.00029268616968124449 0 -0.00012835616342846105 0.00031612706325672205 0 -2.558164985052181e-09 -3.2677725622986884e-10 0 -2.2519357714773855e-06 -3.5220256771696467e-07 0 -2.4178698003052524e-06 -5.7889885598459401e-07 0 -2.6676245751193813e-09 1.4635638977132473e-10 0 -2.6074491420479353e-06 8.1827535585901442e-08 0 -2.5332433326794045e-06 1.6295271615286522e-07 0 -6.848636540966842e-05 6.3286436824971991e-05 0 -5.1976524099039861e-05 6.0205266256311572e-05 0 -6.5388209753915955e-05 8.9886655048161831e-05 0 -4.4144635044061678e-05 7.9404154342602041e-05 0 -6.5388209753915955e-05 8.9886655048161831e-05 0 -5.1976524099039861e-05 6.0205266256311572e-05 0 -2.9185793865315251e-05 5.0393654745903352e-05 0 -1.1511755247678826e-05 3.0399534207413113e-05 0 -2.4948214951101564e-05 7.9850253870937255e-05 0 -0.00015686384674160739 0.00026612051610339576 0 -0.0001228013606851541 0.00026670415392799143 0 -0.00013309232934616768 0.00029268616968124449 0 -3.5534153268871182e-05 -0.00012538887929061256 0 -4.9267709224318177e-05 -0.00013055531778386392 0 -4.7396071985218864e-05 -0.00014181456022928994 0 -4.5491660095551003e-05 -4.4751783751786899e-05 0 -4.5424283453225949e-05 -4.1832329341927545e-05 0 -4.812900458934337e-05 -4.525630205567772e-05 0 -3.1397155076470733e-05 -6.1559229153838499e-06 0 -3.4416962694593026e-05 -9.086043585884653e-06 0 -2.8715132495844485e-05 -1.4735193635543464e-06 0 -3.7764561351794027e-05 -1.4635160476173402e-05 0 -4.0615376263934679e-05 -2.0033618179270434e-05 0 -3.8220269788710113e-05 -1.9351578730328974e-05 0 -3.4729167939181793e-05 -2.8400349467093399e-05 0 -3.4445741286342422e-05 -2.5084399522162402e-05 0 -3.9164729512904573e-05 -3.0914839211843188e-05 0 -0.00014362526176147966 0.0001495202834801733 0 -0.00011453131297874487 0.00013037115722445655 0 -0.000125147153634202 0.00016578302596682564 0 -9.8919850955842391e-05 -0.00013361389203878147 0 -8.868653601534612e-05 -0.00014596655679051406 0 -8.4704811848973973e-05 -0.00013461043037982942 0 -7.7030905585268374e-06 0.00025202209693368495 0 -3.3127780896788249e-05 0.00028571090072345719 0 -3.800211188887507e-05 0.000262755008665668 0 -3.8097130517604053e-05 -0.00013752493237426396 0 -4.7396071985218864e-05 -0.00014181456022928994 0 -4.0399024189779998e-05 -0.00014965383178366674 0 -0.00015705529655339354 0.00031928168950090617 0 -0.00015714449432547062 0.00029313131273054201 0 -0.00013309232934616768 0.00029268616968124449 0 -5.4069896756039611e-05 -4.5033183668685459e-05 0 -5.4270993400838397e-05 -4.1846882274269721e-05 0 -5.681346452798355e-05 -4.6105804680667531e-05 0 -3.1093764484774383e-05 -2.5472921585446936e-05 0 -3.4391967095258018e-05 -3.0355454923135939e-05 0 -3.6089271754131174e-05 -4.1676752826317268e-05 0 -5.4069896756039611e-05 -4.5033183668685459e-05 0 -5.2042973590078675e-05 -4.169398791068879e-05 0 -5.4270993400838397e-05 -4.1846882274269721e-05 0 -3.7851235299695127e-05 -2.5827706874561386e-05 0 -3.9164729512904573e-05 -3.0914839211843188e-05 0 -3.4445741286342422e-05 -2.5084399522162402e-05 0 -5.622290462267346e-05 -6.8073787345238998e-05 0 -6.0313168034301158e-05 -8.5340695796992647e-05 0 -4.9992239938998037e-05 -7.1632333744528712e-05 0 -4.5832083701017328e-09 2.5264790307200596e-10 0 -6.1410100685393819e-06 -2.7650260624277805e-06 0 -4.2821067254002406e-06 -1.2783690008163548e-06 0 -5.9517833550426069e-09 -6.4957210990019968e-10 0 -5.3909542675743188e-06 3.6453534742018596e-07 0 -7.847406682739364e-06 2.1150969390780497e-06 0 -6.1508708675940015e-05 -5.5027806135549895e-05 0 -5.7551942797938621e-05 -5.3835935427311256e-05 0 -5.7315816351435055e-05 -5.0861741094031885e-05 0 -4.7180493734587922e-05 -5.1176257669422948e-05 0 -4.6023509105211008e-05 -4.7819466369576201e-05 0 -4.64462370303949e-05 -4.9910565847583763e-05 0 -4.698864035898632e-09 -8.7960682455034963e-10 0 -7.1154164644870195e-06 -1.4306208241562437e-07 0 -5.3909542675743179e-06 3.6453534742018553e-07 0 -3.9140649745590589e-09 2.0975072717178749e-10 0 -4.2821067254002406e-06 -1.2783690008163548e-06 0 -5.8507737470926371e-06 -1.3068419093179516e-06 0 -7.9136451042739449e-06 6.3729594625085826e-07 0 -5.6026564993711898e-06 -6.0693118502810657e-07 0 -5.7038922044883999e-06 -3.2398963551202749e-08 0 -2.0726017077118495e-05 -9.508413777975863e-06 0 -1.7193494080288394e-05 -6.7827415550205519e-06 0 -1.2587076792337949e-05 -5.5044109171697868e-06 0 -2.6998804468796355e-05 8.7106278485868764e-06 0 -1.6247235826238243e-05 4.3296156956401391e-06 0 -2.2480706926020317e-05 5.0364779424239415e-06 0 -4.2992310489006641e-05 -3.1292586803511386e-05 0 -4.0776191316641854e-05 -2.6685413312984674e-05 0 -4.4397652168620901e-05 -2.922113842268255e-05 0 -4.1834237385490455e-05 -2.4397131671836829e-05 0 -3.8220269788710113e-05 -1.9351578730328974e-05 0 -4.0615376263934679e-05 -2.0033618179270434e-05 0 -1.4371442004011524e-05 0.00030393929873668841 0 -4.0132237689734073e-05 0.00030968557768628761 0 -3.3127780896788249e-05 0.00028571090072345719 0 -9.9159049515537995e-05 -0.00015759101275917677 0 -8.656586942795481e-05 -0.00015617834063590247 0 -8.8686536015346133e-05 -0.00014596655679051406 0 -4.1834237385490455e-05 -2.4397131671836829e-05 0 -4.4397652168620901e-05 -2.922113842268255e-05 0 -4.0776191316641854e-05 -2.6685413312984674e-05 0 -4.5424283453225949e-05 -4.1832329341927545e-05 0 -4.2448820131577008e-05 -3.9882544488366763e-05 0 -4.3784603410418406e-05 -3.6946732970480712e-05 0 -9.6100978661272469e-05 0.00019140757464383568 0 -8.5794529314332449e-05 0.00015379561630891959 0 -7.1169465528085789e-05 0.00016692941909837486 0 -5.9517833550426069e-09 -6.4957210990019968e-10 0 -6.4518445174768677e-09 5.8555992916135672e-10 0 -5.3909542675743179e-06 3.6453534742018553e-07 0 -5.1154245741451791e-09 -8.3481794029263204e-10 0 -4.5832083701017328e-09 2.5264790307200596e-10 0 -4.2821067254002406e-06 -1.2783690008163548e-06 0 -7.9136451042739449e-06 6.3729594625085826e-07 0 -8.8474305912122104e-06 3.3254329163644897e-07 0 -5.6026564993711898e-06 -6.0693118502810657e-07 0 -5.6812975071602559e-05 0.00029194924257826201 0 -8.2775665924542566e-05 0.00031170220263447508 0 -8.0006596307814046e-05 0.00028183251645689291 0 -7.7799844278860818e-05 -0.00014661537773340017 0 -6.7455851059720239e-05 -0.00015432604391109298 0 -6.7202576653434365e-05 -0.00014070763793026748 0 -6.0313168034301158e-05 -8.5340695796992647e-05 0 -5.1819918795680454e-05 -8.5058239432790771e-05 0 -4.9992239938998037e-05 -7.1632333744528712e-05 0 -3.5198992031051343e-06 7.0125557113997635e-08 0 -5.020993422520926e-06 2.3085024236080431e-07 0 -4.6926972514567696e-06 1.387874648673002e-07 0 -2.124041098009904e-05 4.0192098916122329e-06 0 -1.7667052785586017e-05 3.4857098639766415e-06 0 -2.4528965737480782e-05 6.5589115184199476e-06 0 -4.2448820131577008e-05 -3.9882544488366763e-05 0 -4.0598605319177032e-05 -3.5864265971430915e-05 0 -4.3784603410418406e-05 -3.6946732970480712e-05 0 -4.6926972514567696e-06 1.387874648673002e-07 0 -5.020993422520926e-06 2.3085024236080431e-07 0 -6.0369134181585611e-06 4.711880029802369e-07 0 -5.020993422520926e-06 2.3085024236080431e-07 0 -2.8999935611379868e-06 1.2505760115803077e-07 0 -4.9920340716413118e-06 1.318613938969124e-07 0 -3.5811755191566303e-06 1.5063746567956505e-07 0 -4.9920340716413118e-06 1.318613938969124e-07 0 -2.8999935611379868e-06 1.2505760115803077e-07 0 -5.7053727265601824e-05 -4.4600757419076507e-05 0 -5.4270993400838397e-05 -4.1846882274269721e-05 0 -5.6007279919438615e-05 -4.1173878859510748e-05 0 -3.7764561351794027e-05 -1.4635160476173402e-05 0 -3.8220269788710107e-05 -1.9351578730328974e-05 0 -3.5753360015542871e-05 -1.2590828335600432e-05 0 -4.5491660095551003e-05 -4.4751783751786899e-05 0 -4.2448820131577008e-05 -3.9882544488366763e-05 0 -4.5424283453225949e-05 -4.1832329341927545e-05 0 -2.5261294955045046e-05 4.9503248141132054e-06 0 -3.263006414431998e-05 -5.7866360751475509e-06 0 -2.8979598319926327e-05 1.2899971241186671e-06 0 -1.1150480102378893e-05 0.00027780266281328072 0 -1.4371442004011524e-05 0.00030393929873668841 0 -3.3127780896788249e-05 0.00028571090072345719 0 -9.9194615354997629e-05 -0.00014591827886019162 0 -9.9159049515537995e-05 -0.00015759101275917677 0 -8.8686536015346133e-05 -0.00014596655679051406 0 -9.8919850955842391e-05 -0.00013361389203878147 0 -9.9194615354997629e-05 -0.00014591827886019162 0 -8.8686536015346133e-05 -0.00014596655679051406 0 -7.7030905585268374e-06 0.00025202209693368495 0 -1.1150480102378893e-05 0.00027780266281328072 0 -3.3127780896788249e-05 0.00028571090072345719 0 -2.0031795895526295e-05 1.035404613023989e-05 0 -1.9245939006969582e-05 7.7603086953998393e-06 0 -2.5261294955045046e-05 4.9503248141132054e-06 0 -8.4515035061109885e-06 -7.4071104253380396e-07 0 -5.5765935937162232e-06 -1.1912211705555413e-07 0 -8.0620403296739792e-06 -9.1964576828464559e-07 0 -4.712703587263552e-06 -8.4227560512312999e-08 0 -8.0620403296739792e-06 -9.1964576828464559e-07 0 -5.5765935937162232e-06 -1.1912211705555413e-07 0 -2.8054033757296142e-05 0.00016690471371667967 0 -2.2235044079916014e-05 0.00018591628594587494 0 -4.9589126017866222e-05 0.00018903653744749594 0 -2.2235044079916014e-05 0.00018591628594587494 0 -3.0512985105940416e-05 0.00020668322898790393 0 -4.9589126017866222e-05 0.00018903653744749594 0 -3.3746543196280774e-05 -1.061551035826037e-05 0 -3.2630064144319973e-05 -5.7866360751475535e-06 0 -3.5753360015542871e-05 -1.2590828335600432e-05 0 -4.8469539170450026e-05 -5.3016126952853004e-05 0 -4.64462370303949e-05 -4.9910565847583763e-05 0 -4.7498973589564964e-05 -4.9743424519073514e-05 0 -5.364807664215501e-05 -5.3390676704949667e-05 0 -5.3799754166696735e-05 -4.9450937422351985e-05 0 -5.7315816351435055e-05 -5.0861741094031885e-05 0 -1.9245939006969582e-05 7.7603086953998393e-06 0 -2.2797445821356651e-05 3.1046012792962807e-06 0 -2.5261294955045046e-05 4.9503248141132054e-06 0 -0.00015714449432547062 0.00029313131273054201 0 -0.00015686384674160739 0.00026612051610339576 0 -0.00013309232934616768 0.00029268616968124449 0 -3.5534153268871182e-05 -0.00012538887929061256 0 -4.7396071985218864e-05 -0.00014181456022928994 0 -3.8097130517604053e-05 -0.00013752493237426396 0 -4.1184135766225923e-05 -1.8367033209683869e-05 0 -4.067173325640227e-05 -1.8285393110275789e-05 0 -3.3022361181452412e-05 -1.3827051688708435e-05 0 -5.8833532044143399e-05 2.0341475467814318e-05 0 -4.6693762256816459e-05 1.3960254608165072e-05 0 -5.7335925553195228e-05 2.0425294540087421e-05 0 -3.3746543196280774e-05 -1.061551035826037e-05 0 -3.8220269788710113e-05 -1.9351578730328974e-05 0 -3.4562060115086634e-05 -1.9794923697872131e-05 0 -3.1093764484774383e-05 -2.5472921585446936e-05 0 -3.6089271754131174e-05 -4.1676752826317268e-05 0 -2.6948169479430842e-05 -4.3173773213284593e-05 0 -3.7851235299695127e-05 -2.5827706874561386e-05 0 -3.8220269788710113e-05 -1.9351578730328974e-05 0 -4.0776191316641854e-05 -2.6685413312984674e-05 0 -4.1834237385490455e-05 -2.4397131671836829e-05 0 -4.0776191316641854e-05 -2.6685413312984674e-05 0 -3.8220269788710113e-05 -1.9351578730328974e-05 0 -6.7932759605252829e-05 -0.00016748672457485105 0 -5.9197708302615788e-05 -0.00016618049564374101 0 -5.9337808633868122e-05 -0.00015727975048859558 0 -8.3655013336406345e-05 0.00034251442942977883 0 -0.00010695917936021988 0.00034354191013977154 0 -0.00010460425495321916 0.00032099456132599833 0 -6.1461165964363495e-05 0.00033994524278025247 0 -8.3655013336406345e-05 0.00034251442942977883 0 -6.2216635003934338e-05 0.00031850917173100899 0 -7.74915413447785e-05 -0.00016799134983624785 0 -6.7932759605252829e-05 -0.00016748672457485105 0 -7.645102248213607e-05 -0.00015834373091293835 0 -3.4926360372544079e-05 3.8671183785513768e-05 0 -5.1976524099039861e-05 6.0205266256311572e-05 0 -5.1040655492579946e-05 4.2285156166387248e-05 0 -4.6724021771339778e-05 -2.9254376008647085e-05 0 -5.0097169214887841e-05 -3.3905681540100704e-05 0 -4.8020303990967596e-05 -3.3912878736063999e-05 0 -3.7851235299695127e-05 -2.5827706874561386e-05 0 -4.0776191316641854e-05 -2.6685413312984674e-05 0 -3.9164729512904573e-05 -3.0914839211843188e-05 0 -4.2992310489006641e-05 -3.1292586803511386e-05 0 -3.9164729512904573e-05 -3.0914839211843188e-05 0 -4.0776191316641854e-05 -2.6685413312984674e-05 0 -4.3183344688306817e-05 -7.451873243581017e-05 0 -4.012028140975676e-05 -5.8284409213458237e-05 0 -4.9992239938998037e-05 -7.1632333744528712e-05 0 -0.00012473271309568803 9.5072582789492785e-05 0 -9.3589186479616215e-05 7.6930431877485228e-05 0 -0.00011241456209788539 0.00010490887926742057 0 -3.5932697183253817e-05 -2.074602701110543e-05 0 -4.2974740419956391e-05 -2.7901308802100203e-05 0 -3.5000882973930324e-05 -2.3062640251424621e-05 0 -3.9997490481182819e-05 -3.0519211628817745e-05 0 -3.5000882973930324e-05 -2.3062640251424621e-05 0 -4.2974740419956391e-05 -2.7901308802100203e-05 0 -5.5590900162450331e-05 -4.7676488984907181e-05 0 -5.1979022708993565e-05 -4.6291498679812018e-05 0 -5.4069896756039611e-05 -4.5033183668685459e-05 0 -0.00010441666450612546 0.00014955640867450365 0 -0.000125147153634202 0.00016578302596682564 0 -0.00011453131297874487 0.00013037115722445655 0 -4.0121155975127031e-05 -1.9200826750109981e-05 0 -4.8475734362710655e-05 -2.5206836553142099e-05 0 -4.2135791275720133e-05 -2.3107821004361989e-05 0 -5.0344343928184195e-05 -2.9745983687677091e-05 0 -4.2135791275720133e-05 -2.3107821004361989e-05 0 -4.8475734362710655e-05 -2.5206836553142099e-05 0 -7.1068925741346554e-05 4.254183150383139e-05 0 -6.9664156952156108e-05 3.3302926340961302e-05 0 -5.7389591753812891e-05 3.0094894797895545e-05 0 -5.6087037111724643e-05 2.3137476821751149e-05 0 -5.7389591753812891e-05 3.0094894797895545e-05 0 -6.9664156952156108e-05 3.3302926340961302e-05 0 -5.2228380125340305e-05 -3.8369935418666433e-05 0 -4.9409036776673477e-05 -3.8157646430795178e-05 0 -4.8020303990967596e-05 -3.3912878736063999e-05 0 -7.8185814902492447e-05 -5.4625953970223257e-05 0 -7.326159469102566e-05 -5.8779102965494428e-05 0 -6.3444712673045236e-05 -4.6379003482548882e-05 0 -3.7156961818435147e-05 0.00014083728773777921 0 -5.2117459774875123e-05 0.00011411549425765184 0 -3.0957103645033855e-05 0.00010825625057513691 0 -3.1397155076470733e-05 -6.1559229153838499e-06 0 -3.2747849981421452e-05 -1.0183449376841286e-05 0 -3.6635131007022644e-05 -1.2718262796779779e-05 0 -1.2895197575609605e-05 1.0976228837602906e-06 0 -1.2271563470293638e-05 3.4940068556934709e-06 0 -1.0484112877203261e-05 1.9525206767346096e-06 0 -0.00011632068392909197 0.00023507611494163807 0 -9.7643642090990159e-05 0.0002431782708763619 0 -0.0001228013606851541 0.00026670415392799143 0 -4.8905973351809228e-05 -0.00011566068037212657 0 -5.7209854106645497e-05 -0.00012155757688183695 0 -4.9267709224318171e-05 -0.00013055531778386392 0 -3.3746543196280774e-05 -1.061551035826037e-05 0 -3.5753360015542864e-05 -1.2590828335600432e-05 0 -3.8220269788710113e-05 -1.9351578730328974e-05 0 -5.3799754166696735e-05 -4.9450937422351985e-05 0 -5.1979022708993565e-05 -4.6291498679812018e-05 0 -5.5590900162450331e-05 -4.7676488984907181e-05 0 -4.2992310489006641e-05 -3.1292586803511386e-05 0 -4.5855962497030482e-05 -3.4044348929184003e-05 0 -4.3784603410418406e-05 -3.6946732970480712e-05 0 -2.9313590017982061e-09 -4.1196524377808744e-10 0 -2.4178698003052524e-06 -5.7889885598459401e-07 0 -3.155490391607238e-06 -8.1102269200178649e-07 0 -2.9328707290787753e-09 1.2245714800693326e-10 0 -3.1479733683022884e-06 -4.8440559754281316e-08 0 -2.6074491420479353e-06 8.1827535585901442e-08 0 -4.012028140975676e-05 -5.8284409213458237e-05 0 -4.8443971991346402e-05 -5.8952368476510772e-05 0 -4.9992239938998037e-05 -7.1632333744528712e-05 0 -2.124041098009904e-05 4.0192098916122329e-06 0 -2.4528965737480782e-05 6.5589115184199476e-06 0 -2.78782173901426e-05 6.3943284174040254e-06 0 -4.2930009031361709e-05 2.5163434929131887e-05 0 -5.104065549257994e-05 4.2285156166387242e-05 0 -5.9864336090304568e-05 4.028152005286527e-05 0 -4.0768591205210343e-06 -4.521906685174724e-07 0 -2.2519357714773855e-06 -3.5220256771696467e-07 0 -4.3848598194563993e-06 -1.4279969193829445e-07 0 -3.2194941244358261e-06 -8.3994920546725747e-08 0 -4.3848598194563993e-06 -1.4279969193829445e-07 0 -2.2519357714773855e-06 -3.5220256771696467e-07 0 -3.5811755191566303e-06 1.5063746567956505e-07 0 -2.5332433326794045e-06 1.6295271615286522e-07 0 -5.5765935937162232e-06 -1.1912211705555413e-07 0 -4.712703587263552e-06 -8.4227560512312999e-08 0 -5.5765935937162232e-06 -1.1912211705555413e-07 0 -2.5332433326794045e-06 1.6295271615286522e-07 0 -3.6750067182730725e-05 1.5009808058018786e-05 0 -3.2064521395127638e-05 1.6560479177502924e-05 0 -4.2930009031361709e-05 2.5163434929131887e-05 0 -1.2895197575609605e-05 1.0976228837602906e-06 0 -1.5583616773428547e-05 2.3524280947572714e-06 0 -1.2271563470293638e-05 3.4940068556934709e-06 0 -1.0634988575057039e-05 2.6438680282822118e-06 0 -1.0759154669409067e-05 1.5125622585091035e-06 0 -7.9136451042739449e-06 6.3729594625085826e-07 0 -2.4528965737480782e-05 6.5589115184199476e-06 0 -1.7667052785586017e-05 3.4857098639766415e-06 0 -2.1248126918477702e-05 7.0664853450190732e-06 0 -1.9985292531605323e-05 1.318217108379544e-06 0 -1.7447616466740659e-05 5.048913312488766e-06 0 -1.5583616773428547e-05 2.3524280947572709e-06 0 -1.7765691027575466e-05 -6.0657714694433533e-06 0 -1.9985127875544815e-05 -7.8601924286221184e-06 0 -1.5548066861455911e-05 -4.6192640493584003e-06 0 -1.8471390913819991e-05 -6.7182094615253288e-06 0 -1.5548066861455911e-05 -4.6192640493584003e-06 0 -1.9985127875544815e-05 -7.8601924286221184e-06 0 -6.4518445174767668e-09 5.8555992916135011e-10 0 -4.698864035898632e-09 -8.7960682455034963e-10 0 -5.3909542675743179e-06 3.6453534742018553e-07 0 -3.9140649745590589e-09 2.0975072717178749e-10 0 -5.1154245741451791e-09 -8.3481794029263204e-10 0 -4.2821067254002406e-06 -1.2783690008163548e-06 0 1.4325713228551041e-06 0.00010869619124865843 0 -3.0957103645033855e-05 0.00010825625057513691 0 -2.4948214951101564e-05 7.9850253870937255e-05 0 -8.4515035061109885e-06 -7.4071104253380396e-07 0 -1.2025898560264792e-05 -2.1973945100681227e-06 0 -9.2613866730182606e-06 -6.0076077522552225e-07 0 -3.716418215974297e-05 -1.563139201913469e-05 0 -3.1300240558992378e-05 -1.2709125019518436e-05 0 -3.4199564739319357e-05 -1.8141597874420342e-05 0 -5.0174593025150143e-05 -4.8496195817536087e-05 0 -5.1979022708993565e-05 -4.6291498679812018e-05 0 -5.3799754166696735e-05 -4.9450937422351985e-05 0 -3.4213862476172349e-05 -1.484692125741258e-05 0 -3.3022361181452412e-05 -1.3827051688708435e-05 0 -2.7998645505702877e-05 -1.1428063313817779e-05 0 -4.7358135331628549e-05 1.4970159144112967e-05 0 -3.8388326460957292e-05 1.0325579681605774e-05 0 -4.6693762256816459e-05 1.3960254608165072e-05 0 -4.677844185313781e-05 -3.781687835523256e-05 0 -4.3784603410418406e-05 -3.6946732970480712e-05 0 -4.5855962497030482e-05 -3.4044348929184003e-05 0 -3.3022361181452412e-05 -1.3827051688708435e-05 0 -2.84304055143913e-05 -1.1572627665999464e-05 0 -2.6966175900495374e-05 -1.0623583810687287e-05 0 -3.5030432172389646e-05 9.7873389700023065e-06 0 -3.2445097506253951e-05 1.0280861084493176e-05 0 -4.3943807163038626e-05 1.44865610094145e-05 0 -3.5035947592756987e-05 -1.5363195171172028e-05 0 -2.84304055143913e-05 -1.1572627665999464e-05 0 -3.3022361181452412e-05 -1.3827051688708435e-05 0 -1.3217957721999826e-05 -3.4185595357191789e-06 0 -1.5211978458097206e-05 -4.4906627390888212e-06 0 -1.7343012876266645e-05 -5.5858418097938464e-06 0 -1.3071614636093004e-05 1.3275736989660037e-06 0 -1.7667052785586017e-05 3.4857098639766415e-06 0 -1.7104444035724138e-05 1.9119115146610443e-06 0 -4.7419834495562564e-05 2.0922145850392829e-05 0 -3.6750067182730725e-05 1.5009808058018786e-05 0 -4.2930009031361709e-05 2.5163434929131887e-05 0 -5.2228380125340305e-05 -3.8369935418666433e-05 0 -4.8020303990967596e-05 -3.3912878736063999e-05 0 -5.0097169214887841e-05 -3.3905681540100704e-05 0 -4.2590820702104479e-05 0.0002336473542936642 0 -3.800211188887507e-05 0.000262755008665668 0 -6.0522825411152162e-05 0.00026163834801073554 0 -8.0121848671647187e-05 -0.00012030854557476794 0 -8.4704811848973973e-05 -0.00013461043037982944 0 -7.4269885593897684e-05 -0.00013229056240355588 0 -4.0768591205210343e-06 -4.521906685174724e-07 0 -2.4178698003052524e-06 -5.7889885598459401e-07 0 -2.2519357714773855e-06 -3.5220256771696467e-07 0 -4.712703587263552e-06 -8.4227560512312999e-08 0 -2.5332433326794041e-06 1.6295271615286522e-07 0 -2.6074491420479353e-06 8.1827535585901442e-08 0 -3.5098775019254716e-09 -5.6466237272836292e-10 0 -3.155490391607238e-06 -8.1102269200178649e-07 0 -3.3938424150196196e-06 -7.7700374408211366e-07 0 -3.293472803695191e-09 1.0392801297220397e-10 0 -3.1426956519470832e-06 -2.0574420637662581e-07 0 -3.1479733683022884e-06 -4.8440559754281316e-08 0 -3.716418215974297e-05 -1.563139201913469e-05 0 -4.1508490784767701e-05 -1.9937503101457042e-05 0 -4.0877377488392916e-05 -1.8055975677830509e-05 0 -4.3988993696284186e-05 -2.2184861599680243e-05 0 -4.0877377488392916e-05 -1.8055975677830509e-05 0 -4.1508490784767701e-05 -1.9937503101457042e-05 0 -7.2129348493114398e-05 0.00012234677142706623 0 -6.5388209753915955e-05 8.9886655048161831e-05 0 -5.2117459774875123e-05 0.00011411549425765184 0 -4.4144635044061678e-05 7.9404154342602041e-05 0 -5.2117459774875123e-05 0.00011411549425765186 0 -6.5388209753915955e-05 8.9886655048161831e-05 0 -2.0298791783016472e-05 1.9320301869503117e-05 0 -1.5746249706772713e-05 1.2688026888234489e-05 0 -1.5725160948573391e-05 2.0158012760279421e-05 0 -3.716418215974297e-05 -1.563139201913469e-05 0 -3.2747849981421452e-05 -1.0183449376841286e-05 0 -3.1300240558992378e-05 -1.2709125019518436e-05 0 -6.5242130712541554e-06 5.7589131131346169e-07 0 -4.6926972514567696e-06 1.387874648673002e-07 0 -6.0369134181585611e-06 4.711880029802369e-07 0 -4.6724021771339778e-05 -2.9254376008647085e-05 0 -4.8020303990967596e-05 -3.3912878736063999e-05 0 -4.4397652168620901e-05 -2.922113842268255e-05 0 -9.6100978661272469e-05 0.00019140757464383568 0 -0.00010692034622468868 0.00017055243616640394 0 -8.5794529314332449e-05 0.00015379561630891959 0 -5.7053727265601824e-05 -4.4600757419076507e-05 0 -5.6007279919438615e-05 -4.1173878859510748e-05 0 -5.8950090174238556e-05 -4.5835614586678496e-05 0 -4.5424283453225949e-05 -4.1832329341927545e-05 0 -4.7177097928660148e-05 -4.0939309245662358e-05 0 -4.812900458934337e-05 -4.525630205567772e-05 0 -1.1935154409559833e-05 -2.5746410949289669e-06 0 -8.0620403296739792e-06 -9.1964576828464548e-07 0 -1.0961799714089816e-05 -2.2785676349505173e-06 0 -6.848636540966842e-05 6.3286436824971991e-05 0 -5.1040655492579946e-05 4.2285156166387248e-05 0 -5.1976524099039861e-05 6.0205266256311572e-05 0 -1.4309668881287697e-05 -7.2030431473770993e-06 0 -2.0726017077118495e-05 -9.508413777975863e-06 0 -1.2587076792337949e-05 -5.5044109171697868e-06 0 -2.6998804468796355e-05 8.7106278485868764e-06 0 -1.8010345133518606e-05 6.7267858593137751e-06 0 -1.6247235826238239e-05 4.3296156956401391e-06 0 -3.7851235299695127e-05 -2.5827706874561386e-05 0 -3.4562060115086634e-05 -1.9794923697872131e-05 0 -3.8220269788710113e-05 -1.9351578730328974e-05 0 -6.5141523837282425e-06 -1.0826275027830875e-06 0 -1.0855154135928722e-05 -2.5262523773613767e-06 0 -6.6125665794938541e-06 -8.4991305225031467e-07 0 -7.3140121998939472e-06 -6.0735477607827819e-07 0 -6.4994476254886349e-06 -7.8896446503352349e-07 0 -1.1958925132489948e-05 2.7277773695273914e-07 0 -0.00011283059958664745 7.2354768542832123e-05 0 -8.9125743352561984e-05 5.7191936370533223e-05 0 -9.3589186479616215e-05 7.6930431877485228e-05 0 -7.1440791411137735e-05 -4.4280842563930975e-05 0 -6.3444712673045236e-05 -4.6379003482548882e-05 0 -5.9687449640528572e-05 -3.6737838990409628e-05 0 -3.4926360372544079e-05 3.8671183785513768e-05 0 -2.1325935067104784e-05 2.8405950044940653e-05 0 -2.9185793865315251e-05 5.0393654745903352e-05 0 -1.1511755247678826e-05 3.0399534207413113e-05 0 -2.9185793865315254e-05 5.0393654745903352e-05 0 -2.1325935067104784e-05 2.8405950044940653e-05 0 -4.3508508258856427e-05 -4.6975194382931988e-05 0 -5.191235158451948e-05 -5.1541390464657989e-05 0 -4.8443971991346402e-05 -5.8952368476510772e-05 0 -5.622290462267346e-05 -6.8073787345238998e-05 0 -4.8443971991346402e-05 -5.8952368476510772e-05 0 -5.191235158451948e-05 -5.1541390464657989e-05 0 -3.3746543196280774e-05 -1.061551035826037e-05 0 -2.9033149237168709e-05 -2.4262649671257306e-06 0 -2.8979598319926327e-05 1.2899971241186671e-06 0 -5.0174593025150143e-05 -4.8496195817536087e-05 0 -5.3799754166696742e-05 -4.9450937422351992e-05 0 -5.1406984260278758e-05 -5.1163911324117377e-05 0 -6.5242130712541554e-06 5.7589131131346169e-07 0 -7.9136451042739449e-06 6.3729594625085826e-07 0 -5.7038922044883999e-06 -3.2398963551202749e-08 0 -4.2974740419956391e-05 -2.7901308802100203e-05 0 -5.3059045644857761e-05 -3.6079109977505596e-05 0 -4.6778046981783974e-05 -3.4958951058650799e-05 0 -4.8469539170450026e-05 -5.3016126952853004e-05 0 -4.7498973589564964e-05 -4.9743424519073514e-05 0 -4.9394412283607443e-05 -5.1040607144577939e-05 0 -9.4939021294532008e-05 0.00010426274474910647 0 -0.00011241456209788539 0.00010490887926742057 0 -9.3589186479616215e-05 7.6930431877485228e-05 0 -0.0001228013606851541 0.00026670415392799143 0 -9.7643642090990159e-05 0.0002431782708763619 0 -9.7587039508368608e-05 0.00026862334402250716 0 -4.9267709224318171e-05 -0.00013055531778386392 0 -5.7209854106645497e-05 -0.00012155757688183695 0 -5.9291743121905142e-05 -0.00013343674937704511 0 -1.543405167079226e-05 -3.5419184096440856e-06 0 -1.5159576428140505e-05 -2.036715436666191e-06 0 -1.2324230783752339e-05 -1.6302756081110436e-06 0 -4.3988993696284186e-05 -2.2184861599680243e-05 0 -4.1508490784767701e-05 -1.9937503101457042e-05 0 -4.6338674182240717e-05 -2.5041662542520836e-05 0 -8.256949597670169e-06 9.4211541493050038e-07 0 -1.0484112877203261e-05 1.9525206767346096e-06 0 -9.1270419402168524e-06 2.0705457234649168e-06 0 -1.0858015734163057e-05 3.5198113338696768e-06 0 -9.1270419402168524e-06 2.0705457234649168e-06 0 -1.0484112877203261e-05 1.9525206767346096e-06 0 -2.4528965737480782e-05 6.5589115184199476e-06 0 -3.2445097506253951e-05 1.0280861084493176e-05 0 -2.78782173901426e-05 6.3943284174040254e-06 0 -5.622290462267346e-05 -6.8073787345238998e-05 0 -6.4346302697471807e-05 -7.7218328987129427e-05 0 -6.0313168034301158e-05 -8.5340695796992647e-05 0 -2.923455656566314e-05 6.4474008618245899e-06 0 -2.384913390105007e-05 4.1315441494560122e-06 0 -3.5225399111738988e-05 8.7519953649047311e-06 0 -4.9589126017866222e-05 0.00018903653744749594 0 -7.4134927005648667e-05 0.00021708216337299388 0 -7.7563948239655947e-05 0.0001928460056397137 0 -4.9589126017866222e-05 0.00018903653744749594 0 -7.7563948239655947e-05 0.0001928460056397137 0 -7.1169465528085789e-05 0.00016692941909837486 0 -9.6100978661272469e-05 0.00019140757464383568 0 -7.1169465528085775e-05 0.00016692941909837483 0 -7.7563948239655947e-05 0.0001928460056397137 0 -7.068052661057464e-05 -9.816571183498735e-05 0 -6.4592247232499062e-05 -0.00011078250028365579 0 -5.9051951058169238e-05 -9.7327035768424814e-05 0 -7.068052661057464e-05 -9.816571183498735e-05 0 -5.9051951058169238e-05 -9.7327035768424814e-05 0 -6.0313168034301158e-05 -8.5340695796992647e-05 0 -1.5746249706772713e-05 1.2688026888234489e-05 0 -1.5586588076967869e-05 1.3977427601180399e-05 0 -1.5725160948573391e-05 2.0158012760279421e-05 0 -2.558164985052181e-09 -3.2677725622986884e-10 0 -2.1936478533006189e-09 -4.6137306296825734e-11 0 -2.2519357714773855e-06 -3.5220256771696467e-07 0 -2.4071645388646418e-09 1.0775305243146805e-10 0 -2.6676245751193813e-09 1.4635638977132473e-10 0 -2.5332433326794045e-06 1.6295271615286522e-07 0 -1.2025898560264792e-05 -2.1973945100681227e-06 0 -1.2324230783752341e-05 -1.6302756081110438e-06 0 -9.2613866730182606e-06 -6.0076077522552225e-07 0 -3.1093764484774383e-05 -2.5472921585446936e-05 0 -3.0337872456391591e-05 -2.2542477001792989e-05 0 -3.4391967095258018e-05 -3.0355454923135939e-05 0 -2.384913390105007e-05 4.1315441494560122e-06 0 -2.78782173901426e-05 6.3943284174040254e-06 0 -3.5225399111738988e-05 8.7519953649047311e-06 0 -2.1575517532562469e-09 8.2306605907143745e-11 0 -2.8999935611379868e-06 1.2505760115803077e-07 0 -1.8624808446738987e-06 -1.2689897697181326e-08 0 -2.6998804468796355e-05 8.7106278485868764e-06 0 -2.2480706926020317e-05 5.0364779424239415e-06 0 -3.0931157001519992e-05 8.1316867291017278e-06 0 -2.0726017077118495e-05 -9.508413777975863e-06 0 -2.3134120112420724e-05 -9.5175761920232055e-06 0 -1.7193494080288394e-05 -6.7827415550205511e-06 0 -6.5400729886331486e-05 -5.7908582044192156e-05 0 -6.3444712673045236e-05 -4.6379003482548882e-05 0 -7.326159469102566e-05 -5.8779102965494428e-05 0 -4.9920340716413118e-06 1.318613938969124e-07 0 -3.5811755191566303e-06 1.5063746567956505e-07 0 -6.4839248547530551e-06 -1.0154227139747738e-07 0 -5.2228380125340305e-05 -3.8369935418666433e-05 0 -5.6007279919438615e-05 -4.1173878859510748e-05 0 -5.4270993400838397e-05 -4.1846882274269721e-05 0 -1.9985292531605323e-05 1.318217108379544e-06 0 -1.5583616773428547e-05 2.3524280947572709e-06 0 -1.8214814283177126e-05 -3.9592040249022645e-07 0 -3.7156961818435147e-05 0.00014083728773777921 0 -6.1375087898282593e-05 0.00014376726538807124 0 -5.2117459774875123e-05 0.00011411549425765184 0 -6.5242130712541554e-06 5.7589131131346169e-07 0 -4.3848598194563993e-06 -1.4279969193829445e-07 0 -4.6926972514567696e-06 1.387874648673002e-07 0 -0.0001080938715260146 0.0002952807670351455 0 -9.7587039508368608e-05 0.00026862334402250716 0 -8.0006596307814046e-05 0.00028183251645689291 0 -5.6888148183039869e-05 -0.0001455594571582996 0 -5.9291743121905142e-05 -0.00013343674937704511 0 -6.7202576653434365e-05 -0.00014070763793026748 0 -3.5811755191566303e-06 1.5063746567956505e-07 0 -5.5765935937162232e-06 -1.1912211705555413e-07 0 -6.4839248547530551e-06 -1.0154227139747738e-07 0 -1.9985292531605323e-05 1.318217108379544e-06 0 -2.2256317745735639e-05 -2.73204139534479e-06 0 -2.5692148624012183e-05 -2.052185692064927e-06 0 -5.6812975071602559e-05 0.00029194924257826201 0 -6.2216635003934338e-05 0.00031850917173100899 0 -8.2775665924542566e-05 0.00031170220263447508 0 -0.0001080938715260146 0.0002952807670351455 0 -8.2775665924542566e-05 0.00031170220263447503 0 -0.00010460425495321916 0.00032099456132599833 0 -7.7799844278860818e-05 -0.00014661537773340017 0 -7.645102248213607e-05 -0.00015834373091293835 0 -6.7455851059720239e-05 -0.00015432604391109298 0 -5.6888148183039869e-05 -0.0001455594571582996 0 -6.7455851059720239e-05 -0.00015432604391109298 0 -5.9337808633868122e-05 -0.00015727975048859558 0 -4.2930009031361709e-05 2.5163434929131887e-05 0 -5.9864336090304568e-05 4.028152005286527e-05 0 -5.7389591753812891e-05 3.0094894797895545e-05 0 -5.2259965965070677e-05 -4.1065697023119629e-05 0 -6.3444712673045236e-05 -4.6379003482548882e-05 0 -5.8092722125639537e-05 -5.0523344228373179e-05 0 -6.5400729886331486e-05 -5.7908582044192156e-05 0 -5.8092722125639537e-05 -5.0523344228373179e-05 0 -6.3444712673045236e-05 -4.6379003482548882e-05 0 -9.4939021294532008e-05 0.00010426274474910647 0 -9.3589186479616215e-05 7.6930431877485228e-05 0 -7.9672883996504177e-05 8.7186943305513062e-05 0 -6.848636540966842e-05 6.3286436824971991e-05 0 -7.9672883996504177e-05 8.7186943305513062e-05 0 -9.3589186479616215e-05 7.6930431877485228e-05 0 -4.712703587263552e-06 -8.4227560512312999e-08 0 -5.605110826148861e-06 -3.8598638198756951e-07 0 -8.0620403296739792e-06 -9.1964576828464559e-07 0 -7.889694410453172e-07 7.5987814459403839e-05 0 1.4325713228551041e-06 0.00010869619124865843 0 -2.4948214951101564e-05 7.9850253870937255e-05 0 -7.3140121998939472e-06 -6.0735477607827819e-07 0 -1.1051925006878792e-05 1.7449453048049261e-07 0 -7.1154164644870186e-06 -1.4306208241562426e-07 0 -6.5141523837282425e-06 -1.0826275027830875e-06 0 -5.8507737470926371e-06 -1.3068419093179516e-06 0 -9.3015053074785462e-06 -2.2497007999896549e-06 0 -3.716418215974297e-05 -1.563139201913469e-05 0 -3.6635131007022644e-05 -1.2718262796779779e-05 0 -3.2747849981421452e-05 -1.0183449376841286e-05 0 -1.0855154135928722e-05 -2.5262523773613767e-06 0 -1.0260062567379993e-05 -2.1157867899825908e-06 0 -6.6125665794938541e-06 -8.4991305225031467e-07 0 -1.1958925132489948e-05 2.7277773695273914e-07 0 -6.4994476254886358e-06 -7.8896446503352349e-07 0 -1.0249770720957132e-05 2.3070564163797568e-07 0 -3.5030432172389646e-05 9.7873389700023065e-06 0 -4.3943807163038626e-05 1.44865610094145e-05 0 -3.5225399111738988e-05 8.7519953649047311e-06 0 -4.6693762256816459e-05 1.3960254608165072e-05 0 -3.5225399111738988e-05 8.7519953649047311e-06 0 -4.3943807163038626e-05 1.44865610094145e-05 0 -5.6812975071602559e-05 0.00029194924257826201 0 -6.0522825411152162e-05 0.00026163834801073554 0 -3.800211188887507e-05 0.000262755008665668 0 -7.7799844278860818e-05 -0.00014661537773340017 0 -7.4269885593897684e-05 -0.00013229056240355588 0 -8.4704811848973973e-05 -0.00013461043037982942 0 -4.8469539170450026e-05 -5.3016126952853004e-05 0 -4.7180493734587922e-05 -5.1176257669422948e-05 0 -4.64462370303949e-05 -4.9910565847583763e-05 0 -5.7551942797938621e-05 -5.3835935427311256e-05 0 -5.364807664215501e-05 -5.3390676704949667e-05 0 -5.7315816351435055e-05 -5.0861741094031885e-05 0 -2.1326313539910071e-05 -8.3902603984771994e-06 0 -1.7765691027575466e-05 -6.0657714694433533e-06 0 -1.7343012876266645e-05 -5.5858418097938464e-06 0 -6.1433890492297474e-05 -5.007065889134242e-05 0 -5.9869308027120255e-05 -4.8472480375199328e-05 0 -5.8950090174238556e-05 -4.5835614586678496e-05 0 -3.7245561112019451e-05 -3.1664517148425124e-05 0 -3.7965615798644614e-05 -3.4674894317998157e-05 0 -4.1345754510215257e-05 -3.9872448831541392e-05 0 -4.5491660095551003e-05 -4.4751783751786899e-05 0 -4.3505879732123416e-05 -4.323700120285904e-05 0 -4.2448820131577008e-05 -3.9882544488366763e-05 0 -5.0344343928184195e-05 -2.9745983687677091e-05 0 -5.3059045644857761e-05 -3.6079109977505596e-05 0 -4.2974740419956391e-05 -2.7901308802100203e-05 0 -5.364807664215501e-05 -5.3390676704949667e-05 0 -5.1406984260278758e-05 -5.1163911324117377e-05 0 -5.3799754166696735e-05 -4.9450937422351985e-05 0 -5.6087037111724643e-05 2.3137476821751149e-05 0 -4.3943807163038626e-05 1.44865610094145e-05 0 -4.7419834495562564e-05 2.0922145850392829e-05 0 -1.5159576428140507e-05 -2.036715436666191e-06 0 -1.2482371851634659e-05 -4.8805291459525634e-07 0 -1.2324230783752339e-05 -1.6302756081110436e-06 0 -5.2259965965070677e-05 -4.1065697023119629e-05 0 -5.191235158451948e-05 -5.1541390464657989e-05 0 -4.5910449757874138e-05 -4.0162528094545401e-05 0 -4.3508508258856427e-05 -4.6975194382931988e-05 0 -4.5910449757874138e-05 -4.0162528094545401e-05 0 -5.191235158451948e-05 -5.1541390464657989e-05 0 -2.2181982727430275e-05 -8.4849295133378379e-06 0 -2.1326313539910071e-05 -8.3902603984771994e-06 0 -1.7343012876266645e-05 -5.5858418097938464e-06 0 -5.2259965965070677e-05 -4.1065697023119629e-05 0 -4.6778046981783974e-05 -3.4958951058650799e-05 0 -5.3059045644857761e-05 -3.6079109977505596e-05 0 -1.8913472158862037e-05 -6.3849806915238672e-06 0 -2.2181982727430275e-05 -8.4849295133378379e-06 0 -1.7343012876266645e-05 -5.5858418097938464e-06 0 -1.3071614636093004e-05 1.3275736989660037e-06 0 -1.3334152717138155e-05 2.9589340027574834e-06 0 -1.7667052785586017e-05 3.4857098639766415e-06 0 -5.2259965965070677e-05 -4.1065697023119629e-05 0 -5.3059045644857761e-05 -3.6079109977505596e-05 0 -6.3444712673045236e-05 -4.6379003482548882e-05 0 -6.848636540966842e-05 6.3286436824971991e-05 0 -9.3589186479616215e-05 7.6930431877485228e-05 0 -7.6093139699189003e-05 5.5267816196161701e-05 0 -4.698864035898632e-09 -8.7960682455034963e-10 0 -3.5312724034307039e-06 -5.2776529384446129e-07 0 -7.1154164644870186e-06 -1.4306208241562426e-07 0 -3.9140649745590589e-09 2.0975072717178749e-10 0 -5.8507737470926371e-06 -1.3068419093179516e-06 0 -3.0541901913157718e-06 -4.0563458310938326e-07 0 -1.8913472158862037e-05 -6.3849806915238672e-06 0 -1.7343012876266645e-05 -5.5858418097938464e-06 0 -1.5211978458097206e-05 -4.4906627390888212e-06 0 -2.124041098009904e-05 4.0192098916122329e-06 0 -1.7104444035724138e-05 1.9119115146610443e-06 0 -1.7667052785586017e-05 3.4857098639766415e-06 0 -7.6958711781444332e-06 -3.4826649575941938e-07 0 -5.6026564993711898e-06 -6.0693118502810657e-07 0 -8.8474305912122104e-06 3.3254329163644897e-07 0 -3.4391967095258018e-05 -3.0355454923135939e-05 0 -4.0174941911325614e-05 -3.5814047691178121e-05 0 -3.6089271754131174e-05 -4.1676752826317268e-05 0 -6.5242130712541554e-06 5.7589131131346169e-07 0 -6.0369134181585611e-06 4.7118800298023706e-07 0 -7.4279429740345427e-06 1.0377457155334067e-06 0 -0.0001080938715260146 0.0002952807670351455 0 -0.0001228013606851541 0.00026670415392799143 0 -9.7587039508368608e-05 0.00026862334402250716 0 -5.6888148183039869e-05 -0.0001455594571582996 0 -4.9267709224318171e-05 -0.00013055531778386392 0 -5.9291743121905142e-05 -0.00013343674937704511 0 -1.3217957721999826e-05 -3.4185595357191789e-06 0 -1.0855154135928722e-05 -2.5262523773613767e-06 0 -1.5211978458097206e-05 -4.4906627390888212e-06 0 -1.3071614636093004e-05 1.3275736989660037e-06 0 -1.7104444035724138e-05 1.9119115146610443e-06 0 -1.1958925132489948e-05 2.7277773695273914e-07 0 -5.020993422520926e-06 2.3085024236080431e-07 0 -7.0319687642087398e-06 5.7839123669821381e-08 0 -6.9536725898244074e-06 4.0356190049011646e-07 0 -4.0174941911325614e-05 -3.5814047691178121e-05 0 -4.3508508258856427e-05 -4.6975194382931988e-05 0 -3.6089271754131174e-05 -4.1676752826317268e-05 0 -0.00015361015953504291 0.00020862938218520232 0 -0.00014965355578298121 0.00017906199030766294 0 -0.00012405112343364199 0.0001926126661657912 0 -2.8394931973415826e-05 -8.4178638315970928e-05 0 -4.1006814812837787e-05 -9.4059937863649293e-05 0 -3.0396436992622411e-05 -9.7938212342171336e-05 0 -7.068052661057464e-05 -9.816571183498735e-05 0 -6.0313168034301158e-05 -8.5340695796992633e-05 0 -6.8975351403067394e-05 -8.6170666246270064e-05 0 -2.7094969143332187e-05 -7.0907737485976351e-06 0 -3.1300240558992372e-05 -1.2709125019518434e-05 0 -3.2747849981421452e-05 -1.0183449376841286e-05 0 -2.923455656566314e-05 6.4474008618245899e-06 0 -2.2480706926020314e-05 5.0364779424239406e-06 0 -2.1745735842653062e-05 3.7446122562556474e-06 0 -2.2211991050107408e-05 -8.3834817244712202e-06 0 -1.7022782099970386e-05 -5.9910474301784997e-06 0 -1.7193494080288394e-05 -6.7827415550205511e-06 0 -1.5277111090629503e-05 8.4158049822366386e-06 0 -1.3774150734381474e-05 5.0012205761931233e-06 0 -1.1988202383629271e-05 5.2155371359933842e-06 0 -5.020993422520926e-06 2.3085024236080431e-07 0 -4.9920340716413118e-06 1.318613938969124e-07 0 -7.0319687642087398e-06 5.7839123669821329e-08 0 -4.3988993696284186e-05 -2.2184861599680243e-05 0 -4.8135289479414857e-05 -2.7910844158358038e-05 0 -4.4864051339410888e-05 -2.4365792936071138e-05 0 -2.923455656566314e-05 6.4474008618245899e-06 0 -3.0931157001519992e-05 8.1316867291017278e-06 0 -2.2480706926020317e-05 5.0364779424239415e-06 0 -2.2211991050107408e-05 -8.3834817244712202e-06 0 -1.7193494080288394e-05 -6.7827415550205502e-06 0 -2.3134120112420727e-05 -9.5175761920232072e-06 0 -1.9985292531605323e-05 1.318217108379544e-06 0 -1.8214814283177126e-05 -3.9592040249022645e-07 0 -2.2256317745735639e-05 -2.73204139534479e-06 0 -6.5304599096370274e-05 -0.0001263384567035975 0 -6.4592247232499048e-05 -0.00011078250028365579 0 -7.1321714080167938e-05 -0.00011951265716589373 0 -7.9553157915019767e-05 0.00025149480877044536 0 -7.4134927005648667e-05 0.00021708216337299388 0 -6.230666122864921e-05 0.00023481363930698593 0 -5.0344343928184195e-05 -2.9745983687677091e-05 0 -4.2974740419956391e-05 -2.7901308802100203e-05 0 -4.2135791275720133e-05 -2.3107821004361989e-05 0 -3.5932697183253817e-05 -2.074602701110543e-05 0 -4.2135791275720133e-05 -2.3107821004361989e-05 0 -4.2974740419956391e-05 -2.7901308802100203e-05 0 -2.3357937637602614e-05 -1.1391842305120177e-05 0 -2.6051580254020927e-05 -1.4453390918294644e-05 0 -2.7062411300509743e-05 -1.6415621199723826e-05 0 -3.0056402224580274e-05 -1.9809201881113646e-05 0 -2.7062411300509743e-05 -1.6415621199723826e-05 0 -2.6051580254020927e-05 -1.4453390918294644e-05 0 -3.155490391607238e-06 -8.1102269200178649e-07 0 -5.6026564993711898e-06 -6.0693118502810657e-07 0 -6.4994476254886358e-06 -7.8896446503352349e-07 0 -7.6958711781444332e-06 -3.4826649575941938e-07 0 -6.4994476254886358e-06 -7.8896446503352349e-07 0 -5.6026564993711898e-06 -6.0693118502810657e-07 0 -8.2014883455536924e-06 -1.2438128941171807e-06 0 -5.605110826148861e-06 -3.8598638198756951e-07 0 -6.6125665794938541e-06 -8.4991305225031467e-07 0 -3.1479733683022884e-06 -4.8440559754281316e-08 0 -6.6125665794938541e-06 -8.4991305225031467e-07 0 -5.605110826148861e-06 -3.8598638198756951e-07 0 -5.2228380125340305e-05 -3.8369935418666433e-05 0 -5.2042973590078675e-05 -4.169398791068879e-05 0 -4.9409036776673477e-05 -3.8157646430795178e-05 0 -2.7094969143332187e-05 -7.0907737485976351e-06 0 -2.5692148624012183e-05 -2.052185692064927e-06 0 -2.2256317745735639e-05 -2.73204139534479e-06 0 -1.0858015734163057e-05 3.5198113338696768e-06 0 -1.0371394191124317e-05 3.3641500478617193e-06 0 -9.1270419402168524e-06 2.0705457234649168e-06 0 -4.9589126017866222e-05 0.00018903653744749594 0 -5.2008682747022872e-05 0.00021662802387991103 0 -7.4134927005648667e-05 0.00021708216337299388 0 -7.068052661057464e-05 -9.816571183498735e-05 0 -7.3943928718887066e-05 -0.00011078599480095565 0 -6.4592247232499062e-05 -0.00011078250028365579 0 -4.9589126017866222e-05 0.00018903653744749594 0 -7.1169465528085789e-05 0.00016692941909837486 0 -4.972092543069405e-05 0.00016163078555204706 0 -1.5277111090629503e-05 8.4158049822366386e-06 0 -1.8225475800507909e-05 7.9803369612862253e-06 0 -1.3774150734381474e-05 5.0012205761931233e-06 0 -1.5277111090629503e-05 8.4158049822366386e-06 0 -1.9738250136040346e-05 1.3198945446836054e-05 0 -1.8225475800507909e-05 7.9803369612862253e-06 0 -7.2129348493114398e-05 0.00012234677142706623 0 -6.1375087898282593e-05 0.00014376726538807127 0 -8.5794529314332449e-05 0.00015379561630891959 0 -7.1169465528085789e-05 0.00016692941909837486 0 -8.5794529314332449e-05 0.00015379561630891959 0 -6.1375087898282593e-05 0.00014376726538807127 0 -1.1085395706249057e-05 1.589619818013178e-06 0 -7.1154164644870195e-06 -1.4306208241562419e-07 0 -1.2539731893986866e-05 9.5553530546632664e-07 0 -8.7163548701727482e-06 -3.0347921263536322e-06 0 -1.0119850145743285e-05 -2.9348260676340694e-06 0 -5.8507737470926371e-06 -1.3068419093179516e-06 0 -4.3508508258856427e-05 -4.6975194382931988e-05 0 -4.8443971991346402e-05 -5.8952368476510772e-05 0 -4.012028140975676e-05 -5.8284409213458237e-05 0 -6.1433890492297474e-05 -5.007065889134242e-05 0 -6.2605629128854049e-05 -5.3496839158425748e-05 0 -5.9869308027120255e-05 -4.8472480375199328e-05 0 -3.7245561112019451e-05 -3.1664517148425124e-05 0 -4.1345754510215257e-05 -3.9872448831541392e-05 0 -3.9768568035045205e-05 -3.450780337427999e-05 0 -1.8705944758363719e-05 -2.9105574691860507e-06 0 -2.2256317745735639e-05 -2.73204139534479e-06 0 -1.8214814283177126e-05 -3.9592040249022645e-07 0 -1.0858015734163057e-05 3.5198113338696768e-06 0 -1.2903470543901586e-05 6.1343533930664632e-06 0 -1.1988202383629271e-05 5.2155371359933842e-06 0 -5.0174593025150143e-05 -4.8496195817536087e-05 0 -4.812900458934337e-05 -4.525630205567772e-05 0 -5.1979022708993565e-05 -4.6291498679812018e-05 0 -4.9632977343217114e-05 -4.3592929380969019e-05 0 -5.1979022708993565e-05 -4.6291498679812018e-05 0 -4.812900458934337e-05 -4.525630205567772e-05 0 -4.2992310489006641e-05 -3.1292586803511386e-05 0 -4.3784603410418406e-05 -3.6946732970480712e-05 0 -3.9164729512904573e-05 -3.0914839211843188e-05 0 -0.0001080938715260146 0.0002952807670351455 0 -0.00013309232934616768 0.00029268616968124449 0 -0.0001228013606851541 0.00026670415392799143 0 -5.6888148183039869e-05 -0.0001455594571582996 0 -4.7396071985218864e-05 -0.00014181456022928994 0 -4.9267709224318171e-05 -0.00013055531778386392 0 -5.898274746029773e-05 -4.9402286756861853e-05 0 -6.1585404516579102e-05 -5.2987726636033732e-05 0 -5.7315816351435055e-05 -5.0861741094031885e-05 0 -4.4272861068995422e-05 -4.5352094046394969e-05 0 -4.64462370303949e-05 -4.9910565847583763e-05 0 -4.4585909407984621e-05 -4.4934117181715503e-05 0 -5.6812975071602559e-05 0.00029194924257826201 0 -8.0006596307814046e-05 0.00028183251645689291 0 -6.0522825411152162e-05 0.00026163834801073554 0 -7.7799844278860818e-05 -0.00014661537773340017 0 -6.7202576653434365e-05 -0.00014070763793026748 0 -7.4269885593897684e-05 -0.00013229056240355588 0 -5.020993422520926e-06 2.3085024236080431e-07 0 -6.9536725898244074e-06 4.0356190049011646e-07 0 -6.0369134181585611e-06 4.711880029802369e-07 0 -8.256949597670169e-06 9.4211541493050038e-07 0 -6.0369134181585611e-06 4.711880029802369e-07 0 -6.9536725898244074e-06 4.0356190049011646e-07 0 -4.2590820702104479e-05 0.0002336473542936642 0 -6.0522825411152162e-05 0.00026163834801073554 0 -6.230666122864921e-05 0.00023481363930698593 0 -8.0121848671647187e-05 -0.00012030854557476794 0 -7.4269885593897684e-05 -0.00013229056240355588 0 -7.1321714080167938e-05 -0.00011951265716589373 0 -7.3140121998939472e-06 -6.0735477607827819e-07 0 -7.1154164644870186e-06 -1.4306208241562416e-07 0 -3.5312724034307039e-06 -5.2776529384446129e-07 0 -6.5141523837282425e-06 -1.0826275027830875e-06 0 -3.0541901913157718e-06 -4.0563458310938326e-07 0 -5.8507737470926371e-06 -1.3068419093179516e-06 0 -4.4144635044061678e-05 7.9404154342602041e-05 0 -3.0957103645033855e-05 0.00010825625057513691 0 -5.2117459774875123e-05 0.00011411549425765184 0 -1.1085395706249057e-05 1.589619818013178e-06 0 -5.3909542675743179e-06 3.6453534742018553e-07 0 -7.1154164644870186e-06 -1.4306208241562426e-07 0 -8.7163548701727482e-06 -3.0347921263536322e-06 0 -5.8507737470926371e-06 -1.3068419093179516e-06 0 -4.2821067254002406e-06 -1.2783690008163548e-06 0 -0.00015686384674160739 0.00026612051610339576 0 -0.00013621256248738713 0.00024595374573817952 0 -0.0001228013606851541 0.00026670415392799143 0 -3.5534153268871182e-05 -0.00012538887929061256 0 -4.1910750903246121e-05 -0.00011877471747375253 0 -4.9267709224318171e-05 -0.00013055531778386392 0 -3.4926360372544079e-05 3.8671183785513768e-05 0 -5.1040655492579946e-05 4.2285156166387248e-05 0 -3.6623328475590916e-05 2.9467462036625808e-05 0 -4.2930009031361709e-05 2.5163434929131887e-05 0 -3.6623328475590916e-05 2.9467462036625808e-05 0 -5.1040655492579946e-05 4.2285156166387248e-05 0 -5.622290462267346e-05 -6.8073787345238998e-05 0 -5.191235158451948e-05 -5.1541390464657989e-05 0 -5.9250904186953205e-05 -5.8805826580681983e-05 0 -3.3746543196280774e-05 -1.061551035826037e-05 0 -3.4562060115086634e-05 -1.9794923697872131e-05 0 -3.0286822439754535e-05 -1.371418165859898e-05 0 -7.2129348493114398e-05 0.00012234677142706623 0 -8.0871750305566543e-05 0.0001057753195664429 0 -6.5388209753915955e-05 8.9886655048161831e-05 0 -6.848636540966842e-05 6.3286436824971991e-05 0 -6.5388209753915955e-05 8.9886655048161831e-05 0 -7.9672883996504177e-05 8.7186943305513062e-05 0 -5.2259965965070677e-05 -4.1065697023119629e-05 0 -5.8092722125639537e-05 -5.0523344228373179e-05 0 -5.191235158451948e-05 -5.1541390464657989e-05 0 -4.3508508258856427e-05 -4.6975194382931988e-05 0 -4.012028140975676e-05 -5.8284409213458237e-05 0 -3.6089271754131174e-05 -4.1676752826317268e-05 0 -5.7053727265601824e-05 -4.4600757419076507e-05 0 -5.8950090174238556e-05 -4.5835614586678496e-05 0 -5.9869308027120255e-05 -4.8472480375199328e-05 0 -4.1038051218620995e-05 -3.9287215346268187e-05 0 -4.1345754510215257e-05 -3.9872448831541392e-05 0 -3.7965615798644614e-05 -3.4674894317998157e-05 0 -3.1397155076470733e-05 -6.1559229153838499e-06 0 -3.6635131007022644e-05 -1.2718262796779779e-05 0 -3.4416962694593026e-05 -9.086043585884653e-06 0 -3.716418215974297e-05 -1.563139201913469e-05 0 -4.0877377488392916e-05 -1.8055975677830509e-05 0 -3.6635131007022644e-05 -1.2718262796779779e-05 0 -1.9245939006969582e-05 7.7603086953998393e-06 0 -1.7447616466740659e-05 5.048913312488766e-06 0 -2.2797445821356651e-05 3.1046012792962802e-06 0 -3.4391967095258018e-05 -3.0355454923135939e-05 0 -3.0337872456391591e-05 -2.2542477001792989e-05 0 -3.4581922196413959e-05 -2.6399255119542468e-05 0 -5.6812975071602559e-05 0.00029194924257826201 0 -3.800211188887507e-05 0.000262755008665668 0 -3.3127780896788249e-05 0.00028571090072345719 0 -7.7799844278860818e-05 -0.00014661537773340017 0 -8.4704811848973973e-05 -0.00013461043037982942 0 -8.8686536015346133e-05 -0.00014596655679051406 0 -1.9985292531605323e-05 1.318217108379544e-06 0 -2.2797445821356651e-05 3.1046012792962802e-06 0 -1.7447616466740659e-05 5.048913312488766e-06 0 -3.4729167939181793e-05 -2.8400349467093399e-05 0 -3.9164729512904573e-05 -3.0914839211843188e-05 0 -3.7000154829564789e-05 -3.2210033193200065e-05 0 -4.9632977343217114e-05 -4.3592929380969019e-05 0 -4.812900458934337e-05 -4.525630205567772e-05 0 -4.7177097928660148e-05 -4.0939309245662358e-05 0 -1.43398901482617e-05 5.0413152145654748e-06 0 -1.5583616773428547e-05 2.3524280947572709e-06 0 -1.7447616466740659e-05 5.048913312488766e-06 0 -4.0768591205210343e-06 -4.521906685174724e-07 0 -5.7038922044883999e-06 -3.2398963551202749e-08 0 -5.6026564993711898e-06 -6.0693118502810657e-07 0 -8.4452117915981379e-05 -6.6589451297820182e-05 0 -8.9490791855737162e-05 -7.9468751280554334e-05 0 -7.5455625220861576e-05 -6.9947482612113385e-05 0 -1.3071614636093004e-05 1.3275736989660037e-06 0 -1.0249770720957132e-05 2.3070564163797568e-07 0 -8.8474305912122104e-06 3.3254329163644897e-07 0 -9.1270419402168524e-06 2.0705457234649168e-06 0 -1.0371394191124317e-05 3.3641500478617193e-06 0 -8.3946635520777655e-06 1.6026759414462858e-06 0 -1.9985292531605323e-05 1.318217108379544e-06 0 -2.5692148624012183e-05 -2.052185692064927e-06 0 -2.2797445821356651e-05 3.1046012792962802e-06 0 -0.00014362526176147966 0.0001495202834801733 0 -0.00013549872061191672 0.00012139961739797019 0 -0.00011453131297874487 0.00013037115722445655 0 -3.5811755191566303e-06 1.5063746567956505e-07 0 -2.8999935611379868e-06 1.2505760115803077e-07 0 -1.4754749234207861e-06 1.1755534216940362e-07 0 -1.0634988575057039e-05 2.6438680282822118e-06 0 -1.1988202383629271e-05 5.2155371359933842e-06 0 -1.3774150734381474e-05 5.0012205761931233e-06 0 -4.6724021771339778e-05 -2.9254376008647085e-05 0 -4.8446473956766056e-05 -2.9642303463041251e-05 0 -5.0097169214887841e-05 -3.3905681540100704e-05 0 -7.068052661057464e-05 -9.816571183498735e-05 0 -7.9430216595837176e-05 -9.2159215472100215e-05 0 -8.3047804274928076e-05 -0.00010686427781117931 0 -1.3071614636093004e-05 1.3275736989660037e-06 0 -8.8474305912122104e-06 3.3254329163644897e-07 0 -1.0759154669409065e-05 1.5125622585091032e-06 0 -5.020993422520926e-06 2.3085024236080431e-07 0 -3.5198992031051343e-06 7.0125557113997635e-08 0 -2.8999935611379868e-06 1.2505760115803077e-07 0 -1.6463597975931048e-05 4.9779976008322948e-06 0 -1.3774150734381474e-05 5.0012205761931233e-06 0 -1.8225475800507909e-05 7.9803369612862253e-06 0 -4.8135289479414857e-05 -2.7910844158358038e-05 0 -4.8446473956766056e-05 -2.9642303463041251e-05 0 -4.4864051339410888e-05 -2.4365792936071138e-05 0 -5.7053727265601824e-05 -4.4600757419076507e-05 0 -5.681346452798355e-05 -4.6105804680667531e-05 0 -5.4270993400838397e-05 -4.1846882274269721e-05 0 -3.5030432172389646e-05 9.7873389700023065e-06 0 -2.78782173901426e-05 6.3943284174040254e-06 0 -3.2445097506253951e-05 1.0280861084493176e-05 0 -7.7030905585268374e-06 0.00025202209693368495 0 -3.800211188887507e-05 0.000262755008665668 0 -2.4008783182270828e-05 0.00023975631846553626 0 -9.8919850955842391e-05 -0.00013361389203878147 0 -8.4704811848973973e-05 -0.00013461043037982942 0 -8.9594657776649917e-05 -0.00012516383147691764 0 -7.4279429740345427e-06 1.0377457155334067e-06 0 -8.3946635520777655e-06 1.6026759414462858e-06 0 -6.5242130712541554e-06 5.7589131131346169e-07 0 -9.1270419402168524e-06 2.0705457234649168e-06 0 -8.3946635520777655e-06 1.6026759414462858e-06 0 -7.4279429740345427e-06 1.0377457155334067e-06 0 -0.00011632068392909197 0.00023507611494163807 0 -0.0001228013606851541 0.00026670415392799143 0 -0.00013621256248738713 0.00024595374573817952 0 -4.8905973351809228e-05 -0.00011566068037212657 0 -4.9267709224318177e-05 -0.00013055531778386392 0 -4.1910750903246121e-05 -0.00011877471747375253 0 -8.256949597670169e-06 9.4211541493050038e-07 0 -1.0689636315057591e-05 5.4831688906839904e-07 0 -1.0484112877203261e-05 1.9525206767346096e-06 0 -1.2895197575609605e-05 1.0976228837602906e-06 0 -1.0484112877203261e-05 1.9525206767346096e-06 0 -1.0689636315057591e-05 5.4831688906839904e-07 0 -8.256949597670169e-06 9.4211541493050038e-07 0 -7.4279429740345427e-06 1.0377457155334067e-06 0 -6.0369134181585611e-06 4.711880029802369e-07 0 -2.2211991050107408e-05 -8.3834817244712202e-06 0 -2.2934097782388907e-05 -8.4812211520245299e-06 0 -1.7834916717603248e-05 -5.9557897792678768e-06 0 -2.5129967865403555e-05 -1.2146376169931511e-05 0 -3.0188105900344147e-05 -1.7464903647718713e-05 0 -2.6051580254020927e-05 -1.4453390918294644e-05 0 -3.0056402224580274e-05 -1.9809201881113646e-05 0 -2.6051580254020927e-05 -1.4453390918294644e-05 0 -3.0188105900344147e-05 -1.7464903647718713e-05 0 -2.2211991050107408e-05 -8.3834817244712202e-06 0 -1.7834916717603248e-05 -5.9557897792678768e-06 0 -1.7022782099970386e-05 -5.9910474301784997e-06 0 -4.4144635044061678e-05 7.9404154342602041e-05 0 -2.4948214951101564e-05 7.9850253870937255e-05 0 -3.0957103645033855e-05 0.00010825625057513691 0 -7.9553157915019767e-05 0.00025149480877044536 0 -8.0006596307814046e-05 0.00028183251645689291 0 -9.7587039508368608e-05 0.00026862334402250716 0 -6.5304599096370274e-05 -0.0001263384567035975 0 -6.7202576653434365e-05 -0.00014070763793026748 0 -5.9291743121905142e-05 -0.00013343674937704511 0 -1.543405167079226e-05 -3.5419184096440856e-06 0 -1.2025898560264792e-05 -2.1973945100681227e-06 0 -1.5204958856031823e-05 -4.1493949761795778e-06 0 -2.1575517532562469e-09 8.2306605907143745e-11 0 -1.4754749234207861e-06 1.1755534216940362e-07 0 -2.8999935611379868e-06 1.2505760115803077e-07 0 -1.5277111090629503e-05 8.4158049822366386e-06 0 -1.5746249706772713e-05 1.2688026888234489e-05 0 -1.9738250136040346e-05 1.3198945446836054e-05 0 -4.0598605319177032e-05 -3.5864265971430915e-05 0 -3.9164729512904573e-05 -3.0914839211843188e-05 0 -4.3784603410418406e-05 -3.6946732970480712e-05 0 -4.2992310489006641e-05 -3.1292586803511386e-05 0 -4.4397652168620901e-05 -2.922113842268255e-05 0 -4.5855962497030482e-05 -3.4044348929184003e-05 0 -7.0319687642087398e-06 5.7839123669821329e-08 0 -9.2613866730182606e-06 -6.0076077522552225e-07 0 -8.6844699307725165e-06 1.3833301673948708e-07 0 -6.5400729886331486e-05 -5.7908582044192156e-05 0 -7.5455625220861576e-05 -6.9947482612113385e-05 0 -6.3976896491927581e-05 -6.8283652382844655e-05 0 -7.2617363170291474e-05 -7.8570398787873141e-05 0 -6.3976896491927581e-05 -6.8283652382844655e-05 0 -7.5455625220861576e-05 -6.9947482612113385e-05 0 -2.1551290822361391e-09 -1.0517521790069088e-10 0 -2.1575517532563487e-09 8.2306605907143047e-11 0 -1.8624808446738987e-06 -1.2689897697181326e-08 0 -0.00010441666450612546 0.00014955640867450365 0 -0.00011453131297874487 0.00013037115722445655 0 -9.1912999789857413e-05 0.00012719848157471915 0 -9.4939021294532008e-05 0.00010426274474910647 0 -9.1912999789857413e-05 0.00012719848157471915 0 -0.00011453131297874487 0.00013037115722445655 0 -5.898274746029773e-05 -4.9402286756861853e-05 0 -5.681346452798355e-05 -4.6105804680667531e-05 0 -5.9869308027120255e-05 -4.8472480375199328e-05 0 -4.4272861068995422e-05 -4.5352094046394969e-05 0 -4.1345754510215257e-05 -3.9872448831541392e-05 0 -4.3505879732123416e-05 -4.323700120285904e-05 0 -2.4371866042706503e-05 1.1948407610685501e-05 0 -1.8225475800507909e-05 7.9803369612862253e-06 0 -1.9738250136040346e-05 1.3198945446836054e-05 0 -5.4069896756039611e-05 -4.5033183668685459e-05 0 -5.168553906169346e-05 -4.376156307974968e-05 0 -5.2042973590078675e-05 -4.169398791068879e-05 0 -1.7466834263223704e-05 1.537339913856622e-05 0 -1.8654943398682414e-05 1.9841984848413283e-05 0 -1.5725160948573391e-05 2.0158012760279421e-05 0 -1.3071614636093004e-05 1.3275736989660037e-06 0 -1.0759154669409065e-05 1.5125622585091032e-06 0 -1.3334152717138155e-05 2.9589340027574834e-06 0 -4.2930009031361709e-05 2.5163434929131887e-05 0 -2.8348387383958929e-05 1.9495684494376861e-05 0 -3.6623328475590916e-05 2.9467462036625808e-05 0 1.4325713228551041e-06 0.00010869619124865843 0 -1.705965907987004e-05 0.00013003537638343253 0 -3.0957103645033855e-05 0.00010825625057513691 0 -1.543405167079226e-05 -3.5419184096440856e-06 0 -1.2324230783752339e-05 -1.6302756081110438e-06 0 -1.2025898560264792e-05 -2.1973945100681227e-06 0 -7.9553157915019767e-05 0.00025149480877044536 0 -6.0522825411152162e-05 0.00026163834801073554 0 -8.0006596307814046e-05 0.00028183251645689291 0 -6.5304599096370274e-05 -0.0001263384567035975 0 -7.4269885593897684e-05 -0.00013229056240355588 0 -6.7202576653434365e-05 -0.00014070763793026748 0 -8.4515035061109885e-06 -7.4071104253380396e-07 0 -1.0252497466594266e-05 -1.6571961356362289e-06 0 -1.2025898560264792e-05 -2.1973945100681227e-06 0 -2.8838381264144077e-05 -1.4753154000833974e-05 0 -3.4199564739319357e-05 -1.8141597874420342e-05 0 -3.1300240558992378e-05 -1.2709125019518436e-05 0 -4.2590820702104479e-05 0.0002336473542936642 0 -2.4008783182270828e-05 0.00023975631846553626 0 -3.800211188887507e-05 0.000262755008665668 0 -8.0121848671647187e-05 -0.00012030854557476794 0 -8.9594657776649904e-05 -0.00012516383147691764 0 -8.4704811848973973e-05 -0.00013461043037982942 0 -4.1184135766225923e-05 -1.8367033209683869e-05 0 -4.8571998602417533e-05 -2.2772488752381613e-05 0 -4.067173325640227e-05 -1.8285393110275789e-05 0 -7.1424124508441344e-05 2.811645505942167e-05 0 -5.8833532044143399e-05 2.0341475467814318e-05 0 -5.7335925553195228e-05 2.0425294540087421e-05 0 -3.4926360372544079e-05 3.8671183785513768e-05 0 -3.996270732259826e-05 5.5942607932670033e-05 0 -5.1976524099039861e-05 6.0205266256311572e-05 0 -1.8913472158862037e-05 -6.3849806915238672e-06 0 -2.3625098158173746e-05 -9.0325611004917878e-06 0 -2.2181982727430275e-05 -8.4849295133378379e-06 0 -6.3946065590202107e-05 -5.8841108438862004e-05 0 -6.1508708675940015e-05 -5.5027806135549895e-05 0 -6.1585404516579102e-05 -5.2987726636033732e-05 0 -6.3946065590202107e-05 -5.8841108438862004e-05 0 -6.1585404516579102e-05 -5.2987726636033732e-05 0 -6.3495588233252975e-05 -5.6464953596665377e-05 0 -4.3465484853615344e-05 -4.0215303034018323e-05 0 -4.2000501379933615e-05 -3.7200112833918928e-05 0 -4.4585909407984621e-05 -4.4934117181715503e-05 0 -4.3465484853615344e-05 -4.0215303034018323e-05 0 -4.4585909407984621e-05 -4.4934117181715503e-05 0 -4.6023509105211008e-05 -4.7819466369576201e-05 0 -5.898274746029773e-05 -4.9402286756861853e-05 0 -5.5590900162450331e-05 -4.7676488984907181e-05 0 -5.681346452798355e-05 -4.6105804680667531e-05 0 -4.4272861068995422e-05 -4.5352094046394969e-05 0 -4.3505879732123416e-05 -4.323700120285904e-05 0 -4.5853070679781292e-05 -4.733373122711435e-05 0 -3.0952228653459784e-05 -2.4935280216062682e-05 0 -3.5366238494904191e-05 -3.119155448053582e-05 0 -3.4191807727913294e-05 -2.8443835084607955e-05 0 -5.7751323214449491e-05 -4.1573986959210244e-05 0 -5.9804458025749773e-05 -4.6202205435874755e-05 0 -5.6007279919438615e-05 -4.1173878859510748e-05 0 -1.3786266926143232e-05 1.2499651052061958e-06 0 -2.4067502766773338e-05 -7.4689120182215643e-06 0 -1.8761231140606223e-05 -9.7735643768273338e-06 0 -5.6812975071602559e-05 0.00029194924257826201 0 -4.0132237689734073e-05 0.00030968557768628767 0 -6.2216635003934338e-05 0.00031850917173100899 0 -0.0001080938715260146 0.0002952807670351455 0 -0.00010460425495321916 0.00032099456132599833 0 -0.00012835616342846105 0.00031612706325672205 0 -7.7799844278860818e-05 -0.00014661537773340017 0 -8.656586942795481e-05 -0.00015617834063590247 0 -7.645102248213607e-05 -0.00015834373091293835 0 -5.6888148183039869e-05 -0.0001455594571582996 0 -5.9337808633868122e-05 -0.00015727975048859558 0 -5.0622238846739151e-05 -0.00015308774651888384 0 -1.0563141473749853e-05 -5.0895208354691472e-07 0 -8.6844699307725165e-06 1.3833301673948708e-07 0 -9.2613866730182606e-06 -6.0076077522552225e-07 0 -5.6812975071602559e-05 0.00029194924257826201 0 -3.3127780896788249e-05 0.00028571090072345719 0 -4.0132237689734073e-05 0.00030968557768628767 0 -7.7799844278860818e-05 -0.00014661537773340017 0 -8.8686536015346133e-05 -0.00014596655679051406 0 -8.656586942795481e-05 -0.00015617834063590247 0 -3.1397155076470733e-05 -6.1559229153838499e-06 0 -2.8715132495844485e-05 -1.4735193635543464e-06 0 -2.5692148624012183e-05 -2.052185692064927e-06 0 -0.0001080938715260146 0.0002952807670351455 0 -0.00012835616342846105 0.00031612706325672205 0 -0.00013309232934616768 0.00029268616968124449 0 -5.6888148183039869e-05 -0.0001455594571582996 0 -5.0622238846739151e-05 -0.00015308774651888384 0 -4.7396071985218864e-05 -0.00014181456022928994 0 -4.3183344688306817e-05 -7.451873243581017e-05 0 -3.4372091938565643e-05 -6.5441182227945054e-05 0 -4.012028140975676e-05 -5.8284409213458237e-05 0 -4.3988993696284186e-05 -2.2184861599680243e-05 0 -4.4864051339410888e-05 -2.4365792936071138e-05 0 -4.0877377488392916e-05 -1.8055975677830509e-05 0 -4.1934513218958083e-05 -2.0616197001012282e-05 0 -4.0877377488392916e-05 -1.8055975677830509e-05 0 -4.4864051339410888e-05 -2.4365792936071138e-05 0 -1.6463597975931048e-05 4.9779976008322948e-06 0 -1.7667052785586017e-05 3.4857098639766415e-06 0 -1.3334152717138155e-05 2.9589340027574834e-06 0 -7.2129348493114398e-05 0.00012234677142706623 0 -5.2117459774875123e-05 0.00011411549425765184 0 -6.1375087898282593e-05 0.00014376726538807127 0 -8.9490791855737162e-05 -7.9468751280554334e-05 0 -8.1705245932821936e-05 -8.2212756723729527e-05 0 -7.5455625220861576e-05 -6.9947482612113385e-05 0 -2.0298791783016472e-05 1.9320301869503117e-05 0 -2.8348387383958929e-05 1.9495684494376861e-05 0 -1.9738250136040346e-05 1.3198945446836054e-05 0 -2.4371866042706503e-05 1.1948407610685501e-05 0 -1.9738250136040346e-05 1.3198945446836054e-05 0 -2.8348387383958929e-05 1.9495684494376861e-05 0 -1.0858015734163057e-05 3.5198113338696768e-06 0 -1.2271563470293638e-05 3.4940068556934709e-06 0 -1.2903470543901586e-05 6.1343533930664632e-06 0 -4.677844185313781e-05 -3.781687835523256e-05 0 -4.7177097928660148e-05 -4.0939309245662358e-05 0 -4.3784603410418406e-05 -3.6946732970480712e-05 0 -4.5424283453225949e-05 -4.1832329341927545e-05 0 -4.3784603410418406e-05 -3.6946732970480712e-05 0 -4.7177097928660148e-05 -4.0939309245662358e-05 0 -0.00011283059958664745 7.2354768542832123e-05 0 -9.9297084421718526e-05 5.3423809265721025e-05 0 -8.9125743352561984e-05 5.7191936370533223e-05 0 -6.3976866524946251e-05 -3.5481392235264086e-05 0 -7.1440791411137735e-05 -4.4280842563930975e-05 0 -5.9687449640528572e-05 -3.6737838990409628e-05 0 -2.9313590017982061e-09 -4.1196524377808744e-10 0 -2.558164985052181e-09 -3.2677725622986884e-10 0 -2.4178698003052524e-06 -5.7889885598459401e-07 0 -2.6676245751193813e-09 1.4635638977132473e-10 0 -2.9328707290787753e-09 1.2245714800693326e-10 0 -2.6074491420479353e-06 8.1827535585901442e-08 0 -1.5277111090629503e-05 8.4158049822366386e-06 0 -1.1988202383629271e-05 5.2155371359933842e-06 0 -1.3675202357759198e-05 8.1014484784237493e-06 0 -1.43398901482617e-05 5.0413152145654748e-06 0 -1.2903470543901586e-05 6.1343533930664632e-06 0 -1.2271563470293638e-05 3.4940068556934709e-06 0 -1.0858015734163057e-05 3.5198113338696768e-06 0 -1.1988202383629271e-05 5.2155371359933833e-06 0 -1.0371394191124317e-05 3.3641500478617193e-06 0 -1.6368322929597247e-05 1.6190447739723252e-06 0 -2.1745735842653062e-05 3.7446122562556474e-06 0 -1.6877257753775319e-05 2.6504395359561393e-06 0 -1.3357745337559178e-05 -3.9772406602709789e-06 0 -1.3170996907459592e-05 -4.6116800473931109e-06 0 -1.7022782099970386e-05 -5.9910474301784997e-06 0 -3.7156961818435147e-05 0.00014083728773777921 0 -3.0957103645033855e-05 0.00010825625057513691 0 -1.705965907987004e-05 0.00013003537638343253 0 -1.6368322929597247e-05 1.6190447739723252e-06 0 -1.6877257753775315e-05 2.6504395359561389e-06 0 -1.2539731893986866e-05 9.5553530546632664e-07 0 -1.3357745337559178e-05 -3.9772406602709789e-06 0 -1.0119850145743285e-05 -2.9348260676340694e-06 0 -1.3170996907459592e-05 -4.6116800473931109e-06 0 -5.2228380125340305e-05 -3.8369935418666433e-05 0 -5.4270993400838397e-05 -4.1846882274269721e-05 0 -5.2042973590078675e-05 -4.169398791068879e-05 0 -4.4144635044061678e-05 7.9404154342602041e-05 0 -2.9185793865315251e-05 5.0393654745903352e-05 0 -2.4948214951101564e-05 7.9850253870937255e-05 0 -1.0634988575057039e-05 2.6438680282822118e-06 0 -1.0371394191124317e-05 3.3641500478617193e-06 0 -1.1988202383629271e-05 5.2155371359933842e-06 0 -4.0598605319177032e-05 -3.5864265971430915e-05 0 -3.7000154829564789e-05 -3.2210033193200065e-05 0 -3.9164729512904573e-05 -3.0914839211843188e-05 0 -4.316937512784594e-09 -3.1229460059374707e-10 0 -3.5098775019254716e-09 -5.6466237272836292e-10 0 -3.3938424150196196e-06 -7.7700374408211366e-07 0 -3.293472803695191e-09 1.0392801297220397e-10 0 -3.7887338887499363e-09 -1.3945905168496464e-10 0 -3.1426956519470832e-06 -2.0574420637662581e-07 0 -2.735846366856004e-05 -1.1963143883403836e-05 0 -3.4213862476172349e-05 -1.484692125741258e-05 0 -2.7998645505702877e-05 -1.1428063313817779e-05 0 -4.7358135331628549e-05 1.4970159144112967e-05 0 -3.6734136295468067e-05 1.132266123521649e-05 0 -3.8388326460957292e-05 1.0325579681605774e-05 0 -3.9997490481182819e-05 -3.0519211628817745e-05 0 -4.2974740419956391e-05 -2.7901308802100203e-05 0 -4.6778046981783974e-05 -3.4958951058650799e-05 0 -2.5974506182989257e-05 -5.6758093584006858e-05 0 -3.2431161912046902e-05 -5.1889998093136389e-05 0 -3.4372091938565636e-05 -6.544118222794504e-05 0 -2.7094969143332187e-05 -7.0907737485976351e-06 0 -2.6764823636139834e-05 -1.0256427434786555e-05 0 -3.1300240558992378e-05 -1.2709125019518436e-05 0 -1.5482216823549748e-05 -4.3974524482749387e-07 0 -1.5583616773428547e-05 2.3524280947572709e-06 0 -1.2895197575609605e-05 1.0976228837602906e-06 0 -1.8214814283177126e-05 -3.9592040249022645e-07 0 -1.5583616773428547e-05 2.3524280947572709e-06 0 -1.5482216823549748e-05 -4.3974524482749387e-07 0 -1.4511507678226244e-05 9.7528819851173314e-06 0 -1.5746249706772713e-05 1.2688026888234489e-05 0 -1.3675202357759198e-05 8.1014484784237493e-06 0 -1.5277111090629503e-05 8.4158049822366386e-06 0 -1.3675202357759198e-05 8.1014484784237493e-06 0 -1.5746249706772713e-05 1.2688026888234489e-05 0 -4.5491660095551003e-05 -4.4751783751786899e-05 0 -4.8061734207239628e-05 -4.8081857037473829e-05 0 -4.5853070679781292e-05 -4.733373122711435e-05 0 -5.1131179623172783e-05 -3.059998754948494e-05 0 -4.8135289479414857e-05 -2.7910844158358038e-05 0 -4.6338674182240717e-05 -2.5041662542520836e-05 0 -2.8838381264144077e-05 -1.4753154000833974e-05 0 -2.9774490891350938e-05 -1.9858525532063954e-05 0 -3.4199564739319357e-05 -1.8141597874420342e-05 0 -3.1093764484774383e-05 -2.5472921585446936e-05 0 -3.4199564739319357e-05 -1.8141597874420342e-05 0 -2.9774490891350938e-05 -1.9858525532063954e-05 0 -2.0726017077118495e-05 -9.508413777975863e-06 0 -2.7358463668560044e-05 -1.1963143883403837e-05 0 -2.3134120112420727e-05 -9.5175761920232072e-06 0 -3.6734136295468067e-05 1.132266123521649e-05 0 -2.6998804468796355e-05 8.7106278485868764e-06 0 -3.0931157001519992e-05 8.1316867291017278e-06 0 -5.0402231332322001e-05 -5.3341157000890766e-05 0 -4.8469539170450026e-05 -5.3016126952853004e-05 0 -4.9394412283607443e-05 -5.1040607144577939e-05 0 -2.8348387383958929e-05 1.9495684494376861e-05 0 -2.7378545549163679e-05 2.5919448601310413e-05 0 -3.6623328475590916e-05 2.9467462036625808e-05 0 -8.256949597670169e-06 9.4211541493050038e-07 0 -9.1270419402168524e-06 2.0705457234649163e-06 0 -7.4279429740345427e-06 1.0377457155334067e-06 0 -7.1154164644870186e-06 -1.4306208241562426e-07 0 -1.105192500687879e-05 1.7449453048049243e-07 0 -1.2539731893986866e-05 9.5553530546632664e-07 0 -5.8507737470926371e-06 -1.3068419093179516e-06 0 -1.0119850145743285e-05 -2.9348260676340699e-06 0 -9.3015053074785462e-06 -2.2497007999896549e-06 0 -8.4515035061109885e-06 -7.4071104253380396e-07 0 -8.0620403296739792e-06 -9.1964576828464559e-07 0 -1.0252497466594266e-05 -1.6571961356362292e-06 0 -2.7094969143332187e-05 -7.0907737485976351e-06 0 -2.9242450343532585e-05 -6.3062079929876168e-06 0 -2.5692148624012183e-05 -2.052185692064927e-06 0 -4.1038051218620995e-05 -3.9287215346268187e-05 0 -4.2448820131577008e-05 -3.9882544488366763e-05 0 -4.3505879732123416e-05 -4.323700120285904e-05 0 -1.1935154409559833e-05 -2.5746410949289669e-06 0 -1.0252497466594264e-05 -1.6571961356362289e-06 0 -8.0620403296739792e-06 -9.1964576828464559e-07 0 -0.00015361015953504291 0.00020862938218520232 0 -0.00012405112343364199 0.0001926126661657912 0 -0.00013210169492068653 0.00022020870894589518 0 -3.0396436992622411e-05 -9.7938212342171336e-05 0 -4.1006814812837787e-05 -9.4059937863649293e-05 0 -4.0844988664179947e-05 -0.00010660297482204524 0 -2.8394931973415826e-05 -8.4178638315970928e-05 0 -3.7163971810598637e-05 -8.0582997589977309e-05 0 -4.1006814812837787e-05 -9.4059937863649293e-05 0 -3.7764561351794027e-05 -1.4635160476173402e-05 0 -3.4416962694593026e-05 -9.086043585884653e-06 0 -3.6635131007022644e-05 -1.2718262796779779e-05 0 -5.1131179623172783e-05 -3.059998754948494e-05 0 -5.1628008397651045e-05 -3.2639514925083987e-05 0 -4.8135289479414857e-05 -2.7910844158358038e-05 0 -1.543405167079226e-05 -3.5419184096440856e-06 0 -1.9813699544698445e-05 -6.7925738756383547e-06 0 -1.7730183679983724e-05 -4.1663609344151804e-06 0 -3.1397155076470733e-05 -6.1559229153838499e-06 0 -2.5692148624012183e-05 -2.052185692064927e-06 0 -2.9242450343532585e-05 -6.3062079929876159e-06 0 -1.4371442004011524e-05 0.00030393929873668841 0 -3.0884004721517534e-05 0.00032025843810731098 0 -4.0132237689734073e-05 0.00030968557768628767 0 -9.9159049515537995e-05 -0.00015759101275917677 0 -9.1675441694433083e-05 -0.00016237112179628429 0 -8.656586942795481e-05 -0.00015617834063590247 0 -4.0399024189779998e-05 -0.00014965383178366674 0 -5.0622238846739144e-05 -0.00015308774651888384 0 -4.7175001336614394e-05 -0.00015740475539174353 0 -0.00015705529655339354 0.00031928168950090617 0 -0.00012835616342846105 0.00031612706325672205 0 -0.00013998116183703969 0.00033023728618465073 0 -1.8705944758363719e-05 -2.9105574691860507e-06 0 -1.5159576428140507e-05 -2.036715436666191e-06 0 -1.7730183679983724e-05 -4.1663609344151804e-06 0 -1.543405167079226e-05 -3.5419184096440856e-06 0 -1.7730183679983724e-05 -4.1663609344151804e-06 0 -1.5159576428140507e-05 -2.036715436666191e-06 0 -2.3357937637602614e-05 -1.1391842305120177e-05 0 -1.9813699544698445e-05 -6.7925738756383539e-06 0 -2.0419525715264451e-05 -8.2431952940632617e-06 0 -5.6087037111724643e-05 2.3137476821751149e-05 0 -5.7335925553195228e-05 2.0425294540087421e-05 0 -4.3943807163038626e-05 1.44865610094145e-05 0 -4.6693762256816459e-05 1.3960254608165072e-05 0 -4.3943807163038626e-05 1.44865610094145e-05 0 -5.7335925553195228e-05 2.0425294540087421e-05 0 -2.4371866042706503e-05 1.1948407610685501e-05 0 -2.8264114443083715e-05 1.0611185021757957e-05 0 -2.1248126918477702e-05 7.0664853450190732e-06 0 -2.5129967865403555e-05 -1.2146376169931511e-05 0 -1.9985127875544815e-05 -7.8601924286221184e-06 0 -2.1326313539910071e-05 -8.3902603984771994e-06 0 -2.8838381264144077e-05 -1.4753154000833974e-05 0 -2.7062411300509743e-05 -1.6415621199723826e-05 0 -2.9774490891350938e-05 -1.9858525532063954e-05 0 -1.3357745337559178e-05 -3.9772406602709789e-06 0 -1.085515413592872e-05 -2.5262523773613762e-06 0 -9.3015053074785462e-06 -2.2497007999896549e-06 0 -6.5141523837282425e-06 -1.0826275027830875e-06 0 -9.3015053074785462e-06 -2.2497007999896549e-06 0 -1.0855154135928722e-05 -2.5262523773613767e-06 0 -7.3140121998939472e-06 -6.0735477607827819e-07 0 -1.1958925132489948e-05 2.7277773695273914e-07 0 -1.1051925006878792e-05 1.7449453048049261e-07 0 -1.6368322929597247e-05 1.6190447739723252e-06 0 -1.105192500687879e-05 1.744945304804924e-07 0 -1.1958925132489948e-05 2.7277773695273914e-07 0 -7.2617363170291474e-05 -7.8570398787873141e-05 0 -7.9430216595837189e-05 -9.2159215472100215e-05 0 -6.8975351403067394e-05 -8.6170666246270064e-05 0 -7.068052661057464e-05 -9.816571183498735e-05 0 -6.8975351403067394e-05 -8.6170666246270064e-05 0 -7.9430216595837189e-05 -9.2159215472100215e-05 0 -3.155490391607238e-06 -8.1102269200178649e-07 0 -2.4178698003052524e-06 -5.7889885598459401e-07 0 -5.6026564993711898e-06 -6.0693118502810657e-07 0 -4.0768591205210343e-06 -4.521906685174724e-07 0 -5.6026564993711898e-06 -6.0693118502810657e-07 0 -2.4178698003052524e-06 -5.7889885598459401e-07 0 -4.712703587263552e-06 -8.4227560512312999e-08 0 -2.6074491420479353e-06 8.1827535585901442e-08 0 -5.605110826148861e-06 -3.8598638198756951e-07 0 -3.1479733683022884e-06 -4.8440559754281316e-08 0 -5.605110826148861e-06 -3.8598638198756951e-07 0 -2.6074491420479353e-06 8.1827535585901442e-08 0 -7.9553157915019767e-05 0.00025149480877044536 0 -6.230666122864921e-05 0.00023481363930698593 0 -6.0522825411152162e-05 0.00026163834801073554 0 -6.5304599096370274e-05 -0.0001263384567035975 0 -7.1321714080167938e-05 -0.00011951265716589373 0 -7.4269885593897684e-05 -0.00013229056240355588 0 -1.3217957721999826e-05 -3.4185595357191789e-06 0 -1.0260062567379991e-05 -2.1157867899825904e-06 0 -1.0855154135928722e-05 -2.5262523773613767e-06 0 -1.3071614636093004e-05 1.3275736989660037e-06 0 -1.1958925132489948e-05 2.7277773695273914e-07 0 -1.0249770720957132e-05 2.3070564163797568e-07 0 -2.5129967865403555e-05 -1.2146376169931511e-05 0 -2.6051580254020927e-05 -1.4453390918294644e-05 0 -2.2203085499882989e-05 -1.0125842545986915e-05 0 -1.3357745337559178e-05 -3.9772406602709789e-06 0 -1.5211978458097206e-05 -4.4906627390888212e-06 0 -1.0855154135928722e-05 -2.5262523773613767e-06 0 -1.6368322929597247e-05 1.6190447739723252e-06 0 -1.1958925132489948e-05 2.7277773695273914e-07 0 -1.7104444035724138e-05 1.9119115146610443e-06 0 -3.1093764484774383e-05 -2.5472921585446936e-05 0 -3.778263751967568e-05 -1.9848053375216509e-05 0 -3.4199564739319357e-05 -1.8141597874420342e-05 0 -1.543405167079226e-05 -3.5419184096440856e-06 0 -1.7598119549166753e-05 -5.6648475119839902e-06 0 -1.9813699544698445e-05 -6.7925738756383547e-06 0 -4.698864035898632e-09 -8.7960682455034963e-10 0 -4.316937512784594e-09 -3.1229460059374707e-10 0 -3.5312724034307039e-06 -5.2776529384446129e-07 0 -3.7887338887499363e-09 -1.3945905168496464e-10 0 -3.9140649745590589e-09 2.0975072717178749e-10 0 -3.0541901913157718e-06 -4.0563458310938326e-07 0 -2.0298791783016472e-05 1.9320301869503117e-05 0 -1.9738250136040346e-05 1.3198945446836054e-05 0 -1.5746249706772713e-05 1.2688026888234489e-05 0 -5.0174593025150143e-05 -4.8496195817536087e-05 0 -5.1406984260278758e-05 -5.1163911324117377e-05 0 -4.9394412283607443e-05 -5.1040607144577939e-05 0 -2.5129967865403555e-05 -1.2146376169931511e-05 0 -2.5936912326570465e-05 -1.1575299537239185e-05 0 -3.0455939349661317e-05 -1.5657718569392718e-05 0 -4.012028140975676e-05 -5.8284409213458237e-05 0 -3.4372091938565636e-05 -6.544118222794504e-05 0 -3.2431161912046902e-05 -5.1889998093136389e-05 0 -1.8705944758363719e-05 -2.9105574691860507e-06 0 -1.5482216823549748e-05 -4.3974524482749387e-07 0 -1.5159576428140507e-05 -2.036715436666191e-06 0 -2.3275072393729459e-05 -8.5572322620549525e-06 0 -2.0455958444015739e-05 -5.7276113800268927e-06 0 -1.9813699544698445e-05 -6.7925738756383547e-06 0 -1.1085395706249057e-05 1.589619818013178e-06 0 -1.6247235826238239e-05 4.3296156956401391e-06 0 -7.847406682739364e-06 2.1150969390780497e-06 0 -8.7163548701727482e-06 -3.0347921263536322e-06 0 -6.1410100685393819e-06 -2.7650260624277805e-06 0 -1.2587076792337949e-05 -5.5044109171697868e-06 0 -3.0056402224580274e-05 -1.9809201881113646e-05 0 -3.0337872456391591e-05 -2.2542477001792993e-05 0 -2.7062411300509743e-05 -1.6415621199723826e-05 0 -1.2895197575609605e-05 1.0976228837602906e-06 0 -1.2482371851634659e-05 -4.8805291459525634e-07 0 -1.5482216823549748e-05 -4.3974524482749387e-07 0 -1.8471390913819991e-05 -6.7182094615253288e-06 0 -1.9985127875544815e-05 -7.8601924286221184e-06 0 -2.2203085499882989e-05 -1.0125842545986915e-05 0 -4.0121155975127031e-05 -1.9200826750109981e-05 0 -4.2135791275720133e-05 -2.3107821004361989e-05 0 -3.5411912672910822e-05 -1.7977134034032036e-05 0 -0.00014965355578298121 0.00017906199030766294 0 -0.000125147153634202 0.00016578302596682564 0 -0.00012405112343364199 0.0001926126661657912 0 -3.0056402224580274e-05 -1.9809201881113646e-05 0 -3.0188105900344147e-05 -1.7464903647718713e-05 0 -3.5000882973930324e-05 -2.3062640251424621e-05 0 -3.6635131007022644e-05 -1.2718262796779779e-05 0 -4.0877377488392916e-05 -1.8055975677830509e-05 0 -3.9357801920377219e-05 -1.6614119619103699e-05 0 -2.5129967865403555e-05 -1.2146376169931511e-05 0 -3.0455939349661317e-05 -1.5657718569392718e-05 0 -3.0188105900344147e-05 -1.7464903647718713e-05 0 -1.5159576428140507e-05 -2.036715436666191e-06 0 -1.5482216823549748e-05 -4.3974524482749387e-07 0 -1.2482371851634659e-05 -4.8805291459525634e-07 0 -4.3988993696284186e-05 -2.2184861599680243e-05 0 -4.6338674182240717e-05 -2.5041662542520836e-05 0 -4.8135289479414857e-05 -2.7910844158358038e-05 0 -2.0298791783016472e-05 1.9320301869503117e-05 0 -1.5725160948573391e-05 2.0158012760279421e-05 0 -2.1325935067104784e-05 2.8405950044940653e-05 0 -2.5129967865403555e-05 -1.2146376169931511e-05 0 -2.1326313539910071e-05 -8.3902603984771994e-06 0 -2.5936912326570465e-05 -1.1575299537239185e-05 0 -0.00015593461777137828 0.00023777710333680263 0 -0.00015361015953504291 0.00020862938218520232 0 -0.00013210169492068653 0.00022020870894589518 0 -3.0396436992622411e-05 -9.7938212342171336e-05 0 -4.0844988664179947e-05 -0.00010660297482204524 0 -3.2776055433209725e-05 -0.00011173090173228287 0 -2.6806967100645362e-05 -7.0476100007923025e-05 0 -3.7163971810598637e-05 -8.0582997589977309e-05 0 -2.8394931973415826e-05 -8.4178638315970928e-05 0 -4.2930009031361709e-05 2.5163434929131887e-05 0 -5.7389591753812891e-05 3.0094894797895545e-05 0 -4.7419834495562564e-05 2.0922145850392829e-05 0 -1.3786266926143232e-05 1.2499651052061958e-06 0 -2.3337728344824885e-05 9.1919656442001087e-06 0 -2.4067502766773338e-05 -7.4689120182215643e-06 0 -4.0121155975127031e-05 -1.9200826750109981e-05 0 -4.067173325640227e-05 -1.8285393110275789e-05 0 -4.6499615900558882e-05 -2.2232264737237052e-05 0 -5.6087037111724643e-05 2.3137476821751149e-05 0 -6.7167841268739285e-05 2.7362676375658816e-05 0 -5.7335925553195228e-05 2.0425294540087421e-05 0 -4.0121155975127031e-05 -1.9200826750109981e-05 0 -4.6499615900558882e-05 -2.2232264737237052e-05 0 -4.8475734362710655e-05 -2.5206836553142099e-05 0 -5.6087037111724643e-05 2.3137476821751149e-05 0 -6.9664156952156108e-05 3.3302926340961302e-05 0 -6.7167841268739285e-05 2.7362676375658816e-05 0 -8.7163548701727482e-06 -3.0347921263536322e-06 0 -4.2821067254002406e-06 -1.2783690008163548e-06 0 -6.1410100685393819e-06 -2.7650260624277805e-06 0 -1.1085395706249057e-05 1.589619818013178e-06 0 -7.847406682739364e-06 2.1150969390780497e-06 0 -5.3909542675743179e-06 3.6453534742018553e-07 0 -2.3275072393729459e-05 -8.5572322620549525e-06 0 -2.5453148609263901e-05 -1.2409661297948492e-05 0 -2.6764823636139834e-05 -1.0256427434786555e-05 0 -2.8838381264144077e-05 -1.4753154000833974e-05 0 -2.6764823636139834e-05 -1.0256427434786555e-05 0 -2.5453148609263901e-05 -1.2409661297948492e-05 0 -5.9804458025749773e-05 -4.6202205435874755e-05 0 -5.8950090174238556e-05 -4.5835614586678496e-05 0 -5.6007279919438615e-05 -4.1173878859510748e-05 0 -3.4191807727913294e-05 -2.8443835084607955e-05 0 -3.5366238494904191e-05 -3.119155448053582e-05 0 -3.7965615798644614e-05 -3.4674894317998157e-05 0 -1.8761231140606223e-05 -9.7735643768273338e-06 0 -2.4067502766773338e-05 -7.4689120182215634e-06 0 -2.5861379929965921e-05 -1.6113428281251236e-05 0 -3.0952228653459784e-05 -2.4935280216062682e-05 0 -3.2008100872067544e-05 -2.6570117402186264e-05 0 -3.5366238494904191e-05 -3.119155448053582e-05 0 -5.7751323214449491e-05 -4.1573986959210244e-05 0 -5.6007279919438615e-05 -4.1173878859510748e-05 0 -5.4180465982517634e-05 -3.7102843965555805e-05 0 -2.5129967865403555e-05 -1.2146376169931511e-05 0 -2.2203085499882989e-05 -1.0125842545986915e-05 0 -1.9985127875544815e-05 -7.8601924286221184e-06 0 -2.3357937637602614e-05 -1.1391842305120177e-05 0 -2.7062411300509743e-05 -1.6415621199723826e-05 0 -2.5453148609263901e-05 -1.2409661297948492e-05 0 -2.8838381264144077e-05 -1.4753154000833974e-05 0 -2.5453148609263901e-05 -1.2409661297948492e-05 0 -2.7062411300509743e-05 -1.6415621199723826e-05 0 -1.8705944758363719e-05 -2.9105574691860507e-06 0 -2.3068563582895254e-05 -6.1718088405983168e-06 0 -2.2256317745735639e-05 -2.73204139534479e-06 0 -0.00014965355578298121 0.00017906199030766294 0 -0.00014362526176147966 0.0001495202834801733 0 -0.000125147153634202 0.00016578302596682564 0 -3.1397155076470733e-05 -6.1559229153838499e-06 0 -2.9242450343532585e-05 -6.3062079929876151e-06 0 -3.2747849981421452e-05 -1.0183449376841286e-05 0 -3.4926360372544079e-05 3.8671183785513768e-05 0 -2.7378545549163679e-05 2.5919448601310413e-05 0 -2.1325935067104784e-05 2.8405950044940653e-05 0 -2.0298791783016472e-05 1.9320301869503117e-05 0 -2.1325935067104784e-05 2.8405950044940653e-05 0 -2.7378545549163679e-05 2.5919448601310413e-05 0 -2.5974506182989257e-05 -5.6758093584006858e-05 0 -3.4372091938565636e-05 -6.544118222794504e-05 0 -2.6806967100645362e-05 -7.0476100007923025e-05 0 -8.5111321288524694e-05 3.8639215047305369e-05 0 -6.7167841268739285e-05 2.7362676375658816e-05 0 -6.9664156952156108e-05 3.3302926340961302e-05 0 -5.6237636668842718e-05 -2.8313207116598752e-05 0 -4.8475734362710655e-05 -2.5206836553142099e-05 0 -4.6499615900558882e-05 -2.2232264737237052e-05 0 -2.7094969143332187e-05 -7.0907737485976351e-06 0 -3.2747849981421446e-05 -1.0183449376841284e-05 0 -2.9242450343532585e-05 -6.3062079929876159e-06 0 -9.6100978661272469e-05 0.00019140757464383568 0 -0.00012405112343364199 0.0001926126661657912 0 -0.00010692034622468868 0.00017055243616640394 0 -9.6100978661272469e-05 0.00019140757464383568 0 -0.00011282097711310209 0.00021148324072918021 0 -0.00012405112343364199 0.0001926126661657912 0 -5.1769265295400162e-05 -9.5984106142320988e-05 0 -4.7638376799247938e-05 -0.00010421872309487827 0 -4.1006814812837787e-05 -9.4059937863649293e-05 0 -5.1769265295400162e-05 -9.5984106142320988e-05 0 -4.100681481283778e-05 -9.4059937863649279e-05 0 -4.5078528933935772e-05 -8.6143607211644361e-05 0 -3.2776055433209725e-05 -0.00011173090173228287 0 -4.1910750903246121e-05 -0.00011877471747375253 0 -3.5534153268871182e-05 -0.00012538887929061256 0 -0.00015686384674160739 0.00026612051610339576 0 -0.00015593461777137828 0.00023777710333680263 0 -0.00013621256248738713 0.00024595374573817952 0 -8.2014883455536924e-06 -1.2438128941171807e-06 0 -6.6125665794938541e-06 -8.4991305225031467e-07 0 -1.0260062567379993e-05 -2.1157867899825908e-06 0 -7.6958711781444332e-06 -3.4826649575941938e-07 0 -1.0249770720957132e-05 2.3070564163797568e-07 0 -6.4994476254886358e-06 -7.8896446503352349e-07 0 -5.1769265295400162e-05 -9.5984106142320988e-05 0 -5.9051951058169238e-05 -9.7327035768424814e-05 0 -5.5252007773659543e-05 -0.0001080894900150536 0 -5.1769265295400162e-05 -9.5984106142320988e-05 0 -5.1819918795680454e-05 -8.5058239432790771e-05 0 -5.9051951058169238e-05 -9.7327035768424814e-05 0 -6.4592247232499062e-05 -0.00011078250028365579 0 -5.5252007773659543e-05 -0.0001080894900150536 0 -5.9051951058169238e-05 -9.7327035768424814e-05 0 -6.0313168034301158e-05 -8.5340695796992647e-05 0 -5.9051951058169238e-05 -9.7327035768424814e-05 0 -5.1819918795680454e-05 -8.5058239432790771e-05 0 -9.6100978661272469e-05 0.00019140757464383568 0 -7.7563948239655947e-05 0.0001928460056397137 0 -9.5930075145141518e-05 0.00021786876657073085 0 -7.4134927005648667e-05 0.00021708216337299388 0 -9.5930075145141518e-05 0.00021786876657073085 0 -7.7563948239655947e-05 0.0001928460056397137 0 -3.7887338887499363e-09 -1.3945905168496464e-10 0 -3.0541901913157718e-06 -4.0563458310938326e-07 0 -3.1426956519470832e-06 -2.0574420637662581e-07 0 -4.316937512784594e-09 -3.1229460059374707e-10 0 -3.3938424150196196e-06 -7.7700374408211366e-07 0 -3.5312724034307039e-06 -5.2776529384446129e-07 0 -6.3444712673045236e-05 -4.6379003482548882e-05 0 -5.3059045644857761e-05 -3.6079109977505596e-05 0 -5.9687449640528572e-05 -3.6737838990409628e-05 0 -9.3589186479616215e-05 7.6930431877485228e-05 0 -8.9125743352561984e-05 5.7191936370533223e-05 0 -7.6093139699189003e-05 5.5267816196161701e-05 0 -2.84304055143913e-05 -1.1572627665999464e-05 0 -3.5035947592756987e-05 -1.5363195171172028e-05 0 -3.308968034066739e-05 -1.4955520100942183e-05 0 -1.0563141473749853e-05 -5.0895208354691472e-07 0 -1.2324230783752339e-05 -1.6302756081110436e-06 0 -1.2482371851634659e-05 -4.8805291459525634e-07 0 -4.7498973589564964e-05 -4.9743424519073514e-05 0 -4.5853070679781292e-05 -4.733373122711435e-05 0 -4.8061734207239628e-05 -4.8081857037473829e-05 0 -2.923455656566314e-05 6.4474008618245899e-06 0 -3.5225399111738988e-05 8.7519953649047311e-06 0 -3.8388326460957292e-05 1.0325579681605774e-05 0 -4.6693762256816459e-05 1.3960254608165072e-05 0 -3.8388326460957292e-05 1.0325579681605774e-05 0 -3.5225399111738988e-05 8.7519953649047311e-06 0 -6.5242130712541554e-06 5.7589131131346169e-07 0 -5.7038922044883999e-06 -3.2398963551202749e-08 0 -4.3848598194563993e-06 -1.4279969193829445e-07 0 -2.341841534348481e-05 -1.6327451945276469e-05 0 -2.9930074961020433e-05 -2.2806056673173683e-05 0 -2.7279324809886792e-05 -2.0936525244950629e-05 0 -5.6237636668842718e-05 -2.8313207116598752e-05 0 -5.5749400660324414e-05 -3.0948694604076841e-05 0 -4.8475734362710655e-05 -2.5206836553142099e-05 0 -8.5111321288524694e-05 3.8639215047305369e-05 0 -6.9664156952156095e-05 3.3302926340961302e-05 0 -8.2878080711432182e-05 4.4223637415306342e-05 0 -3.9903067689989567e-05 -2.1827900056489601e-05 0 -4.1508490784767694e-05 -1.9937503101457039e-05 0 -3.778263751967568e-05 -1.9848053375216509e-05 0 -1.6368322929597247e-05 1.6190447739723252e-06 0 -1.7104444035724138e-05 1.9119115146610443e-06 0 -2.384913390105007e-05 4.1315441494560122e-06 0 -2.124041098009904e-05 4.0192098916122329e-06 0 -2.384913390105007e-05 4.1315441494560122e-06 0 -1.7104444035724138e-05 1.9119115146610443e-06 0 -4.4144635044061678e-05 7.9404154342602041e-05 0 -3.996270732259826e-05 5.5942607932670033e-05 0 -2.9185793865315251e-05 5.0393654745903352e-05 0 -3.6734136295468067e-05 1.132266123521649e-05 0 -3.0931157001519992e-05 8.1316867291017278e-06 0 -3.8388326460957292e-05 1.0325579681605774e-05 0 -2.735846366856004e-05 -1.1963143883403836e-05 0 -2.7998645505702877e-05 -1.1428063313817779e-05 0 -2.3134120112420727e-05 -9.5175761920232072e-06 0 -4.677844185313781e-05 -3.781687835523256e-05 0 -4.5855962497030482e-05 -3.4044348929184003e-05 0 -4.9409036776673477e-05 -3.8157646430795178e-05 0 -4.8020303990967596e-05 -3.3912878736063999e-05 0 -4.9409036776673477e-05 -3.8157646430795178e-05 0 -4.5855962497030482e-05 -3.4044348929184003e-05 0 -1.8705944758363719e-05 -2.9105574691860507e-06 0 -1.8214814283177126e-05 -3.9592040249022645e-07 0 -1.5482216823549748e-05 -4.3974524482749387e-07 0 -2.4371866042706503e-05 1.1948407610685501e-05 0 -2.1248126918477702e-05 7.0664853450190723e-06 0 -1.8225475800507909e-05 7.9803369612862253e-06 0 -1.0858015734163057e-05 3.5198113338696768e-06 0 -1.0484112877203261e-05 1.9525206767346096e-06 0 -1.2271563470293638e-05 3.4940068556934709e-06 0 -3.4926360372544079e-05 3.8671183785513768e-05 0 -2.9185793865315251e-05 5.0393654745903352e-05 0 -3.996270732259826e-05 5.5942607932670033e-05 0 -4.0121155975127031e-05 -1.9200826750109981e-05 0 -3.5411912672910822e-05 -1.7977134034032036e-05 0 -3.308968034066739e-05 -1.4955520100942183e-05 0 -1.8471390913819991e-05 -6.7182094615253288e-06 0 -1.5204958856031823e-05 -4.1493949761795778e-06 0 -1.5548066861455911e-05 -4.6192640493584003e-06 0 1.4325713228551041e-06 0.00010869619124865843 0 1.6948401464100736e-06 0.00013811291175367841 0 -1.705965907987004e-05 0.00013003537638343253 0 -9.3397141588390088e-05 -9.3122594365448196e-05 0 -7.9430216595837189e-05 -9.2159215472100215e-05 0 -8.1705245932821936e-05 -8.2212756723729527e-05 0 -8.5111321288524694e-05 3.8639215047305369e-05 0 -7.1424124508441344e-05 2.811645505942167e-05 0 -6.7167841268739285e-05 2.7362676375658816e-05 0 -4.8571998602417533e-05 -2.2772488752381613e-05 0 -5.6237636668842718e-05 -2.8313207116598752e-05 0 -4.6499615900558882e-05 -2.2232264737237052e-05 0 -2.5692148624012183e-05 -2.052185692064927e-06 0 -2.8715132495844485e-05 -1.4735193635543464e-06 0 -2.2797445821356651e-05 3.1046012792962802e-06 0 -1.6368322929597247e-05 1.6190447739723252e-06 0 -2.384913390105007e-05 4.1315441494560122e-06 0 -2.1745735842653062e-05 3.7446122562556474e-06 0 -2.923455656566314e-05 6.4474008618245899e-06 0 -2.1745735842653062e-05 3.7446122562556474e-06 0 -2.384913390105007e-05 4.1315441494560122e-06 0 -1.4511507678226244e-05 9.7528819851173314e-06 0 -1.5586588076967869e-05 1.3977427601180399e-05 0 -1.5746249706772713e-05 1.2688026888234489e-05 0 -8.3047804274928076e-05 -0.00010686427781117931 0 -7.9430216595837189e-05 -9.2159215472100215e-05 0 -8.805524659977292e-05 -9.9954959912540499e-05 0 -5.154060783736542e-05 -3.3997862419501468e-05 0 -5.0097169214887841e-05 -3.3905681540100704e-05 0 -4.8446473956766056e-05 -2.9642303463041251e-05 0 -4.3436827111457245e-06 0.00022418456876952678 0 -7.7030905585268374e-06 0.00025202209693368495 0 -2.4008783182270828e-05 0.00023975631846553626 0 -9.8085395544107593e-05 -0.0001205177206086686 0 -9.8919850955842391e-05 -0.00013361389203878147 0 -8.9594657776649917e-05 -0.00012516383147691764 0 -4.2930009031361709e-05 2.5163434929131887e-05 0 -3.2064521395127638e-05 1.6560479177502924e-05 0 -2.8348387383958929e-05 1.9495684494376861e-05 0 -3.0056402224580274e-05 -1.9809201881113646e-05 0 -3.4581922196413959e-05 -2.6399255119542468e-05 0 -3.0337872456391591e-05 -2.2542477001792989e-05 0 -3.5932697183253817e-05 -2.074602701110543e-05 0 -3.5000882973930324e-05 -2.3062640251424621e-05 0 -3.0188105900344147e-05 -1.7464903647718713e-05 0 -0.00015593461777137828 0.00023777710333680263 0 -0.00013210169492068653 0.00022020870894589518 0 -0.00013621256248738713 0.00024595374573817952 0 -3.2776055433209725e-05 -0.00011173090173228287 0 -4.0844988664179947e-05 -0.00010660297482204524 0 -4.1910750903246121e-05 -0.00011877471747375253 0 -1.7765691027575466e-05 -6.0657714694433533e-06 0 -1.4321335568281403e-05 -3.9480506392360144e-06 0 -1.7343012876266645e-05 -5.5858418097938464e-06 0 -2.0298791783016472e-05 1.9320301869503117e-05 0 -2.7378545549163679e-05 2.5919448601310413e-05 0 -2.8348387383958929e-05 1.9495684494376861e-05 0 -4.0121155975127031e-05 -1.9200826750109981e-05 0 -3.5035947592756987e-05 -1.5363195171172028e-05 0 -4.067173325640227e-05 -1.8285393110275789e-05 0 -4.6060068561830309e-05 -2.5480135222672347e-05 0 -5.1131179623172783e-05 -3.059998754948494e-05 0 -4.6338674182240717e-05 -2.5041662542520836e-05 0 -1.8913472158862037e-05 -6.3849806915238672e-06 0 -1.7834916717603248e-05 -5.9557897792678768e-06 0 -2.2934097782388907e-05 -8.4812211520245299e-06 0 -8.9490791855737162e-05 -7.9468751280554334e-05 0 -9.3397141588390074e-05 -9.3122594365448196e-05 0 -8.1705245932821936e-05 -8.2212756723729527e-05 0 -3.3022361181452412e-05 -1.3827051688708435e-05 0 -2.6966175900495374e-05 -1.0623583810687287e-05 0 -2.7998645505702877e-05 -1.1428063313817779e-05 0 -2.2211991050107408e-05 -8.3834817244712202e-06 0 -2.7998645505702877e-05 -1.1428063313817779e-05 0 -2.6966175900495374e-05 -1.0623583810687287e-05 0 -0.00010441666450612546 0.00014955640867450365 0 -8.5794529314332449e-05 0.00015379561630891959 0 -0.00010692034622468868 0.00017055243616640394 0 -3.155490391607238e-06 -8.1102269200178649e-07 0 -6.4994476254886358e-06 -7.8896446503352349e-07 0 -3.3938424150196196e-06 -7.7700374408211366e-07 0 -7.3140121998939472e-06 -6.0735477607827819e-07 0 -3.3938424150196196e-06 -7.7700374408211366e-07 0 -6.4994476254886358e-06 -7.8896446503352349e-07 0 -6.5141523837282425e-06 -1.0826275027830875e-06 0 -6.6125665794938541e-06 -8.4991305225031467e-07 0 -3.1426956519470832e-06 -2.0574420637662581e-07 0 -3.1479733683022884e-06 -4.8440559754281316e-08 0 -3.1426956519470832e-06 -2.0574420637662581e-07 0 -6.6125665794938541e-06 -8.4991305225031467e-07 0 -2.3357937637602614e-05 -1.1391842305120177e-05 0 -2.2203085499882989e-05 -1.0125842545986915e-05 0 -2.6051580254020927e-05 -1.4453390918294644e-05 0 -3.263006414431998e-05 -5.7866360751475526e-06 0 -3.4416962694593026e-05 -9.086043585884653e-06 0 -3.5753360015542871e-05 -1.2590828335600432e-05 0 -3.7764561351794027e-05 -1.4635160476173402e-05 0 -3.5753360015542871e-05 -1.2590828335600432e-05 0 -3.4416962694593026e-05 -9.086043585884653e-06 0 -5.1131179623172783e-05 -3.059998754948494e-05 0 -5.4969287483836258e-05 -3.6305808716894279e-05 0 -5.1628008397651045e-05 -3.2639514925083987e-05 0 -3.7764561351794027e-05 -1.4635160476173402e-05 0 -3.6635131007022644e-05 -1.2718262796779779e-05 0 -3.9357801920377219e-05 -1.6614119619103699e-05 0 -3.5366238494904191e-05 -3.119155448053582e-05 0 -3.2008100872067544e-05 -2.6570117402186264e-05 0 -3.7000154829564789e-05 -3.2210033193200065e-05 0 -5.6007279919438615e-05 -4.1173878859510748e-05 0 -5.2972372952179285e-05 -3.697842949217995e-05 0 -5.4180465982517634e-05 -3.7102843965555805e-05 0 -5.6237636668842718e-05 -2.8313207116598752e-05 0 -6.3976866524946251e-05 -3.5481392235264086e-05 0 -5.5749400660324414e-05 -3.0948694604076841e-05 0 -9.9297084421718526e-05 5.3423809265721025e-05 0 -8.5111321288524694e-05 3.8639215047305369e-05 0 -8.2878080711432182e-05 4.4223637415306342e-05 0 -2.4067502766773338e-05 -7.4689120182215643e-06 0 -3.0286822439754535e-05 -1.371418165859898e-05 0 -2.5861379929965921e-05 -1.6113428281251236e-05 0 -3.5366238494904191e-05 -3.119155448053582e-05 0 -3.9393241276897225e-05 -3.6425423442328569e-05 0 -3.7965615798644614e-05 -3.4674894317998157e-05 0 -3.5932697183253817e-05 -2.074602701110543e-05 0 -3.5411912672910822e-05 -1.7977134034032036e-05 0 -4.2135791275720133e-05 -2.3107821004361989e-05 0 -3.5811755191566303e-06 1.5063746567956505e-07 0 -1.4754749234207861e-06 1.1755534216940362e-07 0 -1.6469865124858649e-06 1.3757483053806233e-07 0 -1.6463597975931048e-05 4.9779976008322948e-06 0 -2.1248126918477702e-05 7.0664853450190732e-06 0 -1.7667052785586017e-05 3.4857098639766415e-06 0 -1.0634988575057039e-05 2.6438680282822118e-06 0 -1.3334152717138155e-05 2.9589340027574834e-06 0 -1.0759154669409065e-05 1.5125622585091032e-06 0 -2.5364667022596475e-05 7.9739699111645921e-06 0 -2.8979598319926327e-05 1.2899971241186671e-06 0 -2.9033149237168709e-05 -2.4262649671257328e-06 0 -1.7193494080288394e-05 -6.7827415550205511e-06 0 -1.3170996907459592e-05 -4.6116800473931109e-06 0 -1.2587076792337949e-05 -5.5044109171697868e-06 0 -8.7163548701727482e-06 -3.0347921263536322e-06 0 -1.2587076792337949e-05 -5.5044109171697868e-06 0 -1.3170996907459592e-05 -4.6116800473931109e-06 0 -1.1085395706249057e-05 1.589619818013178e-06 0 -1.6877257753775319e-05 2.6504395359561393e-06 0 -1.6247235826238239e-05 4.3296156956401391e-06 0 -2.2480706926020317e-05 5.0364779424239415e-06 0 -1.6247235826238239e-05 4.3296156956401391e-06 0 -1.6877257753775319e-05 2.6504395359561393e-06 0 -7.8185814902492447e-05 -5.4625953970223257e-05 0 -8.4452117915981379e-05 -6.6589451297820182e-05 0 -7.326159469102566e-05 -5.8779102965494428e-05 0 -4.4144635044061678e-05 7.9404154342602041e-05 0 -5.1976524099039861e-05 6.0205266256311578e-05 0 -3.996270732259826e-05 5.5942607932670033e-05 0 -2.6806967100645362e-05 -7.0476100007923025e-05 0 -3.4372091938565636e-05 -6.544118222794504e-05 0 -3.7163971810598637e-05 -8.0582997589977309e-05 0 -4.5491660095551003e-05 -4.4751783751786899e-05 0 -4.812900458934337e-05 -4.525630205567772e-05 0 -4.8061734207239628e-05 -4.8081857037473829e-05 0 -1.3217957721999826e-05 -3.4185595357191789e-06 0 -1.7343012876266645e-05 -5.5858418097938464e-06 0 -1.4321335568281403e-05 -3.9480506392360144e-06 0 -2.7094969143332187e-05 -7.0907737485976351e-06 0 -2.2256317745735639e-05 -2.73204139534479e-06 0 -2.3068563582895254e-05 -6.1718088405983168e-06 0 -2.84304055143913e-05 -1.1572627665999464e-05 0 -2.2934097782388907e-05 -8.4812211520245299e-06 0 -2.6966175900495374e-05 -1.0623583810687287e-05 0 -3.7156961818435147e-05 0.00014083728773777921 0 -1.6165618161023649e-05 0.00014917348606852896 0 -2.8054033757296142e-05 0.00016690471371667967 0 -2.4071645388646418e-09 1.0775305243146805e-10 0 -2.5332433326794045e-06 1.6295271615286522e-07 0 -1.6469865124858649e-06 1.3757483053806233e-07 0 -4.8020303990967596e-05 -3.3912878736063999e-05 0 -4.5855962497030482e-05 -3.4044348929184003e-05 0 -4.4397652168620901e-05 -2.922113842268255e-05 0 -2.4067502766773338e-05 -7.4689120182215643e-06 0 -2.3337728344824885e-05 9.1919656442001087e-06 0 -2.9033149237168709e-05 -2.4262649671257328e-06 0 -0.00013549872061191672 0.00012139961739797019 0 -0.00012473271309568803 9.5072582789492785e-05 0 -0.00011241456209788539 0.00010490887926742057 0 -2.8999935611379868e-06 1.2505760115803077e-07 0 -3.5198992031051343e-06 7.0125557113997635e-08 0 -1.8624808446738987e-06 -1.2689897697181326e-08 0 -6.5141523837282425e-06 -1.0826275027830875e-06 0 -3.1426956519470832e-06 -2.0574420637662581e-07 0 -3.0541901913157718e-06 -4.0563458310938326e-07 0 -7.3140121998939472e-06 -6.0735477607827819e-07 0 -3.5312724034307039e-06 -5.2776529384446129e-07 0 -3.3938424150196196e-06 -7.7700374408211366e-07 0 -1.2895197575609605e-05 1.0976228837602906e-06 0 -1.0689636315057591e-05 5.4831688906839904e-07 0 -1.2482371851634659e-05 -4.8805291459525634e-07 0 -5.0344343928184195e-05 -2.9745983687677091e-05 0 -4.8475734362710655e-05 -2.5206836553142099e-05 0 -5.5749400660324414e-05 -3.0948694604076841e-05 0 -7.1068925741346554e-05 4.254183150383139e-05 0 -8.2878080711432182e-05 4.4223637415306342e-05 0 -6.9664156952156108e-05 3.3302926340961302e-05 0 -4.2590820702104479e-05 0.0002336473542936642 0 -3.0512985105940416e-05 0.00020668322898790393 0 -2.0767136539743531e-05 0.00022063058600024901 0 -8.0121848671647187e-05 -0.00012030854557476794 0 -8.3047804274928076e-05 -0.00010686427781117931 0 -8.9457202135359226e-05 -0.00011583156848269333 0 -2.341841534348481e-05 -1.6327451945276469e-05 0 -2.5861379929965921e-05 -1.6113428281251236e-05 0 -2.9930074961020433e-05 -2.2806056673173683e-05 0 -2.4371866042706503e-05 1.1948407610685501e-05 0 -2.8348387383958929e-05 1.9495684494376861e-05 0 -3.2064521395127638e-05 1.6560479177502924e-05 0 -3.1269253150177736e-05 -2.0106153769513876e-05 0 -2.9930074961020433e-05 -2.2806056673173683e-05 0 -2.5861379929965921e-05 -1.6113428281251236e-05 0 -1.0563141473749853e-05 -5.0895208354691472e-07 0 -9.2613866730182606e-06 -6.0076077522552225e-07 0 -1.2324230783752339e-05 -1.6302756081110436e-06 0 -3.2194941244358261e-06 -8.3994920546725747e-08 0 -2.2519357714773855e-06 -3.5220256771696467e-07 0 -1.4809027044909944e-06 -1.4012362870379024e-07 0 -1.7765691027575466e-05 -6.0657714694433533e-06 0 -1.5548066861455911e-05 -4.6192640493584011e-06 0 -1.4321335568281403e-05 -3.9480506392360144e-06 0 -2.5261294955045046e-05 4.9503248141132054e-06 0 -2.8979598319926327e-05 1.2899971241186671e-06 0 -2.261286287081373e-05 1.112429622450655e-05 0 -2.5364667022596475e-05 7.9739699111645921e-06 0 -2.261286287081373e-05 1.112429622450655e-05 0 -2.8979598319926327e-05 1.2899971241186671e-06 0 -7.068052661057464e-05 -9.816571183498735e-05 0 -8.3047804274928076e-05 -0.00010686427781117931 0 -7.3943928718887066e-05 -0.00011078599480095565 0 -8.0121848671647187e-05 -0.00012030854557476794 0 -7.3943928718887066e-05 -0.00011078599480095565 0 -8.3047804274928076e-05 -0.00010686427781117931 0 -4.9589126017866222e-05 0.00018903653744749594 0 -3.0512985105940416e-05 0.00020668322898790393 0 -5.2008682747022872e-05 0.00021662802387991103 0 -4.2590820702104479e-05 0.0002336473542936642 0 -5.2008682747022872e-05 0.00021662802387991103 0 -3.0512985105940416e-05 0.00020668322898790393 0 -4.9589126017866222e-05 0.00018903653744749594 0 -4.972092543069405e-05 0.00016163078555204706 0 -2.8054033757296142e-05 0.00016690471371667967 0 -3.7156961818435147e-05 0.00014083728773777921 0 -2.8054033757296142e-05 0.00016690471371667967 0 -4.972092543069405e-05 0.00016163078555204706 0 -2.1575517532562469e-09 8.2306605907143745e-11 0 -2.2317460391081148e-09 8.6134033256356467e-11 0 -1.4754749234207861e-06 1.1755534216940362e-07 0 -2.7279324809886792e-05 -2.0936525244950629e-05 0 -2.9930074961020433e-05 -2.2806056673173687e-05 0 -3.2008100872067544e-05 -2.6570117402186264e-05 0 -3.4729167939181793e-05 -2.8400349467093399e-05 0 -3.2008100872067544e-05 -2.6570117402186264e-05 0 -2.9930074961020433e-05 -2.2806056673173683e-05 0 -7.2617363170291474e-05 -7.8570398787873141e-05 0 -7.5455625220861576e-05 -6.9947482612113385e-05 0 -8.1705245932821936e-05 -8.2212756723729527e-05 0 -8.4452117915981379e-05 -6.6589451297820182e-05 0 -7.5455625220861576e-05 -6.9947482612113385e-05 0 -7.326159469102566e-05 -5.8779102965494428e-05 0 -0.00013549872061191672 0.00012139961739797019 0 -0.00011241456209788539 0.00010490887926742057 0 -0.00011453131297874487 0.00013037115722445655 0 -1.43398901482617e-05 5.0413152145654748e-06 0 -1.5247498674110357e-05 7.4359984521849153e-06 0 -1.2903470543901586e-05 6.1343533930664632e-06 0 -1.4511507678226244e-05 9.7528819851173314e-06 0 -1.2903470543901586e-05 6.1343533930664632e-06 0 -1.5247498674110357e-05 7.4359984521849153e-06 0 -7.0319687642087398e-06 5.7839123669821329e-08 0 -8.6844699307725165e-06 1.3833301673948708e-07 0 -6.9536725898244074e-06 4.0356190049011646e-07 0 -3.5811755191566303e-06 1.5063746567956505e-07 0 -1.6469865124858647e-06 1.3757483053806231e-07 0 -2.5332433326794045e-06 1.6295271615286522e-07 0 -2.923455656566314e-05 6.4474008618245899e-06 0 -3.8388326460957292e-05 1.0325579681605774e-05 0 -3.0931157001519992e-05 8.1316867291017278e-06 0 -2.2211991050107408e-05 -8.3834817244712202e-06 0 -2.3134120112420727e-05 -9.5175761920232072e-06 0 -2.7998645505702877e-05 -1.1428063313817779e-05 0 -2.2211991050107408e-05 -8.3834817244712202e-06 0 -2.6966175900495374e-05 -1.0623583810687287e-05 0 -2.2934097782388907e-05 -8.4812211520245299e-06 0 -1.5985041419165059e-06 0.00019609335781562153 0 -2.0767136539743531e-05 0.00022063058600024901 0 -3.0512985105940416e-05 0.00020668322898790393 0 -9.628263853313412e-05 -0.00010685240774601745 0 -8.9457202135359226e-05 -0.00011583156848269334 0 -8.3047804274928076e-05 -0.00010686427781117931 0 -2.1936478533006189e-09 -4.6137306296825734e-11 0 -1.4809027044909944e-06 -1.4012362870379027e-07 0 -2.2519357714773855e-06 -3.5220256771696467e-07 0 -1.0634988575057039e-05 2.6438680282822118e-06 0 -1.3774150734381474e-05 5.0012205761931241e-06 0 -1.3334152717138155e-05 2.9589340027574834e-06 0 -5.622290462267346e-05 -6.8073787345238998e-05 0 -5.9250904186953205e-05 -5.8805826580681983e-05 0 -6.3976896491927581e-05 -6.8283652382844655e-05 0 -2.4528965737480782e-05 6.5589115184199476e-06 0 -2.1248126918477698e-05 7.0664853450190723e-06 0 -2.8264114443083715e-05 1.0611185021757957e-05 0 -3.0056402224580274e-05 -1.9809201881113646e-05 0 -3.5000882973930324e-05 -2.3062640251424621e-05 0 -3.4581922196413959e-05 -2.6399255119542468e-05 0 -1.1988202383629271e-05 5.2155371359933842e-06 0 -1.2903470543901586e-05 6.1343533930664632e-06 0 -1.3675202357759198e-05 8.1014484784237493e-06 0 -7.2129348493114398e-05 0.00012234677142706623 0 -9.1912999789857413e-05 0.00012719848157471915 0 -8.0871750305566543e-05 0.0001057753195664429 0 -5.0344343928184195e-05 -2.9745983687677091e-05 0 -5.9687449640528572e-05 -3.6737838990409628e-05 0 -5.3059045644857761e-05 -3.6079109977505596e-05 0 -7.1068925741346554e-05 4.254183150383139e-05 0 -7.6093139699189003e-05 5.5267816196161701e-05 0 -8.9125743352561984e-05 5.7191936370533223e-05 0 -5.0174593025150143e-05 -4.8496195817536087e-05 0 -4.9394412283607443e-05 -5.1040607144577939e-05 0 -4.8061734207239628e-05 -4.8081857037473829e-05 0 -4.7498973589564964e-05 -4.9743424519073514e-05 0 -4.8061734207239628e-05 -4.8081857037473829e-05 0 -4.9394412283607443e-05 -5.1040607144577939e-05 0 -2.84304055143913e-05 -1.1572627665999464e-05 0 -2.3625098158173746e-05 -9.0325611004917878e-06 0 -2.2934097782388907e-05 -8.4812211520245299e-06 0 -1.8913472158862037e-05 -6.3849806915238672e-06 0 -2.2934097782388907e-05 -8.4812211520245299e-06 0 -2.3625098158173746e-05 -9.0325611004917878e-06 0 -1.8471390913819991e-05 -6.7182094615253288e-06 0 -2.2203085499882989e-05 -1.0125842545986915e-05 0 -2.0419525715264451e-05 -8.2431952940632617e-06 0 -3.3022361181452412e-05 -1.3827051688708435e-05 0 -4.067173325640227e-05 -1.8285393110275789e-05 0 -3.5035947592756987e-05 -1.5363195171172028e-05 0 -3.5030432172389646e-05 9.7873389700023065e-06 0 -3.5225399111738988e-05 8.7519953649047311e-06 0 -2.78782173901426e-05 6.3943284174040254e-06 0 -5.364807664215501e-05 -5.3390676704949667e-05 0 -5.0402231332322001e-05 -5.3341157000890766e-05 0 -5.1406984260278758e-05 -5.1163911324117377e-05 0 -7.2129348493114398e-05 0.00012234677142706623 0 -8.5794529314332449e-05 0.00015379561630891959 0 -9.1912999789857413e-05 0.00012719848157471915 0 -2.2317460391081148e-09 8.6134033256356467e-11 0 -2.4071645388646418e-09 1.0775305243146805e-10 0 -1.6469865124858649e-06 1.3757483053806233e-07 0 4.528057542105294e-07 0.0001672478416278633 0 -2.8054033757296142e-05 0.00016690471371667967 0 -1.6165618161023649e-05 0.00014917348606852896 0 -1.7466834263223704e-05 1.537339913856622e-05 0 -1.5725160948573391e-05 2.0158012760279421e-05 0 -1.5586588076967869e-05 1.3977427601180399e-05 0 -7.1068925741346554e-05 4.254183150383139e-05 0 -5.9864336090304568e-05 4.028152005286527e-05 0 -7.6093139699189003e-05 5.5267816196161701e-05 0 -1.7466834263223704e-05 1.537339913856622e-05 0 -1.6654469165490736e-05 1.0930355063312194e-05 0 -2.0031795895526295e-05 1.035404613023989e-05 0 -1.7466834263223704e-05 1.537339913856622e-05 0 -1.5586588076967869e-05 1.3977427601180398e-05 0 -1.6654469165490736e-05 1.0930355063312194e-05 0 -2.2181982727430275e-05 -8.4849295133378379e-06 0 -2.7171161224309972e-05 -1.1469425570402487e-05 0 -2.5936912326570465e-05 -1.1575299537239185e-05 0 -1.1935154409559833e-05 -2.5746410949289669e-06 0 -1.4321335568281403e-05 -3.9480506392360144e-06 0 -1.5548066861455911e-05 -4.6192640493584003e-06 0 -9.4939021294532008e-05 0.00010426274474910647 0 -0.00011453131297874487 0.00013037115722445655 0 -0.00011241456209788539 0.00010490887926742057 0 -2.8838381264144077e-05 -1.4753154000833974e-05 0 -3.1300240558992378e-05 -1.2709125019518434e-05 0 -2.6764823636139834e-05 -1.0256427434786555e-05 0 -2.5261294955045046e-05 4.9503248141132054e-06 0 -2.261286287081373e-05 1.112429622450655e-05 0 -2.0031795895526295e-05 1.035404613023989e-05 0 -4.6724021771339778e-05 -2.9254376008647085e-05 0 -4.3607287525618397e-05 -2.4739738725440189e-05 0 -4.4864051339410888e-05 -2.4365792936071138e-05 0 -5.0344343928184195e-05 -2.9745983687677091e-05 0 -5.5749400660324414e-05 -3.0948694604076841e-05 0 -5.9687449640528572e-05 -3.6737838990409628e-05 0 -7.1068925741346554e-05 4.254183150383139e-05 0 -8.9125743352561984e-05 5.7191936370533223e-05 0 -8.2878080711432182e-05 4.4223637415306342e-05 0 -0.00011632068392909197 0.00023507611494163807 0 -0.00013621256248738713 0.00024595374573817952 0 -0.00013210169492068653 0.00022020870894589518 0 -4.8905973351809228e-05 -0.00011566068037212657 0 -4.1910750903246121e-05 -0.00011877471747375253 0 -4.0844988664179947e-05 -0.00010660297482204524 0 -5.154060783736542e-05 -3.3997862419501468e-05 0 -4.8446473956766056e-05 -2.9642303463041251e-05 0 -5.1628008397651045e-05 -3.2639514925083987e-05 0 -1.4511507678226244e-05 9.7528819851173314e-06 0 -1.3675202357759198e-05 8.1014484784237493e-06 0 -1.2903470543901586e-05 6.1343533930664632e-06 0 -2.124041098009904e-05 4.0192098916122329e-06 0 -2.78782173901426e-05 6.3943284174040254e-06 0 -2.384913390105007e-05 4.1315441494560122e-06 0 -4.0121155975127031e-05 -1.9200826750109981e-05 0 -3.308968034066739e-05 -1.4955520100942183e-05 0 -3.5035947592756987e-05 -1.5363195171172028e-05 0 -5.6087037111724643e-05 2.3137476821751149e-05 0 -4.7419834495562564e-05 2.0922145850392826e-05 0 -5.7389591753812891e-05 3.0094894797895545e-05 0 -2.7062411300509743e-05 -1.6415621199723826e-05 0 -3.0337872456391591e-05 -2.2542477001792989e-05 0 -2.9774490891350938e-05 -1.9858525532063954e-05 0 -3.0332819887432062e-05 -1.4243302940259159e-05 0 -3.308968034066739e-05 -1.4955520100942183e-05 0 -3.5411912672910822e-05 -1.7977134034032036e-05 0 -2.5261294955045046e-05 4.9503248141132054e-06 0 -2.2797445821356651e-05 3.1046012792962802e-06 0 -2.8715132495844485e-05 -1.4735193635543464e-06 0 -2.1936478533006189e-09 -4.6137306296825734e-11 0 -2.1551290822358678e-09 -1.051752179006652e-10 0 -1.4809027044909944e-06 -1.4012362870379024e-07 0 -5.2228380125340305e-05 -3.8369935418666433e-05 0 -5.2972372952179285e-05 -3.697842949217995e-05 0 -5.6007279919438615e-05 -4.1173878859510748e-05 0 -4.8571998602417533e-05 -2.2772488752381613e-05 0 -4.6499615900558882e-05 -2.2232264737237052e-05 0 -4.067173325640227e-05 -1.8285393110275789e-05 0 -7.1424124508441344e-05 2.811645505942167e-05 0 -5.7335925553195228e-05 2.0425294540087421e-05 0 -6.7167841268739285e-05 2.7362676375658816e-05 0 -6.5400729886331486e-05 -5.7908582044192156e-05 0 -7.326159469102566e-05 -5.8779102965494428e-05 0 -7.5455625220861576e-05 -6.9947482612113385e-05 0 -3.9997490481182819e-05 -3.0519211628817745e-05 0 -4.0174941911325614e-05 -3.5814047691178121e-05 0 -3.4581922196413959e-05 -2.6399255119542468e-05 0 -3.4391967095258018e-05 -3.0355454923135939e-05 0 -3.4581922196413959e-05 -2.6399255119542468e-05 0 -4.0174941911325614e-05 -3.5814047691178121e-05 0 -3.0332819887432062e-05 -1.4243302940259159e-05 0 -3.0455939349661317e-05 -1.5657718569392718e-05 0 -2.5936912326570465e-05 -1.1575299537239185e-05 0 -4.6724021771339778e-05 -2.9254376008647085e-05 0 -4.4864051339410888e-05 -2.4365792936071138e-05 0 -4.8446473956766056e-05 -2.9642303463041251e-05 0 -7.2617363170291474e-05 -7.8570398787873141e-05 0 -6.4346302697471807e-05 -7.7218328987129427e-05 0 -6.3976896491927581e-05 -6.8283652382844655e-05 0 -3.0332819887432062e-05 -1.4243302940259159e-05 0 -2.5936912326570465e-05 -1.1575299537239185e-05 0 -2.7171161224309972e-05 -1.1469425570402487e-05 0 -4.1934513218958083e-05 -2.0616197001012282e-05 0 -4.4864051339410888e-05 -2.4365792936071138e-05 0 -4.3607287525618397e-05 -2.4739738725440189e-05 0 -4.0768591205210343e-06 -4.521906685174724e-07 0 -4.3848598194564002e-06 -1.4279969193829439e-07 0 -5.7038922044883999e-06 -3.2398963551202749e-08 0 -6.3976866524946251e-05 -3.5481392235264086e-05 0 -5.9687449640528572e-05 -3.6737838990409628e-05 0 -5.5749400660324414e-05 -3.0948694604076841e-05 0 -9.9297084421718526e-05 5.3423809265721025e-05 0 -8.2878080711432182e-05 4.4223637415306342e-05 0 -8.9125743352561984e-05 5.7191936370533223e-05 0 -9.628263853313412e-05 -0.00010685240774601745 0 -8.3047804274928076e-05 -0.00010686427781117931 0 -8.805524659977292e-05 -9.9954959912540499e-05 0 -1.5985041419165059e-06 0.00019609335781562153 0 -3.0512985105940416e-05 0.00020668322898790393 0 -2.2235044079916014e-05 0.00018591628594587494 0 4.528057542105294e-07 0.0001672478416278633 0 -2.2235044079916014e-05 0.00018591628594587494 0 -2.8054033757296142e-05 0.00016690471371667967 0 -9.628263853313412e-05 -0.00010685240774601745 0 -9.8085395544107579e-05 -0.0001205177206086686 0 -8.9457202135359226e-05 -0.00011583156848269333 0 -1.5985041419165059e-06 0.00019609335781562153 0 -4.3436827111457245e-06 0.00022418456876952678 0 -2.0767136539743531e-05 0.00022063058600024901 0 -3.1269253150177736e-05 -2.0106153769513876e-05 0 -3.0286822439754535e-05 -1.371418165859898e-05 0 -3.4562060115086634e-05 -1.9794923697872131e-05 0 -4.8135289479414857e-05 -2.7910844158358038e-05 0 -5.1628008397651045e-05 -3.2639514925083987e-05 0 -4.8446473956766056e-05 -2.9642303463041251e-05 0 -6.2605629128854049e-05 -5.3496839158425748e-05 0 -6.3495588233252975e-05 -5.6464953596665377e-05 0 -6.1495269616787277e-05 -5.1823237129157925e-05 0 -3.9768568035045205e-05 -3.450780337427999e-05 0 -4.2664245013964165e-05 -4.1240987133780456e-05 0 -4.2000501379933615e-05 -3.7200112833918928e-05 0 -7.1068925741346554e-05 4.254183150383139e-05 0 -5.7389591753812891e-05 3.0094894797895545e-05 0 -5.9864336090304568e-05 4.028152005286527e-05 0 -1.8913472158862037e-05 -6.3849806915238672e-06 0 -1.5211978458097206e-05 -4.4906627390888212e-06 0 -1.7834916717603248e-05 -5.9557897792678768e-06 0 -8.256949597670169e-06 9.4211541493050038e-07 0 -8.6844699307725165e-06 1.3833301673948708e-07 0 -1.0689636315057591e-05 5.4831688906839904e-07 0 -0.00010441666450612546 0.00014955640867450365 0 -9.1912999789857413e-05 0.00012719848157471915 0 -8.5794529314332449e-05 0.00015379561630891959 0 -4.3183344688306817e-05 -7.451873243581017e-05 0 -3.7163971810598637e-05 -8.0582997589977309e-05 0 -3.4372091938565636e-05 -6.544118222794504e-05 0 -3.2194941244358261e-06 -8.3994920546725747e-08 0 -1.4809027044909944e-06 -1.4012362870379024e-07 0 -1.8624808446738987e-06 -1.2689897697181326e-08 0 -3.5932697183253817e-05 -2.074602701110543e-05 0 -3.0188105900344144e-05 -1.7464903647718713e-05 0 -3.0455939349661317e-05 -1.5657718569392718e-05 0 1.6948401464100736e-06 0.00013811291175367841 0 4.5280575421053125e-07 0.0001672478416278633 0 -1.6165618161023649e-05 0.00014917348606852896 0 -7.6958711781444332e-06 -3.4826649575941938e-07 0 -8.8474305912122104e-06 3.3254329163644897e-07 0 -1.0249770720957132e-05 2.3070564163797568e-07 0 -3.1269253150177736e-05 -2.0106153769513876e-05 0 -3.4562060115086634e-05 -1.9794923697872131e-05 0 -3.4445741286342422e-05 -2.5084399522162402e-05 0 -3.7851235299695127e-05 -2.5827706874561386e-05 0 -3.4445741286342422e-05 -2.5084399522162402e-05 0 -3.4562060115086634e-05 -1.9794923697872131e-05 0 -5.898274746029773e-05 -4.9402286756861853e-05 0 -5.9869308027120255e-05 -4.8472480375199328e-05 0 -6.1495269616787277e-05 -5.1823237129157925e-05 0 -6.2605629128854049e-05 -5.3496839158425748e-05 0 -6.1495269616787277e-05 -5.1823237129157925e-05 0 -5.9869308027120255e-05 -4.8472480375199328e-05 0 -3.9768568035045205e-05 -3.450780337427999e-05 0 -4.1345754510215257e-05 -3.9872448831541385e-05 0 -4.2664245013964165e-05 -4.1240987133780456e-05 0 -4.4272861068995422e-05 -4.5352094046394969e-05 0 -4.2664245013964165e-05 -4.1240987133780456e-05 0 -4.1345754510215257e-05 -3.9872448831541392e-05 0 -1.43398901482617e-05 5.0413152145654748e-06 0 -1.2271563470293638e-05 3.4940068556934709e-06 0 -1.5583616773428547e-05 2.3524280947572709e-06 0 -2.4067502766773338e-05 -7.4689120182215643e-06 0 -2.9033149237168709e-05 -2.4262649671257328e-06 0 -3.0286822439754535e-05 -1.371418165859898e-05 0 -3.3746543196280774e-05 -1.061551035826037e-05 0 -3.0286822439754535e-05 -1.3714181658598982e-05 0 -2.9033149237168709e-05 -2.4262649671257328e-06 0 -7.2617363170291474e-05 -7.8570398787873141e-05 0 -8.1705245932821936e-05 -8.2212756723729527e-05 0 -7.9430216595837189e-05 -9.2159215472100215e-05 0 -2.84304055143913e-05 -1.1572627665999464e-05 0 -3.308968034066739e-05 -1.4955520100942183e-05 0 -2.7171161224309972e-05 -1.1469425570402487e-05 0 -3.0332819887432062e-05 -1.4243302940259159e-05 0 -2.7171161224309972e-05 -1.1469425570402487e-05 0 -3.308968034066739e-05 -1.4955520100942183e-05 0 -3.1093764484774383e-05 -2.5472921585446936e-05 0 -3.9903067689989567e-05 -2.1827900056489601e-05 0 -3.778263751967568e-05 -1.9848053375216509e-05 0 -5.7053727265601824e-05 -4.4600757419076507e-05 0 -5.9869308027120255e-05 -4.8472480375199328e-05 0 -5.681346452798355e-05 -4.6105804680667531e-05 0 -4.1038051218620995e-05 -3.9287215346268187e-05 0 -4.3505879732123416e-05 -4.323700120285904e-05 0 -4.1345754510215257e-05 -3.9872448831541392e-05 0 -1.0563141473749853e-05 -5.0895208354691472e-07 0 -1.068963631505759e-05 5.4831688906839904e-07 0 -8.6844699307725165e-06 1.3833301673948708e-07 0 -5.0402231332322001e-05 -5.3341157000890766e-05 0 -4.9394412283607443e-05 -5.1040607144577939e-05 0 -5.1406984260278758e-05 -5.1163911324117377e-05 0 -8.4515035061109885e-06 -7.4071104253380396e-07 0 -6.4839248547530551e-06 -1.0154227139747738e-07 0 -5.5765935937162232e-06 -1.1912211705555413e-07 0 -4.1934513218958083e-05 -2.0616197001012282e-05 0 -3.9357801920377219e-05 -1.6614119619103699e-05 0 -4.0877377488392916e-05 -1.8055975677830509e-05 0 -3.2194941244358261e-06 -8.3994920546725747e-08 0 -4.6926972514567696e-06 1.387874648673002e-07 0 -4.3848598194563993e-06 -1.4279969193829445e-07 0 -7.1169465528085789e-05 0.00016692941909837486 0 -6.1375087898282593e-05 0.00014376726538807127 0 -4.972092543069405e-05 0.00016163078555204706 0 -7.4134927005648667e-05 0.00021708216337299388 0 -5.2008682747022872e-05 0.00021662802387991103 0 -6.230666122864921e-05 0.00023481363930698593 0 -6.4592247232499062e-05 -0.00011078250028365579 0 -7.3943928718887066e-05 -0.00011078599480095565 0 -7.1321714080167938e-05 -0.00011951265716589373 0 -1.1511755247678826e-05 3.0399534207413113e-05 0 -2.3337728344824885e-05 9.1919656442001087e-06 0 -1.3786266926143232e-05 1.2499651052061958e-06 0 -3.2194941244358261e-06 -8.3994920546725747e-08 0 -1.8624808446738987e-06 -1.2689897697181326e-08 0 -3.5198992031051343e-06 7.0125557113997635e-08 0 -9.3397141588390088e-05 -9.3122594365448196e-05 0 -8.805524659977292e-05 -9.9954959912540485e-05 0 -7.9430216595837189e-05 -9.2159215472100215e-05 0 -9.9094177837742196e-05 -0.00016862370123310036 0 -9.1675441694433083e-05 -0.00016237112179628426 0 -9.9159049515537995e-05 -0.00015759101275917677 0 -1.6791147158769531e-05 0.00032716320563544877 0 -3.0884004721517527e-05 0.00032025843810731098 0 -1.4371442004011524e-05 0.00030393929873668841 0 -1.6791147158769531e-05 0.00032716320563544877 0 -3.9616568178354858e-05 0.00033556113966267282 0 -3.0884004721517534e-05 0.00032025843810731098 0 -4.1766275253919734e-05 -0.00015938035514543751 0 -4.7175001336614394e-05 -0.00015740475539174353 0 -5.0771799875903738e-05 -0.00016393067595131994 0 -0.0001569602173892077 0.00034458130834164649 0 -0.00015705529655339354 0.00031928168950090617 0 -0.00013998116183703969 0.00033023728618465073 0 -9.9094177837742196e-05 -0.00016862370123310036 0 -8.8056021079703438e-05 -0.00016849098959108812 0 -9.1675441694433083e-05 -0.00016237112179628426 0 -4.1766275253919734e-05 -0.00015938035514543751 0 -4.0399024189779998e-05 -0.00014965383178366674 0 -4.7175001336614394e-05 -0.00015740475539174353 0 -0.0001569602173892077 0.00034458130834164649 0 -0.00013998116183703969 0.00033023728618465073 0 -0.00013163498850725695 0.00034437781553889633 0 -2.1551290822361391e-09 -1.0517521790069088e-10 0 -1.8624808446738987e-06 -1.2689897697181326e-08 0 -1.4809027044909944e-06 -1.4012362870379024e-07 0 -4.6724021771339778e-05 -2.9254376008647085e-05 0 -4.4397652168620901e-05 -2.922113842268255e-05 0 -4.3607287525618397e-05 -2.4739738725440189e-05 0 -3.0332819887432062e-05 -1.4243302940259159e-05 0 -3.5411912672910822e-05 -1.7977134034032036e-05 0 -3.0455939349661317e-05 -1.5657718569392718e-05 0 -7.2617363170291474e-05 -7.8570398787873141e-05 0 -6.8975351403067394e-05 -8.6170666246270064e-05 0 -6.4346302697471807e-05 -7.7218328987129427e-05 0 -7.9136451042739449e-06 6.3729594625085826e-07 0 -1.0759154669409065e-05 1.5125622585091032e-06 0 -8.8474305912122104e-06 3.3254329163644897e-07 0 -7.9553157915019767e-05 0.00025149480877044536 0 -9.7587039508368608e-05 0.00026862334402250716 0 -9.7643642090990159e-05 0.0002431782708763619 0 -6.5304599096370274e-05 -0.0001263384567035975 0 -5.9291743121905142e-05 -0.00013343674937704511 0 -5.7209854106645497e-05 -0.00012155757688183695 0 -5.9804458025749773e-05 -4.6202205435874755e-05 0 -6.1433890492297474e-05 -5.007065889134242e-05 0 -5.8950090174238556e-05 -4.5835614586678496e-05 0 -3.4191807727913294e-05 -2.8443835084607955e-05 0 -3.7965615798644614e-05 -3.4674894317998157e-05 0 -3.7245561112019451e-05 -3.1664517148425124e-05 0 -1.8761231140606223e-05 -9.7735643768273338e-06 0 -2.5861379929965921e-05 -1.6113428281251236e-05 0 -2.341841534348481e-05 -1.6327451945276469e-05 0 -3.5932697183253817e-05 -2.074602701110543e-05 0 -3.0455939349661317e-05 -1.5657718569392718e-05 0 -3.5411912672910822e-05 -1.7977134034032036e-05 0 -5.4969287483836258e-05 -3.6305808716894279e-05 0 -5.7751323214449491e-05 -4.1573986959210244e-05 0 -5.4180465982517634e-05 -3.7102843965555805e-05 0 -2.7279324809886792e-05 -2.0936525244950629e-05 0 -3.2008100872067544e-05 -2.6570117402186264e-05 0 -3.0952228653459784e-05 -2.4935280216062682e-05 0 -5.622290462267346e-05 -6.8073787345238998e-05 0 -4.9992239938998044e-05 -7.1632333744528712e-05 0 -4.8443971991346402e-05 -5.8952368476510772e-05 0 -8.256949597670169e-06 9.4211541493050038e-07 0 -6.9536725898244074e-06 4.0356190049011646e-07 0 -8.6844699307725165e-06 1.3833301673948708e-07 0 -4.8905973351809228e-05 -0.00011566068037212657 0 -5.5252007773659543e-05 -0.0001080894900150536 0 -5.7209854106645497e-05 -0.00012155757688183695 0 -0.00011632068392909197 0.00023507611494163807 0 -9.5930075145141518e-05 0.00021786876657073085 0 -9.7643642090990159e-05 0.0002431782708763619 0 -3.4729167939181793e-05 -2.8400349467093399e-05 0 -2.9930074961020433e-05 -2.2806056673173683e-05 0 -3.4445741286342422e-05 -2.5084399522162402e-05 0 -3.1269253150177736e-05 -2.0106153769513876e-05 0 -3.4445741286342422e-05 -2.5084399522162402e-05 0 -2.9930074961020433e-05 -2.2806056673173683e-05 0 -1.1935154409559833e-05 -2.5746410949289669e-06 0 -1.0961799714089816e-05 -2.2785676349505173e-06 0 -1.4321335568281403e-05 -3.9480506392360144e-06 0 -3.9997490481182819e-05 -3.0519211628817745e-05 0 -3.4581922196413959e-05 -2.6399255119542465e-05 0 -3.5000882973930324e-05 -2.3062640251424621e-05 0 -4.012028140975676e-05 -5.8284409213458237e-05 0 -3.2431161912046902e-05 -5.1889998093136389e-05 0 -3.6089271754131174e-05 -4.1676752826317268e-05 0 -4.1834237385490455e-05 -2.4397131671836829e-05 0 -4.3607287525618397e-05 -2.4739738725440189e-05 0 -4.4397652168620901e-05 -2.922113842268255e-05 0 -2.6948169479430842e-05 -4.3173773213284593e-05 0 -3.2431161912046902e-05 -5.1889998093136389e-05 0 -2.5974506182989257e-05 -5.6758093584006858e-05 0 -3.5366238494904191e-05 -3.119155448053582e-05 0 -3.7000154829564789e-05 -3.2210033193200065e-05 0 -3.9393241276897225e-05 -3.6425423442328569e-05 0 -4.0598605319177032e-05 -3.5864265971430915e-05 0 -3.9393241276897225e-05 -3.6425423442328569e-05 0 -3.7000154829564789e-05 -3.2210033193200065e-05 0 -1.3357745337559178e-05 -3.9772406602709789e-06 0 -1.7022782099970386e-05 -5.9910474301784997e-06 0 -1.7834916717603248e-05 -5.9557897792678768e-06 0 -2.3275072393729459e-05 -8.5572322620549525e-06 0 -2.6764823636139834e-05 -1.0256427434786555e-05 0 -2.3068563582895254e-05 -6.1718088405983168e-06 0 -2.7094969143332187e-05 -7.0907737485976351e-06 0 -2.3068563582895254e-05 -6.1718088405983168e-06 0 -2.6764823636139834e-05 -1.0256427434786555e-05 0 -1.7466834263223704e-05 1.537339913856622e-05 0 -2.261286287081373e-05 1.112429622450655e-05 0 -1.8654943398682414e-05 1.9841984848413283e-05 0 -2.5364667022596475e-05 7.9739699111645921e-06 0 -1.8654943398682414e-05 1.9841984848413283e-05 0 -2.261286287081373e-05 1.112429622450655e-05 0 4.528057542105294e-07 0.0001672478416278633 0 -1.5985041419165059e-06 0.00019609335781562153 0 -2.2235044079916014e-05 0.00018591628594587494 0 -1.9245939006969582e-05 7.7603086953998393e-06 0 -1.5247498674110357e-05 7.4359984521849153e-06 0 -1.7447616466740659e-05 5.048913312488766e-06 0 -9.3397141588390088e-05 -9.3122594365448196e-05 0 -9.628263853313412e-05 -0.00010685240774601745 0 -8.805524659977292e-05 -9.9954959912540499e-05 0 -1.3217957721999826e-05 -3.4185595357191789e-06 0 -1.4321335568281403e-05 -3.9480506392360144e-06 0 -1.0961799714089816e-05 -2.2785676349505173e-06 0 -1.6368322929597247e-05 1.6190447739723252e-06 0 -1.2539731893986866e-05 9.5553530546632664e-07 0 -1.1051925006878792e-05 1.7449453048049261e-07 0 -1.3357745337559178e-05 -3.9772406602709789e-06 0 -9.3015053074785462e-06 -2.2497007999896549e-06 0 -1.0119850145743285e-05 -2.9348260676340694e-06 0 -1.0634988575057039e-05 2.6438680282822118e-06 0 -8.3946635520777655e-06 1.6026759414462858e-06 0 -1.0371394191124317e-05 3.3641500478617193e-06 0 -7.7612081003301765e-06 -4.6704095253661799e-06 0 -6.1410100685393819e-06 -2.7650260624277805e-06 0 -3.1959318039302705e-06 -1.6272384021493624e-06 0 -4.5832083701017328e-09 2.5264790307200596e-10 0 -3.1959318039302705e-06 -1.6272384021493622e-06 0 -6.1410100685393819e-06 -2.7650260624277805e-06 0 -9.4090314880815116e-06 4.6850679464675273e-06 0 -3.9512659637155057e-06 1.4690867416706715e-06 0 -7.847406682739364e-06 2.1150969390780497e-06 0 -5.9517833550426069e-09 -6.4957210990019968e-10 0 -7.847406682739364e-06 2.1150969390780497e-06 0 -3.9512659637155057e-06 1.4690867416706715e-06 0 -3.9997490481182819e-05 -3.0519211628817745e-05 0 -4.6778046981783974e-05 -3.4958951058650799e-05 0 -4.5910449757874138e-05 -4.0162528094545401e-05 0 -3.2194941244358261e-06 -8.3994920546725747e-08 0 -3.5198992031051343e-06 7.0125557113997635e-08 0 -4.6926972514567696e-06 1.387874648673002e-07 0 -3.7156961818435147e-05 0.00014083728773777921 0 -1.705965907987004e-05 0.00013003537638343253 0 -1.6165618161023649e-05 0.00014917348606852896 0 -3.4926360372544079e-05 3.8671183785513768e-05 0 -3.6623328475590909e-05 2.9467462036625808e-05 0 -2.7378545549163679e-05 2.5919448601310413e-05 0 -1.9245939006969582e-05 7.7603086953998393e-06 0 -1.6654469165490736e-05 1.0930355063312194e-05 0 -1.5247498674110357e-05 7.4359984521849153e-06 0 -4.3508508258856427e-05 -4.6975194382931988e-05 0 -4.0174941911325614e-05 -3.5814047691178121e-05 0 -4.5910449757874138e-05 -4.0162528094545401e-05 0 -0.00010695917936021988 0.00034354191013977154 0 -0.00013163498850725695 0.00034437781553889633 0 -0.00011904532188498496 0.00033134862148740882 0 -5.9197708302615788e-05 -0.00016618049564374101 0 -5.0771799875903738e-05 -0.00016393067595131994 0 -5.4579666313604552e-05 -0.00016043028754780532 0 -3.9616568178354858e-05 0.00033556113966267282 0 -6.1461165964363495e-05 0.00033994524278025247 0 -4.9759555174640786e-05 0.00032629916161634195 0 -8.8056021079703452e-05 -0.00016849098959108815 0 -7.74915413447785e-05 -0.00016799134983624785 0 -8.2606255423870329e-05 -0.00016282015251644263 0 -5.4069896756039611e-05 -4.5033183668685459e-05 0 -5.681346452798355e-05 -4.6105804680667531e-05 0 -5.5590900162450331e-05 -4.7676488984907181e-05 0 -4.5491660095551003e-05 -4.4751783751786899e-05 0 -4.5853070679781292e-05 -4.733373122711435e-05 0 -4.3505879732123416e-05 -4.323700120285904e-05 0 -9.2939389930840826e-09 -3.9805201688126641e-09 0 -3.1959318039302713e-06 -1.6272384021493629e-06 0 -4.5832083701017328e-09 2.5264790307200596e-10 0 -1.0733815437266465e-08 4.5859510661155783e-09 0 -5.9517833550426069e-09 -6.4957210990019968e-10 0 -3.9512659637155057e-06 1.4690867416706715e-06 0 -1.0733815437266465e-08 4.5859510661155783e-09 0 -3.9512659637155057e-06 1.4690867416706715e-06 0 -9.4090314880815116e-06 4.6850679464675273e-06 0 -9.2939389930840826e-09 -3.9805201688126641e-09 0 -7.7612081003301765e-06 -4.6704095253661799e-06 0 -3.1959318039302705e-06 -1.6272384021493624e-06 0 -4.3183344688306817e-05 -7.451873243581017e-05 0 -4.9992239938998037e-05 -7.1632333744528698e-05 0 -5.1819918795680454e-05 -8.5058239432790771e-05 0 -1.7765691027575466e-05 -6.0657714694433533e-06 0 -2.1326313539910071e-05 -8.3902603984771994e-06 0 -1.9985127875544815e-05 -7.8601924286221184e-06 0 -4.1934513218958083e-05 -2.0616197001012282e-05 0 -4.3607287525618397e-05 -2.4739738725440185e-05 0 -4.0615376263934679e-05 -2.0033618179270434e-05 0 -4.1834237385490455e-05 -2.4397131671836829e-05 0 -4.0615376263934679e-05 -2.0033618179270434e-05 0 -4.3607287525618397e-05 -2.4739738725440189e-05 0 -1.1935154409559833e-05 -2.5746410949289669e-06 0 -1.5548066861455911e-05 -4.6192640493584003e-06 0 -1.3298889944774609e-05 -3.1555146723905673e-06 0 -7.0319687642087398e-06 5.7839123669821329e-08 0 -6.4839248547530551e-06 -1.0154227139747738e-07 0 -9.2613866730182606e-06 -6.0076077522552225e-07 0 -8.4515035061109885e-06 -7.4071104253380396e-07 0 -9.2613866730182606e-06 -6.0076077522552225e-07 0 -6.4839248547530551e-06 -1.0154227139747738e-07 0 -2.5364667022596475e-05 7.9739699111645921e-06 0 -2.3337728344824885e-05 9.1919656442001087e-06 0 -1.8654943398682414e-05 1.9841984848413283e-05 0 -1.1511755247678826e-05 3.0399534207413113e-05 0 -1.865494339868241e-05 1.9841984848413286e-05 0 -2.3337728344824885e-05 9.1919656442001087e-06 0 -5.2259965965070677e-05 -4.1065697023119629e-05 0 -4.5910449757874138e-05 -4.0162528094545401e-05 0 -4.6778046981783974e-05 -3.4958951058650799e-05 0 -3.4729167939181793e-05 -2.8400349467093399e-05 0 -3.7000154829564789e-05 -3.2210033193200065e-05 0 -3.2008100872067544e-05 -2.6570117402186264e-05 0 -5.154060783736542e-05 -3.3997862419501468e-05 0 -5.4180465982517634e-05 -3.7102843965555805e-05 0 -5.2972372952179285e-05 -3.697842949217995e-05 0 -1.0563141473749853e-05 -5.0895208354691472e-07 0 -1.2482371851634659e-05 -4.8805291459525634e-07 0 -1.0689636315057591e-05 5.4831688906839904e-07 0 -4.2590820702104479e-05 0.0002336473542936642 0 -2.0767136539743531e-05 0.00022063058600024901 0 -2.4008783182270828e-05 0.00023975631846553626 0 -8.0121848671647187e-05 -0.00012030854557476794 0 -8.9457202135359226e-05 -0.00011583156848269333 0 -8.9594657776649917e-05 -0.00012516383147691764 0 -3.1093764484774383e-05 -2.5472921585446936e-05 0 -2.9774490891350938e-05 -1.9858525532063954e-05 0 -3.0337872456391591e-05 -2.2542477001792989e-05 0 -3.1269253150177736e-05 -2.0106153769513876e-05 0 -2.5861379929965921e-05 -1.6113428281251236e-05 0 -3.0286822439754535e-05 -1.371418165859898e-05 0 -0.00011632068392909197 0.00023507611494163807 0 -0.00013210169492068653 0.00022020870894589518 0 -0.00011282097711310209 0.00021148324072918021 0 -4.8905973351809228e-05 -0.00011566068037212657 0 -4.0844988664179947e-05 -0.00010660297482204524 0 -4.7638376799247938e-05 -0.00010421872309487827 0 -4.3183344688306817e-05 -7.451873243581017e-05 0 -4.5078528933935772e-05 -8.6143607211644361e-05 0 -3.7163971810598637e-05 -8.0582997589977309e-05 0 -5.2042973590078675e-05 -4.169398791068879e-05 0 -5.168553906169346e-05 -4.376156307974968e-05 0 -4.9456972969771749e-05 -4.1000270093504474e-05 0 -4.1038051218620995e-05 -3.9287215346268187e-05 0 -3.7965615798644614e-05 -3.4674894317998157e-05 0 -3.9393241276897225e-05 -3.6425423442328569e-05 0 -1.6463597975931048e-05 4.9779976008322948e-06 0 -1.3334152717138155e-05 2.9589340027574834e-06 0 -1.3774150734381474e-05 5.0012205761931233e-06 0 -5.0174593025150143e-05 -4.8496195817536087e-05 0 -4.8061734207239628e-05 -4.8081857037473829e-05 0 -4.812900458934337e-05 -4.525630205567772e-05 0 -1.3217957721999826e-05 -3.4185595357191789e-06 0 -1.0961799714089816e-05 -2.2785676349505173e-06 0 -1.0260062567379993e-05 -2.1157867899825908e-06 0 -8.2014883455536924e-06 -1.2438128941171807e-06 0 -1.0260062567379993e-05 -2.1157867899825908e-06 0 -1.0961799714089816e-05 -2.2785676349505173e-06 0 -1.8705944758363719e-05 -2.9105574691860507e-06 0 -2.0455958444015739e-05 -5.7276113800268918e-06 0 -2.3068563582895254e-05 -6.1718088405983168e-06 0 -3.9997490481182819e-05 -3.0519211628817745e-05 0 -4.5910449757874138e-05 -4.0162528094545401e-05 0 -4.0174941911325614e-05 -3.5814047691178121e-05 0 -1.1935154409559833e-05 -2.5746410949289669e-06 0 -1.3298889944774609e-05 -3.1555146723905673e-06 0 -1.0252497466594266e-05 -1.6571961356362292e-06 0 -1.2025898560264792e-05 -2.1973945100681227e-06 0 -1.0252497466594266e-05 -1.6571961356362292e-06 0 -1.3298889944774609e-05 -3.1555146723905673e-06 0 -1.5548066861455911e-05 -4.6192640493584003e-06 0 -1.5204958856031823e-05 -4.1493949761795778e-06 0 -1.3298889944774609e-05 -3.1555146723905673e-06 0 -5.3799754166696735e-05 -4.9450937422351985e-05 0 -5.5590900162450331e-05 -4.7676488984907181e-05 0 -5.7315816351435055e-05 -5.0861741094031885e-05 0 -5.898274746029773e-05 -4.9402286756861853e-05 0 -5.7315816351435049e-05 -5.0861741094031885e-05 0 -5.5590900162450331e-05 -4.7676488984907181e-05 0 -4.4272861068995422e-05 -4.5352094046394969e-05 0 -4.5853070679781292e-05 -4.733373122711435e-05 0 -4.64462370303949e-05 -4.9910565847583763e-05 0 -4.7498973589564964e-05 -4.9743424519073514e-05 0 -4.64462370303949e-05 -4.9910565847583763e-05 0 -4.5853070679781292e-05 -4.733373122711435e-05 0 -2.5364667022596475e-05 7.9739699111645921e-06 0 -2.9033149237168709e-05 -2.4262649671257328e-06 0 -2.3337728344824885e-05 9.1919656442001087e-06 0 -4.0132237689734073e-05 0.00030968557768628767 0 -4.9759555174640786e-05 0.00032629916161634195 0 -6.2216635003934338e-05 0.00031850917173100899 0 -8.656586942795481e-05 -0.00015617834063590247 0 -8.2606255423870329e-05 -0.00016282015251644263 0 -7.645102248213607e-05 -0.00015834373091293835 0 -5.0622238846739151e-05 -0.00015308774651888384 0 -5.9337808633868122e-05 -0.00015727975048859558 0 -5.4579666313604552e-05 -0.00016043028754780532 0 -0.00012835616342846105 0.00031612706325672205 0 -0.00010460425495321916 0.00032099456132599833 0 -0.00011904532188498496 0.00033134862148740882 0 -0.00011632068392909197 0.00023507611494163807 0 -0.00011282097711310209 0.00021148324072918021 0 -9.5930075145141518e-05 0.00021786876657073085 0 -4.8905973351809228e-05 -0.00011566068037212657 0 -4.7638376799247938e-05 -0.00010421872309487827 0 -5.5252007773659543e-05 -0.0001080894900150536 0 -4.3183344688306817e-05 -7.451873243581017e-05 0 -5.1819918795680454e-05 -8.5058239432790771e-05 0 -4.5078528933935772e-05 -8.6143607211644361e-05 0 -2.3275072393729459e-05 -8.5572322620549525e-06 0 -2.3068563582895254e-05 -6.1718088405983168e-06 0 -2.0455958444015739e-05 -5.7276113800268918e-06 0 -6.1461165964363495e-05 0.00033994524278025247 0 -6.2216635003934338e-05 0.00031850917173100899 0 -4.9759555174640786e-05 0.00032629916161634195 0 -7.74915413447785e-05 -0.00016799134983624785 0 -7.645102248213607e-05 -0.00015834373091293835 0 -8.2606255423870329e-05 -0.00016282015251644263 0 -0.00010695917936021988 0.00034354191013977154 0 -0.00011904532188498496 0.00033134862148740882 0 -0.00010460425495321916 0.00032099456132599833 0 -5.9197708302615788e-05 -0.00016618049564374101 0 -5.4579666313604552e-05 -0.00016043028754780532 0 -5.9337808633868122e-05 -0.00015727975048859558 0 -4.9632977343217114e-05 -4.3592929380969019e-05 0 -4.9456972969771749e-05 -4.1000270093504474e-05 0 -5.168553906169346e-05 -4.376156307974968e-05 0 -2.6948169479430842e-05 -4.3173773213284593e-05 0 -3.6089271754131174e-05 -4.1676752826317268e-05 0 -3.2431161912046902e-05 -5.1889998093136389e-05 0 -6.3495588233252975e-05 -5.6464953596665377e-05 0 -6.1585404516579102e-05 -5.2987726636033732e-05 0 -6.1495269616787277e-05 -5.1823237129157925e-05 0 -4.2000501379933615e-05 -3.7200112833918928e-05 0 -4.2664245013964165e-05 -4.1240987133780456e-05 0 -4.4585909407984621e-05 -4.4934117181715503e-05 0 -7.0319687642087398e-06 5.7839123669821329e-08 0 -4.9920340716413118e-06 1.318613938969124e-07 0 -6.4839248547530551e-06 -1.0154227139747738e-07 0 -0.00012405112343364199 0.0001926126661657912 0 -0.000125147153634202 0.00016578302596682564 0 -0.00010692034622468868 0.00017055243616640394 0 -0.00010441666450612546 0.00014955640867450365 0 -0.00010692034622468868 0.00017055243616640394 0 -0.000125147153634202 0.00016578302596682564 0 -4.677844185313781e-05 -3.781687835523256e-05 0 -4.9409036776673477e-05 -3.8157646430795178e-05 0 -4.9456972969771749e-05 -4.1000270093504474e-05 0 -1.543405167079226e-05 -3.5419184096440856e-06 0 -1.5204958856031823e-05 -4.1493949761795778e-06 0 -1.7598119549166753e-05 -5.6648475119839902e-06 0 -4.1934513218958083e-05 -2.0616197001012282e-05 0 -4.0615376263934679e-05 -2.0033618179270434e-05 0 -3.9357801920377219e-05 -1.6614119619103699e-05 0 -3.7764561351794027e-05 -1.4635160476173402e-05 0 -3.9357801920377219e-05 -1.6614119619103699e-05 0 -4.0615376263934679e-05 -2.0033618179270434e-05 0 -9.6100978661272469e-05 0.00019140757464383568 0 -9.5930075145141518e-05 0.00021786876657073085 0 -0.00011282097711310209 0.00021148324072918021 0 -5.1769265295400162e-05 -9.5984106142320988e-05 0 -5.5252007773659543e-05 -0.0001080894900150536 0 -4.7638376799247938e-05 -0.00010421872309487827 0 -5.1769265295400162e-05 -9.5984106142320988e-05 0 -4.5078528933935772e-05 -8.6143607211644361e-05 0 -5.1819918795680454e-05 -8.5058239432790771e-05 0 -8.7163548701727482e-06 -3.0347921263536322e-06 0 -1.3170996907459594e-05 -4.6116800473931109e-06 0 -1.0119850145743285e-05 -2.9348260676340694e-06 0 -1.1085395706249057e-05 1.589619818013178e-06 0 -1.2539731893986866e-05 9.5553530546632664e-07 0 -1.6877257753775319e-05 2.6504395359561393e-06 0 -2.2480706926020317e-05 5.0364779424239415e-06 0 -1.6877257753775319e-05 2.6504395359561393e-06 0 -2.1745735842653062e-05 3.7446122562556474e-06 0 -1.7193494080288394e-05 -6.7827415550205511e-06 0 -1.7022782099970386e-05 -5.9910474301784997e-06 0 -1.3170996907459592e-05 -4.6116800473931109e-06 0 -1.9813699544698445e-05 -6.7925738756383547e-06 0 -2.0455958444015739e-05 -5.7276113800268918e-06 0 -1.7730183679983724e-05 -4.1663609344151804e-06 0 -0.00012405112343364199 0.0001926126661657912 0 -0.00011282097711310209 0.00021148324072918021 0 -0.00013210169492068653 0.00022020870894589518 0 -4.1006814812837787e-05 -9.4059937863649293e-05 0 -4.7638376799247938e-05 -0.00010421872309487827 0 -4.0844988664179947e-05 -0.00010660297482204524 0 -4.1006814812837787e-05 -9.4059937863649293e-05 0 -3.7163971810598637e-05 -8.0582997589977309e-05 0 -4.5078528933935772e-05 -8.6143607211644361e-05 0 -5.622290462267346e-05 -6.8073787345238998e-05 0 -6.3976896491927581e-05 -6.8283652382844655e-05 0 -6.4346302697471807e-05 -7.7218328987129427e-05 0 -5.2042973590078675e-05 -4.169398791068879e-05 0 -4.9456972969771749e-05 -4.1000270093504474e-05 0 -4.9409036776673477e-05 -3.8157646430795178e-05 0 -1.6463597975931048e-05 4.9779976008322948e-06 0 -1.8225475800507909e-05 7.9803369612862253e-06 0 -2.1248126918477702e-05 7.0664853450190732e-06 0 -2.3357937637602614e-05 -1.1391842305120177e-05 0 -2.0419525715264451e-05 -8.2431952940632617e-06 0 -2.2203085499882989e-05 -1.0125842545986915e-05 0 -1.3357745337559178e-05 -3.9772406602709789e-06 0 -1.7834916717603251e-05 -5.9557897792678768e-06 0 -1.5211978458097206e-05 -4.4906627390888212e-06 0 -9.4939021294532008e-05 0.00010426274474910647 0 -8.0871750305566543e-05 0.0001057753195664429 0 -9.1912999789857413e-05 0.00012719848157471915 0 -6.5400729886331486e-05 -5.7908582044192156e-05 0 -6.3976896491927581e-05 -6.8283652382844655e-05 0 -5.9250904186953205e-05 -5.8805826580681983e-05 0 -4.2590820702104479e-05 0.0002336473542936642 0 -6.230666122864921e-05 0.00023481363930698593 0 -5.2008682747022872e-05 0.00021662802387991103 0 -8.0121848671647187e-05 -0.00012030854557476794 0 -7.1321714080167938e-05 -0.00011951265716589373 0 -7.3943928718887066e-05 -0.00011078599480095565 0 -3.7156961818435147e-05 0.00014083728773777921 0 -4.972092543069405e-05 0.00016163078555204706 0 -6.1375087898282593e-05 0.00014376726538807127 0 -2.2181982727430275e-05 -8.4849295133378379e-06 0 -2.3625098158173746e-05 -9.0325611004917861e-06 0 -2.7171161224309972e-05 -1.1469425570402487e-05 0 -1.8471390913819991e-05 -6.7182094615253288e-06 0 -1.7598119549166753e-05 -5.6648475119839902e-06 0 -1.5204958856031823e-05 -4.1493949761795778e-06 0 -6.0313168034301158e-05 -8.5340695796992647e-05 0 -6.4346302697471807e-05 -7.7218328987129427e-05 0 -6.8975351403067394e-05 -8.6170666246270064e-05 0 -5.898274746029773e-05 -4.9402286756861853e-05 0 -6.1495269616787277e-05 -5.1823237129157925e-05 0 -6.1585404516579102e-05 -5.2987726636033732e-05 0 -4.4272861068995422e-05 -4.5352094046394969e-05 0 -4.4585909407984614e-05 -4.4934117181715497e-05 0 -4.2664245013964165e-05 -4.1240987133780456e-05 0 -1.2025898560264792e-05 -2.1973945100681227e-06 0 -1.3298889944774609e-05 -3.1555146723905673e-06 0 -1.5204958856031823e-05 -4.1493949761795778e-06 0 -0.00013163498850725695 0.00034437781553889633 0 -0.00013998116183703969 0.00033023728618465073 0 -0.00011904532188498496 0.00033134862148740882 0 -0.00012835616342846105 0.00031612706325672205 0 -0.00011904532188498496 0.00033134862148740882 0 -0.00013998116183703969 0.00033023728618465073 0 -5.0622238846739151e-05 -0.00015308774651888384 0 -5.4579666313604552e-05 -0.00016043028754780532 0 -4.7175001336614394e-05 -0.00015740475539174353 0 -5.0771799875903738e-05 -0.00016393067595131994 0 -4.7175001336614394e-05 -0.00015740475539174353 0 -5.4579666313604552e-05 -0.00016043028754780532 0 -3.9616568178354858e-05 0.00033556113966267282 0 -4.9759555174640786e-05 0.00032629916161634195 0 -3.0884004721517534e-05 0.00032025843810731098 0 -8.8056021079703452e-05 -0.00016849098959108815 0 -8.2606255423870329e-05 -0.00016282015251644263 0 -9.1675441694433083e-05 -0.00016237112179628426 0 -4.0132237689734073e-05 0.00030968557768628767 0 -3.0884004721517534e-05 0.00032025843810731098 0 -4.9759555174640786e-05 0.00032629916161634195 0 -8.656586942795481e-05 -0.00015617834063590247 0 -9.1675441694433083e-05 -0.00016237112179628426 0 -8.2606255423870329e-05 -0.00016282015251644263 0 -4.677844185313781e-05 -3.781687835523256e-05 0 -4.9456972969771749e-05 -4.1000270093504474e-05 0 -4.7177097928660148e-05 -4.0939309245662358e-05 0 -5.2228380125340305e-05 -3.8369935418666433e-05 0 -5.0097169214887841e-05 -3.3905681540100704e-05 0 -5.2972372952179285e-05 -3.697842949217995e-05 0 -5.154060783736542e-05 -3.3997862419501468e-05 0 -5.2972372952179285e-05 -3.697842949217995e-05 0 -5.0097169214887841e-05 -3.3905681540100704e-05 0 -4.9632977343217114e-05 -4.3592929380969019e-05 0 -5.168553906169346e-05 -4.376156307974968e-05 0 -5.1979022708993565e-05 -4.6291498679812018e-05 0 -5.4069896756039611e-05 -4.5033183668685459e-05 0 -5.1979022708993565e-05 -4.6291498679812018e-05 0 -5.168553906169346e-05 -4.376156307974968e-05 0 -1.7466834263223704e-05 1.537339913856622e-05 0 -2.0031795895526295e-05 1.035404613023989e-05 0 -2.261286287081373e-05 1.112429622450655e-05 0 -2.4371866042706503e-05 1.1948407610685501e-05 0 -3.2064521395127638e-05 1.6560479177502924e-05 0 -2.8264114443083715e-05 1.0611185021757957e-05 0 -3.6750067182730725e-05 1.5009808058018786e-05 0 -2.8264114443083715e-05 1.0611185021757957e-05 0 -3.2064521395127638e-05 1.6560479177502924e-05 0 -2.2181982727430275e-05 -8.4849295133378379e-06 0 -2.5936912326570465e-05 -1.1575299537239185e-05 0 -2.1326313539910071e-05 -8.3902603984771994e-06 0 -9.4939021294532008e-05 0.00010426274474910647 0 -7.9672883996504177e-05 8.7186943305513062e-05 0 -8.0871750305566543e-05 0.0001057753195664429 0 -6.5388209753915955e-05 8.9886655048161831e-05 0 -8.0871750305566543e-05 0.0001057753195664429 0 -7.9672883996504177e-05 8.7186943305513062e-05 0 -1.9245939006969582e-05 7.7603086953998393e-06 0 -2.0031795895526295e-05 1.035404613023989e-05 0 -1.6654469165490736e-05 1.0930355063312194e-05 0 -4.0598605319177032e-05 -3.5864265971430915e-05 0 -4.2448820131577008e-05 -3.9882544488366763e-05 0 -3.9393241276897225e-05 -3.6425423442328569e-05 0 -4.1038051218620995e-05 -3.9287215346268187e-05 0 -3.9393241276897225e-05 -3.6425423442328569e-05 0 -4.2448820131577008e-05 -3.9882544488366763e-05 0 -1.4511507678226244e-05 9.7528819851173314e-06 0 -1.6654469165490736e-05 1.0930355063312194e-05 0 -1.5586588076967869e-05 1.3977427601180399e-05 0 -5.191235158451948e-05 -5.1541390464657989e-05 0 -5.8092722125639537e-05 -5.0523344228373179e-05 0 -5.9250904186953205e-05 -5.8805826580681983e-05 0 -6.5400729886331486e-05 -5.7908582044192156e-05 0 -5.9250904186953205e-05 -5.8805826580681983e-05 0 -5.8092722125639537e-05 -5.0523344228373179e-05 0 -1.43398901482617e-05 5.0413152145654748e-06 0 -1.7447616466740659e-05 5.048913312488766e-06 0 -1.5247498674110357e-05 7.4359984521849153e-06 0 -1.4511507678226244e-05 9.7528819851173314e-06 0 -1.5247498674110357e-05 7.4359984521849153e-06 0 -1.6654469165490736e-05 1.0930355063312194e-05 0 -5.154060783736542e-05 -3.3997862419501468e-05 0 -5.1628008397651045e-05 -3.2639514925083987e-05 0 -5.4180465982517634e-05 -3.7102843965555805e-05 0 -1.8471390913819991e-05 -6.7182094615253288e-06 0 -2.0419525715264451e-05 -8.2431952940632617e-06 0 -1.7598119549166753e-05 -5.6648475119839902e-06 0 -1.9813699544698445e-05 -6.7925738756383547e-06 0 -1.7598119549166753e-05 -5.6648475119839902e-06 0 -2.0419525715264451e-05 -8.2431952940632617e-06 0 -1.8705944758363719e-05 -2.9105574691860507e-06 0 -1.7730183679983724e-05 -4.1663609344151804e-06 0 -2.0455958444015739e-05 -5.7276113800268918e-06 0 -4.3436827111457245e-06 0.00022418456876952678 0 -2.4008783182270828e-05 0.00023975631846553626 0 -2.0767136539743531e-05 0.00022063058600024901 0 -9.8085395544107593e-05 -0.0001205177206086686 0 -8.9594657776649904e-05 -0.00012516383147691764 0 -8.9457202135359226e-05 -0.00011583156848269333 0 -2.84304055143913e-05 -1.1572627665999464e-05 0 -2.7171161224309972e-05 -1.1469425570402487e-05 0 -2.3625098158173746e-05 -9.0325611004917878e-06 0 -2.2317460391081148e-09 8.6134033256356467e-11 0 -1.6469865124858651e-06 1.3757483053806233e-07 0 -1.4754749234207861e-06 1.1755534216940362e-07 0 1.6948401464100736e-06 0.00013811291175367841 0 -1.6165618161023649e-05 0.00014917348606852896 0 -1.705965907987004e-05 0.00013003537638343253 0 -4.9632977343217114e-05 -4.3592929380969019e-05 0 -4.7177097928660148e-05 -4.0939309245662358e-05 0 -4.9456972969771749e-05 -4.1000270093504474e-05 0 -2.4528965737480782e-05 6.5589115184199476e-06 0 -2.8264114443083715e-05 1.0611185021757957e-05 0 -3.2445097506253951e-05 1.0280861084493176e-05 0 -3.6750067182730725e-05 1.5009808058018786e-05 0 -3.2445097506253951e-05 1.0280861084493176e-05 0 -2.8264114443083715e-05 1.0611185021757957e-05 0 -5.4969287483836258e-05 -3.6305808716894279e-05 0 -5.4180465982517634e-05 -3.7102843965555805e-05 0 -5.1628008397651045e-05 -3.2639514925083987e-05 0 
</DataArray>
</PointData>
<CellData Scalars="region_id,cross_section_updated," Vectors="" Tensors="stress,">
<DataArray type="Float64" Name="region_id" format="ascii">
2 2 2 2 2 2 2 2 2 2 3 3 3 3 3 3 3 3 3 3 1 1 1 1 1 1 1 1 1 1 1 1 1 1 1 1 1 1 1 1 1 1 1 1 1 1 1 1 1 1 1 1 1 1 1 1 1 1 1 1 1 1 1 1 1 1 1 1 1 1 1 1 1 1 1 1 1 1 1 1 1 1 1 1 1 1 1 1 1 1 1 1 1 1 1 1 1 1 1 1 1 1 1 1 1 1 1 1 1 1 1 1 1 1 1 1 1 1 1 1 1 1 1 1 1 1 1 1 1 1 1 1 1 1 1 1 1 1 1 1 1 1 1 1 1 1 1 1 1 1 1 1 1 1 1 1 1 1 1 1 1 1 1 1 1 1 1 1 1 1 1 1 1 1 1 1 1 1 1 1 1 1 1 1 1 1 1 1 1 1 1 1 1 1 1 1 1 1 1 1 1 1 1 1 1 1 1 1 1 1 1 1 1 1 1 1 1 1 1 1 1 1 1 1 1 1 1 1 1 1 1 1 1 1 1 1 1 1 1 1 1 1 1 1 1 1 1 1 1 1 1 1 1 1 1 1 1 1 1 1 1 1 1 1 1 1 1 1 1 1 1 1 1 1 1 1 1 1 1 1 1 1 1 1 1 1 1 1 1 1 1 1 1 1 1 1 1 1 1 1 1 1 1 1 1 1 1 1 1 1 1 1 1 1 1 1 1 1 1 1 1 1 1 1 1 1 1 1 1 1 1 1 1 1 1 1 1 1 1 1 1 1 1 1 1 1 1 1 1 1 1 1 1 1 1 1 1 1 1 1 1 1 1 1 1 1 1 1 1 1 1 1 1 1 1 1 1 1 1 1 1 1 1 1 1 1 1 1 1 1 1 1 1 1 1 1 1 1 1 1 1 1 1 1 1 1 1 1 1 1 1 1 1 1 1 1 1 1 1 1 1 1 1 1 1 1 1 1 1 1 1 1 1 1 1 1 1 1 1 1 1 1 1 1 1 1 1 1 1 1 1 1 1 1 1 1 1 1 1 1 1 1 1 1 1 1 1 1 1 1 1 1 1 1 1 1 1 1 1 1 1 1 1 1 1 1 1 1 1 1 1 1 1 1 1 1 1 1 1 1 1 1 1 1 1 1 1 1 1 1 1 1 1 1 1 1 1 1 1 1 1 1 1 1 1 1 1 1 1 1 1 1 1 1 1 1 1 1 1 1 1 1 1 1 1 1 1 1 1 1 1 1 1 1 1 1 1 1 1 1 1 1 1 1 1 1 1 1 1 1 1 1 1 1 1 1 1 1 1 1 1 1 1 1 1 1 1 1 1 1 1 1 1 1 1 1 1 1 1 1 1 1 1 1 1 1 1 1 1 1 1 1 1 1 1 1 1 1 1 1 1 1 1 1 1 1 1 1 1 1 1 1 1 1 1 1 1 1 1 1 1 1 1 1 1 1 1 1 1 1 1 1 1 1 1 1 1 1 1 1 1 1 1 1 1 1 1 1 1 1 1 1 1 1 1 1 1 1 1 1 1 1 1 1 1 1 1 1 1 1 1 1 1 1 1 1 1 1 1 1 1 1 1 1 1 1 1 1 1 1 1 1 1 1 1 1 1 1 1 1 1 1 1 1 1 1 1 1 1 1 1 1 1 1 1 1 1 1 1 1 1 1 1 1 1 1 1 1 1 1 1 1 1 1 1 1 1 1 1 1 1 1 1 1 1 1 1 1 1 1 1 1 1 1 1 1 1 1 1 1 1 1 1 1 1 1 1 1 1 1 1 1 1 1 1 1 1 1 1 1 1 1 1 1 1 1 1 1 1 1 1 1 1 1 1 1 1 1 1 1 1 1 1 1 1 1 1 1 1 1 1 1 1 1 1 1 1 1 1 1 1 1 1 1 1 1 1 1 1 1 1 1 1 1 1 1 1 1 1 1 1 1 1 1 1 1 1 1 1 1 1 1 1 1 1 1 1 1 1 1 1 1 1 1 1 1 1 1 1 1 1 1 1 1 1 1 1 1 1 1 1 1 1 1 1 1 1 1 1 1 1 1 1 1 1 1 1 1 1 1 1 1 1 1 1 1 1 1 1 1 1 1 1 1 1 1 1 1 1 1 1 1 1 1 1 1 1 1 1 1 1 1 1 1 1 1 1 1 1 1 1 1 1 1 1 1 1 1 1 1 1 1 1 1 1 1 1 1 1 1 1 1 1 1 1 1 1 1 1 1 1 1 1 1 1 1 1 1 1 1 1 1 1 1 1 1 1 1 1 1 1 1 1 1 1 1 1 1 1 1 1 1 1 1 1 1 1 1 1 1 1 1 1 1 1 1 1 1 1 1 1 1 1 1 1 1 1 1 1 1 1 1 1 1 
</DataArray>
<DataArray type="Float64" Name="stress" NumberOfComponents="9" format="ascii">
-5.9988504447044109e-05 -4.6945824005856527e-05 0 -4.6945824005856527e-05 -1.9996168149014721e-05 0 0 0 -1.9996168149014721e-05 -6.4641413077690698e-05 -6.5495405619460812e-05 0 -6.5495405619460812e-05 -2.1547137692563584e-05 0 0 0 -2.1547137692563584e-05 -7.1634100287353941e-05 -8.1757557497234043e-05 0 -8.1757557497234043e-05 -2.3878033429117998e-05 0 0 0 -2.3878033429117998e-05 -6.6153350454422428e-05 -8.2406127731093426e-05 0 -8.2406127731093426e-05 -2.2051116818140809e-05 0 0 0 -2.2051116818140809e-05 -5.8285944927099825e-05 -7.1642963942872642e-05 0 -7.1642963942872642e-05 -1.9428648309033239e-05 0 0 0 -1.9428648309033239e-05 -5.434255996621595e-05 -7.6251234270437738e-05 0 -7.6251234270437738e-05 -1.8114186655405335e-05 0 0 0 -1.8114186655405335e-05 -5.3837306815215967e-05 -6.5761409531836837e-05 0 -6.5761409531836837e-05 -1.7945768938405359e-05 0 0 0 -1.7945768938405359e-05 -4.8226638447531776e-05 -7.2664095095792088e-05 0 -7.2664095095792088e-05 -1.607554614917715e-05 0 0 0 -1.607554614917715e-05 -3.46676026820366e-05 -5.7752885299974387e-05 0 -5.7752885299974387e-05 -1.1555867560678903e-05 0 0 0 -1.1555867560678903e-05 -4.8021416137904822e-05 -1.8016399102300726e-05 0 -1.8016399102300726e-05 -1.6007138712634977e-05 0 0 0 -1.6007138712634977e-05 7.8590179321766005e-05 8.247624486390758e-05 0 8.247624486390758e-05 2.6196726440588664e-05 0 0 0 2.6196726440588664e-05 -4.6958021185294099e-05 8.6025675162788894e-05 0 8.6025675162788894e-05 -1.5652673728431373e-05 0 0 0 -1.5652673728431373e-05 -5.8230180831079863e-05 6.2194723908461612e-05 0 6.2194723908461612e-05 -1.9410060277026608e-05 0 0 0 -1.9410060277026608e-05 -6.6651178576435143e-05 0.00011725023713329613 0 0.00011725023713329613 -2.2217059525478385e-05 0 0 0 -2.2217059525478385e-05 -7.3772830934610071e-05 9.6256487270503103e-05 0 9.6256487270503103e-05 -2.4590943644870042e-05 0 0 0 -2.4590943644870042e-05 -7.87237217597854e-05 9.6624289057192152e-05 0 9.6624289057192152e-05 -2.6241240586595115e-05 0 0 0 -2.6241240586595115e-05 -7.8913803288452745e-05 9.1300256696347443e-05 0 9.1300256696347443e-05 -2.6304601096150933e-05 0 0 0 -2.6304601096150933e-05 -9.6818564481825032e-05 0.00012148508594203502 0 0.00012148508594203502 -3.2272854827274984e-05 0 0 0 -3.2272854827274984e-05 -4.6645453634732749e-06 8.5288660012831485e-05 0 8.5288660012831485e-05 -1.5548484544910916e-06 0 0 0 -1.5548484544910916e-06 -0.00031763965973142204 -1.2215305809388111e-06 0 -1.2215305809388111e-06 -0.00010587988657714069 0 0 0 -0.00010587988657714069 -0.073296466232563404 -0.019402053268184213 0 -0.019402053268184213 0.027365766692430959 0 0 0 -0.011482674885033115 -0.068587591074988755 -0.019849177465246049 0 -0.019849177465246049 0.046286005759760551 0 0 0 -0.0055753963288070613 -0.084968073951736195 -0.012933759797018995 0 -0.012933759797018995 0.041945423714370544 0 0 0 -0.010755662559341406 -0.087951139940569037 -0.0022169947253124211 0 -0.0022169947253124211 0.043118902886620541 0 0 0 -0.011208059263487067 -0.17636565749349922 -0.0035974049799183463 0 -0.0035974049799183463 0.0012404209056336019 0 0 0 -0.043781309146966402 -0.13538190341489448 -0.0023746283918973723 0 -0.0023746283918973723 -0.0010890285173507366 0 0 0 -0.034117732983061304 -0.1840335429252847 -0.0010259123338388076 0 -0.0010259123338388076 -0.0016165554701703198 0 0 0 -0.04641252459886374 -0.14003808493715086 -0.0034604018084603608 0 -0.0034604018084603608 -0.0010127648294587371 0 0 0 -0.03526271244165239 -0.14884923171328265 0.0028560157079775272 0 0.0028560157079775272 -0.00045020457511929513 0 0 0 -0.037324859072100439 -0.24495188315563809 -0.010174559407419398 0 -0.010174559407419398 -0.00043025986901967794 0 0 0 -0.061345535756164422 -0.04587805127329378 0.0027675911692784287 0 0.0027675911692784287 -0.017741642012163331 0 0 0 -0.015904923321364284 -0.050328951840125487 0.0042181051826345826 0 0.0042181051826345826 -0.01226173222863098 0 0 0 -0.01564767101718912 -0.075985439769139129 -0.0020106760585476627 0 -0.0020106760585476627 -0.011921930662433702 0 0 0 -0.021976842607893197 -0.07610179333807339 -0.0065271378961604624 0 -0.0065271378961604624 -0.025370521984775421 0 0 0 -0.025368078830712203 -0.075921521350018964 -0.00038783593447385897 0 -0.00038783593447385897 -0.025306778495125581 0 0 0 -0.025307074961286136 -0.079489050034186978 -0.019510476861703652 0 -0.019510476861703652 0.031896028654080977 0 0 0 -0.011898255345026462 0.13051189378539269 0.11377773039222273 0 0.11377773039222273 0.2545098716682106 0 0 0 0.096255441363400807 -0.0036915282915915837 -0.011300821972002772 0 -0.011300821972002772 0.013063273426385358 0 0 0 0.0023429362836985268 -0.0084984860650096916 0.006552870351055784 0 0.006552870351055784 0.019011111101908895 0 0 0 0.0026281562592251895 -0.0034131758576774196 0.01351034123938427 0 0.01351034123938427 0.03426704172375139 0 0 0 0.0077134664665186037 -0.0050368077036446746 -0.0059149858292416643 0 -0.0059149858292416643 0.0090274351899735095 0 0 0 0.00099765687158215322 -0.018710857511066603 0.021204559351021501 0 0.021204559351021501 0.0129137408626816 0 0 0 -0.0014492791620961398 -0.012568017380332364 -0.023469261020270693 0 -0.023469261020270693 0.011424425576558317 0 0 0 -0.00028589795094363657 -0.070852071166317282 0.0011532393219601139 0 0.0011532393219601139 -0.013011936800958111 0 0 0 -0.020966001991818858 0.14297295703424345 -0.0070775212737154841 0 -0.0070775212737154841 0.16182471505053803 0 0 0 0.076199418021195328 -0.25136011430890576 0.017323409856650263 0 0.017323409856650263 0.0076549216568337908 0 0 0 -0.060926298163018033 -0.14288077934828017 -0.0072288733578218071 0 -0.0072288733578218071 0.0030391654008187219 0 0 0 -0.034960403486865299 -0.1230515754809639 -0.024198392443012764 0 -0.024198392443012764 0.024893329354917559 0 0 0 -0.0245395615315116 -0.13388425699523254 0.032052876208115151 0 0.032052876208115151 0.073948147383635199 0 0 0 -0.014984027402899391 -0.15159642888466934 -0.018407606787201464 0 -0.018407606787201464 0.014281176293597209 0 0 0 -0.034328813147768006 -0.074946958605389982 -0.027362669844033256 0 -0.027362669844033256 0.055507040823465165 0 0 0 -0.004859979445481194 -0.033932210041191235 -0.034221687367649412 0 -0.034221687367649412 0.0096965623022634562 0 0 0 -0.0060589119347319031 -0.038874519462112622 0.042181930143732504 0 0.042181930143732504 0.01003860385497668 0 0 0 -0.0072089789017838468 -0.036841628588557995 -0.034690123358674163 0 -0.034690123358674163 0.013378690497633183 0 0 0 -0.005865734522731314 -0.046024725092699947 0.045283667714808296 0 0.045283667714808296 0.0046088938221435782 0 0 0 -0.010353957817639037 -0.12206587174731728 -0.027349708160121319 0 -0.027349708160121319 0.0062698359933336667 0 0 0 -0.028949008938495981 -0.046771590320839294 -0.051712772828858007 0 -0.051712772828858007 0.078435986762636994 0 0 0 0.0079160991104494163 -0.15268298818208498 0.019569148748348086 0 0.019569148748348086 0.020636103780190984 0 0 0 -0.033011721100473568 0.2623654343294477 0.1353120439391417 0 0.1353120439391417 0.10083801136379789 0 0 0 0.090800861423311452 0.00072615746398801972 0.0074316253457880066 0 0.0074316253457880066 0.040330480290060589 0 0 0 0.010264159438512166 0.00037806908588067234 -0.0082680914106695591 0 -0.0082680914106695591 0.091178157209253485 0 0 0 0.022889056573783595 -0.067311822874656271 -0.027944610717677704 0 -0.027944610717677704 0.09244901866667192 0 0 0 0.0062842989480039312 -0.0023879620216840092 -0.018253051732527226 0 -0.018253051732527226 0.091078719659239749 0 0 0 0.022172689409388768 -0.0089137497667386434 0.0037071591100423795 0 0.0037071591100423795 -0.0024625621514529072 0 0 0 -0.0028440779795477766 -0.060785691116172914 -0.0064324178512191622 0 -0.0064324178512191622 -0.025056793638749138 0 0 0 -0.021460621188730516 -0.063826745339899071 0.0029838224334046166 0 0.0029838224334046166 -0.019983091347589303 0 0 0 -0.020952459171872096 -0.091218263624991192 0.077920879113028918 0 0.077920879113028918 0.076878055422241132 0 0 0 -0.0035850520506874872 -0.08506942315671373 0.070894789464917896 0 0.070894789464917896 0.056758497259578489 0 0 0 -0.0070777314742838104 0.11135503362702873 0.16113234070613336 0 0.16113234070613336 0.2924998566116489 0 0 0 0.10096372255966943 -0.013831602422394479 0.0069658575200199913 0 0.0069658575200199913 0.0012352219791076646 0 0 0 -0.003149095110821426 -0.021460516968271351 -0.021583040758495597 0 -0.021583040758495597 0.070991308494889174 0 0 0 0.012382697881654456 -0.029470141815563178 -0.0099715109326316553 0 -0.0099715109326316553 0.0014786537459237081 0 0 0 -0.0069978720174098119 -0.070401248059483418 -0.02564417876044222 0 -0.02564417876044222 0.06923179337700433 0 0 0 -0.00029236367061974411 -0.054869938878085681 -0.032605672061209734 0 -0.032605672061209734 0.006069902370376079 0 0 0 -0.012200009126927425 -0.035699808347140427 -0.0079662544038532901 0 -0.0079662544038532901 0.031920081583367232 0 0 0 -0.00094493169094331253 -0.12295298062076343 0.020878073230698124 0 0.020878073230698124 -0.00046283736991137303 0 0 0 -0.030853954497668923 -0.011091775706716933 -0.0052143048336082964 0 -0.0052143048336082964 0.00046285435589599189 0 0 0 -0.002657230337705152 -0.013279717984713724 0.021154283471507274 0 0.021154283471507274 0.13799791571923237 0 0 0 0.031179549433629772 -0.015871551924860648 -0.015906091731131333 0 -0.015906091731131333 0.09970653924467883 0 0 0 0.020958746829954602 0.0013955810420158699 0.00040269700167681866 0 0.00040269700167681866 -0.0015219142868625468 0 0 0 -3.158331121211333e-05 -0.029304415580083842 -0.0019782472094535819 0 -0.0019782472094535819 0.011188563298469623 0 0 0 -0.0045289630704036243 -0.002776980606592469 -0.073892526575901119 0 -0.073892526575901119 0.12004003389228469 0 0 0 0.029315763321423063 -0.028624174915412082 -0.0025718696975517846 0 -0.0025718696975517846 0.0082415792657195563 0 0 0 -0.0050956489124231452 -0.039900163056617616 -0.012303406816276709 0 -0.012303406816276709 0.012587244909153528 0 0 0 -0.0068282295368659873 -0.054683237497911374 -0.041116581681775011 0 -0.041116581681775011 0.012265334399266692 0 0 0 -0.010604475774661171 -0.13031175630747949 -0.014178151328858643 0 -0.014178151328858643 -0.022687783104907398 0 0 0 -0.038249884853096716 -0.16581479208765768 0.0067952312982614838 0 0.0067952312982614838 -0.027050403277663448 0 0 0 -0.048216298841330288 0.0028207868513348195 0.0028504563713187547 0 0.0028504563713187547 0.026366837392946322 0 0 0 0.0072969060610702709 0.0056069171175542887 -0.002923441683059802 0 -0.002923441683059802 0.073480520102395808 0 0 0 0.019771859304987482 -0.12525134229821289 -0.0062128620742326959 0 -0.0062128620742326959 -0.030834621597878052 0 0 0 -0.039021490974022736 -0.10318754149689394 -0.004931014056052738 0 -0.004931014056052738 -0.025113879560525507 0 0 0 -0.032075355264354864 -0.054696707972536805 0.00021673980661362447 0 0.00021673980661362447 -0.021924513119354564 0 0 0 -0.019155305272972836 -0.13440309373806789 0.0012924115573183306 0 0.0012924115573183306 -0.00097512325055998904 0 0 0 -0.033844554247156974 -0.17919813874292967 -0.0094195914195317962 0 -0.0094195914195317962 0.00098880631695540122 0 0 0 -0.044552333106493543 -0.0443597863168399 -0.02294688101319145 0 -0.02294688101319145 -0.0050562653953842851 0 0 0 -0.012354012928056046 -0.049702255319819699 -0.030205483285874163 0 -0.030205483285874163 0.0072062711563939397 0 0 0 -0.010623996040856454 0.0076074361525932943 0.016688116113894313 0 0.016688116113894313 0.16992116894901355 0 0 0 0.044382151275401682 -0.0075426590452496445 -0.0031904978570882481 0 -0.0031904978570882481 -0.002159193520026248 0 0 0 -0.0024254631413191952 -0.047007034181397817 -0.024969145042138971 0 -0.024969145042138971 -0.0076255227218481325 0 0 0 -0.013658139225811466 -0.03320370654837633 -0.011598637567096504 0 -0.011598637567096504 0.012047890753959206 0 0 0 -0.005288953948604222 -0.071852663595623145 0.063452730889628328 0 0.063452730889628328 0.001790008080723382 0 0 0 -0.017515663878725052 -0.14583025970877386 0.0032891289795695246 0 0.0032891289795695246 -0.048636436053091155 0 0 0 -0.048616673940466253 -0.11583591750948974 -0.011536522775061545 0 -0.011536522775061545 -0.038635171774488268 0 0 0 -0.038617772320994496 -0.062227141336397583 -0.0057674219989029569 0 -0.0057674219989029569 -0.022675935599855056 0 0 0 -0.02122576923406316 -0.014088274619917129 0.02761065002966312 0 0.02761065002966312 0.029922602625096939 0 0 0 0.0039585820012946193 -0.015465838664535769 -0.017568959750740243 0 -0.017568959750740243 0.0054280313122307966 0 0 0 -0.0025094518380762709 -0.043775709398575988 -0.038740942631885877 0 -0.038740942631885877 0.010685861476345912 0 0 0 -0.0082724619805575189 -0.04934914256345848 0.0019601624727790005 0 0.0019601624727790005 -0.017674236932725993 0 0 0 -0.016755844874046112 -0.10016404010919697 -0.015441002175318394 0 -0.015441002175318394 -0.0083390181981243816 0 0 0 -0.027125764576830344 -0.039947786800977825 -0.010320935903491743 0 -0.010320935903491743 0.012470850550747259 0 0 0 -0.0068692340625576276 -0.046976637911737014 0.0044055939790906551 0 0.0044055939790906551 -0.016247808098855558 0 0 0 -0.01580611150264814 -0.050216622694128882 0.003368286450191976 0 0.003368286450191976 -0.014612737682780928 0 0 0 -0.016207340094227449 -0.052892516601529591 0.0018319101919062903 0 0.0018319101919062903 -0.018153651972062902 0 0 0 -0.017761542143398125 -0.032344315637985344 -0.0053533669043095977 0 -0.0053533669043095977 0.025631057945000646 0 0 0 -0.0016783144232461744 -0.047183100210728912 -0.040110840970252692 0 -0.040110840970252692 0.030715189829887357 0 0 0 -0.0041169775952103471 -0.029308264102259729 -0.009377127219811543 0 -0.009377127219811543 0.014681860846849082 0 0 0 -0.0036566008138527173 -0.069561819625922255 -0.03010725909233582 0 -0.03010725909233582 0.093018980456306743 0 0 0 0.0058642902075961185 -0.0074182652526912918 0.014982656358816904 0 0.014982656358816904 0.18388676594641407 0 0 0 0.044117125173430694 0.00040999800326102509 -0.00057342553722317092 0 -0.00057342553722317092 -0.0010462197156275721 0 0 0 -0.00015905542809147022 -0.0070388577566542487 -0.0056271058406699367 0 -0.0056271058406699367 -0.0035316517240744361 0 0 0 -0.0026426273701820602 -0.012853052936402154 0.012133762620768263 0 0.012133762620768263 0.18207377199732644 0 0 0 0.042305179765230516 -0.05513596495057644 0.018406938417633297 0 0.018406938417633297 0.12615609857412619 0 0 0 0.017755033405887459 -0.061262079297412904 0.0015922370279567184 0 0.0015922370279567184 -0.011619541805024624 0 0 0 -0.018220405275609381 -0.065333697744155386 0.00034505148376032154 0 0.00034505148376032154 -0.01378711963330847 0 0 0 -0.019780204344365969 -0.0058178748796766655 0.036566362420165532 0 0.036566362420165532 0.059175043834406083 0 0 0 0.013339292238682354 -0.030540109858546494 0.038960597187235546 0 0.038960597187235546 0.050935763107626819 0 0 0 0.0050989133122703034 -0.058533931729347621 -0.041321098330354369 0 -0.041321098330354369 0.032142795390006085 0 0 0 -0.0065977840848353564 -0.0045128942164007757 -0.0070894738659474932 0 -0.0070894738659474932 0.021418792796624397 0 0 0 0.0042264746450559332 -0.0047907379240437198 0.0053834359793552555 0 0.0053834359793552555 0.00072292690310016283 0 0 0 -0.0010169527552359447 -0.074573842246173416 0.0063398076495070968 0 0.0063398076495070968 0.082091082367241525 0 0 0 0.0018793100302670479 -0.00763236379481258 0.0073512442365672483 0 0.0073512442365672483 -0.0049356460171647853 0 0 0 -0.0031420024529942303 -0.022136296866491989 -0.015917302931307775 0 -0.015917302931307775 0.097621653319427626 0 0 0 0.01887133911323402 -0.13711498139993333 0.0022832709534104795 0 0.0022832709534104795 0.00088853272299888042 0 0 0 -0.03405661216923362 -0.21393276947679846 -0.0089131435756873711 0 -0.0089131435756873711 0.0013783178727081458 0 0 0 -0.053138612901022515 -0.029712409782843896 -0.03752579277982572 0 -0.03752579277982572 0.015476200543067253 0 0 0 -0.0035590523099441607 0.10918609602276008 -0.070573217382620734 0 -0.070573217382620734 0.06224020772629324 0 0 0 0.042856575937263386 -0.038142113317711612 -0.024351216677522491 0 -0.024351216677522491 0.0013763896249293639 0 0 0 -0.009191430923195576 -0.040161618306110564 -0.030640315700610821 0 -0.030640315700610821 0.0026792510459622276 0 0 0 -0.0093705918150371048 -0.0048144655727558909 -0.0083195377508451518 0 -0.0083195377508451518 0.026261395339356113 0 0 0 0.0053617324416502772 -0.0026450443503862608 0.0085329912911511485 0 0.0085329912911511485 0.021037907029711533 0 0 0 0.0045982156698318732 -0.0076960341777803087 0.010155269223710128 0 0.010155269223710128 0.052243970463962341 0 0 0 0.011136984071545175 -0.002397608352199375 -0.0068147115856889151 0 -0.0068147115856889151 0.0099661361257611433 0 0 0 0.001892131943390553 -0.08912855511696588 0.042040288755141875 0 0.042040288755141875 0.103681293287469 0 0 0 0.0036381845426257664 -0.049845157837978993 -0.020766017006172782 0 -0.020766017006172782 0.0049432749433584444 0 0 0 -0.011225470723655151 -0.041209074643711846 -0.018255295175815534 0 -0.018255295175815534 0.0013519678948507377 0 0 0 -0.0099642766872153031 -0.039380452630694229 -0.018125585777200803 0 -0.018125585777200803 -0.00030082586860225718 0 0 0 -0.0099203196248240939 -0.025317837382391684 -0.040299311244643699 0 -0.040299311244643699 0.021442254444226094 0 0 0 -0.00096889573454150835 -0.1825362718412003 0.025404023081563754 0 0.025404023081563754 0.0034521004239915776 0 0 0 -0.044771042854302057 -0.090230799633664704 -0.0064288505308742333 0 -0.0064288505308742333 0.02515692939320946 0 0 0 -0.01626846756011377 -0.076890856221804471 -0.01496060261864187 0 -0.01496060261864187 0.023465546876117793 0 0 0 -0.013356327336421614 -0.023665914239232783 0.0018946723992299686 0 0.0018946723992299686 -0.0048749891445951654 0 0 0 -0.0071352258459570217 -0.1313702561919865 0.045051011965497767 0 0.045051011965497767 -0.0029695531150533139 0 0 0 -0.033584952326759954 -0.12225530953519753 0.0034785700571431655 0 0.0034785700571431655 0.0052592094840456793 0 0 0 -0.029249025012787977 -0.11968218125675967 -0.0059704685728019236 0 -0.0059704685728019236 0.0071799593771193493 0 0 0 -0.02812555546991008 -0.19071533705361499 0.0037299874130799493 0 0.0037299874130799493 0.01579495979873824 0 0 0 -0.043730094313719159 -0.1875404301835592 -0.018998785522400141 0 -0.018998785522400141 0.015247791217544493 0 0 0 -0.043073159741503664 -0.042600058209626396 -0.01501185236470054 0 -0.01501185236470054 0.0026323983446451954 0 0 0 -0.0099919149662452689 -0.11229400621518701 -0.011543804211442521 0 -0.011543804211442521 0.0020974816900921622 0 0 0 -0.027549131131273635 0.0095252203970755955 0.078835263236052167 0 0.078835263236052167 0.040885388623750352 0 0 0 0.012602652255206404 -0.075209366398210228 -0.020858313106640644 0 -0.020858313106640644 0.062354383136368541 0 0 0 -0.0032137458154603985 -0.048473789862773155 0.015485045668534408 0 0.015485045668534408 0.024880371374747544 0 0 0 -0.0058983546220063958 -0.038394690859209324 0.030845007900930366 0 0.030845007900930366 -0.0020402570290336541 0 0 0 -0.010108736972060828 -0.032601528255162715 -0.031297409136853416 0 -0.031297409136853416 0.029330264071776302 0 0 0 -0.00081781604584663103 -0.04523800348751552 -0.038902535933630578 0 -0.038902535933630578 0.036611330361584871 0 0 0 -0.0021566682814826623 -0.01161564738586901 0.0048741268774355195 0 0.0048741268774355195 0.0006792927892156353 0 0 0 -0.0027340886491634131 -0.040212669677036045 -0.017303056946010809 0 -0.017303056946010809 -0.0053412839806240564 0 0 0 -0.01138848841441506 -0.071248781094906399 -0.010012299723721627 0 -0.010012299723721627 -0.027496100996625431 0 0 0 -0.024686220522882954 -0.070936189492552107 0.0027726742296815495 0 0.0027726742296815495 -0.020924997940914548 0 0 0 -0.022965296858366662 -0.041936230681796381 -0.043277322478405544 0 -0.043277322478405544 0.02284274321628682 0 0 0 -0.0047733718663774613 -0.10247933597639701 -0.02475465285706914 0 -0.02475465285706914 -0.0049015183581953281 0 0 0 -0.026845213583648039 -0.12088332427554987 -0.0027677164395577599 0 -0.0027677164395577599 0.032722782260348193 0 0 0 -0.022040135503800518 -0.052686934313835768 -0.0024898799478266756 0 -0.0024898799478266756 -0.024591775597721941 0 0 0 -0.019319677477889426 -0.050892186825069297 -9.8260028369090251e-05 0 -9.8260028369090251e-05 -0.021074605608669975 0 0 0 -0.017991698108434821 -0.059162451696945881 0.00096374296559093128 0 0.00096374296559093128 -0.017086321482237508 0 0 0 -0.019062193294795853 -0.059427630778715566 0.0018878501246318369 0 0.0018878501246318369 -0.017536081155325917 0 0 0 -0.019240927983510372 -0.10845038121356057 -0.016836625126776722 0 -0.016836625126776722 0.03385673135257028 0 0 0 -0.018648412465247538 -0.059291685665029611 0.011753790969645093 0 0.011753790969645093 0.022847095758534275 0 0 0 -0.0091111474766238307 -0.049308896599406654 -0.0025364181789863582 0 -0.0025364181789863582 -0.01651239823950644 0 0 0 -0.01645532370972828 -0.076958327274176924 -0.02200558284060565 0 -0.02200558284060565 -0.0051063310115395111 0 0 0 -0.020516164571429102 -0.062085303475519257 0.014267516719310092 0 0.014267516719310092 0.066200348418521987 0 0 0 0.0010287612357506902 -0.073951053035017131 -0.0054331709971657139 0 -0.0054331709971657139 0.0017704435776429578 0 0 0 -0.018045152364343533 -0.071903309011894109 -0.0041810396069225271 0 -0.0041810396069225271 0.0082141690585589844 0 0 0 -0.015922284988333812 -0.14581038103995644 0.0032717932804047097 0 0.0032717932804047097 -0.048572203455906265 0 0 0 -0.048595646123965684 -0.11582018753020543 -0.011523197883065278 0 -0.011523197883065278 -0.038584445045162653 0 0 0 -0.038601158143842018 0.08595101503060909 0.044343756664226963 0 0.044343756664226963 0.063330270274132267 0 0 0 0.037320321326185339 -0.062299430612681561 -0.0001070421091903819 0 -0.0001070421091903819 -0.0012668526992073489 0 0 0 -0.015891570827972244 -0.08524749423695685 -0.014944227188815325 0 -0.014944227188815325 0.075667223625042968 0 0 0 -0.0023950676529784498 -0.019797403603055319 -0.00029204371117286243 0 -0.00029204371117286243 -0.01410473522735145 0 0 0 -0.0084755347076015952 -0.1333643863744188 0.0037220077492349651 0 0.0037220077492349651 0.0011872375118261447 0 0 0 -0.033044287215648206 -0.20070799406955536 -0.010826389193672459 0 -0.010826389193672459 0.0015793194004712907 0 0 0 -0.049782168667271087 -0.041246095661179816 -0.01509377434488679 0 -0.01509377434488679 -0.009299209137128811 0 0 0 -0.012636326199577164 -0.12327536475117827 0.0059941870654443008 0 0.0059941870654443008 0.00013449995405041327 0 0 0 -0.030785216199281977 -0.15141451985537027 -0.029813787823401119 0 -0.029813787823401119 0.0014011985852308839 0 0 0 -0.037503330317534875 -0.12285845143389493 0.0025849214239177104 0 0.0025849214239177104 0.00023349498658969958 0 0 0 -0.030656239111826356 -0.08730745535347792 -0.0010623376409122087 0 -0.0010623376409122087 -0.0066236724599547511 0 0 0 -0.023482781953358182 -0.083119407853271085 -0.011968511438781528 0 -0.011968511438781528 -0.013271629336116628 0 0 0 -0.024097759297346952 -0.11549089651812521 -0.021360863658057117 0 -0.021360863658057117 0.014552341148100556 0 0 0 -0.025234638842506082 -0.04845882332771731 -0.016014402080410328 0 -0.016014402080410328 0.0029187825133231149 0 0 0 -0.011385010203598472 -0.025900663529880408 0.035355808238617947 0 0.035355808238617947 0.063429083436508549 0 0 0 0.0093821049766571463 -0.031353748073651433 -0.021606306316042601 0 -0.021606306316042601 -0.0044822777895410226 0 0 0 -0.0089590064657982804 -0.056057080391460672 -0.0018953225495413819 0 -0.0018953225495413819 -0.022781924589024623 0 0 0 -0.019709751245121324 -0.064359252238831766 2.4048321379153308e-05 0 2.4048321379153308e-05 -0.019593648919413949 0 0 0 -0.02098822528956144 -0.084609505335442953 -0.012038986895298708 0 -0.012038986895298708 -0.029562848553516388 0 0 0 -0.028543088472239832 -0.079195849141027772 0.0019774224266931937 0 0.0019774224266931937 -0.022562425889585611 0 0 0 -0.025439568757653342 -0.07653151192835822 -0.015609881510679199 0 -0.015609881510679199 0.015542769280344537 0 0 0 -0.015247185662003448 -0.074761799612960866 -0.025611724378021061 0 -0.025611724378021061 0.019964934960089331 0 0 0 -0.013699216163217842 -0.071899452404660891 0.077231556776511751 0 0.077231556776511751 0.02076360152616763 0 0 0 -0.012783962719623454 -0.021841393133886 0.0999991788417538 0 0.0999991788417538 0.060450891104975923 0 0 0 0.0096523744927724531 0.024881900355289005 0.0012770132388850025 0 0.0012770132388850025 0.071422640784853553 0 0 0 0.02407613528503566 -0.090530801655160878 -0.011210286756733787 0 -0.011210286756733787 0.057917900331066613 0 0 0 -0.0081532253310235697 -0.04920381060924757 0.0028509452914672979 0 0.0028509452914672979 -0.015911559201803656 0 0 0 -0.016278842452762798 -0.050202833288186699 -0.022139996264651601 0 -0.022139996264651601 -0.0038956668626199953 0 0 0 -0.013524625037701715 -0.065610345334973008 0.054167378996014204 0 0.054167378996014204 0.0039316450724089513 0 0 0 -0.015419675065641014 -0.024054740088242599 -0.0067371104298652451 0 -0.0067371104298652451 0.054899941514173101 0 0 0 0.0077113003564825977 -0.028562242176892433 -0.010093734438658297 0 -0.010093734438658297 -0.0028420138552701646 0 0 0 -0.0078510640080406702 -0.070135912539329659 -0.00091739237477848987 0 -0.00091739237477848987 -0.0097687115741931368 0 0 0 -0.019976156028380702 -0.11345901043521955 0.026834161232298481 0 0.026834161232298481 0.058543392515608472 0 0 0 -0.013728904479902826 -0.13762452266027006 0.00011154496510448948 0 0.00011154496510448948 -0.002227283446726791 0 0 0 -0.034962951526749192 -0.19323297419939139 -0.0042812644758467543 0 -0.0042812644758467543 -0.0044375251427928031 0 0 0 -0.049417624835546077 -0.040903743972018236 -0.022981949698483786 0 -0.022981949698483786 0.0046302660917633132 0 0 0 -0.0090683694700636752 -0.092341100672738374 -0.0030684465232519221 0 -0.0030684465232519221 -0.017492374445473385 0 0 0 -0.027458368779552954 -0.10072871458726429 -0.0071684617128527708 0 -0.0071684617128527708 -0.025963911869279512 0 0 0 -0.031673156614135958 -0.21963768797305031 0.0068485795481271206 0 0.0068485795481271206 0.0039496227571322873 0 0 0 -0.05392201630397947 -0.13058891551947405 -0.0034432308365452968 0 -0.0034432308365452968 0.0010128272680542949 0 0 0 -0.032394022062854924 -0.018328660383942319 0.034057074890630368 0 0.034057074890630368 0.14798136767888692 0 0 0 0.032413176823736123 0.058914426536172973 0.0021057319562525489 0 0.0021057319562525489 0.35039848208618402 0 0 0 0.10232822715558927 -0.048848872350971739 -0.047283157586392677 0 -0.047283157586392677 0.027808529911639901 0 0 0 -0.0052600856098328763 -0.063244996304001766 -0.041311648107790033 0 -0.041311648107790033 0.017910813402250536 0 0 0 -0.011333545725437821 -0.045837484045122202 -0.047179216783009528 0 -0.047179216783009528 0.069394686868730904 0 0 0 0.0058893007059021467 -0.007675654618898603 0.0019948903037364518 0 0.0019948903037364518 -0.0092980673669292857 0 0 0 -0.0042434304964570069 -0.053919829721101001 -0.0001961499594299063 0 -0.0001961499594299063 -0.019255545551252702 0 0 0 -0.018293843818088424 -0.095779057247545624 -0.011680384388593423 0 -0.011680384388593423 0.014541000354857614 0 0 0 -0.020309514223172148 -0.00803631014180195 -0.0035982132063874378 0 -0.0035982132063874378 0.0058756266357993248 0 0 0 -0.00054017087650071183 -0.18680056385690419 0.028395648694558129 0 0.028395648694558129 -0.00080746968928915863 0 0 0 -0.04690200838654817 -0.036277294822706363 0.03001081170887776 0 0.03001081170887776 -0.00062794242392527622 0 0 0 -0.0092263093116580208 -0.026779891325249272 -0.031332510100040567 0 -0.031332510100040567 0.026928535004009824 0 0 0 3.7160919690082395e-05 -0.063282454523330589 -0.00026248336373820014 0 -0.00026248336373820014 0.017774701668962205 0 0 0 -0.011376938213592111 -0.08397141138917727 -0.021417231609879031 0 -0.021417231609879031 0.020370389633206032 0 0 0 -0.015900255438992844 -0.048917201015359707 0.008389467376982835 0 0.008389467376982835 -0.001303496029700639 0 0 0 -0.012555174261265081 -0.044832299616871116 0.013512697184398258 0 0.013512697184398258 0.0091672113602282307 0 0 0 -0.0089162720641607109 -0.11986147475082656 -0.02109045496001774 0 -0.02109045496001774 -0.001380260340496639 0 0 0 -0.030310433772830818 -0.055900497532581972 -0.037835777686882954 0 -0.037835777686882954 0.0066890708835309898 0 0 0 -0.012302856662262718 -0.16534471859689659 -0.017213529754082621 0 -0.017213529754082621 -0.0077479018930393913 0 0 0 -0.043273155122483968 -0.041808353896255479 0.053317740337814223 0 0.053317740337814223 0.015156446469362983 0 0 0 -0.006662976856723235 -0.045114169778574173 0.056744752264133336 0 0.056744752264133336 0.013498282301459608 0 0 0 -0.0079039718692790334 -0.048948636771064757 0.059161868785553295 0 0.059161868785553295 0.0053007785119323358 0 0 0 -0.01091196456478305 -0.043058649798985549 -0.035464085962959357 0 -0.035464085962959357 0.0069447001550431153 0 0 0 -0.0090284874109856084 -0.051503812226312597 -0.035356972317519331 0 -0.035356972317519331 0.0041269288222416933 0 0 0 -0.011844220851017754 0.027873698635242264 0.042567137719214845 0 0.042567137719214845 0.082519262126412085 0 0 0 0.027598240190413556 -0.053918763913906209 -0.0028156672362992189 0 -0.0028156672362992189 -0.017978908290234023 0 0 0 -0.017974418051035061 -0.060037446953083384 0.0012897165492055517 0 0.0012897165492055517 -0.020013305855557707 0 0 0 -0.020012688202160272 -0.061149485293029202 0.0017291932189591307 0 0.0017291932189591307 0.0015510809188971656 0 0 0 -0.014899601093533018 -0.026076323018283443 -0.02489301229524693 0 -0.02489301229524693 0.10436564338463084 0 0 0 0.019572330091586876 -0.13824215912376286 -0.027456375307457193 0 -0.027456375307457193 -0.0033365907027419206 0 0 0 -0.035394687456626203 -0.051379728862553369 0.00075660602287874908 0 0.00075660602287874908 -0.019479869321596711 0 0 0 -0.017714899546037523 -0.19368291310981059 -0.0068491832843602524 0 -0.0068491832843602524 -0.0042143536021572066 0 0 0 -0.049474316677991938 -0.1340486664752156 0.0010749163159089956 0 0.0010749163159089956 -0.00089388919806529521 0 0 0 -0.033735638918320238 -0.11537237524694821 -0.013733958612404146 0 -0.013733958612404146 3.0543269236682491e-05 0 0 0 -0.028835457994427882 -0.055495382076541137 0.0022117398244438456 0 0.0022117398244438456 -0.014347723723183829 0 0 0 -0.017460776449931239 -0.034424664113737811 -0.0076088865454660426 0 -0.0076088865454660426 0.030383925386232663 0 0 0 -0.0010101846818762403 -0.071587939327634367 0.0084904879932641616 0 0.0084904879932641616 0.045016164883692138 0 0 0 -0.0066429436109855574 -0.017729496775657133 0.06590914885407273 0 0.06590914885407273 0.021526646422130979 0 0 0 0.00094928741161839914 -0.048092415247271043 0.0032135019994075273 0 0.0032135019994075273 -0.018962150314086976 0 0 0 -0.016763641390339513 -0.026580319578504596 0.028101148961446443 0 0.028101148961446443 0.0036188784836692633 0 0 0 -0.0057403602737089443 -0.023429811771433329 -0.027906295646009271 0 -0.027906295646009271 0.014557585603985235 0 0 0 -0.0022180565418623566 -0.05581859641853272 0.0020939000479812011 0 0.0020939000479812011 -0.015229180950490058 0 0 0 -0.017761944342255694 -0.08373154130566085 -0.0010413045007914637 0 -0.0010413045007914637 0.058565898509516448 0 0 0 -0.0062914106990360616 -0.017837602654161788 0.022218341079312198 0 0.022218341079312198 0.040402362744122122 0 0 0 0.0056411900224899725 -0.0072055045691266084 0.018215873539253025 0 0.018215873539253025 0.0070760763260926396 0 0 0 -3.2357060758769762e-05 -0.006505273825623048 -0.014747881253299372 0 -0.014747881253299372 -0.00047771757546444249 0 0 0 -0.0017457478502718171 -0.013241406794774702 -0.019149893705188159 0 -0.019149893705188159 0.019333563947246724 0 0 0 0.0015230392881178112 -0.14690739010816256 0.0047958163131863463 0 0.0047958163131863463 0.034437280818969351 0 0 0 -0.028117527322298275 -0.092028655481793856 -0.02556317367974148 0 -0.02556317367974148 0.010397912010379762 0 0 0 -0.020407685867853617 -0.10153145595078616 -0.025381633759747724 0 -0.025381633759747724 0.0098534621392815103 0 0 0 -0.022919498452876275 -0.15613208576408821 0.05488553463033663 0 0.05488553463033663 0.022832679831410907 0 0 0 -0.033324851483169216 -0.13427066090671314 0.055332292869691796 0 0.055332292869691796 0.024206972924841086 0 0 0 -0.02751592199546804 -0.067243024988018221 -0.00086014820309049736 0 -0.00086014820309049736 -0.017370254800456533 0 0 0 -0.021153319947118693 0.06695498851051096 0.037961983942100791 0 0.037961983942100791 0.058686356641905579 0 0 0 0.03141033628810419 -0.12452099798382307 -0.0070632127221061086 0 -0.0070632127221061086 -0.027924903312004007 0 0 0 -0.038111475323956763 -0.10417806075430305 -0.0046929658145650546 0 -0.0046929658145650546 -0.020440690372563713 0 0 0 -0.031154687781716688 -0.082542392705982098 -0.018349450678265308 0 -0.018349450678265308 0.038632365468763835 0 0 0 -0.010977506809304573 -0.083866854825043011 0.00015344109493961242 0 0.00015344109493961242 -0.013010843472171034 0 0 0 -0.0242194245743035 -0.085419881842279763 -0.012529782945615636 0 -0.012529782945615636 -0.02478594518791008 0 0 0 -0.027551456757547464 -0.16618709085181371 -0.021717357145372679 0 -0.021717357145372679 0.0035813562411655953 0 0 0 -0.040651433652661995 -0.16800486694865616 -0.023035987613917452 0 -0.023035987613917452 -0.00071791643530866311 0 0 0 -0.04218069584599117 -0.018757264881246183 0.03219363767722655 0 0.03219363767722655 0.064281527588356369 0 0 0 0.011381065676777435 -0.01639445016360086 -0.015746877985507668 0 -0.015746877985507668 0.0026866487415677653 0 0 0 -0.0034269503555084402 -0.0065199523515117441 -0.0018995259425168554 0 -0.0018995259425168554 0.037077227262585437 0 0 0 0.0076393187277684228 -0.0031541107320344208 0.0024178414648834412 0 0.0024178414648834412 0.0084474824997313736 0 0 0 0.0013233429419242659 -0.083418926964338308 -0.0030867408864345205 0 -0.0030867408864345205 0.001371738458100083 0 0 0 -0.020511797126559553 -0.00414202820842835 -0.0055447304008358622 0 -0.0055447304008358622 0.085924604485050571 0 0 0 0.0204456440691555 -0.0013592800803874372 -0.0014484659553077872 0 -0.0014484659553077872 0.1583491282180749 0 0 0 0.03924746203442192 -0.027690974652974813 -0.010371286403614011 0 -0.010371286403614011 0.033565289407895514 0 0 0 0.0014685786887302429 -0.10902967217709765 -0.013757528422604429 0 -0.013757528422604429 0.013254163282260034 0 0 0 -0.023943877223709387 -0.0063278243658059785 0.000956029201553521 0 0.000956029201553521 -0.0073664668331854255 0 0 0 -0.0034235727997479759 -0.1648789664166162 -0.02991067025795642 0 -0.02991067025795642 0.010473929520710912 0 0 0 -0.038601259223976364 -0.065334925305053887 0.00070280844194144793 0 0.00070280844194144793 0.012460826735294639 0 0 0 -0.013218524642439805 -0.07268335876534221 -0.036623015498865263 0 -0.036623015498865263 0.029778068641870048 0 0 0 -0.010726322530868027 -0.070167253421852538 -0.03400161528614587 0 -0.03400161528614587 0.02752142232023802 0 0 0 -0.010661457775403727 -0.085942731690828167 0.0014564479201934905 0 0.0014564479201934905 -0.00075539844423896246 0 0 0 -0.021674532533766756 -0.092190114901391229 -0.02177956308465448 0 -0.02177956308465448 0.018953930166963118 0 0 0 -0.018309046183606958 -0.092474409647684538 -0.001476185207423996 0 -0.001476185207423996 -0.0020946209326965781 0 0 0 -0.023642257645095283 -0.080735780073468072 -0.014203401402168334 0 -0.014203401402168334 -0.016833954626711015 0 0 0 -0.024392433675044768 -0.11232801479613835 -0.013599873126697554 0 -0.013599873126697554 0.011365788335312987 0 0 0 -0.025240556615206244 -0.18018155791572957 0.023646015423988032 0 0.023646015423988032 0.039985101367002618 0 0 0 -0.035049114137181842 -0.12412643407335487 -0.0083195003639628413 0 -0.0083195003639628413 -0.028745602787393031 0 0 0 -0.038218009215186984 -0.10244378664215115 -0.0034807529138109932 0 -0.0034807529138109932 -0.02376925230756766 0 0 0 -0.031553259737429701 -0.096152791469028248 0.0020166403065014354 0 0.0020166403065014354 -0.0046199876541528559 0 0 0 -0.025193194780795264 -0.10856296140179456 -0.020731212509580644 0 -0.020731212509580644 -0.013322064402800982 0 0 0 -0.03047125645114887 -0.064414594571652883 -0.0041048374645238726 0 -0.0041048374645238726 -0.025108172859042752 0 0 0 -0.022380691857673905 -0.025070371916187453 -0.051096673958586025 0 -0.051096673958586025 0.060435462435813214 0 0 0 0.0088412726299064298 -0.045381491648638424 0.0053660344213632971 0 0.0053660344213632971 -0.015646966774615544 0 0 0 -0.015257114605813487 -0.018741501521803094 0.021086779321217719 0 0.021086779321217719 0.0030896181769337616 0 0 0 -0.0039129708362173332 -0.020210920081176642 -0.028306482213331097 0 -0.028306482213331097 0.029760015432758191 0 0 0 0.0023872738378951652 -0.094474953942030676 0.00058749248938929841 0 0.00058749248938929841 -0.008824315667261301 0 0 0 -0.025824817402322973 -0.10125574535123552 -0.016371811355598179 0 -0.016371811355598179 -0.02018282088569285 0 0 0 -0.030359641559232101 -0.049361197337264906 0.005269452819791744 0 0.005269452819791744 -0.0092361792001023849 0 0 0 -0.014649344134341817 -0.047868032182921072 -0.04140766757993105 0 -0.04140766757993105 0.043017837008665794 0 0 0 -0.0012125487935638612 -0.085130461861544049 0.016701487862080196 0 0.016701487862080196 -0.0021687454509287107 0 0 0 -0.021824801828118412 -0.024111976595598328 -0.017527802474470167 0 -0.017527802474470167 0.055760391442425838 0 0 0 0.0079121037117068638 -0.05558797544176175 -0.035958905283355769 0 -0.035958905283355769 0.0058457143136858569 0 0 0 -0.012435565282019057 -0.086277340809821398 -0.015035500466129781 0 -0.015035500466129781 0.063961914640060957 0 0 0 -0.0055788565424401138 -0.17056971002720445 -0.013279039234517898 0 -0.013279039234517898 -0.0046309673118633266 0 0 0 -0.043800169334766971 -0.12404467055408377 -0.00011620362386638786 0 -0.00011620362386638786 -0.0033364816593709767 0 0 0 -0.031845288053363681 -0.033993855813848319 0.0098982913125893052 0 0.0098982913125893052 0.0049190347571609616 0 0 0 -0.0072687052641718583 -0.053626327249808182 0.0024360975636095916 0 0.0024360975636095916 -0.01518955797329101 0 0 0 -0.017203971305774807 -0.068951377945169978 -0.026216618272192529 0 -0.026216618272192529 0.014127955250855084 0 0 0 -0.013705855673578737 -0.1741566557600622 -0.017053847887433037 0 -0.017053847887433037 -0.0018713366431254916 0 0 0 -0.044006998100796925 -0.12886906717271007 0.0038586859884968475 0 0.0038586859884968475 -0.0013047739183299489 0 0 0 -0.032543460272760019 -0.070051532048169676 0.003740749571456585 0 0.003740749571456585 0.065061115473931355 0 0 0 -0.0012476041435595976 -0.036144741890256737 -0.030473172137646332 0 -0.030473172137646332 0.0063286817257273142 0 0 0 -0.0074540150411321893 -0.037308366044292551 0.045236725005953493 0 0.045236725005953493 0.017708631387140628 0 0 0 -0.0048999336642876479 -0.10944023405352235 -0.0018197824250196781 0 -0.0018197824250196781 0.010019444502001915 0 0 0 -0.02485519738788014 -0.094897923480161323 -0.009089632393542324 0 -0.009089632393542324 0.013713182608069903 0 0 0 -0.020296185218022813 -0.057084918605897886 -0.017959749256736671 0 -0.017959749256736671 0.026275053242513405 0 0 0 -0.0077024663408461203 -0.060036472600752844 -0.018985698822817004 0 -0.018985698822817004 0.036315609635545039 0 0 0 -0.0059302157413019824 -0.075097091176213146 -0.0090896766613622962 0 -0.0090896766613622962 -0.027661250933204401 0 0 0 -0.025689585527354383 -0.073705830301850156 -0.0044108625914697636 0 -0.0044108625914697636 -0.025011405443603793 0 0 0 -0.024679308936363484 -0.078090204220922638 -0.0019142881486548793 0 -0.0019142881486548793 -0.018338044236300657 0 0 0 -0.02410706211430582 -0.076393903692751994 0.00093320504618430692 0 0.00093320504618430692 -0.017587777389754346 0 0 0 -0.023495420270626583 -0.037607915465182662 -0.0089279404955603103 0 -0.0089279404955603103 0.0022760517677568037 0 0 0 -0.0088329659243564507 -0.078481775100009088 -0.0041138635821854098 0 -0.0041138635821854098 0.068963372634470971 0 0 0 -0.002379600616384531 -0.042533976369324072 0.0089895791912065516 0 0.0089895791912065516 0.0003215921306663691 0 0 0 -0.010553096059664405 -0.034216348520233142 0.04870583185021532 0 0.04870583185021532 0.025513276996718126 0 0 0 -0.0021757678808786984 -0.048838026418218106 -0.032609546067954437 0 -0.032609546067954437 0.0015333536107822177 0 0 0 -0.011826168201858889 -0.028835884945767276 0.060368797306688649 0 0.060368797306688649 0.01746981008549664 0 0 0 -0.002841518715067437 -0.037383238290381884 -0.0069778901284483566 0 -0.0069778901284483566 0.0035905672375956404 0 0 0 -0.0084481677631965558 -0.030601320862445311 0.0039268126649855198 0 0.0039268126649855198 0.016282477470593248 0 0 0 -0.003579710847963033 -0.071780196230718518 0.068470659070770989 0 0.068470659070770989 0.0053818749545726519 0 0 0 -0.016599580319036411 -0.048783943521859441 0.069196022810038116 0 0.069196022810038116 0.01109228925669381 0 0 0 -0.0094229135662912133 -0.13570701507343017 -0.0061460252256361012 0 -0.0061460252256361012 -0.017599995225152616 0 0 0 -0.038326752574645698 -0.1104086758005246 -0.0051120747278404141 0 -0.0051120747278404141 -0.014692748434926552 0 0 0 -0.031275356058862773 -0.04260374263401695 -0.041275532200310439 0 -0.041275532200310439 0.022222460940301669 0 0 0 -0.0050953204234288618 0.0040604651855594143 -0.006363915755845371 0 -0.006363915755845371 0.087172668296298772 0 0 0 0.022808283370464533 0.0015842968306358229 0.0027177355465570208 0 0.0027177355465570208 0.16622533356555524 0 0 0 0.041952407599047725 -0.079799310319812453 -0.0013436022073496524 0 -0.0013436022073496524 0.043068822224422459 0 0 0 -0.0091826220238474775 -0.037743844623164838 0.014204683281975407 0 0.014204683281975407 0.0081656562801570298 0 0 0 -0.0073945470857519624 -0.017498074453708157 -0.0026843261053869638 0 -0.0026843261053869638 -0.00806803482994356 0 0 0 -0.0063915273209129153 -0.028454914131562703 -0.0049018992577293252 0 -0.0049018992577293252 -0.0126414481232906 0 0 0 -0.010274090563713367 -0.042016838780008559 -0.014771453026828835 0 -0.014771453026828835 -0.0016109095576117838 0 0 0 -0.010906937084405155 -0.025727751217943295 0.017140623797551768 0 0.017140623797551768 -0.0033539041300160166 0 0 0 -0.007270413836990175 -0.019764477400525698 -0.027793070384014129 0 -0.027793070384014129 0.045162592260358847 0 0 0 0.0063495287149583912 -0.0014965493054887591 0.0043465067436258553 0 0.0043465067436258553 0.039719365561983633 0 0 0 0.0095557040641237601 -0.0013483485445135446 -0.0066330351139601285 0 -0.0066330351139601285 0.090669058785268875 0 0 0 0.022330177560188846 -0.026541172829574466 0.03337279287768169 0 0.03337279287768169 0.035070417967869805 0 0 0 0.0021323112845740289 -0.022011699311262956 -0.022882654837599548 0 -0.022882654837599548 -0.00213027621473727 0 0 0 -0.006035493881500098 -0.050837269879053286 0.003244983264993207 0 0.003244983264993207 -0.013721964661139733 0 0 0 -0.016139808635048266 -0.047677259579056122 0.0064632591951596114 0 0.0064632591951596114 -0.0096419731200120783 0 0 0 -0.014329808174767058 -0.02927330758049651 0.038961576736281422 0 0.038961576736281422 0.04245339041247842 0 0 0 0.0032950207079958105 -0.028878233310789092 -0.023461743994383388 0 -0.023461743994383388 0.0033343044804889921 0 0 0 -0.006385982207575136 -0.10949747264850292 -0.010138164955280162 0 -0.010138164955280162 -0.027073050779577668 0 0 0 -0.034142630857020143 -0.095209150783399477 -0.0016686139753401344 0 -0.0016686139753401344 -0.020986806911334421 0 0 0 -0.029048989423683474 -0.0093752085688133535 0.076507651927046783 0 0.076507651927046783 0.035722647570514354 0 0 0 0.006586859750425389 -0.15568423284516597 -0.0010687090853180206 0 -0.0010687090853180206 -0.0268806418794382 0 0 0 -0.045641218681151029 -0.12279270399699875 -0.0091706482317944361 0 -0.0091706482317944361 -0.021269209061589661 0 0 0 -0.036015478264647113 -0.036312337873328993 0.014824164888191049 0 0.014824164888191049 -0.0056869220417681277 0 0 0 -0.010499814978774502 -0.019851415421738849 -0.02099446141332284 0 -0.02099446141332284 0.071568405827238557 0 0 0 0.012929247601374927 -0.072806303601653438 -0.0047786463451748307 0 -0.0047786463451748307 0.089300547195545421 0 0 0 0.0041235608984730235 -0.10378244188783281 0.0010634091035166549 0 0.0010634091035166549 0.085070922112260861 0 0 0 -0.0046778799438930152 -0.064840718258763808 -0.038146919377405927 0 -0.038146919377405927 0.012330978642554946 0 0 0 -0.013127434904052215 -0.035693943341790269 -0.029444726335493443 0 -0.029444726335493443 0.01338213543978084 0 0 0 -0.005577951975502371 -0.071620008839316185 0.079072545787620463 0 0.079072545787620463 0.023578453129008192 0 0 0 -0.012010388927576887 -0.13162717864974982 0.053348346531366886 0 0.053348346531366886 0.028158442775009007 0 0 0 -0.025867183968685259 -0.091858510372443303 -0.025683420938630686 0 -0.025683420938630686 0.01179231075691467 0 0 0 -0.020016549903882186 -0.012991433862883595 -0.05631750861504245 0 -0.05631750861504245 0.044714524020627366 0 0 0 0.0079307725394360262 -0.01671044786722492 -0.00096062962544157804 0 -0.00096062962544157804 0.051982158430344649 0 0 0 0.0088179276407799878 -0.020056405643672059 -0.0041920288494708136 0 -0.0041920288494708136 0.099778476383138748 0 0 0 0.019930517684866644 -0.07768091265574506 -0.023533181331789832 0 -0.023533181331789832 0.042214157826629017 0 0 0 -0.0088666887072790385 -0.070350697349485625 -0.017000947130243055 0 -0.017000947130243055 0.041232664277312536 0 0 0 -0.0072795082680432999 -0.057128990852649802 0.018755279544621171 0 0.018755279544621171 0.099888404624372443 0 0 0 0.010689853442930681 -0.031347324821102834 -0.032854062273968504 0 -0.032854062273968504 0.058804253349852509 0 0 0 0.0068642321321874533 -0.01732898403674632 0.028586938363044379 0 0.028586938363044379 0.092043236660840577 0 0 0 0.01867856315602312 -0.019789523669538234 -0.013577491556530208 0 -0.013577491556530208 -0.0043393847036465871 0 0 0 -0.0060322270932964273 -0.074618685510202398 0.0096952135812373025 0 0.0096952135812373025 0.059890878996806785 0 0 0 -0.0036819516283489381 -0.045114433334020612 -0.0069698940098464335 0 -0.0069698940098464335 0.029044185885407803 0 0 0 -0.0040175618621532024 -0.031639192792128484 -0.0068582847681366021 0 -0.0068582847681366021 -0.008390471728611848 0 0 0 -0.010007416130184993 -0.057752092510419024 0.017367446615628432 0 0.017367446615628432 0.03987681097909223 0 0 0 -0.004468820382831697 -0.055626748087710891 -0.0027820284316364776 0 -0.0027820284316364776 -0.025867049408794449 0 0 0 -0.020373449374126329 -0.10704765608006261 -0.010325269120969932 0 -0.010325269120969932 0.0013321639033325727 0 0 0 -0.02642887304418251 -0.079559427882289313 -0.0080123070932549938 0 -0.0080123070932549938 -0.022297924510478895 0 0 0 -0.025464338098192062 -0.043745271148511067 0.010591041605435624 0 0.010591041605435624 -0.0018128050155147742 0 0 0 -0.011389519041006463 -0.070905430209094553 0.0063938694344655399 0 0.0063938694344655399 0.08350742171302783 0 0 0 0.0031504978759833054 -0.17287938863000174 0.021202870386723804 0 0.021202870386723804 0.0014604676856317944 0 0 0 -0.042854730236092653 -0.052908869662295833 0.0020810564125651491 0 0.0020810564125651491 -0.018041055036296459 0 0 0 -0.01773748117464807 -0.045224027676931455 0.001192586891791329 0 0.001192586891791329 -0.0046747962348017702 0 0 0 -0.012474705977933306 -0.054891898663217538 -0.022617894260544502 0 -0.022617894260544502 0.0079528546828638025 0 0 0 -0.011734760995088474 -0.057856041527676039 -0.026396629909312019 0 -0.026396629909312019 0.00010977623866481601 0 0 0 -0.01443656632225282 -0.063940888304014482 -0.0098310593953098782 0 -0.0098310593953098782 -0.019827870592520953 0 0 0 -0.02094218972413385 -0.049644055599511842 0.0016925367729715356 0 0.0016925367729715356 -0.018968072868985913 0 0 0 -0.017153032117124444 -0.049814708019466233 -0.0025900589243028072 0 -0.0025900589243028072 -0.0022046009026260444 0 0 0 -0.013004827230523083 -0.058118288833443582 -0.024746533625906647 0 -0.024746533625906647 0.018075532930326321 0 0 0 -0.010010688975779364 -0.022562348323240833 -0.0012431773986662509 0 -0.0012431773986662509 0.03298053262056988 0 0 0 0.0026045460743323035 -0.12559830857571563 -0.031366974720005901 0 -0.031366974720005901 -0.0038927787958094595 0 0 0 -0.032372771842881273 -0.0094702484204979842 0.017832494241142083 0 0.017832494241142083 0.13997106235291001 0 0 0 0.032625203483102994 -0.027017642082354493 -0.010051114168583064 0 -0.010051114168583064 -0.003693735833714018 0 0 0 -0.0076778444790171207 -0.048229046778064992 0.0061536926457930723 0 0.0061536926457930723 -0.01091293610158408 0 0 0 -0.014785495719912268 -0.045619606267081426 0.0064214582858379832 0 0.0064214582858379832 -0.010573454484523362 0 0 0 -0.014048265187901192 -0.030649251840534131 0.018333978073575175 0 0.018333978073575175 0.0049175234925229461 0 0 0 -0.0064329320870029072 -0.028888283913233614 -0.027465336265332929 0 -0.027465336265332929 0.046923657100249372 0 0 0 0.0045088432967539394 -0.048194409427468957 0.01095206035987078 0 0.01095206035987078 0.0094855162776466759 0 0 0 -0.0096772232874555632 -0.056647099204025199 0.0083712756088672007 0 0.0083712756088672007 0.0085491886033624755 0 0 0 -0.012024477650165689 -0.048430591002422821 0.0056360442755070735 0 0.0056360442755070735 -0.009397443049107175 0 0 0 -0.014457008512882504 -0.11028962453309958 0.0022679269890507545 0 0.0022679269890507545 -0.0023138332759333191 0 0 0 -0.028150864452258211 -0.072863766702722946 -0.0092549727057375103 0 -0.0092549727057375103 0.019932082458780087 0 0 0 -0.013232921060985725 -0.05448811605082432 -0.013024862901121939 0 -0.013024862901121939 0.023578415557697963 0 0 0 -0.0077274251232815616 -0.121080669998159 0.0021965569139959507 0 0.0021965569139959507 -0.0054474794446381578 0 0 0 -0.031632037360699292 0.032608942891448778 0.09938330296375586 0 0.09938330296375586 0.082157400904092293 0 0 0 0.028691585948885323 -0.029456454566029411 0.033033992337183793 0 0.033033992337183793 0.013948905955224689 0 0 0 -0.0038768871527015136 -0.024385176140678144 -0.03022124444976465 0 -0.03022124444976465 0.0099606102721763179 0 0 0 -0.0036061414671255676 -0.065798844557894143 -0.0023040527505144015 0 -0.0023040527505144015 0.0091172271333857524 0 0 0 -0.014170404356127091 -0.050923287367068477 0.0013486780751387753 0 0.0013486780751387753 -0.018861286433890317 0 0 0 -0.0174461434502397 -0.019872629357600535 -0.0019811302417431786 0 -0.0019811302417431786 0.029652155214637321 0 0 0 0.0024448814642591826 -0.039537102340065799 -0.012441878703884648 0 -0.012441878703884648 0.012768345463042174 0 0 0 -0.0066921892192559063 -0.046514861194219687 -0.019902904292196655 0 -0.019902904292196655 -0.0099661425143975357 0 0 0 -0.014120250927154382 -0.054737564868881802 0.0041192788531637988 0 0.0041192788531637988 -0.0028165860457477153 0 0 0 -0.014388537728657384 -0.093831718498691208 -0.023441830730252466 0 -0.023441830730252466 0.00058210972462036104 0 0 0 -0.023312402193517656 -0.075741157356987499 -0.028143471014487498 0 -0.028143471014487498 0.0066468369915675396 0 0 0 -0.017273580091354934 -0.050081914137157492 -0.0001134102409286013 0 -0.0001134102409286013 -0.016697970991293758 0 0 0 -0.016694971282112812 -0.10449985881842772 0.0561790237086226 0 0.0561790237086226 0.010567211131012666 0 0 0 -0.023483161921853735 -0.13997711525019607 0.047152338375189173 0 0.047152338375189173 -0.0003402516142876344 0 0 0 -0.035079341716120815 -0.0099659853592365955 0.0050094361708269697 0 0.0050094361708269697 0.045741833688138334 0 0 0 0.0089439620822254762 -0.0098977551332236624 -0.010011426205220164 0 -0.010011426205220164 0.0882836913823557 0 0 0 0.019596484062283037 -0.035428830514736526 -0.01781522485315859 0 -0.01781522485315859 0.014494847331200822 0 0 0 -0.005233495795883919 -0.032598936735812156 -0.0032257117843309535 0 -0.0032257117843309535 -0.0045438767766796673 0 0 0 -0.0092857033781229559 0.00092974544802365555 0.044433315670590848 0 0.044433315670590848 0.12907151223100677 0 0 0 0.032500314419757564 -0.058810796680054678 -0.0058651793614646688 0 -0.0058651793614646688 -0.016492766850880091 0 0 0 -0.018825890882733679 -0.071050201218659154 -0.0085659090300846952 0 -0.0085659090300846952 0.042460226163121395 0 0 0 -0.0071474937638844813 0.022572476341900072 0.033629347127767328 0 0.033629347127767328 0.04066530939554136 0 0 0 0.01580944643436033 -0.066170683665426958 -0.0026766238520477079 0 -0.0026766238520477079 0.0068631263543722718 0 0 0 -0.014826889327763668 -0.025737885306633901 0.03696148717945924 0 0.03696148717945924 0.023631558572315914 0 0 0 -0.00052658168357933022 -0.024840574607656096 -0.02523259862730165 0 -0.02523259862730165 0.0066239789655322401 0 0 0 -0.004554148910530853 -0.06457419755079899 -0.0011987434340941308 0 -0.0011987434340941308 -0.0067544872282764498 0 0 0 -0.017832171194768869 -0.09192350931123093 -0.020647230737606669 0 -0.020647230737606669 0.066160930409163432 0 0 0 -0.0064406447255169058 -0.024446060491473243 0.02818096156727945 0 0.02818096156727945 0.089068646141537311 0 0 0 0.016155646412516211 -0.022669005694480826 -0.012537347834488344 0 -0.012537347834488344 0.0027465499575449748 0 0 0 -0.0049806139342339906 -0.15722110257053268 0.0016928272500280599 0 0.0016928272500280599 0.0011599138060433556 0 0 0 -0.039015297191122331 -0.26785551781173678 -0.0078465574360641211 0 -0.0078465574360641211 0.0022313642765051656 0 0 0 -0.066406038383807861 -0.049675250688672734 0.028563020317132815 0 0.028563020317132815 0.11914896393111429 0 0 0 0.017368428310610473 -0.096391228613953911 0.0038916611340585258 0 0.0038916611340585258 -0.00069482462395237254 0 0 0 -0.024271513309476557 0.021814111625127881 -0.0055130010549740982 0 -0.0055130010549740982 0.088621819679139846 0 0 0 0.027608982826067014 0.025702459138618294 -0.00021734091158109869 0 -0.00021734091158109869 0.10593792826059967 0 0 0 0.032910096849804671 0.033807069040517945 -0.0017436662720884399 0 -0.0017436662720884399 0.19518014943718431 0 0 0 0.057246804619425606 0.031405069104592342 0.0044624118995649775 0 0.0044624118995649775 0.17269050752634318 0 0 0 0.051023894157733896 -0.016885604552443215 0.004412597732070922 0 0.004412597732070922 0.01926609493526027 0 0 0 0.00059512259570419779 -0.016536147996880135 -0.010303177677503633 0 -0.010303177677503633 0.053635522208968389 0 0 0 0.0092748435530221052 -0.024919970044531975 0.004708892411222354 0 0.004708892411222354 0.13257315063142883 0 0 0 0.026913295146724275 -0.022136963829341272 -0.012149891720853456 0 -0.012149891720853456 0.064989736435194123 0 0 0 0.010713193151463241 -0.081569657151065567 0.0029767135746112949 0 0.0029767135746112949 0.073688738272435467 0 0 0 -0.0019702297196575388 -0.0050225977996514182 0.022586700559090733 0 0.022586700559090733 0.082521713987665279 0 0 0 0.019374779047003798 -0.013156741569865016 0.0087570913042329668 0 0.0087570913042329668 0.001589177554006227 0 0 0 -0.0028918910039643642 -0.0097982315553604149 -0.0076133045152737555 0 -0.0076133045152737555 -0.00073215243322266588 0 0 0 -0.0026325959971460478 -0.0076013212120051854 -0.020782458732370501 0 -0.020782458732370501 0.040018437381091232 0 0 0 0.0081042790422711786 -0.058244379745532378 0.0029137520689619867 0 0.0029137520689619867 -0.0037148749240343681 0 0 0 -0.015489813667391692 -0.017241516142316532 0.021802267178047341 0 0.021802267178047341 0.09315396449166935 0 0 0 0.018978112087338433 -0.0050422540897688273 -0.0063186585493488767 0 -0.0063186585493488767 -0.00062789973658577969 0 0 0 -0.0014175384565884852 -0.077399973241510364 -0.010535866314769155 0 -0.010535866314769155 0.082035456118785072 0 0 0 0.0011588707193186725 -0.0059773226444983507 0.0072866208097170926 0 0.0072866208097170926 0.00029164060668840364 0 0 0 -0.0014214205094518206 -0.016230194505726825 -0.020692099546208764 0 -0.020692099546208764 0.048285873930145495 0 0 0 0.0080139198561046676 -0.020252098420714293 -0.031122196222083842 0 -0.031122196222083842 0.027224620989468873 0 0 0 0.0017431306421887838 -0.062921948862960597 -0.026646226332125308 0 -0.026646226332125308 0.0098618642087006103 0 0 0 -0.013265021163565038 -0.062774731271064144 -0.026113096873197947 0 -0.026113096873197947 0.0099784766436049055 0 0 0 -0.013199063656864851 -0.059192881645442896 -0.0094632146577705994 0 -0.0094632146577705994 -0.0098150369591116712 0 0 0 -0.017251979651138671 -0.036263743570194629 0.084293624509698351 0 0.084293624509698351 0.026970527746593254 0 0 0 -0.0023233039559002466 -0.086303750000264828 -0.010249882991270054 0 -0.010249882991270054 -0.00058991459872581586 0 0 0 -0.021723416149747626 -0.01025942628590492 -0.018234677951297976 0 -0.018234677951297976 0.049351883507011418 0 0 0 0.009773114305276602 -0.049162294651290531 -0.0075344127409119888 0 -0.0075344127409119888 0.032905358141688018 0 0 0 -0.0040642341274006732 -0.039478104547082941 0.02059316128509274 0 0.02059316128509274 0.023201076230585371 0 0 0 -0.0040692570791243873 -0.037479488832143304 -0.011435322382639709 0 -0.011435322382639709 -0.0066300950600547415 0 0 0 -0.011027395973049581 -0.038308866946405506 -0.011386442878667344 0 -0.011386442878667344 -0.0035496854631333896 0 0 0 -0.010464638102384682 -0.28595027534971412 0.0078507290895296362 0 0.0078507290895296362 0.008294144503080414 0 0 0 -0.069414032711658469 -0.15798383880231448 -0.0039282206776872514 0 -0.0039282206776872514 0.0037396763106002373 0 0 0 -0.038561040622928533 -0.062147184875778014 -0.0049652635940289208 0 -0.0049652635940289208 -0.020717545635660379 0 0 0 -0.020716182627859597 -0.06737743265319085 0.00070653113008045285 0 0.00070653113008045285 -0.02245863436723931 0 0 0 -0.022459016755107537 -0.031362595466971836 0.0068447977060673293 0 0.0068447977060673293 0.011871341113236955 0 0 0 -0.004872813588433729 -0.049693258274205704 0.017089082575984606 0 0.017089082575984606 0.027424826250317252 0 0 0 -0.0055671080059721146 -0.043121870915324267 0.013014975519408292 0 0.013014975519408292 0.0073108201860946284 0 0 0 -0.0089527626823074045 -0.15657644516535441 -0.013510059943969175 0 -0.013510059943969175 -0.013752591306872654 0 0 0 -0.042582259118056826 -0.12119224908336146 -0.0013224141629598618 0 -0.0013224141629598618 -0.0088451861029883727 0 0 0 -0.032509358796587486 0.038686671942250284 0.041282261043427082 0 0.041282261043427082 0.045203278153493009 0 0 0 0.020972487523935879 -0.13466255121840645 -0.01240563636190631 0 -0.01240563636190631 -0.0087596502319949414 0 0 0 -0.035855550362600352 -0.11027247020185495 -0.001665895098898737 0 -0.001665895098898737 -0.006400473373421367 0 0 0 -0.029168235893819103 -0.041718168685100032 -0.0072919882755349275 0 -0.0072919882755349275 0.0065016670241375696 0 0 0 -0.0088041254152405601 0.023781148308788302 0.11704186704781139 0 0.11704186704781139 0.084940528519585667 0 0 0 0.027180419207093687 -0.035719126174649271 0.01052345348739675 0 0.01052345348739675 -0.0014838144076228521 0 0 0 -0.0093007351455680481 -0.036474162481199002 -0.0087842709178021505 0 -0.0087842709178021505 0.031518656394138478 0 0 0 -0.0012388765217651032 -0.092280423372339909 -0.0070529796536935915 0 -0.0070529796536935915 -0.030754757278307728 0 0 0 -0.030758795162661907 -0.085453491090243583 -0.0018629102412934299 0 -0.0018629102412934299 -0.028479304772701865 0 0 0 -0.028483198965736364 -0.14644674288847259 0.0032439832797669598 0 0.0032439832797669598 -0.000594704976950855 0 0 0 -0.036760361966355848 -0.22703980540723373 -0.010801851407888349 0 -0.010801851407888349 -0.0011834779102598558 0 0 0 -0.057055820829373438 -0.090246825905775457 -0.017339706550579703 0 -0.017339706550579703 0.030096155856445539 0 0 0 -0.015037667512332542 -0.00049965418958974883 -0.020161612073266888 0 -0.020161612073266888 0.035341721737368825 0 0 0 0.0087105168869447969 -0.087690183644323572 -0.016038709147880859 0 -0.016038709147880859 0.061803425219067218 0 0 0 -0.0064716896063140815 -0.056983526714947108 0.011942058387757993 0 0.011942058387757993 0.036271157643653087 0 0 0 -0.0051780922678234826 -0.068757966636407208 0.0055532464412482484 0 0.0055532464412482484 0.041610726759192404 0 0 0 -0.0067868099693036994 -0.02263989558033646 0.021539179450254284 0 0.021539179450254284 0.041474868494856695 0 0 0 0.0047087432286300555 -0.010623926320691836 0.017782846080848097 0 0.017782846080848097 0.024243194322635692 0 0 0 0.0034048170004859664 -0.0233658168313845 -0.0095787028868665747 0 -0.0095787028868665747 0.011328703817134356 0 0 0 -0.003009278253562564 -0.075609727035752736 -0.020381318183771202 0 -0.020381318183771202 0.03561425777721712 0 0 0 -0.0099988673146339385 -0.093354271518569676 -0.038039106608495396 0 -0.038039106608495396 0.076539795513639541 0 0 0 -0.0042036190012325336 -0.035449555313326123 -0.063083680183668223 0 -0.063083680183668223 0.12157686203187593 0 0 0 0.02153182667963742 -0.14184110197634292 0.0026191694496567053 0 0.0026191694496567053 -0.0010467240755330787 0 0 0 -0.035721956512969028 -0.20823903141800465 -0.0091616464319059458 0 -0.0091616464319059458 -0.001655857349617762 0 0 0 -0.052473722191905638 -0.0056799350868119523 -0.0045172651353231896 0 -0.0045172651353231896 0.0050406626625171284 0 0 0 -0.00015981810607377541 -0.040456513569075314 -0.026204035714775378 0 -0.026204035714775378 0.095814141723161272 0 0 0 0.013839407038521434 -0.045286216685304949 0.010463430189034841 0 0.010463430189034841 -0.0037769947014262804 0 0 0 -0.012265802846682806 -0.12956420077646483 -0.011723463913291772 0 -0.011723463913291772 -0.018940459109301408 0 0 0 -0.037126164971441555 -0.1068491174482176 -0.0021444093688160991 0 -0.0021444093688160991 -0.01366810747230153 0 0 0 -0.030129306230129778 -0.066388342084668747 -0.0020057701298364407 0 -0.0020057701298364407 -0.0081250047247589975 0 0 0 -0.018628336702356939 -0.087416000188807672 -0.012120283265975111 0 -0.012120283265975111 0.066955422609124363 0 0 0 -0.0051151443949208151 -0.023450834345766475 -0.0095898375033426353 0 -0.0095898375033426353 0.055782818436939996 0 0 0 0.0080829960227933595 -0.068284426744162061 -4.0086775367683194e-05 0 -4.0086775367683194e-05 -0.0052132851192162157 0 0 0 -0.01837442796584458 -0.065453662401735002 0.016163442566702546 0 0.016163442566702546 0.00043730895581894913 0 0 0 -0.016254088361479013 -0.026777759840784454 -0.021650166289665984 0 -0.021650166289665984 0.061483128232793671 0 0 0 0.0086763420980023875 -0.021233797893867645 -0.02017951266297302 0 -0.02017951266297302 0.052187254803711891 0 0 0 0.0077383642274610476 -0.0623238703947636 -0.033027697676611442 0 -0.033027697676611442 0.044666813481044232 0 0 0 -0.0044142642284298456 -0.058610433753627594 -0.018614135733521248 0 -0.018614135733521248 0.040768751169962369 0 0 0 -0.0044604206459163687 -0.067316798780372833 -0.0073283256559441914 0 -0.0073283256559441914 0.028696719369851159 0 0 0 -0.0096550198526304254 -0.084129069755825847 -0.012764127014267714 0 -0.012764127014267714 0.063154245221688998 0 0 0 -0.0052437061335342261 0.0076781635182867625 0.01836901068897534 0 0.01836901068897534 0.17042647390673604 0 0 0 0.044526159356255146 -0.00042118180441541586 0.00082618186395322368 0 0.00082618186395322368 0.001294455901159175 0 0 0 0.00021831852418585651 0.0016855342778676063 -0.016217608273216388 0 -0.016217608273216388 0.091810546430129314 0 0 0 0.023374020176999355 -0.00053892310882153183 -0.0015449047111832925 0 -0.0015449047111832925 0.0017505963361852395 0 0 0 0.00030291830684125998 -0.068432517837497625 -0.0022891197675123619 0 -0.0022891197675123619 0.031021580499198231 0 0 0 -0.0093527343345748415 -0.070200580580898148 -0.0057382984030758845 0 -0.0057382984030758845 0.019696431539317737 0 0 0 -0.012626037260395136 -0.065693633183328992 -0.018076191495639798 0 -0.018076191495639798 0.028947851982045025 0 0 0 -0.009186445300320964 -0.18417816217626176 -0.013934829856543526 0 -0.013934829856543526 0.0030219975015691736 0 0 0 -0.04528904116867323 -0.20947071536382067 -0.02257691738956033 0 -0.02257691738956033 0.0038528549714114679 0 0 0 -0.051404465098102328 -0.06427153226642196 -0.02314985783837524 0 -0.02314985783837524 0.0030329596026352629 0 0 0 -0.015309643165946692 -0.075831186912353854 -0.0073001564568724656 0 -0.0073001564568724656 0.0079989031452178116 0 0 0 -0.016958070941784031 -0.041746428387289689 -0.044205509634185153 0 -0.044205509634185153 0.067810453257340891 0 0 0 0.0065160062175128319 -0.10410435161086357 -0.00098664043800058068 0 -0.00098664043800058068 -0.01174024890863898 0 0 0 -0.028961150129875629 -0.091825963947677433 -0.0013855543769338945 0 -0.0013855543769338945 -0.015167218443746251 0 0 0 -0.02674829559785593 -0.10017556428243068 -0.011518674434199329 0 -0.011518674434199329 -0.02210652923066278 0 0 0 -0.030570523378273366 -0.12329786893645671 -0.013884029091729271 0 -0.013884029091729271 -0.019979811948872446 0 0 0 -0.035819420221332297 -0.071762066485817289 -0.027476222654443827 0 -0.027476222654443827 0.00071960201547360825 0 0 0 -0.017760616117585837 -0.058104898956170548 -0.028000477312349746 0 -0.028000477312349746 0.0025475920191935231 0 0 0 -0.013889326734244367 -0.065573694921078021 -0.0038020035566075534 0 -0.0038020035566075534 -0.026575810593804625 0 0 0 -0.023037376378720671 -0.063187286931228603 -0.0056532387789198996 0 -0.0056532387789198996 -0.024905743573627268 0 0 0 -0.022023257626213971 -0.067427069779238652 0.0016817094046543473 0 0.0016817094046543473 -0.016480837772360472 0 0 0 -0.020976976887899779 -0.071516977813222929 -0.0009517028175709155 0 -0.0009517028175709155 -0.021757657262301455 0 0 0 -0.0233186587688811 -0.032947803293436495 0.040702949062589422 0 0.040702949062589422 0.028112944438869469 0 0 0 -0.001208714713641923 -0.032064244178498624 -0.028857721761581523 0 -0.028857721761581523 0.00076802317037882872 0 0 0 -0.0078240552520298934 -0.085576193654326338 -0.0025306859556012288 0 -0.0025306859556012288 -0.012417608594395585 0 0 0 -0.024498450562180502 -0.079087605576804346 -0.0090886319231296506 0 -0.0090886319231296506 -0.021615299221048809 0 0 0 -0.025175726199463296 -0.063795970066581748 -0.011974453922499954 0 -0.011974453922499954 0.014989917199740105 0 0 0 -0.012201513216710397 -0.096193869987637057 -0.0011058236826851156 0 -0.0011058236826851156 -0.009212558638638832 0 0 0 -0.026351607156568958 -0.10565942720492907 -0.013574912452680978 0 -0.013574912452680978 -0.014382639502117166 0 0 0 -0.030010516676761526 -0.11559430298252785 -0.01973208712170782 0 -0.01973208712170782 0.11769711467207766 0 0 0 0.00052570292238748872 -0.071134342676575257 -0.00842734764960517 0 -0.00842734764960517 0.015765914254832911 0 0 0 -0.013842107105435597 -0.10989683176782118 -0.0054795013536521288 0 -0.0054795013536521288 -0.03664437991671822 0 0 0 -0.03663530292113485 -0.095048687161696732 -0.0042117199973820798 0 -0.0042117199973820798 -0.031690345529181159 0 0 0 -0.031684758172719471 -0.0044928743965544499 0.014894398062571618 0 0.014894398062571618 0.045810514093731936 0 0 0 0.010329409924294389 -0.012750218257531865 -0.0027946633862639403 0 -0.0027946633862639403 -0.011371714722271831 0 0 0 -0.0060304832449509238 -0.084993235086268826 -0.0038642016814137564 0 -0.0038642016814137564 0.011447297739998225 0 0 0 -0.018386484336567588 -0.007424823632773192 -0.034147127221527407 0 -0.034147127221527407 0.028604197560806233 0 0 0 0.0052948434820081491 -0.069495716423678078 -0.00041637897564477007 0 -0.00041637897564477007 0.031122144204368825 0 0 0 -0.0095933930548273271 -0.076537956402232848 -0.01493361039288376 0 -0.01493361039288376 0.034230287368434489 0 0 0 -0.0105769172584496 -0.18223163889936109 -0.00076135464893729854 0 -0.00076135464893729854 -0.014931161799726853 0 0 0 -0.049290700174771988 -0.14036230774378461 -0.0086531874062470357 0 -0.0086531874062470357 -0.01252718513138372 0 0 0 -0.038222373218792099 -0.033438126839423099 -0.025238886519104359 0 -0.025238886519104359 0.043634593933122801 0 0 0 0.0025491167734249254 -0.06335759861798812 0.005483832740362635 0 0.005483832740362635 0.020249763044810444 0 0 0 -0.010776958893294412 -0.069172551186725828 -0.010159507114857844 0 -0.010159507114857844 0.0099470535799026129 0 0 0 -0.014806374401705803 -0.11082159398941371 -0.0029317553715829808 0 -0.0029317553715829808 0.0068869807293321927 0 0 0 -0.025983653315020394 -0.098470390298575294 0.019417932534580684 0 0.019417932534580684 0.0005268564283764654 0 0 0 -0.024485883467549874 -0.070906729319161615 -0.0096931807324808217 0 -0.0096931807324808217 0.031761144810121877 0 0 0 -0.0097863961272598998 -0.067449037505198497 -0.024096259798372544 0 -0.024096259798372544 0.015820026560920242 0 0 0 -0.012907252736069533 -0.070652258056079859 -0.0057655539110529341 0 -0.0057655539110529341 0.012176585400222012 0 0 0 -0.014618918163964482 -0.061181450985849373 0.0044970208558978292 0 0.0044970208558978292 0.025672845447399097 0 0 0 -0.0088771513846125603 -0.068083808637419529 -0.026045038246180763 0 -0.026045038246180763 0.021241059828683628 0 0 0 -0.011710687202183934 0.02927891987126037 0.019511459773912887 0 0.019511459773912887 0.11215113850245678 0 0 0 0.035357514593429298 -0.079177316093974937 -0.00074753880815059404 0 -0.00074753880815059404 0.0050286375832024333 0 0 0 -0.018537169627693112 -0.050663139644358868 0.012885082007933656 0 0.012885082007933656 -0.0032240918065822299 0 0 0 -0.01347180786273583 -0.028310344344374294 -0.01760476373256703 0 -0.01760476373256703 0.067364547164465716 0 0 0 0.0097635507050228831 -0.017845758368629783 -0.017214012296870473 0 -0.017214012296870473 0.048092476751420143 0 0 0 0.0075616795956975347 -0.14661358780649436 -0.021813232343373068 0 -0.021813232343373068 0.037509910416108794 0 0 0 -0.027275919347596385 -0.0081811411481474069 -0.018657161383673383 0 -0.018657161383673383 0.0058013544297386144 0 0 0 -0.00059494667960221376 -0.13825155482518714 0.0045122359740752127 0 0.0045122359740752127 0.0020871955835645717 0 0 0 -0.0340410898104056 -0.22377164589805365 -0.020360896289692676 0 -0.020360896289692676 0.0064829624256774049 0 0 0 -0.054322170868094106 -0.13233457960058537 -0.0017099219281422329 0 -0.0017099219281422329 0.0010166869759434261 0 0 0 -0.032829473156160548 -0.218843041192882 -0.0027247304407056194 0 -0.0027247304407056194 0.0036479428130858915 0 0 0 -0.053798774594948973 -0.12130769359288943 -0.008543166094179773 0 -0.008543166094179773 -0.01741309190759735 0 0 0 -0.034680196375121708 -0.1547218573674147 -0.00028842898969071509 0 -0.00028842898969071509 -0.020489507489794914 0 0 0 -0.043802841214302418 -0.078333627156709482 -0.018848916660694937 0 -0.018848916660694937 0.046932060497914985 0 0 0 -0.0078503916646985999 -0.073370253021273854 -0.028188299724654475 0 -0.028188299724654475 0.059001540974044225 0 0 0 -0.0035921780118074453 -0.019181429169759207 -0.0051042472876265399 0 -0.0051042472876265399 0.073074985152145167 0 0 0 0.013473388995596552 -0.012538506864938542 -0.00053293423475364587 0 -0.00053293423475364587 0.14197810338284778 0 0 0 0.03235989912947726 -0.03077727678004484 0.0047365725182472174 0 0.0047365725182472174 0.056765497169289164 0 0 0 0.0064970550973110774 -0.022289013819116521 0.0015562555428672298 0 0.0015562555428672298 0.12436462345230082 0 0 0 0.025518902408296074 -0.034561429775741642 -0.011036047558999507 0 -0.011036047558999507 0.063949597081886189 0 0 0 0.0073470418265360882 -0.07351462242898886 -0.0058166332689306988 0 -0.0058166332689306988 0.012947512603379155 0 0 0 -0.015141777456402421 -0.055596887555318497 -0.029147566037113697 0 -0.029147566037113697 0.049676293342793332 0 0 0 -0.0014801485531312775 -0.075078512131653896 -0.030395225565264819 0 -0.030395225565264819 0.045642710696012168 0 0 0 -0.0073589503589104321 -0.073295532675403216 -0.0050157477323682208 0 -0.0050157477323682208 0.056608064157827001 0 0 0 -0.0041718671293940503 -0.12945421343543639 0.019307299344985533 0 0.019307299344985533 -0.0025518229275371951 0 0 0 -0.033001509090742953 -0.084127173886317019 -0.012027207343085274 0 -0.012027207343085274 0.058286520828362165 0 0 0 -0.0064601632644887136 -0.016045640372689129 -0.011224134920249276 0 -0.011224134920249276 0.17497093777174977 0 0 0 0.039731324349765174 0.034623721760408732 -0.017469862560587336 0 -0.017469862560587336 0.096626882104858924 0 0 0 0.032812650966316914 -0.0039589223022051812 -0.018195115565884046 0 -0.018195115565884046 0.041400731823374892 0 0 0 0.0093604523802924833 -0.24226650731724286 -0.015470760554318064 0 -0.015470760554318064 0.0051433109041210123 0 0 0 -0.05928079910328049 -0.14411394628313642 0.004542560740220053 0 0.004542560740220053 0.0013123331492917653 0 0 0 -0.035700403283461121 -0.086597611644522288 -0.011459924236555057 0 -0.011459924236555057 0.063137569330772525 0 0 0 -0.0058650105784374684 -0.086722318688558175 0.044736476746767728 0 0.044736476746767728 -0.0059804087275550089 0 0 0 -0.023175681854028074 -0.06091432255470286 0.041307847276255583 0 0.041307847276255583 0.0026222566503957268 0 0 0 -0.014573016476076672 -0.037566002821695643 -0.033684317548445253 0 -0.033684317548445253 0.026906704711695983 0 0 0 -0.0026648245274997207 -0.030079985317963822 -0.031429826143635875 0 -0.031429826143635875 0.029402043879607639 0 0 0 -0.00016948535958901794 -0.033745407373168224 -0.018850319212348587 0 -0.018850319212348587 0.075282039362827957 0 0 0 0.0103841579974151 -0.019604333810817831 0.0092925282434343105 0 0.0092925282434343105 0.00065765266262296507 0 0 0 -0.0047366702870492716 -0.084061814933953649 -0.0010798194912533046 0 -0.0010798194912533046 -0.01332298217820873 0 0 0 -0.024346199278040583 -0.084233441271847107 -0.0071150929403056068 0 -0.0071150929403056068 -0.021880089074094035 0 0 0 -0.02652838258648528 -0.04006410962986804 -0.03741231709283066 0 -0.03741231709283066 0.014301044958400844 0 0 0 -0.0064407661678667974 -0.041236823274636736 -0.037384729667994859 0 -0.037384729667994859 0.013914252402269067 0 0 0 -0.0068306427180921947 -0.042801897968194835 -0.035914748066218971 0 -0.035914748066218971 0.011071161465545154 0 0 0 -0.0079326841256625591 -0.045615174910833667 -0.039648152086561028 0 -0.039648152086561028 0.010224039151034425 0 0 0 -0.0088477839399500047 -0.056999637484163868 0.053920536455875245 0 0.053920536455875245 0.0013974678056335454 0 0 0 -0.013900542419632511 -0.047071385863880703 0.050124320398560851 0 0.050124320398560851 0.0042901470862351243 0 0 0 -0.010695309694411338 -0.088936324988180632 -0.00014227423240938217 0 -0.00014227423240938217 -0.023509825884975657 0 0 0 -0.028111537718289076 -0.1013609456592561 -0.01186353041567728 0 -0.01186353041567728 -0.029682088762997001 0 0 0 -0.032760758605563274 -0.11835858189980147 -0.016166707106851086 0 -0.016166707106851086 0.0099245169944325307 0 0 0 -0.027108516226342305 -0.19587063288455175 0.032757055601748658 0 0.032757055601748658 0.015129955623387259 0 0 0 -0.045185169315291152 -0.11149556455537568 0.0061691881165454598 0 0.0061691881165454598 0.0019361929185480742 0 0 0 -0.02738984290920693 -0.059660628437155021 0.0045949950937562156 0 0.0045949950937562156 0.0091049205273294985 0 0 0 -0.012638926977456378 -0.01188468076990401 -0.01175464570805701 0 -0.01175464570805701 0.015409113551908771 0 0 0 0.00088110819550119013 -0.16596869868482983 -0.022651599309842271 0 -0.022651599309842271 0.0017409649097729907 0 0 0 -0.041056933443764196 -0.20480146104647939 -0.018558618024488445 0 -0.018558618024488445 -0.00301923516297814 0 0 0 -0.051955174052364425 -0.049079177888499886 5.6045376725549637e-05 0 5.6045376725549637e-05 -0.021432769482631935 0 0 0 -0.017627986842782967 -0.051193847386989344 0.0087027294639349106 0 0.0087027294639349106 0.09351666368875855 0 0 0 0.010580704075442288 -0.14142883910780715 -0.0032229346935204184 0 -0.0032229346935204184 0.00070924720339049507 0 0 0 -0.035179897976104185 -0.24499120757723589 0.0047408087710913982 0 0.0047408087710913982 0.00081293384359945597 0 0 0 -0.061044568433408962 -0.092498498914684507 -0.0092737684861026737 0 -0.0092737684861026737 0.017010432155039584 0 0 0 -0.018872016689911203 -0.13410064781859471 -0.019039179759910894 0 -0.019039179759910894 -0.014054693956490172 0 0 0 -0.037038835443771227 -0.10740491058753492 -0.018898729280642824 0 -0.018898729280642824 -0.0093022582362008964 0 0 0 -0.029176792205933971 -0.020117512456599762 0.10064000750713878 0 0.10064000750713878 0.200109863516438 0 0 0 0.044998087764959505 -0.19415029799895245 -0.0085174035670487203 0 -0.0085174035670487203 0.00013217824028297076 0 0 0 -0.048504529939667376 -0.13314031829223311 0.0025811166425023652 0 0.0025811166425023652 0.00049033262573572323 0 0 0 -0.033162496416624332 -0.040893615039989284 -0.015176165771285319 0 -0.015176165771285319 -0.0082622617408310006 0 0 0 -0.012288969195205057 -0.045069782711309847 -0.016307482361395842 0 -0.016307482361395842 -0.0072196082713469334 0 0 0 -0.013072347745664292 -0.066442078869338214 0.0035958201022589049 0 0.0035958201022589049 0.044702196930798618 0 0 0 -0.0054349704846348938 -0.062458178874566568 -0.010184577613069547 0 -0.010184577613069547 0.0077513793732336689 0 0 0 -0.013676699875333251 -0.048140201793013468 0.013702337621238785 0 0.013702337621238785 0.0081623704946131512 0 0 0 -0.0099944578246000757 -0.029243775411419537 0.031980751540395147 0 0.031980751540395147 0.18582569863005993 0 0 0 0.039145480804660182 -0.10962117013456302 0.0045287735368240156 0 0.0045287735368240156 0.0038455309658126657 0 0 0 -0.026443909792187578 -0.06992953548841277 -0.0071906669490713025 0 -0.0071906669490713025 0.0075595047826995387 0 0 0 -0.015592507676428329 0.033981709246492908 0.018524860408575577 0 0.018524860408575577 0.085159923031961071 0 0 0 0.029785408069613384 -0.080666203019625349 -0.012463720909401399 0 -0.012463720909401399 -0.0034046072554201195 0 0 0 -0.021017702568761336 -0.29197955686510874 -0.0001594011582664312 0 -0.0001594011582664312 4.1923326363768609e-05 0 0 0 -0.072984408384686283 -0.16360880800318167 -0.0013550872537791058 0 -0.0013550872537791058 -0.00022558775690362243 0 0 0 -0.04095859894002124 -0.083999891746388916 -0.0068453691267313377 0 -0.0068453691267313377 0.073230051559705647 0 0 0 -0.002692460046670838 -0.13481409850713577 -0.015224264889534898 0 -0.015224264889534898 -0.0080361241845890302 0 0 0 -0.035712555672931197 -0.15599993126623696 -0.022007330957022422 0 -0.022007330957022422 -0.0042320596720183123 0 0 0 -0.040057997734563769 -0.0024978030930176975 0.025807730744560942 0 0.025807730744560942 0.046130913596736711 0 0 0 0.010908277625929746 -0.055270748817208393 -0.012531494000127083 0 -0.012531494000127083 -0.00013827975200353393 0 0 0 -0.013852257142302982 -0.05488834062385424 -0.020224732284655489 0 -0.020224732284655489 0.019550068915373642 0 0 0 -0.0088345679271201877 -0.022799007703961927 0.017497533394044702 0 0.017497533394044702 0.14660507912050669 0 0 0 0.030951517854135524 -0.01736713465377937 -0.0066711856480195847 0 -0.0066711856480195847 0.0013037423895472244 0 0 0 -0.0040158480660577034 -0.085159881580372646 -0.02730772763092959 0 -0.02730772763092959 0.046273808311774134 0 0 0 -0.0097215183171495412 -0.054012959078677758 -0.018084813712193212 0 -0.018084813712193212 0.054400251542839673 0 0 0 9.6823116040450907e-05 -0.07132316945033812 -0.0089147049798923295 0 -0.0089147049798923295 0.01961321823777723 0 0 0 -0.01292748780314025 -0.046088244960119207 0.011664479272348149 0 0.011664479272348149 -0.0014043412928277377 0 0 0 -0.011873146563236459 -0.023310833036091938 -0.021175491989442019 0 -0.021175491989442019 0.074510056938563718 0 0 0 0.012799805975617695 -0.079217510878964531 -0.001382368548777697 0 -0.001382368548777697 -0.003864706517234473 0 0 0 -0.020770554349049737 -0.020381886938455787 0.00075100023664717575 0 0.00075100023664717575 0.066046664117085374 0 0 0 0.011416194294657372 -0.12332635230975533 0.0037089360372797547 0 0.0037089360372797547 0.00071985993555456762 0 0 0 -0.030651623093550212 -0.096190492753564505 -0.02312666239745732 0 -0.02312666239745732 0.035979629665224722 0 0 0 -0.01505271577208489 -0.11044481160848352 0.0027872933037500491 0 0.0027872933037500491 -0.0043505671039839044 0 0 0 -0.028698844678116842 -0.082778814918646693 -0.011720715709105489 0 -0.011720715709105489 0.0016699381331890528 0 0 0 -0.020277219196364382 -0.1330270080953993 0.0027183906747093589 0 0.0027183906747093589 -0.00074731482685835848 0 0 0 -0.033443580730564443 -0.12312888385860467 0.0041881625384600635 0 0.0041881625384600635 -0.00010655002044263062 0 0 0 -0.030808858469761835 -0.094389017178504009 0.057427347131893791 0 0.057427347131893791 -0.00028787148637343662 0 0 0 -0.023669222166219361 -0.084803107678910319 -0.0052996977075988397 0 -0.0052996977075988397 -0.027514554957930662 0 0 0 -0.028079415659210238 -0.091545620882376208 -0.012591418068908202 0 -0.012591418068908202 -0.025810791447040002 0 0 0 -0.029339103082354052 -0.085156938946676752 0.00071874544631480956 0 0.00071874544631480956 -0.018351824706788675 0 0 0 -0.02587719091336636 -0.082794395014318969 -0.0024806994967385542 0 -0.0024806994967385542 -0.022321930779949213 0 0 0 -0.026279081448567044 -0.066573349030037615 -0.015936444886396811 0 -0.015936444886396811 0.02534282910013419 0 0 0 -0.010307629982475849 -0.050125442103263106 -0.042891219624773991 0 -0.042891219624773991 0.062944913939318475 0 0 0 0.0032048679590138637 -0.067468434746521339 -0.030695248736556574 0 -0.030695248736556574 0.025064148265416548 0 0 0 -0.010601071620276263 -0.06572433815337192 -0.018257358609123531 0 -0.018257358609123531 0.048465888622346354 0 0 0 -0.0043146123827563776 -0.065307913375028531 -0.025228057697099376 0 -0.025228057697099376 0.021672702307599045 0 0 0 -0.010908802766857378 -0.038967404497046165 -0.0011908346918692372 0 -0.0011908346918692372 0.075253269569303005 0 0 0 0.00907146626806421 -0.040777963228599445 -0.013295479976428659 0 -0.013295479976428659 0.036991182233939046 0 0 0 -0.00094669524866503041 -0.16485164778840167 0.00085644856014341927 0 0.00085644856014341927 0.000755767426864562 0 0 0 -0.041023970090384276 -0.30103800244950374 -0.0037962514552405645 0 -0.0037962514552405645 0.0047748331721186865 0 0 0 -0.074065792319346124 -0.031232236930530052 -0.014184016034660477 0 -0.014184016034660477 0.046871284590216805 0 0 0 0.0039097619149216917 -0.0300185296458996 -0.00093370323191366289 0 -0.00093370323191366289 0.089057569577520757 0 0 0 0.014759759982905379 -0.10161294871980803 0.0011754791743909254 0 0.0011754791743909254 0.011585352264880833 0 0 0 -0.022506899113731854 -0.054782005773254851 0.0011025066819618087 0 0.0011025066819618087 -0.018835730432714866 0 0 0 -0.018404434051492426 -0.076742720023189423 -0.012083945602456438 0 -0.012083945602456438 -0.0070006643643938035 0 0 0 -0.020935846096895808 -0.060636135581059757 -0.0042808651000446028 0 -0.0042808651000446028 -0.014749108076824823 0 0 0 -0.018846310914471136 -0.042442753659021414 -0.05967535234406543 0 -0.05967535234406543 0.12334392203887334 0 0 0 0.02022529209496297 -0.13151216122493734 -0.0020744527026580264 0 -0.0020744527026580264 -0.0061752527365490778 0 0 0 -0.034421853490371586 -0.1249233988860876 -0.0033190407031168309 0 -0.0033190407031168309 -0.0035811178782629224 0 0 0 -0.032126129191087635 -0.16060597327623499 -0.0071674478936512142 0 -0.0071674478936512142 -0.0036893767240772091 0 0 0 -0.041073837500078036 -0.18047643079754594 -0.0089188541906760725 0 -0.0089188541906760725 -0.0090729623488061406 0 0 0 -0.047387348286588013 -0.13329751688430413 -0.010025897645913259 0 -0.010025897645913259 0.0011508422093231552 0 0 0 -0.033036668668745217 -0.043622040220268277 0.096344867544420953 0 0.096344867544420953 0.12625090367758141 0 0 0 0.020657215864328227 -0.013154064289890743 -0.018661317796285326 0 -0.018661317796285326 0.043697959972231359 0 0 0 0.0076359739205852373 -0.018598261704223174 -0.0093243992980587831 0 -0.0093243992980587831 0.005085012270885066 0 0 0 -0.0033783123583345136 -0.086138253549211952 -0.00023288257009007954 0 -0.00023288257009007954 -0.00461337040810475 0 0 0 -0.022687905989329168 -0.086489687506688506 -0.009140031537066072 0 -0.009140031537066072 0.053173650937827249 0 0 0 -0.0083290091422153351 -0.11235948831464501 0.0028326796058491151 0 0.0028326796058491151 -0.00078212240009783995 0 0 0 -0.028285402678685706 -0.0097827481969402497 0.035879753280671389 0 0.035879753280671389 0.046240355298102997 0 0 0 0.0091144017752905482 -0.058573437913507428 0.0027648846748447573 0 0.0027648846748447573 -0.018851753681116072 0 0 0 -0.019356297898655877 -0.044863422271255393 -0.020799730931853722 0 -0.020799730931853722 -0.0058478007194841114 0 0 0 -0.012677805747684848 0.022574735112698044 -0.077884564906452944 0 -0.077884564906452944 0.10690349510417793 0 0 0 0.03236955755421897 -0.22914881382488062 0.022286777326134266 0 0.022286777326134266 0.0015780395687712279 0 0 0 -0.056892693564027041 -0.04916772006553901 0.0013154863109734556 0 0.0013154863109734556 -0.018474690627382002 0 0 0 -0.016910602673230243 -0.093870141673171953 -0.0036795078797093725 0 -0.0036795078797093725 -0.023841810267395701 0 0 0 -0.029427987985141919 -0.10575419390012583 -0.005877192222271759 0 -0.005877192222271759 -0.028985249198116431 0 0 0 -0.033684860774560572 -0.055176678114353186 0.0088769944468818588 0 0.0088769944468818588 0.01614886328855402 0 0 0 -0.0097569537064498037 -0.1331570817431989 0.0018961260637000432 0 0.0018961260637000432 0.0021492215626089939 0 0 0 -0.032751965045147491 -0.21640457868114299 -0.011351192360177842 0 -0.011351192360177842 0.0083746670028656822 0 0 0 -0.052007477919569382 -0.012455657687004518 0.027912443750225835 0 0.027912443750225835 0.090989031230434669 0 0 0 0.019633343385857316 -0.04873909200146942 -0.016342215250559677 0 -0.016342215250559677 -0.0028900671164855396 0 0 0 -0.012907289779488629 -0.035903730377542714 0.0031997557513968877 0 0.0031997557513968877 0.081694752003861448 0 0 0 0.011447755406579677 -0.048165098586424371 -0.022099323865435172 0 -0.022099323865435172 0.022958261536459634 0 0 0 -0.0063017092624911841 -0.048085677063055637 0.0011718104734521756 0 0.0011718104734521756 0.045109807286717041 0 0 0 -0.00074396744408461446 -0.059491101781753382 0.0023909201266879964 0 0.0023909201266879964 0.0059271914399723069 0 0 0 -0.013390977585445276 -0.050860966819049662 -0.0010925575426169274 0 -0.0010925575426169274 -0.023006951452307772 0 0 0 -0.018466979567839357 -0.077971727499801066 -0.0021161366848490432 0 -0.0021161366848490432 0.0021848315768234865 0 0 0 -0.018946723980744408 -0.063728559316186151 -0.028019422828870322 0 -0.028019422828870322 0.14879173812349489 0 0 0 0.021265794701827198 -0.065238418203435233 -0.028337785660651284 0 -0.028337785660651284 0.14086061815873313 0 0 0 0.018905549988824467 -0.04662886719157211 -0.026160187255179768 0 -0.026160187255179768 0.00089298907162116414 0 0 0 -0.011433969529987764 -0.038841779861858883 -0.023900652793958699 0 -0.023900652793958699 0.00025253714035633479 0 0 0 -0.0096473106803757203 -0.024358765218203127 0.040808127433168639 0 0.040808127433168639 0.053469822510160192 0 0 0 0.0072777643229893219 -0.032316389541283019 0.039166622563470366 0 0.039166622563470366 0.052795155478092326 0 0 0 0.0051196914842019936 -0.026084331247890669 0.049147082494395991 0 0.049147082494395991 0.032844602534860101 0 0 0 0.0016900678217421916 0.0054800096392386699 0.048624189484997693 0 0.048624189484997693 0.041144357917317187 0 0 0 0.011656091889139075 -0.052694618653382014 0.0014011236136091906 0 0.0014011236136091906 -0.017564954536244116 0 0 0 -0.017564893297406532 -0.033389555520984215 0.0030846385682002098 0 0.0030846385682002098 0.1031346222954187 0 0 0 0.017436266693608649 -0.042239265277922232 -0.00025729287762391029 0 -0.00025729287762391029 0.066813911679169863 0 0 0 0.0061436616003119129 -0.093266833842862051 -0.020269225258784496 0 -0.020269225258784496 -0.0014430938418961148 0 0 0 -0.023677481921189569 -0.10744114103777827 -0.0086279088531731052 0 -0.0086279088531731052 -0.0007057354424599982 0 0 0 -0.027036719120059588 -0.17267403098933753 0.018715579765766654 0 0.018715579765766654 -0.0015674181673697163 0 0 0 -0.043560362289176924 -0.040101102685494619 0.025085768027192007 0 0.025085768027192007 0.03872422630031809 0 0 0 -0.00034421909629413217 -0.035088650568174812 0.027600278234959752 0 0.027600278234959752 0.050404520286819854 0 0 0 0.0038289674296612675 -0.054760425685726588 0.003473006753937418 0 0.003473006753937418 -0.010033688411037047 0 0 0 -0.016198528524190917 -0.055203355553000509 0.0020222453077615027 0 0.0020222453077615027 -0.018907733720696412 0 0 0 -0.018527772318424229 -0.19885520984636304 -0.015371151218492148 0 -0.015371151218492148 -0.0063108451889832551 0 0 0 -0.051291513758836581 -0.13383079328294617 0.002730738771985583 0 0.002730738771985583 -0.0015317609434397778 0 0 0 -0.033840638556596477 -0.12397366420339061 0.0036898333144669282 0 0.0036898333144669282 -0.0029695496447296466 0 0 0 -0.031735803462030025 -0.021511695810130238 0.026063340552814562 0 0.026063340552814562 0.10345773631890243 0 0 0 0.020486510127192936 -0.037660863162699343 -0.010730527968518033 0 -0.010730527968518033 0.0028512873175059461 0 0 0 -0.0087023939612983492 -0.054484684671844648 -0.0032621266214235582 0 -0.0032621266214235582 -0.021239532658775057 0 0 0 -0.018931054332654924 -0.044029775547783617 0.0013124241652544277 0 0.0013124241652544277 -0.0095700992204633684 0 0 0 -0.013399968692061764 -0.075743292517627459 -0.033358292635672027 0 -0.033358292635672027 0.0060553061090844462 0 0 0 -0.017421996602135836 -0.092591004921868517 -0.017248156050230321 0 -0.017248156050230321 1.4725681424743176e-05 0 0 0 -0.023144069810110926 -0.054621409583971811 -0.018043807779435594 0 -0.018043807779435594 0.034731563334654811 0 0 0 -0.0049724615623293195 -0.031331451210158595 0.020385966094717239 0 0.020385966094717239 0.023922732961095872 0 0 0 -0.001852179562265667 -0.10345908728357886 0.065877108015616415 0 0.065877108015616415 0.0047485841519422367 0 0 0 -0.024677625782909191 -0.11928555941017221 -0.0044504698005237708 0 -0.0044504698005237708 0.004274195183554208 0 0 0 -0.028752841056654488 -0.1911982095094179 0.006332814409964943 0 0.006332814409964943 0.012007402524095934 0 0 0 -0.044797701746330465 -0.01059335679371487 -0.0039699122419076249 0 -0.0039699122419076249 -0.0060625881802565118 0 0 0 -0.0041639862434930119 -0.014267513186771219 -0.0083713949598173687 0 -0.0083713949598173687 -0.0012903164009199219 0 0 0 -0.003889457396922813 -0.11175965323858489 0.0036416800609780642 0 0.0036416800609780642 -0.00067601758578031412 0 0 0 -0.028108917706091294 -0.10005769566034969 0.0017842156085347421 0 0.0017842156085347421 -0.0019668580663157603 0 0 0 -0.025506138431666346 -0.06842476318598556 -0.0095652394480476161 0 -0.0095652394480476161 0.020284725479452759 0 0 0 -0.012035009426633159 -0.13326073016189413 0.0068000620122225797 0 0.0068000620122225797 0.0024020625385042793 0 0 0 -0.032714666905847456 -0.14634590246860135 -0.020801405943599673 0 -0.020801405943599673 -0.0078033395444749853 0 0 0 -0.038537310503269112 -0.00468086287798734 0.0026864106894145534 0 0.0026864106894145534 -0.00050386727273643963 0 0 0 -0.0012961825376810838 -0.077451686247471008 0.073309248930658266 0 0.073309248930658266 0.010748515439453321 0 0 0 -0.016675792702004477 -0.055652615758031751 0.0015520705252055347 0 0.0015520705252055347 -0.018551333125086319 0 0 0 -0.018550987220779518 0.014553780147432471 0.020129183034788056 0 0.020129183034788056 0.094253160235732159 0 0 0 0.027201735095790935 0.0031772044567131702 0.040150450947584709 0 0.040150450947584709 0.12839209628313658 0 0 0 0.03289232518496242 -0.1783547688606163 0.022763267485780281 0 0.022763267485780281 0.032667792998207101 0 0 0 -0.036421743965602146 -0.023850020586594259 0.041307962006060267 0 0.041307962006060267 0.13217543838094054 0 0 0 0.027081354448586559 -0.011191242271767571 0.034934873540392333 0 0.034934873540392333 0.08926761406530781 0 0 0 0.019519092948385025 -0.090525112347622658 0.0021633982963728399 0 0.0021633982963728399 0.0017029696645278203 0 0 0 -0.022205535670773727 -0.072304577448475266 -0.0022391577551276465 0 -0.0022391577551276465 -0.0042967649370641084 0 0 0 -0.019150335596384849 -0.14850033748972447 0.049441414392364602 0 0.049441414392364602 0.016379378981328685 0 0 0 -0.033030239627098834 -0.085176567428500508 -0.021801129769502214 0 -0.021801129769502214 0.0677568066234574 0 0 0 -0.0043549402012608013 -0.048037849283541594 0.023973821127603656 0 0.023973821127603656 0.13985347248796695 0 0 0 0.02295390580110631 -0.056834309271445282 -0.027351846927572782 0 -0.027351846927572782 0.0029273337992683501 0 0 0 -0.013476743868044205 -0.13410068921895923 -0.0074222893050091554 0 -0.0074222893050091554 0.0047335802607370858 0 0 0 -0.032341777239555551 -0.22672007057909077 0.014448911492221883 0 0.014448911492221883 0.014426617936502018 0 0 0 -0.053073363160647258 -0.051076632969105917 0.025051258697609491 0 0.025051258697609491 -0.0066982166863773784 0 0 0 -0.014443712413871213 -0.030869804463328931 -0.02741286122572606 0 -0.02741286122572606 0.04665323174235092 0 0 0 0.0039458568197556221 -0.053110467918326354 -0.01911252535669003 0 -0.01911252535669003 0.029673647187040908 0 0 0 -0.0058592051828214586 -0.023334120159258405 0.021076807689250493 0 0.021076807689250493 0.026093517994723398 0 0 0 0.00068984945886624294 -0.13542573276835784 -0.019370222752936796 0 -0.019370222752936796 -0.014000318454431636 0 0 0 -0.037356512805697406 -0.12253085129990431 0.0021861181594397816 0 0.0021861181594397816 0.0032544763951571354 0 0 0 -0.029819093726186782 -0.16803937931126911 -0.0074065776890812618 0 -0.0074065776890812618 0.011157457645560257 0 0 0 -0.039220480416427124 -0.052931163832938055 -0.03312486709486788 0 -0.03312486709486788 0.057665461262117579 0 0 0 0.0011835743572948532 -0.1018347595206727 -0.0013695329000500689 0 -0.0013695329000500689 0.0053809804708541964 0 0 0 -0.024113444762454611 -0.068505172535919728 0.00054878431909449223 0 0.00054878431909449223 0.11072714007088724 0 0 0 0.010555491883741887 -0.051610319469814876 -0.0016296145129747605 0 -0.0016296145129747605 -0.017202180347824069 0 0 0 -0.017203124954409735 -0.042125279564341589 -0.014794642241535427 0 -0.014794642241535427 0.025183480401358316 0 0 0 -0.0042354497907458599 -0.14023154547038369 0.0018909884236548158 0 0.0018909884236548158 0.0024145148385063542 0 0 0 -0.034454257657969403 -0.23212186125870518 -0.0090545095995019365 0 -0.0090545095995019365 0.0056646525694626915 0 0 0 -0.056614302172310699 -0.095801258015660223 -0.02348799151735792 0 -0.02348799151735792 0.0081822292382112277 0 0 0 -0.02190475719436228 -0.062932740537401222 -0.029497150083369728 0 -0.029497150083369728 0.040166644056848444 0 0 0 -0.0056915241201382361 -0.051600857543221412 -0.023654004347131274 0 -0.023654004347131274 0.071493961178319632 0 0 0 0.0049732759087744993 -0.084528360235127359 -0.00084578914018104689 0 -0.00084578914018104689 0.0058129428281786799 0 0 0 -0.019678854351737163 -0.058608544224085291 -0.02503007099899407 0 -0.02503007099899407 0.0077784729177927669 0 0 0 -0.0127075178265732 -0.076111576793309585 -0.029176136731138502 0 -0.029176136731138502 0.0017796454896808339 0 0 0 -0.018582982825907188 -0.096494750539998703 -0.0007014471664337496 0 -0.0007014471664337496 0.0050841538850046331 0 0 0 -0.022852649163748559 -0.057413919095801152 -0.028189099506510606 0 -0.028189099506510606 0.0033643467438081998 0 0 0 -0.013512393087998203 -0.05367254233474214 0.0001997370512269152 0 0.0001997370512269152 -0.021560094226338585 0 0 0 -0.018808159140270175 -0.13826481640791791 -0.00052873201681147286 0 -0.00052873201681147286 0.001770267215279786 0 0 0 -0.03412363729815962 -0.23835013116977521 -6.4875060992619638e-05 0 -6.4875060992619638e-05 0.0025860575115603801 0 0 0 -0.058941018414553792 -0.057170163125428275 -0.011227923966565578 0 -0.011227923966565578 -0.003533589489837341 0 0 0 -0.015175938153816182 0.0018393878304174827 0.020370963358361305 0 0.020370963358361305 0.11311205391632195 0 0 0 0.028737860436684581 -0.0098530966681280585 0.027811445533503454 0 0.027811445533503454 0.089843707281758611 0 0 0 0.019997652653407583 -0.039565054297065361 -0.0088315423798675779 0 -0.0088315423798675779 -0.0033187141891994898 0 0 0 -0.010720942121566379 -0.01203609806039907 0.015733852085339239 0 0.015733852085339239 0.13958313424947377 0 0 0 0.031886759047268676 -0.025259887869109571 -0.023066290988277435 0 -0.023066290988277435 0.028153259697773714 0 0 0 0.00072334295716605657 -0.068330621673812458 -0.024248826403151985 0 -0.024248826403151985 0.02281845589658793 0 0 0 -0.01137804144430607 0.015370652908692661 -0.0049389571494837621 0 -0.0049389571494837621 0.10306934140760915 0 0 0 0.029609998579075425 0.016106330235075073 0.0029508796996336462 0 0.0029508796996336462 0.1911627247780836 0 0 0 0.051817263753289711 -0.16322176389281212 -0.010909794542283163 0 -0.010909794542283163 0.030124367594842605 0 0 0 -0.033274349074492338 -0.096836074295759605 0.00047842850366433196 0 0.00047842850366433196 -0.0040231060576700617 0 0 0 -0.025214795088357424 -0.054829816656403095 0.0063048108741243294 0 0.0063048108741243294 -0.0029086574500724453 0 0 0 -0.014434618526618875 -0.10447045625322038 0.055700144359096204 0 0.055700144359096204 -0.0042332027814744322 0 0 0 -0.027175914758673203 -0.021165307134271172 -0.030112341137216114 0 -0.030112341137216114 0.029708186155174454 0 0 0 0.0021357197552258067 -0.049474824428201572 0.00010082531528192197 0 0.00010082531528192197 -0.019731975806787649 0 0 0 -0.017301700058747309 -0.085967972888067873 -0.0035002444946248545 0 -0.0035002444946248545 0.017880161027819308 0 0 0 -0.017021952965062113 0.0040900514229869067 0.016475539440822758 0 0.016475539440822758 0.091760355369731705 0 0 0 0.023962601698179542 -0.072620914232976966 -0.0092611983489183716 0 -0.0092611983489183716 -0.02108679939684642 0 0 0 -0.023426928407455829 -0.039722697167600379 -0.011221017872140748 0 -0.011221017872140748 0.015483044604683582 0 0 0 -0.0060599131407291507 -0.031883673338506544 -0.017460229704529429 0 -0.017460229704529429 0.015941644868788137 0 0 0 -0.0039855071174295532 -0.0036178200612351219 0.0009527928030008681 0 0.0009527928030008681 0.061287982459945045 0 0 0 0.01441754059967737 0.0056376155816067752 -0.0013480475416868809 0 -0.0013480475416868809 0.096832740086966518 0 0 0 0.025617588917143247 0.010968918392219335 -0.0041845708273535176 0 -0.0041845708273535176 0.17757489920938085 0 0 0 0.047135954400400054 -0.0042109194343988611 -0.0052685616340067409 0 -0.0052685616340067409 0.12062994857476414 0 0 0 0.029104757285091289 -0.047058715784630653 0.019773829791205497 0 0.019773829791205497 0.043528769865415512 0 0 0 -0.00088248647980378528 -0.023887859611556803 -0.030447156074840595 0 -0.030447156074840595 0.012128812882200496 0 0 0 -0.0029397616823390732 -0.0084299655590137131 -0.056436245275051838 0 -0.056436245275051838 0.057497234300319028 0 0 0 0.01226681718532629 -0.065100474336361625 -0.021857840301569786 0 -0.021857840301569786 0.005165420651767727 0 0 0 -0.014983763421148544 -0.1105746756927985 0.0017999069050420105 0 0.0017999069050420105 0.002019436108530448 0 0 0 -0.027138809896066984 -0.098306423564902157 0.0039200867813556084 0 0.0039200867813556084 0.0033701599523308645 0 0 0 -0.023734065903142809 -0.16577127263917438 0.0059443623364452414 0 0.0059443623364452414 0.066481587216249416 0 0 0 -0.024822421355731233 -0.019527726787448019 -0.0030174001738866862 0 -0.0030174001738866862 0.03988451131805193 0 0 0 0.0050891961326510748 -0.016312709492665001 -0.0055718031768562104 0 -0.0055718031768562104 0.084748373451274173 0 0 0 0.017108915989652196 -0.053629352309698071 0.0068075661747082133 0 0.0068075661747082133 0.0060973915759463858 0 0 0 -0.011882990183437931 -0.0020321298411880573 0.00022999047958116581 0 0.00022999047958116581 -0.0067188411794683045 0 0 0 -0.0021877427551640904 -0.061098369795549543 0.00074451990511810993 0 0.00074451990511810993 -0.01107743539881627 0 0 0 -0.018043951298591456 -0.06100926211090002 -0.028361681336354957 0 -0.028361681336354957 0.018520699762733128 0 0 0 -0.01062214058704164 -0.049154745749649592 0.00022456071230731231 0 0.00022456071230731231 -0.021883279551567249 0 0 0 -0.017759506325304208 -0.036896399056995044 0.061065629430523738 0 0.061065629430523738 0.014663764403517909 0 0 0 -0.0055581586633692837 -0.036579420418611619 0.046732387133659792 0 0.046732387133659792 0.024511104299341613 0 0 0 -0.0030170790298171823 -0.036235649773819337 -0.030703432692372523 0 -0.030703432692372523 0.0054025865083353053 0 0 0 -0.0077082658163708656 0.019035549747986248 -0.10548744731403982 0 -0.10548744731403982 0.20267539666568105 0 0 0 0.055427736603416829 -0.050033512901109169 0.00051894403212282797 0 0.00051894403212282797 -0.020810416541606001 0 0 0 -0.017710982360678793 -0.059368076593477204 -0.012143626333587121 0 -0.012143626333587121 0.0036730672654039509 0 0 0 -0.013923752332018369 0.0015616944105807384 0.0011031057398214195 0 0.0011031057398214195 0.00053329585282302361 0 0 0 0.00052374756585105153 0.016915562714997723 0.00043237706338761228 0 0.00043237706338761228 0.20560781804950601 0 0 0 0.055630845191125822 0.0188464046232888 -0.0060044217356018947 0 -0.0060044217356018947 0.18543806078877514 0 0 0 0.051071116353015762 0.010917275284751282 0.0012819190510282574 0 0.0012819190510282574 0.10071260228682943 0 0 0 0.027907469392895123 0.0023637397919276104 -0.0017666953356118994 0 -0.0017666953356118994 0.0010061528679141674 0 0 0 0.00084247316496055547 -0.0011243494086822193 0.0012885262904673844 0 0.0012885262904673844 0.0024563985600382218 0 0 0 0.00033301228783944471 0.0095744842739033942 -0.0036937603495618152 0 -0.0036937603495618152 0.11622752092665234 0 0 0 0.031450501300139155 -0.0016084124589319515 -0.0020257933783098814 0 -0.0020257933783098814 0.0038050423056930072 0 0 0 0.00054915746168981983 -0.0520599261345377 -0.0011059409256438154 0 -0.0011059409256438154 -0.021299159891753648 0 0 0 -0.018339771506572837 -0.051326726495184279 -0.02617102169245078 0 -0.02617102169245078 -0.0030732495365034251 0 0 0 -0.013599994007922007 -0.095917695313419066 0.0015722760490219645 0 0.0015722760490219645 0.0094635238332370086 0 0 0 -0.021613542870045521 -0.060809587200111537 -0.031969504500650947 0 -0.031969504500650947 0.0066521318444801025 0 0 0 -0.013539363838907859 -0.062698656893117849 -0.00084724346845182433 0 -0.00084724346845182433 -0.019392592316900211 0 0 0 -0.020522812302504505 -0.033152230205663047 0.036804507616788218 0 0.036804507616788218 0.0049904870474231089 0 0 0 -0.007040435789560151 -0.030895525041331307 -0.030667820761333342 0 -0.030667820761333342 0.013980577650204218 0 0 0 -0.004228736847782133 -0.0085328609606672989 -0.0087686538667428038 0 -0.0087686538667428038 0.078685094977050341 0 0 0 0.017538058504095733 -0.014599418780365692 0.0029355489042249272 0 0.0029355489042249272 0.15164196024169696 0 0 0 0.034260635365332887 -0.072209841224348204 0.008647615769272643 0 0.008647615769272643 0.081430265311184469 0 0 0 0.0023051060217090247 -0.087786439959139539 -0.0043284997114724083 0 -0.0043284997114724083 0.010338761509015304 0 0 0 -0.019361919612531031 -0.040178757538892995 -0.015023080929637415 0 -0.015023080929637415 0.05751401414256696 0 0 0 0.0043338141509184913 -0.039324019175315611 0.0068683342267577274 0 0.0068683342267577274 0.11709378846272422 0 0 0 0.019442442321852133 -0.045741046850108075 -0.040433291327094723 0 -0.040433291327094723 0.012953118793783136 0 0 0 -0.0081969820140812832 -0.050417350336906926 0.0066018229976189911 0 0.0066018229976189911 -0.0015286913152660457 0 0 0 -0.012986510413043249 -0.032848980035009023 -0.034632247290610985 0 -0.034632247290610985 0.025356829183420526 0 0 0 -0.00187303771289693 -0.046832063425768844 0.0369027923147911 0 0.0369027923147911 0.0028065943501403012 0 0 0 -0.011006367268906914 -0.041536809910933697 -0.002020017436673488 0 -0.002020017436673488 0.041495597473294454 0 0 0 -1.0303109409803834e-05 -0.029296064655908088 -0.0060954371681121028 0 -0.0060954371681121028 0.045566675285630853 0 0 0 0.0040676526574306426 -0.077434477398474338 -0.0014343583517465418 0 -0.0014343583517465418 -0.0049255157661421134 0 0 0 -0.020589998291154134 -0.070259747224896862 -0.014424214343844832 0 -0.014424214343844832 0.047225868772716562 0 0 0 -0.0057584696130450475 0.0024916808350889941 -0.034778119746596003 0 -0.034778119746596003 0.028561056199152057 0 0 0 0.0077631842585603184 -0.048778213339763635 -0.027637623480437579 0 -0.027637623480437579 -0.00022445388577606307 0 0 0 -0.012250666806384994 0.033387805657490166 -0.02442162696255501 0 -0.02442162696255501 0.037848966000208595 0 0 0 0.017809192914424787 -0.026785249875362738 -0.004773824151189654 0 -0.004773824151189654 0.08118434517588069 0 0 0 0.013599773825129557 -0.040687051587128015 -0.0055615575852759336 0 -0.0055615575852759336 0.039304469980343093 0 0 0 -0.00034564540169620961 -0.10733627852088878 0.00071886153506609679 0 0.00071886153506609679 -0.0041784122062625551 0 0 0 -0.027878672681787817 -0.079256494547730053 -0.015375715866501886 0 -0.015375715866501886 0.051538304026359089 0 0 0 -0.0069295476303427306 -0.079725953576962161 -0.013879025945990824 0 -0.013879025945990824 0.062584102563246091 0 0 0 -0.0042854627534290313 0.0083315903664553381 0.06410523939268048 0 0.06410523939268048 0.21751342633152104 0 0 0 0.05646125417449413 -0.048022059914635429 -0.025076086066315895 0 -0.025076086066315895 0.24860399601002731 0 0 0 0.050145484023847942 -0.0075480979461530762 0.017731739202360909 0 0.017731739202360909 0.10863953951367034 0 0 0 0.025272860391879481 -0.055788980058209085 0.021650433209477328 0 0.021650433209477328 0.058416004146204237 0 0 0 0.00065675602199881389 -0.061527023361777733 -0.010682383543738263 0 -0.010682383543738263 9.0734377798717958e-05 0 0 0 -0.015359072245995087 -0.077913688224773583 -0.00094097167739417426 0 -0.00094097167739417426 -0.0082502076953973186 0 0 0 -0.021540973980042736 -0.1317456639920789 -0.0083762249267624583 0 -0.0083762249267624583 -0.01921329382085268 0 0 0 -0.03773973945323289 -0.10857523767865652 -0.0038413061024615627 0 -0.0038413061024615627 -0.014042681794082787 0 0 0 -0.030654479868184828 -0.043184680242526224 0.004349569237930867 0 0.004349569237930867 -0.011661294996830489 0 0 0 -0.013711493809839159 -0.15607455736670234 -0.014971766034381013 0 -0.014971766034381013 -0.0043430247094024318 0 0 0 -0.040104395519026198 -0.13376562111707146 -0.017232616285575479 0 -0.017232616285575479 -0.032220150944983234 0 0 0 -0.041496443015513682 -0.19362174551357833 0.011974803150014264 0 0.011974803150014264 -0.0025674208206544966 0 0 0 -0.049047291583558195 -0.16988268548096896 0.013450144599974394 0 0.013450144599974394 -0.037412988769866984 0 0 0 -0.051823918562708987 -0.074239798882194508 -0.027328060589233871 0 -0.027328060589233871 0.027887687352639745 0 0 0 -0.011588027882388663 -0.047996579990296384 0.0021970630416219585 0 0.0021970630416219585 -0.019218682247031965 0 0 0 -0.01680381555933208 0.0096727168239333361 0.034133940571097421 0 0.034133940571097421 0.047655893283973239 0 0 0 0.014332152526976505 -0.053613498957540417 0.0090005339641119619 0 0.0090005339641119619 0.093187756583576364 0 0 0 0.0098935644065090145 -0.04020479544169786 0.032154831133105813 0 0.032154831133105813 0.08894406478002051 0 0 0 0.012184817334580669 -0.049347475822789644 -0.042462208639112813 0 -0.042462208639112813 0.039397174639923316 0 0 0 -0.0024875752957166375 -0.0050939222432115636 -0.0006927886227821034 0 -0.0006927886227821034 0.016134674433542519 0 0 0 0.0027601880475827392 -0.00095746114892625897 -0.0047394337293749089 0 -0.0047394337293749089 0.047676999721887305 0 0 0 0.011679884643240429 -0.0013949525781406873 0.0039063884278087713 0 0.0039063884278087713 0.093062548982533466 0 0 0 0.022916899101098863 -0.0038422248542753128 -4.2710889238239957e-05 0 -4.2710889238239957e-05 0.0093782398185327243 0 0 0 0.0013840037410641863 -0.015852685626576768 0.0042429820383041439 0 0.0042429820383041439 0.017393055444816397 0 0 0 0.00038509245455992103 -0.016542182875139422 -0.011105944451332339 0 -0.011105944451332339 0.037353601339725984 0 0 0 0.0052028546161466682 -0.14848378342926996 -0.025194337185273981 0 -0.025194337185273981 -0.049404286890890152 0 0 0 -0.049472017580040037 -0.18358820898422426 0.022736825071325996 0 0.022736825071325996 -0.061084378500320197 0 0 0 -0.0611681468711361 -0.21011104455345242 0.022726618741051308 0 0.022726618741051308 -0.028842082613627792 0 0 0 -0.05973828179177005 -0.17330439402128542 -0.024155431402648139 0 -0.024155431402648139 -0.023790675737286625 0 0 0 -0.049273767439643013 -0.041671292935054227 -0.039269194821079156 0 -0.039269194821079156 0.016899548123815555 0 0 0 -0.0061929362028096957 -0.077591738978819741 -0.0011801813957679208 0 -0.0011801813957679208 0.0031240884719187234 0 0 0 -0.018616912626725227 -0.055442207728026549 -0.029169853749379637 0 -0.029169853749379637 0.0079878495145445649 0 0 0 -0.011863589553370468 -0.05278031109409817 -0.02891438781209052 0 -0.02891438781209052 -0.0013510993650587277 0 0 0 -0.013532852614789287 -0.070648051657255795 -0.0021520200094926455 0 -0.0021520200094926455 0.0019692464432926327 0 0 0 -0.01716970130349078 -0.057658299073342412 0.0019013834825273085 0 0.0019013834825273085 -0.0086500562750891803 0 0 0 -0.016577088837107894 -0.057476445152065223 0.0023846946081013988 0 0.0023846946081013988 -0.0080696841348644327 0 0 0 -0.01638653232173241 -0.070839160550607683 -0.050851358633675264 0 -0.050851358633675264 0.16448171818173277 0 0 0 0.023410639407781306 0.0034549470799810217 -0.014468278253855799 0 -0.014468278253855799 0.44297725455050241 0 0 0 0.11160805040762087 -0.088847118288347501 -0.020652396395309802 0 -0.020652396395309802 0.018834306203702134 0 0 0 -0.017503203021161415 -0.030004288646313493 -0.0029213351560184522 0 -0.0029213351560184522 0.072074143544430425 0 0 0 0.010517463724529219 -0.04490670665866181 -0.015976318566965908 0 -0.015976318566965908 0.040231525891378239 0 0 0 -0.0011687951918209205 -0.059502506632015353 0.0040851628781190998 0 0.0040851628781190998 0.0076384237568754357 0 0 0 -0.012966020718784971 -0.027319938647589304 0.02783387011045102 0 0.02783387011045102 0.088196375211184286 0 0 0 0.015219109140898635 -0.032311488362404495 -0.014998379179335775 0 -0.014998379179335775 -0.0017837404030185411 0 0 0 -0.0085238071913560365 -0.0043471261317398757 -0.039125360653645636 0 -0.039125360653645636 0.074484020448914889 0 0 0 0.01753422357929374 -0.026231108374136128 -0.0087904834238450025 0 -0.0087904834238450025 0.035480416493904793 0 0 0 0.0023123270299422044 -0.050265665953200589 0.029267067989230622 0 0.029267067989230622 0.0043861158619664664 0 0 0 -0.011469887522808975 -0.032380557168779633 -0.02998603471989969 0 -0.02998603471989969 0.040280017996387141 0 0 0 0.0019748652069017103 -0.027608946049405003 -0.030128644824648033 0 -0.030128644824648033 0.031979196824988065 0 0 0 0.0010925626938956823 -0.030206112462780432 -0.0045356613275183422 0 -0.0045356613275183422 -0.002654007663465352 0 0 0 -0.0082150300315613767 -0.019033536106962512 -0.0060135086568205431 0 -0.0060135086568205431 0.098166318514024076 0 0 0 0.019783195601765391 -0.060048905547912507 -0.0089334251106082431 0 -0.0089334251106082431 -0.0086268498536105354 0 0 0 -0.017168938850380757 -0.024057129797687204 -0.0072292693517035933 0 -0.0072292693517035933 -0.011859488210072044 0 0 0 -0.0089791545019399233 -0.083146832274985746 -0.00029347584349783198 0 -0.00029347584349783198 -0.009293390621215411 0 0 0 -0.023110055724050286 -0.077072671372422838 0.00030281031734845712 0 0.00030281031734845712 -0.011449375011153465 0 0 0 -0.022130511595894096 -0.08044293171547022 -0.0086137479267359707 0 -0.0086137479267359707 0.037167773176396739 0 0 0 -0.010818789634768377 -0.069534828435960705 -0.025684183883330269 0 -0.025684183883330269 0.04526629812722005 0 0 0 -0.0060671325771851636 -0.069328101635553488 -0.0021435632720410852 0 -0.0021435632720410852 -0.0073809553583162324 0 0 0 -0.01917726424846744 -0.065168367073243014 -7.5729301834817631e-05 0 -7.5729301834817631e-05 0.0027922317215785253 0 0 0 -0.015594033837916133 -0.068746298834321914 -0.001870559490317468 0 -0.001870559490317468 0.0025123949284526423 0 0 0 -0.016558475976467292 -0.013994906438837107 0.0056991756229852752 0 0.0056991756229852752 -1.1631703477954503e-05 0 0 0 -0.0035016345355788903 -0.0058702822185573988 0.0077612337419636912 0 0.0077612337419636912 0.024640272938378338 0 0 0 0.0046924976799552209 -0.0059426714461954175 -0.0119679292944328 0 -0.0119679292944328 0.057608427424712477 0 0 0 0.01291643899462936 -0.016135514730526296 -0.0099010106206098847 0 -0.0099010106206098847 0.024918268048066405 0 0 0 0.0021956883293850205 -0.026576009780204815 -0.050422394440558932 0 -0.050422394440558932 0.16503414869843261 0 0 0 0.034614534729556945 -0.0088191731323048472 0.017817521308733486 0 0.017817521308733486 0.084044538994980655 0 0 0 0.018806341465669174 -0.0014722095667836221 -0.0033327930053708155 0 -0.0033327930053708155 -0.00064583945662377573 0 0 0 -0.00052951225585196049 -0.0064683360177140714 -0.015259481276818754 0 -0.015259481276818754 0.043430797530324305 0 0 0 0.0092406153781524059 -0.0016507415442619244 0.0036871235740267849 0 0.0036871235740267849 0.0021585105458701292 0 0 0 0.00012694225040132956 -0.054454211167765276 0.039665619776358185 0 0.039665619776358185 -0.0018836778861821557 0 0 0 -0.014084472263486969 -0.037041219593988872 -0.033711151474963591 0 -0.033711151474963591 0.024587928349945276 0 0 0 -0.0031133228110109545 -0.032199902128454472 -0.036291783196560234 0 -0.036291783196560234 0.020777033016105673 0 0 0 -0.0028557172780869777 -0.073675012128027184 -0.012402536154582589 0 -0.012402536154582589 0.051934506693574058 0 0 0 -0.0054351263586132608 -0.0028992508681602303 0.010572363681220331 0 0.010572363681220331 0.066644839973506009 0 0 0 0.015936397276336223 -0.0017615689740901885 8.1570675564135442e-07 0 8.1570675564135442e-07 0.0068912937725826851 0 0 0 0.0012824311996229021 -0.0030477620035234132 -0.00094943281987447392 0 -0.00094943281987447392 0.012788073883634787 0 0 0 0.0024350779700279546 -0.0032883884824654874 -0.0095384671763765194 0 -0.0095384671763765194 0.030039746282485513 0 0 0 0.0066878394500047289 -0.034362372189373991 -0.0069234223268097028 0 -0.0069234223268097028 -0.011099459129372269 0 0 0 -0.011365457829686565 0.0051288962975787195 -0.037088094137059713 0 -0.037088094137059713 0.015742952354804607 0 0 0 0.0052179621630958212 0.017599002288410409 -0.0038258490637731457 0 -0.0038258490637731457 0.10528972669476722 0 0 0 0.030722182245794399 0.024804329750210186 0.00045947000035490015 0 0.00045947000035490015 0.19355738362565778 0 0 0 0.054590428343966879 -0.052328650316707526 0.0036742508321194077 0 0.0036742508321194077 -0.011723788819225714 0 0 0 -0.016013109783983306 -0.084630629247112843 0.042664240080785565 0 0.042664240080785565 0.0026227633110362802 0 0 0 -0.020501966484019141 -0.096180533733754237 0.041743373170596107 0 0.041743373170596107 -0.0011863575774340163 0 0 0 -0.024341722827796675 -0.037856528447236137 -0.010359975042867453 0 -0.010359975042867453 -0.0068774696513142011 0 0 0 -0.011183499524637543 -0.06823681749974507 -0.0080577455833664505 0 -0.0080577455833664505 0.016553009716659198 0 0 0 -0.012920951945771458 -0.063674384609950729 -0.029104091938043641 0 -0.029104091938043641 0.0052844091292011813 0 0 0 -0.014597493870187325 -0.054361124281070441 -0.034660333764248152 0 -0.034660333764248152 0.022940633397547427 0 0 0 -0.0078551227208807535 -0.061634947341931312 0.042309106730568424 0 0.042309106730568424 -0.0011400975885500486 0 0 0 -0.015693761232620229 -0.03509683359371607 -0.034172116359274141 0 -0.034172116359274141 0.024794360007752481 0 0 0 -0.0025756183964908974 -0.040303270184642748 -0.036696993393670496 0 -0.036696993393670496 0.0186220085112212 0 0 0 -0.0054203154183553037 -0.12707647593329413 -0.0058620723290769205 0 -0.0058620723290769205 -0.013780451738537328 0 0 0 -0.035214231917957847 -0.16524584530549494 -0.0067630170007101503 0 -0.0067630170007101503 -0.01887671442823171 0 0 0 -0.04603063993343167 -0.15331646776855518 -0.01392412865403634 0 -0.01392412865403634 -0.0019755581060810906 0 0 0 -0.038823006468659056 -0.1203588744674207 0.00019804564781095851 0 0.00019804564781095851 -0.0028777797625067908 0 0 0 -0.030809163557481877 -0.075058235528311021 -0.0086943037213425417 0 -0.0086943037213425417 0.025679250299353973 0 0 0 -0.012344746307239213 -0.077328083187079732 0.034086984189530156 0 0.034086984189530156 -0.006129245204799183 0 0 0 -0.02086433209796934 -0.029296497732178128 -0.028822449210801238 0 -0.028822449210801238 0.039504665039538978 0 0 0 0.0025520418268398792 -0.033311861261856812 -0.03046223462159306 0 -0.03046223462159306 0.030639040046024579 0 0 0 -0.00066820530395816924 -0.066334827847127464 -0.038410965421553089 0 -0.038410965421553089 0.010373460660618061 0 0 0 -0.013990341796627448 -0.039258816970267833 -0.0094877843660781669 0 -0.0094877843660781669 -0.0074702155429926531 0 0 0 -0.011682258128315075 -0.051775733719447492 -0.016213188711095294 0 -0.016213188711095294 -0.0020328642812464381 0 0 0 -0.013452149500173469 -0.066402989655255096 -0.014726889577401127 0 -0.014726889577401127 0.018459247580799587 0 0 0 -0.011985935518613877 -0.10842834739774794 0.00084722833097628349 0 0.00084722833097628349 -0.0076397230071851563 0 0 0 -0.029017017601233271 -0.10787552483665575 0.069792356170984782 0 0.069792356170984782 0.020769786335979146 0 0 0 -0.021776434625169094 -0.074971046783465667 -0.033976661503675509 0 -0.033976661503675509 0.012444674151861346 0 0 0 -0.015631593157901191 -0.026614845507726539 0.040833763693107539 0 0.040833763693107539 0.043512411922059013 0 0 0 0.0042243916035834411 -0.04376998737664143 -0.026334017566256307 0 -0.026334017566256307 -0.0018248666987208256 0 0 0 -0.011398713518840621 -0.027871542443989261 0.064477657141700173 0 0.064477657141700173 0.018347822788264079 0 0 0 -0.0023809299139312401 -0.10015460115869819 0.00023802496366555348 0 0.00023802496366555348 0.00076814744617623165 0 0 0 -0.024846613428130503 -0.070273287872709991 -0.0064059729743637314 0 -0.0064059729743637314 0.012208452267727552 0 0 0 -0.014516208901245602 -0.06473934147896665 -0.034562727138694571 0 -0.034562727138694571 0.0027450653995702012 0 0 0 -0.015498569019849251 -0.0012328261342590754 0.0062241541649902254 0 0.0062241541649902254 0.063027995788917185 0 0 0 0.015448792413664418 -0.0012689359651501531 -0.0090795304085903306 0 -0.0090795304085903306 0.12242570694899979 0 0 0 0.030289192745962423 -0.067906766396264834 -0.0038588524716611922 0 -0.0038588524716611922 0.00025538865173475866 0 0 0 -0.016912844436132505 0.0015755356425279921 -0.00020442167189793636 0 -0.00020442167189793636 0.0066932195787874349 0 0 0 0.0020671888053285237 -0.0075914150530005386 0.00064877422265219309 0 0.00064877422265219309 0.0038189418837273337 0 0 0 -0.00094311829231852329 -5.6927232959580465e-05 -0.011222847278146708 0 -0.011222847278146708 0.063394435431312068 0 0 0 0.015834377049588122 -0.0040999688306158077 -0.0074813497029225795 0 -0.0074813497029225795 0.062707641613343412 0 0 0 0.014651918195681901 -0.0066829845663054499 0.0088993910683776711 0 0.0088993910683776711 0.1199522138288156 0 0 0 0.028317307315627538 0.0011743153777086235 -2.1959900095458451e-05 0 -2.1959900095458451e-05 0.0039116618021752814 0 0 0 0.0012714942949707542 0.003958684036060145 0.0097908703921008033 0 0.0097908703921008033 0.12330597065912841 0 0 0 0.031816163673797693 -0.0059591652615891277 -0.0010774413484562206 0 -0.0010774413484562206 0.0017425622018700793 0 0 0 -0.0010541507649295401 -0.038663634020123738 -0.010999853079022182 0 -0.010999853079022182 -0.010164668549761169 0 0 0 -0.012207075642471144 -0.042313844606812867 -0.013568820902424112 0 -0.013568820902424112 0.021848880753765121 0 0 0 -0.0051162409632619088 -0.051725706419342377 -0.016455897759106539 0 -0.016455897759106539 0.017161810020869028 0 0 0 -0.0086409740996183926 -0.025443225956809052 -0.0031506014745789623 0 -0.0031506014745789623 -0.0075363115787414059 0 0 0 -0.0082448843838876136 -0.024757946464081915 -0.00076892787734961221 0 -0.00076892787734961221 -0.00025755579847797083 0 0 0 -0.0062538755656399436 -0.053896665481016924 0.026780681949746782 0 0.026780681949746782 0.12543784701322108 0 0 0 0.01788529538305101 -0.082483516532045401 -0.016426708749978383 0 -0.016426708749978383 0.018629356300333938 0 0 0 -0.015963540057927855 -0.085795049912986657 -0.026940541632960668 0 -0.026940541632960668 0.010574851676153851 0 0 0 -0.01880504955920824 -0.088124530174092164 -0.003116203522138955 0 -0.003116203522138955 0.0045591976498889908 0 0 0 -0.020891333131050807 -0.1319151641808316 0.052581000312082682 0 0.052581000312082682 0.0057385512870422595 0 0 0 -0.031544153223447502 -0.10839095992890324 0.071419263612793937 0 0.071419263612793937 0.047311948727035702 0 0 0 -0.015269752800466829 -0.050241779183282556 0.025668924737594551 0 0.025668924737594551 0.080897519758118486 0 0 0 0.0076639351437089581 -0.028822351968846582 -0.0095767966103701904 0 -0.0095767966103701904 0.045812384210975665 0 0 0 0.0042475080605323678 -0.034522849468591077 -0.0064952802948994165 0 -0.0064952802948994165 0.050325841950244143 0 0 0 0.0039507481204133499 -0.01691679777233776 0.038161669686020493 0 0.038161669686020493 0.087275310200992162 0 0 0 0.017589628107163635 -0.078497432484130825 -0.034601399169918556 0 -0.034601399169918556 0.022032922483851247 0 0 0 -0.014116127500069686 -0.091348186713549467 -0.024956670033220663 0 -0.024956670033220663 0.0022672123688788348 0 0 0 -0.022270243586167665 -0.047864878004671541 0.022757812671071874 0 0.022757812671071874 0.061128089614897241 0 0 0 0.0033158029025564251 -0.033682566451325398 0.029221137224178059 0 0.029221137224178059 0.050762630558073563 0 0 0 0.0042700160266870239 -0.054625940221363856 -0.020002594011772235 0 -0.020002594011772235 0.033357205301345227 0 0 0 -0.0053171837300045599 -0.068342971991060916 -0.010925849559052358 0 -0.010925849559052358 0.013844142809644383 0 0 0 -0.01362470729535413 -0.068155210672741759 -0.0096224453971741758 0 -0.0096224453971741758 0.025053299933907813 0 0 0 -0.01077547768470849 -0.069819703086990481 -0.0072633429453742432 0 -0.0072633429453742432 0.041033908859215665 0 0 0 -0.0071964485569436729 -0.0067995892347569864 0.019370026694820908 0 0.019370026694820908 0.14486715031137276 0 0 0 0.034516890269154388 -0.034117695815550575 -0.0067325189451161727 0 -0.0067325189451161727 0.00023152119794023207 0 0 0 -0.0084715436544026135 -0.10017081758254395 0.0037528406736270226 0 0.0037528406736270226 0.0008471286600921224 0 0 0 -0.024830922230612985 -0.053911520871366456 0.0024150918341982438 0 0.0024150918341982438 -0.018360291323150296 0 0 0 -0.018067953048629192 0.020790610862670422 0.021213787830537623 0 0.021213787830537623 0.088259540313928575 0 0 0 0.027262537794149888 -0.033234488421521768 -0.0074913734657037767 0 -0.0074913734657037767 -0.0084568476622337574 0 0 0 -0.010422834020938909 -0.093876232968514703 -0.027532768224761174 0 -0.027532768224761174 0.0013734053136795765 0 0 0 -0.023125706913708785 -0.12072085262376728 -0.020886182565695487 0 -0.020886182565695487 0.0064424599181089892 0 0 0 -0.028569598176414551 -0.047042945092765076 -0.013698307238739105 0 -0.013698307238739105 0.056929122976431823 0 0 0 0.0024715444709166867 
</DataArray>
<DataArray type="Float64" Name="cross_section_updated" format="ascii">
0.0010106729365783975 0.0010263119157590647 0.0010355770354098864 0.0010438744710287574 0.0010521185274910189 0.0010609464608396847 0.0010704234583478391 0.0010796731568075541 0.0010886084857014199 0.0010968640624467885 0.0020373689246770987 0.0020966038024898418 0.0021364550596622203 0.0021713123652858843 0.0022046065024522491 0.0022368285209429096 0.0022681575089681227 0.0022979985401348356 0.0023267249388790839 0.0023542589601200374 1 1 1 1 1 1 1 1 1 1 1 1 1 1 1 1 1 1 1 1 1 1 1 1 1 1 1 1 1 1 1 1 1 1 1 1 1 1 1 1 1 1 1 1 1 1 1 1 1 1 1 1 1 1 1 1 1 1 1 1 1 1 1 1 1 1 1 1 1 1 1 1 1 1 1 1 1 1 1 1 1 1 1 1 1 1 1 1 1 1 1 1 1 1 1 1 1 1 1 1 1 1 1 1 1 1 1 1 1 1 1 1 1 1 1 1 1 1 1 1 1 1 1 1 1 1 1 1 1 1 1 1 1 1 1 1 1 1 1 1 1 1 1 1 1 1 1 1 1 1 1 1 1 1 1 1 1 1 1 1 1 1 1 1 1 1 1 1 1 1 1 1 1 1 1 1 1 1 1 1 1 1 1 1 1 1 1 1 1 1 1 1 1 1 1 1 1 1 1 1 1 1 1 1 1 1 1 1 1 1 1 1 1 1 1 1 1 1 1 1 1 1 1 1 1 1 1 1 1 1 1 1 1 1 1 1 1 1 1 1 1 1 1 1 1 1 1 1 1 1 1 1 1 1 1 1 1 1 1 1 1 1 1 1 1 1 1 1 1 1 1 1 1 1 1 1 1 1 1 1 1 1 1 1 1 1 1 1 1 1 1 1 1 1 1 1 1 1 1 1 1 1 1 1 1 1 1 1 1 1 1 1 1 1 1 1 1 1 1 1 1 1 1 1 1 1 1 1 1 1 1 1 1 1 1 1 1 1 1 1 1 1 1 1 1 1 1 1 1 1 1 1 1 1 1 1 1 1 1 1 1 1 1 1 1 1 1 1 1 1 1 1 1 1 1 1 1 1 1 1 1 1 1 1 1 1 1 1 1 1 1 1 1 1 1 1 1 1 1 1 1 1 1 1 1 1 1 1 1 1 1 1 1 1 1 1 1 1 1 1 1 1 1 1 1 1 1 1 1 1 1 1 1 1 1 1 1 1 1 1 1 1 1 1 1 1 1 1 1 1 1 1 1 1 1 1 1 1 1 1 1 1 1 1 1 1 1 1 1 1 1 1 1 1 1 1 1 1 1 1 1 1 1 1 1 1 1 1 1 1 1 1 1 1 1 1 1 1 1 1 1 1 1 1 1 1 1 1 1 1 1 1 1 1 1 1 1 1 1 1 1 1 1 1 1 1 1 1 1 1 1 1 1 1 1 1 1 1 1 1 1 1 1 1 1 1 1 1 1 1 1 1 1 1 1 1 1 1 1 1 1 1 1 1 1 1 1 1 1 1 1 1 1 1 1 1 1 1 1 1 1 1 1 1 1 1 1 1 1 1 1 1 1 1 1 1 1 1 1 1 1 1 1 1 1 1 1 1 1 1 1 1 1 1 1 1 1 1 1 1 1 1 1 1 1 1 1 1 1 1 1 1 1 1 1 1 1 1 1 1 1 1 1 1 1 1 1 1 1 1 1 1 1 1 1 1 1 1 1 1 1 1 1 1 1 1 1 1 1 1 1 1 1 1 1 1 1 1 1 1 1 1 1 1 1 1 1 1 1 1 1 1 1 1 1 1 1 1 1 1 1 1 1 1 1 1 1 1 1 1 1 1 1 1 1 1 1 1 1 1 1 1 1 1 1 1 1 1 1 1 1 1 1 1 1 1 1 1 1 1 1 1 1 1 1 1 1 1 1 1 1 1 1 1 1 1 1 1 1 1 1 1 1 1 1 1 1 1 1 1 1 1 1 1 1 1 1 1 1 1 1 1 1 1 1 1 1 1 1 1 1 1 1 1 1 1 1 1 1 1 1 1 1 1 1 1 1 1 1 1 1 1 1 1 1 1 1 1 1 1 1 1 1 1 1 1 1 1 1 1 1 1 1 1 1 1 1 1 1 1 1 1 1 1 1 1 1 1 1 1 1 1 1 1 1 1 1 1 1 1 1 1 1 1 1 1 1 1 1 1 1 1 1 1 1 1 1 1 1 1 1 1 1 1 1 1 1 1 1 1 1 1 1 1 1 1 1 1 1 1 1 1 1 1 1 1 1 1 1 1 1 1 1 1 1 1 1 1 1 1 1 1 1 1 1 1 1 1 1 1 1 1 1 1 1 1 1 1 1 1 1 1 1 1 1 1 1 1 1 1 1 1 1 1 1 1 1 1 1 1 1 1 1 1 1 1 1 1 1 1 1 1 1 1 1 1 1 1 1 1 1 1 1 1 1 1 1 1 1 1 1 1 1 1 1 1 1 1 1 1 1 1 1 1 1 1 1 1 1 1 1 1 1 1 1 1 1 1 1 1 1 1 1 1 1 1 1 1 1 1 1 1 1 1 
</DataArray>
</CellData>
</Piece>
</UnstructuredGrid>
</VTKFile>
