<?xml version="1.0"?>
<VTKFile type="UnstructuredGrid" version="0.1" byte_order="LittleEndian">
<UnstructuredGrid>
<Piece NumberOfPoints="3142" NumberOfCells="1054">
<Points>
<DataArray type="Float64" NumberOfComponents="3" format="ascii">
0.5 0.29999999999999999 0 0.54999999999999993 0.29999999999999999 0 0.54999999999999993 0.29999999999999999 0 0.59999999999999976 0.29999999999999999 0 0.59999999999999976 0.29999999999999999 0 0.6499999999999998 0.29999999999999999 0 0.6499999999999998 0.29999999999999999 0 0.69999999999999984 0.29999999999999999 0 0.69999999999999984 0.29999999999999999 0 0.74999999999999989 0.29999999999999999 0 0.74999999999999989 0.29999999999999999 0 0.79999999999999982 0.29999999999999999 0 0.79999999999999982 0.29999999999999999 0 0.84999999999999987 0.29999999999999999 0 0.84999999999999987 0.29999999999999999 0 0.89999999999999991 0.29999999999999999 0 0.89999999999999991 0.29999999999999999 0 0.94999999999999996 0.29999999999999999 0 0.94999999999999996 0.29999999999999999 0 1 0.29999999999999999 0 0.5 0.69999999999999996 0 0.54999999999999993 0.69999999999999996 0 0.54999999999999993 0.69999999999999996 0 0.59999999999999976 0.69999999999999996 0 0.59999999999999976 0.69999999999999996 0 0.6499999999999998 0.69999999999999996 0 0.6499999999999998 0.69999999999999996 0 0.69999999999999984 0.69999999999999996 0 0.69999999999999984 0.69999999999999996 0 0.74999999999999989 0.69999999999999996 0 0.74999999999999989 0.69999999999999996 0 0.79999999999999982 0.69999999999999996 0 0.79999999999999982 0.69999999999999996 0 0.84999999999999987 0.69999999999999996 0 0.84999999999999987 0.69999999999999996 0 0.89999999999999991 0.69999999999999996 0 0.89999999999999991 0.69999999999999996 0 0.94999999999999996 0.69999999999999996 0 0.94999999999999996 0.69999999999999996 0 1 0.69999999999999996 0 0.40076539126862748 0.34589349467022118 0 0.33277555741076909 0.36432196682010132 0 0.36575549820117997 0.31677992835137742 0 0.38083244760691543 0.38531983672244652 0 0.33277555741076909 0.36432196682010132 0 0.40076539126862748 0.34589349467022118 0 0.56836770495988642 0.3523062350852913 0 0.52289427570932567 0.3932284363388488 0 0.52752007115234678 0.33170632466418198 0 0.52752007115234678 0.33170632466418198 0 0.52289427570932567 0.3932284363388488 0 0.49077833859261139 0.35229981449445641 0 0.10000000000041601 1 0 0.053064897599294662 0.95186845269532028 0 0.10266856499240549 0.95548163909968886 0 0.099999999999814668 0 0 0.10266856499169109 0.044518360900210059 0 0.053064897599215843 0.048131547304697528 0 0.050000000000207989 1 0 0.053064897599294662 0.95186845269532028 0 0.10000000000041601 1 0 0.049999999999899652 0 0 0.099999999999814668 0 0 0.053064897599215843 0.048131547304697528 0 0.24999999999941211 0 0 0.29999999999926641 0 0 0.27499999999933927 0.060310814194988557 0 0.30000000000124832 1 0 0.25000000000104028 1 0 0.27609987656793722 0.94991445621608572 0 0.15720202157091859 0.60665697304410315 0 0.19914261668318661 0.62286739485272158 0 0.16500388252850301 0.66612077714085194 0 0.2236846579037573 0.67380363126050236 0 0.16500388252850301 0.66612077714085194 0 0.19914261668318661 0.62286739485272158 0 0.1247745017231483 0.27198077544791172 0 0.168349569971391 0.28054490850913671 0 0.14223753364722069 0.3341983344262433 0 0 0.75000000000034661 0 0 0.7000000000006934 0 0.049706944316475897 0.72477277076253799 0 0 0.30000000000124832 0 0 0.25000000000104028 0 0.049706944316556423 0.27522722923869108 0 0.59999999999999976 0.29999999999999999 0 0.61959173890754571 0.33832250091341232 0 0.56836770495988642 0.3523062350852913 0 0.5 0.69999999999999996 0 0.43323420005758778 0.6913544522562407 0 0.47913475093885149 0.66010775372412711 0 1 0.14999999999961891 0 0.95391631417672862 0.19584263333809451 0 0.93677536231883773 0.14999999999999089 0 1 0.84999999999982645 0 0.95391631417670719 0.89584263333814784 0 0.93677536231884972 0.85000000000000286 0 1 0.84999999999982645 0 0.93677536231884972 0.85000000000000286 0 0.95386563387742829 0.80414874155775029 0 1 0.14999999999961891 0 0.93677536231883773 0.14999999999999089 0 0.95386563387744361 0.1041487415577465 0 0.90416666666660628 0.9041666666666166 0 0.88088768115933802 0.84674609810493673 0 0.93677536231884972 0.85000000000000286 0 0.90416666666668166 0.20416666666667119 0 0.88088768115941807 0.14674609810479519 0 0.93677536231883773 0.14999999999999089 0 0.1247745017231483 0.27198077544791172 0 0.14223753364722069 0.3341983344262433 0 0.093851963071650835 0.30582068233324772 0 0.5 0.69999999999999996 0 0.45582236402875981 0.73896743678908217 0 0.43323420005758778 0.6913544522562407 0 0.55000000000173355 1 0 0.50000000000205869 1 0 0.52122150208832174 0.94089974453840242 0 0.49999999999869432 0 0 0.5499999999988151 0 0 0.52375890611712683 0.059318771819432882 0 0.54999999999999993 0.29999999999999999 0 0.59999999999999976 0.29999999999999999 0 0.56836770495988642 0.3523062350852913 0 0.50202631463681879 0.87892870825713787 0 0.44003836461056539 0.88093474584252718 0 0.45677673713123867 0.84253684404072415 0 0.33403534827021109 0.84402799729020661 0 0.35864759629805099 0.87963482415279515 0 0.30864387279288652 0.89906554525974958 0 0.53245488764484505 0.55078124999999989 0 0.47793794143994173 0.52940715638744962 0 0.53330375813596242 0.50827942741749099 0 0.82709327591102189 0.14937141670914489 0 0.81283102246527783 0.1881007222486438 0 0.77144070960558853 0.14311854477243749 0 0.82709327591091286 0.84937141670920724 0 0.81159157511211755 0.88795995483179491 0 0.76901770135486491 0.84293557325473656 0 0.77144070960558853 0.14311854477243749 0 0.81283102246527783 0.1881007222486438 0 0.76587607630038135 0.18880039518954719 0 0.76901770135486491 0.84293557325473656 0 0.81159157511211755 0.88795995483179491 0 0.76891166905518427 0.88835469571185499 0 0.33403534827021109 0.84402799729020661 0 0.30864387279288652 0.89906554525974958 0 0.29209212897034281 0.84715728365233667 0 0.57412547362576272 0.58273804879550706 0 0.5166924242153631 0.59825134841919447 0 0.53245488764484505 0.55078124999999989 0 0.50202631463681879 0.87892870825713787 0 0.47401147028110507 0.91529957330468115 0 0.44003836461056539 0.88093474584252718 0 0.5 0.69999999999999996 0 0.54999999999999993 0.69999999999999996 0 0.55363780716230748 0.74348740161571747 0 1 0.34999999999993492 0 0.95871855522754235 0.40006508612975411 0 0.95780851984364423 0.34215720972155339 0 1 0.64999999999986979 0 0.9578014258160763 0.65787212321113708 0 0.95867599106212187 0.60011091146651041 0 0.46666084890304671 0.57634471035397938 0 0.47793794143994173 0.52940715638744962 0 0.53245488764484505 0.55078124999999989 0 0.94999999999999996 0.29999999999999999 0 0.89898474358614167 0.25391965591104898 0 0.94399509803921056 0.24399509803922639 0 0.94999999999979179 1 0 0.89898474358632463 0.95391965591118966 0 0.94399509803919068 0.9439950980391687 0 0 0.65000000000104008 0 0.050069554451969707 0.61308520079857043 0 0.046634677244967337 0.671418230738282 0 0 0.35000000000145642 0 0.046389130980076937 0.32668781832131749 0 0.050583896093752537 0.38543522283434112 0 0.50202631463681879 0.87892870825713787 0 0.50627822638148745 0.8263979829520941 0 0.55899371797446828 0.85003102233514438 0 0.54782696902220018 0.79245182748204157 0 0.55899371797446828 0.85003102233514438 0 0.50627822638148745 0.8263979829520941 0 0.50945740445113552 0.75476055527778108 0 0.5 0.69999999999999996 0 0.55363780716230748 0.74348740161571747 0 0.84999999999965292 1 0 0.85170973911348691 0.93569607295217616 0 0.89898474358632463 0.95391965591118966 0 0.84999999999999987 0.29999999999999999 0 0.8517097391133297 0.2356960729520409 0 0.89898474358614167 0.25391965591104898 0 0.86956835336234861 0.571283299838105 0 0.82862096804812391 0.55037090955459045 0 0.86907294890112186 0.52008116128001669 0 0.49102375406324739 0.49123754822244059 0 0.53330375813596242 0.50827942741749099 0 0.47793794143994173 0.52940715638744962 0 0.57611405284611883 0.50165903596042916 0 0.61547661924074692 0.48539576058873962 0 0.62042975506801734 0.54295974692364424 0 0.71406021706547751 0.63292083137662503 0 0.67529834988829951 0.61613270668143583 0 0.71809016091162536 0.58185040402320831 0 0.65000000000104008 1 0 0.62065498684670595 0.95224934003983619 0 0.68015064798562208 0.95924320340003011 0 0.84999999999960507 0 0 0.899991664607802 0.045289349238254978 0 0.85491058998398861 0.060047533455626502 0 0.84999999999999987 0.69999999999999996 0 0.89999166460796554 0.74528934923809909 0 0.85491058998424563 0.76004753345552634 0 0.89999999999999991 0.29999999999999999 0 0.89898474358614167 0.25391965591104898 0 0.94999999999999996 0.29999999999999999 0 0.94999999999979179 1 0 0.89999999999958358 1 0 0.89898474358632463 0.95391965591118966 0 0.86411095495256451 0.42388805655111889 0 0.81308179852519835 0.39754945808726527 0 0.86844634540301924 0.38530937474099819 0 0.5 0.29999999999999999 0 0.49695729691142171 0.25014895411178018 0 0.54248833945060504 0.2520322959927106 0 0.86411095495256451 0.42388805655111889 0 0.81973119833356312 0.43505687159469048 0 0.81308179852519835 0.39754945808726527 0 0.67323294229744413 0.57556450033612505 0 0.71809016091162536 0.58185040402320831 0 0.67529834988829951 0.61613270668143583 0 0.6236733212988993 0.14864538214901801 0 0.68391457121233579 0.14440470121196541 0 0.64011864159029941 0.18789607982138171 0 0 0.050000000000207989 0 0.053064897599215843 0.048131547304697528 0 0.044310582753132287 0.101412518374475 0 0 0.94999999999979179 0 0.0443105827531413 0.89858748162559932 0 0.053064897599294662 0.95186845269532028 0 1 0.34999999999993492 0 1 0.39999999999978308 0 0.95871855522754235 0.40006508612975411 0 1 0.59999999999973963 0 1 0.64999999999986979 0 0.95867599106212187 0.60011091146651041 0 0 0.84999999999965292 0 0.065374659239661639 0.8551091961254178 0 0.0443105827531413 0.89858748162559932 0 0 0.15000000000062411 0 0.044310582753132287 0.101412518374475 0 0.065374659239632718 0.1448908038746782 0 0.16500388252850301 0.66612077714085194 0 0.1020579365089687 0.69352219419301997 0 0.1241190223511371 0.64391885572885044 0 0.14999999999970359 0 0 0.14618258501891079 0.062070108745602003 0 0.10266856499169109 0.044518360900210059 0 0.15000000000062411 1 0 0.10266856499240549 0.95548163909968886 0 0.14617343800780541 0.93808063414349496 0 0.7152569930854884 0.5237994455134295 0 0.67569444444444449 0.53500863336860327 0 0.69385896817107129 0.48377516041410151 0 0.6541250972820879 0.49999999999999989 0 0.62042975506801734 0.54295974692364424 0 0.61547661924074692 0.48539576058873962 0 0.94999999999999996 0.69999999999999996 0 0.94399509803918602 0.75600490196082126 0 0.89999166460796554 0.74528934923809909 0 0.94999999999986839 0 0 0.94399509803922566 0.056004901960802607 0 0.899991664607802 0.045289349238254978 0 0.6541250972820879 0.49999999999999989 0 0.69385896817107129 0.48377516041410151 0 0.67569444444444449 0.53500863336860327 0 0.82862096804812391 0.55037090955459045 0 0.81723410853263523 0.59419663659258926 0 0.77151014687832564 0.54436834383023036 0 0.7250000000005199 0.89375000000045834 0 0.66412543161245952 0.88015090885499059 0 0.68697391633157634 0.84450604838764298 0 0 0.94999999999979179 0 0 0.89999999999958358 0 0.0443105827531413 0.89858748162559932 0 0 0.10000000000041601 0 0 0.050000000000207989 0 0.044310582753132287 0.101412518374475 0 0.16500388252850301 0.66612077714085194 0 0.15332765547575641 0.71200081858233666 0 0.1020579365089687 0.69352219419301997 0 0.90299850604011456 0.79563452813489832 0 0.93677536231884972 0.85000000000000286 0 0.88088768115933802 0.84674609810493673 0 0.90299850604006393 0.09563452813493091 0 0.93677536231883773 0.14999999999999089 0 0.88088768115941807 0.14674609810479519 0 0.68391457121233579 0.14440470121196541 0 0.6865991819015953 0.189116534044597 0 0.64011864159029941 0.18789607982138171 0 0.085622222639554768 0.53333248912060549 0 0.1216098864341134 0.50637075089503902 0 0.1154888278694548 0.56733818459978413 0 0.21858834311891909 0.81980263716112767 0 0.22556077506376701 0.77837424984191617 0 0.26104540868854792 0.81401944968719064 0 0.81723410853263523 0.59419663659258926 0 0.77293540622714185 0.59448302402785813 0 0.77151014687832564 0.54436834383023036 0 0.1154888278694548 0.56733818459978413 0 0.1216098864341134 0.50637075089503902 0 0.14934928745814749 0.55042914607228977 0 0.1216098864341134 0.50637075089503902 0 0.068743045408989428 0.48853989837882689 0 0.113541300460994 0.46208784312094731 0 0.078358742472063481 0.43365249433908948 0 0.113541300460994 0.46208784312094731 0 0.068743045408989428 0.48853989837882689 0 0.83573492347052902 0.36590755630746369 0 0.81308179852519835 0.39754945808726527 0 0.78145581580700685 0.34881365920033602 0 0.57611405284611883 0.50165903596042916 0 0.62042975506801734 0.54295974692364424 0 0.57435499076887508 0.54267261987897775 0 0.86956835336234861 0.571283299838105 0 0.81723410853263523 0.59419663659258926 0 0.82862096804812391 0.55037090955459045 0 0.46666084890304671 0.57634471035397938 0 0.53245488764484505 0.55078124999999989 0 0.5166924242153631 0.59825134841919447 0 0.89999999999999991 0.69999999999999996 0 0.94999999999999996 0.69999999999999996 0 0.89999166460796554 0.74528934923809909 0 0.89999999999973679 0 0 0.94999999999986839 0 0 0.899991664607802 0.045289349238254978 0 0.84999999999960507 0 0 0.89999999999973679 0 0 0.899991664607802 0.045289349238254978 0 0.84999999999999987 0.69999999999999996 0 0.89999999999999991 0.69999999999999996 0 0.89999166460796554 0.74528934923809909 0 0.43545892161006339 0.61093128915313821 0 0.4089290844030305 0.58728915500154233 0 0.46666084890304671 0.57634471035397938 0 0.1650278706801647 0.38791388161335733 0 0.1117088112799664 0.38831403004970022 0 0.14223753364722069 0.3341983344262433 0 0.087545339447545459 0.35122518864182262 0 0.14223753364722069 0.3341983344262433 0 0.1117088112799664 0.38831403004970022 0 0.6916490518212759 0.75387992374886192 0 0.72501250972655151 0.74067302935308721 0 0.72500000000000064 0.7952620967744265 0 0.72501250972655151 0.74067302935308721 0 0.75841349681148107 0.75422312624214749 0 0.72500000000000064 0.7952620967744265 0 0.57412547362576272 0.58273804879550706 0 0.53245488764484505 0.55078124999999989 0 0.57435499076887508 0.54267261987897775 0 1 0.54999999999963112 0 0.95867599106212187 0.60011091146651041 0 0.93732437411268477 0.55911392101136159 0 1 0.44999999999963131 0 0.93814194660195893 0.44426664081746747 0 0.95871855522754235 0.40006508612975411 0 0.4089290844030305 0.58728915500154233 0 0.42644501560315817 0.54603747078095544 0 0.46666084890304671 0.57634471035397938 0 0.89999999999958358 1 0 0.84999999999965292 1 0 0.89898474358632463 0.95391965591118966 0 0.84999999999999987 0.29999999999999999 0 0.89898474358614167 0.25391965591104898 0 0.89999999999999991 0.29999999999999999 0 0.29999999999926641 0 0 0.32541448401678508 0.046215317981507749 0 0.27499999999933927 0.060310814194988557 0 0.30000000000124832 1 0 0.27609987656793722 0.94991445621608572 0 0.32544832635163229 0.95485394099568932 0 0.57412547362576272 0.58273804879550706 0 0.62042975506801734 0.54295974692364424 0 0.63065402604362242 0.59661356661633302 0 0.5 0.29999999999999999 0 0.54248833945060504 0.2520322959927106 0 0.54999999999999993 0.29999999999999999 0 0.67323294229744413 0.57556450033612505 0 0.62042975506801734 0.54295974692364424 0 0.67569444444444449 0.53500863336860327 0 0.6541250972820879 0.49999999999999989 0 0.67569444444444449 0.53500863336860327 0 0.62042975506801734 0.54295974692364424 0 1 0.14999999999961891 0 1 0.19999999999974799 0 0.95391631417672862 0.19584263333809451 0 1 0.84999999999982645 0 1 0.8999999999998336 0 0.95391631417670719 0.89584263333814784 0 1 0.7999999999998193 0 1 0.84999999999982645 0 0.95386563387742829 0.80414874155775029 0 1 0.099999999999753911 0 1 0.14999999999961891 0 0.95386563387744361 0.1041487415577465 0 0.4656888918609538 0.78493261229743638 0 0.50627822638148745 0.8263979829520941 0 0.45677673713123867 0.84253684404072415 0 0.6879972333610942 0.43038561374960838 0 0.72622533758026719 0.40265885511101601 0 0.73483647259922602 0.44789725365921768 0 0.67323294229744413 0.57556450033612505 0 0.67569444444444449 0.53500863336860327 0 0.71809016091162536 0.58185040402320831 0 0.7152569930854884 0.5237994455134295 0 0.71809016091162536 0.58185040402320831 0 0.67569444444444449 0.53500863336860327 0 0.65394964615507722 0.22666784374016369 0 0.59814117807200873 0.23398510860739519 0 0.64011864159029941 0.18789607982138171 0 0.55000000000173355 1 0 0.52122150208832174 0.94089974453840242 0 0.57382506491224949 0.9629411906298494 0 0.39801143831225599 0.16651381068160659 0 0.44288491854585582 0.14116182884956319 0 0.42905200079338551 0.19982395548231649 0 0.47357141910802508 0.1873585799078378 0 0.42905200079338551 0.19982395548231649 0 0.44288491854585582 0.14116182884956319 0 0.90594285160987287 0.4141265964174129 0 0.88594198078881503 0.46167788676578442 0 0.86411095495256451 0.42388805655111889 0 0.65507451745379841 0.92229208810758578 0 0.68015064798562208 0.95924320340003011 0 0.62065498684670595 0.95224934003983619 0 0.35312867752657662 0.084946736076730367 0 0.39591832466117061 0.056982757562006353 0 0.39823268594401579 0.1116623613130045 0 0.43698630808430822 0.080423614171545449 0 0.39823268594401579 0.1116623613130045 0 0.39591832466117061 0.056982757562006353 0 0.4367309254023824 0.92065556789053882 0 0.39641108128798319 0.94356127926187128 0 0.39767323751400468 0.89584229130535065 0 0.35752321586431363 0.9185439911803448 0 0.39767323751400468 0.89584229130535065 0 0.39641108128798319 0.94356127926187128 0 0.77354604466818633 0.40378688774472771 0 0.77972660463949339 0.45529290596363098 0 0.73483647259922602 0.44789725365921768 0 0.5499999999988151 0 0 0.57396793757665954 0.037011367187645222 0 0.52375890611712683 0.059318771819432882 0 0.64753070846764316 0.77332939069435502 0 0.60294066490120068 0.80851322453934582 0 0.59636844454254345 0.75937156204589151 0 0.49102375406324739 0.49123754822244059 0 0.48858720058566618 0.43964267759203868 0 0.53823865529665704 0.45873898050322898 0 0.28307294598219601 0.50789252727458634 0 0.29110487519241501 0.56588143995431495 0 0.25115337790845271 0.54719303014923271 0 0.79680861578988083 0.92656778056766709 0 0.81159157511211755 0.88795995483179491 0 0.85170973911348691 0.93569607295217616 0 0.79680861578956375 0.22656778056752541 0 0.81283102246527783 0.1881007222486438 0 0.8517097391133297 0.2356960729520409 0 0.57412547362576272 0.58273804879550706 0 0.57435499076887508 0.54267261987897775 0 0.62042975506801734 0.54295974692364424 0 0.93814194660195893 0.44426664081746747 0 0.88594198078881503 0.46167788676578442 0 0.90594285160987287 0.4141265964174129 0 0.7152569930854884 0.5237994455134295 0 0.73947346780852752 0.49062440112282169 0 0.77151014687832564 0.54436834383023036 0 0 0.7000000000006934 0 0.046634677244967337 0.671418230738282 0 0.049706944316475897 0.72477277076253799 0 0 0.30000000000124832 0 0.049706944316556423 0.27522722923869108 0 0.046389130980076937 0.32668781832131749 0 0.59814117807200873 0.23398510860739519 0 0.59443395090188023 0.18455690917515069 0 0.64011864159029941 0.18789607982138171 0 0.21858834311891909 0.81980263716112767 0 0.26104540868854792 0.81401944968719064 0 0.2401283238295133 0.85648409884788523 0 0.39536230704883951 0.84069429572832477 0 0.45677673713123867 0.84253684404072415 0 0.44003836461056539 0.88093474584252718 0 0.086179601630648681 0.64647209519980475 0 0.050069554451969707 0.61308520079857043 0 0.1024350934457823 0.60772393977513839 0 0.077693244765132896 0.56932317963405099 0 0.1024350934457823 0.60772393977513839 0 0.050069554451969707 0.61308520079857043 0 0.078358742472063481 0.43365249433908948 0 0.050583896093752537 0.38543522283434112 0 0.1117088112799664 0.38831403004970022 0 0.087545339447545459 0.35122518864182262 0 0.1117088112799664 0.38831403004970022 0 0.050583896093752537 0.38543522283434112 0 0.33403534827021109 0.84402799729020661 0 0.35642984951668422 0.80994399665655703 0 0.39536230704883951 0.84069429572832477 0 0.28307294598219601 0.50789252727458634 0 0.33190227185843768 0.52715113583864037 0 0.29110487519241501 0.56588143995431495 0 0.2236846579037573 0.67380363126050236 0 0.19068556247388771 0.71028988922845504 0 0.16500388252850301 0.66612077714085194 0 0.26104540868854792 0.81401944968719064 0 0.22556077506376701 0.77837424984191617 0 0.2792923945214143 0.77665808831789485 0 0.38244435121258652 0.51653317813019495 0 0.37272913873093971 0.56192925302619479 0 0.33190227185843768 0.52715113583864037 0 0.25195515620380449 0.25883339815888678 0 0.29132859388405002 0.27203693976649962 0 0.24432083401701241 0.3006253385567515 0 0.29348325746214782 0.31350119524708198 0 0.24432083401701241 0.3006253385567515 0 0.29132859388405002 0.27203693976649962 0 0 0.89999999999958358 0 0 0.84999999999965292 0 0.0443105827531413 0.89858748162559932 0 0 0.15000000000062411 0 0 0.10000000000041601 0 0.044310582753132287 0.101412518374475 0 0.59999999999999976 0.69999999999999996 0 0.59636844454254345 0.75937156204589151 0 0.55363780716230748 0.74348740161571747 0 0.1650278706801647 0.38791388161335733 0 0.22033343844674469 0.36963382230740238 0 0.191953871957803 0.42546416763755879 0 0.52289427570932567 0.3932284363388488 0 0.46655310992796922 0.39650496622958609 0 0.49077833859261139 0.35229981449445641 0 0.91696753777131557 0.497780560203536 0 0.88594198078881503 0.46167788676578442 0 0.93814194660195893 0.44426664081746747 0 0.24999999999941211 0 0 0.27499999999933927 0.060310814194988557 0 0.22668068146512929 0.045875643423131329 0 0.25000000000104028 1 0 0.22850979588452081 0.95594428570238643 0 0.27609987656793722 0.94991445621608572 0 0.77846603114747959 0.49850927265137401 0 0.77151014687832564 0.54436834383023036 0 0.73947346780852752 0.49062440112282169 0 0.27499999999933927 0.060310814194988557 0 0.27474541102162192 0.11822029332053539 0 0.24218496799700481 0.089025544070598317 0 0.27270076654418179 0.87751467830216623 0 0.29209212897034281 0.84715728365233667 0 0.30864387279288652 0.89906554525974958 0 0.3096713403101819 0.085471541595262421 0 0.27474541102162192 0.11822029332053539 0 0.27499999999933927 0.060310814194988557 0 0.17933913398461551 0.2350063570234002 0 0.18124454140915969 0.18790916706335251 0 0.224700362040408 0.22206622194729711 0 0.18269480424590959 0.75905448272264375 0 0.22556077506376701 0.77837424984191617 0 0.17777405986036951 0.81832336108265358 0 0.35864759629805099 0.87963482415279515 0 0.33403534827021109 0.84402799729020661 0 0.39536230704883951 0.84069429572832477 0 0.77354604466818633 0.40378688774472771 0 0.73483647259922602 0.44789725365921768 0 0.72622533758026719 0.40265885511101601 0 0.80185942888539485 0.77452061303608133 0 0.85491058998424563 0.76004753345552634 0 0.84725310900444062 0.80779732082917555 0 0.80185942888501827 0.074520613036224564 0 0.85491058998398861 0.060047533455626502 0 0.84725310900442086 0.10779732082922661 0 0.086179601630648681 0.64647209519980475 0 0.046634677244967337 0.671418230738282 0 0.050069554451969707 0.61308520079857043 0 0.087545339447545459 0.35122518864182262 0 0.050583896093752537 0.38543522283434112 0 0.046389130980076937 0.32668781832131749 0 0 0.75000000000034661 0 0.049706944316475897 0.72477277076253799 0 0.04408157711937423 0.7728941757575627 0 0 0.25000000000104028 0 0.044081577119474857 0.2271058242433576 0 0.049706944316556423 0.27522722923869108 0 0.52289427570932567 0.3932284363388488 0 0.56836770495988642 0.3523062350852913 0 0.57744073070774993 0.41535148636609359 0 0.6084546825910605 0.37989672713932537 0 0.57744073070774993 0.41535148636609359 0 0.56836770495988642 0.3523062350852913 0 0.61343887413683884 0.856862479058357 0 0.55899371797446828 0.85003102233514438 0 0.60294066490120068 0.80851322453934582 0 0.54782696902220018 0.79245182748204157 0 0.60294066490120068 0.80851322453934582 0 0.55899371797446828 0.85003102233514438 0 0.40326160981139969 0.73346192995102844 0 0.36622285152418499 0.69092437780804039 0 0.43323420005758778 0.6913544522562407 0 0.52289427570932567 0.3932284363388488 0 0.48858720058566618 0.43964267759203868 0 0.46655310992796922 0.39650496622958609 0 0.15720202157091859 0.60665697304410315 0 0.1154888278694548 0.56733818459978413 0 0.14934928745814749 0.55042914607228977 0 0.6879972333610942 0.43038561374960838 0 0.73483647259922602 0.44789725365921768 0 0.69385896817107129 0.48377516041410151 0 0.7250000000005199 0.89375000000045834 0 0.68987011941058407 0.92105047536677087 0 0.66412543161245952 0.88015090885499059 0 0.83573492347052902 0.36590755630746369 0 0.78145581580700685 0.34881365920033602 0 0.82500000000000062 0.33010209762754811 0 0.82862096804812391 0.55037090955459045 0 0.81441713509985358 0.51161854125224959 0 0.86907294890112186 0.52008116128001669 0 0.19670163708476801 0.31472518408333222 0 0.14223753364722069 0.3341983344262433 0 0.168349569971391 0.28054490850913671 0 0.50202631463681879 0.87892870825713787 0 0.45677673713123867 0.84253684404072415 0 0.50627822638148745 0.8263979829520941 0 0.099999999999814668 0 0 0.14999999999970359 0 0 0.10266856499169109 0.044518360900210059 0 0.15000000000062411 1 0 0.10000000000041601 1 0 0.10266856499240549 0.95548163909968886 0 0.67323294229744413 0.57556450033612505 0 0.63065402604362242 0.59661356661633302 0 0.62042975506801734 0.54295974692364424 0 0.083105206071467416 0.20007701332709979 0 0.13737030665753211 0.20313708640667491 0 0.095326043202144745 0.24554465089224409 0 0.083105206071452636 0.79992298667296435 0 0.090953281884486245 0.7564451946902494 0 0.1382744753146134 0.79650574229207483 0 0.50000000000205869 1 0 0.47135117303824892 0.95556877749289892 0 0.52122150208832174 0.94089974453840242 0 0.49999999999869432 0 0 0.52375890611712683 0.059318771819432882 0 0.47040171442036788 0.044141676406503738 0 0.4656888918609538 0.78493261229743638 0 0.45582236402875981 0.73896743678908217 0 0.50945740445113552 0.75476055527778108 0 0.5 0.69999999999999996 0 0.50945740445113552 0.75476055527778108 0 0.45582236402875981 0.73896743678908217 0 0.55306006949600994 0.20198184231352201 0 0.56202748619534593 0.15054058349222879 0 0.59443395090188023 0.18455690917515069 0 0.6236733212988993 0.14864538214901801 0 0.59443395090188023 0.18455690917515069 0 0.56202748619534593 0.15054058349222879 0 0.57412547362576272 0.58273804879550706 0 0.5498280205245758 0.6290146943450976 0 0.5166924242153631 0.59825134841919447 0 0.91696753777131557 0.497780560203536 0 0.93814194660195893 0.44426664081746747 0 0.96228564064454991 0.48206450662049471 0 0.15720202157091859 0.60665697304410315 0 0.16500388252850301 0.66612077714085194 0 0.1241190223511371 0.64391885572885044 0 0.44288491854585582 0.14116182884956319 0 0.47881186583059909 0.093591717165689425 0 0.48466639505193998 0.1421439844745814 0 1 0.54999999999963112 0 0.93732437411268477 0.55911392101136159 0 0.95631871884947484 0.51827533208233789 0 0.57724883562309992 0.92155686857100794 0 0.57382506491224949 0.9629411906298494 0 0.52122150208832174 0.94089974453840242 0 0.85170973911348691 0.93569607295217616 0 0.81159157511211755 0.88795995483179491 0 0.85600844944837662 0.88483418979512773 0 0.8517097391133297 0.2356960729520409 0 0.81283102246527783 0.1881007222486438 0 0.85600844944842547 0.1848341897950983 0 0.27866744612395528 0.38416094670951489 0 0.29124338931648802 0.43334555462578611 0 0.24049127783545701 0.41270748208749802 0 0.6084546825910605 0.37989672713932537 0 0.56836770495988642 0.3523062350852913 0 0.61959173890754571 0.33832250091341232 0 0.20050006573841939 0.53248514016039872 0 0.25115337790845271 0.54719303014923271 0 0.22549374774072969 0.58452645269293457 0 0.26573297623774761 0.59828298563722948 0 0.22549374774072969 0.58452645269293457 0 0.25115337790845271 0.54719303014923271 0 0.26104540868854792 0.81401944968719064 0 0.29209212897034281 0.84715728365233667 0 0.2401283238295133 0.85648409884788523 0 0.6236733212988993 0.14864538214901801 0 0.65290632656860115 0.11434202593454081 0 0.68391457121233579 0.14440470121196541 0 0.19901705110390991 0.9175543425573498 0 0.19741632902693801 0.86755867406447229 0 0.24536017905392571 0.90704567837671446 0 0.72500000000000064 0.7952620967744265 0 0.76901770135486491 0.84293557325473656 0 0.72863726579783861 0.85390518901155588 0 0.72500000000000064 0.7952620967744265 0 0.72863726579783861 0.85390518901155588 0 0.68697391633157634 0.84450604838764298 0 0.7250000000005199 0.89375000000045834 0 0.68697391633157634 0.84450604838764298 0 0.72863726579783861 0.85390518901155588 0 0.72525833953073282 0.1032114801687094 0 0.77144070960558853 0.14311854477243749 0 0.72634814642510737 0.16106886917518889 0 0.72525833953073282 0.1032114801687094 0 0.72634814642510737 0.16106886917518889 0 0.68391457121233579 0.14440470121196541 0 0.36622285152418499 0.69092437780804039 0 0.3977710372045391 0.65868194622830212 0 0.43323420005758778 0.6913544522562407 0 0 0.65000000000104008 0 0 0.60000000000138687 0 0.050069554451969707 0.61308520079857043 0 0 0.40000000000166441 0 0 0.35000000000145642 0 0.050583896093752537 0.38543522283434112 0 0.22033343844674469 0.36963382230740238 0 0.24049127783545701 0.41270748208749802 0 0.191953871957803 0.42546416763755879 0 0.5 0.29999999999999999 0 0.4604742573284204 0.27846934318264788 0 0.49695729691142171 0.25014895411178018 0 0.19741632902693801 0.86755867406447229 0 0.2401283238295133 0.85648409884788523 0 0.24536017905392571 0.90704567837671446 0 0 0.50000000000205869 0 0.068743045408989428 0.48853989837882689 0 0.044576108720083309 0.53509043209532614 0 0.15000000000062411 1 0 0.14617343800780541 0.93808063414349496 0 0.18474005699953849 0.96231585248064622 0 0.14999999999970359 0 0 0.184418230509967 0.038773194583122873 0 0.14618258501891079 0.062070108745602003 0 0.57667858002728545 0.078486105337742612 0 0.52375890611712683 0.059318771819432882 0 0.57396793757665954 0.037011367187645222 0 0.113541300460994 0.46208784312094731 0 0.078358742472063481 0.43365249433908948 0 0.13773355295499351 0.42497777642586831 0 0.77354604466818633 0.40378688774472771 0 0.78145581580700685 0.34881365920033602 0 0.81308179852519835 0.39754945808726527 0 0.38244435121258652 0.51653317813019495 0 0.33190227185843768 0.52715113583864037 0 0.35024835142131061 0.48654922671676981 0 0.64753070846764316 0.77332939069435502 0 0.65005442820240822 0.82644988530054031 0 0.60294066490120068 0.80851322453934582 0 0.15720202157091859 0.60665697304410315 0 0.1024350934457823 0.60772393977513839 0 0.1154888278694548 0.56733818459978413 0 0.90416666666660628 0.9041666666666166 0 0.85600844944837662 0.88483418979512773 0 0.88088768115933802 0.84674609810493673 0 0.90416666666668166 0.20416666666667119 0 0.85600844944842547 0.1848341897950983 0 0.88088768115941807 0.14674609810479519 0 0.078358742472063481 0.43365249433908948 0 0.1117088112799664 0.38831403004970022 0 0.13773355295499351 0.42497777642586831 0 0.38244435121258652 0.51653317813019495 0 0.3908716102680424 0.47010282357248828 0 0.43507373378304309 0.49699695397193322 0 0.90299850604011456 0.79563452813489832 0 0.95386563387742829 0.80414874155775029 0 0.93677536231884972 0.85000000000000286 0 0.90416666666660628 0.9041666666666166 0 0.93677536231884972 0.85000000000000286 0 0.95391631417670719 0.89584263333814784 0 0.90299850604006393 0.09563452813493091 0 0.95386563387744361 0.1041487415577465 0 0.93677536231883773 0.14999999999999089 0 0.90416666666668166 0.20416666666667119 0 0.93677536231883773 0.14999999999999089 0 0.95391631417672862 0.19584263333809451 0 0.39536230704883951 0.84069429572832477 0 0.44003836461056539 0.88093474584252718 0 0.39767323751400468 0.89584229130535065 0 0.51076801031701946 0.1202837388510348 0 0.52375890611712683 0.059318771819432882 0 0.54979595918804436 0.1060565713905809 0 0.57667858002728545 0.078486105337742612 0 0.54979595918804436 0.1060565713905809 0 0.52375890611712683 0.059318771819432882 0 0.57724883562309992 0.92155686857100794 0 0.52122150208832174 0.94089974453840242 0 0.54783390826260769 0.89287767010860219 0 0.50202631463681879 0.87892870825713787 0 0.54783390826260769 0.89287767010860219 0 0.52122150208832174 0.94089974453840242 0 0.087545339447545459 0.35122518864182262 0 0.093851963071650835 0.30582068233324772 0 0.14223753364722069 0.3341983344262433 0 0.54999999999999993 0.69999999999999996 0 0.59999999999999976 0.69999999999999996 0 0.55363780716230748 0.74348740161571747 0 0.083105206071452636 0.79992298667296435 0 0.1074251789111534 0.83564394292147814 0 0.065374659239661639 0.8551091961254178 0 0.083105206071467416 0.20007701332709979 0 0.065374659239632718 0.1448908038746782 0 0.106902708054812 0.16453234188234539 0 0.52289427570932567 0.3932284363388488 0 0.53823865529665704 0.45873898050322898 0 0.48858720058566618 0.43964267759203868 0 0.13737030665753211 0.20313708640667491 0 0.14377654328998779 0.2442024734791064 0 0.095326043202144745 0.24554465089224409 0 0.1382744753146134 0.79650574229207483 0 0.090953281884486245 0.7564451946902494 0 0.14335651144331049 0.75565258250209677 0 0.27270076654418179 0.87751467830216623 0 0.30864387279288652 0.89906554525974958 0 0.24536017905392571 0.90704567837671446 0 0.27609987656793722 0.94991445621608572 0 0.24536017905392571 0.90704567837671446 0 0.30864387279288652 0.89906554525974958 0 0.90299850604011456 0.79563452813489832 0 0.84725310900444062 0.80779732082917555 0 0.85491058998424563 0.76004753345552634 0 0.90299850604006393 0.09563452813493091 0 0.84725310900442086 0.10779732082922661 0 0.85491058998398861 0.060047533455626502 0 1 0.54999999999963112 0 1 0.59999999999973963 0 0.95867599106212187 0.60011091146651041 0 1 0.39999999999978308 0 1 0.44999999999963131 0 0.95871855522754235 0.40006508612975411 0 0.28040350263641872 0.23054717217092141 0 0.25195515620380449 0.25883339815888678 0 0.224700362040408 0.22206622194729711 0 0.84999999999999987 0.29999999999999999 0 0.87430060258887643 0.34056085888204451 0 0.82500000000000062 0.33010209762754811 0 0.84999999999999987 0.69999999999999996 0 0.82457059160610424 0.66831947184359608 0 0.87712158428786946 0.65709029563313581 0 0.86956835336234861 0.571283299838105 0 0.87159648282691515 0.61285406320581504 0 0.81723410853263523 0.59419663659258926 0 0.43698630808430822 0.080423614171545449 0 0.47881186583059909 0.093591717165689425 0 0.44288491854585582 0.14116182884956319 0 1 0.44999999999963131 0 0.96228564064454991 0.48206450662049471 0 0.93814194660195893 0.44426664081746747 0 0.35752321586431363 0.9185439911803448 0 0.30864387279288652 0.89906554525974958 0 0.35864759629805099 0.87963482415279515 0 0.29124338931648802 0.43334555462578611 0 0.25982634974572738 0.46097799597715272 0 0.24049127783545701 0.41270748208749802 0 0.51076801031701946 0.1202837388510348 0 0.56202748619534593 0.15054058349222879 0 0.51729576145820033 0.1683240575987815 0 0.55306006949600994 0.20198184231352201 0 0.51729576145820033 0.1683240575987815 0 0.56202748619534593 0.15054058349222879 0 0.26429849586623999 0.19346700179430079 0 0.28040350263641872 0.23054717217092141 0 0.224700362040408 0.22206622194729711 0 0.51076801031701946 0.1202837388510348 0 0.48466639505193998 0.1421439844745814 0 0.47881186583059909 0.093591717165689425 0 0.2185883431182947 0.18019736283949719 0 0.26429849586623999 0.19346700179430079 0 0.224700362040408 0.22206622194729711 0 0.18269480424590959 0.75905448272264375 0 0.2248999640082178 0.72584299459689172 0 0.22556077506376701 0.77837424984191617 0 0.51076801031701946 0.1202837388510348 0 0.47881186583059909 0.093591717165689425 0 0.52375890611712683 0.059318771819432882 0 0.50202631463681879 0.87892870825713787 0 0.52122150208832174 0.94089974453840242 0 0.47401147028110507 0.91529957330468115 0 0 0.84999999999965292 0 0.038512288486097702 0.8155852717111195 0 0.065374659239661639 0.8551091961254178 0 0 0.15000000000062411 0 0.065374659239632718 0.1448908038746782 0 0.038512288486115001 0.1844147282893184 0 0.2185883431182947 0.18019736283949719 0 0.224700362040408 0.22206622194729711 0 0.18124454140915969 0.18790916706335251 0 0.21858834311891909 0.81980263716112767 0 0.17777405986036951 0.81832336108265358 0 0.22556077506376701 0.77837424984191617 0 0.1215415378367805 0.72939333680004137 0 0.1020579365089687 0.69352219419301997 0 0.15332765547575641 0.71200081858233666 0 0.49695729691142171 0.25014895411178018 0 0.50760557329222289 0.20700468884612061 0 0.54248833945060504 0.2520322959927106 0 0.15720202157091859 0.60665697304410315 0 0.14934928745814749 0.55042914607228977 0 0.18381867841758909 0.57774125163628387 0 0.90416666666660628 0.9041666666666166 0 0.85170973911348691 0.93569607295217616 0 0.85600844944837662 0.88483418979512773 0 0.90416666666668166 0.20416666666667119 0 0.8517097391133297 0.2356960729520409 0 0.85600844944842547 0.1848341897950983 0 0.17933913398461551 0.2350063570234002 0 0.13737030665753211 0.20313708640667491 0 0.18124454140915969 0.18790916706335251 0 0.18269480424590959 0.75905448272264375 0 0.17777405986036951 0.81832336108265358 0 0.1382744753146134 0.79650574229207483 0 0.1216098864341134 0.50637075089503902 0 0.15801167086041079 0.46008690540259539 0 0.16618607197337229 0.50652878253548905 0 0.50760557329222289 0.20700468884612061 0 0.55306006949600994 0.20198184231352201 0 0.54248833945060504 0.2520322959927106 0 0.75000000000034661 1 0 0.7000000000006934 1 0 0.7250000000005199 0.94981617647078953 0 0.69999999999999984 0.29999999999999999 0 0.72500000000000064 0.2498161764706 0 0.74999999999999989 0.29999999999999999 0 0.72525833953073282 0.1032114801687094 0 0.68391457121233579 0.14440470121196541 0 0.68330259535470161 0.10038702501083881 0 0.43249999999999988 0.43937499999999979 0 0.46655310992796922 0.39650496622958609 0 0.48858720058566618 0.43964267759203868 0 0.19901705110390991 0.9175543425573498 0 0.14617343800780541 0.93808063414349496 0 0.16206583317966519 0.89685560785156404 0 0.19922788606653311 0.085920220746880993 0 0.16141998738593399 0.10404039647458049 0 0.14618258501891079 0.062070108745602003 0 0.31378396441836959 0.70157213313026345 0 0.26439878998046262 0.7048065392091396 0 0.27820712747429932 0.65530134213254643 0 0.1216098864341134 0.50637075089503902 0 0.113541300460994 0.46208784312094731 0 0.15801167086041079 0.46008690540259539 0 0.6084546825910605 0.37989672713932537 0 0.65481233915350323 0.35652751921065562 0 0.63912439215427275 0.41063340167983359 0 0.19901705110390991 0.9175543425573498 0 0.18474005699953849 0.96231585248064622 0 0.14617343800780541 0.93808063414349496 0 0.19922788606653311 0.085920220746880993 0 0.14618258501891079 0.062070108745602003 0 0.184418230509967 0.038773194583122873 0 0.38244435121258652 0.51653317813019495 0 0.35024835142131061 0.48654922671676981 0 0.3908716102680424 0.47010282357248828 0 0.82709327591102189 0.14937141670914489 0 0.77144070960558853 0.14311854477243749 0 0.80076557130237269 0.1154587552654202 0 0.82709327591091286 0.84937141670920724 0 0.76901770135486491 0.84293557325473656 0 0.80041942726660109 0.81543261647703358 0 0.43698630808430822 0.080423614171545449 0 0.44288491854585582 0.14116182884956319 0 0.39823268594401579 0.1116623613130045 0 0.39801143831225599 0.16651381068160659 0 0.39823268594401579 0.1116623613130045 0 0.44288491854585582 0.14116182884956319 0 0.36575549820117997 0.31677992835137742 0 0.3786248352540974 0.27082301512024259 0 0.41914690343363781 0.30688979866601612 0 0.42377727103934271 0.25099357235810238 0 0.41914690343363781 0.30688979866601612 0 0.3786248352540974 0.27082301512024259 0 0.049706944316475897 0.72477277076253799 0 0.1020579365089687 0.69352219419301997 0 0.090953281884486245 0.7564451946902494 0 0.1215415378367805 0.72939333680004137 0 0.090953281884486245 0.7564451946902494 0 0.1020579365089687 0.69352219419301997 0 0.1247745017231483 0.27198077544791172 0 0.093851963071650835 0.30582068233324772 0 0.095326043202144745 0.24554465089224409 0 0.049706944316556423 0.27522722923869108 0 0.095326043202144745 0.24554465089224409 0 0.093851963071650835 0.30582068233324772 0 0.77354604466818633 0.40378688774472771 0 0.81973119833356312 0.43505687159469048 0 0.77972660463949339 0.45529290596363098 0 0.43249999999999988 0.43937499999999979 0 0.43507373378304309 0.49699695397193322 0 0.3908716102680424 0.47010282357248828 0 0.26573297623774761 0.59828298563722948 0 0.2459498854893499 0.63248470766216769 0 0.22549374774072969 0.58452645269293457 0 0.72500000000000064 0.7952620967744265 0 0.77094201086366854 0.79647480515688507 0 0.76901770135486491 0.84293557325473656 0 0.72525833953073282 0.1032114801687094 0 0.76878382444651716 0.097147941686331368 0 0.77144070960558853 0.14311854477243749 0 0.72500000000000064 0.7952620967744265 0 0.68697391633157634 0.84450604838764298 0 0.68024162096458085 0.79868546898116533 0 0.31378396441836959 0.70157213313026345 0 0.29904318922293632 0.74132814928635593 0 0.26439878998046262 0.7048065392091396 0 0.31378396441836959 0.70157213313026345 0 0.35415581127540569 0.73730480045900215 0 0.29904318922293632 0.74132814928635593 0 0.61343887413683884 0.856862479058357 0 0.65005442820240822 0.82644988530054031 0 0.66412543161245952 0.88015090885499059 0 0.68697391633157634 0.84450604838764298 0 0.66412543161245952 0.88015090885499059 0 0.65005442820240822 0.82644988530054031 0 0.083411279318375747 0.91030024466934134 0 0.065374659239661639 0.8551091961254178 0 0.10562472963403439 0.87143394428979881 0 0.083411279318303222 0.089699755330707398 0 0.1053400320299198 0.12877248826361379 0 0.065374659239632718 0.1448908038746782 0 0.55306006949600994 0.20198184231352201 0 0.59443395090188023 0.18455690917515069 0 0.59814117807200873 0.23398510860739519 0 0.84999999999999987 0.29999999999999999 0 0.89999999999999991 0.29999999999999999 0 0.87430060258887643 0.34056085888204451 0 0.84999999999999987 0.69999999999999996 0 0.87712158428786946 0.65709029563313581 0 0.89999999999999991 0.69999999999999996 0 0.34258405725730701 0.4444034294386992 0 0.3908716102680424 0.47010282357248828 0 0.35024835142131061 0.48654922671676981 0 0.26573297623774761 0.59828298563722948 0 0.31502927232353312 0.6134992213375432 0 0.27820712747429932 0.65530134213254643 0 0.91696753777131557 0.497780560203536 0 0.86907294890112186 0.52008116128001669 0 0.88594198078881503 0.46167788676578442 0 0.84723782639812573 0.48638347960178252 0 0.88594198078881503 0.46167788676578442 0 0.86907294890112186 0.52008116128001669 0 0.7152569930854884 0.5237994455134295 0 0.77151014687832564 0.54436834383023036 0 0.71809016091162536 0.58185040402320831 0 0.90416666666660628 0.9041666666666166 0 0.89898474358632463 0.95391965591118966 0 0.85170973911348691 0.93569607295217616 0 0.90416666666668166 0.20416666666667119 0 0.89898474358614167 0.25391965591104898 0 0.8517097391133297 0.2356960729520409 0 0.91750694127107502 0.36982372220068471 0 0.95780851984364423 0.34215720972155339 0 0.95871855522754235 0.40006508612975411 0 0.91750694127105259 0.63017627779935648 0 0.95867599106212187 0.60011091146651041 0 0.9578014258160763 0.65787212321113708 0 0.90299850604011456 0.79563452813489832 0 0.88088768115933802 0.84674609810493673 0 0.84725310900444062 0.80779732082917555 0 0.90299850604006393 0.09563452813493091 0 0.88088768115941807 0.14674609810479519 0 0.84725310900442086 0.10779732082922661 0 0.1216098864341134 0.50637075089503902 0 0.16618607197337229 0.50652878253548905 0 0.14934928745814749 0.55042914607228977 0 0.20050006573841939 0.53248514016039872 0 0.14934928745814749 0.55042914607228977 0 0.16618607197337229 0.50652878253548905 0 0.80185942888539485 0.77452061303608133 0 0.84725310900444062 0.80779732082917555 0 0.80041942726660109 0.81543261647703358 0 0.80185942888501827 0.074520613036224564 0 0.84725310900442086 0.10779732082922661 0 0.80076557130237269 0.1154587552654202 0 0.083105206071452636 0.79992298667296435 0 0.065374659239661639 0.8551091961254178 0 0.038512288486097702 0.8155852717111195 0 0.083105206071467416 0.20007701332709979 0 0.038512288486115001 0.1844147282893184 0 0.065374659239632718 0.1448908038746782 0 0.54782696902220018 0.79245182748204157 0 0.59636844454254345 0.75937156204589151 0 0.60294066490120068 0.80851322453934582 0 0.083411279318375747 0.91030024466934134 0 0.0443105827531413 0.89858748162559932 0 0.065374659239661639 0.8551091961254178 0 0.083411279318303222 0.089699755330707398 0 0.065374659239632718 0.1448908038746782 0 0.044310582753132287 0.101412518374475 0 0.84999999999965292 1 0 0.81486180804382891 0.96321394949790495 0 0.85170973911348691 0.93569607295217616 0 0.84999999999999987 0.29999999999999999 0 0.81486180804364938 0.26321394949780091 0 0.8517097391133297 0.2356960729520409 0 0.4656888918609538 0.78493261229743638 0 0.45677673713123867 0.84253684404072415 0 0.42609163930740518 0.80361684430568059 0 0.39536230704883951 0.84069429572832477 0 0.42609163930740518 0.80361684430568059 0 0.45677673713123867 0.84253684404072415 0 0.6236733212988993 0.14864538214901801 0 0.56202748619534593 0.15054058349222879 0 0.58516465772821369 0.11653801664834119 0 0.57412547362576272 0.58273804879550706 0 0.63065402604362242 0.59661356661633302 0 0.5991018319127801 0.62925360607495295 0 0.61343887413683884 0.856862479058357 0 0.5832743223239254 0.88483152652961872 0 0.55899371797446828 0.85003102233514438 0 0.50202631463681879 0.87892870825713787 0 0.55899371797446828 0.85003102233514438 0 0.54783390826260769 0.89287767010860219 0 0.51076801031701946 0.1202837388510348 0 0.54979595918804436 0.1060565713905809 0 0.56202748619534593 0.15054058349222879 0 0.55306006949600994 0.20198184231352201 0 0.59814117807200873 0.23398510860739519 0 0.54248833945060504 0.2520322959927106 0 0.83573492347052902 0.36590755630746369 0 0.82500000000000062 0.33010209762754811 0 0.87430060258887643 0.34056085888204451 0 0.83758014339878906 0.63222013025741819 0 0.87712158428786946 0.65709029563313581 0 0.82457059160610424 0.66831947184359608 0 0.49102375406324739 0.49123754822244059 0 0.53823865529665704 0.45873898050322898 0 0.53330375813596242 0.50827942741749099 0 0.52289427570932567 0.3932284363388488 0 0.57744073070774993 0.41535148636609359 0 0.53823865529665704 0.45873898050322898 0 0.4089290844030305 0.58728915500154233 0 0.37272913873093971 0.56192925302619479 0 0.42644501560315817 0.54603747078095544 0 0.49695729691142171 0.25014895411178018 0 0.4604742573284204 0.27846934318264788 0 0.46429753744194407 0.22870891180733599 0 0.90299850604011456 0.79563452813489832 0 0.85491058998424563 0.76004753345552634 0 0.89999166460796554 0.74528934923809909 0 0.90299850604006393 0.09563452813493091 0 0.85491058998398861 0.060047533455626502 0 0.899991664607802 0.045289349238254978 0 0.38244435121258652 0.51653317813019495 0 0.42644501560315817 0.54603747078095544 0 0.37272913873093971 0.56192925302619479 0 0.71406021706547751 0.63292083137662503 0 0.71809016091162536 0.58185040402320831 0 0.74994237037456724 0.62775548192980357 0 0.84723782639812573 0.48638347960178252 0 0.86907294890112186 0.52008116128001669 0 0.81441713509985358 0.51161854125224959 0 0.33122374654748771 0.57588941099433744 0 0.33190227185843768 0.52715113583864037 0 0.37272913873093971 0.56192925302619479 0 0.086179601630648681 0.64647209519980475 0 0.1241190223511371 0.64391885572885044 0 0.1020579365089687 0.69352219419301997 0 0.59999999999894682 0 0 0.64999999999907843 0 0 0.61940220174112337 0.047251958781050582 0 0.18269480424590959 0.75905448272264375 0 0.14335651144331049 0.75565258250209677 0 0.15332765547575641 0.71200081858233666 0 0.22549374774072969 0.58452645269293457 0 0.2459498854893499 0.63248470766216769 0 0.19914261668318661 0.62286739485272158 0 0.38244435121258652 0.51653317813019495 0 0.43507373378304309 0.49699695397193322 0 0.42644501560315817 0.54603747078095544 0 0.65000000000104008 1 0 0.60000000000138687 1 0 0.62065498684670595 0.95224934003983619 0 0.078358742472063481 0.43365249433908948 0 0.068743045408989428 0.48853989837882689 0 0.033550201249889847 0.46247875832467239 0 0.2236846579037573 0.67380363126050236 0 0.27820712747429932 0.65530134213254643 0 0.26439878998046262 0.7048065392091396 0 0.6879972333610942 0.43038561374960838 0 0.68128176404677243 0.38629093627004979 0 0.72622533758026719 0.40265885511101601 0 0.72525833953073282 0.1032114801687094 0 0.7010294155333181 0.056779085686491267 0 0.7527966693318906 0.053051678021508272 0 0.18269480424590959 0.75905448272264375 0 0.15332765547575641 0.71200081858233666 0 0.19068556247388771 0.71028988922845504 0 0.1216098864341134 0.50637075089503902 0 0.085622222639554768 0.53333248912060549 0 0.068743045408989428 0.48853989837882689 0 0.25676291524611189 0.7436741304886243 0 0.26439878998046262 0.7048065392091396 0 0.29904318922293632 0.74132814928635593 0 0.65481233915350323 0.35652751921065562 0 0.68128176404677243 0.38629093627004979 0 0.63912439215427275 0.41063340167983359 0 0.83573492347052902 0.36590755630746369 0 0.86844634540301924 0.38530937474099819 0 0.81308179852519835 0.39754945808726527 0 0.27270076654418179 0.87751467830216623 0 0.2401283238295133 0.85648409884788523 0 0.29209212897034281 0.84715728365233667 0 0.84999999999999987 0.69999999999999996 0 0.85491058998424563 0.76004753345552634 0 0.81864958914779962 0.73589050177899629 0 0.84999999999960507 0 0 0.85491058998398861 0.060047533455626502 0 0.81864958914740749 0.035890501779055867 0 0.18381867841758909 0.57774125163628387 0 0.19914261668318661 0.62286739485272158 0 0.15720202157091859 0.60665697304410315 0 0.22549374774072969 0.58452645269293457 0 0.19914261668318661 0.62286739485272158 0 0.18381867841758909 0.57774125163628387 0 0.79680861578988083 0.92656778056766709 0 0.85170973911348691 0.93569607295217616 0 0.81486180804382891 0.96321394949790495 0 0.79680861578956375 0.22656778056752541 0 0.8517097391133297 0.2356960729520409 0 0.81486180804364938 0.26321394949780091 0 0.20050006573841939 0.53248514016039872 0 0.23975172658309729 0.49475499200540818 0 0.25115337790845271 0.54719303014923271 0 0.28307294598219601 0.50789252727458634 0 0.25115337790845271 0.54719303014923271 0 0.23975172658309729 0.49475499200540818 0 0.20050006573841939 0.53248514016039872 0 0.18381867841758909 0.57774125163628387 0 0.14934928745814749 0.55042914607228977 0 0.19922788606653311 0.085920220746880993 0 0.22985637510995899 0.1298347970200906 0 0.18652628422869419 0.14162325200928061 0 0.33758650185219202 0.23837101504325639 0 0.38831533174504851 0.2189834941785925 0 0.3786248352540974 0.27082301512024259 0 0.42377727103934271 0.25099357235810238 0 0.3786248352540974 0.27082301512024259 0 0.38831533174504851 0.2189834941785925 0 0.19922788606653311 0.085920220746880993 0 0.18652628422869419 0.14162325200928061 0 0.16141998738593399 0.10404039647458049 0 0.54782696902220018 0.79245182748204157 0 0.55363780716230748 0.74348740161571747 0 0.59636844454254345 0.75937156204589151 0 0.82709327591091286 0.84937141670920724 0 0.88088768115933802 0.84674609810493673 0 0.85600844944837662 0.88483418979512773 0 0.82709327591102189 0.14937141670914489 0 0.88088768115941807 0.14674609810479519 0 0.85600844944842547 0.1848341897950983 0 0.27866744612395528 0.38416094670951489 0 0.22033343844674469 0.36963382230740238 0 0.25966125648670141 0.34351016742083729 0 0 0.50000000000205869 0 0.033550201249889847 0.46247875832467239 0 0.068743045408989428 0.48853989837882689 0 0.31378396441836959 0.70157213313026345 0 0.36622285152418499 0.69092437780804039 0 0.35415581127540569 0.73730480045900215 0 0.77293540622714185 0.59448302402785813 0 0.71809016091162536 0.58185040402320831 0 0.77151014687832564 0.54436834383023036 0 0.7152569930854884 0.5237994455134295 0 0.69385896817107129 0.48377516041410151 0 0.73947346780852752 0.49062440112282169 0 0.15801167086041079 0.46008690540259539 0 0.191953871957803 0.42546416763755879 0 0.19604738184454831 0.47787523520405789 0 0.57667858002728545 0.078486105337742612 0 0.61940220174112337 0.047251958781050582 0 0.61956000905586006 0.1043312481793135 0 0.65408113592120842 0.073941773121567966 0 0.61956000905586006 0.1043312481793135 0 0.61940220174112337 0.047251958781050582 0 0 0.55000000000173355 0 0 0.50000000000205869 0 0.044576108720083309 0.53509043209532614 0 0.65507451745379841 0.92229208810758578 0 0.62065498684670595 0.95224934003983619 0 0.61885627562261258 0.90282959257498208 0 0.57724883562309992 0.92155686857100794 0 0.61885627562261258 0.90282959257498208 0 0.62065498684670595 0.95224934003983619 0 0.91750694127107502 0.36982372220068471 0 0.86844634540301924 0.38530937474099819 0 0.87430060258887643 0.34056085888204451 0 0.91750694127105259 0.63017627779935648 0 0.87712158428786946 0.65709029563313581 0 0.87159648282691515 0.61285406320581504 0 0.33123028043633618 0.77629643437932982 0 0.29904318922293632 0.74132814928635593 0 0.35415581127540569 0.73730480045900215 0 0.86411095495256451 0.42388805655111889 0 0.84925632466077294 0.45359738909549091 0 0.81973119833356312 0.43505687159469048 0 0.43846182030517877 0.64845797726506715 0 0.47913475093885149 0.66010775372412711 0 0.43323420005758778 0.6913544522562407 0 0.18269480424590959 0.75905448272264375 0 0.19068556247388771 0.71028988922845504 0 0.2248999640082178 0.72584299459689172 0 0.39536230704883951 0.84069429572832477 0 0.38586766253264881 0.78219501014812498 0 0.42609163930740518 0.80361684430568059 0 0.59999999999999976 0.69999999999999996 0 0.63221990677827677 0.73442891067859706 0 0.59636844454254345 0.75937156204589151 0 0.27866744612395528 0.38416094670951489 0 0.24049127783545701 0.41270748208749802 0 0.22033343844674469 0.36963382230740238 0 0.82709327591091286 0.84937141670920724 0 0.84725310900444062 0.80779732082917555 0 0.88088768115933802 0.84674609810493673 0 0.82709327591102189 0.14937141670914489 0 0.84725310900442086 0.10779732082922661 0 0.88088768115941807 0.14674609810479519 0 0.1650278706801647 0.38791388161335733 0 0.18434624290945251 0.35208838264196463 0 0.22033343844674469 0.36963382230740238 0 0.4409427642593301 0.35743108089689513 0 0.49077833859261139 0.35229981449445641 0 0.46655310992796922 0.39650496622958609 0 0.80185942888539485 0.77452061303608133 0 0.81864958914779962 0.73589050177899629 0 0.85491058998424563 0.76004753345552634 0 0.80185942888501827 0.074520613036224564 0 0.81864958914740749 0.035890501779055867 0 0.85491058998398861 0.060047533455626502 0 0.29999999999926641 0 0 0.34999999999912063 0 0 0.32541448401678508 0.046215317981507749 0 0.35000000000145642 1 0 0.30000000000124832 1 0 0.32544832635163229 0.95485394099568932 0 0.4656888918609538 0.78493261229743638 0 0.50731287292894423 0.78963574450233831 0 0.50627822638148745 0.8263979829520941 0 0.2185883431182947 0.18019736283949719 0 0.25557216766470708 0.15874861286892261 0 0.26429849586623999 0.19346700179430079 0 1 0.29999999999999999 0 1 0.34999999999993492 0 0.95780851984364423 0.34215720972155339 0 1 0.29999999999999999 0 0.95780851984364423 0.34215720972155339 0 0.94999999999999996 0.29999999999999999 0 1 0.69999999999999996 0 0.94999999999999996 0.69999999999999996 0 0.9578014258160763 0.65787212321113708 0 1 0.69999999999999996 0 0.9578014258160763 0.65787212321113708 0 1 0.64999999999986979 0 0.91750694127107502 0.36982372220068471 0 0.90594285160987287 0.4141265964174129 0 0.86844634540301924 0.38530937474099819 0 0.91750694127105259 0.63017627779935648 0 0.87159648282691515 0.61285406320581504 0 0.91143117093204207 0.58709913730335972 0 0.74999999999999989 0.69999999999999996 0 0.7750489929959945 0.66593931409600093 0 0.79999999999999982 0.69999999999999996 0 0.74999999999999989 0.29999999999999999 0 0.79999999999999982 0.29999999999999999 0 0.78145581580700685 0.34881365920033602 0 0.54999999999999993 0.69999999999999996 0 0.57484956128872922 0.66573805030881994 0 0.59999999999999976 0.69999999999999996 0 0.90299850604011456 0.79563452813489832 0 0.94399509803918602 0.75600490196082126 0 0.95386563387742829 0.80414874155775029 0 0.90416666666660628 0.9041666666666166 0 0.95391631417670719 0.89584263333814784 0 0.94399509803919068 0.9439950980391687 0 0.90299850604006393 0.09563452813493091 0 0.94399509803922566 0.056004901960802607 0 0.95386563387744361 0.1041487415577465 0 0.90416666666668166 0.20416666666667119 0 0.95391631417672862 0.19584263333809451 0 0.94399509803921056 0.24399509803922639 0 0.22278230690790279 0.44824268025881547 0 0.19604738184454831 0.47787523520405789 0 0.191953871957803 0.42546416763755879 0 0.90299850604011456 0.79563452813489832 0 0.89999166460796554 0.74528934923809909 0 0.94399509803918602 0.75600490196082126 0 0.90299850604006393 0.09563452813493091 0 0.899991664607802 0.045289349238254978 0 0.94399509803922566 0.056004901960802607 0 0.49102375406324739 0.49123754822244059 0 0.47793794143994173 0.52940715638744962 0 0.43507373378304309 0.49699695397193322 0 0.90416666666660628 0.9041666666666166 0 0.94399509803919068 0.9439950980391687 0 0.89898474358632463 0.95391965591118966 0 0.90416666666668166 0.20416666666667119 0 0.94399509803921056 0.24399509803922639 0 0.89898474358614167 0.25391965591104898 0 0.65394964615507722 0.22666784374016369 0 0.62657463266645097 0.26524202571255862 0 0.59814117807200873 0.23398510860739519 0 0.6084546825910605 0.37989672713932537 0 0.63912439215427275 0.41063340167983359 0 0.57744073070774993 0.41535148636609359 0 0.61209567303293111 0.44669033081290321 0 0.57744073070774993 0.41535148636609359 0 0.63912439215427275 0.41063340167983359 0 0.25676291524611189 0.7436741304886243 0 0.22556077506376701 0.77837424984191617 0 0.2248999640082178 0.72584299459689172 0 0.61343887413683884 0.856862479058357 0 0.60294066490120068 0.80851322453934582 0 0.65005442820240822 0.82644988530054031 0 0.64999999999907843 0 0 0.66369801598854572 0.036327466368102787 0 0.61940220174112337 0.047251958781050582 0 0.40326160981139969 0.73346192995102844 0 0.38586766253264881 0.78219501014812498 0 0.35415581127540569 0.73730480045900215 0 0.33123028043633618 0.77629643437932982 0 0.35415581127540569 0.73730480045900215 0 0.38586766253264881 0.78219501014812498 0 0.26573297623774761 0.59828298563722948 0 0.29110487519241501 0.56588143995431495 0 0.31502927232353312 0.6134992213375432 0 0.77846603114747959 0.49850927265137401 0 0.81441713509985358 0.51161854125224959 0 0.77151014687832564 0.54436834383023036 0 0.82862096804812391 0.55037090955459045 0 0.77151014687832564 0.54436834383023036 0 0.81441713509985358 0.51161854125224959 0 0.50000000000205869 1 0 0.45000000000187229 1 0 0.47135117303824892 0.95556877749289892 0 0.44999999999882923 0 0 0.49999999999869432 0 0 0.47040171442036788 0.044141676406503738 0 0 0.7000000000006934 0 0 0.65000000000104008 0 0.046634677244967337 0.671418230738282 0 0 0.35000000000145642 0 0 0.30000000000124832 0 0.046389130980076937 0.32668781832131749 0 0.31378396441836959 0.70157213313026345 0 0.27820712747429932 0.65530134213254643 0 0.32263089806001177 0.66003674931826484 0 0.33122374654748771 0.57588941099433744 0 0.31502927232353312 0.6134992213375432 0 0.29110487519241501 0.56588143995431495 0 0.26573297623774761 0.59828298563722948 0 0.27820712747429932 0.65530134213254643 0 0.2459498854893499 0.63248470766216769 0 0.14474682429600511 0.85524784522713515 0 0.16206583317966519 0.89685560785156404 0 0.1241151115713819 0.9045666525468371 0 0.14332333627550789 0.14578431753966009 0 0.12372429750337779 0.095814237875728972 0 0.16141998738593399 0.10404039647458049 0 0.64753070846764316 0.77332939069435502 0 0.59636844454254345 0.75937156204589151 0 0.63221990677827677 0.73442891067859706 0 0.14474682429600511 0.85524784522713515 0 0.1241151115713819 0.9045666525468371 0 0.10562472963403439 0.87143394428979881 0 0.14332333627550789 0.14578431753966009 0 0.1053400320299198 0.12877248826361379 0 0.12372429750337779 0.095814237875728972 0 0.77354604466818633 0.40378688774472771 0 0.81308179852519835 0.39754945808726527 0 0.81973119833356312 0.43505687159469048 0 0.54782696902220018 0.79245182748204157 0 0.50945740445113552 0.75476055527778108 0 0.55363780716230748 0.74348740161571747 0 0.2236846579037573 0.67380363126050236 0 0.2459498854893499 0.63248470766216769 0 0.27820712747429932 0.65530134213254643 0 0.77293540622714185 0.59448302402785813 0 0.74994237037456724 0.62775548192980357 0 0.71809016091162536 0.58185040402320831 0 0 0.79999999999999982 0 0 0.75000000000034661 0 0.04408157711937423 0.7728941757575627 0 0 0.25000000000104028 0 0 0.20000000000083221 0 0.044081577119474857 0.2271058242433576 0 0.19999999999955789 0 0 0.24999999999941211 0 0 0.22668068146512929 0.045875643423131329 0 0.25000000000104028 1 0 0.20000000000083221 1 0 0.22850979588452081 0.95594428570238643 0 0.47357141910802508 0.1873585799078378 0 0.44288491854585582 0.14116182884956319 0 0.48466639505193998 0.1421439844745814 0 0.59999999999999976 0.29999999999999999 0 0.5794309697024993 0.27124795968204829 0 0.62657463266645097 0.26524202571255862 0 0.43249999999999988 0.43937499999999979 0 0.42161023666869668 0.39493916313643851 0 0.46655310992796922 0.39650496622958609 0 0.31068898841644388 0.47541502461811092 0 0.33190227185843768 0.52715113583864037 0 0.28307294598219601 0.50789252727458634 0 0.35024835142131061 0.48654922671676981 0 0.33190227185843768 0.52715113583864037 0 0.31068898841644388 0.47541502461811092 0 0.35864735590330371 0.63903383440414463 0 0.36622285152418499 0.69092437780804039 0 0.32263089806001177 0.66003674931826484 0 0.31378396441836959 0.70157213313026345 0 0.32263089806001177 0.66003674931826484 0 0.36622285152418499 0.69092437780804039 0 0.86956835336234861 0.571283299838105 0 0.90900154012161016 0.53607784105648792 0 0.91143117093204207 0.58709913730335972 0 0.6499999999999998 0.29999999999999999 0 0.65481233915350323 0.35652751921065562 0 0.61959173890754571 0.33832250091341232 0 0.4409427642593301 0.35743108089689513 0 0.46226845272279993 0.31901800744800313 0 0.49077833859261139 0.35229981449445641 0 0.5 0.29999999999999999 0 0.49077833859261139 0.35229981449445641 0 0.46226845272279993 0.31901800744800313 0 0.14999999999970359 0 0 0.19999999999955789 0 0 0.184418230509967 0.038773194583122873 0 0.20000000000083221 1 0 0.15000000000062411 1 0 0.18474005699953849 0.96231585248064622 0 1 0.49999999999950101 0 1 0.54999999999963112 0 0.95631871884947484 0.51827533208233789 0 0.38586766253264881 0.78219501014812498 0 0.42676259796334498 0.76772545931379299 0 0.42609163930740518 0.80361684430568059 0 0.20050006573841939 0.53248514016039872 0 0.22549374774072969 0.58452645269293457 0 0.18381867841758909 0.57774125163628387 0 0.065374659239661639 0.8551091961254178 0 0.1074251789111534 0.83564394292147814 0 0.10562472963403439 0.87143394428979881 0 0.065374659239632718 0.1448908038746782 0 0.1053400320299198 0.12877248826361379 0 0.106902708054812 0.16453234188234539 0 0.1650278706801647 0.38791388161335733 0 0.14223753364722069 0.3341983344262433 0 0.18434624290945251 0.35208838264196463 0 0.43249999999999988 0.43937499999999979 0 0.46111841286828259 0.46690301029591341 0 0.43507373378304309 0.49699695397193322 0 0.83758014339878906 0.63222013025741819 0 0.81723410853263523 0.59419663659258926 0 0.87159648282691515 0.61285406320581504 0 0.19670163708476801 0.31472518408333222 0 0.18434624290945251 0.35208838264196463 0 0.14223753364722069 0.3341983344262433 0 0.75000000000034661 1 0 0.7250000000005199 0.94981617647078953 0 0.770759834363826 0.95919399014344442 0 0.74999999999999989 0.29999999999999999 0 0.72500000000000064 0.2498161764706 0 0.77075983436335049 0.25919399014334171 0 0.69999999999999984 0.29999999999999999 0 0.67933712972090698 0.25920070958121938 0 0.72500000000000064 0.2498161764706 0 0.57611405284611883 0.50165903596042916 0 0.53330375813596242 0.50827942741749099 0 0.53823865529665704 0.45873898050322898 0 0.6499999999999998 0.29999999999999999 0 0.68887083591306764 0.33632058575757479 0 0.65481233915350323 0.35652751921065562 0 0.27866744612395528 0.38416094670951489 0 0.33277555741076909 0.36432196682010132 0 0.31778888742534622 0.40581751814196781 0 0.49102375406324739 0.49123754822244059 0 0.43507373378304309 0.49699695397193322 0 0.46111841286828259 0.46690301029591341 0 0.94999999999999996 0.69999999999999996 0 0.97166519676947294 0.73337114490064459 0 0.94399509803918602 0.75600490196082126 0 0.94999999999986839 0 0 0.97166519676946894 0.033371144900598393 0 0.94399509803922566 0.056004901960802607 0 0.94999999999999996 0.29999999999999999 0 0.94399509803921056 0.24399509803922639 0 0.97166519676951801 0.26662885509932011 0 0.94999999999979179 1 0 0.94399509803919068 0.9439950980391687 0 0.97166519676946206 0.96662885509935492 0 0.34258405725730701 0.4444034294386992 0 0.29124338931648802 0.43334555462578611 0 0.31778888742534622 0.40581751814196781 0 0.27866744612395528 0.38416094670951489 0 0.31778888742534622 0.40581751814196781 0 0.29124338931648802 0.43334555462578611 0 0.36575549820117997 0.31677992835137742 0 0.33277555741076909 0.36432196682010132 0 0.32752639306529541 0.32610012995269699 0 0.35752321586431363 0.9185439911803448 0 0.32544832635163229 0.95485394099568932 0 0.30864387279288652 0.89906554525974958 0 0.27609987656793722 0.94991445621608572 0 0.30864387279288652 0.89906554525974958 0 0.32544832635163229 0.95485394099568932 0 0.33123028043633618 0.77629643437932982 0 0.30857225866488791 0.81101973481716805 0 0.2792923945214143 0.77665808831789485 0 0.33758650185219202 0.23837101504325639 0 0.29132859388405002 0.27203693976649962 0 0.28040350263641872 0.23054717217092141 0 0.4409427642593301 0.35743108089689513 0 0.41914690343363781 0.30688979866601612 0 0.46226845272279993 0.31901800744800313 0 0.14332333627550789 0.14578431753966009 0 0.13737030665753211 0.20313708640667491 0 0.106902708054812 0.16453234188234539 0 0.083105206071467416 0.20007701332709979 0 0.106902708054812 0.16453234188234539 0 0.13737030665753211 0.20313708640667491 0 0.083105206071452636 0.79992298667296435 0 0.1382744753146134 0.79650574229207483 0 0.1074251789111534 0.83564394292147814 0 0.14474682429600511 0.85524784522713515 0 0.1074251789111534 0.83564394292147814 0 0.1382744753146134 0.79650574229207483 0 0.65408113592120842 0.073941773121567966 0 0.7010294155333181 0.056779085686491267 0 0.68330259535470161 0.10038702501083881 0 0.72525833953073282 0.1032114801687094 0 0.68330259535470161 0.10038702501083881 0 0.7010294155333181 0.056779085686491267 0 0.049706944316475897 0.72477277076253799 0 0.046634677244967337 0.671418230738282 0 0.1020579365089687 0.69352219419301997 0 0.086179601630648681 0.64647209519980475 0 0.1020579365089687 0.69352219419301997 0 0.046634677244967337 0.671418230738282 0 0.087545339447545459 0.35122518864182262 0 0.046389130980076937 0.32668781832131749 0 0.093851963071650835 0.30582068233324772 0 0.049706944316556423 0.27522722923869108 0 0.093851963071650835 0.30582068233324772 0 0.046389130980076937 0.32668781832131749 0 0.82709327591091286 0.84937141670920724 0 0.80041942726660109 0.81543261647703358 0 0.84725310900444062 0.80779732082917555 0 0.82709327591102189 0.14937141670914489 0 0.80076557130237269 0.1154587552654202 0 0.84725310900442086 0.10779732082922661 0 0.17933913398461551 0.2350063570234002 0 0.14377654328998779 0.2442024734791064 0 0.13737030665753211 0.20313708640667491 0 0.18269480424590959 0.75905448272264375 0 0.1382744753146134 0.79650574229207483 0 0.14335651144331049 0.75565258250209677 0 0.33758650185219202 0.23837101504325639 0 0.3786248352540974 0.27082301512024259 0 0.33402499257867951 0.28911035184473982 0 0.14332333627550789 0.14578431753966009 0 0.18124454140915969 0.18790916706335251 0 0.13737030665753211 0.20313708640667491 0 0.14474682429600511 0.85524784522713515 0 0.1382744753146134 0.79650574229207483 0 0.17777405986036951 0.81832336108265358 0 0.5 0.29999999999999999 0 0.52752007115234678 0.33170632466418198 0 0.49077833859261139 0.35229981449445641 0 0.27866744612395528 0.38416094670951489 0 0.29644548887253103 0.34914008784168082 0 0.33277555741076909 0.36432196682010132 0 0 0.84999999999965292 0 0 0.79999999999999982 0 0.038512288486097702 0.8155852717111195 0 0 0.20000000000083221 0 0 0.15000000000062411 0 0.038512288486115001 0.1844147282893184 0 0.40326160981139969 0.73346192995102844 0 0.35415581127540569 0.73730480045900215 0 0.36622285152418499 0.69092437780804039 0 0.91696753777131557 0.497780560203536 0 0.96228564064454991 0.48206450662049471 0 0.95631871884947484 0.51827533208233789 0 0.33758650185219202 0.23837101504325639 0 0.31255190597181792 0.19850845631528771 0 0.3572130504031617 0.1874703368446563 0 0.59814117807200873 0.23398510860739519 0 0.62657463266645097 0.26524202571255862 0 0.5794309697024993 0.27124795968204829 0 0.34258405725730701 0.4444034294386992 0 0.31068898841644388 0.47541502461811092 0 0.29124338931648802 0.43334555462578611 0 0.38083244760691543 0.38531983672244652 0 0.35221190152536241 0.40457127605439203 0 0.33277555741076909 0.36432196682010132 0 0.083411279318375747 0.91030024466934134 0 0.10266856499240549 0.95548163909968886 0 0.053064897599294662 0.95186845269532028 0 0.083411279318303222 0.089699755330707398 0 0.053064897599215843 0.048131547304697528 0 0.10266856499169109 0.044518360900210059 0 0.42377727103934271 0.25099357235810238 0 0.4604742573284204 0.27846934318264788 0 0.41914690343363781 0.30688979866601612 0 0.28307294598219601 0.50789252727458634 0 0.25982634974572738 0.46097799597715272 0 0.31068898841644388 0.47541502461811092 0 0.29348325746214782 0.31350119524708198 0 0.29132859388405002 0.27203693976649962 0 0.33402499257867951 0.28911035184473982 0 0.35312867752657662 0.084946736076730367 0 0.39823268594401579 0.1116623613130045 0 0.36246644853392812 0.1399454205365751 0 0.7000000000006934 1 0 0.68015064798562208 0.95924320340003011 0 0.7250000000005199 0.94981617647078953 0 0.42377727103934271 0.25099357235810238 0 0.38831533174504851 0.2189834941785925 0 0.42905200079338551 0.19982395548231649 0 0.53823865529665704 0.45873898050322898 0 0.57744073070774993 0.41535148636609359 0 0.57975577671020095 0.46172033326338591 0 0.33758650185219202 0.23837101504325639 0 0.3572130504031617 0.1874703368446563 0 0.38831533174504851 0.2189834941785925 0 0.29124338931648802 0.43334555462578611 0 0.31068898841644388 0.47541502461811092 0 0.25982634974572738 0.46097799597715272 0 0.6084546825910605 0.37989672713932537 0 0.61959173890754571 0.33832250091341232 0 0.65481233915350323 0.35652751921065562 0 0.40326160981139969 0.73346192995102844 0 0.43323420005758778 0.6913544522562407 0 0.45582236402875981 0.73896743678908217 0 0.33758650185219202 0.23837101504325639 0 0.28040350263641872 0.23054717217092141 0 0.31255190597181792 0.19850845631528771 0 0.79999999999999982 1 0 0.75000000000034661 1 0 0.770759834363826 0.95919399014344442 0 0.74999999999999989 0.29999999999999999 0 0.77075983436335049 0.25919399014334171 0 0.79999999999999982 0.29999999999999999 0 0.6499999999999998 0.29999999999999999 0 0.67933712972090698 0.25920070958121938 0 0.69999999999999984 0.29999999999999999 0 0.39536230704883951 0.84069429572832477 0 0.39767323751400468 0.89584229130535065 0 0.35864759629805099 0.87963482415279515 0 0.54999999999999993 0.69999999999999996 0 0.52584555706968406 0.66664215091846768 0 0.57484956128872922 0.66573805030881994 0 0.35312867752657662 0.084946736076730367 0 0.32541448401678508 0.046215317981507749 0 0.3615861437013822 0.03582617922508851 0 0.35752321586431363 0.9185439911803448 0 0.36184234618600131 0.96443954459096326 0 0.32544832635163229 0.95485394099568932 0 0.35312867752657662 0.084946736076730367 0 0.3615861437013822 0.03582617922508851 0 0.39591832466117061 0.056982757562006353 0 0.35752321586431363 0.9185439911803448 0 0.39641108128798319 0.94356127926187128 0 0.36184234618600131 0.96443954459096326 0 0.083411279318303222 0.089699755330707398 0 0.044310582753132287 0.101412518374475 0 0.053064897599215843 0.048131547304697528 0 0.083411279318375747 0.91030024466934134 0 0.053064897599294662 0.95186845269532028 0 0.0443105827531413 0.89858748162559932 0 0.38083244760691543 0.38531983672244652 0 0.40076539126862748 0.34589349467022118 0 0.42161023666869668 0.39493916313643851 0 0.4409427642593301 0.35743108089689513 0 0.42161023666869668 0.39493916313643851 0 0.40076539126862748 0.34589349467022118 0 0.79999999999999982 0.29999999999999999 0 0.82500000000000062 0.33010209762754811 0 0.78145581580700685 0.34881365920033602 0 0.79999999999999982 0.69999999999999996 0 0.7750489929959945 0.66593931409600093 0 0.82457059160610424 0.66831947184359608 0 0.59999999999999976 0.69999999999999996 0 0.57484956128872922 0.66573805030881994 0 0.62460753523532009 0.66851202781000296 0 0.74999999999999989 0.69999999999999996 0 0.72500000000000064 0.67022701834392062 0 0.7750489929959945 0.66593931409600093 0 0.74999999999999989 0.29999999999999999 0 0.78145581580700685 0.34881365920033602 0 0.73090396928863699 0.33699297293167962 0 0.33758650185219202 0.23837101504325639 0 0.33402499257867951 0.28911035184473982 0 0.29132859388405002 0.27203693976649962 0 0.36575549820117997 0.31677992835137742 0 0.41914690343363781 0.30688979866601612 0 0.40076539126862748 0.34589349467022118 0 0.4409427642593301 0.35743108089689513 0 0.40076539126862748 0.34589349467022118 0 0.41914690343363781 0.30688979866601612 0 0.34258405725730701 0.4444034294386992 0 0.38707855792647411 0.42299362914874578 0 0.3908716102680424 0.47010282357248828 0 0.7000000000006934 1 0 0.65000000000104008 1 0 0.68015064798562208 0.95924320340003011 0 0.49102375406324739 0.49123754822244059 0 0.46111841286828259 0.46690301029591341 0 0.48858720058566618 0.43964267759203868 0 0.4656888918609538 0.78493261229743638 0 0.42676259796334498 0.76772545931379299 0 0.45582236402875981 0.73896743678908217 0 0.40326160981139969 0.73346192995102844 0 0.45582236402875981 0.73896743678908217 0 0.42676259796334498 0.76772545931379299 0 0.59999999999999976 0.29999999999999999 0 0.62657463266645097 0.26524202571255862 0 0.6499999999999998 0.29999999999999999 0 0.40000000000166441 1 0 0.36184234618600131 0.96443954459096326 0 0.39641108128798319 0.94356127926187128 0 0.3999999999989749 0 0 0.39591832466117061 0.056982757562006353 0 0.3615861437013822 0.03582617922508851 0 0.43249999999999988 0.43937499999999979 0 0.48858720058566618 0.43964267759203868 0 0.46111841286828259 0.46690301029591341 0 0.7250000000005199 0.89375000000045834 0 0.7250000000005199 0.94981617647078953 0 0.68987011941058407 0.92105047536677087 0 0.7250000000005199 0.89375000000045834 0 0.75729602384198635 0.92353652857884294 0 0.7250000000005199 0.94981617647078953 0 0.72500000000001008 0.19776155966387679 0 0.75668890529066124 0.2244279804069782 0 0.72500000000000064 0.2498161764706 0 0.72500000000001008 0.19776155966387679 0 0.72500000000000064 0.2498161764706 0 0.69397719155551807 0.2245125647000914 0 0.79999999999999982 0.29999999999999999 0 0.81486180804364938 0.26321394949780091 0 0.84999999999999987 0.29999999999999999 0 0.84999999999965292 1 0 0.79999999999999982 1 0 0.81486180804382891 0.96321394949790495 0 0.1247745017231483 0.27198077544791172 0 0.095326043202144745 0.24554465089224409 0 0.14377654328998779 0.2442024734791064 0 0.1215415378367805 0.72939333680004137 0 0.14335651144331049 0.75565258250209677 0 0.090953281884486245 0.7564451946902494 0 0.72500000000001008 0.19776155966387679 0 0.72634814642510737 0.16106886917518889 0 0.76587607630038135 0.18880039518954719 0 0.72500000000001008 0.19776155966387679 0 0.6865991819015953 0.189116534044597 0 0.72634814642510737 0.16106886917518889 0 0.77144070960558853 0.14311854477243749 0 0.76587607630038135 0.18880039518954719 0 0.72634814642510737 0.16106886917518889 0 0.68391457121233579 0.14440470121196541 0 0.72634814642510737 0.16106886917518889 0 0.6865991819015953 0.189116534044597 0 0.7250000000005199 0.89375000000045834 0 0.72863726579783861 0.85390518901155588 0 0.76891166905518427 0.88835469571185499 0 0.76901770135486491 0.84293557325473656 0 0.76891166905518427 0.88835469571185499 0 0.72863726579783861 0.85390518901155588 0 0 0.20000000000083221 0 0.038512288486115001 0.1844147282893184 0 0.044081577119474857 0.2271058242433576 0 0 0.79999999999999982 0 0.04408157711937423 0.7728941757575627 0 0.038512288486097702 0.8155852717111195 0 0.52375890611712683 0.059318771819432882 0 0.47881186583059909 0.093591717165689425 0 0.47040171442036788 0.044141676406503738 0 0.52122150208832174 0.94089974453840242 0 0.47135117303824892 0.95556877749289892 0 0.47401147028110507 0.91529957330468115 0 0.27474541102162192 0.11822029332053539 0 0.3096713403101819 0.085471541595262421 0 0.32215584939770009 0.1218492143506909 0 0.22278230690790279 0.44824268025881547 0 0.24049127783545701 0.41270748208749802 0 0.25982634974572738 0.46097799597715272 0 0.93732437411268477 0.55911392101136159 0 0.91143117093204207 0.58709913730335972 0 0.90900154012161016 0.53607784105648792 0 0.19901705110390991 0.9175543425573498 0 0.24536017905392571 0.90704567837671446 0 0.22850979588452081 0.95594428570238643 0 0.27609987656793722 0.94991445621608572 0 0.22850979588452081 0.95594428570238643 0 0.24536017905392571 0.90704567837671446 0 0.15720202157091859 0.60665697304410315 0 0.1241190223511371 0.64391885572885044 0 0.1024350934457823 0.60772393977513839 0 0.6499999999999998 0.69999999999999996 0 0.675261390228442 0.65996937624687813 0 0.69999999999999984 0.69999999999999996 0 0.3999999999989749 0 0 0.4320097814748517 0.037406712692169303 0 0.39591832466117061 0.056982757562006353 0 0.40000000000166441 1 0 0.39641108128798319 0.94356127926187128 0 0.4308986359464303 0.96395712492906194 0 0.54999999999999993 0.29999999999999999 0 0.56836770495988642 0.3523062350852913 0 0.52752007115234678 0.33170632466418198 0 0.14474682429600511 0.85524784522713515 0 0.17777405986036951 0.81832336108265358 0 0.19741632902693801 0.86755867406447229 0 0.21858834311891909 0.81980263716112767 0 0.19741632902693801 0.86755867406447229 0 0.17777405986036951 0.81832336108265358 0 0.54782696902220018 0.79245182748204157 0 0.50731287292894423 0.78963574450233831 0 0.50945740445113552 0.75476055527778108 0 0.20000000000083221 1 0 0.18474005699953849 0.96231585248064622 0 0.22850979588452081 0.95594428570238643 0 0.19999999999955789 0 0 0.22668068146512929 0.045875643423131329 0 0.184418230509967 0.038773194583122873 0 0.77846603114747959 0.49850927265137401 0 0.73947346780852752 0.49062440112282169 0 0.77972660463949339 0.45529290596363098 0 0.73483647259922602 0.44789725365921768 0 0.77972660463949339 0.45529290596363098 0 0.73947346780852752 0.49062440112282169 0 0.34258405725730701 0.4444034294386992 0 0.35024835142131061 0.48654922671676981 0 0.31068898841644388 0.47541502461811092 0 0.33123028043633618 0.77629643437932982 0 0.2792923945214143 0.77665808831789485 0 0.29904318922293632 0.74132814928635593 0 0.26573297623774761 0.59828298563722948 0 0.25115337790845271 0.54719303014923271 0 0.29110487519241501 0.56588143995431495 0 0.4656888918609538 0.78493261229743638 0 0.50945740445113552 0.75476055527778108 0 0.50731287292894423 0.78963574450233831 0 0.35312867752657662 0.084946736076730367 0 0.36246644853392812 0.1399454205365751 0 0.32215584939770009 0.1218492143506909 0 0.29348325746214782 0.31350119524708198 0 0.25966125648670141 0.34351016742083729 0 0.24432083401701241 0.3006253385567515 0 0.59999999999999976 0.69999999999999996 0 0.6499999999999998 0.69999999999999996 0 0.63221990677827677 0.73442891067859706 0 0.69999999999921003 0 0 0.7010294155333181 0.056779085686491267 0 0.66369801598854572 0.036327466368102787 0 0.40000000000166441 1 0 0.35000000000145642 1 0 0.36184234618600131 0.96443954459096326 0 0.34999999999912063 0 0 0.3999999999989749 0 0 0.3615861437013822 0.03582617922508851 0 0.43507373378304309 0.49699695397193322 0 0.47793794143994173 0.52940715638744962 0 0.42644501560315817 0.54603747078095544 0 0.14474682429600511 0.85524784522713515 0 0.19741632902693801 0.86755867406447229 0 0.16206583317966519 0.89685560785156404 0 0.19901705110390991 0.9175543425573498 0 0.16206583317966519 0.89685560785156404 0 0.19741632902693801 0.86755867406447229 0 0.35864735590330371 0.63903383440414463 0 0.3977710372045391 0.65868194622830212 0 0.36622285152418499 0.69092437780804039 0 0.7527966693318906 0.053051678021508272 0 0.7010294155333181 0.056779085686491267 0 0.72683645290270404 0.027797073151180601 0 0.71508799138962864 0.36622814920737751 0 0.72622533758026719 0.40265885511101601 0 0.68128176404677243 0.38629093627004979 0 0.79999999999999982 0.69999999999999996 0 0.84999999999999987 0.69999999999999996 0 0.81864958914779962 0.73589050177899629 0 0.79999999999947335 0 0 0.84999999999960507 0 0 0.81864958914740749 0.035890501779055867 0 0.39536230704883951 0.84069429572832477 0 0.35642984951668422 0.80994399665655703 0 0.38586766253264881 0.78219501014812498 0 0.42377727103934271 0.25099357235810238 0 0.46429753744194407 0.22870891180733599 0 0.4604742573284204 0.27846934318264788 0 0.39801143831225599 0.16651381068160659 0 0.42905200079338551 0.19982395548231649 0 0.38831533174504851 0.2189834941785925 0 0.79999999999999982 1 0 0.770759834363826 0.95919399014344442 0 0.81486180804382891 0.96321394949790495 0 0.79999999999999982 0.29999999999999999 0 0.77075983436335049 0.25919399014334171 0 0.81486180804364938 0.26321394949780091 0 0.25195515620380449 0.25883339815888678 0 0.21049769590865089 0.26857363548218488 0 0.224700362040408 0.22206622194729711 0 0.40326160981139969 0.73346192995102844 0 0.42676259796334498 0.76772545931379299 0 0.38586766253264881 0.78219501014812498 0 0.35312867752657662 0.084946736076730367 0 0.3096713403101819 0.085471541595262421 0 0.32541448401678508 0.046215317981507749 0 0.59999999999999976 0.29999999999999999 0 0.6499999999999998 0.29999999999999999 0 0.61959173890754571 0.33832250091341232 0 0.2185883431182947 0.18019736283949719 0 0.18652628422869419 0.14162325200928061 0 0.22985637510995899 0.1298347970200906 0 0.64999999999907843 0 0 0.69999999999921003 0 0 0.66369801598854572 0.036327466368102787 0 0.27499999999933927 0.060310814194988557 0 0.24218496799700481 0.089025544070598317 0 0.22668068146512929 0.045875643423131329 0 0.19922788606653311 0.085920220746880993 0 0.22668068146512929 0.045875643423131329 0 0.24218496799700481 0.089025544070598317 0 0.65507451745379841 0.92229208810758578 0 0.66412543161245952 0.88015090885499059 0 0.68987011941058407 0.92105047536677087 0 0.049706944316475897 0.72477277076253799 0 0.090953281884486245 0.7564451946902494 0 0.04408157711937423 0.7728941757575627 0 0.083105206071452636 0.79992298667296435 0 0.04408157711937423 0.7728941757575627 0 0.090953281884486245 0.7564451946902494 0 0.083105206071467416 0.20007701332709979 0 0.095326043202144745 0.24554465089224409 0 0.044081577119474857 0.2271058242433576 0 0.049706944316556423 0.27522722923869108 0 0.044081577119474857 0.2271058242433576 0 0.095326043202144745 0.24554465089224409 0 0.36575549820117997 0.31677992835137742 0 0.33402499257867951 0.28911035184473982 0 0.3786248352540974 0.27082301512024259 0 0.53245488764484505 0.55078124999999989 0 0.53330375813596242 0.50827942741749099 0 0.57435499076887508 0.54267261987897775 0 0.57611405284611883 0.50165903596042916 0 0.57435499076887508 0.54267261987897775 0 0.53330375813596242 0.50827942741749099 0 0.6499999999999998 0.29999999999999999 0 0.69999999999999984 0.29999999999999999 0 0.68887083591306764 0.33632058575757479 0 0.57611405284611883 0.50165903596042916 0 0.53823865529665704 0.45873898050322898 0 0.57975577671020095 0.46172033326338591 0 0.7750489929959945 0.66593931409600093 0 0.72500000000000064 0.67022701834392062 0 0.74994237037456724 0.62775548192980357 0 0.78145581580700685 0.34881365920033602 0 0.74764719760526988 0.3719647154012321 0 0.73090396928863699 0.33699297293167962 0 0.3999999999989749 0 0 0.44999999999882923 0 0 0.4320097814748517 0.037406712692169303 0 0.45000000000187229 1 0 0.40000000000166441 1 0 0.4308986359464303 0.96395712492906194 0 0.57484956128872922 0.66573805030881994 0 0.5991018319127801 0.62925360607495295 0 0.62460753523532009 0.66851202781000296 0 0.7750489929959945 0.66593931409600093 0 0.79884539758237771 0.62875045078114233 0 0.82457059160610424 0.66831947184359608 0 0.39801143831225599 0.16651381068160659 0 0.36246644853392812 0.1399454205365751 0 0.39823268594401579 0.1116623613130045 0 0.078358742472063481 0.43365249433908948 0 0.033550201249889847 0.46247875832467239 0 0.035463093262830522 0.42673416072819947 0 0.25676291524611189 0.7436741304886243 0 0.2792923945214143 0.77665808831789485 0 0.22556077506376701 0.77837424984191617 0 0.2236846579037573 0.67380363126050236 0 0.2248999640082178 0.72584299459689172 0 0.19068556247388771 0.71028988922845504 0 0.50715858906372158 0.63295939104129484 0 0.5166924242153631 0.59825134841919447 0 0.5498280205245758 0.6290146943450976 0 0.14618258501891079 0.062070108745602003 0 0.12372429750337779 0.095814237875728972 0 0.10266856499169109 0.044518360900210059 0 0.083411279318303222 0.089699755330707398 0 0.10266856499169109 0.044518360900210059 0 0.12372429750337779 0.095814237875728972 0 0.083411279318375747 0.91030024466934134 0 0.1241151115713819 0.9045666525468371 0 0.10266856499240549 0.95548163909968886 0 0.14617343800780541 0.93808063414349496 0 0.10266856499240549 0.95548163909968886 0 0.1241151115713819 0.9045666525468371 0 0.5499999999988151 0 0 0.59999999999894682 0 0 0.57396793757665954 0.037011367187645222 0 0.54782696902220018 0.79245182748204157 0 0.50627822638148745 0.8263979829520941 0 0.50731287292894423 0.78963574450233831 0 0.6499999999999998 0.29999999999999999 0 0.62657463266645097 0.26524202571255862 0 0.67933712972090698 0.25920070958121938 0 0.86956835336234861 0.571283299838105 0 0.86907294890112186 0.52008116128001669 0 0.90900154012161016 0.53607784105648792 0 0.17933913398461551 0.2350063570234002 0 0.224700362040408 0.22206622194729711 0 0.21049769590865089 0.26857363548218488 0 0.43249999999999988 0.43937499999999979 0 0.3908716102680424 0.47010282357248828 0 0.38707855792647411 0.42299362914874578 0 0.27474541102162192 0.11822029332053539 0 0.22985637510995899 0.1298347970200906 0 0.24218496799700481 0.089025544070598317 0 0.64753070846764316 0.77332939069435502 0 0.66427993341343905 0.73232764502436276 0 0.6916490518212759 0.75387992374886192 0 0 0.40000000000166441 0 0.050583896093752537 0.38543522283434112 0 0.035463093262830522 0.42673416072819947 0 0.73483647259922602 0.44789725365921768 0 0.73947346780852752 0.49062440112282169 0 0.69385896817107129 0.48377516041410151 0 0.57484956128872922 0.66573805030881994 0 0.52584555706968406 0.66664215091846768 0 0.5498280205245758 0.6290146943450976 0 0.60000000000138687 1 0 0.55000000000173355 1 0 0.57382506491224949 0.9629411906298494 0 0.068743045408989428 0.48853989837882689 0 0.085622222639554768 0.53333248912060549 0 0.044576108720083309 0.53509043209532614 0 0.083105206071467416 0.20007701332709979 0 0.044081577119474857 0.2271058242433576 0 0.038512288486115001 0.1844147282893184 0 0.083105206071452636 0.79992298667296435 0 0.038512288486097702 0.8155852717111195 0 0.04408157711937423 0.7728941757575627 0 0.28307294598219601 0.50789252727458634 0 0.23975172658309729 0.49475499200540818 0 0.25982634974572738 0.46097799597715272 0 0.43698630808430822 0.080423614171545449 0 0.39591832466117061 0.056982757562006353 0 0.4320097814748517 0.037406712692169303 0 0.4367309254023824 0.92065556789053882 0 0.4308986359464303 0.96395712492906194 0 0.39641108128798319 0.94356127926187128 0 0.80185942888539485 0.77452061303608133 0 0.75841349681148107 0.75422312624214749 0 0.78578450296893509 0.73292684821144505 0 0.80185942888501827 0.074520613036224564 0 0.7527966693318906 0.053051678021508272 0 0.78393852574753176 0.032039079577822822 0 0.6499999999999998 0.69999999999999996 0 0.62460753523532009 0.66851202781000296 0 0.675261390228442 0.65996937624687813 0 0.33123028043633618 0.77629643437932982 0 0.38586766253264881 0.78219501014812498 0 0.35642984951668422 0.80994399665655703 0 0.6405463747586706 0.63290524857395714 0 0.675261390228442 0.65996937624687813 0 0.62460753523532009 0.66851202781000296 0 0.22278230690790279 0.44824268025881547 0 0.191953871957803 0.42546416763755879 0 0.24049127783545701 0.41270748208749802 0 0.077693244765132896 0.56932317963405099 0 0.050069554451969707 0.61308520079857043 0 0.034381862692950467 0.57372682250960894 0 0.25195515620380449 0.25883339815888678 0 0.24432083401701241 0.3006253385567515 0 0.21049769590865089 0.26857363548218488 0 0.46666084890304671 0.57634471035397938 0 0.5166924242153631 0.59825134841919447 0 0.47095389620662098 0.61892551373708504 0 0.50715858906372158 0.63295939104129484 0 0.47095389620662098 0.61892551373708504 0 0.5166924242153631 0.59825134841919447 0 0.72525833953073282 0.1032114801687094 0 0.7527966693318906 0.053051678021508272 0 0.76878382444651716 0.097147941686331368 0 0.80185942888501827 0.074520613036224564 0 0.76878382444651716 0.097147941686331368 0 0.7527966693318906 0.053051678021508272 0 0.72500000000000064 0.7952620967744265 0 0.75841349681148107 0.75422312624214749 0 0.77094201086366854 0.79647480515688507 0 0.80185942888539485 0.77452061303608133 0 0.77094201086366854 0.79647480515688507 0 0.75841349681148107 0.75422312624214749 0 0.72500000000000064 0.7952620967744265 0 0.68024162096458085 0.79868546898116533 0 0.6916490518212759 0.75387992374886192 0 0.64753070846764316 0.77332939069435502 0 0.6916490518212759 0.75387992374886192 0 0.68024162096458085 0.79868546898116533 0 0 0.50000000000205869 0 0 0.45000000000187229 0 0.033550201249889847 0.46247875832467239 0 0.69999999999999984 0.69999999999999996 0 0.675261390228442 0.65996937624687813 0 0.72500000000000064 0.67022701834392062 0 0.71406021706547751 0.63292083137662503 0 0.72500000000000064 0.67022701834392062 0 0.675261390228442 0.65996937624687813 0 0.65408113592120842 0.073941773121567966 0 0.61940220174112337 0.047251958781050582 0 0.66369801598854572 0.036327466368102787 0 0.59999999999894682 0 0 0.61940220174112337 0.047251958781050582 0 0.57396793757665954 0.037011367187645222 0 0.60000000000138687 1 0 0.57382506491224949 0.9629411906298494 0 0.62065498684670595 0.95224934003983619 0 0.33122374654748771 0.57588941099433744 0 0.35765792684946668 0.6000687869219653 0 0.31502927232353312 0.6134992213375432 0 0.35864735590330371 0.63903383440414463 0 0.31502927232353312 0.6134992213375432 0 0.35765792684946668 0.6000687869219653 0 0.15801167086041079 0.46008690540259539 0 0.19604738184454831 0.47787523520405789 0 0.16618607197337229 0.50652878253548905 0 0.078358742472063481 0.43365249433908948 0 0.035463093262830522 0.42673416072819947 0 0.050583896093752537 0.38543522283434112 0 0.19901705110390991 0.9175543425573498 0 0.22850979588452081 0.95594428570238643 0 0.18474005699953849 0.96231585248064622 0 0.19922788606653311 0.085920220746880993 0 0.184418230509967 0.038773194583122873 0 0.22668068146512929 0.045875643423131329 0 0.19922788606653311 0.085920220746880993 0 0.24218496799700481 0.089025544070598317 0 0.22985637510995899 0.1298347970200906 0 0.74999999999999989 0.69999999999999996 0 0.78578450296893509 0.73292684821144505 0 0.75841349681148107 0.75422312624214749 0 0.74999999999934175 0 0 0.78393852574753176 0.032039079577822822 0 0.7527966693318906 0.053051678021508272 0 0 0.60000000000138687 0 0.034381862692950467 0.57372682250960894 0 0.050069554451969707 0.61308520079857043 0 0.2236846579037573 0.67380363126050236 0 0.26439878998046262 0.7048065392091396 0 0.2248999640082178 0.72584299459689172 0 0.6236733212988993 0.14864538214901801 0 0.58516465772821369 0.11653801664834119 0 0.61956000905586006 0.1043312481793135 0 0.26104540868854792 0.81401944968719064 0 0.2792923945214143 0.77665808831789485 0 0.30857225866488791 0.81101973481716805 0 0.42377727103934271 0.25099357235810238 0 0.42905200079338551 0.19982395548231649 0 0.46429753744194407 0.22870891180733599 0 0.27820712747429932 0.65530134213254643 0 0.31502927232353312 0.6134992213375432 0 0.32263089806001177 0.66003674931826484 0 0.61343887413683884 0.856862479058357 0 0.61885627562261258 0.90282959257498208 0 0.5832743223239254 0.88483152652961872 0 0.43698630808430822 0.080423614171545449 0 0.47040171442036788 0.044141676406503738 0 0.47881186583059909 0.093591717165689425 0 0.4367309254023824 0.92065556789053882 0 0.47401147028110507 0.91529957330468115 0 0.47135117303824892 0.95556877749289892 0 0.91696753777131557 0.497780560203536 0 0.95631871884947484 0.51827533208233789 0 0.90900154012161016 0.53607784105648792 0 0.93732437411268477 0.55911392101136159 0 0.90900154012161016 0.53607784105648792 0 0.95631871884947484 0.51827533208233789 0 0.27474541102162192 0.11822029332053539 0 0.25557216766470708 0.15874861286892261 0 0.22985637510995899 0.1298347970200906 0 0.2185883431182947 0.18019736283949719 0 0.22985637510995899 0.1298347970200906 0 0.25557216766470708 0.15874861286892261 0 0.29348325746214782 0.31350119524708198 0 0.33402499257867951 0.28911035184473982 0 0.32752639306529541 0.32610012995269699 0 0.27499999999933927 0.060310814194988557 0 0.32541448401678508 0.046215317981507749 0 0.3096713403101819 0.085471541595262421 0 0.27270076654418179 0.87751467830216623 0 0.24536017905392571 0.90704567837671446 0 0.2401283238295133 0.85648409884788523 0 1 0.44999999999963131 0 1 0.49999999999950101 0 0.96228564064454991 0.48206450662049471 0 0.61343887413683884 0.856862479058357 0 0.66412543161245952 0.88015090885499059 0 0.61885627562261258 0.90282959257498208 0 0 0.45000000000187229 0 0 0.40000000000166441 0 0.035463093262830522 0.42673416072819947 0 0.69999999999999984 0.69999999999999996 0 0.6916490518212759 0.75387992374886192 0 0.66427993341343905 0.73232764502436276 0 0.43846182030517877 0.64845797726506715 0 0.43323420005758778 0.6913544522562407 0 0.3977710372045391 0.65868194622830212 0 0.4367309254023824 0.92065556789053882 0 0.44003836461056539 0.88093474584252718 0 0.47401147028110507 0.91529957330468115 0 0.43846182030517877 0.64845797726506715 0 0.39743091024207589 0.6239520004230239 0 0.43545892161006339 0.61093128915313821 0 0.43846182030517877 0.64845797726506715 0 0.3977710372045391 0.65868194622830212 0 0.39743091024207589 0.6239520004230239 0 0.26429849586623999 0.19346700179430079 0 0.29336099386129338 0.15892013001050981 0 0.31255190597181792 0.19850845631528771 0 0.19670163708476801 0.31472518408333222 0 0.21049769590865089 0.26857363548218488 0 0.24432083401701241 0.3006253385567515 0 0.57724883562309992 0.92155686857100794 0 0.62065498684670595 0.95224934003983619 0 0.57382506491224949 0.9629411906298494 0 0.4409427642593301 0.35743108089689513 0 0.46655310992796922 0.39650496622958609 0 0.42161023666869668 0.39493916313643851 0 0.46666084890304671 0.57634471035397938 0 0.47095389620662098 0.61892551373708504 0 0.43545892161006339 0.61093128915313821 0 0.6879972333610942 0.43038561374960838 0 0.65178832218679827 0.45929119821019959 0 0.63912439215427275 0.41063340167983359 0 0.43698630808430822 0.080423614171545449 0 0.4320097814748517 0.037406712692169303 0 0.47040171442036788 0.044141676406503738 0 0.4367309254023824 0.92065556789053882 0 0.47135117303824892 0.95556877749289892 0 0.4308986359464303 0.96395712492906194 0 0.79680861578988083 0.92656778056766709 0 0.81486180804382891 0.96321394949790495 0 0.770759834363826 0.95919399014344442 0 0.79680861578956375 0.22656778056752541 0 0.81486180804364938 0.26321394949780091 0 0.77075983436335049 0.25919399014334171 0 0.71508799138962864 0.36622814920737751 0 0.68128176404677243 0.38629093627004979 0 0.68887083591306764 0.33632058575757479 0 0.35864735590330371 0.63903383440414463 0 0.32263089806001177 0.66003674931826484 0 0.31502927232353312 0.6134992213375432 0 0.21858834311891909 0.81980263716112767 0 0.2401283238295133 0.85648409884788523 0 0.19741632902693801 0.86755867406447229 0 0.35312867752657662 0.084946736076730367 0 0.32215584939770009 0.1218492143506909 0 0.3096713403101819 0.085471541595262421 0 0.35752321586431363 0.9185439911803448 0 0.35864759629805099 0.87963482415279515 0 0.39767323751400468 0.89584229130535065 0 0.41914690343363781 0.30688979866601612 0 0.4604742573284204 0.27846934318264788 0 0.46226845272279993 0.31901800744800313 0 0.33084213324567391 0.16272720141332131 0 0.32215584939770009 0.1218492143506909 0 0.36246644853392812 0.1399454205365751 0 0.46666084890304671 0.57634471035397938 0 0.42644501560315817 0.54603747078095544 0 0.47793794143994173 0.52940715638744962 0 0 0.60000000000138687 0 0 0.55000000000173355 0 0.034381862692950467 0.57372682250960894 0 0.77354604466818633 0.40378688774472771 0 0.74764719760526988 0.3719647154012321 0 0.78145581580700685 0.34881365920033602 0 0.34999999999912063 0 0 0.3615861437013822 0.03582617922508851 0 0.32541448401678508 0.046215317981507749 0 0.35000000000145642 1 0 0.32544832635163229 0.95485394099568932 0 0.36184234618600131 0.96443954459096326 0 0.57667858002728545 0.078486105337742612 0 0.57396793757665954 0.037011367187645222 0 0.61940220174112337 0.047251958781050582 0 0.47357141910802508 0.1873585799078378 0 0.50760557329222289 0.20700468884612061 0 0.46429753744194407 0.22870891180733599 0 0.49695729691142171 0.25014895411178018 0 0.46429753744194407 0.22870891180733599 0 0.50760557329222289 0.20700468884612061 0 0.33084213324567391 0.16272720141332131 0 0.3572130504031617 0.1874703368446563 0 0.31255190597181792 0.19850845631528771 0 0.6879972333610942 0.43038561374960838 0 0.63912439215427275 0.41063340167983359 0 0.68128176404677243 0.38629093627004979 0 0.65408113592120842 0.073941773121567966 0 0.65290632656860115 0.11434202593454081 0 0.61956000905586006 0.1043312481793135 0 0.33084213324567391 0.16272720141332131 0 0.31255190597181792 0.19850845631528771 0 0.29336099386129338 0.15892013001050981 0 0.61209567303293111 0.44669033081290321 0 0.63912439215427275 0.41063340167983359 0 0.65178832218679827 0.45929119821019959 0 0.086179601630648681 0.64647209519980475 0 0.1024350934457823 0.60772393977513839 0 0.1241190223511371 0.64391885572885044 0 0.44999999999882923 0 0 0.47040171442036788 0.044141676406503738 0 0.4320097814748517 0.037406712692169303 0 0.45000000000187229 1 0 0.4308986359464303 0.96395712492906194 0 0.47135117303824892 0.95556877749289892 0 0.74999999999934175 0 0 0.7527966693318906 0.053051678021508272 0 0.72683645290270404 0.027797073151180601 0 0.74999999999999989 0.69999999999999996 0 0.75841349681148107 0.75422312624214749 0 0.72501250972655151 0.74067302935308721 0 0.69999999999999984 0.69999999999999996 0 0.72501250972655151 0.74067302935308721 0 0.6916490518212759 0.75387992374886192 0 0.74999999999934175 0 0 0.79999999999947335 0 0 0.78393852574753176 0.032039079577822822 0 0.74999999999999989 0.69999999999999996 0 0.79999999999999982 0.69999999999999996 0 0.78578450296893509 0.73292684821144505 0 0.6405463747586706 0.63290524857395714 0 0.5991018319127801 0.62925360607495295 0 0.63065402604362242 0.59661356661633302 0 0.65481233915350323 0.35652751921065562 0 0.68887083591306764 0.33632058575757479 0 0.68128176404677243 0.38629093627004979 0 0.89999999999999991 0.29999999999999999 0 0.94999999999999996 0.29999999999999999 0 0.92012390126144183 0.33123581297173937 0 0.89999999999999991 0.69999999999999996 0 0.92057473616084773 0.66770436535372446 0 0.94999999999999996 0.69999999999999996 0 0.4367309254023824 0.92065556789053882 0 0.39767323751400468 0.89584229130535065 0 0.44003836461056539 0.88093474584252718 0 0.2185883431182947 0.18019736283949719 0 0.18124454140915969 0.18790916706335251 0 0.18652628422869419 0.14162325200928061 0 0.20050006573841939 0.53248514016039872 0 0.19604738184454831 0.47787523520405789 0 0.23975172658309729 0.49475499200540818 0 0.65507451745379841 0.92229208810758578 0 0.61885627562261258 0.90282959257498208 0 0.66412543161245952 0.88015090885499059 0 0.65394964615507722 0.22666784374016369 0 0.67933712972090698 0.25920070958121938 0 0.62657463266645097 0.26524202571255862 0 0.077693244765132896 0.56932317963405099 0 0.034381862692950467 0.57372682250960894 0 0.044576108720083309 0.53509043209532614 0 0.39801143831225599 0.16651381068160659 0 0.38831533174504851 0.2189834941785925 0 0.3572130504031617 0.1874703368446563 0 0.6499999999999998 0.69999999999999996 0 0.69999999999999984 0.69999999999999996 0 0.66427993341343905 0.73232764502436276 0 0.1215415378367805 0.72939333680004137 0 0.15332765547575641 0.71200081858233666 0 0.14335651144331049 0.75565258250209677 0 0.6405463747586706 0.63290524857395714 0 0.63065402604362242 0.59661356661633302 0 0.67529834988829951 0.61613270668143583 0 0.67323294229744413 0.57556450033612505 0 0.67529834988829951 0.61613270668143583 0 0.63065402604362242 0.59661356661633302 0 0.91750694127107502 0.36982372220068471 0 0.87430060258887643 0.34056085888204451 0 0.92012390126144183 0.33123581297173937 0 0.89999999999999991 0.29999999999999999 0 0.92012390126144183 0.33123581297173937 0 0.87430060258887643 0.34056085888204451 0 0.89999999999999991 0.69999999999999996 0 0.87712158428786946 0.65709029563313581 0 0.92057473616084773 0.66770436535372446 0 0.91750694127105259 0.63017627779935648 0 0.92057473616084773 0.66770436535372446 0 0.87712158428786946 0.65709029563313581 0 0.33122374654748771 0.57588941099433744 0 0.29110487519241501 0.56588143995431495 0 0.33190227185843768 0.52715113583864037 0 0.57484956128872922 0.66573805030881994 0 0.5498280205245758 0.6290146943450976 0 0.5991018319127801 0.62925360607495295 0 0.57412547362576272 0.58273804879550706 0 0.5991018319127801 0.62925360607495295 0 0.5498280205245758 0.6290146943450976 0 0.65408113592120842 0.073941773121567966 0 0.66369801598854572 0.036327466368102787 0 0.7010294155333181 0.056779085686491267 0 0.27474541102162192 0.11822029332053539 0 0.32215584939770009 0.1218492143506909 0 0.29336099386129338 0.15892013001050981 0 0.33084213324567391 0.16272720141332131 0 0.29336099386129338 0.15892013001050981 0 0.32215584939770009 0.1218492143506909 0 0.5 0.29999999999999999 0 0.54999999999999993 0.29999999999999999 0 0.52752007115234678 0.33170632466418198 0 0.83573492347052902 0.36590755630746369 0 0.87430060258887643 0.34056085888204451 0 0.86844634540301924 0.38530937474099819 0 0.83758014339878906 0.63222013025741819 0 0.87159648282691515 0.61285406320581504 0 0.87712158428786946 0.65709029563313581 0 0.22278230690790279 0.44824268025881547 0 0.23975172658309729 0.49475499200540818 0 0.19604738184454831 0.47787523520405789 0 1 0.49999999999950101 0 0.95631871884947484 0.51827533208233789 0 0.96228564064454991 0.48206450662049471 0 0.1650278706801647 0.38791388161335733 0 0.13773355295499351 0.42497777642586831 0 0.1117088112799664 0.38831403004970022 0 0.61209567303293111 0.44669033081290321 0 0.57975577671020095 0.46172033326338591 0 0.57744073070774993 0.41535148636609359 0 0.077693244765132896 0.56932317963405099 0 0.1154888278694548 0.56733818459978413 0 0.1024350934457823 0.60772393977513839 0 0.68697391633157634 0.84450604838764298 0 0.65005442820240822 0.82644988530054031 0 0.68024162096458085 0.79868546898116533 0 0.76901770135486491 0.84293557325473656 0 0.77094201086366854 0.79647480515688507 0 0.80041942726660109 0.81543261647703358 0 0.77144070960558853 0.14311854477243749 0 0.76878382444651716 0.097147941686331368 0 0.80076557130237269 0.1154587552654202 0 0.5 0.69999999999999996 0 0.52584555706968406 0.66664215091846768 0 0.54999999999999993 0.69999999999999996 0 0.077693244765132896 0.56932317963405099 0 0.044576108720083309 0.53509043209532614 0 0.085622222639554768 0.53333248912060549 0 0.69999999999921003 0 0 0.72683645290270404 0.027797073151180601 0 0.7010294155333181 0.056779085686491267 0 1 0 0 0.97166519676946894 0.033371144900598393 0 0.94999999999986839 0 0 1 0.69999999999999996 0 0.97166519676947294 0.73337114490064459 0 0.94999999999999996 0.69999999999999996 0 1 0.69999999999999996 0 1 0.74999999999993494 0 0.97166519676947294 0.73337114490064459 0 1 0.29999999999999999 0 0.97166519676951801 0.26662885509932011 0 1 0.24999999999987299 0 1 1 0 0.94999999999979179 1 0 0.97166519676946206 0.96662885509935492 0 1 0 0 1 0.049999999999896842 0 0.97166519676946894 0.033371144900598393 0 1 0.29999999999999999 0 0.94999999999999996 0.29999999999999999 0 0.97166519676951801 0.26662885509932011 0 1 1 0 0.97166519676946206 0.96662885509935492 0 1 0.94999999999997109 0 0 0.55000000000173355 0 0.044576108720083309 0.53509043209532614 0 0.034381862692950467 0.57372682250960894 0 0.6879972333610942 0.43038561374960838 0 0.69385896817107129 0.48377516041410151 0 0.65178832218679827 0.45929119821019959 0 0.33084213324567391 0.16272720141332131 0 0.36246644853392812 0.1399454205365751 0 0.3572130504031617 0.1874703368446563 0 0.65408113592120842 0.073941773121567966 0 0.68330259535470161 0.10038702501083881 0 0.65290632656860115 0.11434202593454081 0 0.16500388252850301 0.66612077714085194 0 0.19068556247388771 0.71028988922845504 0 0.15332765547575641 0.71200081858233666 0 0.82709327591091286 0.84937141670920724 0 0.85600844944837662 0.88483418979512773 0 0.81159157511211755 0.88795995483179491 0 0.82709327591102189 0.14937141670914489 0 0.85600844944842547 0.1848341897950983 0 0.81283102246527783 0.1881007222486438 0 0.79999999999999982 0.29999999999999999 0 0.84999999999999987 0.29999999999999999 0 0.82500000000000062 0.33010209762754811 0 0.79999999999999982 0.69999999999999996 0 0.82457059160610424 0.66831947184359608 0 0.84999999999999987 0.69999999999999996 0 0.59999999999999976 0.69999999999999996 0 0.62460753523532009 0.66851202781000296 0 0.6499999999999998 0.69999999999999996 0 0.39801143831225599 0.16651381068160659 0 0.3572130504031617 0.1874703368446563 0 0.36246644853392812 0.1399454205365751 0 0.69999999999999984 0.29999999999999999 0 0.74999999999999989 0.29999999999999999 0 0.73090396928863699 0.33699297293167962 0 0.69999999999999984 0.69999999999999996 0 0.72500000000000064 0.67022701834392062 0 0.74999999999999989 0.69999999999999996 0 0.6236733212988993 0.14864538214901801 0 0.64011864159029941 0.18789607982138171 0 0.59443395090188023 0.18455690917515069 0 0.20050006573841939 0.53248514016039872 0 0.16618607197337229 0.50652878253548905 0 0.19604738184454831 0.47787523520405789 0 0.79680861578956375 0.22656778056752541 0 0.76587607630038135 0.18880039518954719 0 0.81283102246527783 0.1881007222486438 0 0.79680861578988083 0.92656778056766709 0 0.76891166905518427 0.88835469571185499 0 0.81159157511211755 0.88795995483179491 0 0.71406021706547751 0.63292083137662503 0 0.675261390228442 0.65996937624687813 0 0.67529834988829951 0.61613270668143583 0 0.6405463747586706 0.63290524857395714 0 0.67529834988829951 0.61613270668143583 0 0.675261390228442 0.65996937624687813 0 0.19670163708476801 0.31472518408333222 0 0.168349569971391 0.28054490850913671 0 0.21049769590865089 0.26857363548218488 0 0.47357141910802508 0.1873585799078378 0 0.46429753744194407 0.22870891180733599 0 0.42905200079338551 0.19982395548231649 0 0.59814117807200873 0.23398510860739519 0 0.5794309697024993 0.27124795968204829 0 0.54248833945060504 0.2520322959927106 0 0.6541250972820879 0.49999999999999989 0 0.65178832218679827 0.45929119821019959 0 0.69385896817107129 0.48377516041410151 0 0.54999999999999993 0.29999999999999999 0 0.5794309697024993 0.27124795968204829 0 0.59999999999999976 0.29999999999999999 0 0.7750489929959945 0.66593931409600093 0 0.74994237037456724 0.62775548192980357 0 0.79884539758237771 0.62875045078114233 0 0.77293540622714185 0.59448302402785813 0 0.79884539758237771 0.62875045078114233 0 0.74994237037456724 0.62775548192980357 0 0.14332333627550789 0.14578431753966009 0 0.16141998738593399 0.10404039647458049 0 0.18652628422869419 0.14162325200928061 0 0.38083244760691543 0.38531983672244652 0 0.42161023666869668 0.39493916313643851 0 0.38707855792647411 0.42299362914874578 0 0.43249999999999988 0.43937499999999979 0 0.38707855792647411 0.42299362914874578 0 0.42161023666869668 0.39493916313643851 0 0.43846182030517877 0.64845797726506715 0 0.47095389620662098 0.61892551373708504 0 0.47913475093885149 0.66010775372412711 0 0.50715858906372158 0.63295939104129484 0 0.47913475093885149 0.66010775372412711 0 0.47095389620662098 0.61892551373708504 0 0.69999999999999984 0.69999999999999996 0 0.74999999999999989 0.69999999999999996 0 0.72501250972655151 0.74067302935308721 0 0.4089290844030305 0.58728915500154233 0 0.35765792684946668 0.6000687869219653 0 0.37272913873093971 0.56192925302619479 0 0.69999999999921003 0 0 0.74999999999934175 0 0 0.72683645290270404 0.027797073151180601 0 0.17933913398461551 0.2350063570234002 0 0.21049769590865089 0.26857363548218488 0 0.168349569971391 0.28054490850913671 0 0.14474682429600511 0.85524784522713515 0 0.10562472963403439 0.87143394428979881 0 0.1074251789111534 0.83564394292147814 0 0.14332333627550789 0.14578431753966009 0 0.106902708054812 0.16453234188234539 0 0.1053400320299198 0.12877248826361379 0 0.2236846579037573 0.67380363126050236 0 0.19914261668318661 0.62286739485272158 0 0.2459498854893499 0.63248470766216769 0 0.049999999999899652 0 0 0.053064897599215843 0.048131547304697528 0 0.02576622439977887 0.024532886826226379 0 0 0.050000000000207989 0 0.02576622439977887 0.024532886826226379 0 0.053064897599215843 0.048131547304697528 0 0.050000000000207989 1 0 0.025766224399875661 0.97546711317377799 0 0.053064897599294662 0.95186845269532028 0 0 0.94999999999979179 0 0.053064897599294662 0.95186845269532028 0 0.025766224399875661 0.97546711317377799 0 0.47357141910802508 0.1873585799078378 0 0.48466639505193998 0.1421439844745814 0 0.51729576145820033 0.1683240575987815 0 0.077693244765132896 0.56932317963405099 0 0.085622222639554768 0.53333248912060549 0 0.1154888278694548 0.56733818459978413 0 0.64753070846764316 0.77332939069435502 0 0.63221990677827677 0.73442891067859706 0 0.66427993341343905 0.73232764502436276 0 0.4656888918609538 0.78493261229743638 0 0.42609163930740518 0.80361684430568059 0 0.42676259796334498 0.76772545931379299 0 0.4089290844030305 0.58728915500154233 0 0.39743091024207589 0.6239520004230239 0 0.35765792684946668 0.6000687869219653 0 0.55306006949600994 0.20198184231352201 0 0.50760557329222289 0.20700468884612061 0 0.51729576145820033 0.1683240575987815 0 1 0.8999999999998336 0 1 0.94999999999997109 0 0.97435614836744289 0.92499999999990257 0 1 0.19999999999974799 0 1 0.24999999999987299 0 0.97435614836740092 0.22499999999981049 0 1 0.74999999999993494 0 1 0.7999999999998193 0 0.97435614836745565 0.77499999999987745 0 1 0.049999999999896842 0 1 0.099999999999753911 0 0.97435614836748241 0.074999999999825387 0 0.86411095495256451 0.42388805655111889 0 0.86844634540301924 0.38530937474099819 0 0.90594285160987287 0.4141265964174129 0 0.86956835336234861 0.571283299838105 0 0.91143117093204207 0.58709913730335972 0 0.87159648282691515 0.61285406320581504 0 0 0 0 0.02576622439977887 0.024532886826226379 0 0 0.050000000000207989 0 0 1 0 0 0.94999999999979179 0 0.025766224399875661 0.97546711317377799 0 0 1 0 0.025766224399875661 0.97546711317377799 0 0.050000000000207989 1 0 0 0 0 0.049999999999899652 0 0 0.02576622439977887 0.024532886826226379 0 0.65394964615507722 0.22666784374016369 0 0.64011864159029941 0.18789607982138171 0 0.6865991819015953 0.189116534044597 0 0.25195515620380449 0.25883339815888678 0 0.28040350263641872 0.23054717217092141 0 0.29132859388405002 0.27203693976649962 0 0.61209567303293111 0.44669033081290321 0 0.65178832218679827 0.45929119821019959 0 0.61547661924074692 0.48539576058873962 0 0.6541250972820879 0.49999999999999989 0 0.61547661924074692 0.48539576058873962 0 0.65178832218679827 0.45929119821019959 0 0.19670163708476801 0.31472518408333222 0 0.24432083401701241 0.3006253385567515 0 0.22615676742807109 0.33458786033114157 0 0.15801167086041079 0.46008690540259539 0 0.13773355295499351 0.42497777642586831 0 0.191953871957803 0.42546416763755879 0 0.1650278706801647 0.38791388161335733 0 0.191953871957803 0.42546416763755879 0 0.13773355295499351 0.42497777642586831 0 0.50715858906372158 0.63295939104129484 0 0.52584555706968406 0.66664215091846768 0 0.47913475093885149 0.66010775372412711 0 0.5 0.69999999999999996 0 0.47913475093885149 0.66010775372412711 0 0.52584555706968406 0.66664215091846768 0 0.51076801031701946 0.1202837388510348 0 0.51729576145820033 0.1683240575987815 0 0.48466639505193998 0.1421439844745814 0 0.71406021706547751 0.63292083137662503 0 0.74994237037456724 0.62775548192980357 0 0.72500000000000064 0.67022701834392062 0 0.71508799138962864 0.36622814920737751 0 0.73090396928863699 0.33699297293167962 0 0.74764719760526988 0.3719647154012321 0 0.22278230690790279 0.44824268025881547 0 0.25982634974572738 0.46097799597715272 0 0.23975172658309729 0.49475499200540818 0 0.80185942888539485 0.77452061303608133 0 0.78578450296893509 0.73292684821144505 0 0.81864958914779962 0.73589050177899629 0 0.80185942888501827 0.074520613036224564 0 0.78393852574753176 0.032039079577822822 0 0.81864958914740749 0.035890501779055867 0 0.5 0.29999999999999999 0 0.46226845272279993 0.31901800744800313 0 0.4604742573284204 0.27846934318264788 0 0.6405463747586706 0.63290524857395714 0 0.62460753523532009 0.66851202781000296 0 0.5991018319127801 0.62925360607495295 0 0.79680861578988083 0.92656778056766709 0 0.770759834363826 0.95919399014344442 0 0.75729602384198635 0.92353652857884294 0 0.79680861578956375 0.22656778056752541 0 0.77075983436335049 0.25919399014334171 0 0.75668890529066124 0.2244279804069782 0 0.65394964615507722 0.22666784374016369 0 0.69397719155551807 0.2245125647000914 0 0.67933712972090698 0.25920070958121938 0 0.81973119833356312 0.43505687159469048 0 0.84925632466077294 0.45359738909549091 0 0.81400510706333218 0.47357325943904899 0 0.83758014339878906 0.63222013025741819 0 0.82457059160610424 0.66831947184359608 0 0.79884539758237771 0.62875045078114233 0 0.25676291524611189 0.7436741304886243 0 0.2248999640082178 0.72584299459689172 0 0.26439878998046262 0.7048065392091396 0 0.91696753777131557 0.497780560203536 0 0.90900154012161016 0.53607784105648792 0 0.86907294890112186 0.52008116128001669 0 0.17933913398461551 0.2350063570234002 0 0.168349569971391 0.28054490850913671 0 0.14377654328998779 0.2442024734791064 0 0.1247745017231483 0.27198077544791172 0 0.14377654328998779 0.2442024734791064 0 0.168349569971391 0.28054490850913671 0 0.34258405725730701 0.4444034294386992 0 0.35221190152536241 0.40457127605439203 0 0.38707855792647411 0.42299362914874578 0 0.47357141910802508 0.1873585799078378 0 0.51729576145820033 0.1683240575987815 0 0.50760557329222289 0.20700468884612061 0 0.19670163708476801 0.31472518408333222 0 0.22615676742807109 0.33458786033114157 0 0.18434624290945251 0.35208838264196463 0 0.22033343844674469 0.36963382230740238 0 0.18434624290945251 0.35208838264196463 0 0.22615676742807109 0.33458786033114157 0 0.24432083401701241 0.3006253385567515 0 0.25966125648670141 0.34351016742083729 0 0.22615676742807109 0.33458786033114157 0 0.93814194660195893 0.44426664081746747 0 0.90594285160987287 0.4141265964174129 0 0.95871855522754235 0.40006508612975411 0 0.91750694127107502 0.36982372220068471 0 0.95871855522754235 0.40006508612975411 0 0.90594285160987287 0.4141265964174129 0 0.91750694127105259 0.63017627779935648 0 0.91143117093204207 0.58709913730335972 0 0.95867599106212187 0.60011091146651041 0 0.93732437411268477 0.55911392101136159 0 0.95867599106212187 0.60011091146651041 0 0.91143117093204207 0.58709913730335972 0 0.50715858906372158 0.63295939104129484 0 0.5498280205245758 0.6290146943450976 0 0.52584555706968406 0.66664215091846768 0 0.94399509803918602 0.75600490196082126 0 0.97435614836745565 0.77499999999987745 0 0.95386563387742829 0.80414874155775029 0 0.94399509803922566 0.056004901960802607 0 0.97435614836748241 0.074999999999825387 0 0.95386563387744361 0.1041487415577465 0 0.94399509803921056 0.24399509803922639 0 0.95391631417672862 0.19584263333809451 0 0.97435614836740092 0.22499999999981049 0 0.94399509803919068 0.9439950980391687 0 0.95391631417670719 0.89584263333814784 0 0.97435614836744289 0.92499999999990257 0 0.79680861578988083 0.92656778056766709 0 0.75729602384198635 0.92353652857884294 0 0.76891166905518427 0.88835469571185499 0 0.79680861578956375 0.22656778056752541 0 0.75668890529066124 0.2244279804069782 0 0.76587607630038135 0.18880039518954719 0 0.65394964615507722 0.22666784374016369 0 0.6865991819015953 0.189116534044597 0 0.69397719155551807 0.2245125647000914 0 0.38083244760691543 0.38531983672244652 0 0.38707855792647411 0.42299362914874578 0 0.35221190152536241 0.40457127605439203 0 1 0.7999999999998193 0 0.95386563387742829 0.80414874155775029 0 0.97435614836745565 0.77499999999987745 0 1 0.099999999999753911 0 0.95386563387744361 0.1041487415577465 0 0.97435614836748241 0.074999999999825387 0 1 0.8999999999998336 0 0.97435614836744289 0.92499999999990257 0 0.95391631417670719 0.89584263333814784 0 1 0.19999999999974799 0 0.97435614836740092 0.22499999999981049 0 0.95391631417672862 0.19584263333809451 0 0.84723782639812573 0.48638347960178252 0 0.81400510706333218 0.47357325943904899 0 0.84925632466077294 0.45359738909549091 0 0.54999999999999993 0.29999999999999999 0 0.54248833945060504 0.2520322959927106 0 0.5794309697024993 0.27124795968204829 0 0.94999999999999996 0.29999999999999999 0 0.95780851984364423 0.34215720972155339 0 0.92012390126144183 0.33123581297173937 0 0.94999999999999996 0.69999999999999996 0 0.92057473616084773 0.66770436535372446 0 0.9578014258160763 0.65787212321113708 0 0.15801167086041079 0.46008690540259539 0 0.113541300460994 0.46208784312094731 0 0.13773355295499351 0.42497777642586831 0 0.7250000000005199 0.94981617647078953 0 0.68015064798562208 0.95924320340003011 0 0.68987011941058407 0.92105047536677087 0 0.65507451745379841 0.92229208810758578 0 0.68987011941058407 0.92105047536677087 0 0.68015064798562208 0.95924320340003011 0 0.77846603114747959 0.49850927265137401 0 0.77972660463949339 0.45529290596363098 0 0.81400510706333218 0.47357325943904899 0 0.27866744612395528 0.38416094670951489 0 0.25966125648670141 0.34351016742083729 0 0.29644548887253103 0.34914008784168082 0 0.61209567303293111 0.44669033081290321 0 0.61547661924074692 0.48539576058873962 0 0.57975577671020095 0.46172033326338591 0 0.57611405284611883 0.50165903596042916 0 0.57975577671020095 0.46172033326338591 0 0.61547661924074692 0.48539576058873962 0 0.7250000000005199 0.89375000000045834 0 0.76891166905518427 0.88835469571185499 0 0.75729602384198635 0.92353652857884294 0 0.72500000000001008 0.19776155966387679 0 0.76587607630038135 0.18880039518954719 0 0.75668890529066124 0.2244279804069782 0 0.72500000000001008 0.19776155966387679 0 0.69397719155551807 0.2245125647000914 0 0.6865991819015953 0.189116534044597 0 0.083411279318303222 0.089699755330707398 0 0.12372429750337779 0.095814237875728972 0 0.1053400320299198 0.12877248826361379 0 0.083411279318375747 0.91030024466934134 0 0.10562472963403439 0.87143394428979881 0 0.1241151115713819 0.9045666525468371 0 0.14617343800780541 0.93808063414349496 0 0.1241151115713819 0.9045666525468371 0 0.16206583317966519 0.89685560785156404 0 0.14618258501891079 0.062070108745602003 0 0.16141998738593399 0.10404039647458049 0 0.12372429750337779 0.095814237875728972 0 0.33277555741076909 0.36432196682010132 0 0.35221190152536241 0.40457127605439203 0 0.31778888742534622 0.40581751814196781 0 0.7250000000005199 0.94981617647078953 0 0.75729602384198635 0.92353652857884294 0 0.770759834363826 0.95919399014344442 0 0.72500000000000064 0.2498161764706 0 0.75668890529066124 0.2244279804069782 0 0.77075983436335049 0.25919399014334171 0 0.72500000000000064 0.2498161764706 0 0.67933712972090698 0.25920070958121938 0 0.69397719155551807 0.2245125647000914 0 0.6236733212988993 0.14864538214901801 0 0.61956000905586006 0.1043312481793135 0 0.65290632656860115 0.11434202593454081 0 0.81973119833356312 0.43505687159469048 0 0.81400510706333218 0.47357325943904899 0 0.77972660463949339 0.45529290596363098 0 0.25676291524611189 0.7436741304886243 0 0.29904318922293632 0.74132814928635593 0 0.2792923945214143 0.77665808831789485 0 0.36575549820117997 0.31677992835137742 0 0.32752639306529541 0.32610012995269699 0 0.33402499257867951 0.28911035184473982 0 0.14332333627550789 0.14578431753966009 0 0.18652628422869419 0.14162325200928061 0 0.18124454140915969 0.18790916706335251 0 0.57724883562309992 0.92155686857100794 0 0.5832743223239254 0.88483152652961872 0 0.61885627562261258 0.90282959257498208 0 0.57667858002728545 0.078486105337742612 0 0.61956000905586006 0.1043312481793135 0 0.58516465772821369 0.11653801664834119 0 0.80185942888539485 0.77452061303608133 0 0.80041942726660109 0.81543261647703358 0 0.77094201086366854 0.79647480515688507 0 0.80185942888501827 0.074520613036224564 0 0.80076557130237269 0.1154587552654202 0 0.76878382444651716 0.097147941686331368 0 0.64753070846764316 0.77332939069435502 0 0.68024162096458085 0.79868546898116533 0 0.65005442820240822 0.82644988530054031 0 0.26429849586623999 0.19346700179430079 0 0.25557216766470708 0.15874861286892261 0 0.29336099386129338 0.15892013001050981 0 0.29348325746214782 0.31350119524708198 0 0.29644548887253103 0.34914008784168082 0 0.25966125648670141 0.34351016742083729 0 0.68391457121233579 0.14440470121196541 0 0.65290632656860115 0.11434202593454081 0 0.68330259535470161 0.10038702501083881 0 0.91750694127107502 0.36982372220068471 0 0.92012390126144183 0.33123581297173937 0 0.95780851984364423 0.34215720972155339 0 0.91750694127105259 0.63017627779935648 0 0.9578014258160763 0.65787212321113708 0 0.92057473616084773 0.66770436535372446 0 0.22033343844674469 0.36963382230740238 0 0.22615676742807109 0.33458786033114157 0 0.25966125648670141 0.34351016742083729 0 1 0.94999999999997109 0 0.97166519676946206 0.96662885509935492 0 0.97435614836744289 0.92499999999990257 0 0.94399509803919068 0.9439950980391687 0 0.97435614836744289 0.92499999999990257 0 0.97166519676946206 0.96662885509935492 0 0.94399509803921056 0.24399509803922639 0 0.97435614836740092 0.22499999999981049 0 0.97166519676951801 0.26662885509932011 0 1 0.24999999999987299 0 0.97166519676951801 0.26662885509932011 0 0.97435614836740092 0.22499999999981049 0 1 0.74999999999993494 0 0.97435614836745565 0.77499999999987745 0 0.97166519676947294 0.73337114490064459 0 1 0.049999999999896842 0 0.97435614836748241 0.074999999999825387 0 0.97166519676946894 0.033371144900598393 0 0.94399509803918602 0.75600490196082126 0 0.97166519676947294 0.73337114490064459 0 0.97435614836745565 0.77499999999987745 0 0.94399509803922566 0.056004901960802607 0 0.97166519676946894 0.033371144900598393 0 0.97435614836748241 0.074999999999825387 0 0.77846603114747959 0.49850927265137401 0 0.81400510706333218 0.47357325943904899 0 0.81441713509985358 0.51161854125224959 0 0.77354604466818633 0.40378688774472771 0 0.72622533758026719 0.40265885511101601 0 0.74764719760526988 0.3719647154012321 0 0.71508799138962864 0.36622814920737751 0 0.74764719760526988 0.3719647154012321 0 0.72622533758026719 0.40265885511101601 0 0.84723782639812573 0.48638347960178252 0 0.84925632466077294 0.45359738909549091 0 0.88594198078881503 0.46167788676578442 0 0.86411095495256451 0.42388805655111889 0 0.88594198078881503 0.46167788676578442 0 0.84925632466077294 0.45359738909549091 0 0.43846182030517877 0.64845797726506715 0 0.43545892161006339 0.61093128915313821 0 0.47095389620662098 0.61892551373708504 0 0.33123028043633618 0.77629643437932982 0 0.35642984951668422 0.80994399665655703 0 0.30857225866488791 0.81101973481716805 0 0.33403534827021109 0.84402799729020661 0 0.30857225866488791 0.81101973481716805 0 0.35642984951668422 0.80994399665655703 0 0.26429849586623999 0.19346700179430079 0 0.31255190597181792 0.19850845631528771 0 0.28040350263641872 0.23054717217092141 0 0.57724883562309992 0.92155686857100794 0 0.54783390826260769 0.89287767010860219 0 0.5832743223239254 0.88483152652961872 0 0.55899371797446828 0.85003102233514438 0 0.5832743223239254 0.88483152652961872 0 0.54783390826260769 0.89287767010860219 0 0.4089290844030305 0.58728915500154233 0 0.43545892161006339 0.61093128915313821 0 0.39743091024207589 0.6239520004230239 0 0.77293540622714185 0.59448302402785813 0 0.81723410853263523 0.59419663659258926 0 0.79884539758237771 0.62875045078114233 0 0.83758014339878906 0.63222013025741819 0 0.79884539758237771 0.62875045078114233 0 0.81723410853263523 0.59419663659258926 0 0.35864735590330371 0.63903383440414463 0 0.39743091024207589 0.6239520004230239 0 0.3977710372045391 0.65868194622830212 0 0.56202748619534593 0.15054058349222879 0 0.54979595918804436 0.1060565713905809 0 0.58516465772821369 0.11653801664834119 0 0.57667858002728545 0.078486105337742612 0 0.58516465772821369 0.11653801664834119 0 0.54979595918804436 0.1060565713905809 0 0.33122374654748771 0.57588941099433744 0 0.37272913873093971 0.56192925302619479 0 0.35765792684946668 0.6000687869219653 0 0.35864735590330371 0.63903383440414463 0 0.35765792684946668 0.6000687869219653 0 0.39743091024207589 0.6239520004230239 0 0.71508799138962864 0.36622814920737751 0 0.68887083591306764 0.33632058575757479 0 0.73090396928863699 0.33699297293167962 0 0.29348325746214782 0.31350119524708198 0 0.32752639306529541 0.32610012995269699 0 0.29644548887253103 0.34914008784168082 0 0.33277555741076909 0.36432196682010132 0 0.29644548887253103 0.34914008784168082 0 0.32752639306529541 0.32610012995269699 0 0.34258405725730701 0.4444034294386992 0 0.31778888742534622 0.40581751814196781 0 0.35221190152536241 0.40457127605439203 0 0.79999999999999982 0.69999999999999996 0 0.81864958914779962 0.73589050177899629 0 0.78578450296893509 0.73292684821144505 0 0.79999999999947335 0 0 0.81864958914740749 0.035890501779055867 0 0.78393852574753176 0.032039079577822822 0 0.27474541102162192 0.11822029332053539 0 0.29336099386129338 0.15892013001050981 0 0.25557216766470708 0.15874861286892261 0 0 0.45000000000187229 0 0.035463093262830522 0.42673416072819947 0 0.033550201249889847 0.46247875832467239 0 0.6499999999999998 0.69999999999999996 0 0.66427993341343905 0.73232764502436276 0 0.63221990677827677 0.73442891067859706 0 0.84723782639812573 0.48638347960178252 0 0.81441713509985358 0.51161854125224959 0 0.81400510706333218 0.47357325943904899 0 0.26104540868854792 0.81401944968719064 0 0.30857225866488791 0.81101973481716805 0 0.29209212897034281 0.84715728365233667 0 0.33403534827021109 0.84402799729020661 0 0.29209212897034281 0.84715728365233667 0 0.30857225866488791 0.81101973481716805 0 0.69999999999999984 0.29999999999999999 0 0.73090396928863699 0.33699297293167962 0 0.68887083591306764 0.33632058575757479 0 
</DataArray>
</Points>
<Cells>
<DataArray type="UInt32" Name="connectivity" format="ascii">
0 1 2 3 4 5 6 7 8 9 10 11 12 13 14 15 16 17 18 19 20 21 22 23 24 25 26 27 28 29 30 31 32 33 34 35 36 37 38 39 40 41 42 43 44 45 46 47 48 49 50 51 52 53 54 55 56 57 58 59 60 61 62 63 64 65 66 67 68 69 70 71 72 73 74 75 76 77 78 79 80 81 82 83 84 85 86 87 88 89 90 91 92 93 94 95 96 97 98 99 100 101 102 103 104 105 106 107 108 109 110 111 112 113 114 115 116 117 118 119 120 121 122 123 124 125 126 127 128 129 130 131 132 133 134 135 136 137 138 139 140 141 142 143 144 145 146 147 148 149 150 151 152 153 154 155 156 157 158 159 160 161 162 163 164 165 166 167 168 169 170 171 172 173 174 175 176 177 178 179 180 181 182 183 184 185 186 187 188 189 190 191 192 193 194 195 196 197 198 199 200 201 202 203 204 205 206 207 208 209 210 211 212 213 214 215 216 217 218 219 220 221 222 223 224 225 226 227 228 229 230 231 232 233 234 235 236 237 238 239 240 241 242 243 244 245 246 247 248 249 250 251 252 253 254 255 256 257 258 259 260 261 262 263 264 265 266 267 268 269 270 271 272 273 274 275 276 277 278 279 280 281 282 283 284 285 286 287 288 289 290 291 292 293 294 295 296 297 298 299 300 301 302 303 304 305 306 307 308 309 310 311 312 313 314 315 316 317 318 319 320 321 322 323 324 325 326 327 328 329 330 331 332 333 334 335 336 337 338 339 340 341 342 343 344 345 346 347 348 349 350 351 352 353 354 355 356 357 358 359 360 361 362 363 364 365 366 367 368 369 370 371 372 373 374 375 376 377 378 379 380 381 382 383 384 385 386 387 388 389 390 391 392 393 394 395 396 397 398 399 400 401 402 403 404 405 406 407 408 409 410 411 412 413 414 415 416 417 418 419 420 421 422 423 424 425 426 427 428 429 430 431 432 433 434 435 436 437 438 439 440 441 442 443 444 445 446 447 448 449 450 451 452 453 454 455 456 457 458 459 460 461 462 463 464 465 466 467 468 469 470 471 472 473 474 475 476 477 478 479 480 481 482 483 484 485 486 487 488 489 490 491 492 493 494 495 496 497 498 499 500 501 502 503 504 505 506 507 508 509 510 511 512 513 514 515 516 517 518 519 520 521 522 523 524 525 526 527 528 529 530 531 532 533 534 535 536 537 538 539 540 541 542 543 544 545 546 547 548 549 550 551 552 553 554 555 556 557 558 559 560 561 562 563 564 565 566 567 568 569 570 571 572 573 574 575 576 577 578 579 580 581 582 583 584 585 586 587 588 589 590 591 592 593 594 595 596 597 598 599 600 601 602 603 604 605 606 607 608 609 610 611 612 613 614 615 616 617 618 619 620 621 622 623 624 625 626 627 628 629 630 631 632 633 634 635 636 637 638 639 640 641 642 643 644 645 646 647 648 649 650 651 652 653 654 655 656 657 658 659 660 661 662 663 664 665 666 667 668 669 670 671 672 673 674 675 676 677 678 679 680 681 682 683 684 685 686 687 688 689 690 691 692 693 694 695 696 697 698 699 700 701 702 703 704 705 706 707 708 709 710 711 712 713 714 715 716 717 718 719 720 721 722 723 724 725 726 727 728 729 730 731 732 733 734 735 736 737 738 739 740 741 742 743 744 745 746 747 748 749 750 751 752 753 754 755 756 757 758 759 760 761 762 763 764 765 766 767 768 769 770 771 772 773 774 775 776 777 778 779 780 781 782 783 784 785 786 787 788 789 790 791 792 793 794 795 796 797 798 799 800 801 802 803 804 805 806 807 808 809 810 811 812 813 814 815 816 817 818 819 820 821 822 823 824 825 826 827 828 829 830 831 832 833 834 835 836 837 838 839 840 841 842 843 844 845 846 847 848 849 850 851 852 853 854 855 856 857 858 859 860 861 862 863 864 865 866 867 868 869 870 871 872 873 874 875 876 877 878 879 880 881 882 883 884 885 886 887 888 889 890 891 892 893 894 895 896 897 898 899 900 901 902 903 904 905 906 907 908 909 910 911 912 913 914 915 916 917 918 919 920 921 922 923 924 925 926 927 928 929 930 931 932 933 934 935 936 937 938 939 940 941 942 943 944 945 946 947 948 949 950 951 952 953 954 955 956 957 958 959 960 961 962 963 964 965 966 967 968 969 970 971 972 973 974 975 976 977 978 979 980 981 982 983 984 985 986 987 988 989 990 991 992 993 994 995 996 997 998 999 1000 1001 1002 1003 1004 1005 1006 1007 1008 1009 1010 1011 1012 1013 1014 1015 1016 1017 1018 1019 1020 1021 1022 1023 1024 1025 1026 1027 1028 1029 1030 1031 1032 1033 1034 1035 1036 1037 1038 1039 1040 1041 1042 1043 1044 1045 1046 1047 1048 1049 1050 1051 1052 1053 1054 1055 1056 1057 1058 1059 1060 1061 1062 1063 1064 1065 1066 1067 1068 1069 1070 1071 1072 1073 1074 1075 1076 1077 1078 1079 1080 1081 1082 1083 1084 1085 1086 1087 1088 1089 1090 1091 1092 1093 1094 1095 1096 1097 1098 1099 1100 1101 1102 1103 1104 1105 1106 1107 1108 1109 1110 1111 1112 1113 1114 1115 1116 1117 1118 1119 1120 1121 1122 1123 1124 1125 1126 1127 1128 1129 1130 1131 1132 1133 1134 1135 1136 1137 1138 1139 1140 1141 1142 1143 1144 1145 1146 1147 1148 1149 1150 1151 1152 1153 1154 1155 1156 1157 1158 1159 1160 1161 1162 1163 1164 1165 1166 1167 1168 1169 1170 1171 1172 1173 1174 1175 1176 1177 1178 1179 1180 1181 1182 1183 1184 1185 1186 1187 1188 1189 1190 1191 1192 1193 1194 1195 1196 1197 1198 1199 1200 1201 1202 1203 1204 1205 1206 1207 1208 1209 1210 1211 1212 1213 1214 1215 1216 1217 1218 1219 1220 1221 1222 1223 1224 1225 1226 1227 1228 1229 1230 1231 1232 1233 1234 1235 1236 1237 1238 1239 1240 1241 1242 1243 1244 1245 1246 1247 1248 1249 1250 1251 1252 1253 1254 1255 1256 1257 1258 1259 1260 1261 1262 1263 1264 1265 1266 1267 1268 1269 1270 1271 1272 1273 1274 1275 1276 1277 1278 1279 1280 1281 1282 1283 1284 1285 1286 1287 1288 1289 1290 1291 1292 1293 1294 1295 1296 1297 1298 1299 1300 1301 1302 1303 1304 1305 1306 1307 1308 1309 1310 1311 1312 1313 1314 1315 1316 1317 1318 1319 1320 1321 1322 1323 1324 1325 1326 1327 1328 1329 1330 1331 1332 1333 1334 1335 1336 1337 1338 1339 1340 1341 1342 1343 1344 1345 1346 1347 1348 1349 1350 1351 1352 1353 1354 1355 1356 1357 1358 1359 1360 1361 1362 1363 1364 1365 1366 1367 1368 1369 1370 1371 1372 1373 1374 1375 1376 1377 1378 1379 1380 1381 1382 1383 1384 1385 1386 1387 1388 1389 1390 1391 1392 1393 1394 1395 1396 1397 1398 1399 1400 1401 1402 1403 1404 1405 1406 1407 1408 1409 1410 1411 1412 1413 1414 1415 1416 1417 1418 1419 1420 1421 1422 1423 1424 1425 1426 1427 1428 1429 1430 1431 1432 1433 1434 1435 1436 1437 1438 1439 1440 1441 1442 1443 1444 1445 1446 1447 1448 1449 1450 1451 1452 1453 1454 1455 1456 1457 1458 1459 1460 1461 1462 1463 1464 1465 1466 1467 1468 1469 1470 1471 1472 1473 1474 1475 1476 1477 1478 1479 1480 1481 1482 1483 1484 1485 1486 1487 1488 1489 1490 1491 1492 1493 1494 1495 1496 1497 1498 1499 1500 1501 1502 1503 1504 1505 1506 1507 1508 1509 1510 1511 1512 1513 1514 1515 1516 1517 1518 1519 1520 1521 1522 1523 1524 1525 1526 1527 1528 1529 1530 1531 1532 1533 1534 1535 1536 1537 1538 1539 1540 1541 1542 1543 1544 1545 1546 1547 1548 1549 1550 1551 1552 1553 1554 1555 1556 1557 1558 1559 1560 1561 1562 1563 1564 1565 1566 1567 1568 1569 1570 1571 1572 1573 1574 1575 1576 1577 1578 1579 1580 1581 1582 1583 1584 1585 1586 1587 1588 1589 1590 1591 1592 1593 1594 1595 1596 1597 1598 1599 1600 1601 1602 1603 1604 1605 1606 1607 1608 1609 1610 1611 1612 1613 1614 1615 1616 1617 1618 1619 1620 1621 1622 1623 1624 1625 1626 1627 1628 1629 1630 1631 1632 1633 1634 1635 1636 1637 1638 1639 1640 1641 1642 1643 1644 1645 1646 1647 1648 1649 1650 1651 1652 1653 1654 1655 1656 1657 1658 1659 1660 1661 1662 1663 1664 1665 1666 1667 1668 1669 1670 1671 1672 1673 1674 1675 1676 1677 1678 1679 1680 1681 1682 1683 1684 1685 1686 1687 1688 1689 1690 1691 1692 1693 1694 1695 1696 1697 1698 1699 1700 1701 1702 1703 1704 1705 1706 1707 1708 1709 1710 1711 1712 1713 1714 1715 1716 1717 1718 1719 1720 1721 1722 1723 1724 1725 1726 1727 1728 1729 1730 1731 1732 1733 1734 1735 1736 1737 1738 1739 1740 1741 1742 1743 1744 1745 1746 1747 1748 1749 1750 1751 1752 1753 1754 1755 1756 1757 1758 1759 1760 1761 1762 1763 1764 1765 1766 1767 1768 1769 1770 1771 1772 1773 1774 1775 1776 1777 1778 1779 1780 1781 1782 1783 1784 1785 1786 1787 1788 1789 1790 1791 1792 1793 1794 1795 1796 1797 1798 1799 1800 1801 1802 1803 1804 1805 1806 1807 1808 1809 1810 1811 1812 1813 1814 1815 1816 1817 1818 1819 1820 1821 1822 1823 1824 1825 1826 1827 1828 1829 1830 1831 1832 1833 1834 1835 1836 1837 1838 1839 1840 1841 1842 1843 1844 1845 1846 1847 1848 1849 1850 1851 1852 1853 1854 1855 1856 1857 1858 1859 1860 1861 1862 1863 1864 1865 1866 1867 1868 1869 1870 1871 1872 1873 1874 1875 1876 1877 1878 1879 1880 1881 1882 1883 1884 1885 1886 1887 1888 1889 1890 1891 1892 1893 1894 1895 1896 1897 1898 1899 1900 1901 1902 1903 1904 1905 1906 1907 1908 1909 1910 1911 1912 1913 1914 1915 1916 1917 1918 1919 1920 1921 1922 1923 1924 1925 1926 1927 1928 1929 1930 1931 1932 1933 1934 1935 1936 1937 1938 1939 1940 1941 1942 1943 1944 1945 1946 1947 1948 1949 1950 1951 1952 1953 1954 1955 1956 1957 1958 1959 1960 1961 1962 1963 1964 1965 1966 1967 1968 1969 1970 1971 1972 1973 1974 1975 1976 1977 1978 1979 1980 1981 1982 1983 1984 1985 1986 1987 1988 1989 1990 1991 1992 1993 1994 1995 1996 1997 1998 1999 2000 2001 2002 2003 2004 2005 2006 2007 2008 2009 2010 2011 2012 2013 2014 2015 2016 2017 2018 2019 2020 2021 2022 2023 2024 2025 2026 2027 2028 2029 2030 2031 2032 2033 2034 2035 2036 2037 2038 2039 2040 2041 2042 2043 2044 2045 2046 2047 2048 2049 2050 2051 2052 2053 2054 2055 2056 2057 2058 2059 2060 2061 2062 2063 2064 2065 2066 2067 2068 2069 2070 2071 2072 2073 2074 2075 2076 2077 2078 2079 2080 2081 2082 2083 2084 2085 2086 2087 2088 2089 2090 2091 2092 2093 2094 2095 2096 2097 2098 2099 2100 2101 2102 2103 2104 2105 2106 2107 2108 2109 2110 2111 2112 2113 2114 2115 2116 2117 2118 2119 2120 2121 2122 2123 2124 2125 2126 2127 2128 2129 2130 2131 2132 2133 2134 2135 2136 2137 2138 2139 2140 2141 2142 2143 2144 2145 2146 2147 2148 2149 2150 2151 2152 2153 2154 2155 2156 2157 2158 2159 2160 2161 2162 2163 2164 2165 2166 2167 2168 2169 2170 2171 2172 2173 2174 2175 2176 2177 2178 2179 2180 2181 2182 2183 2184 2185 2186 2187 2188 2189 2190 2191 2192 2193 2194 2195 2196 2197 2198 2199 2200 2201 2202 2203 2204 2205 2206 2207 2208 2209 2210 2211 2212 2213 2214 2215 2216 2217 2218 2219 2220 2221 2222 2223 2224 2225 2226 2227 2228 2229 2230 2231 2232 2233 2234 2235 2236 2237 2238 2239 2240 2241 2242 2243 2244 2245 2246 2247 2248 2249 2250 2251 2252 2253 2254 2255 2256 2257 2258 2259 2260 2261 2262 2263 2264 2265 2266 2267 2268 2269 2270 2271 2272 2273 2274 2275 2276 2277 2278 2279 2280 2281 2282 2283 2284 2285 2286 2287 2288 2289 2290 2291 2292 2293 2294 2295 2296 2297 2298 2299 2300 2301 2302 2303 2304 2305 2306 2307 2308 2309 2310 2311 2312 2313 2314 2315 2316 2317 2318 2319 2320 2321 2322 2323 2324 2325 2326 2327 2328 2329 2330 2331 2332 2333 2334 2335 2336 2337 2338 2339 2340 2341 2342 2343 2344 2345 2346 2347 2348 2349 2350 2351 2352 2353 2354 2355 2356 2357 2358 2359 2360 2361 2362 2363 2364 2365 2366 2367 2368 2369 2370 2371 2372 2373 2374 2375 2376 2377 2378 2379 2380 2381 2382 2383 2384 2385 2386 2387 2388 2389 2390 2391 2392 2393 2394 2395 2396 2397 2398 2399 2400 2401 2402 2403 2404 2405 2406 2407 2408 2409 2410 2411 2412 2413 2414 2415 2416 2417 2418 2419 2420 2421 2422 2423 2424 2425 2426 2427 2428 2429 2430 2431 2432 2433 2434 2435 2436 2437 2438 2439 2440 2441 2442 2443 2444 2445 2446 2447 2448 2449 2450 2451 2452 2453 2454 2455 2456 2457 2458 2459 2460 2461 2462 2463 2464 2465 2466 2467 2468 2469 2470 2471 2472 2473 2474 2475 2476 2477 2478 2479 2480 2481 2482 2483 2484 2485 2486 2487 2488 2489 2490 2491 2492 2493 2494 2495 2496 2497 2498 2499 2500 2501 2502 2503 2504 2505 2506 2507 2508 2509 2510 2511 2512 2513 2514 2515 2516 2517 2518 2519 2520 2521 2522 2523 2524 2525 2526 2527 2528 2529 2530 2531 2532 2533 2534 2535 2536 2537 2538 2539 2540 2541 2542 2543 2544 2545 2546 2547 2548 2549 2550 2551 2552 2553 2554 2555 2556 2557 2558 2559 2560 2561 2562 2563 2564 2565 2566 2567 2568 2569 2570 2571 2572 2573 2574 2575 2576 2577 2578 2579 2580 2581 2582 2583 2584 2585 2586 2587 2588 2589 2590 2591 2592 2593 2594 2595 2596 2597 2598 2599 2600 2601 2602 2603 2604 2605 2606 2607 2608 2609 2610 2611 2612 2613 2614 2615 2616 2617 2618 2619 2620 2621 2622 2623 2624 2625 2626 2627 2628 2629 2630 2631 2632 2633 2634 2635 2636 2637 2638 2639 2640 2641 2642 2643 2644 2645 2646 2647 2648 2649 2650 2651 2652 2653 2654 2655 2656 2657 2658 2659 2660 2661 2662 2663 2664 2665 2666 2667 2668 2669 2670 2671 2672 2673 2674 2675 2676 2677 2678 2679 2680 2681 2682 2683 2684 2685 2686 2687 2688 2689 2690 2691 2692 2693 2694 2695 2696 2697 2698 2699 2700 2701 2702 2703 2704 2705 2706 2707 2708 2709 2710 2711 2712 2713 2714 2715 2716 2717 2718 2719 2720 2721 2722 2723 2724 2725 2726 2727 2728 2729 2730 2731 2732 2733 2734 2735 2736 2737 2738 2739 2740 2741 2742 2743 2744 2745 2746 2747 2748 2749 2750 2751 2752 2753 2754 2755 2756 2757 2758 2759 2760 2761 2762 2763 2764 2765 2766 2767 2768 2769 2770 2771 2772 2773 2774 2775 2776 2777 2778 2779 2780 2781 2782 2783 2784 2785 2786 2787 2788 2789 2790 2791 2792 2793 2794 2795 2796 2797 2798 2799 2800 2801 2802 2803 2804 2805 2806 2807 2808 2809 2810 2811 2812 2813 2814 2815 2816 2817 2818 2819 2820 2821 2822 2823 2824 2825 2826 2827 2828 2829 2830 2831 2832 2833 2834 2835 2836 2837 2838 2839 2840 2841 2842 2843 2844 2845 2846 2847 2848 2849 2850 2851 2852 2853 2854 2855 2856 2857 2858 2859 2860 2861 2862 2863 2864 2865 2866 2867 2868 2869 2870 2871 2872 2873 2874 2875 2876 2877 2878 2879 2880 2881 2882 2883 2884 2885 2886 2887 2888 2889 2890 2891 2892 2893 2894 2895 2896 2897 2898 2899 2900 2901 2902 2903 2904 2905 2906 2907 2908 2909 2910 2911 2912 2913 2914 2915 2916 2917 2918 2919 2920 2921 2922 2923 2924 2925 2926 2927 2928 2929 2930 2931 2932 2933 2934 2935 2936 2937 2938 2939 2940 2941 2942 2943 2944 2945 2946 2947 2948 2949 2950 2951 2952 2953 2954 2955 2956 2957 2958 2959 2960 2961 2962 2963 2964 2965 2966 2967 2968 2969 2970 2971 2972 2973 2974 2975 2976 2977 2978 2979 2980 2981 2982 2983 2984 2985 2986 2987 2988 2989 2990 2991 2992 2993 2994 2995 2996 2997 2998 2999 3000 3001 3002 3003 3004 3005 3006 3007 3008 3009 3010 3011 3012 3013 3014 3015 3016 3017 3018 3019 3020 3021 3022 3023 3024 3025 3026 3027 3028 3029 3030 3031 3032 3033 3034 3035 3036 3037 3038 3039 3040 3041 3042 3043 3044 3045 3046 3047 3048 3049 3050 3051 3052 3053 3054 3055 3056 3057 3058 3059 3060 3061 3062 3063 3064 3065 3066 3067 3068 3069 3070 3071 3072 3073 3074 3075 3076 3077 3078 3079 3080 3081 3082 3083 3084 3085 3086 3087 3088 3089 3090 3091 3092 3093 3094 3095 3096 3097 3098 3099 3100 3101 3102 3103 3104 3105 3106 3107 3108 3109 3110 3111 3112 3113 3114 3115 3116 3117 3118 3119 3120 3121 3122 3123 3124 3125 3126 3127 3128 3129 3130 3131 3132 3133 3134 3135 3136 3137 3138 3139 3140 3141 
</DataArray>
<DataArray type="UInt32" Name="offsets" format="ascii">
2 4 6 8 10 12 14 16 18 20 22 24 26 28 30 32 34 36 38 40 43 46 49 52 55 58 61 64 67 70 73 76 79 82 85 88 91 94 97 100 103 106 109 112 115 118 121 124 127 130 133 136 139 142 145 148 151 154 157 160 163 166 169 172 175 178 181 184 187 190 193 196 199 202 205 208 211 214 217 220 223 226 229 232 235 238 241 244 247 250 253 256 259 262 265 268 271 274 277 280 283 286 289 292 295 298 301 304 307 310 313 316 319 322 325 328 331 334 337 340 343 346 349 352 355 358 361 364 367 370 373 376 379 382 385 388 391 394 397 400 403 406 409 412 415 418 421 424 427 430 433 436 439 442 445 448 451 454 457 460 463 466 469 472 475 478 481 484 487 490 493 496 499 502 505 508 511 514 517 520 523 526 529 532 535 538 541 544 547 550 553 556 559 562 565 568 571 574 577 580 583 586 589 592 595 598 601 604 607 610 613 616 619 622 625 628 631 634 637 640 643 646 649 652 655 658 661 664 667 670 673 676 679 682 685 688 691 694 697 700 703 706 709 712 715 718 721 724 727 730 733 736 739 742 745 748 751 754 757 760 763 766 769 772 775 778 781 784 787 790 793 796 799 802 805 808 811 814 817 820 823 826 829 832 835 838 841 844 847 850 853 856 859 862 865 868 871 874 877 880 883 886 889 892 895 898 901 904 907 910 913 916 919 922 925 928 931 934 937 940 943 946 949 952 955 958 961 964 967 970 973 976 979 982 985 988 991 994 997 1000 1003 1006 1009 1012 1015 1018 1021 1024 1027 1030 1033 1036 1039 1042 1045 1048 1051 1054 1057 1060 1063 1066 1069 1072 1075 1078 1081 1084 1087 1090 1093 1096 1099 1102 1105 1108 1111 1114 1117 1120 1123 1126 1129 1132 1135 1138 1141 1144 1147 1150 1153 1156 1159 1162 1165 1168 1171 1174 1177 1180 1183 1186 1189 1192 1195 1198 1201 1204 1207 1210 1213 1216 1219 1222 1225 1228 1231 1234 1237 1240 1243 1246 1249 1252 1255 1258 1261 1264 1267 1270 1273 1276 1279 1282 1285 1288 1291 1294 1297 1300 1303 1306 1309 1312 1315 1318 1321 1324 1327 1330 1333 1336 1339 1342 1345 1348 1351 1354 1357 1360 1363 1366 1369 1372 1375 1378 1381 1384 1387 1390 1393 1396 1399 1402 1405 1408 1411 1414 1417 1420 1423 1426 1429 1432 1435 1438 1441 1444 1447 1450 1453 1456 1459 1462 1465 1468 1471 1474 1477 1480 1483 1486 1489 1492 1495 1498 1501 1504 1507 1510 1513 1516 1519 1522 1525 1528 1531 1534 1537 1540 1543 1546 1549 1552 1555 1558 1561 1564 1567 1570 1573 1576 1579 1582 1585 1588 1591 1594 1597 1600 1603 1606 1609 1612 1615 1618 1621 1624 1627 1630 1633 1636 1639 1642 1645 1648 1651 1654 1657 1660 1663 1666 1669 1672 1675 1678 1681 1684 1687 1690 1693 1696 1699 1702 1705 1708 1711 1714 1717 1720 1723 1726 1729 1732 1735 1738 1741 1744 1747 1750 1753 1756 1759 1762 1765 1768 1771 1774 1777 1780 1783 1786 1789 1792 1795 1798 1801 1804 1807 1810 1813 1816 1819 1822 1825 1828 1831 1834 1837 1840 1843 1846 1849 1852 1855 1858 1861 1864 1867 1870 1873 1876 1879 1882 1885 1888 1891 1894 1897 1900 1903 1906 1909 1912 1915 1918 1921 1924 1927 1930 1933 1936 1939 1942 1945 1948 1951 1954 1957 1960 1963 1966 1969 1972 1975 1978 1981 1984 1987 1990 1993 1996 1999 2002 2005 2008 2011 2014 2017 2020 2023 2026 2029 2032 2035 2038 2041 2044 2047 2050 2053 2056 2059 2062 2065 2068 2071 2074 2077 2080 2083 2086 2089 2092 2095 2098 2101 2104 2107 2110 2113 2116 2119 2122 2125 2128 2131 2134 2137 2140 2143 2146 2149 2152 2155 2158 2161 2164 2167 2170 2173 2176 2179 2182 2185 2188 2191 2194 2197 2200 2203 2206 2209 2212 2215 2218 2221 2224 2227 2230 2233 2236 2239 2242 2245 2248 2251 2254 2257 2260 2263 2266 2269 2272 2275 2278 2281 2284 2287 2290 2293 2296 2299 2302 2305 2308 2311 2314 2317 2320 2323 2326 2329 2332 2335 2338 2341 2344 2347 2350 2353 2356 2359 2362 2365 2368 2371 2374 2377 2380 2383 2386 2389 2392 2395 2398 2401 2404 2407 2410 2413 2416 2419 2422 2425 2428 2431 2434 2437 2440 2443 2446 2449 2452 2455 2458 2461 2464 2467 2470 2473 2476 2479 2482 2485 2488 2491 2494 2497 2500 2503 2506 2509 2512 2515 2518 2521 2524 2527 2530 2533 2536 2539 2542 2545 2548 2551 2554 2557 2560 2563 2566 2569 2572 2575 2578 2581 2584 2587 2590 2593 2596 2599 2602 2605 2608 2611 2614 2617 2620 2623 2626 2629 2632 2635 2638 2641 2644 2647 2650 2653 2656 2659 2662 2665 2668 2671 2674 2677 2680 2683 2686 2689 2692 2695 2698 2701 2704 2707 2710 2713 2716 2719 2722 2725 2728 2731 2734 2737 2740 2743 2746 2749 2752 2755 2758 2761 2764 2767 2770 2773 2776 2779 2782 2785 2788 2791 2794 2797 2800 2803 2806 2809 2812 2815 2818 2821 2824 2827 2830 2833 2836 2839 2842 2845 2848 2851 2854 2857 2860 2863 2866 2869 2872 2875 2878 2881 2884 2887 2890 2893 2896 2899 2902 2905 2908 2911 2914 2917 2920 2923 2926 2929 2932 2935 2938 2941 2944 2947 2950 2953 2956 2959 2962 2965 2968 2971 2974 2977 2980 2983 2986 2989 2992 2995 2998 3001 3004 3007 3010 3013 3016 3019 3022 3025 3028 3031 3034 3037 3040 3043 3046 3049 3052 3055 3058 3061 3064 3067 3070 3073 3076 3079 3082 3085 3088 3091 3094 3097 3100 3103 3106 3109 3112 3115 3118 3121 3124 3127 3130 3133 3136 3139 3142 
</DataArray>
<DataArray type="UInt32" Name="types" format="ascii">
3 3 3 3 3 3 3 3 3 3 3 3 3 3 3 3 3 3 3 3 5 5 5 5 5 5 5 5 5 5 5 5 5 5 5 5 5 5 5 5 5 5 5 5 5 5 5 5 5 5 5 5 5 5 5 5 5 5 5 5 5 5 5 5 5 5 5 5 5 5 5 5 5 5 5 5 5 5 5 5 5 5 5 5 5 5 5 5 5 5 5 5 5 5 5 5 5 5 5 5 5 5 5 5 5 5 5 5 5 5 5 5 5 5 5 5 5 5 5 5 5 5 5 5 5 5 5 5 5 5 5 5 5 5 5 5 5 5 5 5 5 5 5 5 5 5 5 5 5 5 5 5 5 5 5 5 5 5 5 5 5 5 5 5 5 5 5 5 5 5 5 5 5 5 5 5 5 5 5 5 5 5 5 5 5 5 5 5 5 5 5 5 5 5 5 5 5 5 5 5 5 5 5 5 5 5 5 5 5 5 5 5 5 5 5 5 5 5 5 5 5 5 5 5 5 5 5 5 5 5 5 5 5 5 5 5 5 5 5 5 5 5 5 5 5 5 5 5 5 5 5 5 5 5 5 5 5 5 5 5 5 5 5 5 5 5 5 5 5 5 5 5 5 5 5 5 5 5 5 5 5 5 5 5 5 5 5 5 5 5 5 5 5 5 5 5 5 5 5 5 5 5 5 5 5 5 5 5 5 5 5 5 5 5 5 5 5 5 5 5 5 5 5 5 5 5 5 5 5 5 5 5 5 5 5 5 5 5 5 5 5 5 5 5 5 5 5 5 5 5 5 5 5 5 5 5 5 5 5 5 5 5 5 5 5 5 5 5 5 5 5 5 5 5 5 5 5 5 5 5 5 5 5 5 5 5 5 5 5 5 5 5 5 5 5 5 5 5 5 5 5 5 5 5 5 5 5 5 5 5 5 5 5 5 5 5 5 5 5 5 5 5 5 5 5 5 5 5 5 5 5 5 5 5 5 5 5 5 5 5 5 5 5 5 5 5 5 5 5 5 5 5 5 5 5 5 5 5 5 5 5 5 5 5 5 5 5 5 5 5 5 5 5 5 5 5 5 5 5 5 5 5 5 5 5 5 5 5 5 5 5 5 5 5 5 5 5 5 5 5 5 5 5 5 5 5 5 5 5 5 5 5 5 5 5 5 5 5 5 5 5 5 5 5 5 5 5 5 5 5 5 5 5 5 5 5 5 5 5 5 5 5 5 5 5 5 5 5 5 5 5 5 5 5 5 5 5 5 5 5 5 5 5 5 5 5 5 5 5 5 5 5 5 5 5 5 5 5 5 5 5 5 5 5 5 5 5 5 5 5 5 5 5 5 5 5 5 5 5 5 5 5 5 5 5 5 5 5 5 5 5 5 5 5 5 5 5 5 5 5 5 5 5 5 5 5 5 5 5 5 5 5 5 5 5 5 5 5 5 5 5 5 5 5 5 5 5 5 5 5 5 5 5 5 5 5 5 5 5 5 5 5 5 5 5 5 5 5 5 5 5 5 5 5 5 5 5 5 5 5 5 5 5 5 5 5 5 5 5 5 5 5 5 5 5 5 5 5 5 5 5 5 5 5 5 5 5 5 5 5 5 5 5 5 5 5 5 5 5 5 5 5 5 5 5 5 5 5 5 5 5 5 5 5 5 5 5 5 5 5 5 5 5 5 5 5 5 5 5 5 5 5 5 5 5 5 5 5 5 5 5 5 5 5 5 5 5 5 5 5 5 5 5 5 5 5 5 5 5 5 5 5 5 5 5 5 5 5 5 5 5 5 5 5 5 5 5 5 5 5 5 5 5 5 5 5 5 5 5 5 5 5 5 5 5 5 5 5 5 5 5 5 5 5 5 5 5 5 5 5 5 5 5 5 5 5 5 5 5 5 5 5 5 5 5 5 5 5 5 5 5 5 5 5 5 5 5 5 5 5 5 5 5 5 5 5 5 5 5 5 5 5 5 5 5 5 5 5 5 5 5 5 5 5 5 5 5 5 5 5 5 5 5 5 5 5 5 5 5 5 5 5 5 5 5 5 5 5 5 5 5 5 5 5 5 5 5 5 5 5 5 5 5 5 5 5 5 5 5 5 5 5 5 5 5 5 5 5 5 5 5 5 5 5 5 5 5 5 5 5 5 5 5 5 5 5 5 5 5 5 5 5 5 5 5 5 5 5 5 5 5 5 5 5 5 5 5 5 5 5 5 5 5 5 5 5 5 5 5 5 5 5 5 5 5 5 5 5 5 5 5 5 5 5 5 5 5 5 5 5 5 5 5 5 5 5 5 5 5 5 5 5 5 5 5 5 5 5 5 5 5 5 5 5 5 5 5 5 5 5 5 5 5 5 5 5 5 5 5 5 5 5 5 5 
</DataArray>
</Cells>
<PointData Scalars="" Vectors="displacement," Tensors="">
<DataArray type="Float64" Name="displacement" NumberOfComponents="3" format="ascii">
6.7033779503275331e-06 -1.6678164738583959e-05 0 1.0697227291440305e-05 -2.262067451235888e-05 0 1.0697227291440305e-05 -2.262067451235888e-05 0 1.1568242721435997e-05 -3.0925769735839493e-05 0 1.1568242721435997e-05 -3.0925769735839493e-05 0 1.3019551432777618e-05 -4.1464941985046011e-05 0 1.3019551432777618e-05 -4.1464941985046011e-05 0 1.4522839013944181e-05 -5.2712697406389697e-05 0 1.4522839013944181e-05 -5.2712697406389697e-05 0 1.641278574573714e-05 -6.32829635340978e-05 0 1.641278574573714e-05 -6.32829635340978e-05 0 1.8785420143739183e-05 -7.5074459007550074e-05 0 1.8785420143739183e-05 -7.5074459007550074e-05 0 2.1374281826281068e-05 -8.6275711992853005e-05 0 2.1374281826281068e-05 -8.6275711992853005e-05 0 2.5585188715011157e-05 -9.9081459470857936e-05 0 2.5585188715011157e-05 -9.9081459470857936e-05 0 2.754609709508085e-05 -0.00010995944406030381 0 2.754609709508085e-05 -0.00010995944406030381 0 4.3132566396305311e-05 -0.00011641455267436074 0 1.5732294781548209e-05 2.193831031745831e-05 0 5.0235108540958179e-05 3.1424355330253396e-05 0 5.0235108540958179e-05 3.1424355330253396e-05 0 4.7523480480146913e-05 4.1391948921132051e-05 0 4.7523480480146913e-05 4.1391948921132051e-05 0 5.3338144159041512e-05 4.9051505677670576e-05 0 5.3338144159041512e-05 4.9051505677670576e-05 0 5.6892106583749534e-05 6.3582981471132491e-05 0 5.6892106583749534e-05 6.3582981471132491e-05 0 6.1027144148356829e-05 7.6110468256798897e-05 0 6.1027144148356829e-05 7.6110468256798897e-05 0 6.569480079421921e-05 8.9162851096360039e-05 0 6.569480079421921e-05 8.9162851096360039e-05 0 6.9703078631351776e-05 0.00010194777855728951 0 6.9703078631351776e-05 0.00010194777855728951 0 7.9413011530237438e-05 0.00011920344878275964 0 7.9413011530237438e-05 0.00011920344878275964 0 7.2092317044912107e-05 0.00013136987829551056 0 7.2092317044912107e-05 0.00013136987829551056 0 0.00013601850033993006 0.00013345076156656227 0 6.9674862572578311e-06 -4.782948558448928e-06 0 6.8648734870235502e-06 -4.4722396129283244e-07 0 5.2842409978645162e-06 -3.1440539560028015e-06 0 8.2191213906576987e-06 -2.4782181094617708e-06 0 6.8648734870235502e-06 -4.4722396129283244e-07 0 6.9674862572578311e-06 -4.782948558448928e-06 0 6.7945223995782562e-06 -1.3164346235016856e-05 0 8.1884952716649631e-06 -9.8312630853775404e-06 0 6.0582022857685117e-06 -1.2158702790036524e-05 0 6.0582022857685117e-06 -1.2158702790036524e-05 0 8.1884952716649631e-06 -9.8312630853775404e-06 0 6.8856563683461461e-06 -1.0645093673764037e-05 0 -5.5057427161979533e-06 -1.1973892318769692e-06 0 -2.4385436655587168e-06 -1.3707353254224655e-06 0 -5.3303655132088813e-06 -2.2824081178324213e-06 0 -4.1724309016289434e-06 4.4376603588195492e-07 0 -4.0525949692892294e-06 1.2160872072635407e-06 0 -1.8869913822722476e-06 7.4839742842376496e-07 0 -2.3548337606525605e-06 -3.2919506261560787e-07 0 -2.4385436655587168e-06 -1.3707353254224655e-06 0 -5.5057427161979533e-06 -1.1973892318769692e-06 0 -1.863862150221606e-06 -1.003760052481525e-08 0 -4.1724309016289434e-06 4.4376603588195492e-07 0 -1.8869913822722476e-06 7.4839742842376496e-07 0 -1.4121834523784843e-05 -1.3948055843011356e-06 0 -1.8137017694581541e-05 -3.7296142368419624e-06 0 -1.2618756896698604e-05 -9.6521510708829995e-07 0 -2.7264849038456334e-05 5.0174517208760938e-06 0 -2.0425262981354265e-05 1.1976072843140289e-06 0 -1.8805571222383891e-05 9.2215194655589756e-07 0 6.3037077503183258e-06 -2.419321562838538e-07 0 8.2446629296047584e-06 3.4600940725444809e-08 0 5.8004138459494711e-06 -1.4804337347708201e-06 0 8.4996736976224412e-06 -5.7384890355634126e-07 0 5.8004138459494711e-06 -1.4804337347708201e-06 0 8.2446629296047584e-06 3.4600940725444809e-08 0 5.6714524464470954e-07 2.9202008936475387e-06 0 1.1414202237196387e-06 3.027124021782727e-06 0 2.2837590228919433e-06 2.8724953528004073e-06 0 3.9721624336810812e-10 -9.1859589203412833e-10 0 9.0821557077366596e-10 -6.1955508155157306e-10 0 8.098614446804244e-07 -1.7298052803424915e-06 0 4.2860427372764088e-10 6.6046459176319347e-10 0 -1.9844488660568816e-11 7.5258815293477448e-10 0 2.3106695181441206e-07 1.6723462349668594e-06 0 3.9655390634003657e-06 -1.7208798620664427e-05 0 6.2740452727737353e-06 -1.8110942061369808e-05 0 6.7945223995782562e-06 -1.3164346235016856e-05 0 3.464473706426657e-05 2.1432202021115054e-05 0 2.4020632262584255e-05 1.2735805613778149e-05 0 2.613211882342766e-05 1.3624555479031554e-05 0 -9.1888709950558874e-06 -0.00018202702082634181 0 5.6911614071205922e-06 -0.00016500328867313958 0 -1.0648471808918398e-05 -0.00015907861261649169 0 -5.8497810102375259e-08 0.00035362350643542909 0 -3.241137437668794e-05 0.00032174823596634955 0 -2.3497218630206633e-06 0.00030951344958816615 0 -5.8497810102375259e-08 0.00035362350643542909 0 -2.3497218630206633e-06 0.00030951344958816615 0 2.9595336077624755e-05 0.0003205220348318947 0 -9.1888709950558874e-06 -0.00018202702082634181 0 -1.0648471808918398e-05 -0.00015907861261649169 0 -2.5923168114500923e-05 -0.00016535207574811919 0 -3.8685377610595529e-05 0.0002874837888926514 0 -2.3183665054772968e-06 0.00027106525402719313 0 -2.3497218630206633e-06 0.00030951344958816615 0 6.4290873087246453e-06 -0.00014668744852563056 0 -1.2880876553601737e-05 -0.00013883686627356944 0 -1.0648471808918398e-05 -0.00015907861261649169 0 5.6714524464470954e-07 2.9202008936475387e-06 0 2.2837590228919433e-06 2.8724953528004073e-06 0 9.8752594219013555e-07 2.5098022799743992e-06 0 3.464473706426657e-05 2.1432202021115054e-05 0 2.0872696388851535e-05 1.810714271833698e-05 0 2.4020632262584255e-05 1.2735805613778149e-05 0 -7.334289080356213e-05 7.1746328529699444e-05 0 -6.4616641220069561e-05 5.051140737487921e-05 0 -4.4924826090466404e-05 5.5647429632867305e-05 0 -3.8501425520909608e-05 -2.7220783652813783e-05 0 -4.330105184747559e-05 -3.7601341597594884e-05 0 -2.907817169869637e-05 -3.0088566341337688e-05 0 5.313455910707516e-06 -1.3229042295425642e-05 0 3.9655390634003657e-06 -1.7208798620664427e-05 0 6.7945223995782562e-06 -1.3164346235016856e-05 0 -2.1345397243713286e-05 4.4553765070591215e-05 0 -1.8230991748431215e-05 2.3959951907906119e-05 0 -8.0400292067418234e-06 2.6776460616986131e-05 0 -5.5210482788207675e-06 3.6282842827600232e-06 0 -1.3319773570614555e-05 7.5061430799529461e-06 0 -1.4210728996960805e-05 2.0370280484694318e-06 0 1.7405120441948072e-05 -5.46380855452892e-06 0 1.5245638279495281e-05 -7.3427669901192556e-07 0 1.4819235009815634e-05 -7.1420320386186347e-06 0 -1.289097200772829e-05 -0.00011959765860069441 0 -1.6371466288615379e-06 -0.00011428529273110029 0 -1.5374615590404771e-05 -0.00010026495627166923 0 -5.950662991196159e-06 0.00023479857246346694 0 -2.9520162167584637e-05 0.00022468436962862478 0 -4.0845395083505321e-06 0.0001964452194724646 0 -1.5374615590404771e-05 -0.00010026495627166923 0 -1.6371466288615379e-06 -0.00011428529273110029 0 -2.492489716523963e-06 -9.8067877395809173e-05 0 -4.0845395083505321e-06 0.0001964452194724646 0 -2.9520162167584637e-05 0.00022468436962862478 0 -3.0223799853954613e-05 0.00019653260218403188 0 -5.5210482788207675e-06 3.6282842827600232e-06 0 -1.4210728996960805e-05 2.0370280484694318e-06 0 -5.1848489884101725e-06 6.8692800654397016e-08 0 2.1197772212357657e-05 -1.0980672330133724e-05 0 2.0078188950130265e-05 -6.6155670100394294e-07 0 1.7405120441948072e-05 -5.46380855452892e-06 0 -2.1345397243713286e-05 4.4553765070591215e-05 0 -3.1253182527400604e-05 3.6456434930924044e-05 0 -1.8230991748431218e-05 2.3959951907906122e-05 0 3.464473706426657e-05 2.1432202021115054e-05 0 4.9988333479339666e-05 6.2522754740669344e-05 0 2.7744515679919147e-05 6.4214042872540891e-05 0 2.4160845861444871e-05 -5.8321460695982027e-05 0 2.2761900630815058e-05 -5.6247207833630479e-05 0 2.0237882305759049e-05 -5.6703056946730286e-05 0 6.4186678008466101e-05 -6.7445424805631646e-05 0 6.0634224022033884e-05 -5.7800499748673341e-05 0 4.837156424199273e-05 -6.0328873485072395e-05 0 1.8111886196236639e-05 3.4757759274339569e-06 0 1.5245638279495281e-05 -7.3427669901192556e-07 0 1.7405120441948072e-05 -5.46380855452892e-06 0 4.1932642249842174e-05 -0.00015936041579157204 0 2.2513128622834961e-05 -0.00014361978750377426 0 2.215281229135734e-05 -0.0001603210634969469 0 -0.00010207985441581774 0.00031962054024652227 0 -7.1160664641844236e-05 0.00028440231243965141 0 -6.4509083931713239e-05 0.00031513428074066765 0 1.2298339618044264e-09 -4.8838917627783311e-10 0 1.6155632841618776e-06 -5.6599666870066613e-07 0 1.2502036930353626e-06 -1.0979824680771904e-06 0 7.2240921870890737e-10 6.6492107039386301e-10 0 6.1716644507955559e-07 1.4509120614486261e-06 0 1.0659126812120242e-06 1.3654036056072762e-06 0 -2.1345397243713286e-05 4.4553765070591215e-05 0 -4.1909813680742453e-06 4.3307382635512878e-05 0 -1.3014700457121434e-05 6.9698847671892025e-05 0 8.0210193393912825e-06 6.1905387691103638e-05 0 -1.3014700457121434e-05 6.9698847671892025e-05 0 -4.1909813680742445e-06 4.3307382635512885e-05 0 1.8979422069092742e-05 3.7121978791158041e-05 0 3.464473706426657e-05 2.1432202021115054e-05 0 2.7744515679919147e-05 6.4214042872540891e-05 0 -0.00010097587004839924 0.00025156960864011253 0 -5.9047682878797514e-05 0.00025203332008362186 0 -7.1160664641844236e-05 0.00028440231243965141 0 3.4361913317951634e-05 -0.00012394088831373172 0 1.4153308681177995e-05 -0.0001272508203525262 0 2.2513128622834961e-05 -0.00014361978750377426 0 3.7794481290923712e-05 -4.7779499930678328e-05 0 3.2825816367190623e-05 -4.3060348410653651e-05 0 3.0732351777277877e-05 -4.779816735709842e-05 0 1.3214837251308169e-05 -3.8017470844674979e-06 0 1.4819235009815634e-05 -7.1420320386186347e-06 0 1.5245638279495281e-05 -7.3427669901192556e-07 0 1.5540087473149736e-05 -1.224419398608133e-05 0 1.5973845790588111e-05 -1.709238065051423e-05 0 2.0514503379610754e-05 -1.798168176863632e-05 0 3.6180055446766586e-05 -3.0031243913064667e-05 0 3.1699128836947115e-05 -2.5943074362256497e-05 0 3.0477323560254815e-05 -3.0735571693533167e-05 0 -8.8113599163591776e-05 0.00012454035335306534 0 -5.9736054902410511e-05 0.000106048306003737 0 -6.7930971052708927e-05 0.00014116318034920709 0 -6.1039861865815691e-05 -0.00012870402561278082 0 -4.6033684752219985e-05 -0.00014620776267414081 0 -4.0811875155837663e-05 -0.00013001572520935284 0 8.8039107881251325e-05 0.00024308821719552695 0 6.4593980124434165e-05 0.00028046291948486388 0 5.0798229652264501e-05 0.00025128464100268577 0 3.7758097977695747e-05 -0.00014130516858279141 0 2.2513128622834961e-05 -0.00014361978750377426 0 4.1932642249842174e-05 -0.00015936041579157204 0 -0.00010207985441581774 0.00031962054024652227 0 -0.00010181794750330253 0.00028558869884755576 0 -7.1160664641844236e-05 0.00028440231243965141 0 2.0340566536213499e-05 -4.6891254396764283e-05 0 1.6001402211180829e-05 -4.1053964595530615e-05 0 1.7211667105025827e-05 -4.7697251056904765e-05 0 8.2595121232410549e-06 -1.5850010404908884e-05 0 2.8573680831192681e-06 -1.8934772981120703e-05 0 4.4677100038217774e-06 -2.9883452770792018e-05 0 2.0340566536213499e-05 -4.6891254396764283e-05 0 1.9719095019314366e-05 -4.1656898612981927e-05 0 1.6001402211180829e-05 -4.1053964595530615e-05 0 2.7012601338243667e-05 -2.5380821648529001e-05 0 3.0477323560254815e-05 -3.0735571693533167e-05 0 3.1699128836947115e-05 -2.5943074362256497e-05 0 -1.4194735602769014e-05 -5.3447164391868436e-05 0 -1.5239851904855582e-05 -7.1525266600253284e-05 0 -5.1679379526382356e-06 -5.796239890423311e-05 0 -1.4835605904463478e-09 4.740311108826667e-10 0 -1.8869913822722476e-06 7.4839742842376496e-07 0 -1.2008928863058884e-06 1.0937019896740336e-06 0 -1.9890537200293698e-09 -7.685733382629369e-10 0 -1.4552250405208506e-06 -1.7453996958690042e-06 0 -2.4385436655587168e-06 -1.3707353254224655e-06 0 2.4160845861444871e-05 -5.8321460695982027e-05 0 2.5486566907394288e-05 -5.8785629933609013e-05 0 2.2761900630815058e-05 -5.6247207833630479e-05 0 5.1972174513424941e-05 -6.8564473650646607e-05 0 6.4186678008466101e-05 -6.7445424805631646e-05 0 4.837156424199273e-05 -6.0328873485072395e-05 0 -7.7241591434478146e-10 -1.2849492288239223e-09 0 -1.4259636525306025e-06 -2.6842771721788307e-06 0 -1.4552250405208503e-06 -1.7453996958690042e-06 0 -7.6895457113168369e-10 8.6102624569415994e-10 0 -1.2008928863058884e-06 1.0937019896740336e-06 0 -1.3867551567698568e-06 1.8200942331889702e-06 0 5.8004138459494711e-06 -1.4804337347708201e-06 0 2.6808650347166543e-06 -2.1828424990504749e-06 0 4.3445333768362837e-06 -1.184264427515823e-06 0 -6.9957253368761813e-06 5.8861823828304638e-07 0 -5.7870649714690489e-06 1.6392948121449036e-06 0 -4.0525949692892294e-06 1.2160872072635407e-06 0 -9.5521677793823446e-06 -1.5538301846432907e-06 0 -5.3303655132088821e-06 -2.2824081178324217e-06 0 -7.6148098018323503e-06 -3.0113061060196077e-06 0 2.4060841145767632e-05 -2.9783418749867436e-05 0 2.3031044367687025e-05 -2.5116494046548692e-05 0 1.9256358440431934e-05 -2.6643932485163232e-05 0 1.8799919643169282e-05 -2.189259260310718e-05 0 2.0514503379610754e-05 -1.798168176863632e-05 0 1.5973845790588111e-05 -1.709238065051423e-05 0 0.00010125924337198038 0.00030946725509101451 0 6.2189828526219132e-05 0.00031134846871845427 0 6.4593980124434165e-05 0.00028046291948486388 0 -6.1836126155259886e-05 -0.00016425182421121037 0 -4.2392516343952475e-05 -0.00016187807833745608 0 -4.6033684752219985e-05 -0.00014620776267414081 0 1.8799919643169282e-05 -2.189259260310718e-05 0 1.9256358440431934e-05 -2.6643932485163232e-05 0 2.3031044367687025e-05 -2.5116494046548692e-05 0 3.2825816367190623e-05 -4.3060348410653651e-05 0 3.788791292288756e-05 -4.1482156610258643e-05 0 2.9221574619206953e-05 -3.6542244202472124e-05 0 -3.3352442472761896e-05 0.00016825315009617368 0 -2.6121266930019947e-05 0.00013020061473326019 0 -7.9191783676944293e-06 0.00014414908256181361 0 -1.9890537200293698e-09 -7.685733382629369e-10 0 -1.7698717944655574e-09 -4.721436794174826e-10 0 -1.4552250405208503e-06 -1.7453996958690042e-06 0 -1.4670404077356246e-09 2.8382678831412072e-10 0 -1.4835605904463478e-09 4.740311108826667e-10 0 -1.2008928863058884e-06 1.0937019896740336e-06 0 5.8004138459494711e-06 -1.4804337347708201e-06 0 4.0143109971224918e-06 -2.4767539869281794e-06 0 2.6808650347166543e-06 -2.1828424990504749e-06 0 3.1887868041814936e-05 0.00028501924774639742 0 -2.3497218630206633e-06 0.00030951344958816615 0 -2.3183665054772968e-06 0.00027106525402719313 0 -2.9256063629199046e-05 -0.0001470105938248177 0 -1.0648471808918398e-05 -0.00015907861261649169 0 -1.2880876553601737e-05 -0.00013883686627356944 0 -1.5239851904855582e-05 -7.1525266600253284e-05 0 -4.0525370993917499e-06 -7.2181529120637339e-05 0 -5.1679379526382356e-06 -5.796239890423311e-05 0 3.0629258478911835e-06 4.9859244291729103e-07 0 4.4337761241208428e-06 1.1778203071368101e-06 0 4.4320437977428704e-06 1.8574975059317355e-07 0 -1.4334068213806316e-06 -3.1489157845090568e-06 0 2.3388662621357141e-06 -2.6915359764318687e-06 0 -7.2575174260854538e-07 -1.667029716618162e-06 0 3.788791292288756e-05 -4.1482156610258643e-05 0 3.5247178484413667e-05 -3.6730151299671999e-05 0 2.9221574619206953e-05 -3.6542244202472124e-05 0 4.4320437977428704e-06 1.8574975059317355e-07 0 4.4337761241208428e-06 1.1778203071368101e-06 0 5.9133916824205105e-06 7.2693146811491303e-07 0 4.4337761241208428e-06 1.1778203071368101e-06 0 2.2714079234616228e-06 8.8184925848875753e-07 0 3.6587184845319642e-06 1.6180379660328078e-06 0 2.2100489283173748e-06 1.5024741456694922e-06 0 3.6587184845319642e-06 1.6180379660328078e-06 0 2.2714079234616228e-06 8.8184925848875753e-07 0 1.414086756461332e-05 -4.4274507749470083e-05 0 1.6001402211180829e-05 -4.1053964595530615e-05 0 1.0421326769745037e-05 -3.8028621490324152e-05 0 1.5540087473149736e-05 -1.224419398608133e-05 0 2.0514503379610751e-05 -1.798168176863632e-05 0 1.8369976335002123e-05 -1.156103133009556e-05 0 3.7794481290923712e-05 -4.7779499930678328e-05 0 3.788791292288756e-05 -4.1482156610258643e-05 0 3.2825816367190623e-05 -4.3060348410653651e-05 0 1.8111886196236639e-05 3.4757759274339569e-06 0 1.7405120441948075e-05 -5.4638085545289191e-06 0 2.0078188950130265e-05 -6.6155670100394294e-07 0 9.4102405385339244e-05 0.00027553543136666855 0 0.00010125924337198038 0.00030946725509101451 0 6.4593980124434165e-05 0.00028046291948486388 0 -6.1644720452682384e-05 -0.00014650840078083688 0 -6.1836126155259886e-05 -0.00016425182421121037 0 -4.6033684752219985e-05 -0.00014620776267414081 0 -6.1039861865815691e-05 -0.00012870402561278082 0 -6.1644720452682384e-05 -0.00014650840078083688 0 -4.6033684752219985e-05 -0.00014620776267414081 0 8.8039107881251325e-05 0.00024308821719552695 0 9.4102405385339244e-05 0.00027553543136666855 0 6.4593980124434165e-05 0.00028046291948486388 0 2.0134330603399251e-05 7.110135387336763e-06 0 1.7975069971697276e-05 5.6961396098361219e-06 0 1.8111886196236639e-05 3.4757759274339569e-06 0 4.01202084497192e-06 2.6257692924936346e-06 0 2.6526860895617851e-06 2.2961450024011365e-06 0 2.2837590228919433e-06 2.8724953528004073e-06 0 1.5411497233893836e-06 2.2051156268810159e-06 0 2.2837590228919433e-06 2.8724953528004073e-06 0 2.6526860895617851e-06 2.2961450024011365e-06 0 4.0062132740727491e-05 0.00014728308104253274 0 5.0669739383618532e-05 0.00016744327488503975 0 2.0251644700220282e-05 0.00016812110565837907 0 5.0669739383618532e-05 0.00016744327488503975 0 4.6032349019414223e-05 0.0001886180508898253 0 2.0251644700220282e-05 0.00016812110565837907 0 2.1197772212357657e-05 -1.0980672330133724e-05 0 1.7405120441948068e-05 -5.4638085545289208e-06 0 1.8369976335002123e-05 -1.156103133009556e-05 0 4.1374090201415585e-05 -6.6889463146525285e-05 0 4.8371564241992723e-05 -6.0328873485072395e-05 0 3.960320099189173e-05 -5.6837964863967421e-05 0 2.8207169479481951e-05 -6.107582715025452e-05 0 2.5042456119920505e-05 -5.5078218133833096e-05 0 2.2761900630815058e-05 -5.6247207833630479e-05 0 1.7975069971697276e-05 5.6961396098361219e-06 0 1.5937574572520133e-05 2.937513031624712e-06 0 1.8111886196236639e-05 3.4757759274339569e-06 0 -0.00010181794750330253 0.00028558869884755576 0 -0.00010097587004839924 0.00025156960864011253 0 -7.1160664641844236e-05 0.00028440231243965141 0 3.4361913317951634e-05 -0.00012394088831373172 0 2.2513128622834961e-05 -0.00014361978750377426 0 3.7758097977695747e-05 -0.00014130516858279141 0 -1.8137017694581541e-05 -3.7296142368419624e-06 0 -1.692681619528273e-05 -4.0024675222269921e-06 0 -1.2618756896698604e-05 -9.6521510708829995e-07 0 -2.7264849038456334e-05 5.0174517208760938e-06 0 -1.8805571222383891e-05 9.2215194655589756e-07 0 -2.473002448884572e-05 5.6805261075288577e-06 0 2.1197772212357657e-05 -1.0980672330133724e-05 0 2.0514503379610754e-05 -1.798168176863632e-05 0 2.6434891151874856e-05 -2.0085383854937112e-05 0 8.2595121232410549e-06 -1.5850010404908884e-05 0 4.4677100038217774e-06 -2.9883452770792018e-05 0 1.4936309251741605e-05 -3.2438276166433909e-05 0 2.7012601338243667e-05 -2.5380821648529001e-05 0 2.0514503379610754e-05 -1.798168176863632e-05 0 2.3031044367687025e-05 -2.5116494046548692e-05 0 1.8799919643169282e-05 -2.189259260310718e-05 0 2.3031044367687025e-05 -2.5116494046548692e-05 0 2.0514503379610754e-05 -1.798168176863632e-05 0 -9.1888709950558874e-06 -0.00018202702082634181 0 9.1337339213988492e-06 -0.0001820631131885198 0 5.6911614071205922e-06 -0.00016500328867313958 0 -5.8497810102375259e-08 0.00035362350643542909 0 -3.4194317996219585e-05 0.00035355143353623959 0 -3.2411374376687934e-05 0.00032174823596634955 0 3.5508282390450643e-05 0.00035328930177638493 0 -5.8497810102375259e-08 0.00035362350643542909 0 2.9595336077624755e-05 0.0003205220348318947 0 -2.6721054499887568e-05 -0.00018186885351767501 0 -9.1888709950558874e-06 -0.00018202702082634181 0 -2.5923168114500923e-05 -0.00016535207574811919 0 8.7517275111848175e-06 2.5447315049943564e-05 0 -4.1909813680742445e-06 4.3307382635512885e-05 0 -8.0400292067418234e-06 2.6776460616986131e-05 0 1.4560661534021902e-05 -2.5495194818943156e-05 0 1.3496502303684821e-05 -3.0255475393487604e-05 0 1.7788515087146675e-05 -3.1344509225065025e-05 0 2.7012601338243667e-05 -2.5380821648529001e-05 0 2.3031044367687025e-05 -2.5116494046548692e-05 0 3.0477323560254815e-05 -3.0735571693533167e-05 0 2.4060841145767632e-05 -2.9783418749867436e-05 0 3.0477323560254815e-05 -3.0735571693533167e-05 0 2.3031044367687025e-05 -2.5116494046548692e-05 0 4.2674907687349033e-06 -6.1930430980127859e-05 0 3.7255830143423571e-06 -4.5543978702484311e-05 0 -5.1679379526382356e-06 -5.796239890423311e-05 0 -7.334289080356213e-05 7.1746328529699444e-05 0 -4.4924826090466404e-05 5.5647429632867305e-05 0 -6.019262869119134e-05 8.1476976479874218e-05 0 -7.5200722236320161e-06 -7.8758544536451402e-06 0 -1.1924166989388136e-05 -1.384599738989318e-05 0 -3.9071774210526217e-06 -1.0675306493748462e-05 0 -6.0713317044048526e-06 -1.7344970067476724e-05 0 -3.9071774210526217e-06 -1.0675306493748462e-05 0 -1.1924166989388136e-05 -1.384599738989318e-05 0 2.116756906927306e-05 -5.1514966302075684e-05 0 2.4709641582686877e-05 -4.9486761828426285e-05 0 2.0340566536213499e-05 -4.6891254396764283e-05 0 -4.7056704012071281e-05 0.00012536257131034301 0 -6.7930971052708927e-05 0.00014116318034920709 0 -5.9736054902410511e-05 0.000106048306003737 0 -1.4979371870472521e-05 -5.1891983324943035e-06 0 -2.0731839418575551e-05 -9.9891657222946319e-06 0 -1.4158817229496161e-05 -8.9659218622878691e-06 0 -2.0233014761286253e-05 -1.4469906722012605e-05 0 -1.4158817229496161e-05 -8.9659218622878691e-06 0 -2.0731839418575551e-05 -9.9891657222946319e-06 0 -2.9305448820928171e-05 2.5039874737145706e-05 0 -3.0995462945427446e-05 1.6568706789335766e-05 0 -1.9445718595538784e-05 1.4826119467846804e-05 0 -2.1398623023930661e-05 8.4724399779958406e-06 0 -1.9445718595538784e-05 1.4826119467846804e-05 0 -3.0995462945427446e-05 1.6568706789335766e-05 0 1.5179580039589784e-05 -3.6137030938033639e-05 0 2.0171622163641573e-05 -3.6878809064021238e-05 0 1.7788515087146675e-05 -3.1344509225065025e-05 0 -4.330105184747559e-05 -3.7601341597594884e-05 0 -3.7135532576455873e-05 -4.2206986246396422e-05 0 -2.907817169869637e-05 -3.0088566341337688e-05 0 2.5369487683003824e-05 0.0001205911153591202 0 5.0800252931999919e-06 9.3707275062703248e-05 0 2.6365933845279126e-05 8.9972901340882545e-05 0 1.3214837251308169e-05 -3.8017470844674979e-06 0 1.0487612038870979e-05 -5.9135383463292487e-06 0 1.1904706372868123e-05 -9.0485553857280811e-06 0 1.0966225777042747e-05 2.4365919500501646e-06 0 1.2788522673338416e-05 2.8743875126398152e-06 0 1.0628869022519019e-05 2.106001203057204e-06 0 -5.3055846626675253e-05 0.00021516271228334301 0 -2.9520162167584637e-05 0.00022468436962862478 0 -5.9047682878797514e-05 0.00025203332008362186 0 9.2336935250477213e-06 -0.00010815582032541041 0 -1.6371466288615379e-06 -0.00011428529273110029 0 1.4153308681177998e-05 -0.0001272508203525262 0 2.1197772212357657e-05 -1.0980672330133724e-05 0 1.836997633500212e-05 -1.156103133009556e-05 0 2.0514503379610754e-05 -1.798168176863632e-05 0 2.5042456119920501e-05 -5.5078218133833096e-05 0 2.4709641582686877e-05 -4.9486761828426285e-05 0 2.116756906927306e-05 -5.1514966302075684e-05 0 2.4060841145767632e-05 -2.9783418749867436e-05 0 2.1934414559691389e-05 -3.2253350719408957e-05 0 2.9221574619206953e-05 -3.6542244202472124e-05 0 9.0821557077366596e-10 -6.1955508155157306e-10 0 1.2502036930353626e-06 -1.0979824680771904e-06 0 8.098614446804244e-07 -1.7298052803424915e-06 0 4.2860427372764088e-10 6.6046459176319347e-10 0 2.3106695181441206e-07 1.6723462349668594e-06 0 6.1716644507955559e-07 1.4509120614486261e-06 0 3.7255830143423571e-06 -4.5543978702484311e-05 0 -6.6567020228594751e-06 -4.5017652414507929e-05 0 -5.1679379526382356e-06 -5.796239890423311e-05 0 -1.4334068213806316e-06 -3.1489157845090568e-06 0 -7.2575174260854538e-07 -1.667029716618162e-06 0 -5.4853683403998198e-06 -2.5390418193520294e-06 0 -5.8438140022524341e-06 1.1966914073920712e-05 0 -8.04002920674182e-06 2.6776460616986131e-05 0 -1.8230991748431218e-05 2.3959951907906122e-05 0 2.7689513025583305e-06 -1.2515272177964045e-06 0 1.6155632841618776e-06 -5.6599666870066613e-07 0 3.762815785644671e-06 -6.0731501054961799e-07 0 2.7975888617344181e-06 -2.2960806962321557e-08 0 3.762815785644671e-06 -6.0731501054961799e-07 0 1.6155632841618776e-06 -5.6599666870066613e-07 0 2.2100489283173748e-06 1.5024741456694922e-06 0 1.0659126812120242e-06 1.3654036056072762e-06 0 2.6526860895617851e-06 2.2961450024011365e-06 0 1.5411497233893836e-06 2.2051156268810159e-06 0 2.6526860895617851e-06 2.2961450024011365e-06 0 1.0659126812120242e-06 1.3654036056072762e-06 0 -5.5210482788207675e-06 3.6282842827600232e-06 0 9.036011056368016e-07 5.7570168343015573e-06 0 -5.8438140022524341e-06 1.1966914073920712e-05 0 1.0966225777042747e-05 2.4365919500501646e-06 0 1.3205540516960415e-05 3.0045128282872701e-06 0 1.2788522673338416e-05 2.8743875126398152e-06 0 8.4996736976224412e-06 -5.7384890355634126e-07 0 5.4975666942412538e-06 -2.0474404484625552e-06 0 5.8004138459494711e-06 -1.4804337347708201e-06 0 -7.2575174260854538e-07 -1.667029716618162e-06 0 2.3388662621357141e-06 -2.6915359764318687e-06 0 3.9034466054447822e-06 -4.56074239424556e-07 0 1.3833433729316888e-05 2.380166667121157e-06 0 1.5790608573116424e-05 4.2289678576551371e-06 0 1.3205540516960415e-05 3.0045128282872697e-06 0 7.1757690285702675e-07 1.7703665595960128e-06 0 1.7566255244507034e-06 4.890280084501157e-07 0 2.6930048630864201e-06 2.0837423963523743e-06 0 3.9808037501750482e-06 5.7668423959442128e-07 0 2.6930048630864201e-06 2.0837423963523743e-06 0 1.7566255244507034e-06 4.890280084501157e-07 0 -1.7698717944655301e-09 -4.7214367941744993e-10 0 -7.7241591434478146e-10 -1.2849492288239223e-09 0 -1.4552250405208503e-06 -1.7453996958690042e-06 0 -7.6895457113168369e-10 8.6102624569415994e-10 0 -1.4670404077356246e-09 2.8382678831412072e-10 0 -1.2008928863058884e-06 1.0937019896740336e-06 0 5.822056081602051e-05 9.2749175966032031e-05 0 2.6365933845279126e-05 8.9972901340882545e-05 0 2.7744515679919147e-05 6.4214042872540891e-05 0 4.01202084497192e-06 2.6257692924936346e-06 0 4.9025591288023581e-06 2.4660398932013736e-06 0 5.7120487107965477e-06 2.4100015662395098e-06 0 8.1884952716649631e-06 -9.8312630853775404e-06 0 8.7030839480071231e-06 -6.8022016205200903e-06 0 6.8856563683461461e-06 -1.0645093673764037e-05 0 2.9822625266936927e-05 -5.3470650809671672e-05 0 2.4709641582686877e-05 -4.9486761828426285e-05 0 2.5042456119920501e-05 -5.5078218133833096e-05 0 -1.4121834523784843e-05 -1.3948055843011356e-06 0 -1.2618756896698604e-05 -9.6521510708829995e-07 0 -1.045455811747378e-05 3.9291340538959064e-07 0 -2.0425262981354265e-05 1.1976072843140289e-06 0 -1.4846864522484599e-05 -1.366322118995634e-06 0 -1.8805571222383891e-05 9.2215194655589756e-07 0 2.4487916581023162e-05 -3.7045186116324557e-05 0 2.9221574619206953e-05 -3.6542244202472124e-05 0 2.1934414559691389e-05 -3.2253350719408957e-05 0 -1.2618756896698604e-05 -9.6521510708829995e-07 0 -8.609431933091509e-06 2.3955119247750847e-08 0 -9.1219992977777875e-06 7.2398055643523396e-07 0 -9.1140296051674398e-06 -8.3255007656552137e-07 0 -5.1848489884101725e-06 6.8692800654397016e-08 0 -1.4210728996960805e-05 2.0370280484694318e-06 0 -1.2636483260597865e-05 -2.237418243242997e-06 0 -8.609431933091509e-06 2.3955119247750807e-08 0 -1.2618756896698604e-05 -9.6521510708829995e-07 0 -4.7295248095768701e-07 2.9903910046214174e-06 0 -2.4018777014626415e-06 2.8310928033891902e-06 0 -1.2032734001883522e-06 2.3880872514208717e-06 0 2.735803501059031e-06 -3.2156303995762878e-06 0 2.3388662621357141e-06 -2.6915359764318687e-06 0 -1.2383841451263744e-06 -3.9626204079245754e-06 0 -1.3319773570614555e-05 7.5061430799529461e-06 0 -5.5210482788207675e-06 3.6282842827600228e-06 0 -5.8438140022524341e-06 1.1966914073920712e-05 0 1.5179580039589784e-05 -3.6137030938033639e-05 0 1.7788515087146675e-05 -3.1344509225065025e-05 0 1.3496502303684821e-05 -3.0255475393487604e-05 0 3.7664713680301465e-05 0.00021698013290421134 0 5.0798229652264501e-05 0.00025128464100268577 0 2.0550685052130472e-05 0.00024774444005930615 0 -3.5747480933862533e-05 -0.00011119523875648926 0 -4.0811875155837657e-05 -0.00013001572520935286 0 -2.557699603635552e-05 -0.00012699449101390603 0 2.7689513025583305e-06 -1.2515272177964045e-06 0 1.2502036930353628e-06 -1.0979824680771904e-06 0 1.6155632841618776e-06 -5.6599666870066613e-07 0 1.5411497233893836e-06 2.2051156268810159e-06 0 1.0659126812120242e-06 1.365403605607276e-06 0 6.1716644507955559e-07 1.4509120614486261e-06 0 3.9721624336810812e-10 -9.1859589203412833e-10 0 8.098614446804244e-07 -1.7298052803424915e-06 0 1.8554284370016738e-07 -1.8759968714470702e-06 0 -1.9844488660568816e-11 7.5258815293477448e-10 0 -1.9170551471043458e-07 1.5312220791957531e-06 0 2.3106695181441206e-07 1.6723462349668594e-06 0 8.1884952716649631e-06 -9.8312630853775404e-06 0 6.7945223995782562e-06 -1.3164346235016856e-05 0 1.0146085576093816e-05 -1.312605311089609e-05 0 8.7683533263159789e-06 -1.6410424701988459e-05 0 1.0146085576093816e-05 -1.312605311089609e-05 0 6.7945223995782562e-06 -1.3164346235016856e-05 0 -1.5350759017981307e-05 0.00010013867895877493 0 -1.3014700457121434e-05 6.9698847671892025e-05 0 5.0800252931999919e-06 9.3707275062703248e-05 0 8.0210193393912825e-06 6.1905387691103638e-05 0 5.0800252931999902e-06 9.3707275062703248e-05 0 -1.3014700457121434e-05 6.9698847671892025e-05 0 1.6629700321718049e-05 1.0486451695145459e-05 0 1.7319974464595036e-05 6.4320692952226273e-06 0 2.4020632262584255e-05 1.2735805613778149e-05 0 8.1884952716649631e-06 -9.8312630853775404e-06 0 1.0487612038870979e-05 -5.9135383463292487e-06 0 8.7030839480071231e-06 -6.8022016205200903e-06 0 6.3037077503183258e-06 -2.419321562838538e-07 0 4.4320437977428704e-06 1.8574975059317355e-07 0 5.9133916824205105e-06 7.2693146811491303e-07 0 1.4560661534021902e-05 -2.5495194818943156e-05 0 1.7788515087146675e-05 -3.1344509225065025e-05 0 1.9256358440431934e-05 -2.6643932485163232e-05 0 -3.3352442472761896e-05 0.00016825315009617368 0 -4.7673599213247877e-05 0.000146442714135427 0 -2.6121266930019947e-05 0.00013020061473326019 0 1.414086756461332e-05 -4.4274507749470083e-05 0 1.0421326769745037e-05 -3.8028621490324152e-05 0 1.0451191524468076e-05 -4.4111980623756715e-05 0 3.2825816367190623e-05 -4.3060348410653651e-05 0 2.7481337221184164e-05 -4.1308299355499704e-05 0 3.0732351777277877e-05 -4.779816735709842e-05 0 2.5971501396601978e-06 2.8045188869502813e-06 0 2.2837590228919433e-06 2.8724953528004073e-06 0 1.1414202237196387e-06 3.027124021782727e-06 0 -2.1345397243713286e-05 4.4553765070591215e-05 0 -8.0400292067418234e-06 2.6776460616986131e-05 0 -4.1909813680742445e-06 4.3307382635512885e-05 0 -4.1724309016289434e-06 4.4376603588195492e-07 0 -6.9957253368761813e-06 5.8861823828304638e-07 0 -4.0525949692892294e-06 1.2160872072635407e-06 0 -9.5521677793823446e-06 -1.5538301846432907e-06 0 -5.5057427161979533e-06 -1.1973892318769692e-06 0 -5.3303655132088813e-06 -2.2824081178324213e-06 0 2.7012601338243667e-05 -2.5380821648529001e-05 0 2.6434891151874856e-05 -2.0085383854937112e-05 0 2.0514503379610754e-05 -1.798168176863632e-05 0 -8.5745133024566952e-07 2.3715994167367576e-06 0 -1.3039651018432864e-06 2.9929341366224806e-06 0 -5.4740217437632177e-08 2.6435770575113247e-06 0 -2.9211788059387474e-07 -3.0959240156795413e-06 0 1.0209078717900788e-06 -2.920048102641172e-06 0 -1.1264135386116425e-08 -3.8685180290675191e-06 0 -6.4616641220069561e-05 5.051140737487921e-05 0 -4.3961569195479346e-05 3.7407524822548446e-05 0 -4.4924826090466404e-05 5.5647429632867305e-05 0 -3.8501425520909608e-05 -2.7220783652813783e-05 0 -2.907817169869637e-05 -3.0088566341337688e-05 0 -2.7981376888693135e-05 -2.0497317367260405e-05 0 8.7517275111848175e-06 2.5447315049943564e-05 0 2.0872696388851538e-05 1.810714271833698e-05 0 1.8979422069092742e-05 3.7121978791158041e-05 0 3.464473706426657e-05 2.1432202021115054e-05 0 1.8979422069092742e-05 3.7121978791158041e-05 0 2.0872696388851538e-05 1.810714271833698e-05 0 -3.7813244897242559e-06 -3.3627976467809573e-05 0 -1.3320242342924739e-05 -3.6846374152681804e-05 0 -6.6567020228594751e-06 -4.5017652414507929e-05 0 -1.4194735602769014e-05 -5.3447164391868436e-05 0 -6.6567020228594751e-06 -4.5017652414507929e-05 0 -1.3320242342924739e-05 -3.6846374152681804e-05 0 2.1197772212357657e-05 -1.0980672330133724e-05 0 2.3870337271698786e-05 -5.1314431321914251e-06 0 2.0078188950130265e-05 -6.6155670100394294e-07 0 2.9822625266936927e-05 -5.3470650809671672e-05 0 2.5042456119920501e-05 -5.5078218133833103e-05 0 2.976509248308749e-05 -5.8570321075529597e-05 0 6.3037077503183258e-06 -2.419321562838538e-07 0 5.8004138459494711e-06 -1.4804337347708201e-06 0 4.3445333768362837e-06 -1.184264427515823e-06 0 -1.1924166989388136e-05 -1.384599738989318e-05 0 -2.0479126460618397e-05 -2.0641073924556666e-05 0 -1.3085076139347972e-05 -2.0557070415235017e-05 0 4.1374090201415585e-05 -6.6889463146525285e-05 0 3.960320099189173e-05 -5.6837964863967421e-05 0 3.407501857510024e-05 -5.8920866587806172e-05 0 -4.2292240236146664e-05 8.1523899750243791e-05 0 -6.019262869119134e-05 8.1476976479874218e-05 0 -4.4924826090466404e-05 5.5647429632867305e-05 0 -5.9047682878797514e-05 0.00025203332008362186 0 -2.9520162167584637e-05 0.00022468436962862478 0 -2.7069200783648975e-05 0.00025457042388229935 0 1.4153308681177998e-05 -0.0001272508203525262 0 -1.6371466288615379e-06 -0.00011428529273110029 0 -1.396379952777442e-06 -0.00012960894392206437 0 6.6911431640435117e-06 1.5519607231424757e-06 0 8.7180152215029676e-06 1.7152541189498968e-06 0 6.7393407208439679e-06 2.2314349000005077e-06 0 8.7683533263159789e-06 -1.6410424701988459e-05 0 6.7945223995782562e-06 -1.3164346235016856e-05 0 6.2740452727737353e-06 -1.8110942061369808e-05 0 8.1170941573638164e-06 1.5556696582280219e-06 0 1.0628869022519019e-05 2.106001203057204e-06 0 9.7775768226914434e-06 1.2718960774175554e-06 0 1.1928963926920984e-05 2.0203177236866328e-06 0 9.7775768226914434e-06 1.2718960774175554e-06 0 1.0628869022519019e-05 2.106001203057204e-06 0 -7.2575174260854538e-07 -1.667029716618162e-06 0 -5.1848489884101725e-06 6.8692800654397069e-08 0 -5.4853683403998198e-06 -2.5390418193520294e-06 0 -1.4194735602769014e-05 -5.3447164391868436e-05 0 -2.24244573645942e-05 -6.2391303441577359e-05 0 -1.5239851904855582e-05 -7.1525266600253284e-05 0 -9.6158017493777138e-06 -3.0151171874693032e-06 0 -5.4132434116150892e-06 -3.7495647622137089e-06 0 -1.133935451071481e-05 -1.9382607512145354e-06 0 2.0251644700220282e-05 0.00016812110565837907 0 -4.0845395083505321e-06 0.0001964452194724646 0 -1.1647005794394682e-05 0.00017058458928087111 0 2.0251644700220282e-05 0.00016812110565837907 0 -1.1647005794394682e-05 0.00017058458928087111 0 -7.9191783676944293e-06 0.00014414908256181361 0 -3.3352442472761896e-05 0.00016825315009617368 0 -7.9191783676944293e-06 0.00014414908256181358 0 -1.1647005794394682e-05 0.00017058458928087111 0 -2.6378637606123424e-05 -8.5073358889162844e-05 0 -1.5374615590404771e-05 -0.00010026495627166923 0 -1.0716275899186263e-05 -8.5086372797589068e-05 0 -2.6378637606123424e-05 -8.5073358889162844e-05 0 -1.0716275899186263e-05 -8.5086372797589068e-05 0 -1.5239851904855582e-05 -7.1525266600253284e-05 0 1.7319974464595036e-05 6.4320692952226273e-06 0 2.0587009293426283e-05 8.6480291635922048e-06 0 2.4020632262584255e-05 1.2735805613778149e-05 0 1.2298339618044264e-09 -4.8838917627783311e-10 0 1.5789550551190579e-09 1.7252807336959745e-11 0 1.6155632841618776e-06 -5.6599666870066613e-07 0 1.1347494158143002e-09 4.4151347599292127e-10 0 7.2240921870890737e-10 6.6492107039386301e-10 0 1.0659126812120242e-06 1.3654036056072762e-06 0 4.9025591288023581e-06 2.4660398932013736e-06 0 6.7393407208439679e-06 2.2314349000005077e-06 0 5.7120487107965477e-06 2.4100015662395098e-06 0 8.2595121232410549e-06 -1.5850010404908884e-05 0 5.0823996882459271e-06 -1.2212208675462936e-05 0 2.8573680831192681e-06 -1.8934772981120703e-05 0 -5.4132434116150892e-06 -3.7495647622137089e-06 0 -5.485368340399819e-06 -2.5390418193520294e-06 0 -1.133935451071481e-05 -1.9382607512145354e-06 0 1.4408007614551754e-09 3.1048084889156026e-10 0 2.2714079234616228e-06 8.8184925848875753e-07 0 1.4790638006297628e-06 2.5747329626130017e-07 0 -9.5521677793823446e-06 -1.5538301846432907e-06 0 -7.6148098018323503e-06 -3.0113061060196077e-06 0 -1.1420536072291323e-05 -2.2419606973343475e-06 0 -6.9957253368761813e-06 5.8861823828304638e-07 0 -8.2848089706475016e-06 1.0340215778757975e-06 0 -5.787064971469048e-06 1.6392948121449034e-06 0 -2.8218451255619128e-05 -4.188260248807623e-05 0 -2.907817169869637e-05 -3.0088566341337688e-05 0 -3.7135532576455873e-05 -4.2206986246396422e-05 0 3.6587184845319642e-06 1.6180379660328078e-06 0 2.2100489283173748e-06 1.5024741456694922e-06 0 3.9753734056800549e-06 2.2230696085715226e-06 0 1.5179580039589784e-05 -3.6137030938033639e-05 0 1.0421326769745037e-05 -3.8028621490324152e-05 0 1.6001402211180829e-05 -4.1053964595530615e-05 0 1.3833433729316888e-05 2.380166667121157e-06 0 1.3205540516960415e-05 3.0045128282872697e-06 0 1.1990270726737222e-05 1.8032585313990281e-06 0 2.5369487683003824e-05 0.0001205911153591202 0 -3.9412124975710109e-07 0.00012170691175353507 0 5.0800252931999919e-06 9.3707275062703248e-05 0 6.3037077503183258e-06 -2.419321562838538e-07 0 3.762815785644671e-06 -6.0731501054961799e-07 0 4.4320437977428704e-06 1.8574975059317355e-07 0 -3.8685377610595529e-05 0.0002874837888926514 0 -2.7069200783648975e-05 0.00025457042388229935 0 -2.3183665054772968e-06 0.00027106525402719313 0 6.4290873087246453e-06 -0.00014668744852563056 0 -1.396379952777442e-06 -0.00012960894392206437 0 -1.2880876553601737e-05 -0.00013883686627356944 0 2.2100489283173748e-06 1.5024741456694922e-06 0 2.6526860895617851e-06 2.2961450024011365e-06 0 3.9753734056800549e-06 2.2230696085715226e-06 0 1.3833433729316888e-05 2.380166667121157e-06 0 1.1784307340550951e-05 2.1517280633205494e-07 0 1.3287653026923958e-05 -1.0104527793157082e-07 0 3.1887868041814936e-05 0.00028501924774639742 0 2.9595336077624755e-05 0.0003205220348318947 0 -2.3497218630206633e-06 0.00030951344958816615 0 -3.8685377610595529e-05 0.0002874837888926514 0 -2.3497218630206569e-06 0.0003095134495881661 0 -3.2411374376687934e-05 0.00032174823596634955 0 -2.9256063629199046e-05 -0.0001470105938248177 0 -2.5923168114500923e-05 -0.00016535207574811919 0 -1.0648471808918398e-05 -0.00015907861261649169 0 6.4290873087246453e-06 -0.00014668744852563056 0 -1.0648471808918398e-05 -0.00015907861261649169 0 5.6911614071205922e-06 -0.00016500328867313958 0 -5.8438140022524341e-06 1.1966914073920712e-05 0 -1.8230991748431218e-05 2.3959951907906122e-05 0 -1.9445718595538784e-05 1.4826119467846804e-05 0 -1.7453412091257027e-05 -2.5969136103312504e-05 0 -2.907817169869637e-05 -3.0088566341337688e-05 0 -2.1510007486700024e-05 -3.4962619777899604e-05 0 -2.8218451255619128e-05 -4.188260248807623e-05 0 -2.1510007486700024e-05 -3.4962619777899604e-05 0 -2.907817169869637e-05 -3.0088566341337688e-05 0 -4.2292240236146664e-05 8.1523899750243791e-05 0 -4.4924826090466404e-05 5.5647429632867305e-05 0 -2.8876590714556374e-05 6.6140856677785663e-05 0 -2.1345397243713286e-05 4.4553765070591215e-05 0 -2.8876590714556374e-05 6.6140856677785663e-05 0 -4.4924826090466404e-05 5.5647429632867305e-05 0 1.5411497233893836e-06 2.2051156268810159e-06 0 9.8752594219013555e-07 2.5098022799743992e-06 0 2.2837590228919433e-06 2.8724953528004073e-06 0 4.9988333479339666e-05 6.2522754740669344e-05 0 5.822056081602051e-05 9.2749175966032031e-05 0 2.7744515679919147e-05 6.4214042872540891e-05 0 -2.9211788059387474e-07 -3.0959240156795413e-06 0 -1.6320363054512037e-06 -3.692880146377382e-06 0 -1.4259636525306025e-06 -2.6842771721788307e-06 0 -8.5745133024566952e-07 2.3715994167367576e-06 0 -1.3867551567698568e-06 1.8200942331889702e-06 0 -1.9106267389769638e-06 2.5749273533833677e-06 0 8.1884952716649631e-06 -9.8312630853775404e-06 0 1.1904706372868123e-05 -9.0485553857280811e-06 0 1.0487612038870979e-05 -5.9135383463292487e-06 0 -1.3039651018432864e-06 2.9929341366224806e-06 0 -1.438532163894793e-07 3.0276146486285635e-06 0 -5.4740217437632177e-08 2.6435770575113247e-06 0 -1.1264135386116425e-08 -3.8685180290675191e-06 0 1.0209078717900788e-06 -2.920048102641172e-06 0 1.9555023499742536e-06 -3.2547487735989359e-06 0 -9.1140296051674398e-06 -8.3255007656552137e-07 0 -1.4210728996960805e-05 2.0370280484694318e-06 0 -1.133935451071481e-05 -1.9382607512145354e-06 0 -1.8805571222383891e-05 9.2215194655589756e-07 0 -1.133935451071481e-05 -1.9382607512145354e-06 0 -1.4210728996960805e-05 2.0370280484694318e-06 0 3.1887868041814936e-05 0.00028501924774639742 0 2.0550685052130472e-05 0.00024774444005930615 0 5.0798229652264501e-05 0.00025128464100268577 0 -2.9256063629199046e-05 -0.0001470105938248177 0 -2.557699603635552e-05 -0.00012699449101390603 0 -4.0811875155837663e-05 -0.00013001572520935284 0 4.1374090201415585e-05 -6.6889463146525285e-05 0 5.1972174513424941e-05 -6.8564473650646607e-05 0 4.837156424199273e-05 -6.0328873485072395e-05 0 2.5486566907394288e-05 -5.8785629933609013e-05 0 2.8207169479481951e-05 -6.107582715025452e-05 0 2.2761900630815058e-05 -5.6247207833630479e-05 0 -8.6714392559828681e-07 7.6664922164182252e-07 0 7.1757690285702675e-07 1.7703665595960128e-06 0 -1.2032734001883522e-06 2.3880872514208717e-06 0 9.0713801408251766e-06 -4.8693137393089035e-05 0 1.4065506863731803e-05 -4.94033273378098e-05 0 1.0451191524468076e-05 -4.4111980623756715e-05 0 5.4442284858068169e-05 -3.8566876642932057e-05 0 4.8185068707203135e-05 -3.9222648200728422e-05 0 5.1503905380313809e-05 -4.5739637213063419e-05 0 3.7794481290923712e-05 -4.7779499930678328e-05 0 4.4109637558530547e-05 -4.7251061912365844e-05 0 3.788791292288756e-05 -4.1482156610258643e-05 0 -2.0233014761286253e-05 -1.4469906722012605e-05 0 -2.0479126460618397e-05 -2.0641073924556666e-05 0 -1.1924166989388136e-05 -1.384599738989318e-05 0 2.8207169479481951e-05 -6.107582715025452e-05 0 2.976509248308749e-05 -5.8570321075529597e-05 0 2.5042456119920501e-05 -5.5078218133833096e-05 0 -2.1398623023930661e-05 8.4724399779958406e-06 0 -1.4210728996960805e-05 2.0370280484694318e-06 0 -1.3319773570614555e-05 7.5061430799529461e-06 0 8.7180152215029676e-06 1.7152541189498965e-06 0 8.7868471359538657e-06 2.2063497264571768e-06 0 6.7393407208439679e-06 2.2314349000005077e-06 0 -1.7453412091257027e-05 -2.5969136103312504e-05 0 -1.3320242342924739e-05 -3.6846374152681804e-05 0 -9.5564036580367511e-06 -2.6139308060879457e-05 0 -3.7813244897242559e-06 -3.3627976467809573e-05 0 -9.5564036580367528e-06 -2.6139308060879457e-05 0 -1.3320242342924739e-05 -3.6846374152681804e-05 0 -3.1576508884930757e-06 1.1463659831287942e-06 0 -8.6714392559828681e-07 7.6664922164182252e-07 0 -1.2032734001883522e-06 2.3880872514208717e-06 0 -1.7453412091257027e-05 -2.5969136103312504e-05 0 -1.3085076139347972e-05 -2.0557070415235017e-05 0 -2.0479126460618397e-05 -2.0641073924556666e-05 0 -3.3164942120801146e-06 2.2718579382997365e-06 0 -3.1576508884930757e-06 1.1463659831287942e-06 0 -1.2032734001883522e-06 2.3880872514208717e-06 0 2.735803501059031e-06 -3.2156303995762878e-06 0 6.2073494560241003e-06 -1.7313620648778051e-06 0 2.3388662621357141e-06 -2.6915359764318687e-06 0 -1.7453412091257027e-05 -2.5969136103312504e-05 0 -2.0479126460618397e-05 -2.0641073924556666e-05 0 -2.907817169869637e-05 -3.0088566341337688e-05 0 -2.1345397243713286e-05 4.4553765070591215e-05 0 -4.4924826090466404e-05 5.5647429632867305e-05 0 -3.1253182527400604e-05 3.6456434930924044e-05 0 -7.7241591434478146e-10 -1.2849492288239223e-09 0 -3.3521858610951391e-07 -1.7495046691101035e-06 0 -1.4259636525306025e-06 -2.6842771721788307e-06 0 -7.6895457113168369e-10 8.6102624569415994e-10 0 -1.3867551567698568e-06 1.8200942331889702e-06 0 -4.8563940922773272e-07 1.2784072125505935e-06 0 -3.3164942120801146e-06 2.2718579382997365e-06 0 -1.2032734001883522e-06 2.3880872514208717e-06 0 -2.4018777014626415e-06 2.8310928033891902e-06 0 -1.4334068213806316e-06 -3.1489157845090568e-06 0 -1.2383841451263744e-06 -3.9626204079245754e-06 0 2.3388662621357141e-06 -2.6915359764318687e-06 0 2.3960367916389116e-06 -2.8386644843511315e-06 0 2.6808650347166543e-06 -2.1828424990504749e-06 0 4.0143109971224918e-06 -2.4767539869281794e-06 0 2.8573680831192681e-06 -1.8934772981120703e-05 0 -3.399292636019177e-06 -2.2941517532759072e-05 0 4.4677100038217774e-06 -2.9883452770792018e-05 0 6.3037077503183258e-06 -2.419321562838538e-07 0 5.9133916824205105e-06 7.2693146811491303e-07 0 7.6527303520192789e-06 6.5102762139730051e-07 0 -3.8685377610595529e-05 0.0002874837888926514 0 -5.9047682878797514e-05 0.00025203332008362186 0 -2.7069200783648975e-05 0.00025457042388229935 0 6.4290873087246453e-06 -0.00014668744852563056 0 1.4153308681177998e-05 -0.0001272508203525262 0 -1.396379952777442e-06 -0.00012960894392206437 0 -4.7295248095768701e-07 2.9903910046214174e-06 0 -1.3039651018432864e-06 2.9929341366224806e-06 0 -2.4018777014626415e-06 2.8310928033891902e-06 0 2.735803501059031e-06 -3.2156303995762878e-06 0 -1.2383841451263744e-06 -3.9626204079245754e-06 0 -1.1264135386116425e-08 -3.8685180290675191e-06 0 4.4337761241208428e-06 1.1778203071368101e-06 0 5.2669581505111773e-06 2.0181325606190881e-06 0 6.2791137282923343e-06 1.5364319483227711e-06 0 -3.399292636019177e-06 -2.2941517532759072e-05 0 -3.7813244897242559e-06 -3.3627976467809573e-05 0 4.4677100038217774e-06 -2.9883452770792018e-05 0 -9.6722926371275818e-05 0.0001859067708811933 0 -9.3210295270153648e-05 0.00015456488538367205 0 -6.4939173306613441e-05 0.00016890707928876071 0 2.5750569520825972e-05 -7.4720284138113458e-05 0 1.303895036607737e-05 -8.3827535403194079e-05 0 2.8529305577750557e-05 -9.0315960312428636e-05 0 -2.6378637606123424e-05 -8.5073358889162844e-05 0 -1.5239851904855582e-05 -7.1525266600253271e-05 0 -2.6471981523260297e-05 -7.1795316305744563e-05 0 1.0567662057275976e-05 -2.8383201999104635e-06 0 8.7030839480071231e-06 -6.8022016205200895e-06 0 1.0487612038870979e-05 -5.9135383463292487e-06 0 -9.6158017493777138e-06 -3.0151171874693032e-06 0 -7.6148098018323494e-06 -3.0113061060196077e-06 0 -6.2325520999497198e-06 -3.7005782022455012e-06 0 -7.3675509427208349e-06 1.6417872049476789e-06 0 -5.1739067376215493e-06 2.1872208076571118e-06 0 -5.787064971469048e-06 1.6392948121449034e-06 0 1.265603337369712e-05 2.7040965422423764e-06 0 9.3930491239855424e-06 1.3841921089700594e-07 0 1.2252530448368575e-05 1.7001157262917966e-06 0 4.4337761241208428e-06 1.1778203071368101e-06 0 3.6587184845319642e-06 1.6180379660328078e-06 0 5.2669581505111773e-06 2.0181325606190881e-06 0 8.7683533263159789e-06 -1.6410424701988459e-05 0 8.0186052409425183e-06 -2.1834481499798818e-05 0 1.153477896960459e-05 -1.9598780411824212e-05 0 -9.6158017493777138e-06 -3.0151171874693032e-06 0 -1.1420536072291323e-05 -2.2419606973343475e-06 0 -7.6148098018323503e-06 -3.0113061060196077e-06 0 -7.3675509427208349e-06 1.6417872049476789e-06 0 -5.7870649714690472e-06 1.6392948121449036e-06 0 -8.2848089706475016e-06 1.0340215778757973e-06 0 1.3833433729316888e-05 2.380166667121157e-06 0 1.1990270726737222e-05 1.8032585313990281e-06 0 1.1784307340550951e-05 2.1517280633205494e-07 0 -1.289097200772829e-05 -0.00011959765860069441 0 -1.5374615590404774e-05 -0.00010026495627166923 0 -2.3312703773005764e-05 -0.0001105798554486109 0 -5.950662991196159e-06 0.00023479857246346694 0 -4.0845395083505363e-06 0.0001964452194724646 0 1.325525471483812e-05 0.00021682899787513676 0 -2.0233014761286253e-05 -1.4469906722012605e-05 0 -1.1924166989388136e-05 -1.384599738989318e-05 0 -1.4158817229496161e-05 -8.9659218622878691e-06 0 -7.5200722236320161e-06 -7.8758544536451402e-06 0 -1.4158817229496159e-05 -8.9659218622878691e-06 0 -1.1924166989388136e-05 -1.384599738989318e-05 0 5.2842409978645162e-06 -3.1440539560028015e-06 0 2.6665316972294853e-06 -4.6427744357893851e-06 0 5.8527778582299237e-06 -7.298723141841928e-06 0 1.7530804731538959e-06 -8.9153061010450274e-06 0 5.8527778582299237e-06 -7.298723141841928e-06 0 2.6665316972294853e-06 -4.6427744357893851e-06 0 8.098614446804244e-07 -1.7298052803424915e-06 0 2.6808650347166543e-06 -2.1828424990504749e-06 0 1.0209078717900788e-06 -2.920048102641172e-06 0 2.3960367916389116e-06 -2.8386644843511315e-06 0 1.0209078717900788e-06 -2.920048102641172e-06 0 2.6808650347166543e-06 -2.1828424990504749e-06 0 5.6714524464470954e-07 2.9202008936475387e-06 0 9.8752594219013555e-07 2.5098022799743992e-06 0 -5.4740217437632177e-08 2.6435770575113247e-06 0 2.3106695181441206e-07 1.6723462349668594e-06 0 -5.4740217437632177e-08 2.6435770575113247e-06 0 9.8752594219013555e-07 2.5098022799743992e-06 0 1.5179580039589784e-05 -3.6137030938033639e-05 0 1.9719095019314366e-05 -4.1656898612981927e-05 0 2.0171622163641573e-05 -3.6878809064021238e-05 0 1.0567662057275976e-05 -2.8383201999104635e-06 0 1.3287653026923958e-05 -1.0104527793157082e-07 0 1.1784307340550951e-05 2.1517280633205494e-07 0 1.1928963926920984e-05 2.0203177236866328e-06 0 1.0674784825343684e-05 1.0166254991708152e-06 0 9.7775768226914434e-06 1.2718960774175554e-06 0 2.0251644700220282e-05 0.00016812110565837907 0 2.2541164087671066e-05 0.00019752310504678647 0 -4.0845395083505321e-06 0.0001964452194724646 0 -2.6378637606123424e-05 -8.5073358889162844e-05 0 -2.858193811470742e-05 -9.9751274038117842e-05 0 -1.5374615590404771e-05 -0.00010026495627166923 0 2.0251644700220282e-05 0.00016812110565837907 0 -7.9191783676944293e-06 0.00014414908256181361 0 1.5319791104733764e-05 0.0001403003303653557 0 1.265603337369712e-05 2.7040965422423764e-06 0 8.5293165552755286e-06 1.1713706665814752e-06 0 9.3930491239855424e-06 1.3841921089700586e-07 0 1.265603337369712e-05 2.7040965422423764e-06 0 1.2370369307839975e-05 5.299005784782452e-06 0 8.5293165552755286e-06 1.1713706665814754e-06 0 -1.5350759017981307e-05 0.00010013867895877493 0 -3.9412124975709903e-07 0.00012170691175353507 0 -2.6121266930019947e-05 0.00013020061473326019 0 -7.9191783676944293e-06 0.00014414908256181361 0 -2.6121266930019947e-05 0.00013020061473326019 0 -3.9412124975709903e-07 0.00012170691175353507 0 -3.233907036620971e-06 -2.6922328454394922e-06 0 -1.4259636525306027e-06 -2.6842771721788307e-06 0 -2.9347200278702471e-06 -3.538106088259786e-06 0 -2.624807919980535e-06 1.6310389654084612e-06 0 -2.6734751756830988e-06 2.293919892210826e-06 0 -1.3867551567698568e-06 1.8200942331889702e-06 0 -3.7813244897242559e-06 -3.3627976467809573e-05 0 -6.6567020228594751e-06 -4.5017652414507929e-05 0 3.7255830143423571e-06 -4.5543978702484311e-05 0 9.0713801408251766e-06 -4.8693137393089035e-05 0 1.2833674462450979e-05 -5.4321672571108084e-05 0 1.4065506863731803e-05 -4.94033273378098e-05 0 5.4442284858068169e-05 -3.8566876642932057e-05 0 5.1503905380313809e-05 -4.5739637213063419e-05 0 6.0548296244862338e-05 -4.4006694142410345e-05 0 1.0173508621043066e-05 8.1432731539537842e-07 0 1.1784307340550951e-05 2.1517280633205494e-07 0 1.1990270726737222e-05 1.8032585313990281e-06 0 1.1928963926920984e-05 2.0203177236866328e-06 0 1.4766525334311636e-05 3.6398080089190436e-06 0 1.2252530448368575e-05 1.7001157262917966e-06 0 2.9822625266936927e-05 -5.3470650809671672e-05 0 3.0732351777277877e-05 -4.779816735709842e-05 0 2.4709641582686877e-05 -4.9486761828426285e-05 0 2.6007764360581682e-05 -4.5039606982942973e-05 0 2.4709641582686877e-05 -4.9486761828426285e-05 0 3.0732351777277877e-05 -4.779816735709842e-05 0 2.4060841145767632e-05 -2.9783418749867436e-05 0 2.9221574619206953e-05 -3.6542244202472124e-05 0 3.0477323560254815e-05 -3.0735571693533167e-05 0 -3.8685377610595529e-05 0.0002874837888926514 0 -7.1160664641844236e-05 0.00028440231243965141 0 -5.9047682878797514e-05 0.00025203332008362186 0 6.4290873087246453e-06 -0.00014668744852563056 0 2.2513128622834961e-05 -0.00014361978750377426 0 1.4153308681177998e-05 -0.0001272508203525262 0 1.8693669628041316e-05 -5.2970933742190755e-05 0 2.0237882305759049e-05 -5.6703056946730286e-05 0 2.2761900630815058e-05 -5.6247207833630479e-05 0 5.0772119350333877e-05 -5.2647944388590928e-05 0 4.837156424199273e-05 -6.0328873485072395e-05 0 6.0634224022033884e-05 -5.7800499748673341e-05 0 3.1887868041814936e-05 0.00028501924774639742 0 -2.3183665054772968e-06 0.00027106525402719313 0 2.0550685052130472e-05 0.00024774444005930615 0 -2.9256063629199046e-05 -0.0001470105938248177 0 -1.2880876553601737e-05 -0.00013883686627356944 0 -2.557699603635552e-05 -0.00012699449101390603 0 4.4337761241208428e-06 1.1778203071368101e-06 0 6.2791137282923343e-06 1.5364319483227711e-06 0 5.9133916824205105e-06 7.2693146811491303e-07 0 8.1170941573638164e-06 1.5556696582280219e-06 0 5.9133916824205105e-06 7.2693146811491303e-07 0 6.2791137282923343e-06 1.5364319483227711e-06 0 3.7664713680301465e-05 0.00021698013290421134 0 2.0550685052130472e-05 0.00024774444005930615 0 1.325525471483812e-05 0.00021682899787513676 0 -3.5747480933862533e-05 -0.00011119523875648926 0 -2.557699603635552e-05 -0.00012699449101390603 0 -2.3312703773005764e-05 -0.0001105798554486109 0 -2.9211788059387474e-07 -3.0959240156795413e-06 0 -1.4259636525306027e-06 -2.6842771721788303e-06 0 -3.3521858610951391e-07 -1.7495046691101035e-06 0 -8.5745133024566952e-07 2.3715994167367576e-06 0 -4.8563940922773272e-07 1.2784072125505935e-06 0 -1.3867551567698568e-06 1.8200942331889702e-06 0 8.0210193393912825e-06 6.1905387691103638e-05 0 2.6365933845279126e-05 8.9972901340882545e-05 0 5.0800252931999919e-06 9.3707275062703248e-05 0 -3.233907036620971e-06 -2.6922328454394922e-06 0 -1.4552250405208503e-06 -1.7453996958690042e-06 0 -1.4259636525306025e-06 -2.6842771721788307e-06 0 -2.624807919980535e-06 1.6310389654084612e-06 0 -1.3867551567698568e-06 1.8200942331889702e-06 0 -1.2008928863058884e-06 1.0937019896740336e-06 0 -0.00010097587004839924 0.00025156960864011253 0 -7.6213004404618458e-05 0.0002275638516409072 0 -5.9047682878797514e-05 0.00025203332008362186 0 3.4361913317951634e-05 -0.00012394088831373172 0 2.0924424547422681e-05 -0.00011345152682576789 0 1.4153308681177998e-05 -0.0001272508203525262 0 8.7517275111848175e-06 2.5447315049943564e-05 0 -8.0400292067418234e-06 2.6776460616986131e-05 0 3.1533072424175417e-06 1.6761079871240007e-05 0 -5.8438140022524341e-06 1.1966914073920712e-05 0 3.1533072424175413e-06 1.6761079871240011e-05 0 -8.0400292067418234e-06 2.6776460616986131e-05 0 -1.4194735602769014e-05 -5.3447164391868436e-05 0 -1.3320242342924739e-05 -3.6846374152681804e-05 0 -2.0525297965048557e-05 -4.3439517546498383e-05 0 2.1197772212357657e-05 -1.0980672330133724e-05 0 2.6434891151874856e-05 -2.0085383854937112e-05 0 2.7806149105966385e-05 -1.5468477560700198e-05 0 -1.5350759017981307e-05 0.00010013867895877493 0 -2.7193049966139701e-05 8.3727874547214926e-05 0 -1.3014700457121434e-05 6.9698847671892025e-05 0 -2.1345397243713286e-05 4.4553765070591215e-05 0 -1.3014700457121434e-05 6.9698847671892025e-05 0 -2.8876590714556374e-05 6.6140856677785663e-05 0 -1.7453412091257027e-05 -2.5969136103312504e-05 0 -2.1510007486700024e-05 -3.4962619777899604e-05 0 -1.3320242342924739e-05 -3.6846374152681804e-05 0 -3.7813244897242559e-06 -3.3627976467809573e-05 0 3.7255830143423571e-06 -4.5543978702484311e-05 0 4.4677100038217774e-06 -2.9883452770792018e-05 0 1.414086756461332e-05 -4.4274507749470083e-05 0 1.0451191524468076e-05 -4.4111980623756715e-05 0 1.4065506863731803e-05 -4.94033273378098e-05 0 4.4428699153437553e-05 -4.2664608743358425e-05 0 5.1503905380313809e-05 -4.5739637213063419e-05 0 4.8185068707203135e-05 -3.9222648200728422e-05 0 1.3214837251308169e-05 -3.8017470844674979e-06 0 1.1904706372868123e-05 -9.0485553857280811e-06 0 1.4819235009815634e-05 -7.1420320386186347e-06 0 8.1884952716649631e-06 -9.8312630853775404e-06 0 1.0146085576093816e-05 -1.312605311089609e-05 0 1.1904706372868123e-05 -9.0485553857280811e-06 0 1.7975069971697276e-05 5.6961396098361219e-06 0 1.5790608573116424e-05 4.2289678576551371e-06 0 1.5937574572520133e-05 2.937513031624712e-06 0 2.8573680831192681e-06 -1.8934772981120703e-05 0 5.0823996882459271e-06 -1.2212208675462936e-05 0 -3.2308692116094406e-07 -1.4497259011833567e-05 0 3.1887868041814936e-05 0.00028501924774639742 0 5.0798229652264501e-05 0.00025128464100268577 0 6.4593980124434165e-05 0.00028046291948486388 0 -2.9256063629199046e-05 -0.0001470105938248177 0 -4.0811875155837663e-05 -0.00013001572520935284 0 -4.6033684752219985e-05 -0.00014620776267414081 0 1.3833433729316888e-05 2.380166667121157e-06 0 1.5937574572520133e-05 2.937513031624712e-06 0 1.5790608573116424e-05 4.2289678576551371e-06 0 3.6180055446766586e-05 -3.0031243913064667e-05 0 3.0477323560254815e-05 -3.0735571693533167e-05 0 3.7864017275229406e-05 -3.385213721457213e-05 0 2.6007764360581682e-05 -4.5039606982942973e-05 0 3.0732351777277877e-05 -4.779816735709842e-05 0 2.7481337221184164e-05 -4.1308299355499704e-05 0 1.4772311103530449e-05 3.8425189395156417e-06 0 1.3205540516960415e-05 3.0045128282872697e-06 0 1.5790608573116424e-05 4.2289678576551371e-06 0 2.7689513025583305e-06 -1.2515272177964045e-06 0 4.3445333768362837e-06 -1.184264427515823e-06 0 2.6808650347166543e-06 -2.1828424990504749e-06 0 -4.8081049374484694e-05 -4.9829939029724902e-05 0 -5.1959519726641201e-05 -6.3510354173487921e-05 0 -3.7508108614386732e-05 -5.381204367563744e-05 0 2.735803501059031e-06 -3.2156303995762878e-06 0 1.9555023499742536e-06 -3.2547487735989359e-06 0 4.0143109971224918e-06 -2.4767539869281794e-06 0 9.7775768226914434e-06 1.2718960774175554e-06 0 1.0674784825343684e-05 1.0166254991708152e-06 0 8.2446629296047584e-06 3.4600940725444809e-08 0 1.3833433729316888e-05 2.380166667121157e-06 0 1.3287653026923958e-05 -1.0104527793157082e-07 0 1.5937574572520133e-05 2.937513031624712e-06 0 -8.8113599163591776e-05 0.00012454035335306534 0 -8.1734889870762012e-05 9.6834737556365728e-05 0 -5.9736054902410511e-05 0.000106048306003737 0 2.2100489283173748e-06 1.5024741456694922e-06 0 2.2714079234616228e-06 8.8184925848875753e-07 0 9.6593686395290204e-07 6.250344180591235e-07 0 8.4996736976224412e-06 -5.7384890355634126e-07 0 1.2252530448368575e-05 1.7001157262917966e-06 0 9.3930491239855424e-06 1.3841921089700586e-07 0 1.4560661534021902e-05 -2.5495194818943156e-05 0 1.0865676070317718e-05 -2.4729089810894415e-05 0 1.3496502303684821e-05 -3.0255475393487604e-05 0 -2.6378637606123424e-05 -8.5073358889162844e-05 0 -3.8731313894593266e-05 -7.7825653473223593e-05 0 -4.132508892311658e-05 -9.4675120659222723e-05 0 2.735803501059031e-06 -3.2156303995762878e-06 0 4.0143109971224918e-06 -2.4767539869281794e-06 0 5.4975666942412538e-06 -2.0474404484625552e-06 0 4.4337761241208428e-06 1.1778203071368101e-06 0 3.0629258478911835e-06 4.9859244291729103e-07 0 2.2714079234616228e-06 8.8184925848875753e-07 0 6.2363691652397552e-06 -9.3992256756571436e-07 0 9.3930491239855424e-06 1.3841921089700586e-07 0 8.5293165552755286e-06 1.1713706665814754e-06 0 8.0186052409425183e-06 -2.1834481499798818e-05 0 1.0865676070317718e-05 -2.4729089810894415e-05 0 1.153477896960459e-05 -1.9598780411824212e-05 0 1.414086756461332e-05 -4.4274507749470083e-05 0 1.7211667105025827e-05 -4.7697251056904765e-05 0 1.6001402211180829e-05 -4.1053964595530615e-05 0 -9.1140296051674398e-06 -8.3255007656552137e-07 0 -5.4853683403998198e-06 -2.5390418193520294e-06 0 -5.1848489884101725e-06 6.8692800654397016e-08 0 8.8039107881251325e-05 0.00024308821719552695 0 5.0798229652264501e-05 0.00025128464100268577 0 6.2471705975532881e-05 0.00022612055767597182 0 -6.1039861865815691e-05 -0.00012870402561278082 0 -4.0811875155837663e-05 -0.00013001572520935284 0 -4.8340654500554625e-05 -0.00011738334322695189 0 7.6527303520192789e-06 6.5102762139730051e-07 0 8.2446629296047584e-06 3.4600940725444809e-08 0 6.3037077503183258e-06 -2.419321562838538e-07 0 9.7775768226914434e-06 1.2718960774175554e-06 0 8.2446629296047584e-06 3.4600940725444809e-08 0 7.6527303520192789e-06 6.5102762139730051e-07 0 -5.3055846626675253e-05 0.00021516271228334301 0 -5.9047682878797514e-05 0.00025203332008362186 0 -7.6213004404618458e-05 0.0002275638516409072 0 9.2336935250477213e-06 -0.00010815582032541041 0 1.4153308681177998e-05 -0.0001272508203525262 0 2.0924424547422681e-05 -0.00011345152682576789 0 8.1170941573638164e-06 1.5556696582280219e-06 0 9.021912889260115e-06 2.1969983057758779e-06 0 1.0628869022519019e-05 2.106001203057204e-06 0 1.0966225777042747e-05 2.4365919500501646e-06 0 1.0628869022519019e-05 2.106001203057204e-06 0 9.021912889260115e-06 2.1969983057758779e-06 0 8.1170941573638164e-06 1.5556696582280219e-06 0 7.6527303520192789e-06 6.5102762139730051e-07 0 5.9133916824205105e-06 7.2693146811491303e-07 0 -7.3675509427208349e-06 1.6417872049476789e-06 0 -6.3488692282419694e-06 1.6046004916094354e-06 0 -4.4918643554959527e-06 2.4326939285915369e-06 0 -1.7988082886059144e-07 -2.0525059766487043e-06 0 -1.6966640148333228e-06 -6.0808200185797278e-06 0 2.6665316972294853e-06 -4.6427744357893851e-06 0 1.7530804731538959e-06 -8.9153061010450274e-06 0 2.6665316972294853e-06 -4.642774435789386e-06 0 -1.6966640148333228e-06 -6.0808200185797278e-06 0 -7.3675509427208349e-06 1.6417872049476789e-06 0 -4.4918643554959527e-06 2.4326939285915369e-06 0 -5.1739067376215493e-06 2.1872208076571118e-06 0 8.0210193393912825e-06 6.1905387691103638e-05 0 2.7744515679919147e-05 6.4214042872540891e-05 0 2.6365933845279126e-05 8.9972901340882545e-05 0 -5.950662991196159e-06 0.00023479857246346694 0 -2.3183665054772925e-06 0.00027106525402719313 0 -2.7069200783648975e-05 0.00025457042388229935 0 -1.289097200772829e-05 -0.00011959765860069441 0 -1.2880876553601737e-05 -0.00013883686627356944 0 -1.396379952777442e-06 -0.00012960894392206437 0 6.6911431640435117e-06 1.5519607231424757e-06 0 4.9025591288023573e-06 2.4660398932013736e-06 0 4.7765177441264238e-06 1.7622728451087719e-06 0 1.4408007614551754e-09 3.1048084889156026e-10 0 9.6593686395290204e-07 6.250344180591235e-07 0 2.2714079234616228e-06 8.8184925848875753e-07 0 1.265603337369712e-05 2.7040965422423764e-06 0 1.7319974464595036e-05 6.4320692952226273e-06 0 1.2370369307839975e-05 5.299005784782452e-06 0 3.5247178484413667e-05 -3.6730151299671999e-05 0 3.0477323560254815e-05 -3.0735571693533167e-05 0 2.9221574619206953e-05 -3.6542244202472124e-05 0 2.4060841145767632e-05 -2.9783418749867436e-05 0 1.9256358440431934e-05 -2.6643932485163232e-05 0 2.1934414559691389e-05 -3.2253350719408957e-05 0 5.2669581505111773e-06 2.0181325606190881e-06 0 5.7120487107965477e-06 2.4100015662395098e-06 0 6.9972076627065692e-06 2.0330907756321476e-06 0 -2.8218451255619128e-05 -4.188260248807623e-05 0 -3.7508108614386732e-05 -5.381204367563744e-05 0 -2.4047521678179e-05 -5.2892661785576671e-05 0 -3.2498487179280573e-05 -6.3208162471577826e-05 0 -2.4047521678179e-05 -5.2892661785576671e-05 0 -3.7508108614386732e-05 -5.381204367563744e-05 0 1.55239849822188e-09 -9.6131789058382331e-11 0 1.4408007614552561e-09 3.1048084889157432e-10 0 1.4790638006297628e-06 2.5747329626130017e-07 0 -4.7056704012071281e-05 0.00012536257131034301 0 -5.9736054902410511e-05 0.000106048306003737 0 -3.616600956564845e-05 0.00010382711429956778 0 -4.2292240236146664e-05 8.1523899750243791e-05 0 -3.616600956564845e-05 0.00010382711429956778 0 -5.9736054902410511e-05 0.000106048306003737 0 1.8693669628041316e-05 -5.2970933742190755e-05 0 1.7211667105025827e-05 -4.7697251056904765e-05 0 1.4065506863731803e-05 -4.94033273378098e-05 0 5.0772119350333877e-05 -5.2647944388590928e-05 0 5.1503905380313809e-05 -4.5739637213063419e-05 0 4.4109637558530547e-05 -4.7251061912365844e-05 0 5.8075793199488329e-06 3.1061619046444594e-06 0 8.5293165552755286e-06 1.1713706665814754e-06 0 1.2370369307839975e-05 5.299005784782452e-06 0 2.0340566536213499e-05 -4.6891254396764283e-05 0 2.261697934502523e-05 -4.5166625217982862e-05 0 1.9719095019314366e-05 -4.1656898612981927e-05 0 2.2989395408755363e-05 1.0163828703734923e-05 0 2.613211882342766e-05 1.3624555479031554e-05 0 2.4020632262584255e-05 1.2735805613778149e-05 0 2.735803501059031e-06 -3.2156303995762878e-06 0 5.4975666942412538e-06 -2.0474404484625552e-06 0 6.2073494560241003e-06 -1.7313620648778051e-06 0 -5.8438140022524341e-06 1.1966914073920712e-05 0 7.2353947166594601e-06 8.9823467785879396e-06 0 3.1533072424175417e-06 1.6761079871240007e-05 0 5.822056081602051e-05 9.2749175966032031e-05 0 4.4140957048898845e-05 0.00011170333504441161 0 2.6365933845279126e-05 8.9972901340882545e-05 0 6.6911431640435117e-06 1.5519607231424757e-06 0 6.7393407208439679e-06 2.2314349000005073e-06 0 4.9025591288023581e-06 2.4660398932013736e-06 0 -5.950662991196159e-06 0.00023479857246346694 0 2.0550685052130472e-05 0.00024774444005930615 0 -2.3183665054772968e-06 0.00027106525402719313 0 -1.289097200772829e-05 -0.00011959765860069441 0 -2.557699603635552e-05 -0.00012699449101390603 0 -1.2880876553601737e-05 -0.00013883686627356944 0 4.01202084497192e-06 2.6257692924936346e-06 0 3.5598183469007201e-06 2.7461762672422002e-06 0 4.9025591288023581e-06 2.4660398932013736e-06 0 7.6064969454832079e-06 -7.324018044881926e-06 0 6.8856563683461461e-06 -1.0645093673764037e-05 0 8.7030839480071231e-06 -6.8022016205200903e-06 0 3.7664713680301465e-05 0.00021698013290421134 0 6.2471705975532881e-05 0.00022612055767597182 0 5.0798229652264501e-05 0.00025128464100268577 0 -3.5747480933862533e-05 -0.00011119523875648926 0 -4.8340654500554625e-05 -0.00011738334322695189 0 -4.0811875155837663e-05 -0.00013001572520935284 0 -1.8137017694581541e-05 -3.7296142368419624e-06 0 -2.2773264190381228e-05 -7.2099292324621204e-06 0 -1.692681619528273e-05 -4.0024675222269921e-06 0 -3.5320333511501369e-05 1.1260610666427645e-05 0 -2.7264849038456334e-05 5.0174517208760938e-06 0 -2.473002448884572e-05 5.6805261075288577e-06 0 8.7517275111848175e-06 2.5447315049943564e-05 0 8.0043477171492802e-06 4.0829317674704757e-05 0 -4.1909813680742445e-06 4.3307382635512885e-05 0 -3.3164942120801146e-06 2.2718579382997365e-06 0 -5.2737364239153492e-06 1.1443923749149003e-06 0 -3.1576508884930757e-06 1.1463659831287942e-06 0 2.3961024268346254e-05 -6.0897724769660089e-05 0 2.4160845861444871e-05 -5.8321460695982027e-05 0 2.0237882305759049e-05 -5.6703056946730286e-05 0 2.3961024268346254e-05 -6.0897724769660089e-05 0 2.0237882305759049e-05 -5.6703056946730286e-05 0 1.7933074023153315e-05 -5.8766028637788748e-05 0 7.7419250214886583e-05 -6.1940711813787485e-05 0 6.8391710274563519e-05 -5.1327474772422025e-05 0 6.0634224022033884e-05 -5.7800499748673341e-05 0 7.7419250214886583e-05 -6.1940711813787485e-05 0 6.0634224022033884e-05 -5.7800499748673341e-05 0 6.4186678008466101e-05 -6.7445424805631646e-05 0 1.8693669628041316e-05 -5.2970933742190755e-05 0 2.116756906927306e-05 -5.1514966302075684e-05 0 1.7211667105025827e-05 -4.7697251056904765e-05 0 5.0772119350333877e-05 -5.2647944388590928e-05 0 4.4109637558530547e-05 -4.7251061912365844e-05 0 4.2678119375210624e-05 -5.3001784405567311e-05 0 4.5923513271759121e-05 -2.9807711723287826e-05 0 4.4030498364996207e-05 -3.4714902202019615e-05 0 4.9678984946096635e-05 -3.4044049214775709e-05 0 4.509952110714187e-06 -3.597691978926508e-05 0 6.395655008990682e-06 -4.2481350217927347e-05 0 1.0421326769745037e-05 -3.8028621490324152e-05 0 3.8053317071199797e-05 -4.3707522362179446e-06 0 3.1359715511116646e-05 -1.1024469933824142e-05 0 3.9144585207063713e-05 -1.4476943783350089e-05 0 3.1887868041814936e-05 0.00028501924774639742 0 6.2189828526219132e-05 0.00031134846871845432 0 2.9595336077624755e-05 0.0003205220348318947 0 -3.8685377610595529e-05 0.0002874837888926514 0 -3.2411374376687934e-05 0.00032174823596634955 0 -6.4509083931713239e-05 0.00031513428074066765 0 -2.9256063629199046e-05 -0.0001470105938248177 0 -4.2392516343952475e-05 -0.00016187807833745608 0 -2.5923168114500923e-05 -0.00016535207574811919 0 6.4290873087246453e-06 -0.00014668744852563056 0 5.6911614071205905e-06 -0.00016500328867313958 0 2.215281229135734e-05 -0.0001603210634969469 0 7.2561760287168084e-06 2.2775770799759988e-06 0 6.9972076627065692e-06 2.0330907756321476e-06 0 5.7120487107965477e-06 2.4100015662395098e-06 0 3.1887868041814936e-05 0.00028501924774639742 0 6.4593980124434179e-05 0.00028046291948486388 0 6.2189828526219146e-05 0.00031134846871845432 0 -2.9256063629199046e-05 -0.0001470105938248177 0 -4.6033684752219991e-05 -0.00014620776267414081 0 -4.2392516343952475e-05 -0.00016187807833745608 0 1.3214837251308169e-05 -3.8017470844674979e-06 0 1.5245638279495281e-05 -7.3427669901192556e-07 0 1.3287653026923958e-05 -1.0104527793157082e-07 0 -3.8685377610595529e-05 0.0002874837888926514 0 -6.4509083931713239e-05 0.00031513428074066765 0 -7.1160664641844236e-05 0.00028440231243965141 0 6.4290873087246453e-06 -0.00014668744852563056 0 2.215281229135734e-05 -0.0001603210634969469 0 2.2513128622834961e-05 -0.00014361978750377426 0 4.2674907687349033e-06 -6.1930430980127859e-05 0 1.2439938564875437e-05 -5.3613729596614986e-05 0 3.7255830143423571e-06 -4.5543978702484311e-05 0 8.7683533263159789e-06 -1.6410424701988459e-05 0 1.153477896960459e-05 -1.9598780411824212e-05 0 1.0146085576093816e-05 -1.312605311089609e-05 0 1.3173156920339977e-05 -1.6652770812391772e-05 0 1.0146085576093816e-05 -1.312605311089609e-05 0 1.153477896960459e-05 -1.9598780411824212e-05 0 6.2363691652397552e-06 -9.3992256756571436e-07 0 2.3388662621357141e-06 -2.6915359764318687e-06 0 6.2073494560241003e-06 -1.7313620648778051e-06 0 -1.5350759017981307e-05 0.00010013867895877493 0 5.0800252931999919e-06 9.3707275062703248e-05 0 -3.9412124975709903e-07 0.00012170691175353507 0 -5.1959519726641201e-05 -6.3510354173487921e-05 0 -4.2810743016998715e-05 -6.6739123609831097e-05 0 -3.7508108614386732e-05 -5.381204367563744e-05 0 1.6629700321718049e-05 1.0486451695145459e-05 0 7.2353947166594601e-06 8.9823467785879379e-06 0 1.2370369307839975e-05 5.299005784782452e-06 0 5.8075793199488329e-06 3.1061619046444594e-06 0 1.2370369307839975e-05 5.299005784782452e-06 0 7.2353947166594601e-06 8.9823467785879379e-06 0 1.1928963926920984e-05 2.0203177236866328e-06 0 1.2788522673338416e-05 2.8743875126398152e-06 0 1.4766525334311636e-05 3.6398080089190436e-06 0 2.4487916581023162e-05 -3.7045186116324557e-05 0 2.7481337221184164e-05 -4.1308299355499704e-05 0 2.9221574619206953e-05 -3.6542244202472124e-05 0 3.2825816367190623e-05 -4.3060348410653651e-05 0 2.9221574619206953e-05 -3.6542244202472124e-05 0 2.7481337221184164e-05 -4.1308299355499704e-05 0 -6.4616641220069561e-05 5.051140737487921e-05 0 -5.4739589271337081e-05 3.3273935232484146e-05 0 -4.3961569195479346e-05 3.7407524822548446e-05 0 -3.3203248895853127e-05 -1.8707988095642212e-05 0 -3.8501425520909608e-05 -2.7220783652813783e-05 0 -2.7981376888693135e-05 -2.0497317367260405e-05 0 9.0821557077366596e-10 -6.1955508155157306e-10 0 1.2298339618044264e-09 -4.8838917627783311e-10 0 1.2502036930353626e-06 -1.0979824680771904e-06 0 7.2240921870890737e-10 6.6492107039386301e-10 0 4.2860427372764088e-10 6.6046459176319347e-10 0 6.1716644507955559e-07 1.4509120614486261e-06 0 1.265603337369712e-05 2.7040965422423764e-06 0 1.2252530448368575e-05 1.700115726291797e-06 0 1.4955737363437607e-05 3.7784662254270771e-06 0 1.4772311103530449e-05 3.8425189395156417e-06 0 1.4766525334311636e-05 3.6398080089190436e-06 0 1.2788522673338416e-05 2.8743875126398152e-06 0 1.1928963926920984e-05 2.0203177236866328e-06 0 1.2252530448368575e-05 1.7001157262917962e-06 0 1.0674784825343684e-05 1.0166254991708152e-06 0 -3.2145967418367204e-06 -4.0619260733167277e-06 0 -6.2325520999497198e-06 -3.7005782022455012e-06 0 -4.992011928826256e-06 -3.4725442672058921e-06 0 -3.2343888427492047e-06 2.6755170646023003e-06 0 -4.048711043919878e-06 2.0809945990698519e-06 0 -5.1739067376215493e-06 2.1872208076571118e-06 0 2.5369487683003824e-05 0.0001205911153591202 0 2.6365933845279126e-05 8.9972901340882545e-05 0 4.4140957048898845e-05 0.00011170333504441161 0 -3.2145967418367204e-06 -4.0619260733167277e-06 0 -4.9920119288262551e-06 -3.4725442672058921e-06 0 -2.9347200278702471e-06 -3.538106088259786e-06 0 -3.2343888427492047e-06 2.6755170646023003e-06 0 -2.6734751756830988e-06 2.293919892210826e-06 0 -4.048711043919878e-06 2.0809945990698519e-06 0 1.5179580039589784e-05 -3.6137030938033639e-05 0 1.6001402211180829e-05 -4.1053964595530615e-05 0 1.9719095019314366e-05 -4.1656898612981927e-05 0 8.0210193393912825e-06 6.1905387691103638e-05 0 1.8979422069092742e-05 3.7121978791158041e-05 0 2.7744515679919147e-05 6.4214042872540891e-05 0 8.4996736976224412e-06 -5.7384890355634126e-07 0 1.0674784825343684e-05 1.0166254991708152e-06 0 1.2252530448368575e-05 1.7001157262917966e-06 0 3.5247178484413667e-05 -3.6730151299671999e-05 0 3.7864017275229406e-05 -3.385213721457213e-05 0 3.0477323560254815e-05 -3.0735571693533167e-05 0 -2.5073595291231316e-10 -8.3810482995938444e-10 0 3.9721624336810812e-10 -9.1859589203412833e-10 0 1.8554284370016738e-07 -1.8759968714470702e-06 0 -1.9844488660568816e-11 7.5258815293477448e-10 0 -4.7999028222003429e-10 6.0829024941234603e-10 0 -1.9170551471043458e-07 1.5312220791957531e-06 0 -1.0335550796674504e-05 -4.9062315518676866e-09 0 -1.4121834523784843e-05 -1.3948055843011356e-06 0 -1.045455811747378e-05 3.9291340538959064e-07 0 -2.0425262981354265e-05 1.1976072843140289e-06 0 -1.4498827100388717e-05 -7.9590442010150421e-07 0 -1.4846864522484599e-05 -1.366322118995634e-06 0 -6.0713317044048526e-06 -1.7344970067476724e-05 0 -1.1924166989388136e-05 -1.384599738989318e-05 0 -1.3085076139347972e-05 -2.0557070415235017e-05 0 1.9417751455843135e-05 -4.5841861151823181e-05 0 1.1021552768444078e-05 -4.0245835477553018e-05 0 1.2439938564875441e-05 -5.3613729596614986e-05 0 1.0567662057275976e-05 -2.8383201999104635e-06 0 8.8225201670072047e-06 -4.3251864573682942e-06 0 8.7030839480071231e-06 -6.8022016205200903e-06 0 1.0715308952106528e-05 2.0427901117403584e-06 0 1.3205540516960415e-05 3.0045128282872697e-06 0 1.0966225777042747e-05 2.4365919500501646e-06 0 1.1990270726737222e-05 1.8032585313990281e-06 0 1.3205540516960415e-05 3.0045128282872697e-06 0 1.0715308952106528e-05 2.0427901117403584e-06 0 1.7647556316393023e-05 5.7678423700840445e-06 0 1.7319974464595036e-05 6.4320692952226273e-06 0 1.4955737363437607e-05 3.7784662254270771e-06 0 1.265603337369712e-05 2.7040965422423764e-06 0 1.4955737363437607e-05 3.7784662254270767e-06 0 1.7319974464595036e-05 6.4320692952226273e-06 0 3.7794481290923712e-05 -4.7779499930678328e-05 0 3.4649272135997574e-05 -5.2832287485686242e-05 0 4.2678119375210624e-05 -5.3001784405567311e-05 0 3.2420414535979273e-06 -2.2768142191107219e-05 0 8.0186052409425166e-06 -2.1834481499798818e-05 0 6.2740452727737353e-06 -1.8110942061369808e-05 0 7.6064969454832079e-06 -7.324018044881926e-06 0 7.2330057120504929e-06 -1.0933711877735063e-05 0 6.8856563683461461e-06 -1.0645093673764037e-05 0 8.2595121232410549e-06 -1.5850010404908884e-05 0 6.8856563683461461e-06 -1.0645093673764037e-05 0 7.2330057120504929e-06 -1.0933711877735063e-05 0 -6.9957253368761813e-06 5.8861823828304638e-07 0 -1.0335550796674504e-05 -4.9062315518678818e-09 0 -8.2848089706475016e-06 1.0340215778757973e-06 0 -1.4498827100388717e-05 -7.9590442010150421e-07 0 -9.5521677793823446e-06 -1.5538301846432907e-06 0 -1.1420536072291323e-05 -2.2419606973343475e-06 0 3.3673515666380379e-05 -6.413636024559114e-05 0 4.1374090201415585e-05 -6.6889463146525285e-05 0 3.407501857510024e-05 -5.8920866587806172e-05 0 7.2353947166594601e-06 8.9823467785879379e-06 0 1.2137212235240188e-05 1.489978117137581e-05 0 3.1533072424175417e-06 1.6761079871240007e-05 0 8.1170941573638164e-06 1.5556696582280219e-06 0 9.7775768226914434e-06 1.2718960774175552e-06 0 7.6527303520192789e-06 6.5102762139730051e-07 0 -1.4259636525306025e-06 -2.6842771721788307e-06 0 -1.6320363054512035e-06 -3.692880146377382e-06 0 -2.9347200278702471e-06 -3.538106088259786e-06 0 -1.3867551567698568e-06 1.8200942331889702e-06 0 -2.6734751756830988e-06 2.293919892210826e-06 0 -1.9106267389769638e-06 2.5749273533833677e-06 0 4.01202084497192e-06 2.6257692924936346e-06 0 2.2837590228919433e-06 2.8724953528004073e-06 0 3.5598183469007196e-06 2.7461762672421998e-06 0 1.0567662057275976e-05 -2.8383201999104635e-06 0 1.1841354149215e-05 -3.0801512654754475e-06 0 1.3287653026923958e-05 -1.0104527793157082e-07 0 4.4428699153437553e-05 -4.2664608743358425e-05 0 3.788791292288756e-05 -4.1482156610258643e-05 0 4.4109637558530547e-05 -4.7251061912365844e-05 0 2.5971501396601978e-06 2.8045188869502813e-06 0 3.5598183469007196e-06 2.7461762672421998e-06 0 2.2837590228919433e-06 2.8724953528004073e-06 0 -9.6722926371275818e-05 0.0001859067708811933 0 -6.4939173306613441e-05 0.00016890707928876071 0 -7.242531028845728e-05 0.00019848673613863263 0 2.8529305577750557e-05 -9.0315960312428636e-05 0 1.303895036607737e-05 -8.3827535403194079e-05 0 1.7678634183609275e-05 -9.8574679731396449e-05 0 2.5750569520825972e-05 -7.4720284138113458e-05 0 1.3571078874923461e-05 -6.9319682580406915e-05 0 1.303895036607737e-05 -8.3827535403194079e-05 0 1.5540087473149736e-05 -1.224419398608133e-05 0 1.4819235009815634e-05 -7.1420320386186347e-06 0 1.1904706372868123e-05 -9.0485553857280811e-06 0 3.2420414535979273e-06 -2.2768142191107219e-05 0 6.8626031695468717e-06 -2.6488290265151776e-05 0 8.0186052409425183e-06 -2.1834481499798818e-05 0 6.6911431640435117e-06 1.5519607231424757e-06 0 6.8648734870235502e-06 -4.4722396129283244e-07 0 8.2397333123925581e-06 6.9133047258435263e-07 0 1.3214837251308169e-05 -3.8017470844674979e-06 0 1.3287653026923958e-05 -1.0104527793157082e-07 0 1.1841354149214998e-05 -3.0801512654754471e-06 0 0.00010125924337198038 0.00030946725509101451 0 8.1421928640382736e-05 0.00032887915206308469 0 6.2189828526219146e-05 0.00031134846871845432 0 -6.1836126155259886e-05 -0.00016425182421121037 0 -5.0176771750895227e-05 -0.00017180126934625089 0 -4.2392516343952475e-05 -0.00016187807833745608 0 4.1932642249842174e-05 -0.00015936041579157204 0 2.2152812291357337e-05 -0.0001603210634969469 0 3.236975024156227e-05 -0.00016955523740631479 0 -0.00010207985441581774 0.00031962054024652227 0 -6.4509083931713239e-05 0.00031513428074066765 0 -7.9563433642192098e-05 0.00033419141379306363 0 1.0173508621043066e-05 8.1432731539537842e-07 0 8.7180152215029676e-06 1.7152541189498965e-06 0 8.2397333123925581e-06 6.9133047258435263e-07 0 6.6911431640435117e-06 1.5519607231424757e-06 0 8.2397333123925581e-06 6.9133047258435263e-07 0 8.7180152215029676e-06 1.7152541189498965e-06 0 5.2842409978645162e-06 -3.1440539560028015e-06 0 6.8648734870235502e-06 -4.4722396129283202e-07 0 5.1113638691533511e-06 -7.9638201150729542e-07 0 -2.1398623023930661e-05 8.4724399779958406e-06 0 -2.473002448884572e-05 5.6805261075288577e-06 0 -1.4210728996960805e-05 2.0370280484694318e-06 0 -1.8805571222383891e-05 9.2215194655589756e-07 0 -1.4210728996960804e-05 2.0370280484694314e-06 0 -2.473002448884572e-05 5.6805261075288577e-06 0 5.8075793199488329e-06 3.1061619046444594e-06 0 8.3549734910033873e-08 1.1383866951705381e-06 0 3.9034466054447822e-06 -4.56074239424556e-07 0 -1.7988082886059144e-07 -2.0525059766487043e-06 0 1.7566255244507034e-06 4.890280084501157e-07 0 -8.6714392559828681e-07 7.6664922164182252e-07 0 7.6064969454832079e-06 -7.324018044881926e-06 0 5.8527778582299237e-06 -7.298723141841928e-06 0 7.2330057120504929e-06 -1.0933711877735063e-05 0 -3.2343888427492047e-06 2.6755170646023003e-06 0 -1.3039651018432864e-06 2.9929341366224806e-06 0 -1.9106267389769638e-06 2.5749273533833677e-06 0 -8.5745133024566952e-07 2.3715994167367576e-06 0 -1.9106267389769638e-06 2.5749273533833677e-06 0 -1.3039651018432864e-06 2.9929341366224806e-06 0 -2.9211788059387474e-07 -3.0959240156795413e-06 0 -1.1264135386116425e-08 -3.8685180290675191e-06 0 -1.6320363054512037e-06 -3.692880146377382e-06 0 -3.2145967418367204e-06 -4.0619260733167277e-06 0 -1.6320363054512037e-06 -3.692880146377382e-06 0 -1.1264135386116425e-08 -3.8685180290675191e-06 0 -3.2498487179280573e-05 -6.3208162471577826e-05 0 -3.8731313894593273e-05 -7.7825653473223593e-05 0 -2.6471981523260297e-05 -7.1795316305744563e-05 0 -2.6378637606123424e-05 -8.5073358889162844e-05 0 -2.6471981523260297e-05 -7.1795316305744563e-05 0 -3.8731313894593273e-05 -7.7825653473223593e-05 0 8.098614446804244e-07 -1.7298052803424915e-06 0 1.2502036930353626e-06 -1.0979824680771904e-06 0 2.6808650347166543e-06 -2.1828424990504749e-06 0 2.7689513025583305e-06 -1.2515272177964045e-06 0 2.6808650347166543e-06 -2.1828424990504749e-06 0 1.2502036930353626e-06 -1.0979824680771904e-06 0 1.5411497233893836e-06 2.2051156268810159e-06 0 6.1716644507955559e-07 1.4509120614486261e-06 0 9.8752594219013555e-07 2.5098022799743992e-06 0 2.3106695181441206e-07 1.6723462349668594e-06 0 9.8752594219013555e-07 2.5098022799743992e-06 0 6.1716644507955559e-07 1.4509120614486261e-06 0 -5.950662991196159e-06 0.00023479857246346694 0 1.3255254714838119e-05 0.00021682899787513676 0 2.0550685052130472e-05 0.00024774444005930615 0 -1.289097200772829e-05 -0.00011959765860069441 0 -2.3312703773005764e-05 -0.0001105798554486109 0 -2.557699603635552e-05 -0.00012699449101390603 0 -4.7295248095768701e-07 2.9903910046214174e-06 0 -1.4385321638947912e-07 3.0276146486285635e-06 0 -1.3039651018432864e-06 2.9929341366224806e-06 0 2.735803501059031e-06 -3.2156303995762878e-06 0 -1.1264135386116425e-08 -3.8685180290675191e-06 0 1.9555023499742536e-06 -3.2547487735989359e-06 0 -1.7988082886059144e-07 -2.0525059766487043e-06 0 2.6665316972294853e-06 -4.6427744357893851e-06 0 3.2393821660543873e-06 -1.4911065348732833e-06 0 -3.2343888427492047e-06 2.6755170646023003e-06 0 -2.4018777014626415e-06 2.8310928033891902e-06 0 -1.3039651018432864e-06 2.9929341366224806e-06 0 -3.2145967418367204e-06 -4.0619260733167277e-06 0 -1.1264135386116425e-08 -3.8685180290675191e-06 0 -1.2383841451263744e-06 -3.9626204079245754e-06 0 8.2595121232410549e-06 -1.5850010404908884e-05 0 6.0582022857685117e-06 -1.2158702790036524e-05 0 6.8856563683461461e-06 -1.0645093673764037e-05 0 6.6911431640435117e-06 1.5519607231424757e-06 0 5.6237509330112012e-06 6.8130503755640811e-07 0 6.8648734870235502e-06 -4.4722396129283244e-07 0 -7.7241591434478146e-10 -1.2849492288239223e-09 0 -2.5073595291231316e-10 -8.3810482995938444e-10 0 -3.3521858610951391e-07 -1.7495046691101035e-06 0 -4.7999028222003429e-10 6.0829024941234603e-10 0 -7.6895457113168369e-10 8.6102624569415994e-10 0 -4.8563940922773272e-07 1.2784072125505935e-06 0 1.6629700321718049e-05 1.0486451695145459e-05 0 1.2370369307839975e-05 5.299005784782452e-06 0 1.7319974464595036e-05 6.4320692952226273e-06 0 2.9822625266936927e-05 -5.3470650809671672e-05 0 2.976509248308749e-05 -5.8570321075529597e-05 0 3.407501857510024e-05 -5.8920866587806172e-05 0 -1.7988082886059144e-07 -2.0525059766487043e-06 0 -3.3077990532059846e-06 -9.5228927904575782e-07 0 -4.6630273746518279e-06 -3.9324599235684722e-06 0 3.7255830143423571e-06 -4.5543978702484311e-05 0 1.2439938564875441e-05 -5.3613729596614986e-05 0 1.1021552768444078e-05 -4.0245835477553018e-05 0 1.0173508621043066e-05 8.1432731539537842e-07 0 1.0715308952106528e-05 2.0427901117403584e-06 0 8.7180152215029676e-06 1.7152541189498965e-06 0 8.2191213906576987e-06 -2.4782181094617708e-06 0 8.7124814275665868e-06 -5.4955475243249224e-07 0 6.8648734870235502e-06 -4.4722396129283244e-07 0 -3.233907036620971e-06 -2.6922328454394922e-06 0 -5.3303655132088813e-06 -2.2824081178324213e-06 0 -2.4385436655587168e-06 -1.3707353254224655e-06 0 -2.624807919980535e-06 1.6310389654084612e-06 0 -1.8869913822722476e-06 7.4839742842376496e-07 0 -4.0525949692892294e-06 1.2160872072635407e-06 0 1.7530804731538959e-06 -8.9153061010450274e-06 0 5.0823996882459262e-06 -1.2212208675462937e-05 0 5.8527778582299237e-06 -7.298723141841928e-06 0 1.0966225777042747e-05 2.4365919500501646e-06 0 8.7868471359538657e-06 2.2063497264571768e-06 0 1.0715308952106528e-05 2.0427901117403584e-06 0 3.9808037501750482e-06 5.7668423959442128e-07 0 1.7566255244507034e-06 4.8902800845011559e-07 0 3.2393821660543873e-06 -1.4911065348732833e-06 0 -1.4979371870472521e-05 -5.1891983324943035e-06 0 -1.4158817229496161e-05 -8.9659218622878691e-06 0 -9.6194145597283701e-06 -5.0242416697570615e-06 0 -9.3210295270153661e-05 0.00015456488538367205 0 -6.7930971052708927e-05 0.00014116318034920709 0 -6.4939173306613441e-05 0.00016890707928876071 0 1.7530804731538959e-06 -8.9153061010450274e-06 0 -1.6966640148333228e-06 -6.0808200185797278e-06 0 -3.9071774210526217e-06 -1.0675306493748462e-05 0 1.1904706372868123e-05 -9.0485553857280811e-06 0 1.0146085576093816e-05 -1.3126053110896092e-05 0 1.3189598060203906e-05 -1.3032391951271024e-05 0 -1.7988082886059144e-07 -2.0525059766487043e-06 0 -4.6630273746518279e-06 -3.9324599235684722e-06 0 -1.6966640148333228e-06 -6.0808200185797278e-06 0 8.7180152215029676e-06 1.7152541189498965e-06 0 1.0715308952106528e-05 2.0427901117403584e-06 0 8.7868471359538657e-06 2.2063497264571768e-06 0 8.7683533263159789e-06 -1.6410424701988459e-05 0 6.2740452727737353e-06 -1.8110942061369808e-05 0 8.0186052409425183e-06 -2.1834481499798818e-05 0 1.6629700321718049e-05 1.0486451695145459e-05 0 2.4020632262584255e-05 1.2735805613778149e-05 0 2.0872696388851538e-05 1.810714271833698e-05 0 -1.7988082886059144e-07 -2.0525059766487043e-06 0 -8.6714392559828724e-07 7.6664922164182241e-07 0 -3.3077990532059846e-06 -9.5228927904575782e-07 0 -9.9334562023430814e-05 0.00021830938336057487 0 -9.6722926371275818e-05 0.0001859067708811933 0 -7.242531028845728e-05 0.00019848673613863263 0 2.8529305577750557e-05 -9.0315960312428636e-05 0 1.7678634183609275e-05 -9.8574679731396449e-05 0 3.1379054515562019e-05 -0.00010672914915679962 0 2.2779541823753656e-05 -5.9923060181884848e-05 0 1.3571078874923461e-05 -6.9319682580406915e-05 0 2.5750569520825972e-05 -7.4720284138113458e-05 0 -5.8438140022524341e-06 1.1966914073920712e-05 0 -1.9445718595538784e-05 1.4826119467846804e-05 0 -1.3319773570614555e-05 7.5061430799529461e-06 0 3.8053317071199797e-05 -4.3707522362179446e-06 0 2.686508747360253e-05 3.907132362632846e-06 0 3.1359715511116646e-05 -1.1024469933824142e-05 0 -1.4979371870472521e-05 -5.1891983324943035e-06 0 -1.692681619528273e-05 -4.0024675222269921e-06 0 -2.0538381569117715e-05 -7.1248787888299973e-06 0 -2.1398623023930661e-05 8.4724399779958406e-06 0 -3.1023893776093403e-05 1.1161798629709184e-05 0 -2.473002448884572e-05 5.6805261075288577e-06 0 -1.4979371870472521e-05 -5.1891983324943035e-06 0 -2.0538381569117715e-05 -7.1248787888299973e-06 0 -2.0731839418575551e-05 -9.9891657222946319e-06 0 -2.1398623023930661e-05 8.4724399779958406e-06 0 -3.0995462945427446e-05 1.6568706789335766e-05 0 -3.1023893776093403e-05 1.1161798629709184e-05 0 -2.624807919980535e-06 1.6310389654084612e-06 0 -1.2008928863058884e-06 1.0937019896740336e-06 0 -1.8869913822722476e-06 7.4839742842376496e-07 0 -3.233907036620971e-06 -2.6922328454394922e-06 0 -2.4385436655587168e-06 -1.3707353254224655e-06 0 -1.4552250405208503e-06 -1.7453996958690042e-06 0 8.2191213906576987e-06 -2.4782181094617708e-06 0 6.9674862572578311e-06 -4.782948558448928e-06 0 8.8225201670072047e-06 -4.3251864573682942e-06 0 7.6064969454832079e-06 -7.324018044881926e-06 0 8.8225201670072047e-06 -4.3251864573682942e-06 0 6.9674862572578311e-06 -4.782948558448928e-06 0 6.395655008990682e-06 -4.2481350217927347e-05 0 1.0451191524468076e-05 -4.4111980623756715e-05 0 1.0421326769745037e-05 -3.8028621490324152e-05 0 4.9678984946096635e-05 -3.4044049214775709e-05 0 4.4030498364996207e-05 -3.4714902202019615e-05 0 4.8185068707203135e-05 -3.9222648200728422e-05 0 3.9144585207063713e-05 -1.4476943783350089e-05 0 3.1359715511116646e-05 -1.1024469933824142e-05 0 3.5168062483980168e-05 -1.9211852547920332e-05 0 4.5923513271759121e-05 -2.9807711723287826e-05 0 4.114603533600941e-05 -2.9822531441027551e-05 0 4.4030498364996207e-05 -3.4714902202019615e-05 0 4.509952110714187e-06 -3.597691978926508e-05 0 1.0421326769745037e-05 -3.8028621490324152e-05 0 7.7707401404887316e-06 -3.1940506892753062e-05 0 -1.7988082886059144e-07 -2.0525059766487043e-06 0 3.2393821660543873e-06 -1.4911065348732831e-06 0 1.7566255244507034e-06 4.890280084501157e-07 0 5.2842409978645162e-06 -3.1440539560028015e-06 0 5.8527778582299237e-06 -7.298723141841928e-06 0 6.9674862572578311e-06 -4.782948558448928e-06 0 7.6064969454832079e-06 -7.324018044881926e-06 0 6.9674862572578311e-06 -4.782948558448928e-06 0 5.8527778582299237e-06 -7.298723141841928e-06 0 1.0173508621043066e-05 8.1432731539537842e-07 0 9.7786406322952883e-06 -1.4433306548062229e-06 0 1.1784307340550951e-05 2.1517280633205494e-07 0 -9.3210295270153661e-05 0.00015456488538367205 0 -8.8113599163591776e-05 0.00012454035335306534 0 -6.7930971052708927e-05 0.00014116318034920709 0 1.3214837251308169e-05 -3.8017470844674979e-06 0 1.1841354149214998e-05 -3.0801512654754467e-06 0 1.0487612038870979e-05 -5.9135383463292487e-06 0 8.7517275111848175e-06 2.5447315049943564e-05 0 1.213721223524019e-05 1.489978117137581e-05 0 2.0872696388851538e-05 1.810714271833698e-05 0 1.6629700321718049e-05 1.0486451695145459e-05 0 2.0872696388851538e-05 1.810714271833698e-05 0 1.2137212235240188e-05 1.489978117137581e-05 0 1.9417751455843135e-05 -4.5841861151823181e-05 0 1.2439938564875441e-05 -5.3613729596614986e-05 0 2.2779541823753656e-05 -5.9923060181884848e-05 0 -4.465742215395617e-05 2.0174645542898999e-05 0 -3.1023893776093403e-05 1.1161798629709184e-05 0 -3.0995462945427446e-05 1.6568706789335766e-05 0 -2.7871635161759879e-05 -1.2022032662086839e-05 0 -2.0731839418575548e-05 -9.9891657222946319e-06 0 -2.0538381569117715e-05 -7.1248787888299973e-06 0 1.0567662057275976e-05 -2.8383201999104635e-06 0 1.0487612038870979e-05 -5.9135383463292478e-06 0 1.1841354149214998e-05 -3.0801512654754471e-06 0 -3.3352442472761896e-05 0.00016825315009617368 0 -6.4939173306613441e-05 0.00016890707928876071 0 -4.7673599213247877e-05 0.00014644271413542697 0 -3.3352442472761896e-05 0.00016825315009617368 0 -5.0713343736024921e-05 0.00018923462800096846 0 -6.4939173306613441e-05 0.00016890707928876071 0 -9.8500532793817099e-07 -8.4445520998050849e-05 0 7.2462969569328543e-06 -9.4586823489275866e-05 0 1.303895036607737e-05 -8.3827535403194079e-05 0 -9.8500532793817099e-07 -8.4445520998050849e-05 0 1.303895036607737e-05 -8.3827535403194065e-05 0 5.1282428509502631e-06 -7.4287366789829265e-05 0 3.1379054515562019e-05 -0.00010672914915679962 0 2.0924424547422677e-05 -0.00011345152682576789 0 3.4361913317951634e-05 -0.00012394088831373172 0 -0.00010097587004839924 0.00025156960864011253 0 -9.9334562023430814e-05 0.00021830938336057487 0 -7.6213004404618458e-05 0.0002275638516409072 0 5.6714524464470954e-07 2.9202008936475387e-06 0 -5.4740217437632197e-08 2.6435770575113247e-06 0 -1.438532163894793e-07 3.0276146486285635e-06 0 2.3960367916389116e-06 -2.8386644843511315e-06 0 1.9555023499742536e-06 -3.2547487735989359e-06 0 1.0209078717900788e-06 -2.920048102641172e-06 0 -9.8500532793817099e-07 -8.4445520998050849e-05 0 -1.0716275899186263e-05 -8.5086372797589068e-05 0 -2.492489716523963e-06 -9.8067877395809173e-05 0 -9.8500532793817099e-07 -8.4445520998050849e-05 0 -4.0525370993917499e-06 -7.2181529120637339e-05 0 -1.0716275899186263e-05 -8.5086372797589068e-05 0 -1.5374615590404771e-05 -0.00010026495627166923 0 -2.492489716523963e-06 -9.8067877395809173e-05 0 -1.0716275899186263e-05 -8.5086372797589068e-05 0 -1.5239851904855582e-05 -7.1525266600253284e-05 0 -1.0716275899186263e-05 -8.5086372797589068e-05 0 -4.0525370993917499e-06 -7.2181529120637339e-05 0 -3.3352442472761896e-05 0.00016825315009617368 0 -1.1647005794394682e-05 0.00017058458928087111 0 -3.0223799853954613e-05 0.00019653260218403188 0 -4.0845395083505321e-06 0.0001964452194724646 0 -3.0223799853954613e-05 0.00019653260218403188 0 -1.1647005794394682e-05 0.00017058458928087111 0 -4.7999028222003429e-10 6.0829024941234603e-10 0 -4.8563940922773272e-07 1.2784072125505935e-06 0 -1.9170551471043458e-07 1.5312220791957531e-06 0 -2.5073595291231316e-10 -8.3810482995938444e-10 0 1.8554284370016738e-07 -1.8759968714470702e-06 0 -3.3521858610951391e-07 -1.7495046691101035e-06 0 -2.907817169869637e-05 -3.0088566341337688e-05 0 -2.0479126460618397e-05 -2.0641073924556666e-05 0 -2.7981376888693135e-05 -2.0497317367260405e-05 0 -4.4924826090466404e-05 5.5647429632867305e-05 0 -4.3961569195479346e-05 3.7407524822548446e-05 0 -3.1253182527400604e-05 3.6456434930924044e-05 0 -8.609431933091509e-06 2.3955119247750847e-08 0 -1.2636483260597867e-05 -2.237418243242997e-06 0 -1.001965022739467e-05 -2.3539508271728145e-06 0 7.2561760287168084e-06 2.2775770799759988e-06 0 6.7393407208439679e-06 2.2314349000005077e-06 0 8.7868471359538657e-06 2.2063497264571768e-06 0 3.960320099189173e-05 -5.6837964863967421e-05 0 4.2678119375210624e-05 -5.3001784405567311e-05 0 3.4649272135997574e-05 -5.2832287485686242e-05 0 -9.6158017493777138e-06 -3.0151171874693032e-06 0 -1.133935451071481e-05 -1.9382607512145354e-06 0 -1.4846864522484599e-05 -1.366322118995634e-06 0 -1.8805571222383891e-05 9.2215194655589756e-07 0 -1.4846864522484599e-05 -1.366322118995634e-06 0 -1.133935451071481e-05 -1.9382607512145354e-06 0 6.3037077503183258e-06 -2.419321562838538e-07 0 4.3445333768362837e-06 -1.184264427515823e-06 0 3.762815785644671e-06 -6.0731501054961799e-07 0 4.0643485877102804e-05 -2.0766135444413224e-05 0 3.7005175069865176e-05 -2.5410107109171412e-05 0 4.3032224757921046e-05 -2.5491554915873567e-05 0 -2.7871635161759879e-05 -1.2022032662086839e-05 0 -2.599029453277928e-05 -1.4942832401570246e-05 0 -2.0731839418575551e-05 -9.9891657222946319e-06 0 -4.465742215395617e-05 2.0174645542898999e-05 0 -3.099546294542744e-05 1.6568706789335762e-05 0 -4.0803960350990648e-05 2.5690336720454721e-05 0 5.313455910707516e-06 -1.3229042295425642e-05 0 6.7945223995782562e-06 -1.3164346235016856e-05 0 6.0582022857685117e-06 -1.2158702790036524e-05 0 -3.2145967418367204e-06 -4.0619260733167277e-06 0 -1.2383841451263744e-06 -3.9626204079245754e-06 0 -5.4132434116150892e-06 -3.7495647622137089e-06 0 -1.4334068213806316e-06 -3.1489157845090568e-06 0 -5.4132434116150892e-06 -3.7495647622137089e-06 0 -1.2383841451263744e-06 -3.9626204079245754e-06 0 8.0210193393912825e-06 6.1905387691103638e-05 0 8.0043477171492802e-06 4.0829317674704757e-05 0 1.8979422069092742e-05 3.7121978791158041e-05 0 -1.4498827100388717e-05 -7.9590442010150421e-07 0 -1.1420536072291323e-05 -2.2419606973343475e-06 0 -1.4846864522484599e-05 -1.366322118995634e-06 0 -1.0335550796674504e-05 -4.9062315518676866e-09 0 -1.045455811747378e-05 3.9291340538959064e-07 0 -8.2848089706475016e-06 1.0340215778757973e-06 0 2.4487916581023162e-05 -3.7045186116324557e-05 0 2.1934414559691389e-05 -3.2253350719408957e-05 0 2.0171622163641573e-05 -3.6878809064021238e-05 0 1.7788515087146675e-05 -3.1344509225065025e-05 0 2.0171622163641573e-05 -3.6878809064021238e-05 0 2.1934414559691389e-05 -3.2253350719408957e-05 0 1.0173508621043066e-05 8.1432731539537842e-07 0 1.1990270726737222e-05 1.8032585313990281e-06 0 1.0715308952106528e-05 2.0427901117403584e-06 0 5.8075793199488329e-06 3.1061619046444594e-06 0 3.9034466054447814e-06 -4.5607423942455648e-07 0 8.5293165552755286e-06 1.1713706665814754e-06 0 1.1928963926920984e-05 2.0203177236866328e-06 0 1.0628869022519019e-05 2.106001203057204e-06 0 1.2788522673338416e-05 2.8743875126398152e-06 0 8.7517275111848175e-06 2.5447315049943564e-05 0 1.8979422069092742e-05 3.7121978791158041e-05 0 8.0043477171492819e-06 4.0829317674704757e-05 0 -1.4979371870472521e-05 -5.1891983324943035e-06 0 -9.6194145597283701e-06 -5.0242416697570615e-06 0 -1.001965022739467e-05 -2.3539508271728145e-06 0 3.9808037501750482e-06 5.7668423959442128e-07 0 4.7765177441264238e-06 1.7622728451087719e-06 0 2.6930048630864201e-06 2.0837423963523743e-06 0 5.822056081602051e-05 9.2749175966032031e-05 0 6.5115160687237485e-05 0.00012122395991331802 0 4.4140957048898845e-05 0.00011170333504441161 0 -5.5225926214430389e-05 -7.8488623574672256e-05 0 -3.8731313894593273e-05 -7.7825653473223593e-05 0 -4.2810743016998715e-05 -6.6739123609831097e-05 0 -4.465742215395617e-05 2.0174645542898999e-05 0 -3.5320333511501369e-05 1.1260610666427645e-05 0 -3.1023893776093403e-05 1.1161798629709184e-05 0 -2.2773264190381228e-05 -7.2099292324621204e-06 0 -2.7871635161759879e-05 -1.2022032662086839e-05 0 -2.0538381569117715e-05 -7.1248787888299973e-06 0 1.3287653026923958e-05 -1.0104527793157082e-07 0 1.5245638279495281e-05 -7.3427669901192556e-07 0 1.5937574572520133e-05 2.937513031624712e-06 0 -3.2145967418367204e-06 -4.0619260733167277e-06 0 -5.4132434116150892e-06 -3.7495647622137089e-06 0 -6.2325520999497198e-06 -3.7005782022455012e-06 0 -9.6158017493777138e-06 -3.0151171874693032e-06 0 -6.2325520999497198e-06 -3.7005782022455012e-06 0 -5.4132434116150892e-06 -3.7495647622137089e-06 0 1.7647556316393023e-05 5.7678423700840445e-06 0 2.058700929342628e-05 8.6480291635922065e-06 0 1.7319974464595036e-05 6.4320692952226273e-06 0 -4.132508892311658e-05 -9.4675120659222723e-05 0 -3.8731313894593273e-05 -7.7825653473223593e-05 0 -4.8251250939858366e-05 -8.6481169318031669e-05 0 1.0019426707137327e-05 -2.9220666840365497e-05 0 1.3496502303684821e-05 -3.0255475393487604e-05 0 1.0865676070317718e-05 -2.4729089810894415e-05 0 8.2313626925554747e-05 0.0002112426243251496 0 8.8039107881251325e-05 0.00024308821719552695 0 6.2471705975532881e-05 0.00022612055767597182 0 -5.98339494481085e-05 -0.00011136854620156605 0 -6.1039861865815691e-05 -0.00012870402561278082 0 -4.8340654500554625e-05 -0.00011738334322695189 0 -5.8438140022524341e-06 1.1966914073920712e-05 0 9.036011056368016e-07 5.7570168343015573e-06 0 7.2353947166594601e-06 8.9823467785879379e-06 0 1.7530804731538959e-06 -8.9153061010450274e-06 0 -3.2308692116094406e-07 -1.4497259011833567e-05 0 5.0823996882459271e-06 -1.2212208675462936e-05 0 -7.5200722236320161e-06 -7.8758544536451402e-06 0 -3.9071774210526217e-06 -1.0675306493748462e-05 0 -1.6966640148333228e-06 -6.0808200185797278e-06 0 -9.9334562023430814e-05 0.00021830938336057487 0 -7.242531028845728e-05 0.00019848673613863263 0 -7.6213004404618458e-05 0.0002275638516409072 0 3.1379054515562019e-05 -0.00010672914915679962 0 1.7678634183609275e-05 -9.8574679731396449e-05 0 2.0924424547422681e-05 -0.00011345152682576789 0 7.1757690285702675e-07 1.7703665595960128e-06 0 9.7770026738440916e-07 2.6861091376238427e-06 0 -1.2032734001883522e-06 2.3880872514208717e-06 0 1.6629700321718049e-05 1.0486451695145459e-05 0 1.2137212235240188e-05 1.489978117137581e-05 0 7.2353947166594601e-06 8.9823467785879379e-06 0 -1.4979371870472521e-05 -5.1891983324943035e-06 0 -1.2636483260597865e-05 -2.237418243242997e-06 0 -1.692681619528273e-05 -4.0024675222269921e-06 0 3.9655390634003657e-06 -1.7208798620664427e-05 0 3.2420414535979273e-06 -2.2768142191107219e-05 0 6.2740452727737353e-06 -1.8110942061369808e-05 0 -3.3164942120801146e-06 2.2718579382997365e-06 0 -4.4918643554959527e-06 2.4326939285915365e-06 0 -6.3488692282419694e-06 1.6046004916094354e-06 0 -5.1959519726641201e-05 -6.3510354173487921e-05 0 -5.5225926214430389e-05 -7.8488623574672256e-05 0 -4.2810743016998715e-05 -6.6739123609831097e-05 0 -1.2618756896698604e-05 -9.6521510708829995e-07 0 -9.1219992977777875e-06 7.2398055643523396e-07 0 -1.045455811747378e-05 3.9291340538959064e-07 0 -7.3675509427208349e-06 1.6417872049476789e-06 0 -1.045455811747378e-05 3.9291340538959064e-07 0 -9.1219992977777875e-06 7.2398055643523396e-07 0 -4.7056704012071281e-05 0.00012536257131034301 0 -2.6121266930019947e-05 0.00013020061473326019 0 -4.7673599213247877e-05 0.00014644271413542697 0 8.098614446804244e-07 -1.7298052803424915e-06 0 1.0209078717900788e-06 -2.920048102641172e-06 0 1.8554284370016738e-07 -1.8759968714470702e-06 0 -2.9211788059387474e-07 -3.0959240156795413e-06 0 1.8554284370016738e-07 -1.8759968714470702e-06 0 1.0209078717900788e-06 -2.920048102641172e-06 0 -8.5745133024566952e-07 2.3715994167367576e-06 0 -5.4740217437632177e-08 2.6435770575113247e-06 0 -1.9170551471043458e-07 1.5312220791957531e-06 0 2.3106695181441206e-07 1.6723462349668594e-06 0 -1.9170551471043458e-07 1.5312220791957531e-06 0 -5.4740217437632177e-08 2.6435770575113247e-06 0 5.2842409978645162e-06 -3.1440539560028015e-06 0 3.2393821660543877e-06 -1.4911065348732833e-06 0 2.6665316972294853e-06 -4.6427744357893851e-06 0 1.7405120441948072e-05 -5.46380855452892e-06 0 1.4819235009815634e-05 -7.1420320386186347e-06 0 1.8369976335002123e-05 -1.156103133009556e-05 0 1.5540087473149736e-05 -1.224419398608133e-05 0 1.8369976335002123e-05 -1.156103133009556e-05 0 1.4819235009815634e-05 -7.1420320386186347e-06 0 3.2420414535979273e-06 -2.2768142191107219e-05 0 3.4356269329019974e-06 -2.9323591436128612e-05 0 6.8626031695468717e-06 -2.6488290265151776e-05 0 1.5540087473149736e-05 -1.224419398608133e-05 0 1.1904706372868123e-05 -9.0485553857280811e-06 0 1.3189598060203906e-05 -1.3032391951271024e-05 0 4.4030498364996207e-05 -3.4714902202019615e-05 0 4.114603533600941e-05 -2.9822531441027551e-05 0 3.7864017275229406e-05 -3.385213721457213e-05 0 1.0421326769745037e-05 -3.8028621490324152e-05 0 1.1439257075205013e-05 -3.3253447534985784e-05 0 7.7707401404887316e-06 -3.1940506892753062e-05 0 -2.7871635161759879e-05 -1.2022032662086839e-05 0 -3.3203248895853127e-05 -1.8707988095642212e-05 0 -2.599029453277928e-05 -1.4942832401570246e-05 0 -5.4739589271337081e-05 3.3273935232484146e-05 0 -4.465742215395617e-05 2.0174645542898999e-05 0 -4.0803960350990648e-05 2.5690336720454721e-05 0 3.1359715511116646e-05 -1.1024469933824142e-05 0 2.7806149105966385e-05 -1.5468477560700198e-05 0 3.5168062483980168e-05 -1.9211852547920332e-05 0 4.4030498364996207e-05 -3.4714902202019615e-05 0 4.1205981999127233e-05 -3.8757003967617828e-05 0 4.8185068707203135e-05 -3.9222648200728422e-05 0 -7.5200722236320161e-06 -7.8758544536451402e-06 0 -9.6194145597283701e-06 -5.0242416697570615e-06 0 -1.4158817229496161e-05 -8.9659218622878691e-06 0 2.2100489283173748e-06 1.5024741456694922e-06 0 9.6593686395290204e-07 6.250344180591235e-07 0 9.1370818037649488e-07 8.3623653511877721e-07 0 6.2363691652397552e-06 -9.3992256756571436e-07 0 3.9034466054447822e-06 -4.5607423942455605e-07 0 2.3388662621357141e-06 -2.6915359764318687e-06 0 8.4996736976224412e-06 -5.7384890355634126e-07 0 6.2073494560241003e-06 -1.7313620648778051e-06 0 5.4975666942412538e-06 -2.0474404484625552e-06 0 2.282898393847826e-05 4.0745743287582537e-06 0 2.0078188950130265e-05 -6.6155670100394294e-07 0 2.387033727169879e-05 -5.1314431321914276e-06 0 -5.787064971469048e-06 1.6392948121449034e-06 0 -4.048711043919878e-06 2.0809945990698519e-06 0 -4.0525949692892294e-06 1.2160872072635407e-06 0 -2.624807919980535e-06 1.6310389654084612e-06 0 -4.0525949692892294e-06 1.2160872072635407e-06 0 -4.048711043919878e-06 2.0809945990698519e-06 0 -3.233907036620971e-06 -2.6922328454394922e-06 0 -4.992011928826256e-06 -3.4725442672058921e-06 0 -5.3303655132088813e-06 -2.2824081178324213e-06 0 -7.6148098018323503e-06 -3.0113061060196077e-06 0 -5.3303655132088813e-06 -2.2824081178324213e-06 0 -4.992011928826256e-06 -3.4725442672058921e-06 0 -4.330105184747559e-05 -3.7601341597594884e-05 0 -4.8081049374484694e-05 -4.9829939029724902e-05 0 -3.7135532576455873e-05 -4.2206986246396422e-05 0 8.0210193393912825e-06 6.1905387691103638e-05 0 -4.190981368074247e-06 4.3307382635512885e-05 0 8.0043477171492819e-06 4.0829317674704757e-05 0 2.2779541823753656e-05 -5.9923060181884848e-05 0 1.2439938564875441e-05 -5.3613729596614986e-05 0 1.3571078874923461e-05 -6.9319682580406915e-05 0 3.7794481290923712e-05 -4.7779499930678328e-05 0 3.0732351777277877e-05 -4.779816735709842e-05 0 3.4649272135997574e-05 -5.2832287485686242e-05 0 -4.7295248095768701e-07 2.9903910046214174e-06 0 -1.2032734001883522e-06 2.3880872514208717e-06 0 9.7770026738440916e-07 2.6861091376238427e-06 0 1.0567662057275976e-05 -2.8383201999104635e-06 0 1.1784307340550951e-05 2.1517280633205494e-07 0 9.7786406322952883e-06 -1.4433306548062229e-06 0 -8.609431933091509e-06 2.3955119247750847e-08 0 -6.3488692282419694e-06 1.6046004916094354e-06 0 -9.1219992977777875e-06 7.2398055643523396e-07 0 2.5369487683003824e-05 0.0001205911153591202 0 4.9002938778067242e-05 0.00013055565338839197 0 4.0062132740727491e-05 0.00014728308104253274 0 1.1347494158143002e-09 4.4151347599292127e-10 0 1.0659126812120242e-06 1.3654036056072762e-06 0 9.1370818037649488e-07 8.3623653511877721e-07 0 1.7788515087146675e-05 -3.1344509225065025e-05 0 2.1934414559691389e-05 -3.2253350719408957e-05 0 1.9256358440431934e-05 -2.6643932485163232e-05 0 3.1359715511116646e-05 -1.1024469933824142e-05 0 2.686508747360253e-05 3.907132362632846e-06 0 2.387033727169879e-05 -5.1314431321914276e-06 0 -8.1734889870762012e-05 9.6834737556365728e-05 0 -7.334289080356213e-05 7.1746328529699444e-05 0 -6.019262869119134e-05 8.1476976479874218e-05 0 2.2714079234616228e-06 8.8184925848875753e-07 0 3.0629258478911843e-06 4.9859244291729103e-07 0 1.4790638006297628e-06 2.5747329626130017e-07 0 -8.5745133024566952e-07 2.3715994167367576e-06 0 -1.9170551471043458e-07 1.5312220791957531e-06 0 -4.8563940922773272e-07 1.2784072125505935e-06 0 -2.9211788059387474e-07 -3.0959240156795413e-06 0 -3.3521858610951391e-07 -1.7495046691101035e-06 0 1.8554284370016738e-07 -1.8759968714470702e-06 0 1.0966225777042747e-05 2.4365919500501646e-06 0 9.021912889260115e-06 2.1969983057758779e-06 0 8.7868471359538657e-06 2.2063497264571768e-06 0 -2.0233014761286253e-05 -1.4469906722012605e-05 0 -2.0731839418575551e-05 -9.9891657222946319e-06 0 -2.599029453277928e-05 -1.4942832401570246e-05 0 -2.9305448820928171e-05 2.5039874737145706e-05 0 -4.0803960350990648e-05 2.5690336720454721e-05 0 -3.0995462945427446e-05 1.6568706789335766e-05 0 3.7664713680301465e-05 0.00021698013290421134 0 4.6032349019414223e-05 0.0001886180508898253 0 6.1126298298759185e-05 0.00020496342656194834 0 -3.5747480933862533e-05 -0.00011119523875648926 0 -4.1325088923116573e-05 -9.4675120659222723e-05 0 -4.8799141423707568e-05 -0.00010548296597695143 0 4.0643485877102804e-05 -2.0766135444413224e-05 0 3.5168062483980168e-05 -1.9211852547920332e-05 0 3.7005175069865176e-05 -2.5410107109171412e-05 0 5.8075793199488329e-06 3.1061619046444594e-06 0 7.2353947166594585e-06 8.9823467785879379e-06 0 9.036011056368016e-07 5.7570168343015573e-06 0 3.1347485864780446e-05 -2.1666909440704963e-05 0 3.7005175069865176e-05 -2.5410107109171412e-05 0 3.5168062483980168e-05 -1.9211852547920332e-05 0 7.2561760287168084e-06 2.2775770799759988e-06 0 5.7120487107965477e-06 2.4100015662395098e-06 0 6.7393407208439679e-06 2.2314349000005077e-06 0 2.7975888617344181e-06 -2.2960806962321557e-08 0 1.6155632841618776e-06 -5.6599666870066613e-07 0 1.1279593531431472e-06 -1.049686864153346e-07 0 7.1757690285702675e-07 1.7703665595960128e-06 0 2.6930048630864201e-06 2.0837423963523743e-06 0 9.7770026738440916e-07 2.6861091376238427e-06 0 1.8111886196236639e-05 3.4757759274339569e-06 0 2.0078188950130265e-05 -6.6155670100394294e-07 0 2.1467781567704032e-05 7.4407742694485155e-06 0 2.282898393847826e-05 4.0745743287582537e-06 0 2.1467781567704032e-05 7.4407742694485155e-06 0 2.0078188950130265e-05 -6.6155670100394294e-07 0 -2.6378637606123424e-05 -8.5073358889162844e-05 0 -4.132508892311658e-05 -9.4675120659222723e-05 0 -2.858193811470742e-05 -9.9751274038117842e-05 0 -3.5747480933862533e-05 -0.00011119523875648926 0 -2.858193811470742e-05 -9.9751274038117842e-05 0 -4.132508892311658e-05 -9.4675120659222723e-05 0 2.0251644700220282e-05 0.00016812110565837907 0 4.6032349019414223e-05 0.0001886180508898253 0 2.2541164087671066e-05 0.00019752310504678647 0 3.7664713680301465e-05 0.00021698013290421134 0 2.2541164087671066e-05 0.00019752310504678647 0 4.6032349019414223e-05 0.0001886180508898253 0 2.0251644700220282e-05 0.00016812110565837907 0 1.5319791104733764e-05 0.0001403003303653557 0 4.0062132740727491e-05 0.00014728308104253274 0 2.5369487683003824e-05 0.0001205911153591202 0 4.0062132740727491e-05 0.00014728308104253274 0 1.5319791104733764e-05 0.0001403003303653557 0 1.4408007614551754e-09 3.1048084889156026e-10 0 1.3379009666391402e-09 3.7224979732190011e-10 0 9.6593686395290204e-07 6.250344180591235e-07 0 4.3032224757921046e-05 -2.5491554915873567e-05 0 3.7005175069865169e-05 -2.5410107109171412e-05 0 4.114603533600941e-05 -2.9822531441027551e-05 0 3.6180055446766586e-05 -3.0031243913064667e-05 0 4.114603533600941e-05 -2.9822531441027551e-05 0 3.7005175069865176e-05 -2.5410107109171412e-05 0 -3.2498487179280573e-05 -6.3208162471577826e-05 0 -3.7508108614386732e-05 -5.381204367563744e-05 0 -4.2810743016998715e-05 -6.6739123609831097e-05 0 -4.8081049374484694e-05 -4.9829939029724902e-05 0 -3.7508108614386732e-05 -5.381204367563744e-05 0 -3.7135532576455873e-05 -4.2206986246396422e-05 0 -8.1734889870762012e-05 9.6834737556365728e-05 0 -6.019262869119134e-05 8.1476976479874218e-05 0 -5.9736054902410511e-05 0.000106048306003737 0 1.4772311103530449e-05 3.8425189395156417e-06 0 1.6678739930486303e-05 5.0815477424278365e-06 0 1.4766525334311636e-05 3.6398080089190436e-06 0 1.7647556316393023e-05 5.7678423700840445e-06 0 1.4766525334311636e-05 3.6398080089190436e-06 0 1.6678739930486303e-05 5.0815477424278365e-06 0 5.2669581505111773e-06 2.0181325606190881e-06 0 6.9972076627065692e-06 2.0330907756321476e-06 0 6.2791137282923343e-06 1.5364319483227711e-06 0 2.2100489283173748e-06 1.5024741456694922e-06 0 9.1370818037649477e-07 8.3623653511877711e-07 0 1.0659126812120242e-06 1.3654036056072762e-06 0 -9.6158017493777138e-06 -3.0151171874693032e-06 0 -1.4846864522484599e-05 -1.366322118995634e-06 0 -1.1420536072291323e-05 -2.2419606973343475e-06 0 -7.3675509427208349e-06 1.6417872049476789e-06 0 -8.2848089706475016e-06 1.0340215778757973e-06 0 -1.045455811747378e-05 3.9291340538959064e-07 0 -7.3675509427208349e-06 1.6417872049476789e-06 0 -9.1219992977777858e-06 7.2398055643523407e-07 0 -6.3488692282419694e-06 1.6046004916094354e-06 0 7.6798127309070166e-05 0.00018050454422011182 0 6.1126298298759185e-05 0.00020496342656194834 0 4.6032349019414223e-05 0.0001886180508898253 0 -5.7911385298513501e-05 -9.4476004751675163e-05 0 -4.8799141423707568e-05 -0.00010548296597695144 0 -4.132508892311658e-05 -9.4675120659222723e-05 0 1.5789550551190579e-09 1.7252807336959745e-11 0 1.1279593531431472e-06 -1.0496868641533467e-07 0 1.6155632841618776e-06 -5.6599666870066613e-07 0 8.4996736976224412e-06 -5.7384890355634126e-07 0 9.3930491239855441e-06 1.3841921089700618e-07 0 6.2073494560241003e-06 -1.7313620648778051e-06 0 -1.4194735602769014e-05 -5.3447164391868436e-05 0 -2.0525297965048557e-05 -4.3439517546498383e-05 0 -2.4047521678179e-05 -5.2892661785576671e-05 0 -7.2575174260854538e-07 -1.667029716618162e-06 0 3.9034466054447831e-06 -4.5607423942455611e-07 0 8.3549734910033873e-08 1.1383866951705381e-06 0 1.7530804731538959e-06 -8.9153061010450274e-06 0 -3.9071774210526217e-06 -1.0675306493748462e-05 0 -3.2308692116094406e-07 -1.4497259011833567e-05 0 1.2252530448368575e-05 1.7001157262917966e-06 0 1.4766525334311636e-05 3.6398080089190436e-06 0 1.4955737363437607e-05 3.7784662254270771e-06 0 -1.5350759017981307e-05 0.00010013867895877493 0 -3.616600956564845e-05 0.00010382711429956778 0 -2.7193049966139701e-05 8.3727874547214926e-05 0 -2.0233014761286253e-05 -1.4469906722012605e-05 0 -2.7981376888693135e-05 -2.0497317367260405e-05 0 -2.0479126460618397e-05 -2.0641073924556666e-05 0 -2.9305448820928171e-05 2.5039874737145706e-05 0 -3.1253182527400604e-05 3.6456434930924044e-05 0 -4.3961569195479346e-05 3.7407524822548446e-05 0 2.9822625266936927e-05 -5.3470650809671672e-05 0 3.407501857510024e-05 -5.8920866587806172e-05 0 3.4649272135997574e-05 -5.2832287485686242e-05 0 3.960320099189173e-05 -5.6837964863967421e-05 0 3.4649272135997574e-05 -5.2832287485686242e-05 0 3.407501857510024e-05 -5.8920866587806172e-05 0 -8.609431933091509e-06 2.3955119247750847e-08 0 -5.2737364239153492e-06 1.1443923749149005e-06 0 -6.3488692282419694e-06 1.6046004916094354e-06 0 -3.3164942120801146e-06 2.2718579382997365e-06 0 -6.3488692282419694e-06 1.6046004916094354e-06 0 -5.2737364239153492e-06 1.1443923749149005e-06 0 3.9808037501750482e-06 5.7668423959442128e-07 0 3.2393821660543873e-06 -1.4911065348732833e-06 0 5.1113638691533511e-06 -7.9638201150729542e-07 0 -1.2618756896698604e-05 -9.6521510708829995e-07 0 -1.692681619528273e-05 -4.0024675222269921e-06 0 -1.2636483260597865e-05 -2.237418243242997e-06 0 -9.1140296051674398e-06 -8.3255007656552137e-07 0 -1.133935451071481e-05 -1.9382607512145354e-06 0 -5.4853683403998198e-06 -2.5390418193520294e-06 0 2.8207169479481951e-05 -6.107582715025452e-05 0 3.3673515666380379e-05 -6.413636024559114e-05 0 2.976509248308749e-05 -5.8570321075529597e-05 0 -1.5350759017981307e-05 0.00010013867895877493 0 -2.6121266930019947e-05 0.00013020061473326019 0 -3.616600956564845e-05 0.00010382711429956778 0 1.3379009666391402e-09 3.7224979732190011e-10 0 1.1347494158143002e-09 4.4151347599292127e-10 0 9.1370818037649488e-07 8.3623653511877721e-07 0 7.1147086983446692e-05 0.00015040555736494304 0 4.0062132740727491e-05 0.00014728308104253274 0 4.9002938778067242e-05 0.00013055565338839197 0 2.2989395408755363e-05 1.0163828703734923e-05 0 2.4020632262584255e-05 1.2735805613778149e-05 0 2.0587009293426283e-05 8.6480291635922048e-06 0 -2.9305448820928171e-05 2.5039874737145706e-05 0 -1.8230991748431218e-05 2.3959951907906122e-05 0 -3.1253182527400604e-05 3.6456434930924044e-05 0 2.2989395408755363e-05 1.0163828703734923e-05 0 1.9472156996972212e-05 7.235202842383017e-06 0 2.0134330603399251e-05 7.110135387336763e-06 0 2.2989395408755363e-05 1.0163828703734923e-05 0 2.058700929342628e-05 8.6480291635922048e-06 0 1.9472156996972212e-05 7.235202842383017e-06 0 -3.1576508884930757e-06 1.1463659831287942e-06 0 -6.1030831942032429e-06 -3.4285969228532303e-07 0 -3.3077990532059846e-06 -9.5228927904575782e-07 0 2.5971501396601978e-06 2.8045188869502813e-06 0 9.7770026738440916e-07 2.6861091376238427e-06 0 2.6930048630864201e-06 2.0837423963523743e-06 0 -4.2292240236146664e-05 8.1523899750243791e-05 0 -5.9736054902410511e-05 0.000106048306003737 0 -6.019262869119134e-05 8.1476976479874218e-05 0 7.6064969454832079e-06 -7.324018044881926e-06 0 8.7030839480071231e-06 -6.8022016205200895e-06 0 8.8225201670072047e-06 -4.3251864573682942e-06 0 1.8111886196236639e-05 3.4757759274339569e-06 0 2.1467781567704032e-05 7.4407742694485155e-06 0 2.0134330603399251e-05 7.110135387336763e-06 0 1.4560661534021902e-05 -2.5495194818943156e-05 0 1.5489923350978874e-05 -2.1255401229786028e-05 0 1.153477896960459e-05 -1.9598780411824212e-05 0 -2.0233014761286253e-05 -1.4469906722012605e-05 0 -2.599029453277928e-05 -1.4942832401570248e-05 0 -2.7981376888693135e-05 -2.0497317367260405e-05 0 -2.9305448820928171e-05 2.5039874737145706e-05 0 -4.3961569195479346e-05 3.7407524822548446e-05 0 -4.0803960350990648e-05 2.5690336720454721e-05 0 -5.3055846626675253e-05 0.00021516271228334301 0 -7.6213004404618458e-05 0.0002275638516409072 0 -7.242531028845728e-05 0.00019848673613863263 0 9.2336935250477213e-06 -0.00010815582032541041 0 2.0924424547422681e-05 -0.00011345152682576789 0 1.7678634183609275e-05 -9.8574679731396449e-05 0 1.0019426707137327e-05 -2.9220666840365497e-05 0 1.0865676070317718e-05 -2.4729089810894415e-05 0 6.8626031695468717e-06 -2.6488290265151776e-05 0 1.7647556316393023e-05 5.7678423700840445e-06 0 1.4955737363437607e-05 3.7784662254270771e-06 0 1.4766525334311636e-05 3.6398080089190436e-06 0 -1.4334068213806316e-06 -3.1489157845090568e-06 0 -5.4853683403998198e-06 -2.5390418193520294e-06 0 -5.4132434116150892e-06 -3.7495647622137089e-06 0 -1.4979371870472521e-05 -5.1891983324943035e-06 0 -1.001965022739467e-05 -2.3539508271728145e-06 0 -1.2636483260597865e-05 -2.237418243242997e-06 0 -2.1398623023930661e-05 8.4724399779958406e-06 0 -1.3319773570614555e-05 7.5061430799529461e-06 0 -1.9445718595538784e-05 1.4826119467846804e-05 0 5.8527778582299237e-06 -7.298723141841928e-06 0 5.0823996882459271e-06 -1.2212208675462936e-05 0 7.2330057120504929e-06 -1.0933711877735063e-05 0 -6.5949618038017997e-06 -2.4040826411882294e-06 0 -1.001965022739467e-05 -2.3539508271728141e-06 0 -9.6194145597283701e-06 -5.0242416697570615e-06 0 1.8111886196236639e-05 3.4757759274339569e-06 0 1.5937574572520133e-05 2.937513031624712e-06 0 1.5245638279495281e-05 -7.3427669901192556e-07 0 1.5789550551190579e-09 1.7252807336959745e-11 0 1.5523984982216734e-09 -9.6131789058363099e-11 0 1.1279593531431472e-06 -1.049686864153346e-07 0 1.5179580039589784e-05 -3.6137030938033639e-05 0 1.1439257075205013e-05 -3.3253447534985784e-05 0 1.0421326769745037e-05 -3.8028621490324152e-05 0 -2.2773264190381228e-05 -7.2099292324621204e-06 0 -2.0538381569117715e-05 -7.1248787888299973e-06 0 -1.692681619528273e-05 -4.0024675222269921e-06 0 -3.5320333511501369e-05 1.1260610666427645e-05 0 -2.473002448884572e-05 5.6805261075288577e-06 0 -3.1023893776093403e-05 1.1161798629709184e-05 0 -2.8218451255619128e-05 -4.188260248807623e-05 0 -3.7135532576455873e-05 -4.2206986246396422e-05 0 -3.7508108614386732e-05 -5.381204367563744e-05 0 -6.0713317044048526e-06 -1.7344970067476724e-05 0 -3.399292636019177e-06 -2.2941517532759072e-05 0 -3.2308692116094406e-07 -1.4497259011833567e-05 0 2.8573680831192681e-06 -1.8934772981120703e-05 0 -3.2308692116094406e-07 -1.4497259011833567e-05 0 -3.399292636019177e-06 -2.2941517532759072e-05 0 -6.5949618038017997e-06 -2.4040826411882294e-06 0 -4.6630273746518279e-06 -3.9324599235684722e-06 0 -3.3077990532059846e-06 -9.5228927904575782e-07 0 1.4560661534021902e-05 -2.5495194818943156e-05 0 1.153477896960459e-05 -1.9598780411824212e-05 0 1.0865676070317718e-05 -2.4729089810894415e-05 0 -3.2498487179280573e-05 -6.3208162471577826e-05 0 -2.24244573645942e-05 -6.2391303441577359e-05 0 -2.4047521678179e-05 -5.2892661785576671e-05 0 -6.5949618038017997e-06 -2.4040826411882294e-06 0 -3.3077990532059846e-06 -9.5228927904575782e-07 0 -6.1030831942032429e-06 -3.4285969228532303e-07 0 1.3173156920339977e-05 -1.6652770812391772e-05 0 1.153477896960459e-05 -1.9598780411824212e-05 0 1.5489923350978874e-05 -2.1255401229786028e-05 0 2.7689513025583305e-06 -1.2515272177964045e-06 0 3.762815785644671e-06 -6.0731501054961799e-07 0 4.3445333768362837e-06 -1.184264427515823e-06 0 -3.3203248895853127e-05 -1.8707988095642212e-05 0 -2.7981376888693135e-05 -2.0497317367260405e-05 0 -2.599029453277928e-05 -1.4942832401570246e-05 0 -5.4739589271337081e-05 3.3273935232484146e-05 0 -4.0803960350990648e-05 2.5690336720454721e-05 0 -4.3961569195479346e-05 3.7407524822548446e-05 0 -5.7911385298513501e-05 -9.4476004751675163e-05 0 -4.132508892311658e-05 -9.4675120659222723e-05 0 -4.8251250939858366e-05 -8.6481169318031669e-05 0 7.6798127309070166e-05 0.00018050454422011182 0 4.6032349019414223e-05 0.0001886180508898253 0 5.0669739383618532e-05 0.00016744327488503975 0 7.1147086983446692e-05 0.00015040555736494304 0 5.0669739383618532e-05 0.00016744327488503975 0 4.0062132740727491e-05 0.00014728308104253274 0 -5.7911385298513501e-05 -9.4476004751675163e-05 0 -5.98339494481085e-05 -0.00011136854620156605 0 -4.8799141423707568e-05 -0.00010548296597695143 0 7.6798127309070166e-05 0.00018050454422011182 0 8.2313626925554747e-05 0.0002112426243251496 0 6.1126298298759185e-05 0.00020496342656194834 0 3.1347485864780446e-05 -2.1666909440704963e-05 0 2.7806149105966385e-05 -1.5468477560700198e-05 0 2.6434891151874856e-05 -2.0085383854937112e-05 0 8.0186052409425183e-06 -2.1834481499798818e-05 0 6.8626031695468717e-06 -2.6488290265151776e-05 0 1.0865676070317718e-05 -2.4729089810894415e-05 0 1.2833674462450979e-05 -5.4321672571108084e-05 0 1.7933074023153315e-05 -5.8766028637788748e-05 0 1.6635320587264037e-05 -5.437810220386683e-05 0 6.0548296244862338e-05 -4.4006694142410345e-05 0 5.798594963108594e-05 -5.0586808385243307e-05 0 6.8391710274563519e-05 -5.1327474772422025e-05 0 -2.9305448820928171e-05 2.5039874737145706e-05 0 -1.9445718595538784e-05 1.4826119467846804e-05 0 -1.8230991748431218e-05 2.3959951907906122e-05 0 -3.3164942120801146e-06 2.2718579382997365e-06 0 -2.4018777014626415e-06 2.8310928033891902e-06 0 -4.4918643554959527e-06 2.4326939285915369e-06 0 8.1170941573638164e-06 1.5556696582280219e-06 0 6.9972076627065692e-06 2.0330907756321476e-06 0 9.021912889260115e-06 2.1969983057758779e-06 0 -4.7056704012071281e-05 0.00012536257131034301 0 -3.616600956564845e-05 0.00010382711429956778 0 -2.6121266930019947e-05 0.00013020061473326019 0 4.2674907687349033e-06 -6.1930430980127859e-05 0 1.3571078874923461e-05 -6.9319682580406915e-05 0 1.2439938564875441e-05 -5.3613729596614986e-05 0 2.7975888617344181e-06 -2.2960806962321557e-08 0 1.1279593531431472e-06 -1.049686864153346e-07 0 1.4790638006297628e-06 2.5747329626130017e-07 0 -7.5200722236320161e-06 -7.8758544536451402e-06 0 -1.696664014833323e-06 -6.0808200185797278e-06 0 -4.6630273746518279e-06 -3.9324599235684722e-06 0 6.5115160687237485e-05 0.00012122395991331802 0 7.1147086983446692e-05 0.00015040555736494304 0 4.9002938778067242e-05 0.00013055565338839197 0 2.3960367916389116e-06 -2.8386644843511315e-06 0 4.0143109971224918e-06 -2.4767539869281794e-06 0 1.9555023499742536e-06 -3.2547487735989359e-06 0 3.1347485864780446e-05 -2.1666909440704963e-05 0 2.6434891151874856e-05 -2.0085383854937112e-05 0 3.1699128836947115e-05 -2.5943074362256497e-05 0 2.7012601338243667e-05 -2.5380821648529001e-05 0 3.1699128836947115e-05 -2.5943074362256497e-05 0 2.6434891151874856e-05 -2.0085383854937112e-05 0 1.8693669628041316e-05 -5.2970933742190755e-05 0 1.4065506863731803e-05 -4.94033273378098e-05 0 1.6635320587264037e-05 -5.437810220386683e-05 0 1.2833674462450979e-05 -5.4321672571108084e-05 0 1.6635320587264037e-05 -5.437810220386683e-05 0 1.4065506863731803e-05 -4.94033273378098e-05 0 6.0548296244862338e-05 -4.4006694142410345e-05 0 5.1503905380313809e-05 -4.5739637213063419e-05 0 5.798594963108594e-05 -5.0586808385243307e-05 0 5.0772119350333877e-05 -5.2647944388590928e-05 0 5.798594963108594e-05 -5.0586808385243307e-05 0 5.1503905380313809e-05 -4.5739637213063419e-05 0 1.4772311103530449e-05 3.8425189395156417e-06 0 1.2788522673338416e-05 2.8743875126398152e-06 0 1.3205540516960415e-05 3.0045128282872697e-06 0 3.1359715511116646e-05 -1.1024469933824142e-05 0 2.387033727169879e-05 -5.1314431321914276e-06 0 2.7806149105966385e-05 -1.5468477560700198e-05 0 2.1197772212357657e-05 -1.0980672330133724e-05 0 2.7806149105966385e-05 -1.5468477560700198e-05 0 2.387033727169879e-05 -5.1314431321914276e-06 0 -3.2498487179280573e-05 -6.3208162471577826e-05 0 -4.2810743016998715e-05 -6.6739123609831097e-05 0 -3.8731313894593273e-05 -7.7825653473223593e-05 0 -8.609431933091509e-06 2.3955119247750847e-08 0 -1.001965022739467e-05 -2.3539508271728145e-06 0 -6.1030831942032429e-06 -3.4285969228532303e-07 0 -6.5949618038017997e-06 -2.4040826411882294e-06 0 -6.1030831942032429e-06 -3.4285969228532303e-07 0 -1.001965022739467e-05 -2.3539508271728145e-06 0 8.2595121232410549e-06 -1.5850010404908884e-05 0 5.313455910707516e-06 -1.3229042295425642e-05 0 6.0582022857685117e-06 -1.2158702790036524e-05 0 1.414086756461332e-05 -4.4274507749470083e-05 0 1.4065506863731803e-05 -4.94033273378098e-05 0 1.7211667105025827e-05 -4.7697251056904765e-05 0 4.4428699153437553e-05 -4.2664608743358425e-05 0 4.4109637558530547e-05 -4.7251061912365844e-05 0 5.1503905380313809e-05 -4.5739637213063419e-05 0 7.2561760287168084e-06 2.2775770799759988e-06 0 9.021912889260115e-06 2.1969983057758779e-06 0 6.9972076627065692e-06 2.0330907756321476e-06 0 3.3673515666380379e-05 -6.413636024559114e-05 0 3.407501857510024e-05 -5.8920866587806172e-05 0 2.976509248308749e-05 -5.8570321075529597e-05 0 4.01202084497192e-06 2.6257692924936346e-06 0 3.9753734056800549e-06 2.2230696085715226e-06 0 2.6526860895617851e-06 2.2961450024011365e-06 0 1.3173156920339977e-05 -1.6652770812391772e-05 0 1.3189598060203906e-05 -1.3032391951271022e-05 0 1.0146085576093816e-05 -1.312605311089609e-05 0 2.7975888617344181e-06 -2.2960806962321557e-08 0 4.4320437977428704e-06 1.8574975059317355e-07 0 3.762815785644671e-06 -6.0731501054961799e-07 0 -7.9191783676944293e-06 0.00014414908256181361 0 -3.9412124975709903e-07 0.00012170691175353507 0 1.5319791104733764e-05 0.0001403003303653557 0 -4.0845395083505321e-06 0.0001964452194724646 0 2.2541164087671066e-05 0.00019752310504678647 0 1.325525471483812e-05 0.00021682899787513676 0 -1.5374615590404771e-05 -0.00010026495627166923 0 -2.858193811470742e-05 -9.9751274038117842e-05 0 -2.3312703773005764e-05 -0.0001105798554486109 0 3.464473706426657e-05 2.1432202021115054e-05 0 2.686508747360253e-05 3.907132362632846e-06 0 3.8053317071199797e-05 -4.3707522362179446e-06 0 2.7975888617344181e-06 -2.2960806962321557e-08 0 1.4790638006297628e-06 2.5747329626130017e-07 0 3.0629258478911835e-06 4.9859244291729103e-07 0 -5.5225926214430389e-05 -7.8488623574672256e-05 0 -4.8251250939858366e-05 -8.6481169318031669e-05 0 -3.8731313894593273e-05 -7.7825653473223593e-05 0 -6.1741383914036416e-05 -0.00018187407542951422 0 -5.0176771750895227e-05 -0.00017180126934625089 0 -6.1836126155259886e-05 -0.00016425182421121037 0 0.00011050616647152671 0.00034504263752565889 0 8.1421928640382736e-05 0.00032887915206308469 0 0.00010125924337198038 0.00030946725509101451 0 0.00011050616647152671 0.00034504263752565889 0 7.2953022077201833e-05 0.00035118439046109037 0 8.1421928640382736e-05 0.00032887915206308469 0 4.7809392693213256e-05 -0.00017778842473826272 0 3.236975024156227e-05 -0.00016955523740631479 0 2.8596805914273686e-05 -0.00018111066889136833 0 -0.00010192417794725033 0.00035359934737519248 0 -0.00010207985441581774 0.00031962054024652227 0 -7.9563433642192098e-05 0.00033419141379306363 0 -6.1741383914036416e-05 -0.00018187407542951422 0 -4.4252018455991464e-05 -0.00018176275663810292 0 -5.0176771750895227e-05 -0.00017180126934625089 0 4.7809392693213256e-05 -0.00017778842473826272 0 4.1932642249842174e-05 -0.00015936041579157204 0 3.236975024156227e-05 -0.00016955523740631479 0 -0.00010192417794725033 0.00035359934737519248 0 -7.9563433642192098e-05 0.00033419141379306363 0 -6.8141294993216944e-05 0.00035341792487881391 0 1.55239849822188e-09 -9.6131789058382331e-11 0 1.4790638006297628e-06 2.5747329626130017e-07 0 1.1279593531431472e-06 -1.049686864153346e-07 0 1.4560661534021902e-05 -2.5495194818943156e-05 0 1.9256358440431934e-05 -2.6643932485163232e-05 0 1.5489923350978874e-05 -2.1255401229786028e-05 0 -6.5949618038017997e-06 -2.4040826411882294e-06 0 -9.6194145597283701e-06 -5.0242416697570615e-06 0 -4.6630273746518279e-06 -3.9324599235684722e-06 0 -3.2498487179280573e-05 -6.3208162471577826e-05 0 -2.6471981523260297e-05 -7.1795316305744563e-05 0 -2.24244573645942e-05 -6.2391303441577359e-05 0 5.8004138459494711e-06 -1.4804337347708201e-06 0 5.4975666942412538e-06 -2.0474404484625552e-06 0 4.0143109971224918e-06 -2.4767539869281794e-06 0 -5.950662991196159e-06 0.00023479857246346694 0 -2.7069200783648975e-05 0.00025457042388229935 0 -2.9520162167584637e-05 0.00022468436962862478 0 -1.289097200772829e-05 -0.00011959765860069441 0 -1.396379952777442e-06 -0.00012960894392206437 0 -1.6371466288615379e-06 -0.00011428529273110029 0 6.395655008990682e-06 -4.2481350217927347e-05 0 9.0713801408251766e-06 -4.8693137393089035e-05 0 1.0451191524468076e-05 -4.4111980623756715e-05 0 4.9678984946096635e-05 -3.4044049214775709e-05 0 4.8185068707203135e-05 -3.9222648200728422e-05 0 5.4442284858068169e-05 -3.8566876642932057e-05 0 3.9144585207063713e-05 -1.4476943783350089e-05 0 3.5168062483980168e-05 -1.9211852547920332e-05 0 4.0643485877102804e-05 -2.0766135444413224e-05 0 -7.5200722236320161e-06 -7.8758544536451402e-06 0 -4.6630273746518279e-06 -3.9324599235684722e-06 0 -9.6194145597283701e-06 -5.0242416697570615e-06 0 3.4356269329019974e-06 -2.9323591436128612e-05 0 4.509952110714187e-06 -3.597691978926508e-05 0 7.7707401404887316e-06 -3.1940506892753062e-05 0 4.3032224757921046e-05 -2.5491554915873567e-05 0 4.114603533600941e-05 -2.9822531441027551e-05 0 4.5923513271759121e-05 -2.9807711723287826e-05 0 -1.4194735602769014e-05 -5.3447164391868436e-05 0 -5.1679379526382356e-06 -5.7962398904233116e-05 0 -6.6567020228594751e-06 -4.5017652414507929e-05 0 8.1170941573638164e-06 1.5556696582280219e-06 0 6.2791137282923343e-06 1.5364319483227711e-06 0 6.9972076627065692e-06 2.0330907756321476e-06 0 9.2336935250477213e-06 -0.00010815582032541041 0 -2.492489716523963e-06 -9.8067877395809173e-05 0 -1.6371466288615379e-06 -0.00011428529273110029 0 -5.3055846626675253e-05 0.00021516271228334301 0 -3.0223799853954613e-05 0.00019653260218403188 0 -2.9520162167584637e-05 0.00022468436962862478 0 3.6180055446766586e-05 -3.0031243913064667e-05 0 3.7005175069865176e-05 -2.5410107109171412e-05 0 3.1699128836947115e-05 -2.5943074362256497e-05 0 3.1347485864780446e-05 -2.1666909440704963e-05 0 3.1699128836947115e-05 -2.5943074362256494e-05 0 3.7005175069865176e-05 -2.5410107109171412e-05 0 2.5971501396601978e-06 2.8045188869502813e-06 0 1.1414202237196387e-06 3.027124021782727e-06 0 9.7770026738440916e-07 2.6861091376238427e-06 0 -6.0713317044048526e-06 -1.7344970067476724e-05 0 -3.230869211609439e-07 -1.4497259011833566e-05 0 -3.9071774210526217e-06 -1.0675306493748462e-05 0 3.7255830143423571e-06 -4.5543978702484311e-05 0 1.1021552768444078e-05 -4.0245835477553018e-05 0 4.4677100038217774e-06 -2.9883452770792018e-05 0 1.8799919643169282e-05 -2.189259260310718e-05 0 1.5489923350978874e-05 -2.1255401229786028e-05 0 1.9256358440431934e-05 -2.6643932485163232e-05 0 1.4936309251741605e-05 -3.2438276166433909e-05 0 1.1021552768444078e-05 -4.0245835477553018e-05 0 1.9417751455843135e-05 -4.5841861151823181e-05 0 4.4030498364996207e-05 -3.4714902202019615e-05 0 3.7864017275229406e-05 -3.385213721457213e-05 0 4.1205981999127233e-05 -3.8757003967617828e-05 0 3.5247178484413667e-05 -3.6730151299671999e-05 0 4.1205981999127233e-05 -3.8757003967617828e-05 0 3.7864017275229406e-05 -3.385213721457213e-05 0 -3.2343888427492047e-06 2.6755170646023003e-06 0 -5.1739067376215493e-06 2.1872208076571118e-06 0 -4.4918643554959527e-06 2.4326939285915369e-06 0 8.2191213906576987e-06 -2.4782181094617708e-06 0 8.8225201670072047e-06 -4.3251864573682942e-06 0 9.7786406322952883e-06 -1.4433306548062229e-06 0 1.0567662057275976e-05 -2.8383201999104635e-06 0 9.7786406322952883e-06 -1.4433306548062229e-06 0 8.8225201670072047e-06 -4.3251864573682942e-06 0 2.2989395408755363e-05 1.0163828703734923e-05 0 2.1467781567704032e-05 7.4407742694485155e-06 0 2.613211882342766e-05 1.3624555479031554e-05 0 2.282898393847826e-05 4.0745743287582537e-06 0 2.613211882342766e-05 1.3624555479031554e-05 0 2.1467781567704032e-05 7.4407742694485155e-06 0 7.1147086983446692e-05 0.00015040555736494304 0 7.6798127309070166e-05 0.00018050454422011182 0 5.0669739383618532e-05 0.00016744327488503975 0 1.7975069971697276e-05 5.6961396098361219e-06 0 1.6678739930486303e-05 5.0815477424278365e-06 0 1.5790608573116424e-05 4.2289678576551371e-06 0 -5.5225926214430389e-05 -7.8488623574672256e-05 0 -5.7911385298513501e-05 -9.4476004751675163e-05 0 -4.8251250939858366e-05 -8.6481169318031669e-05 0 -4.7295248095768701e-07 2.9903910046214174e-06 0 9.7770026738440916e-07 2.6861091376238427e-06 0 1.1414202237196387e-06 3.027124021782727e-06 0 -3.2145967418367204e-06 -4.0619260733167277e-06 0 -2.9347200278702471e-06 -3.538106088259786e-06 0 -1.6320363054512037e-06 -3.692880146377382e-06 0 -3.2343888427492047e-06 2.6755170646023003e-06 0 -1.9106267389769638e-06 2.5749273533833677e-06 0 -2.6734751756830988e-06 2.293919892210826e-06 0 8.4996736976224412e-06 -5.7384890355634126e-07 0 8.2446629296047584e-06 3.4600940725444809e-08 0 1.0674784825343684e-05 1.0166254991708152e-06 0 -1.863862150221606e-06 -1.003760052481525e-08 0 -1.8869913822722476e-06 7.4839742842376496e-07 0 -8.4258165633560636e-07 1.8897162408421587e-07 0 -1.4835605904463478e-09 4.740311108826667e-10 0 -8.4258165633560636e-07 1.8897162408421595e-07 0 -1.8869913822722476e-06 7.4839742842376496e-07 0 -2.3548337606525605e-06 -3.2919506261560787e-07 0 -1.0704723925265737e-06 -4.2354359626106812e-07 0 -2.4385436655587168e-06 -1.3707353254224655e-06 0 -1.9890537200293698e-09 -7.685733382629369e-10 0 -2.4385436655587168e-06 -1.3707353254224655e-06 0 -1.0704723925265737e-06 -4.2354359626106812e-07 0 -6.0713317044048526e-06 -1.7344970067476724e-05 0 -1.3085076139347972e-05 -2.0557070415235017e-05 0 -9.5564036580367511e-06 -2.6139308060879457e-05 0 2.7975888617344181e-06 -2.2960806962321557e-08 0 3.0629258478911835e-06 4.9859244291729103e-07 0 4.4320437977428704e-06 1.8574975059317355e-07 0 2.5369487683003824e-05 0.0001205911153591202 0 4.4140957048898838e-05 0.00011170333504441161 0 4.9002938778067242e-05 0.00013055565338839197 0 8.7517275111848175e-06 2.5447315049943564e-05 0 3.1533072424175429e-06 1.6761079871240004e-05 0 1.2137212235240188e-05 1.489978117137581e-05 0 1.7975069971697276e-05 5.6961396098361219e-06 0 1.9472156996972212e-05 7.235202842383017e-06 0 1.6678739930486303e-05 5.0815477424278365e-06 0 -3.7813244897242559e-06 -3.3627976467809573e-05 0 -3.399292636019177e-06 -2.2941517532759072e-05 0 -9.5564036580367511e-06 -2.6139308060879457e-05 0 -3.4194317996219585e-05 0.00035355143353623959 0 -6.8141294993216944e-05 0.00035341792487881391 0 -5.1547912540148371e-05 0.00033587627865970331 0 9.1337339213988492e-06 -0.0001820631131885198 0 2.8596805914273686e-05 -0.00018111066889136833 0 1.7248187821721221e-05 -0.0001720239133830612 0 7.2953022077201833e-05 0.00035118439046109037 0 3.5508282390450643e-05 0.00035328930177638493 0 5.1760902812952109e-05 0.00033383486527011031 0 -4.4252018455991471e-05 -0.00018176275663810295 0 -2.6721054499887568e-05 -0.00018186885351767501 0 -3.5708654830418166e-05 -0.00017267529375982352 0 2.0340566536213499e-05 -4.6891254396764283e-05 0 1.7211667105025827e-05 -4.7697251056904765e-05 0 2.116756906927306e-05 -5.1514966302075684e-05 0 3.7794481290923712e-05 -4.7779499930678328e-05 0 4.2678119375210624e-05 -5.3001784405567311e-05 0 4.4109637558530547e-05 -4.7251061912365844e-05 0 -1.6275515890153313e-09 -6.6957296354882832e-10 0 -8.4258165633560657e-07 1.8897162408421593e-07 0 -1.4835605904463478e-09 4.740311108826667e-10 0 -1.8316863247827728e-09 7.4917667664378052e-10 0 -1.9890537200293698e-09 -7.685733382629369e-10 0 -1.0704723925265737e-06 -4.2354359626106812e-07 0 -1.8316863247827728e-09 7.4917667664378052e-10 0 -1.0704723925265737e-06 -4.2354359626106812e-07 0 -2.3548337606525605e-06 -3.2919506261560787e-07 0 -1.6275515890153313e-09 -6.6957296354882832e-10 0 -1.863862150221606e-06 -1.003760052481525e-08 0 -8.4258165633560636e-07 1.8897162408421587e-07 0 4.2674907687349033e-06 -6.1930430980127859e-05 0 -5.1679379526382365e-06 -5.796239890423311e-05 0 -4.0525370993917499e-06 -7.2181529120637339e-05 0 7.1757690285702675e-07 1.7703665595960128e-06 0 -8.6714392559828681e-07 7.6664922164182252e-07 0 1.7566255244507034e-06 4.890280084501157e-07 0 1.3173156920339977e-05 -1.6652770812391772e-05 0 1.5489923350978874e-05 -2.1255401229786028e-05 0 1.5973845790588111e-05 -1.709238065051423e-05 0 1.8799919643169282e-05 -2.189259260310718e-05 0 1.5973845790588111e-05 -1.709238065051423e-05 0 1.5489923350978874e-05 -2.1255401229786028e-05 0 2.5971501396601978e-06 2.8045188869502813e-06 0 2.6930048630864201e-06 2.0837423963523743e-06 0 3.7924986174092779e-06 2.403939156904201e-06 0 5.2669581505111773e-06 2.0181325606190881e-06 0 3.9753734056800549e-06 2.2230696085715226e-06 0 5.7120487107965477e-06 2.4100015662395098e-06 0 4.01202084497192e-06 2.6257692924936346e-06 0 5.7120487107965477e-06 2.4100015662395098e-06 0 3.9753734056800549e-06 2.2230696085715226e-06 0 2.282898393847826e-05 4.0745743287582537e-06 0 2.686508747360253e-05 3.9071323626328468e-06 0 2.613211882342766e-05 1.3624555479031554e-05 0 3.464473706426657e-05 2.1432202021115054e-05 0 2.613211882342766e-05 1.3624555479031555e-05 0 2.686508747360253e-05 3.907132362632846e-06 0 -1.7453412091257027e-05 -2.5969136103312504e-05 0 -9.5564036580367511e-06 -2.6139308060879457e-05 0 -1.3085076139347972e-05 -2.0557070415235017e-05 0 3.6180055446766586e-05 -3.0031243913064667e-05 0 3.7864017275229406e-05 -3.385213721457213e-05 0 4.114603533600941e-05 -2.9822531441027551e-05 0 1.0019426707137327e-05 -2.9220666840365497e-05 0 7.7707401404887316e-06 -3.1940506892753062e-05 0 1.1439257075205013e-05 -3.3253447534985784e-05 0 7.2561760287168084e-06 2.2775770799759988e-06 0 8.7868471359538657e-06 2.2063497264571768e-06 0 9.021912889260115e-06 2.1969983057758779e-06 0 3.7664713680301465e-05 0.00021698013290421134 0 6.1126298298759185e-05 0.00020496342656194834 0 6.2471705975532881e-05 0.00022612055767597182 0 -3.5747480933862533e-05 -0.00011119523875648926 0 -4.8799141423707568e-05 -0.00010548296597695143 0 -4.8340654500554625e-05 -0.00011738334322695189 0 8.2595121232410549e-06 -1.5850010404908884e-05 0 7.2330057120504929e-06 -1.0933711877735063e-05 0 5.0823996882459271e-06 -1.2212208675462936e-05 0 3.1347485864780446e-05 -2.1666909440704963e-05 0 3.5168062483980168e-05 -1.9211852547920332e-05 0 2.7806149105966385e-05 -1.5468477560700198e-05 0 -5.3055846626675253e-05 0.00021516271228334301 0 -7.242531028845728e-05 0.00019848673613863263 0 -5.0713343736024921e-05 0.00018923462800096846 0 9.2336935250477213e-06 -0.00010815582032541041 0 1.7678634183609275e-05 -9.8574679731396449e-05 0 7.2462969569328543e-06 -9.4586823489275866e-05 0 4.2674907687349033e-06 -6.1930430980127859e-05 0 5.1282428509502648e-06 -7.4287366789829265e-05 0 1.3571078874923461e-05 -6.9319682580406915e-05 0 1.9719095019314366e-05 -4.1656898612981927e-05 0 2.261697934502523e-05 -4.5166625217982862e-05 0 2.3345652561802864e-05 -4.1060149880089022e-05 0 4.4428699153437553e-05 -4.2664608743358425e-05 0 4.8185068707203135e-05 -3.9222648200728422e-05 0 4.1205981999127233e-05 -3.8757003967617828e-05 0 6.2363691652397552e-06 -9.3992256756571436e-07 0 6.2073494560241003e-06 -1.7313620648778051e-06 0 9.3930491239855424e-06 1.3841921089700586e-07 0 2.9822625266936927e-05 -5.3470650809671672e-05 0 3.4649272135997574e-05 -5.2832287485686242e-05 0 3.0732351777277877e-05 -4.779816735709842e-05 0 -4.7295248095768701e-07 2.9903910046214174e-06 0 1.1414202237196387e-06 3.027124021782727e-06 0 -1.438532163894793e-07 3.0276146486285635e-06 0 5.6714524464470954e-07 2.9202008936475387e-06 0 -1.438532163894793e-07 3.0276146486285635e-06 0 1.1414202237196387e-06 3.027124021782727e-06 0 1.0173508621043066e-05 8.1432731539537842e-07 0 8.7124814275665868e-06 -5.4955475243249214e-07 0 9.7786406322952883e-06 -1.4433306548062229e-06 0 -6.0713317044048526e-06 -1.7344970067476724e-05 0 -9.5564036580367511e-06 -2.6139308060879457e-05 0 -3.399292636019177e-06 -2.2941517532759072e-05 0 2.5971501396601978e-06 2.8045188869502813e-06 0 3.7924986174092779e-06 2.403939156904201e-06 0 3.5598183469007196e-06 2.7461762672421998e-06 0 4.9025591288023581e-06 2.4660398932013736e-06 0 3.5598183469007196e-06 2.7461762672421998e-06 0 3.7924986174092779e-06 2.403939156904201e-06 0 2.6930048630864201e-06 2.0837423963523743e-06 0 4.7765177441264238e-06 1.7622728451087719e-06 0 3.7924986174092779e-06 2.403939156904201e-06 0 2.5042456119920501e-05 -5.5078218133833096e-05 0 2.116756906927306e-05 -5.1514966302075684e-05 0 2.2761900630815058e-05 -5.6247207833630479e-05 0 1.8693669628041316e-05 -5.2970933742190755e-05 0 2.2761900630815058e-05 -5.6247207833630479e-05 0 2.116756906927306e-05 -5.1514966302075684e-05 0 5.0772119350333877e-05 -5.2647944388590928e-05 0 4.2678119375210624e-05 -5.3001784405567311e-05 0 4.837156424199273e-05 -6.0328873485072395e-05 0 3.960320099189173e-05 -5.6837964863967421e-05 0 4.837156424199273e-05 -6.0328873485072395e-05 0 4.2678119375210624e-05 -5.3001784405567311e-05 0 2.282898393847826e-05 4.0745743287582537e-06 0 2.387033727169879e-05 -5.1314431321914276e-06 0 2.686508747360253e-05 3.907132362632846e-06 0 6.2189828526219146e-05 0.00031134846871845432 0 5.1760902812952109e-05 0.00033383486527011031 0 2.9595336077624755e-05 0.0003205220348318947 0 -4.2392516343952475e-05 -0.00016187807833745608 0 -3.5708654830418166e-05 -0.00017267529375982352 0 -2.5923168114500923e-05 -0.00016535207574811919 0 2.215281229135734e-05 -0.0001603210634969469 0 5.6911614071205922e-06 -0.00016500328867313958 0 1.7248187821721221e-05 -0.0001720239133830612 0 -6.4509083931713239e-05 0.00031513428074066765 0 -3.2411374376687934e-05 0.00032174823596634955 0 -5.1547912540148371e-05 0.00033587627865970331 0 -5.3055846626675253e-05 0.00021516271228334301 0 -5.0713343736024921e-05 0.00018923462800096846 0 -3.0223799853954613e-05 0.00019653260218403188 0 9.2336935250477213e-06 -0.00010815582032541041 0 7.2462969569328543e-06 -9.4586823489275866e-05 0 -2.492489716523963e-06 -9.8067877395809173e-05 0 4.2674907687349033e-06 -6.1930430980127859e-05 0 -4.0525370993917499e-06 -7.2181529120637339e-05 0 5.1282428509502631e-06 -7.4287366789829265e-05 0 8.2191213906576987e-06 -2.4782181094617708e-06 0 9.7786406322952883e-06 -1.4433306548062229e-06 0 8.7124814275665868e-06 -5.4955475243249214e-07 0 3.5508282390450643e-05 0.00035328930177638493 0 2.9595336077624755e-05 0.0003205220348318947 0 5.1760902812952109e-05 0.00033383486527011031 0 -2.6721054499887568e-05 -0.00018186885351767501 0 -2.5923168114500923e-05 -0.00016535207574811919 0 -3.5708654830418166e-05 -0.00017267529375982352 0 -3.4194317996219585e-05 0.00035355143353623959 0 -5.1547912540148371e-05 0.00033587627865970331 0 -3.2411374376687934e-05 0.00032174823596634955 0 9.1337339213988492e-06 -0.0001820631131885198 0 1.7248187821721224e-05 -0.0001720239133830612 0 5.6911614071205922e-06 -0.00016500328867313958 0 2.6007764360581682e-05 -4.5039606982942973e-05 0 2.3345652561802864e-05 -4.1060149880089022e-05 0 2.261697934502523e-05 -4.5166625217982862e-05 0 1.4936309251741605e-05 -3.2438276166433909e-05 0 4.4677100038217774e-06 -2.9883452770792018e-05 0 1.1021552768444078e-05 -4.0245835477553018e-05 0 1.7933074023153315e-05 -5.8766028637788748e-05 0 2.0237882305759049e-05 -5.6703056946730286e-05 0 1.6635320587264037e-05 -5.437810220386683e-05 0 6.8391710274563519e-05 -5.1327474772422025e-05 0 5.798594963108594e-05 -5.0586808385243307e-05 0 6.0634224022033884e-05 -5.7800499748673341e-05 0 5.2669581505111773e-06 2.0181325606190881e-06 0 3.6587184845319642e-06 1.6180379660328078e-06 0 3.9753734056800549e-06 2.2230696085715226e-06 0 -6.4939173306613441e-05 0.00016890707928876071 0 -6.7930971052708927e-05 0.00014116318034920709 0 -4.7673599213247877e-05 0.00014644271413542697 0 -4.7056704012071281e-05 0.00012536257131034301 0 -4.7673599213247877e-05 0.00014644271413542697 0 -6.7930971052708927e-05 0.00014116318034920709 0 2.4487916581023162e-05 -3.7045186116324557e-05 0 2.0171622163641573e-05 -3.6878809064021238e-05 0 2.3345652561802864e-05 -4.1060149880089022e-05 0 6.6911431640435117e-06 1.5519607231424757e-06 0 4.7765177441264238e-06 1.7622728451087719e-06 0 5.6237509330112004e-06 6.8130503755640821e-07 0 1.3173156920339977e-05 -1.6652770812391772e-05 0 1.5973845790588111e-05 -1.709238065051423e-05 0 1.3189598060203906e-05 -1.3032391951271024e-05 0 1.5540087473149736e-05 -1.224419398608133e-05 0 1.3189598060203906e-05 -1.3032391951271024e-05 0 1.5973845790588111e-05 -1.709238065051423e-05 0 -3.3352442472761896e-05 0.00016825315009617368 0 -3.0223799853954613e-05 0.00019653260218403188 0 -5.0713343736024921e-05 0.00018923462800096846 0 -9.8500532793817099e-07 -8.4445520998050849e-05 0 -2.492489716523963e-06 -9.8067877395809173e-05 0 7.2462969569328543e-06 -9.4586823489275866e-05 0 -9.8500532793817099e-07 -8.4445520998050849e-05 0 5.1282428509502631e-06 -7.4287366789829265e-05 0 -4.0525370993917499e-06 -7.2181529120637339e-05 0 -2.624807919980535e-06 1.6310389654084612e-06 0 -4.048711043919878e-06 2.0809945990698519e-06 0 -2.6734751756830988e-06 2.293919892210826e-06 0 -3.233907036620971e-06 -2.6922328454394922e-06 0 -2.9347200278702471e-06 -3.538106088259786e-06 0 -4.992011928826256e-06 -3.4725442672058921e-06 0 -7.6148098018323503e-06 -3.0113061060196077e-06 0 -4.992011928826256e-06 -3.4725442672058921e-06 0 -6.2325520999497198e-06 -3.7005782022455012e-06 0 -5.787064971469048e-06 1.6392948121449034e-06 0 -5.1739067376215493e-06 2.1872208076571118e-06 0 -4.048711043919878e-06 2.0809945990698519e-06 0 6.8648734870235502e-06 -4.4722396129283244e-07 0 8.7124814275665868e-06 -5.4955475243249214e-07 0 8.2397333123925581e-06 6.9133047258435263e-07 0 -6.4939173306613441e-05 0.00016890707928876071 0 -5.0713343736024921e-05 0.00018923462800096846 0 -7.242531028845728e-05 0.00019848673613863263 0 1.303895036607737e-05 -8.3827535403194079e-05 0 7.2462969569328543e-06 -9.4586823489275866e-05 0 1.7678634183609275e-05 -9.8574679731396449e-05 0 1.303895036607737e-05 -8.3827535403194079e-05 0 1.3571078874923461e-05 -6.9319682580406915e-05 0 5.1282428509502631e-06 -7.4287366789829265e-05 0 -1.4194735602769014e-05 -5.3447164391868436e-05 0 -2.4047521678179e-05 -5.2892661785576671e-05 0 -2.24244573645942e-05 -6.2391303441577359e-05 0 1.9719095019314366e-05 -4.1656898612981927e-05 0 2.3345652561802864e-05 -4.1060149880089022e-05 0 2.0171622163641573e-05 -3.6878809064021238e-05 0 6.2363691652397552e-06 -9.3992256756571436e-07 0 8.5293165552755286e-06 1.1713706665814754e-06 0 3.9034466054447822e-06 -4.56074239424556e-07 0 5.2842409978645162e-06 -3.1440539560028015e-06 0 5.1113638691533502e-06 -7.9638201150729521e-07 0 3.2393821660543873e-06 -1.4911065348732833e-06 0 -3.2343888427492047e-06 2.6755170646023003e-06 0 -4.4918643554959536e-06 2.4326939285915365e-06 0 -2.4018777014626415e-06 2.8310928033891902e-06 0 -4.2292240236146664e-05 8.1523899750243791e-05 0 -2.7193049966139701e-05 8.372787454721494e-05 0 -3.616600956564845e-05 0.00010382711429956778 0 -2.8218451255619128e-05 -4.188260248807623e-05 0 -2.4047521678179e-05 -5.2892661785576671e-05 0 -2.0525297965048557e-05 -4.3439517546498383e-05 0 3.7664713680301465e-05 0.00021698013290421134 0 1.325525471483812e-05 0.00021682899787513676 0 2.2541164087671066e-05 0.00019752310504678647 0 -3.5747480933862533e-05 -0.00011119523875648926 0 -2.3312703773005764e-05 -0.0001105798554486109 0 -2.858193811470742e-05 -9.9751274038117842e-05 0 2.5369487683003824e-05 0.0001205911153591202 0 1.5319791104733764e-05 0.0001403003303653557 0 -3.9412124975709903e-07 0.00012170691175353507 0 -3.1576508884930757e-06 1.1463659831287942e-06 0 -5.2737364239153484e-06 1.1443923749149005e-06 0 -6.1030831942032429e-06 -3.4285969228532303e-07 0 3.9808037501750482e-06 5.7668423959442128e-07 0 5.6237509330112004e-06 6.8130503755640821e-07 0 4.7765177441264238e-06 1.7622728451087719e-06 0 -1.5239851904855582e-05 -7.1525266600253284e-05 0 -2.24244573645942e-05 -6.2391303441577359e-05 0 -2.6471981523260297e-05 -7.1795316305744563e-05 0 1.8693669628041316e-05 -5.2970933742190755e-05 0 1.6635320587264037e-05 -5.437810220386683e-05 0 2.0237882305759049e-05 -5.6703056946730286e-05 0 5.0772119350333877e-05 -5.2647944388590928e-05 0 6.0634224022033884e-05 -5.7800499748673341e-05 0 5.798594963108594e-05 -5.0586808385243307e-05 0 4.9025591288023581e-06 2.4660398932013736e-06 0 3.7924986174092779e-06 2.403939156904201e-06 0 4.7765177441264238e-06 1.7622728451087719e-06 0 -6.8141294993216944e-05 0.00035341792487881391 0 -7.9563433642192098e-05 0.00033419141379306363 0 -5.1547912540148371e-05 0.00033587627865970331 0 -6.4509083931713239e-05 0.00031513428074066765 0 -5.1547912540148371e-05 0.00033587627865970331 0 -7.9563433642192098e-05 0.00033419141379306363 0 2.215281229135734e-05 -0.0001603210634969469 0 1.7248187821721221e-05 -0.0001720239133830612 0 3.236975024156227e-05 -0.00016955523740631479 0 2.8596805914273686e-05 -0.00018111066889136833 0 3.236975024156227e-05 -0.00016955523740631479 0 1.7248187821721221e-05 -0.0001720239133830612 0 7.2953022077201833e-05 0.00035118439046109037 0 5.1760902812952109e-05 0.00033383486527011031 0 8.1421928640382736e-05 0.00032887915206308469 0 -4.4252018455991471e-05 -0.00018176275663810295 0 -3.5708654830418166e-05 -0.00017267529375982352 0 -5.0176771750895227e-05 -0.00017180126934625089 0 6.2189828526219146e-05 0.00031134846871845432 0 8.1421928640382736e-05 0.00032887915206308469 0 5.1760902812952109e-05 0.00033383486527011031 0 -4.2392516343952475e-05 -0.00016187807833745608 0 -5.0176771750895227e-05 -0.00017180126934625089 0 -3.5708654830418166e-05 -0.00017267529375982352 0 2.4487916581023162e-05 -3.7045186116324557e-05 0 2.3345652561802864e-05 -4.1060149880089022e-05 0 2.7481337221184164e-05 -4.1308299355499704e-05 0 1.5179580039589784e-05 -3.6137030938033639e-05 0 1.3496502303684821e-05 -3.0255475393487604e-05 0 1.1439257075205013e-05 -3.3253447534985784e-05 0 1.0019426707137327e-05 -2.9220666840365497e-05 0 1.1439257075205013e-05 -3.3253447534985784e-05 0 1.3496502303684821e-05 -3.0255475393487604e-05 0 2.6007764360581682e-05 -4.5039606982942973e-05 0 2.261697934502523e-05 -4.5166625217982862e-05 0 2.4709641582686877e-05 -4.9486761828426285e-05 0 2.0340566536213499e-05 -4.6891254396764283e-05 0 2.4709641582686877e-05 -4.9486761828426285e-05 0 2.261697934502523e-05 -4.5166625217982862e-05 0 2.2989395408755363e-05 1.0163828703734923e-05 0 2.0134330603399251e-05 7.110135387336763e-06 0 2.1467781567704032e-05 7.4407742694485155e-06 0 5.8075793199488329e-06 3.1061619046444594e-06 0 9.036011056368016e-07 5.7570168343015573e-06 0 8.3549734910033873e-08 1.1383866951705381e-06 0 -5.5210482788207675e-06 3.6282842827600232e-06 0 8.3549734910033873e-08 1.1383866951705381e-06 0 9.036011056368016e-07 5.7570168343015573e-06 0 -3.1576508884930757e-06 1.1463659831287942e-06 0 -3.3077990532059842e-06 -9.5228927904575782e-07 0 -8.6714392559828681e-07 7.6664922164182252e-07 0 -4.2292240236146664e-05 8.1523899750243791e-05 0 -2.8876590714556374e-05 6.6140856677785663e-05 0 -2.7193049966139701e-05 8.3727874547214926e-05 0 -1.3014700457121434e-05 6.9698847671892025e-05 0 -2.7193049966139701e-05 8.3727874547214926e-05 0 -2.8876590714556374e-05 6.6140856677785663e-05 0 1.7975069971697276e-05 5.6961396098361219e-06 0 2.0134330603399251e-05 7.110135387336763e-06 0 1.9472156996972212e-05 7.235202842383017e-06 0 3.5247178484413667e-05 -3.6730151299671999e-05 0 3.788791292288756e-05 -4.1482156610258643e-05 0 4.1205981999127233e-05 -3.8757003967617828e-05 0 4.4428699153437553e-05 -4.2664608743358425e-05 0 4.1205981999127233e-05 -3.8757003967617828e-05 0 3.788791292288756e-05 -4.1482156610258643e-05 0 1.7647556316393023e-05 5.7678423700840445e-06 0 1.9472156996972212e-05 7.235202842383017e-06 0 2.0587009293426283e-05 8.6480291635922048e-06 0 -1.3320242342924739e-05 -3.6846374152681804e-05 0 -2.1510007486700024e-05 -3.4962619777899604e-05 0 -2.0525297965048557e-05 -4.3439517546498383e-05 0 -2.8218451255619128e-05 -4.188260248807623e-05 0 -2.0525297965048557e-05 -4.3439517546498383e-05 0 -2.1510007486700024e-05 -3.4962619777899604e-05 0 1.4772311103530449e-05 3.8425189395156417e-06 0 1.5790608573116424e-05 4.2289678576551371e-06 0 1.6678739930486303e-05 5.0815477424278365e-06 0 1.7647556316393023e-05 5.7678423700840445e-06 0 1.6678739930486303e-05 5.0815477424278365e-06 0 1.9472156996972212e-05 7.235202842383017e-06 0 1.0019426707137327e-05 -2.9220666840365497e-05 0 6.8626031695468717e-06 -2.6488290265151776e-05 0 7.7707401404887316e-06 -3.1940506892753062e-05 0 3.9808037501750482e-06 5.7668423959442128e-07 0 5.1113638691533511e-06 -7.9638201150729542e-07 0 5.6237509330112004e-06 6.8130503755640821e-07 0 6.8648734870235502e-06 -4.4722396129283244e-07 0 5.6237509330112004e-06 6.8130503755640821e-07 0 5.1113638691533511e-06 -7.9638201150729542e-07 0 1.0173508621043066e-05 8.1432731539537842e-07 0 8.2397333123925581e-06 6.9133047258435263e-07 0 8.7124814275665868e-06 -5.4955475243249214e-07 0 8.2313626925554747e-05 0.0002112426243251496 0 6.2471705975532881e-05 0.00022612055767597182 0 6.1126298298759185e-05 0.00020496342656194834 0 -5.98339494481085e-05 -0.00011136854620156605 0 -4.8340654500554625e-05 -0.00011738334322695189 0 -4.8799141423707568e-05 -0.00010548296597695143 0 -8.609431933091509e-06 2.3955119247750847e-08 0 -6.1030831942032429e-06 -3.4285969228532303e-07 0 -5.2737364239153492e-06 1.1443923749149005e-06 0 1.3379009666391402e-09 3.7224979732190011e-10 0 9.1370818037649498e-07 8.3623653511877732e-07 0 9.6593686395290204e-07 6.250344180591235e-07 0 6.5115160687237485e-05 0.00012122395991331802 0 4.9002938778067242e-05 0.00013055565338839197 0 4.4140957048898845e-05 0.00011170333504441161 0 2.6007764360581682e-05 -4.5039606982942973e-05 0 2.7481337221184164e-05 -4.1308299355499704e-05 0 2.3345652561802864e-05 -4.1060149880089022e-05 0 -7.2575174260854538e-07 -1.667029716618162e-06 0 8.354973491003292e-08 1.1383866951705379e-06 0 -5.1848489884101725e-06 6.8692800654397016e-08 0 -5.5210482788207675e-06 3.6282842827600232e-06 0 -5.1848489884101716e-06 6.8692800654396791e-08 0 8.3549734910033873e-08 1.1383866951705381e-06 0 3.4356269329019974e-06 -2.9323591436128612e-05 0 7.7707401404887316e-06 -3.1940506892753062e-05 0 6.8626031695468717e-06 -2.6488290265151776e-05 0 
</DataArray>
</PointData>
<CellData Scalars="region_id," Vectors="" Tensors="stress,">
<DataArray type="Float64" Name="region_id" format="ascii">
2 2 2 2 2 2 2 2 2 2 3 3 3 3 3 3 3 3 3 3 1 1 1 1 1 1 1 1 1 1 1 1 1 1 1 1 1 1 1 1 1 1 1 1 1 1 1 1 1 1 1 1 1 1 1 1 1 1 1 1 1 1 1 1 1 1 1 1 1 1 1 1 1 1 1 1 1 1 1 1 1 1 1 1 1 1 1 1 1 1 1 1 1 1 1 1 1 1 1 1 1 1 1 1 1 1 1 1 1 1 1 1 1 1 1 1 1 1 1 1 1 1 1 1 1 1 1 1 1 1 1 1 1 1 1 1 1 1 1 1 1 1 1 1 1 1 1 1 1 1 1 1 1 1 1 1 1 1 1 1 1 1 1 1 1 1 1 1 1 1 1 1 1 1 1 1 1 1 1 1 1 1 1 1 1 1 1 1 1 1 1 1 1 1 1 1 1 1 1 1 1 1 1 1 1 1 1 1 1 1 1 1 1 1 1 1 1 1 1 1 1 1 1 1 1 1 1 1 1 1 1 1 1 1 1 1 1 1 1 1 1 1 1 1 1 1 1 1 1 1 1 1 1 1 1 1 1 1 1 1 1 1 1 1 1 1 1 1 1 1 1 1 1 1 1 1 1 1 1 1 1 1 1 1 1 1 1 1 1 1 1 1 1 1 1 1 1 1 1 1 1 1 1 1 1 1 1 1 1 1 1 1 1 1 1 1 1 1 1 1 1 1 1 1 1 1 1 1 1 1 1 1 1 1 1 1 1 1 1 1 1 1 1 1 1 1 1 1 1 1 1 1 1 1 1 1 1 1 1 1 1 1 1 1 1 1 1 1 1 1 1 1 1 1 1 1 1 1 1 1 1 1 1 1 1 1 1 1 1 1 1 1 1 1 1 1 1 1 1 1 1 1 1 1 1 1 1 1 1 1 1 1 1 1 1 1 1 1 1 1 1 1 1 1 1 1 1 1 1 1 1 1 1 1 1 1 1 1 1 1 1 1 1 1 1 1 1 1 1 1 1 1 1 1 1 1 1 1 1 1 1 1 1 1 1 1 1 1 1 1 1 1 1 1 1 1 1 1 1 1 1 1 1 1 1 1 1 1 1 1 1 1 1 1 1 1 1 1 1 1 1 1 1 1 1 1 1 1 1 1 1 1 1 1 1 1 1 1 1 1 1 1 1 1 1 1 1 1 1 1 1 1 1 1 1 1 1 1 1 1 1 1 1 1 1 1 1 1 1 1 1 1 1 1 1 1 1 1 1 1 1 1 1 1 1 1 1 1 1 1 1 1 1 1 1 1 1 1 1 1 1 1 1 1 1 1 1 1 1 1 1 1 1 1 1 1 1 1 1 1 1 1 1 1 1 1 1 1 1 1 1 1 1 1 1 1 1 1 1 1 1 1 1 1 1 1 1 1 1 1 1 1 1 1 1 1 1 1 1 1 1 1 1 1 1 1 1 1 1 1 1 1 1 1 1 1 1 1 1 1 1 1 1 1 1 1 1 1 1 1 1 1 1 1 1 1 1 1 1 1 1 1 1 1 1 1 1 1 1 1 1 1 1 1 1 1 1 1 1 1 1 1 1 1 1 1 1 1 1 1 1 1 1 1 1 1 1 1 1 1 1 1 1 1 1 1 1 1 1 1 1 1 1 1 1 1 1 1 1 1 1 1 1 1 1 1 1 1 1 1 1 1 1 1 1 1 1 1 1 1 1 1 1 1 1 1 1 1 1 1 1 1 1 1 1 1 1 1 1 1 1 1 1 1 1 1 1 1 1 1 1 1 1 1 1 1 1 1 1 1 1 1 1 1 1 1 1 1 1 1 1 1 1 1 1 1 1 1 1 1 1 1 1 1 1 1 1 1 1 1 1 1 1 1 1 1 1 1 1 1 1 1 1 1 1 1 1 1 1 1 1 1 1 1 1 1 1 1 1 1 1 1 1 1 1 1 1 1 1 1 1 1 1 1 1 1 1 1 1 1 1 1 1 1 1 1 1 1 1 1 1 1 1 1 1 1 1 1 1 1 1 1 1 1 1 1 1 1 1 1 1 1 1 1 1 1 1 1 1 1 1 1 1 1 1 1 1 1 1 1 1 1 1 1 1 1 1 1 1 1 1 1 1 1 1 1 1 1 1 1 1 1 1 1 1 1 1 1 1 1 1 1 1 1 1 1 1 1 1 1 1 1 1 1 1 1 1 1 1 1 1 1 1 1 1 1 1 1 1 1 1 1 1 1 1 1 1 1 1 1 1 1 1 1 1 1 1 1 1 1 1 1 1 1 1 1 1 1 1 1 1 1 1 1 1 1 1 1 1 1 1 1 1 1 1 1 1 1 1 1 1 1 1 1 1 1 1 1 1 1 1 1 1 1 
</DataArray>
<DataArray type="Float64" Name="stress" NumberOfComponents="9" format="ascii">
9.5852384186706675e-05 -4.7540078190199428e-05 0 -4.7540078190199428e-05 3.1950794728902232e-05 0 0 0 3.1950794728902232e-05 2.090437031989663e-05 -6.644076178784512e-05 0 -6.644076178784512e-05 6.9681234399655568e-06 0 0 0 6.9681234399655568e-06 3.4831409072198891e-05 -8.4313377993652089e-05 0 -8.4313377993652089e-05 1.1610469690732955e-05 0 0 0 1.1610469690732955e-05 3.6078901947997506e-05 -8.9982043370749382e-05 0 -8.9982043370749382e-05 1.2026300649332493e-05 0 0 0 1.2026300649332493e-05 4.5358721563030959e-05 -8.4562129021664766e-05 0 -8.4562129021664766e-05 1.5119573854343671e-05 0 0 0 1.5119573854343671e-05 5.6943225552049152e-05 -9.4331963787618414e-05 0 -9.4331963787618414e-05 1.8981075184016375e-05 0 0 0 1.8981075184016375e-05 6.2132680381005233e-05 -8.9610023882423333e-05 0 -8.9610023882423333e-05 2.071089346033505e-05 0 0 0 2.071089346033505e-05 0.00010106176532952203 -0.00010244597982403945 0 -0.00010244597982403945 3.3687255109840687e-05 0 0 0 3.3687255109840687e-05 4.7061801121672515e-05 -8.7023876715566881e-05 0 -8.7023876715566881e-05 1.5687267040557541e-05 0 0 0 1.5687267040557541e-05 0.00037407526322938672 -5.1640868912455375e-05 0 -5.1640868912455375e-05 0.00012469175440979555 0 0 0 0.00012469175440979555 0.00082806753022584049 7.5888360102360802e-05 0 7.5888360102360802e-05 0.0002760225100752802 0 0 0 0.0002760225100752802 -6.5079073459470716e-05 7.974074872702956e-05 0 7.974074872702956e-05 -2.1693024486490184e-05 0 0 0 -2.1693024486490184e-05 0.00013955192829347022 6.127645405230815e-05 0 6.127645405230815e-05 4.6517309431156739e-05 0 0 0 4.6517309431156739e-05 8.5295098192992571e-05 0.00011625180634769521 0 0.00011625180634769521 2.8431699397664172e-05 0 0 0 2.8431699397664172e-05 9.9240901550574868e-05 0.00010021989428533114 0 0.00010021989428533114 3.3080300516858307e-05 0 0 0 3.3080300516858307e-05 0.0001120237595006973 0.00010441906271648925 0 0.00010441906271648925 3.7341253166899154e-05 0 0 0 3.7341253166899154e-05 9.6198668091181582e-05 0.00010227941968743567 0 0.00010227941968743567 3.2066222697060419e-05 0 0 0 3.2066222697060419e-05 0.00023303838957325568 0.00013804536180376094 0 0.00013804536180376094 7.7679463191085299e-05 0 0 0 7.7679463191085299e-05 -0.00017569666764780784 9.7331436102007351e-05 0 9.7331436102007351e-05 -5.856555588260265e-05 0 0 0 -5.856555588260265e-05 0.0015342283990804296 1.664706616841369e-05 0 1.664706616841369e-05 0.00051140946636014332 0 0 0 0.00051140946636014332 0.021700217532558463 -0.0069465110652259972 0 -0.0069465110652259972 0.023638191375681933 0 0 0 0.011334602227060096 0.026215610420944495 -0.0071458148008322168 0 -0.0071458148008322168 0.041142830872678032 0 0 0 0.016839610323405634 0.014517657620963673 -0.0029736898114843535 0 -0.0029736898114843535 0.041815613517359657 0 0 0 0.014083317784580815 0.010604786754395513 0.0054042370227822961 0 0.0054042370227822961 0.042214006296895173 0 0 0 0.013204698262822671 -0.060043471104894365 -0.010987417225148505 0 -0.010987417225148505 0.0046996686045119862 0 0 0 -0.013835950625095586 -0.045243642537736259 0.0063725909425231828 0 0.0063725909425231828 0.0027430386691010508 0 0 0 -0.01062515096715881 -0.067408310122279921 -0.0078550139226669542 0 -0.0078550139226669542 -0.00056675721277356199 0 0 0 -0.016993766833763364 -0.049333808704459747 0.0046142437497094253 0 0.0046142437497094253 -0.00025302602305849256 0 0 0 -0.012396708681879559 -0.085772631920459669 0.00460537636747246 0 0.00460537636747246 -0.00034617282964150703 0 0 0 -0.021529701187525285 -0.14602583604306776 -0.010889841480260586 0 -0.010889841480260586 -0.0003440004764923843 0 0 0 -0.03659245912989003 0.053495723858705983 4.5421304325169581e-05 0 4.5421304325169581e-05 -0.0065432916904767033 0 0 0 0.011738108042057318 0.049798018608228904 -6.1200179375318225e-05 0 -6.1200179375318225e-05 -0.0054749299040993552 0 0 0 0.011080772176032375 0.0092349397923886679 0.011217150469293564 0 0.011217150469293564 0.0014351706085744403 0 0 0 0.0026675276002407766 0.01953306094157093 -0.013917939168922097 0 -0.013917939168922097 0.0065046407765666416 0 0 0 0.0065094254295343934 0.0055725816795401109 0.013455552101231198 0 0.013455552101231198 0.0018555619238750545 0 0 0 0.0018570359008537912 0.015683092074325729 -0.013184308574690107 0 -0.013184308574690107 0.029403416439087782 0 0 0 0.011271627128353397 0.22399917459699437 0.1008591097682703 0 0.1008591097682703 0.22065107174046744 0 0 0 0.11116256158436544 0.030293833658663338 -0.006067798109142819 0 -0.006067798109142819 0.017006461496472447 0 0 0 0.011825073788783946 0.045895757201477982 0.011345676270670291 0 0.011345676270670291 0.021721135017990001 0 0 0 0.016904223054867051 0.051468046182211236 0.0057875913130009012 0 0.0057875913130009012 0.038438001960313883 0 0 0 0.022476512035631391 0.028316180696672744 -0.0084902082785578443 0 -0.0084902082785578443 0.011073502610615016 0 0 0 0.0098474208268217733 0.047509662818400411 0.015645204748465424 0 0.015645204748465424 0.023516111448613319 0 0 0 0.017756443566753433 0.029172073364193363 -0.013982019546173285 0 -0.013982019546173285 0.020772963559169577 0 0 0 0.01248625923084079 0.013863604930188551 0.013415047457017236 0 0.013415047457017236 0.00095576194943522777 0 0 0 0.003704841719905946 0.23613755618202559 -0.011064399794739083 0 -0.011064399794739083 0.13669500209384841 0 0 0 0.09320813956896852 -0.18319175341168834 0.011534892237153094 0 0.011534892237153094 0.0089047131120907341 0 0 0 -0.043571760074899324 -0.10126740340420418 -0.0041221872589810452 0 -0.0041221872589810452 0.0033738746868683389 0 0 0 -0.024473382179333925 -0.020675098979985804 -0.016725288118552627 0 -0.016725288118552627 0.024241381287700425 0 0 0 0.00089157057692866581 -0.042609702942517175 0.017260882611308089 0 0.017260882611308089 0.063124045625153724 0 0 0 0.0051285856706591026 -0.053151122554084856 -0.025112819564541092 0 -0.025112819564541092 0.01028725071614281 0 0 0 -0.010715967959485517 0.033745912836192264 -0.016114421317188932 0 -0.016114421317188932 0.051205863573109855 0 0 0 0.021237944102325525 0.017354287833132642 -0.021426520695995155 0 -0.021426520695995155 0.015250657731274764 0 0 0 0.0081512363911019348 0.042069045428095198 0.025179736812600106 0 0.025179736812600106 0.017282986318699844 0 0 0 0.014838007936698983 0.029364509439214315 -0.024224069064083142 0 -0.024224069064083142 0.016224626374305107 0 0 0 0.0113972839533798 0.014782097476500056 0.033659298921829173 0 0.033659298921829173 0.0086221447478083135 0 0 0 0.0058510605560775364 -0.02035848336859462 -0.032674476210805346 0 -0.032674476210805346 0.0045269784500492896 0 0 0 -0.0039578762296363377 0.063984826621328608 -0.03935504351890564 0 -0.03935504351890564 0.069960573418226174 0 0 0 0.033486350009888713 -0.059035275754970321 0.0057057835737389928 0 0.0057057835737389928 0.016710248793284421 0 0 0 -0.010581256740421444 0.35630444611388018 0.11385613503255097 0 0.11385613503255097 0.086923167776961074 0 0 0 0.11080690347271038 0.10555165760004315 0.00092420215834160269 0 0.00092420215834160269 0.044250140143188288 0 0 0 0.037450449435807887 0.16513756666374368 -0.0027360450934183211 0 -0.0027360450934183211 0.098167356599044631 0 0 0 0.065826230815697107 0.042354765991412087 -0.018767178375329197 0 -0.018767178375329197 0.081237594558857082 0 0 0 0.030898090137567287 0.10415583518003535 -0.005171065665559027 0 -0.005171065665559027 0.094049491352465431 0 0 0 0.049551331633125084 0.0025312687694736269 0.0053711477982076872 0 0.0053711477982076872 0.0080305273006739952 0 0 0 0.0026404490175369055 0.030561691035646113 -0.0093595414809145919 0 -0.0093595414809145919 -0.00072363719214017103 0 0 0 0.0074595134608764855 0.018416680786595169 0.014372638002911237 0 0.014372638002911237 0.0023415142911726375 0 0 0 0.0051895487694419524 0.00050203845246300782 0.0578583678259873 0 0.0578583678259873 0.066300080802813396 0 0 0 0.016700529813819157 0.012030732378204942 0.046913296734793108 0 0.046913296734793108 0.048706300200809766 0 0 0 0.015184258144753701 0.21332288730878685 0.14021685573578346 0 0.14021685573578346 0.25562799301492378 0 0 0 0.11723772008092766 -0.0014419367316555465 0.011336367446272089 0 0.011336367446272089 0.011127022009312648 0 0 0 0.0024212713194143309 0.082885377145972605 -0.018658004182653398 0 -0.018658004182653398 0.072255873863670328 0 0 0 0.038785312752410872 0.061980221965046878 0.0085691667405885796 0 0.0085691667405885796 0.022246228615826924 0 0 0 0.021056612645218409 0.036122036902291543 -0.015878699438804506 0 -0.015878699438804506 0.061971848270263433 0 0 0 0.024523471293138754 0.048661870644548286 -0.019938528598072158 0 -0.019938528598072158 0.011223986900366079 0 0 0 0.014971464386228581 0.080135185009748311 0.0036141355161345284 0 0.0036141355161345284 0.032352344686140344 0 0 0 0.028121882423972122 -0.077213274412840205 0.01511035446079867 0 0.01511035446079867 0.0024898546899636553 0 0 0 -0.018680854930718915 -0.003555438913070974 -0.0077868804461037611 0 -0.0077868804461037611 0.0066358423423951152 0 0 0 0.00077010085733097977 0.15292078482373661 0.01819677911964801 0 0.01819677911964801 0.13778931000767258 0 0 0 0.07267752370785252 0.12346348102506863 -0.012843961226168821 0 -0.012843961226168821 0.10321960965783351 0 0 0 0.056670772670725705 -0.001985750238595152 0.0061806346176138472 0 0.0061806346176138472 0.010804791685115944 0 0 0 0.0022047603616304201 0.052003898696202144 -0.013048945625541097 0 -0.013048945625541097 0.025437675714796493 0 0 0 0.019360393602749715 0.067856669215911602 -0.05486606114283854 0 -0.05486606114283854 0.10448602540117424 0 0 0 0.043085673654271468 0.046592851848442862 -0.0097084074161710859 0 -0.0097084074161710859 0.020467439361060658 0 0 0 0.016765072802375935 0.070652033245370394 -0.0023532984240510271 0 -0.0023532984240510271 0.015190321202956492 0 0 0 0.021460588612081721 0.0028052141599479441 -0.027565437749795037 0 -0.027565437749795037 0.012019906348226028 0 0 0 0.0037062801270434376 -0.038800267371574541 0.0085943584419276593 0 0.0085943584419276593 -0.0034957650070802926 0 0 0 -0.010574008094663708 -0.050100385376048516 -0.01487624698315153 0 -0.01487624698315153 -0.0046048894308105062 0 0 0 -0.013676318701714754 0.075539453629903455 -0.013996338787876983 0 -0.013996338787876983 0.015277540807228642 0 0 0 0.022704248609283009 0.11429661852432504 0.018022715813374113 0 0.018022715813374113 0.061971914868365285 0 0 0 0.044067133348172582 -0.02448571554305206 -0.020797582978628968 0 -0.020797582978628968 -0.0064031548088231416 0 0 0 -0.0077222175879687969 -0.023655950749327907 0.013539295656649885 0 0.013539295656649885 -0.0045706295179387887 0 0 0 -0.0070566450668166705 0.044498574849005462 -0.0045151968500454446 0 -0.0045151968500454446 -0.0052312564963295713 0 0 0 0.0098168295881689797 -0.049030829398062872 0.0077747575667424587 0 0.0077747575667424587 0.0018976425974345378 0 0 0 -0.011783296700157077 -0.066555104060018036 -0.013811764265403469 0 -0.013811764265403469 0.0033946218620295246 0 0 0 -0.015790120549497116 0.057229883885001026 -0.01183325695669786 0 -0.01183325695669786 0.0048355619101658753 0 0 0 0.015516361448791732 0.051757030542669974 -0.018925677553440712 0 -0.018925677553440712 0.012002307519754563 0 0 0 0.015939834515606127 0.1772039406368715 -0.0038028497363011837 0 -0.0038028497363011837 0.17221759639952527 0 0 0 0.087355384259099278 -0.00046235891460211231 -0.0040494320919903792 0 -0.0040494320919903792 0.0042134637772731631 0 0 0 0.00093777621566781821 0.052446336960121187 -0.013870591390251485 0 -0.013870591390251485 0.0017884710914854995 0 0 0 0.013558702012901658 0.062012837687578398 0.0054459594346900342 0 0.0054459594346900342 0.02727150060275399 0 0 0 0.022321084572583111 -0.0016659514020584965 0.043989334194391883 0 0.043989334194391883 0.0081892099167228949 0 0 0 0.0016308146286663217 -0.039364382145919016 -0.015753619650959588 0 -0.015753619650959588 -0.013127784548028347 0 0 0 -0.013123041673486839 -0.032483865257504768 0.009870672951408168 0 0.009870672951408168 -0.010832012778049693 0 0 0 -0.010828969508888614 0.035519541021433503 -0.011071173517151771 0 -0.011071173517151771 -0.01080292195734181 0 0 0 0.0061791547660229188 0.054550060049921134 0.013406685632670001 0 0.013406685632670001 0.043776826566920501 0 0 0 0.024581721654210353 0.02618506217649208 -0.013201834324521933 0 -0.013201834324521933 0.012097220379731155 0 0 0 0.0095705706390558642 0.022424293108960512 -0.022740635598191838 0 -0.022740635598191838 0.011417351257810196 0 0 0 0.0084604110916926753 0.043182336580336815 0.0045324947363888177 0 0.0045324947363888177 -0.0021889369089066217 0 0 0 0.010248349917857542 0.003122785041877654 -0.022455081637404999 0 -0.022455081637404999 -0.0045987808510895914 0 0 0 -0.00036899895230298142 0.072174422791802195 0.0044970988633273624 0 0.0044970988633273624 0.023312961484142192 0 0 0 0.023871846068986124 0.049074741275815618 0.0051463033194650244 0 0.0051463033194650244 -0.00011288643190811342 0 0 0 0.012240463710976871 0.040077240368311402 0.0080981157325684967 0 0.0080981157325684967 0.00090169237630281091 0 0 0 0.010244733186153559 0.038572450226024506 0.0072722752149822255 0 0.0072722752149822255 0.0028300437178590456 0 0 0 0.010350623485970887 0.055301879815624011 -0.012816114207350571 0 -0.012816114207350571 0.03532009392089841 0 0 0 0.022655493434130702 0.059593565923751049 -0.027377309431240462 0 -0.027377309431240462 0.031253666153238713 0 0 0 0.022711808019247451 0.068199960903880308 0.0047293529706250448 0 0.0047293529706250448 0.02844612616947062 0 0 0 0.024161521768337635 0.041083253749110774 -0.020125553123801238 0 -0.020125553123801238 0.082333616092766015 0 0 0 0.030854217460469197 0.2153341333489327 0.010843804642875376 0 0.010843804642875376 0.18796476890176628 0 0 0 0.10082472556267463 -0.0019645965104695406 -0.0040694620212873289 0 -0.0040694620212873289 0.0063561754335204057 0 0 0 0.0010978947307624942 -0.011887555477507972 -0.0045576846825353609 0 -0.0045576846825353609 0.003048283126842577 0 0 0 -0.0022098180876664042 0.18908697585810286 -0.0010346818899980015 0 -0.0010346818899980015 0.17920988731268306 0 0 0 0.092074215792696368 0.053438961791277564 0.020301259370873716 0 0.020301259370873716 0.10837755302135609 0 0 0 0.040454128703158385 0.027907660068529336 0.010967188357412689 0 0.010967188357412689 0.0016297778836290439 0 0 0 0.007384359488039588 0.021026754748063217 0.011336642400820881 0 0.011336642400820881 0.002135440296090689 0 0 0 0.0057905487610384766 0.12187245643328892 0.020813206300157872 0 0.020813206300157872 0.05401783913436109 0 0 0 0.043972573891912559 0.10966987303646847 0.028664508471113737 0 0.028664508471113737 0.049955109820302823 0 0 0 0.039906245714192767 0.049539113444642194 -0.028833360189815638 0 -0.028833360189815638 0.031090982781778631 0 0 0 0.020157524056605189 0.065607652201665367 0.0098193323624027884 0 0.0098193323624027884 0.020256491161928292 0 0 0 0.021466035840898401 0.046186318859943731 -0.0092021876921152129 0 -0.0092021876921152129 -0.0037146225330988436 0 0 0 0.010617924081711139 0.037299347076115902 0.010708146730593626 0 0.010708146730593626 0.071064697316329167 0 0 0 0.027091011098111243 -0.015907595750388914 0.0061808850636113129 0 0.0061808850636113129 0.0061701698627176782 0 0 0 -0.0024343564719173649 0.10466106154632904 -0.0071790332278498514 0 -0.0071790332278498514 0.096627366415363625 0 0 0 0.050322106990423165 -0.071824141236524225 0.0039112680852478529 0 0.0039112680852478529 0.0012296029280514601 0 0 0 -0.017648634577118193 -0.1149671955652842 -0.0098164938449325084 0 -0.0098164938449325084 0.0017280679290372081 0 0 0 -0.028309781909061742 0.078959239841164708 -0.024653179172658427 0 -0.024653179172658427 0.016789756449319515 0 0 0 0.02393724907262107 0.1597201544949497 -0.053773662910289594 0 -0.053773662910289594 0.051845447260813304 0 0 0 0.052891400438940805 0.066431772172421771 -0.011743289877282709 0 -0.011743289877282709 0.0066987801177396111 0 0 0 0.018282638072540353 0.064751123835924143 -0.018205316484586148 0 -0.018205316484586148 0.0092902557453639623 0 0 0 0.018510344895322065 0.049683742512735309 -0.0014700227211128514 0 -0.0014700227211128514 0.01579127711111622 0 0 0 0.016368754905962884 0.026904520659226439 0.0030127970669937554 0 0.0030127970669937554 0.007430618370365849 0 0 0 0.008583784757398405 0.079712920039407109 -0.00019091773587476268 0 -0.00019091773587476268 0.033700672739408688 0 0 0 0.028353398194704393 0.015819805712749553 -0.0030621703526660937 0 -0.0030621703526660937 0.001899032652681673 0 0 0 0.004429709591357806 0.0096445766009293776 0.026116734423209775 0 0.026116734423209775 0.087172447051557578 0 0 0 0.02420425591312178 0.043075851143672544 -0.01469485394613293 0 -0.01469485394613293 0.014011605957357842 0 0 0 0.01427186427525759 0.070076706444795023 -0.0061863104441395311 0 -0.0061863104441395311 0.0088023164946364196 0 0 0 0.01971975573485793 0.063677221171946283 -0.0052667041458968611 0 -0.0052667041458968611 0.010026106082425865 0 0 0 0.018425831813593072 0.048626634030270677 -0.025657438108548578 0 -0.025657438108548578 0.018653644888104504 0 0 0 0.016820069729593823 -0.11708622825721404 0.018780320754145152 0 0.018780320754145152 0.0055954651750729223 0 0 0 -0.027872690770535224 -0.018517135773808896 0.0050823489999096277 0 0.0050823489999096277 0.021734725801123178 0 0 0 0.00080439750682859135 -0.005274072243397071 -0.0040600105304980649 0 -0.0040600105304980649 0.019624717030810979 0 0 0 0.0035876611968534977 0.047731790429268173 -0.0078828018357689489 0 -0.0078828018357689489 0.01137104871220429 0 0 0 0.01477570978536813 -0.081250714458081741 0.029775791869819601 0 0.029775791869819601 0.0043000388153293656 0 0 0 -0.019237668910688011 -0.05611474178805971 0.010102019642855578 0 0.010102019642855578 0.005646972528032923 0 0 0 -0.0126169423150067 -0.059874601347108564 -3.7337891639580012e-05 0 -3.7337891639580012e-05 0.0055447794448689192 0 0 0 -0.013582455475559904 -0.099366235016221868 -0.0040947597402022917 0 -0.0040947597402022917 0.012442330823534131 0 0 0 -0.021730976048171952 -0.090933768417476163 -0.025117139661185409 0 -0.025117139661185409 0.01376479654462609 0 0 0 -0.019292242968212553 0.045602028553748647 -0.012389558442070014 0 -0.012389558442070014 0.015627339537569424 0 0 0 0.015307342022829545 -0.070677612265592424 -0.0081198255169063205 0 -0.0081198255169063205 0.0028330541497451067 0 0 0 -0.016961139528961874 0.12123907846353055 0.06109806613627744 0 0.06109806613627744 0.035934662620166646 0 0 0 0.039293435270924326 0.027925350757310331 -0.011151313750415795 0 -0.011151313750415795 0.057014450511002471 0 0 0 0.021234950317078203 0.052590071989075761 0.016954084131409794 0 0.016954084131409794 0.02310250577103147 0 0 0 0.018923144440026799 -0.0048198348005143998 0.02301080588918536 0 0.02301080588918536 0.0089471929393198923 0 0 0 0.0010318395347013176 0.053247284120284399 -0.020341446918761052 0 -0.020341446918761052 0.032187898788132774 0 0 0 0.021358795727104363 0.06079822888864294 -0.027437841723961354 0 -0.027437841723961354 0.034865011219854858 0 0 0 0.023915810027124468 0.042462607181708967 -0.0073132009691010413 0 -0.0073132009691010413 0.011174148229871284 0 0 0 0.013409188852895049 0.06051235386609391 -0.005149101098528952 0 -0.005149101098528952 0.0090121832167942562 0 0 0 0.017381134270722021 0.021136169942712432 -0.01568043137948644 0 -0.01568043137948644 -0.0037594288255045419 0 0 0 0.0043441852793019761 0.0095066096872032952 0.016237042502602949 0 0.016237042502602949 0.00081625372395771612 0 0 0 0.0025807158527902507 0.025060892617564903 -0.030152423018886765 0 -0.030152423018886765 0.019726458251325268 0 0 0 0.011196837717222477 0.00036799283464676244 -0.030771895453419171 0 -0.030771895453419171 -0.0036991304493399074 0 0 0 -0.00083278440367328885 -0.020383987246928859 -0.014865997824703969 0 -0.014865997824703969 0.026653128070045717 0 0 0 0.0015672852057792008 0.041034675948183837 -0.0045716455509893098 0 -0.0045716455509893098 -0.0052205706126919396 0 0 0 0.0089535263338729725 0.043538612741400799 -0.0013625971922804781 0 -0.0013625971922804781 -0.00020568563795109879 0 0 0 0.010833231775862422 0.028204143550587254 0.0098134981051378641 0 0.0098134981051378641 0.0029013611404417709 0 0 0 0.0077763761727572579 0.027309205216068458 0.011623928504849597 0 0.011623928504849597 0.00088725695184161193 0 0 0 0.0070491155419775183 -0.0081496399969916561 -0.024630754527032825 0 -0.024630754527032825 0.027019745304580484 0 0 0 0.0047175263268971965 0.044992351495405161 0.014269962727561699 0 0.014269962727561699 0.021698102482050889 0 0 0 0.016672613494364018 0.051465944916430209 -0.0071317308151110197 0 -0.0071317308151110197 -0.0080372544558833664 0 0 0 0.010857172615136711 0.025757891340056516 -0.028083339466201222 0 -0.028083339466201222 -0.0045174377239865365 0 0 0 0.0053101134040174896 0.042940090837183358 0.01758031313823305 0 0.01758031313823305 0.056846821426975488 0 0 0 0.02494672806603972 0.012501954297443182 0.0064192057515956042 0 0.0064192057515956042 0.0057288939720373175 0 0 0 0.0045577120673701253 0.016279550024223467 0.0085448186758352376 0 0.0085448186758352376 0.0094351744617060182 0 0 0 0.0064286811214823705 -0.039356103693800965 -0.01575956296387673 0 -0.01575956296387673 -0.013101361379546294 0 0 0 -0.013114366268336815 -0.032478247468753579 0.0098759297722504739 0 0.0098759297722504739 -0.010813768901160474 0 0 0 -0.010823004092478515 0.19228951866543564 0.031952831459226783 0 0.031952831459226783 0.053783149735638414 0 0 0 0.061518167100268459 0.028948408886295247 0.0093579506411269539 0 0.0093579506411269539 0.0064804296413970355 0 0 0 0.0088572096319230742 0.015387467828288495 -0.0052055200057449791 0 -0.0052055200057449791 0.068448599742599314 0 0 0 0.020959016892721949 0.044315611527454446 -0.002418255599873631 0 -0.002418255599873631 -0.00039650344199160248 0 0 0 0.010979777021365711 -0.062970253989160632 0.006050465749196759 0 0.006050465749196759 0.0018658883165509751 0 0 0 -0.015276091418152416 -0.099053844874903749 -0.011521458950940412 0 -0.011521458950940412 0.0018817836950831314 0 0 0 -0.024293015294955159 0.048965659832038898 -0.0046392454080533829 0 -0.0046392454080533829 0.0083809838284289173 0 0 0 0.014336660915116949 -0.04861651995028099 0.012944426523202872 0 0.012944426523202872 0.0018426032532021534 0 0 0 -0.01169347917426969 -0.04953726090353195 -0.035392950250163396 0 -0.035392950250163396 -7.7024691926663724e-05 0 0 0 -0.012403571398864657 -0.053964758403503253 0.0080316146350344706 0 0.0080316146350344706 2.3530816881875416e-06 0 0 0 -0.013490601330453759 -0.0042104248099912997 0.011327467011746417 0 0.011327467011746417 0.0016667799786756251 0 0 0 -0.00063591120782891962 0.01977801072705836 -0.019246070098420623 0 -0.019246070098420623 -0.005322364114359171 0 0 0 0.0036139116531748068 -0.014104021427449036 -0.028333452065712375 0 -0.028333452065712375 0.010639198380107018 0 0 0 -0.0008662057618354993 0.039982677455717819 -0.014309871551840603 0 -0.014309871551840603 0.012883582401630567 0 0 0 0.013216564964337096 0.10616395208434293 0.013655747047555677 0 0.013655747047555677 0.068358375635186874 0 0 0 0.043630581929882783 -0.0078967676273855592 -0.014118519045629052 0 -0.014118519045629052 0.0044847717314424607 0 0 0 -0.00085299897398583013 0.039056847878990671 -0.0056655335219644816 0 -0.0056655335219644816 0.0026625871428610157 0 0 0 0.010429858755462922 0.021275946181699805 0.010540181998245161 0 0.010540181998245161 0.0040125994132629086 0 0 0 0.0063221363987406801 0.0093536930320026364 -0.02015308475183988 0 -0.02015308475183988 -0.0049375405697363178 0 0 0 0.0011040381155665788 -0.00018203059010197045 0.017171850164635825 0 0.017171850164635825 -0.0011929641644006089 0 0 0 -0.00034374868862564571 0.022209121644801974 -0.0053750577272662706 0 -0.0053750577272662706 0.0179381924577868 0 0 0 0.010036828525647204 0.022291957057783057 -0.015680691735508415 0 -0.015680691735508415 0.02194673234362543 0 0 0 0.011059672350352136 0.017256622530721688 0.053107224667219524 0 0.053107224667219524 0.018496845096848791 0 0 0 0.0089383669068927585 0.077483260402673504 0.07741200786312627 0 0.07741200786312627 0.052334627444300397 0 0 0 0.032454471961743447 0.12618303778493312 -0.0039566391347562319 0 -0.0039566391347562319 0.056438577434871157 0 0 0 0.045655403804951061 0.010829845325601134 -0.0025372023774526895 0 -0.0025372023774526895 0.053397020184021718 0 0 0 0.016056716377405716 0.045686577290562302 0.003069810231490827 0 0.003069810231490827 -0.0041783502098542286 0 0 0 0.010377056770177017 0.041832513041116431 -0.015204500731246989 0 -0.015204500731246989 0.0052621624652751109 0 0 0 0.011773668876597893 0.00020577416462674858 0.039189757159408201 0 0.039189757159408201 0.0045952852420794166 0 0 0 0.001200264851676569 0.061035473339997648 -0.013753573072398634 0 -0.013753573072398634 0.055634687884472012 0 0 0 0.029167540306117234 0.047789595891826686 0.001853833556688389 0 0.001853833556688389 0.014019180461622316 0 0 0 0.015452194088362348 0.01772904943769146 0.010563268824740856 0 0.010563268824740856 0.0014035360600257174 0 0 0 0.0047831463744292917 -0.014534352495189362 0.0087992379220296346 0 0.0087992379220296346 0.050763423092640259 0 0 0 0.0090572676493626547 -0.06088917990404414 0.0035894446297576794 0 0.0035894446297576794 -0.0019766958559077688 0 0 0 -0.015716468939987974 -0.087536174406017575 -0.0063677412508364936 0 -0.0063677412508364936 -0.0036373191753296327 0 0 0 -0.022793373395336804 0.069033555147135911 -0.013157309905669774 0 -0.013157309905669774 0.0078921874684170779 0 0 0 0.019231435653888213 -0.010059499770149583 0.012582251141287278 0 0.012582251141287278 -0.0002076275293877855 0 0 0 -0.002566781824884342 0.0012489300134319297 -0.017611157159205297 0 -0.017611157159205297 -0.0066742009363835696 0 0 0 -0.0013563177307379087 -0.13754256390386588 2.4809210382226166e-05 0 2.4809210382226166e-05 0.007138036895513844 0 0 0 -0.032601131752087981 -0.078356251006670583 0.00049071386641222348 0 0.00049071386641222348 0.0023539545882802215 0 0 0 -0.019000574104597642 0.089938945517331975 0.021938309257383604 0 0.021938309257383604 0.12515900292196747 0 0 0 0.053774487109824881 0.15681230987045328 -0.0041369773084020955 0 -0.0041369773084020955 0.30545360639076563 0 0 0 0.11556647906530471 0.017428919430253778 -0.032644222008548107 0 -0.032644222008548107 0.022588850443930802 0 0 0 0.01000444246854619 -0.0031703829199970501 -0.026142803204290493 0 -0.026142803204290493 0.015868307229857215 0 0 0 0.0031744810774650967 0.06401462428008721 -0.036143429205670895 0 -0.036143429205670895 0.061187632667808037 0 0 0 0.031300564236973825 0.034603644093775587 -0.0061611927066392846 0 -0.0061611927066392846 -0.0063746272474668464 0 0 0 0.0070572542115771852 0.043386829523178606 -0.0039061781589346985 0 -0.0039061781589346985 -0.0083667983098465858 0 0 0 0.008755007803332996 -0.029281804700919234 -0.0020148747380192844 0 -0.0020148747380192844 0.012808360629489257 0 0 0 -0.0041183610178575081 0.051580367433860963 -0.0019084968199446634 0 -0.0019084968199446634 -0.0097917510042282441 0 0 0 0.010447154107408152 -0.11115571692409054 0.013509846284025018 0 0.013509846284025018 0.0036584760552258733 0 0 0 -0.026874310217216084 0.016011324085149603 0.018218436528270932 0 0.018218436528270932 0.01283296051504923 0 0 0 0.0072110711500497082 0.04125747471140917 -0.018195117261601057 0 -0.018195117261601057 0.031324165778253477 0 0 0 0.018145410122415773 0.032413716424534035 0.008803430039179154 0 0.008803430039179154 0.017852612758021913 0 0 0 0.012566582295638985 0.01453815224327043 -0.012138513369359227 0 -0.012138513369359227 0.022147817465925923 0 0 0 0.0091714924272990606 0.051268727262488725 0.0095472908629798819 0 0.0095472908629798819 0.0038629218292573902 0 0 0 0.013782912272936531 0.056429720053549598 0.013014700525841451 0 0.013014700525841451 0.01055399567558557 0 0 0 0.016745928932283782 -0.017033501009804254 -0.027528899618560049 0 -0.027528899618560049 -0.00078173088152125314 0 0 0 -0.0044538079728313751 0.0015391928738823224 -0.02409121241286788 0 -0.02409121241286788 0.0061848259329515543 0 0 0 0.0019310047017084275 -0.061477591543132905 -0.02235767053808721 0 -0.02235767053808721 -0.005723750807647557 0 0 0 -0.016800335587695107 0.047530551847370317 0.037871932207360404 0 0.037871932207360404 0.01824205840391846 0 0 0 0.016443152562822139 0.04152783432379957 0.035143650598012055 0 0.035143650598012055 0.016713533500653022 0 0 0 0.014560341956112985 0.039061645745438245 0.037149297607946163 0 0.037149297607946163 0.012401924145945209 0 0 0 0.012865892472845974 0.0077352396081851182 -0.025428048590989794 0 -0.025428048590989794 0.0090530381786475544 0 0 0 0.0041970694467081682 0.0026907522493112828 -0.02047049169000692 0 -0.02047049169000692 0.0071240880913042356 0 0 0 0.0024537100851538523 0.12928638783909296 0.03618215288612197 0 0.03618215288612197 0.067810770145651428 0 0 0 0.049274289496186105 0.038679958662421694 -0.0045235569273161629 0 -0.0045235569273161629 0.012882532525156707 0 0 0 0.012890622796894602 0.025260751852901355 0.010796433453349765 0 0.010796433453349765 0.0084154845889532551 0 0 0 0.0084190591104636534 0.033265396318308535 0.0098406275691782161 0 0.0098406275691782161 0.0075504027907141724 0 0 0 0.010203949777255673 0.054430130936345439 -0.0092201609712717764 0 -0.0092201609712717764 0.092616356549363343 0 0 0 0.036761621871427203 -0.033569692120678091 -0.032793066117227022 0 -0.032793066117227022 -0.0018931596569138828 0 0 0 -0.0088657129443980003 0.036693764619584228 0.0046896849515303323 0 0.0046896849515303323 0.0043427763388113336 0 0 0 0.010259135239598888 -0.089369653276428693 -0.0083369878618494812 0 -0.0083369878618494812 -0.0050360589843889891 0 0 0 -0.023601428065204422 -0.060020195450160865 0.0041302009502331323 0 0.0041302009502331323 -0.0023269625584676004 0 0 0 -0.015586789502157122 -0.066573079842310534 -0.0048184809081117108 0 -0.0048184809081117108 0.002267441352159727 0 0 0 -0.016076409622537646 0.034070497884424733 0.0091091557870923417 0 0.0091091557870923417 0.0014631206210615408 0 0 0 0.0088834046263715702 0.049050348113618455 -0.012029633199724277 0 -0.012029633199724277 0.034375191809546263 0 0 0 0.020856384980791162 0.035417219317314085 0.012996636897430101 0 0.012996636897430101 0.04009592420533388 0 0 0 0.018878285880661989 0.080714482773817639 0.043514487055778872 0 0.043514487055778872 0.019051072535862551 0 0 0 0.024941388827420127 0.048599884339913121 0.0018975876635043778 0 0.0018975876635043778 -0.0025643911227602196 0 0 0 0.011508873304288231 0.02292096936199739 0.015814499376720859 0 0.015814499376720859 0.018926794109029643 0 0 0 0.010461940867756869 0.042777620542296724 -0.014015313845269051 0 -0.014015313845269051 0.02324328803938025 0 0 0 0.016505227145419132 0.034212060290289448 0.0097188964155189433 0 0.0097188964155189433 0.0011522066610526946 0 0 0 0.0088410667378355373 0.024064736936806722 0.0053247133982924841 0 0.0053247133982924841 0.051565327890937158 0 0 0 0.018907516206935985 0.088366256682369304 0.0092731984153597846 0 0.0092731984153597846 0.04959223038315308 0 0 0 0.034489621766380374 0.022035562597893854 0.011474468187880227 0 0.011474468187880227 0.01674317036687345 0 0 0 0.0096946832411914929 0.011937602032306316 -0.0097591138911564956 0 -0.0097591138911564956 0.0064123574660266414 0 0 0 0.0045874898745830173 0.053768829237557658 -0.010468838228977706 0 -0.010468838228977706 0.026374271637853663 0 0 0 0.020035775218852803 -0.051850945660187636 -0.0055200356259313965 0 -0.0055200356259313965 0.027718480847406191 0 0 0 -0.0060331162031953822 -0.036787900821601896 -0.016165382902224024 0 -0.016165382902224024 0.0090946256126697989 0 0 0 -0.0069233188022330833 -0.053789842128541238 -0.016144450045003117 0 -0.016144450045003117 0.0086240282953143899 0 0 0 -0.011291453458306761 -0.082962846986586625 0.038714855346654975 0 0.038714855346654975 0.021721303569572026 0 0 0 -0.015310385854253816 -0.049726523253841193 0.038502678351460456 0 0.038502678351460456 0.02234315219597538 0 0 0 -0.0068458427644665365 0.019694138292106669 0.010114347976960762 0 0.010114347976960762 0.00097295298855030153 0 0 0 0.0051667728201642438 0.19290203694054203 0.031702123795369387 0 0.031702123795369387 0.051843561274050209 0 0 0 0.061186399553648241 -0.020430892785385263 -0.020041871273962057 0 -0.020041871273962057 -0.0071197549069452123 0 0 0 -0.0068876619230826171 -0.022310268437408992 0.01277958362937668 0 0.01277958362937668 -0.0022122407464661605 0 0 0 -0.0061306272959687925 0.020620339742796326 -0.0077782435753889906 0 -0.0077782435753889906 0.038216538125544285 0 0 0 0.014709219467085156 -0.0014186704695619656 0.014532027039459213 0 0.014532027039459213 -0.00088922920981704748 0 0 0 -0.00057697491984474948 0.014227251219734068 -0.021054817951694012 0 -0.021054817951694012 -0.012162264166608636 0 0 0 0.00051624676328135624 -0.065173282340838731 -0.026840665408630719 0 -0.026840665408630719 0.0032924929511876644 0 0 0 -0.01547019734741277 -0.066148685407055721 -0.025824115500689609 0 -0.025824115500689609 -0.00084088937343400685 0 0 0 -0.016747393695122438 0.094747212852835716 0.021405159890386549 0 0.021405159890386549 0.068158690499070751 0 0 0 0.040726475837976839 0.0068546752690250567 -0.015247591772367869 0 -0.015247591772367869 0.0085747683475361214 0 0 0 0.003857360904140128 0.091840022513362513 0.0050313694823562738 0 0.0050313694823562738 -0.0051202165833896451 0 0 0 0.021679951482493218 0.060984011345918021 -0.0028603185428612843 0 -0.0028603185428612843 -0.028529536839946523 0 0 0 0.0081136186264928467 -0.00044324611124857589 0.0095678133940935578 0 0.0095678133940935578 0.0055956450153659479 0 0 0 0.0012880997260293434 0.086317443874708494 -0.011185303591881579 0 -0.011185303591881579 0.085952058813939303 0 0 0 0.043067375672161984 0.14897545323093439 0.0092963730604447847 0 0.0092963730604447847 0.15913903393137341 0 0 0 0.077028621790576984 0.083324849997209821 0.014583198566435529 0 0.014583198566435529 0.04718156281668652 0 0 0 0.032626603203474012 -0.050445318296455863 -0.0055332717223710963 0 -0.0055332717223710963 0.010253611950360897 0 0 0 -0.010047926586523731 0.03753608923333529 0.0016456738219949862 0 0.0016456738219949862 -0.022019208802362966 0 0 0 0.0038792201077429422 -0.064970162534416703 -0.035637835932040868 0 -0.035637835932040868 0.0085440972126502313 0 0 0 -0.014106516330441597 0.032859972839008343 0.0080474003122475487 0 0.0080474003122475487 0.015482185315222732 0 0 0 0.012085539538557772 -0.010394347950803795 -0.024649914722804228 0 -0.024649914722804228 0.025865318450369768 0 0 0 0.0038677426248914792 -0.0044816814637115288 -0.018791755860229964 0 -0.018791755860229964 0.022388614053575395 0 0 0 0.0044767331474659389 -0.0033021907354165228 0.013535663568423784 0 0.013535663568423784 0.001643141938403897 0 0 0 -0.00041476219925315819 -0.033683089600753141 -0.012143998655720467 0 -0.012143998655720467 0.014671329522553511 0 0 0 -0.0047529400195499283 -0.011345139540010554 0.010249074881584684 0 0.010249074881584684 0.0033140930219518333 0 0 0 -0.0020077616295146802 0.021465417406766638 -0.021345308277027998 0 -0.021345308277027998 -0.012617705619209198 0 0 0 0.0022119279468893575 -0.054912097049172215 -0.0041816560745419062 0 -0.0041816560745419062 0.010710200007834514 0 0 0 -0.011050474260334398 -0.094561680624897268 0.0089604914307889194 0 0.0089604914307889194 0.036555593429307198 0 0 0 -0.014501521798897396 -0.023102562722810353 -0.021955126476060984 0 -0.021955126476060984 -0.0029220788146938625 0 0 0 -0.0065061603843760574 -0.022409808088399659 0.014847419803924183 0 0.014847419803924183 -0.0016033070009651498 0 0 0 -0.0060032787723412057 -0.014461773040788869 0.015394188106739367 0 0.015394188106739367 0.00031745428989779327 0 0 0 -0.0035360796877227678 -0.0048182566472004008 -0.028435568878417347 0 -0.028435568878417347 -0.0097535895750068269 0 0 0 -0.0036429615555518095 0.035532800983839569 -0.010549212831335943 0 -0.010549212831335943 -0.0082745325772570211 0 0 0 0.0068145671016456386 0.048159746424302277 -0.035858494097775112 0 -0.035858494097775112 0.051446528621982818 0 0 0 0.024901568761571263 0.053053616286004517 0.0051028940920027467 0 0.0051028940920027467 -0.0026133578842211943 0 0 0 0.012610064600445831 0.016033112289028928 0.021026145781658068 0 0.021026145781658068 0.013474395111638948 0 0 0 0.007376876850166969 0.052494620890130905 -0.020809068219136528 0 -0.020809068219136528 0.034407823554177153 0 0 0 0.021725611111076848 -0.011843795254124854 0.015184846834767354 0 0.015184846834767354 -0.0004501838853144674 0 0 0 -0.0030734947848598329 0.0019543760783070278 -0.02488049063213342 0 -0.02488049063213342 -0.012404436568601459 0 0 0 -0.0026125151225736072 0.044896910349833272 0.0090413268122167198 0 0.0090413268122167198 0.0023837781951043038 0 0 0 0.011820172136234387 0.022353548681688346 -0.026128233710035354 0 -0.026128233710035354 0.034925862436067656 0 0 0 0.014319852779439007 -0.073712093373151211 0.011395508776977054 0 0.011395508776977054 0.0036721103539232303 0 0 0 -0.017509995754807273 0.077126599707437571 -0.012370727670440007 0 -0.012370727670440007 0.053540691479140312 0 0 0 0.032666822796644512 -0.013742948854090997 -0.024722388931469275 0 -0.024722388931469275 0.0066668773318292462 0 0 0 -0.0017690178805654933 0.017535762218911954 -0.0051446883643298386 0 -0.0051446883643298386 0.057818944295557784 0 0 0 0.018838676628617448 -0.063970817557044313 -0.019619836265887116 0 -0.019619836265887116 -0.00038318182488286667 0 0 0 -0.016088499845481781 -0.045916289668783021 0.0093711684180615949 0 0.0093711684180615949 0.0013148059053149502 0 0 0 -0.011150370940867019 0.069188849157426888 0.0043003123089249392 0 0.0043003123089249392 0.0045322301772302356 0 0 0 0.018430269833664276 0.039387146471011436 0.0077217605668804638 0 0.0077217605668804638 0.00087716381115941246 0 0 0 0.010066077570542717 0.026776674849585042 -0.016807425300143494 0 -0.016807425300143494 0.01816450079378229 0 0 0 0.011235293910841826 -0.065440870694435077 -0.020892161286072207 0 -0.020892161286072207 -0.00081185087587938923 0 0 0 -0.016563180392578612 -0.047859871791556249 0.010743488417100797 0 0.010743488417100797 3.9982448904091888e-05 0 0 0 -0.011954972335663037 0.033642289807256628 0.0099287251073313966 0 0.0099287251073313966 0.05672739479626808 0 0 0 0.022592421150881174 0.014931284774015507 -0.019650222541031936 0 -0.019650222541031936 0.0093867783114962577 0 0 0 0.0060795157713777748 0.044767072233699245 0.026765139184827924 0 0.026765139184827924 0.027111573775624009 0 0 0 0.017969661502331036 -0.042786353331766488 0.0067791428409982174 0 0.0067791428409982174 0.0095435361335850233 0 0 0 -0.0083107042995453767 -0.02804870676720439 -0.00047340441426635405 0 -0.00047340441426635405 0.011323076616754569 0 0 0 -0.0041814075376124509 0.031396502990163784 -0.0049919277462171785 0 -0.0049919277462171785 0.022639123982355347 0 0 0 0.013508906743129784 0.023670397809098714 -0.0042566442066284196 0 -0.0042566442066284196 0.03122721179473471 0 0 0 0.013724402400958347 0.020893994302502005 -0.015970944710180054 0 -0.015970944710180054 -0.0088248459957054326 0 0 0 0.003017287076699144 0.025419104970545361 -0.012393434759295207 0 -0.012393434759295207 -0.005741779295321936 0 0 0 0.0049193314188058536 0.0057909942009200209 0.011426674000110233 0 0.011426674000110233 -0.00014636699388333174 0 0 0 0.0014111568017591697 0.005389309888330333 0.015032921021379032 0 0.015032921021379032 -4.4821144502445176e-05 0 0 0 0.0013361221859569724 0.042642046592542393 -0.010726745742665272 0 -0.010726745742665272 0.014144095088429398 0 0 0 0.014196535420242906 0.026189258975542081 0.0039587518132834969 0 0.0039587518132834969 0.061166592518354913 0 0 0 0.021838962873474237 0.059917870548779326 0.0076434278301700798 0 0.0076434278301700798 0.0034188783536915797 0 0 0 0.015834187225617705 0.079190858944748976 0.027800749103950098 0 0.027800749103950098 0.029920328240377714 0 0 0 0.027277796796281617 -0.0093153197447055636 -0.01926785705737348 0 -0.01926785705737348 0.0056943606440449379 0 0 0 -0.0009052397751651009 0.081824593737634066 0.041390278655617285 0 0.041390278655617285 0.01954257153120631 0 0 0 0.02534179131721026 0.064990696786867211 -0.012247568865612809 0 -0.012247568865612809 0.00057508362049099983 0 0 0 0.016391445101839548 0.072180512513542586 -0.002417252582961181 0 -0.002417252582961181 0.012237401470749441 0 0 0 0.021104478496073005 0.011659295853788998 0.044119953852631233 0 0.044119953852631233 0.0072344671227027035 0 0 0 0.0047234407441232307 0.041442949955095565 0.048099597117015724 0 0.048099597117015724 0.01245629162721551 0 0 0 0.013474810395577741 -0.030344967922702405 -0.01921137663128792 0 -0.01921137663128792 -0.001767661745686773 0 0 0 -0.0080281574170972987 -0.028632406899014445 0.011586220770065676 0 0.011586220770065676 -0.00057534271015139901 0 0 0 -0.0073019374022914637 0.025939206154486305 -0.025014239723695209 0 -0.025014239723695209 0.018985230967118127 0 0 0 0.011231109280401164 0.11026846705882726 -0.013809945052447301 0 -0.013809945052447301 0.090018564592430961 0 0 0 0.050071757912814541 0.1859016285104905 0.014747753093563631 0 0.014747753093563631 0.16692015677664618 0 0 0 0.088205446321784259 0.025230001092095999 0.0053781438241164315 0 0.0053781438241164315 0.038785569051979954 0 0 0 0.016003892536018985 0.066329638762929855 0.011868427992550275 0 0.011868427992550275 0.0074643725931577733 0 0 0 0.018448502839021906 0.037789561325800969 -0.0033912958073137323 0 -0.0033912958073137323 0.00606932350316014 0 0 0 0.010964721207240291 0.045403825571857681 -0.0014763539165167372 0 -0.0014763539165167372 0.009543747475322828 0 0 0 0.013736893261795113 0.058417694290137767 -0.0032981788115167554 0 -0.0032981788115167554 0.0080276753142327628 0 0 0 0.01661134240109266 -0.0017111875765041529 0.011211383263954211 0 0.011211383263954211 0.0090462860121258704 0 0 0 0.0018337746089051865 0.07008402549161391 -0.010891574012395155 0 -0.010891574012395155 0.04960871556212948 0 0 0 0.029923185263436014 0.084702947563295605 -0.017497727759333281 0 -0.017497727759333281 0.038077223725367038 0 0 0 0.030695042822165619 0.13393665878026084 0.02297920043385665 0 0.02297920043385665 0.088811773899056146 0 0 0 0.055687108169829247 0.083177669570972723 0.012291374611194339 0 0.012291374611194339 0.046868151265549329 0 0 0 0.032511455209131013 0.0072007598782239945 -0.014284355713403363 0 -0.014284355713403363 0.0078053576251122525 0 0 0 0.0037515293758338952 0.043511509706450166 0.006254054217736121 0 0.006254054217736121 -0.0018516176041611584 0 0 0 0.010414973025572257 0.050033316616683386 0.0082848907531309392 0 0.0082848907531309392 0.0016097288071782942 0 0 0 0.012910761355965427 0.078471191335584445 0.027501281366803187 0 0.027501281366803187 0.047120172097216972 0 0 0 0.031397840858200521 0.0038779745033130641 -0.019355679554909466 0 -0.019355679554909466 0.0072895666591059616 0 0 0 0.0027918852906045899 -0.0094642832977308369 -0.021556069967404112 0 -0.021556069967404112 -0.0058498553374168143 0 0 0 -0.0038285346587869128 -0.014880207540234155 0.015003011657175137 0 0.015003011657175137 -0.0024144245750815571 0 0 0 -0.0043236580288289281 0.090497920373454166 0.05363447042385977 0 0.05363447042385977 0.028857085604759192 0 0 0 0.029838751494553395 -0.044013327241993833 -0.018651388352415268 0 -0.018651388352415268 -0.0054843246622749142 0 0 0 -0.012374412976067187 -0.035993346669756628 0.011218013125663503 0 0.011218013125663503 -0.0026371213306613586 0 0 0 -0.0096576170001045 -0.02156057528889832 0.0077684249484613055 0 0.0077684249484613055 0.0041804191736805052 0 0 0 -0.0043450390288042318 0.079302957606877444 -0.010884866780369595 0 -0.010884866780369595 0.07161524990796897 0 0 0 0.037729551878711631 0.029567643044478027 -0.016990776306491678 0 -0.016990776306491678 0.075458278766537504 0 0 0 0.026256480452753878 -0.0058106221940356917 -0.010645290750754322 0 -0.010645290750754322 0.071494224836588183 0 0 0 0.016420900660638144 -0.0050471900163631123 -0.024956942431719531 0 -0.024956942431719531 0.0099311663040522191 0 0 0 0.0012209940719223322 0.075246833781809908 -0.020759986510770496 0 -0.020759986510770496 0.012800062307841087 0 0 0 0.022011724022412749 0.01652045683636888 0.057439726871327812 0 0.057439726871327812 0.020755554020152944 0 0 0 0.0093190027141306087 -0.042742993998140522 0.030952687940094481 0 0.030952687940094481 0.024989972619999357 0 0 0 -0.0044382553445353468 -0.032526304498718572 -0.012065846939660591 0 -0.012065846939660591 0.0095319578580022046 0 0 0 -0.0057485866601791336 0.058276426464937692 -0.040853399701179544 0 -0.040853399701179544 0.037034780070410722 0 0 0 0.023827801633837131 0.077741383656745433 -0.010806190022868145 0 -0.010806190022868145 0.057398074601407556 0 0 0 0.033784864564538164 0.13296897254924761 0.010044467552915354 0 0.010044467552915354 0.10286294949688557 0 0 0 0.058957980511533281 0.02819416393848255 -0.012269159207540913 0 -0.012269159207540913 0.040792790314839927 0 0 0 0.017246738563330616 0.028613975291028292 -0.0074821325634838835 0 -0.0074821325634838835 0.040295599692598966 0 0 0 0.017227393745906809 0.049731246559819711 0.021178698476694596 0 0.021178698476694596 0.085702751179028536 0 0 0 0.033858499434712058 0.043292226771491804 -0.019003188859725267 0 -0.019003188859725267 0.050460439705494242 0 0 0 0.023438166619246512 0.13021140447170643 0.0035126281189825637 0 0.0035126281189825637 0.097645328037025969 0 0 0 0.056964183127182988 -0.0057671369115457338 -0.0095047952275622016 0 -0.0095047952275622016 0.0038370911790086559 0 0 0 -0.00048251143313415845 0.03504004700151532 0.013539338012760509 0 0.013539338012760509 0.052198170568282194 0 0 0 0.021809554392449384 0.078654613302324622 0.0043971976785252553 0 0.0043971976785252553 0.032032151494781322 0 0 0 0.027671691199276462 0.048194200801814108 -0.001957520464216933 0 -0.001957520464216933 0.010229710435407879 0 0 0 0.014605977809305365 0.049577368957020862 0.019122387577235701 0 0.019122387577235701 0.035091259452931046 0 0 0 0.021167157102487982 0.040604320141340078 -0.0060413654563624217 0 -0.0060413654563624217 -0.0077341072665521593 0 0 0 0.0082175532186969866 -0.081854134113674204 -0.0072002958349845665 0 -0.0072002958349845665 0.0026597001963410971 0 0 0 -0.019798608479333291 0.021239417906140142 -0.015728401989559229 0 -0.015728401989559229 -0.011325274899332327 0 0 0 0.0024785357517019546 0.056972903879158168 0.0081708760787701958 0 0.0081708760787701958 0.0023055613845881988 0 0 0 0.014819616315936607 0.03540376221879879 0.012010678272638414 0 0.012010678272638414 0.073043854003265921 0 0 0 0.027111904055516181 -0.13439513145959714 0.01529068440577985 0 0.01529068440577985 0.0050520003651453038 0 0 0 -0.032335782773613042 0.034971846411627178 0.0082451987283744671 0 0.0082451987283744671 0.0021883072593677903 0 0 0 0.0092900384177487388 0.056454505830204622 -0.0033404264632976525 0 -0.0033404264632976525 -0.0046429829249836612 0 0 0 0.012952880726305235 0.036169359606285895 -0.017682152947138208 0 -0.017682152947138208 0.013584079956011519 0 0 0 0.012438359890574346 -0.030493245874645858 -0.017172131776806987 0 -0.017172131776806987 0.0039711868868015365 0 0 0 -0.0066305147469609693 0.035973122751262757 -0.016013690635255259 0 -0.016013690635255259 -0.011731083073348914 0 0 0 0.0060605099194784634 0.043148280840308965 0.004922354701093379 0 0.004922354701093379 0.001349281976995919 0 0 0 0.011124390704326224 0.053075915358815617 -0.008963972054658282 0 -0.008963972054658282 -0.0016481205750955765 0 0 0 0.012856948695930003 0.034108556066965445 -0.017992231117386154 0 -0.017992231117386154 0.019102257278861501 0 0 0 0.013302703336456667 0.057241962699190796 -0.010949020191597908 0 -0.010949020191597908 0.03919975847985846 0 0 0 0.024110430294762453 -0.02257891461063425 -0.036542176681996129 0 -0.036542176681996129 -0.0046733204996245031 0 0 0 -0.0068130587775646918 0.14953418259104428 0.0038803980811277228 0 0.0038803980811277228 0.13980964951275376 0 0 0 0.072335958025949221 -0.01850077228741423 -0.0058948765798725322 0 -0.0058948765798725322 0.001329585589286475 0 0 0 -0.0042927966745321122 0.049601007398773496 0.0042705829607460532 0 0.0042705829607460532 -0.0029875236580510097 0 0 0 0.011653370935180618 0.054125285644486106 0.0054726969925048682 0 0.0054726969925048682 -0.0030938019969630505 0 0 0 0.012757870911880761 -0.0020298181485123301 0.01619451935592725 0 0.01619451935592725 0.0081035066556491842 0 0 0 0.0015184221267841025 0.059485302576887999 -0.021308475369119673 0 -0.021308475369119673 0.05100370728727377 0 0 0 0.027622252466040331 0.050368191984521159 0.013334471696745327 0 0.013334471696745327 0.012124036342738884 0 0 0 0.015623057081814993 0.044462181392273037 0.011538056227392856 0 0.011538056227392856 0.011465797004050295 0 0 0 0.013981994599080829 0.047976225525522782 0.0068032517790520509 0 0.0068032517790520509 -0.0011803137649527987 0 0 0 0.0116989779401425 -0.032664333530453102 0.011345642423631865 0 0.011345642423631865 0.00030300878082107491 0 0 0 -0.0080903311874080033 0.0084853693298720667 0.0042091605342955661 0 0.0042091605342955661 0.017642815889126265 0 0 0 0.0065320463047495864 0.026255967016064256 -0.00089610075888650956 0 -0.00089610075888650956 0.020432969748998359 0 0 0 0.011672234191265646 -0.039934640088243691 0.013819786054493521 0 0.013819786054493521 -0.00024751599775317198 0 0 0 -0.010045539021499206 0.14435706207507987 0.081870234160866362 0 0.081870234160866362 0.073035586496691562 0 0 0 0.054348162142942746 0.047401012357422445 0.019547557967415224 0 0.019547557967415224 0.023843635860249179 0 0 0 0.017811162054417906 0.022052481744804231 -0.018250689049223903 0 -0.018250689049223903 0.016897803920893573 0 0 0 0.0097375714164247285 0.026686452687651203 0.0083219626571454861 0 0.0083219626571454861 0.011494323611228187 0 0 0 0.0095451940747198379 0.038086980872173465 0.0065193921841118878 0 0.0065193921841118878 0.0061981667760375985 0 0 0 0.01107128691205277 0.082722454186063707 -0.0073676880649814966 0 -0.0073676880649814966 0.020892123879808627 0 0 0 0.02590364451646809 0.071340981875667675 0.0037552562648245219 0 0.0037552562648245219 0.023092023648836668 0 0 0 0.023608251381126044 0.047563998227555138 -0.0098053052190993362 0 -0.0098053052190993362 0.0011323383610675197 0 0 0 0.01217408414715565 0.039376328901229933 0.010264665754437644 0 0.010264665754437644 0.0051297552602975055 0 0 0 0.011126521040381868 -0.047191648657179508 -0.012384688870822336 0 -0.012384688870822336 0.0022374763583807855 0 0 0 -0.011238543074699681 -0.037783584769037204 -0.019208562614632996 0 -0.019208562614632996 0.0054237431627157662 0 0 0 -0.0080899604015804427 0.03977261956610989 0.0023110825859639981 0 0.0023110825859639981 0.013248865452426969 0 0 0 0.013255371254634213 -0.044843592152856715 0.042617061356557406 0 0.042617061356557406 0.010405513767119068 0 0 0 -0.0086095195964344118 -0.069598429876801426 0.029112685717865294 0 0.029112685717865294 0.0034943450915796426 0 0 0 -0.016526021196305529 0.075627856456712717 -0.0088450694596747259 0 -0.0088450694596747259 0.051982038288564736 0 0 0 0.031902473686319321 0.12383689923952901 0.0078016519442692389 0 0.0078016519442692389 0.095961942769517306 0 0 0 0.054949710502261606 0.066877907140468013 -0.023632828702930098 0 -0.023632828702930098 0.0086914407084851264 0 0 0 0.018892336962238257 0.045271903379511674 -0.0090193057869896731 0 -0.0090193057869896731 0.013965467427371148 0 0 0 0.014809342701720601 0.10879228535030994 0.039180299153323758 0 0.039180299153323758 0.10874936451292938 0 0 0 0.054385412465809836 0.043566025085853548 -0.012324863301850548 0 -0.012324863301850548 -0.0077565126508422691 0 0 0 0.0089523781087528093 0.031695709528738132 -0.017904867957252268 0 -0.017904867957252268 0.033487015473045445 0 0 0 0.016295681250445913 0.14951258019748109 0.028153053955285556 0 0.028153053955285556 0.039046049823575624 0 0 0 0.047139657505264165 0.028076738532021833 0.0063299155816140627 0 0.0063299155816140627 0.011636768932069726 0 0 0 0.009928376866022888 0.051113593942494706 0.022233690901987124 0 0.022233690901987124 0.033996354082954205 0 0 0 0.021277487006362339 0.020374859228886821 -0.01791467614631892 0 -0.01791467614631892 0.011700610273983392 0 0 0 0.0080188673757175533 0.027211725681104026 0.0084238922438659037 0 0.0084238922438659037 0.0026865360542957656 0 0 0 0.0074745654338499567 0.0083594140199775291 -0.01038729410565957 0 -0.01038729410565957 0.059775845122589821 0 0 0 0.017033814785641838 0.11869457116194515 0.021561723938808175 0 0.021561723938808175 0.093340888259712873 0 0 0 0.053008864855414561 -0.0061651225484275485 -0.012052051489075621 0 -0.012052051489075621 0.0052005649060700154 0 0 0 -0.00024113941058906407 -0.098320487211295687 0.003028264047378887 0 0.003028264047378887 0.0017583140981580897 0 0 0 -0.024140543278284389 -0.17105296476364854 -0.0088398950840741768 0 -0.0088398950840741768 0.0023921119817915948 0 0 0 -0.042165213195464214 0.054383534908280406 0.011838196583914148 0 0.011838196583914148 0.10086049880555437 0 0 0 0.038811008428458693 -0.015710598091016385 0.015290780370717637 0 0.015290780370717637 0.0019494376985782422 0 0 0 -0.00344029009810954 0.13129464977967112 -0.017575968829847688 0 -0.017575968829847688 0.098725183498427169 0 0 0 0.057504958319524638 0.16740361517452318 -0.0041170307073023493 0 -0.0041170307073023493 0.11642202983122152 0 0 0 0.070956411251436202 0.26239843896782744 0.0021247409963746078 0 0.0021247409963746078 0.20943276072280681 0 0 0 0.11795779992265865 0.20430348177106206 0.02265161006454286 0 0.02265161006454286 0.18553503774939051 0 0 0 0.097459629880113252 0.064648676152377252 -0.014557151943016211 0 -0.014557151943016211 0.02713588829287672 0 0 0 0.022946141111313503 0.10455186280665651 0.019761960347162599 0 0.019761960347162599 0.062784244852511772 0 0 0 0.0418340269147921 0.12283613092716111 0.01043524923710637 0 0.01043524923710637 0.12815820562388192 0 0 0 0.062748584137760799 0.061976301309794035 -0.0133163776945186 0 -0.0133163776945186 0.065243918439686133 0 0 0 0.03180505493737007 0.045232307511268374 0.0036284650958960246 0 0.0036284650958960246 0.065855761838514659 0 0 0 0.027772017337445762 0.10446737069444945 -0.00071460274998891293 0 -0.00071460274998891293 0.087234077891271689 0 0 0 0.047925362146429951 0.020005673881568597 0.01042096451759017 0 0.01042096451759017 0.011696658321572073 0 0 0 0.0079255830507856118 0.010999625486060038 -0.0082202294894186956 0 -0.0082202294894186956 0.0056186406494767027 0 0 0 0.0041545665338842408 0.061514795079240292 -0.0054194316007628585 0 -0.0054194316007628585 0.044127473808831752 0 0 0 0.026410567222017844 0.03780305906423588 0.0091805146235939931 0 0.0091805146235939931 0.0048401442585642648 0 0 0 0.010660800830700045 0.14582770491914346 0.013588240198739943 0 0.013588240198739943 0.10119458184109642 0 0 0 0.061755571690060213 0.0041027498214509517 -0.0097103308565773538 0 -0.0097103308565773538 0.0071284955702698438 0 0 0 0.0028078113479303723 0.029113130129181163 -0.0021195805919795147 0 -0.0021195805919795147 0.073489466249017019 0 0 0 0.025650649094549543 0.0084922175303052683 0.013010919026649415 0 0.013010919026649415 0.01285029663661863 0 0 0 0.0053356285417311966 0.087136849844291486 -0.014335097243349137 0 -0.014335097243349137 0.054168081614147656 0 0 0 0.035326232864610008 0.052789692809107003 -0.020550931231634262 0 -0.020550931231634262 0.026098956934030748 0 0 0 0.019722162435784396 0.033137502830699495 -0.016845707445424588 0 -0.016845707445424588 0.012011387847270877 0 0 0 0.011287222669492586 0.034375128973750113 -0.015432873569923691 0 -0.015432873569923691 0.014903258794185914 0 0 0 0.012319596941984007 0.043415830075801416 -0.015543555715308978 0 -0.015543555715308978 -0.005498619336024739 0 0 0 0.0094793026849441676 0.060188962766752535 0.063801541792804395 0 0.063801541792804395 0.02468858334093238 0 0 0 0.021219386526921208 -0.055492930384309969 -0.0061388824396124697 0 -0.0061388824396124697 0.002155470962012962 0 0 0 -0.01333436485557421 0.091268121355467413 -0.024109037058119103 0 -0.024109037058119103 0.037928922110842436 0 0 0 0.032299260866577459 0.052622092152889467 -0.014792102523051243 0 -0.014792102523051243 0.024557278956469336 0 0 0 0.019294842777339706 0.063337356779301565 0.019177937685216133 0 0.019177937685216133 0.020567683500543853 0 0 0 0.020976260069961346 0.049219673656375751 -0.0025504179809478361 0 -0.0025504179809478361 0.0093118362281879863 0 0 0 0.014632877471140948 0.059268775518774075 0.0022478963489741682 0 0.0022478963489741682 0.016007297276155574 0 0 0 0.01881901819873244 -0.20799566474913778 0.0028978381001361097 0 0.0028978381001361097 0.0081443304691086738 0 0 0 -0.049962833570007248 -0.11189462373717105 -0.0011931726239321338 0 -0.0011931726239321338 0.0033994327930163548 0 0 0 -0.027123797736038679 0.032140996964626002 -0.0094156359886387597 0 -0.0094156359886387597 0.010710867448896141 0 0 0 0.010712966103380536 0.015949832706077086 0.012507428138091171 0 0.012507428138091171 0.0053167059735698104 0 0 0 0.0053166346699117248 0.07210522150362382 0.0027908572690497832 0 0.0027908572690497832 0.0074501810803817431 0 0 0 0.019888850646001391 0.055429805164535287 0.016837081882990455 0 0.016837081882990455 0.023293600929669818 0 0 0 0.019680851523551309 0.058889253128505591 0.0095285916424273295 0 0.0095285916424273295 0.0066931086293644092 0 0 0 0.016395590439467499 -0.048347838201401205 -0.023298077777210859 0 -0.023298077777210859 -0.0051149330562047582 0 0 0 -0.013365692814401496 -0.039118084263261424 0.01234688918906076 0 0.01234688918906076 -0.00045002728731116659 0 0 0 -0.0098920278876431494 0.14762921372568449 0.027441034701212175 0 0.027441034701212175 0.040761549015332132 0 0 0 0.047097690685254268 -0.028948086071854989 -0.022965706191111462 0 -0.022965706191111462 -0.0014593374820855223 0 0 0 -0.0076018558884851338 -0.028260797009546423 0.013007314991388935 0 0.013007314991388935 0.00087611654161343783 0 0 0 -0.0068461701169832464 0.044844296505522907 -0.012245162154150085 0 -0.012245162154150085 0.021145908584076167 0 0 0 0.01649755127239988 0.1288851132303197 0.09153796538841602 0 0.09153796538841602 0.071146811988064051 0 0 0 0.050007981304596161 0.067006393597567382 0.0064092347916094878 0 0.0064092347916094878 0.0014255810801449241 0 0 0 0.017107993669428084 0.075063377521092323 0.0032871683392544371 0 0.0032871683392544371 0.035112338041128566 0 0 0 0.027543928890555291 0.0050488021715802281 -0.017020138649760794 0 -0.017020138649760794 0.0016846511998510126 0 0 0 0.0016833633428578103 -0.005211226558480323 0.013891891731282489 0 0.013891891731282489 -0.0017339971642183116 0 0 0 -0.0017363059306746587 -0.080935350981748908 0.0054595832706991303 0 0.0054595832706991303 -0.00048389440947857465 0 0 0 -0.020354811347806881 -0.12673490598340423 -0.011573349808787379 0 -0.011573349808787379 -0.00091282156999586417 0 0 0 -0.031911931888350016 -0.024923565397388714 -0.0055638913519256705 0 -0.0055638913519256705 0.025233855596092092 0 0 0 7.7572549675802849e-05 0.077017043986285005 -0.013877054454196402 0 -0.013877054454196402 0.033711924163375317 0 0 0 0.027682242037415039 0.014076353931986101 -0.0065987231874046065 0 -0.0065987231874046065 0.055222522301714476 0 0 0 0.017324719058425142 0.045067347510978115 0.01604639789452262 0 0.01604639789452262 0.032607709672661404 0 0 0 0.019418764295909902 0.034870988902347209 0.010685802527989192 0 0.010685802527989192 0.037032464434694996 0 0 0 0.017975863334260565 0.080324987226625635 0.016763200708059901 0 0.016763200708059901 0.03143114240907266 0 0 0 0.02793903240892456 0.092968991205221937 0.012298432059967883 0 0.012298432059967883 0.019033636735781026 0 0 0 0.028000656985250748 0.070971726061701546 0.011533472874491135 0 0.011533472874491135 0.026501358502881933 0 0 0 0.024368271141145814 0.018026915631461655 -0.014215490835085332 0 -0.014215490835085332 0.034480152051600876 0 0 0 0.013126766920765632 0.0070357608461326868 -0.023449303339324684 0 -0.023449303339324684 0.066801699721310587 0 0 0 0.018459365141860813 0.051997913277010942 -0.044607056584520077 0 -0.044607056584520077 0.10694639919377438 0 0 0 0.03973607811769634 -0.071345966098955119 0.0056706931451650372 0 0.0056706931451650372 -0.00028906886914997765 0 0 0 -0.017908758742026278 -0.10582593300558686 -0.010586313679958896 0 -0.010586313679958896 -0.00089160247367053858 0 0 0 -0.026679383869814357 0.044267414515705442 0.0046303419600792761 0 0.0046303419600792761 -0.043977057047874038 0 0 0 7.2589366957822912e-05 0.05977992319784578 -0.034234418922874266 0 -0.034234418922874266 0.078516008625841849 0 0 0 0.034573982955921873 0.054139662988713463 0.010069688467916862 0 0.010069688467916862 0.0034574917064333719 0 0 0 0.014399288673786715 -0.025444497495614681 -0.02401040017093865 0 -0.02401040017093865 -0.0050764550864945829 0 0 0 -0.0076302381455273169 -0.024935271662707013 0.014844236904900143 0 0.014844236904900143 -0.00061792600976061374 0 0 0 -0.0063882994181168988 0.02273060830747535 0.0089143168857168317 0 0.0089143168857168317 0.0032562571795202513 0 0 0 0.0064967163717489004 0.018884546498541006 -0.0037315521400094328 0 -0.0037315521400094328 0.059661244449104929 0 0 0 0.019636447736911509 0.094037169401073484 0.0075126276646601542 0 0.0075126276646601542 0.064907161646602818 0 0 0 0.039736082761919145 0.019471953692567712 0.011731682680366569 0 0.011731682680366569 0.0041024473299527409 0 0 0 0.0058936002556301045 -0.037721608059431366 0.011199934223104169 0 0.011199934223104169 0.0072967704665520827 0 0 0 -0.0076062093982200984 0.064886591915451541 -0.016756277439214595 0 -0.016756277439214595 0.058755701139016736 0 0 0 0.030910573263617236 0.06435473553095078 -0.01467169764146703 0 -0.01467169764146703 0.049022539193283254 0 0 0 0.028344318681058411 0.042421868651448064 -0.021418233160331951 0 -0.021418233160331951 0.042971060737076239 0 0 0 0.021348232347131089 0.029214777168383499 -0.015022349361484555 0 -0.015022349361484555 0.038320806268825613 0 0 0 0.016883895859302306 0.027742016496429434 0.0034139280769520347 0 0.0034139280769520347 0.026575260247847309 0 0 0 0.013579319186069186 0.023136154294025896 -0.0039606963790985153 0 -0.0039606963790985153 0.056601184152220693 0 0 0 0.019934334611561653 0.20816617469999232 0.016641001750129281 0 0.016641001750129281 0.18808856886524783 0 0 0 0.099063685891309428 0.0052259490693187249 -0.0030437226543020834 0 -0.0030437226543020834 0.0063398754873982277 0 0 0 0.0028914561391790716 0.12889195459687014 -0.014979740764961669 0 -0.014979740764961669 0.10485642567221631 0 0 0 0.058437095067271738 0.0088983245425642288 0.0046868125657502091 0 0.0046868125657502091 0.010283983830561283 0 0 0 0.0047955770932808228 0.031165732812168036 0.0063436225981874511 0 0.0063436225981874511 0.028295069201551441 0 0 0 0.014865200503429878 0.027612341443264198 0.0033788257864069953 0 0.0033788257864069953 0.020318480820341597 0 0 0 0.01198270556590145 0.025037528720539489 -0.0053904600501387488 0 -0.0053904600501387488 0.026478786014176678 0 0 0 0.012879078683679041 -0.086408022552983854 -0.017559104857546613 0 -0.017559104857546613 0.0022909192113841279 0 0 0 -0.021029275835399923 -0.11023376406617258 -0.025780441390954249 0 -0.025780441390954249 0.003140217617417243 0 0 0 -0.026773386612188838 0.038023252353219454 -0.029225658609694623 0 -0.029225658609694623 -9.3340486451359145e-05 0 0 0 0.0094824779666920246 0.0068007047308421631 0.0048504001984297088 0 0.0048504001984297088 0.0092275651947709633 0 0 0 0.0040070674814032805 0.046703999482954305 -0.028796883180752977 0 -0.028796883180752977 0.059089085157609897 0 0 0 0.026448271160141042 -0.021652669530305285 0.01500025885091567 0 0.01500025885091567 -0.00065784659711349246 0 0 0 -0.0055776290318547 -0.010697002863185692 0.013834954686069462 0 0.013834954686069462 -0.0015659362410544789 0 0 0 -0.0030657347760600449 0.00043167435679417748 -0.021499674122021431 0 -0.021499674122021431 -0.0072020361060973065 0 0 0 -0.0016925904373257805 -0.018460708901824361 -0.024633197378237433 0 -0.024633197378237433 -0.0086477702942711066 0 0 0 -0.0067771197990238626 -0.036762694729359113 -0.015805490939340583 0 -0.015805490939340583 0.0024277340311824602 0 0 0 -0.0085837401745441078 -0.015755169970223526 -0.017036245060469662 0 -0.017036245060469662 0.0047527505576865359 0 0 0 -0.0027506048531342753 0.031360121788920614 -0.010067516239271677 0 -0.010067516239271677 -0.0012444407953727571 0 0 0 0.0075289202483869652 0.030733196804684698 -0.01029036583423922 0 -0.01029036583423922 -0.0060109936580638283 0 0 0 0.0061805507866552227 0.015285433010628405 0.013903695042486936 0 0.013903695042486936 0.00099212453633497344 0 0 0 0.0040693893867408404 0.012531506655880946 0.011701270744232356 0 0.011701270744232356 0.0010324535831161552 0 0 0 0.0033909900597492784 0.071341465638436352 0.020601827428943009 0 0.020601827428943009 0.033861870213315548 0 0 0 0.026300833962938031 0.0049748342421411795 -0.018368667835210295 0 -0.018368667835210295 0.0094228561302585057 0 0 0 0.0035994225930999768 -0.0018604312222208971 0.011098553861292607 0 0.011098553861292607 0.00041316609177524666 0 0 0 -0.00036181628261141088 0.022595594178827901 -0.017167789401414196 0 -0.017167789401414196 -0.0081924048001586341 0 0 0 0.0036007973446673114 0.020784648008079047 0.00014766177812070014 0 0.00014766177812070014 0.013632329360864032 0 0 0 0.0086042443422357697 -0.014470801363969266 0.012155308620382416 0 0.012155308620382416 0.00087678760960736846 0 0 0 -0.0033985034385904771 -0.0024990456273971317 -0.022008585063972332 0 -0.022008585063972332 -0.004274458895319265 0 0 0 -0.0016933761306790985 -0.0086447563885215933 -0.0069487261301167252 0 -0.0069487261301167252 0.10631777886939278 0 0 0 0.024418255620217821 0.024211529758459013 0.0021016323615878438 0 0.0021016323615878438 0.016071434458781342 0 0 0 0.010070741054310085 -0.010435732993678056 -0.018164894073927029 0 -0.018164894073927029 -0.0034881103450685349 0 0 0 -0.0034809608346866483 -0.015116242297320726 0.013273090401777508 0 0.013273090401777508 -0.0050441391336942271 0 0 0 -0.0050400953577537386 0.097265991737192609 0.0079930817132610656 0 0.0079930817132610656 0.035748019066864561 0 0 0 0.033253502701014293 0.0389443900782106 0.0012414237398344075 0 0.0012414237398344075 -0.018948567425553176 0 0 0 0.0049989556631643284 -0.0064219565537321673 0.0083013850589522785 0 0.0083013850589522785 0.011069451939872313 0 0 0 0.0011618738465350407 0.070466036450863523 -0.02330632518296033 0 -0.02330632518296033 0.023266692651569332 0 0 0 0.023433182275608255 0.031215403557394591 0.0067287712284886583 0 0.0067287712284886583 0.029236417212633314 0 0 0 0.015112955192506975 0.021411617252062601 -0.0044894380566737986 0 -0.0044894380566737986 0.031290529633149711 0 0 0 0.013175536721303074 -0.061035629369124392 -0.016757328328868747 0 -0.016757328328868747 -0.0017362801082761326 0 0 0 -0.015692977369350124 -0.045767324030743822 0.0095322183985703385 0 0.0095322183985703385 -0.00072158155879987682 0 0 0 -0.011622226397385926 0.048552033694914891 -0.011538273728247929 0 -0.011538273728247929 0.037756748212818297 0 0 0 0.021577195476933285 0.037558124168702335 0.010732827327772747 0 0.010732827327772747 0.020588840822667976 0 0 0 0.014536741247842573 0.018119748026808158 0.0018846849619624465 0 0.0018846849619624465 0.010967889909638009 0 0 0 0.0072719094841115434 -0.045085969300354183 0.0039389914623582586 0 0.0039389914623582586 0.0053879558088200386 0 0 0 -0.0099245033728835308 -0.059305922062521832 0.012693393817365006 0 0.012693393817365006 0.0068892720731859036 0 0 0 -0.013104162497334038 0.0067504260071998418 0.0035379070889560854 0 0.0035379070889560854 0.027774764198535001 0 0 0 0.0086312975514337142 0.034329448558951592 -0.012849938566672381 0 -0.012849938566672381 0.018734047489729067 0 0 0 0.013265874012170165 0.0082559824632159953 0.0052796152869338114 0 0.0052796152869338114 0.010652091996104701 0 0 0 0.0047270186148301724 0.038024825575697127 0.011291499218394192 0 0.011291499218394192 0.024058590535463425 0 0 0 0.015520854027790134 0.023942945790722682 -0.018831436677217039 0 -0.018831436677217039 0.019769829285183227 0 0 0 0.010928193768976475 0.12921323746573424 0.012105303078010457 0 0.012105303078010457 0.092490376441038691 0 0 0 0.055425903476693225 0.0031549132393257689 0.011113024248707484 0 0.011113024248707484 0.0049744599988808327 0 0 0 0.0020323433095516524 -0.054116868826841857 0.01041481815250486 0 0.01041481815250486 0.0047940752585535762 0 0 0 -0.012330698392072348 0.082548926568405123 -0.013343693317434568 0 -0.013343693317434568 0.065262847685281677 0 0 0 0.036952943563421659 0.078309304437187977 -0.011006400280165973 0 -0.011006400280165973 0.044782140698935713 0 0 0 0.03077286128403095 -0.048701620421563091 -0.030136187611284698 0 -0.030136187611284698 0.031515666240642441 0 0 0 -0.0042964885452301711 0.10507760595214681 -0.015905128889029979 0 -0.015905128889029979 0.0060589063312255775 0 0 0 0.027784128070843093 -0.074684369369352188 0.0088268693772296514 0 0.0088268693772296514 0.0026475079537470469 0 0 0 -0.018009215353901292 -0.12660825848915028 -0.023900795888179699 0 -0.023900795888179699 0.0063870800007761568 0 0 0 -0.03005529462209356 -0.072716902987675566 0.0016230802709770037 0 0.0016230802709770037 -8.9595324471912485e-05 0 0 0 -0.018201624578036878 -0.12628118519422454 -0.0068118525298227761 0 -0.0068118525298227761 0.0021922826192619649 0 0 0 -0.031022225643740645 -0.037417216462084693 0.0094984189315575566 0 0.0094984189315575566 -0.0026685305097359658 0 0 0 -0.010021436742955164 -0.045803853547591325 -0.015693537986632349 0 -0.015693537986632349 -0.0029154056644804457 0 0 0 -0.012179814803017944 0.020543057743038377 -0.0070960673279844011 0 -0.0070960673279844011 0.040734165078720339 0 0 0 0.015319305705439691 0.023392504811024638 -0.015884056005400306 0 -0.015884056005400306 0.051795201249037817 0 0 0 0.018796926515015626 0.070041536969361218 -0.0084979072403790767 0 -0.0084979072403790767 0.071973479138893404 0 0 0 0.035503754027063628 0.13024449568382915 0.005143991304680684 0 0.005143991304680684 0.13891196769275882 0 0 0 0.067289115844146902 0.088263900589776803 0.0050492121319280492 0 0.0050492121319280492 0.051685835643859979 0 0 0 0.03498743405840922 0.11072217220063421 0.0053589073782084329 0 0.0053589073782084329 0.11908002605892309 0 0 0 0.057450549564889347 0.050828398061913055 -0.010969811723804956 0 -0.010969811723804956 0.061623738249512394 0 0 0 0.028113034077856341 0.012120052822233409 0.0074022018394306732 0 0.0074022018394306732 0.012142274266908689 0 0 0 0.0060655817722855216 0.033156911702638465 -0.014142343949671267 0 -0.014142343949671267 0.043575146475785587 0 0 0 0.019183014544606004 0.020359611295810598 -0.016098756942909152 0 -0.016098756942909152 0.039382589564737253 0 0 0 0.014935550215136956 0.028544365715391921 0.0036541762586019297 0 0.0036541762586019297 0.049861945790071818 0 0 0 0.01960157787636594 -0.10777240982475278 0.011954550765788784 0 0.011954550765788784 0.002871321347963196 0 0 0 -0.02622527211919734 0.021139150353612645 -0.0028060345957181335 0 -0.0028060345957181335 0.053714122025720443 0 0 0 0.018713318094833269 0.084105333001209731 -0.019736133935793904 0 -0.019736133935793904 0.14768390189878033 0 0 0 0.057947308724997509 0.1347780257238741 -0.023697781870732584 0 -0.023697781870732584 0.078666970164978367 0 0 0 0.053361248972213116 0.083995182687542636 -0.011785488929257515 0 -0.011785488929257515 0.036830964516354481 0 0 0 0.030206536800974348 -0.1472206256544801 -0.018151318533336736 0 -0.018151318533336736 0.0063397464894453526 0 0 0 -0.035220219791258667 -0.08383634786049679 0.0074630075231311571 0 0.0074630075231311571 0.0023944014140483139 0 0 0 -0.020360486611612161 0.017395090690127887 -0.0028278631601312116 0 -0.0028278631601312116 0.057485366977553964 0 0 0 0.018720114416920473 -0.031524877009266428 0.026612992344531738 0 0.026612992344531738 0.0019327998871925267 0 0 0 -0.0073980192805180867 -0.016873242879209993 0.030208438650014768 0 0.030208438650014768 0.0068166779305438574 0 0 0 -0.0025141412371665339 0.044402076312299532 -0.024243470899891095 0 -0.024243470899891095 0.027464019104624926 0 0 0 0.017966523854231142 0.047054382986716686 -0.019118344021861855 0 -0.019118344021861855 0.028348121329432891 0 0 0 0.018850626079037393 0.08905638915776326 -0.014372781335520224 0 -0.014372781335520224 0.076266204120355008 0 0 0 0.041330648319529595 -0.032522773836756169 0.009360426687068036 0 0.009360426687068036 0.0074753920884411684 0 0 0 -0.0062618454370793053 -0.00074831140310227529 0.01311108090995074 0 0.01311108090995074 0.0014416044050852839 0 0 0 0.00017332325049575215 0.01667194150476219 -0.015097995755790433 0 -0.015097995755790433 -0.0055449986477661556 0 0 0 0.0027817357142490111 0.027826880040421609 -0.026443369861211319 0 -0.026443369861211319 0.01488980206939812 0 0 0 0.010679170527454984 0.026286577961381896 -0.021880953165153677 0 -0.021880953165153677 0.014825432459857346 0 0 0 0.010278002605309644 0.014268993528938442 -0.020200026232220392 0 -0.020200026232220392 0.012706525681806413 0 0 0 0.0067438798026863561 0.012102040252709778 -0.02868098546905179 0 -0.02868098546905179 0.0089619918674228582 0 0 0 0.0052660080300331868 0.0053503671798097729 0.039876430292790532 0 0.039876430292790532 0.0020809448290650123 0 0 0 0.0018578280022189253 0.038518475004949058 0.026365671165196725 0 0.026365671165196725 0.01648874967207959 0 0 0 0.013751806169257051 -0.010577614819327313 0.016756970205209481 0 0.016756970205209481 -0.0019112962986357826 0 0 0 -0.0031222277794907757 -0.0054119171062690079 -0.022772755868368078 0 -0.022772755868368078 -0.0048034067203334627 0 0 0 -0.0025538309566506181 -0.068709685767615047 -0.0099698559425110411 0 -0.0099698559425110411 0.0081057541720670478 0 0 0 -0.015150982898887055 -0.11774710518192721 0.022775385219281824 0 0.022775385219281824 0.012726876090190631 0 0 0 -0.026255057272934201 -0.037687350973598918 0.013240938003680279 0 0.013240938003680279 0.0027842821796808317 0 0 0 -0.0087257671984795181 0.037325417984377864 0.01118974182276038 0 0.01118974182276038 0.012751678718911159 0 0 0 0.012519274175822265 0.059992806366248541 0.0042885889984742853 0 0.0042885889984742853 0.023784563852384144 0 0 0 0.020944342554658268 -0.061035680814118483 -0.025451778228846499 0 -0.025451778228846499 0.0024535739925523325 0 0 0 -0.014645526705391518 -0.10395843684488948 -0.021258573215815542 0 -0.021258573215815542 -0.0031245557800881549 0 0 0 -0.026770748156244431 0.047519901807585779 -0.0021198985291707578 0 -0.0021198985291707578 -0.0051807600930836133 0 0 0 0.010584785428625548 0.079878053879700289 0.010611259374590731 0 0.010611259374590731 0.0867548732667342 0 0 0 0.041658231786608629 -0.086299331677992114 -0.0012659096150070964 0 -0.0012659096150070964 -8.553710370043377e-05 0 0 0 -0.021596217195423123 -0.15655750681558014 0.001132007591945261 0 0.001132007591945261 -1.3275413932797853e-05 0 0 0 -0.03914269555737819 0.010266545541998552 -0.0015835635554188321 0 -0.0015835635554188321 0.016231578515576189 0 0 0 0.0066245310143936906 -0.028150056338690284 -0.027889079816739642 0 -0.027889079816739642 -0.0070761519103437823 0 0 0 -0.0088065520622585235 -0.0035478828740677752 -0.025613474954290873 0 -0.025613474954290873 -0.0051075539552922697 0 0 0 -0.0021638592073400104 0.081710255696263612 0.07892516927841127 0 0.07892516927841127 0.17412035449383811 0 0 0 0.063957652547525445 -0.090748107724305457 -0.0092151178509277936 0 -0.0092151178509277936 0.00024323726792103637 0 0 0 -0.022626217614096094 -0.05994610593291546 0.0047159155721992821 0 0.0047159155721992821 0.00069986384408210478 0 0 0 -0.014811560522208344 0.051073470571700696 -0.0080827030925501031 0 -0.0080827030925501031 0.0091409036313252479 0 0 0 0.015053593550756417 0.04211842002780819 -0.011611800831480078 0 -0.011611800831480078 0.0054689807023309278 0 0 0 0.011896850182534724 0.035773016600892528 0.010365107745078254 0 0.010365107745078254 0.039541207873070389 0 0 0 0.01882855611849072 0.039966910026565869 -0.016934880519578935 0 -0.016934880519578935 0.0050536216972817821 0 0 0 0.011255132930961911 0.055068818106317405 0.01386638193331003 0 0.01386638193331003 0.0095354184196926282 0 0 0 0.016151059131502516 0.072231668755992073 0.016579004640958628 0 0.016579004640958628 0.16075644611681406 0 0 0 0.058247028718201588 -0.037765317487336587 0.012202467056532145 0 0.012202467056532145 0.0038611801791404634 0 0 0 -0.0084760343270490392 0.0193666948623843 0.0046440059128321793 0 0.0046440059128321793 0.010538843244378038 0 0 0 0.0074763845266905844 0.17250008655306881 0.01260155806601412 0 0.01260155806601412 0.076245867901320263 0 0 0 0.062186488613597213 -0.053556653836677758 -0.0059991352841141099 0 -0.0059991352841141099 0.00052825330742694437 0 0 0 -0.013257100132312648 -0.19923022335372109 -0.0018915130292722071 0 -0.0018915130292722071 -0.00011699694654215831 0 0 0 -0.04983680507506584 -0.1089614852732364 -0.00035386193426087143 0 -0.00035386193426087143 -0.0005887136505244861 0 0 0 -0.027387549730940194 0.026063243304672572 0.00015911120100776596 0 0.00015911120100776596 0.06457130431370689 0 0 0 0.02265863690459486 -0.030200342499966309 -0.022712545325696235 0 -0.022712545325696235 -0.0027217124506923596 0 0 0 -0.0082305137376646673 -0.048601215088783484 -0.028839414281789464 0 -0.028839414281789464 -0.00088976678924591879 0 0 0 -0.012372745469507344 0.10228362072209826 0.021542415994832677 0 0.021542415994832677 0.036457813431684472 0 0 0 0.034685358538445663 -0.030147424774048748 -0.008599082488868981 0 -0.008599082488868981 6.9037798899884706e-06 0 0 0 -0.0075351302485400229 0.036241806044732761 -0.015785419815364687 0 -0.015785419815364687 0.023107190142609479 0 0 0 0.014837249046835532 0.17084421997513033 0.0098255282894664665 0 0.0098255282894664665 0.14610187876081238 0 0 0 0.07923652468398501 -0.023913332512970786 -0.0055779740913376175 0 -0.0055779740913376175 0.0054383971941440734 0 0 0 -0.0046187338297065672 0.016045389803447163 -0.034981246205924917 0 -0.034981246205924917 0.036096241599371193 0 0 0 0.013035407850704575 0.025414422989371452 -0.0032613083548501259 0 -0.0032613083548501259 0.047826883230626782 0 0 0 0.018310326554999548 0.0031443314919782639 0.0018678717158542232 0 0.0018678717158542232 0.01666557816783576 0 0 0 0.0049524774149535128 -0.027385492815954038 0.007332943375190748 0 0.007332943375190748 0.0060895968563627889 0 0 0 -0.0053239739898973681 0.073121588162262996 -0.015451335122352416 0 -0.015451335122352416 0.072170697859431421 0 0 0 0.036323071505423576 0.0059865286605530858 0.010512614978258349 0 0.010512614978258349 0.0016076663202372193 0 0 0 0.0018985487451975772 0.080462748663558917 -0.0074214310992888194 0 -0.0074214310992888194 0.05219253386485545 0 0 0 0.033163820632103588 -0.056294708365153788 0.0081551277113823956 0 0.0081551277113823956 0.00023107895774407416 0 0 0 -0.014015907351852409 -0.0040433014091828257 -0.017420170464273563 0 -0.017420170464273563 0.034173942799807344 0 0 0 0.0075326603476561782 -0.030008697024186244 0.014956572056014489 0 0.014956572056014489 0.00018884009323024212 0 0 0 -0.0074549642327389979 -0.068762673485669001 -0.009236086814897182 0 -0.009236086814897182 0.0027619947609514028 0 0 0 -0.0165001696811794 -0.06464939764818331 0.0074277214419270418 0 0.0074277214419270418 -0.00031365662821502584 0 0 0 -0.016240763569099582 -0.046764078322674631 0.0097068367031305572 0 0.0097068367031305572 0.0012213145535131895 0 0 0 -0.011385690942290368 -0.036704056213127778 0.040764627140640775 0 0.040764627140640775 0.0042239019072924933 0 0 0 -0.0081200385764587102 0.014251161411977471 -0.014278230408078362 0 -0.014278230408078362 -0.0015250531979550536 0 0 0 0.0031815270535056027 0.0058106640491249993 -0.021641777075954483 0 -0.021641777075954483 -0.0072486515156806181 0 0 0 -0.00035949686663890382 -0.0048231346955931072 0.016159040004163194 0 0.016159040004163194 -0.0014336493778335305 0 0 0 -0.0015641960183566568 -0.00044686074426060441 0.012161419254574354 0 0.012161419254574354 0.00029104944912410318 0 0 0 -3.8952823784123899e-05 0.020044101804201457 -0.0017761104729400318 0 -0.0017761104729400318 0.022133398245740607 0 0 0 0.010544375012485514 0.056612800950520362 -0.030748841807503577 0 -0.030748841807503577 0.058040514877214899 0 0 0 0.028663328956933787 0.037879716474664496 -0.018878735904504146 0 -0.018878735904504146 0.025023843994375176 0 0 0 0.015725890117259902 0.019801839726915238 -0.014227633996456851 0 -0.014227633996456851 0.047016048505285069 0 0 0 0.016704472058050146 0.036223783235922014 -0.014186814490366989 0 -0.014186814490366989 0.023716349160197103 0 0 0 0.014985033099029765 0.096970752896112844 0.0090549412222518701 0 0.0090549412222518701 0.074410027708996629 0 0 0 0.042845195151277327 0.04676697991655826 -0.014349624242883385 0 -0.014349624242883385 0.039751238775932229 0 0 0 0.021629554673122664 -0.11342102116581929 0.0031291085395623482 0 0.0031291085395623482 0.00096021548550440095 0 0 0 -0.028115201420078756 -0.21334707473759632 -0.0071164666149054296 0 -0.0071164666149054296 0.0052174712969064174 0 0 0 -0.05203240086017244 0.087073468580479749 -0.0088938403571694746 0 -0.0088938403571694746 0.041807599737609169 0 0 0 0.032220267079522233 0.11299553357227365 0.012954727744031558 0 0.012954727744031558 0.08986830771572929 0 0 0 0.050715960322000708 -0.029775603345161106 0.010444444286301577 0 0.010444444286301577 0.010864904704196848 0 0 0 -0.0047276746602410713 0.033660649880879148 0.0077582368957327015 0 0.0077582368957327015 0.0058506022402867487 0 0 0 0.0098778130302914751 0.026161205392322313 -0.01900358476351019 0 -0.01900358476351019 -0.0056313392115696151 0 0 0 0.0051324665451881798 0.040368091543814766 -0.010182066058601863 0 -0.010182066058601863 -0.01075704292930355 0 0 0 0.0074027621536278017 0.070752066847662623 -0.048092443414318446 0 -0.048092443414318446 0.10806764962415823 0 0 0 0.044704929117955206 -0.051197884296830018 0.0092815317889559691 0 0.0092815317889559691 -0.00061537436242383933 0 0 0 -0.012953314664813476 -0.039976230741638322 0.0098868854895407202 0 0.0098868854895407202 0.00064245539853291858 0 0 0 -0.0098334438357763516 -0.04978862413356324 -0.017314118334921667 0 -0.017314118334921667 0.00075312442349074332 0 0 0 -0.012258874927518128 -0.07176578212081719 -0.017398890117764271 0 -0.017398890117764271 -0.0029898083904563721 0 0 0 -0.01868889762781839 -0.10114313281834775 -0.0064314217193059157 0 -0.0064314217193059157 0.0024904432727332892 0 0 0 -0.024663172386403531 0.060864517135979068 0.073379113849193156 0 0.073379113849193156 0.10763621363561815 0 0 0 0.042125182692899221 0.068919324164849416 -0.01315715819630453 0 -0.01315715819630453 0.041883581850667317 0 0 0 0.027700726503879169 0.052244720688781797 0.0043180047397657351 0 0.0043180047397657351 0.019111560334542761 0 0 0 0.017839070255831223 -0.002547533058733651 0.0133767485115741 0 0.0133767485115741 0.0019004015092077553 0 0 0 -0.00016178288738146959 0.018014097057375493 -0.00091987781636776803 0 -0.00091987781636776803 0.04739688986386327 0 0 0 0.016352746730309696 -0.037919636302268904 0.010028222065069682 0 0.010028222065069682 2.0321939160738989e-05 0 0 0 -0.0094748285907770464 0.11751864749790897 0.028057269578061428 0 0.028057269578061428 0.044531386756716751 0 0 0 0.040512508563656513 0.025501325617331115 0.012214162422765667 0 0.012214162422765667 0.005002775847071577 0 0 0 0.0076260253661006756 0.05062394729985896 -0.011841028504072093 0 -0.011841028504072093 0.0082813599425930612 0 0 0 0.01472632681061296 0.13177747216357144 -0.065660677923442698 0 -0.065660677923442698 0.093582521941478702 0 0 0 0.056339998526262522 -0.17740276472208782 0.015606230341402183 0 0.015606230341402183 0.0048796461382529799 0 0 0 -0.043130779645958683 0.042223628130101325 0.0034002273391482416 0 0.0034002273391482416 0.0027691258846638048 0 0 0 0.011248188503691282 -0.012385352002695926 0.01274720485845122 0 0.01274720485845122 -0.0010834914880303997 0 0 0 -0.0033672108726815796 -0.0045817599964271954 -0.017281917009357644 0 -0.017281917009357644 -0.0026182592808636843 0 0 0 -0.0018000048193227182 0.044507272742331037 0.013301810529876697 0 0.013301810529876697 0.017556256806748841 0 0 0 0.015515882387269982 -0.072431282675182923 0.0073029692090834653 0 0.0073029692090834653 0.0028277510292512575 0 0 0 -0.017400882911482979 -0.12279731526001079 -0.017874247308155622 0 -0.017874247308155622 0.0091041879168394652 0 0 0 -0.028423281835792777 0.12173638588025915 0.013769735836975716 0 0.013769735836975716 0.088234961139098012 0 0 0 0.052492836754839622 -0.026827400178468519 -0.0091246614697383377 0 -0.0091246614697383377 0.00097128697451331902 0 0 0 -0.006464028300988689 0.086654221340473389 0.0049129081952314635 0 0.0049129081952314635 0.075190915013152726 0 0 0 0.04046128408840656 0.05389254309397614 -0.028841229114189147 0 -0.028841229114189147 0.015917955761179797 0 0 0 0.017452624713788979 0.076696180306903977 0.0055368479323025799 0 0.0055368479323025799 0.041919273403097701 0 0 0 0.029653863427500399 0.03425808733624252 0.010013179128496863 0 0.010013179128496863 0.010762793225374302 0 0 0 0.011255220140404205 0.04111724538720414 -0.00087415726035760047 0 -0.00087415726035760047 0.0009242172793585599 0 0 0 0.010510365666640679 0.0075046208220364468 0.010780680876398302 0 0.010780680876398302 0.0063615282465087301 0 0 0 0.003466537267136297 0.048472880590641046 -0.020344639689094515 0 -0.020344639689094515 0.12937358289097267 0 0 0 0.044461615870403412 0.04755452582044134 -0.020348618940899305 0 -0.020348618940899305 0.12277771240377341 0 0 0 0.042583059556053668 -0.0091159599970570548 -0.017486788443466406 0 -0.017486788443466406 0.00421762619410182 0 0 0 -0.0012245834507387254 -0.014905808883540983 -0.018338467112103463 0 -0.018338467112103463 0.0038562879129018235 0 0 0 -0.0027623802426599564 0.08648786325132618 0.025664031394015741 0 0.025664031394015741 0.051399941193362331 0 0 0 0.034471951111172183 0.1015197496604594 0.025758227032725456 0 0.025758227032725456 0.055123544667014635 0 0 0 0.039160823581868565 0.084143481954549237 0.034877053077822226 0 0.034877053077822226 0.030666237135760888 0 0 0 0.028702429772577531 0.12027712877796404 0.031033840031088999 0 0.031033840031088999 0.037915958140750661 0 0 0 0.039548271729678675 0.034499684535335119 0.0074484993491469066 0 0.0074484993491469066 0.011498577107545198 0 0 0 0.011499565410720078 0.095992167351771851 0.004959699331536449 0 0.004959699331536449 0.096530122600423485 0 0 0 0.048130572488048862 0.084727730484946723 0.0080188989878925976 0 0.0080188989878925976 0.064128929672763485 0 0 0 0.037214165039427621 -0.058499292556992599 -0.010729436284683258 0 -0.010729436284683258 0.0024257579948132602 0 0 0 -0.014018383640544752 -0.068452963904118785 -0.0041023175562787673 0 -0.0041023175562787673 0.0014045806084510559 0 0 0 -0.016762095823916939 -0.11197625650183585 0.010720662628820654 0 0.010720662628820654 0.002926152982891228 0 0 0 -0.027262525879736099 0.066455497367571031 0.023733380411112094 0 0.023733380411112094 0.033472277987306454 0 0 0 0.024981943838719375 0.069375861694479415 0.02503757471980286 0 0.02503757471980286 0.040854679448737774 0 0 0 0.027557635285804294 0.041605449225027832 0.0082953220945034215 0 0.0082953220945034215 0.0017320177383660582 0 0 0 0.010834366740848471 0.032224743478916761 0.0094339007070209334 0 0.0094339007070209334 0.0035638293330415502 0 0 0 0.0089471432029895812 -0.095974660288342381 -0.01793979827894417 0 -0.01793979827894417 -0.0055324126461167786 0 0 0 -0.025376768233614795 -0.061727515955078006 0.0077051042017088518 0 0.0077051042017088518 -0.00069329059164369329 0 0 0 -0.015605201636680424 -0.047811156174792029 0.012796315749768966 0 0.012796315749768966 -0.00014925164579183275 0 0 0 -0.011990101955145955 0.1381063221915515 0.021643889633972346 0 0.021643889633972346 0.10025836347259354 0 0 0 0.059591171416036426 -0.028042523178838485 -0.0093817107716255288 0 -0.0093817107716255288 0.0056311060621445641 0 0 0 -0.0056028542791736191 0.035624336811713786 -0.0038859225056801163 0 -0.0038859225056801163 0.0032925195306945255 0 0 0 0.0097292140856020809 0.058563525300792535 -0.0041254877084062544 0 -0.0041254877084062544 -0.0050779704929443739 0 0 0 0.013371388701962042 -0.022263425127163394 -0.018368409665752261 0 -0.018368409665752261 0.0060011417567724656 0 0 0 -0.0040655708425977322 0.0099221775650171311 -0.024187415622705037 0 -0.024187415622705037 -0.00063621046696008855 0 0 0 0.0023214917745142619 0.020773071604685257 -0.005726673924668052 0 -0.005726673924668052 0.02976027739259253 0 0 0 0.012633337249319448 0.071887164398753076 0.016525044974065581 0 0.016525044974065581 0.018900926532937665 0 0 0 0.022697022732922695 -0.023697937426805663 0.043035566941957759 0 0.043035566941957759 0.0076045791787193173 0 0 0 -0.0040233395620215689 -0.058644147942212066 0.0025714401173563273 0 0.0025714401173563273 0.0054563904494628335 0 0 0 -0.013296939373187294 -0.10051601087676987 -0.0038001924799874118 0 -0.0038001924799874118 0.013715056447596963 0 0 0 -0.021700238607293254 0.041550786362402503 0.00047829720440867307 0 0.00047829720440867307 0.0021662895890390832 0 0 0 0.010929268987860397 0.052138330283138301 0.0098110241541704002 0 0.0098110241541704002 0.0059437725821249732 0 0 0 0.014520525716315791 -0.034732492204107096 0.013866121264002388 0 0.013866121264002388 0.0017771354997250313 0 0 0 -0.0082388391760955214 -0.021869089725319722 0.011752456936896076 0 0.011752456936896076 0.00058958219803724801 0 0 0 -0.0053198768818206125 0.020708062597805749 0.0034397965163753619 0 0.0034397965163753619 0.018616324258443378 0 0 0 0.0098310967140622842 -0.064822953169327763 0.012319937410300455 0 0.012319937410300455 0.003382856260126535 0 0 0 -0.015360024227300286 -0.0443581815223235 -0.025518068477930266 0 -0.025518068477930266 -0.0074008796955404299 0 0 0 -0.012939765304465976 0.037484414532553662 -0.0036590928814561607 0 -0.0036590928814561607 -0.052796567856500304 0 0 0 -0.0038280383309865773 -0.0012537639396917877 0.054317785951471076 0 0.054317785951471076 0.011245346169438175 0 0 0 0.0024978955574365136 0.030875426250450377 0.0094292524030126189 0 0.0094292524030126189 0.010290331125005152 0 0 0 0.010291439343863883 0.14961560367982779 0.010428206436916998 0 0.010428206436916998 0.084831884272357327 0 0 0 0.058611871988046238 0.10717722044185446 0.03447637418231872 0 0.03447637418231872 0.10669616889982797 0 0 0 0.053468347335420607 -0.090772038896854562 0.010923499992605279 0 0.010923499992605279 0.026622596934832099 0 0 0 -0.016037360490505609 0.082548384023377344 0.03864554643991952 0 0.03864554643991952 0.11227343393899003 0 0 0 0.048705454490591812 0.09641574686134935 0.03152060232945321 0 0.03152060232945321 0.075036251036724788 0 0 0 0.042862999474518576 -0.010860898132809655 0.012738449521314031 0 0.012738449521314031 0.0027720091284629753 0 0 0 -0.0020222222510866712 0.015469067062660751 0.0093539250436482143 0 0.0093539250436482143 0.0028638390209227114 0 0 0 0.0045832265208958648 -0.091626487645490751 0.037794007610490787 0 0.037794007610490787 0.015418865029541706 0 0 0 -0.019051905653987178 0.015789704820523599 -0.0105504214159233 0 -0.0105504214159233 0.05927383523337236 0 0 0 0.018765885013473999 0.062060875566277603 0.025936120978096028 0 0.025936120978096028 0.12129453575888199 0 0 0 0.04583885283128989 0.037790761904557449 -0.018648401884280408 0 -0.018648401884280408 0.0094429005074689321 0 0 0 0.011808415603006592 -0.080959258245341004 -0.0027639550910917854 0 -0.0027639550910917854 0.0032065695456670318 0 0 0 -0.019438172174918503 -0.14210031497281159 0.0068757016122533432 0 0.0068757016122533432 0.011926631906751473 0 0 0 -0.032543420766514952 -0.029842270864034348 0.016277950226554205 0 0.016277950226554205 0.0052413350742477327 0 0 0 -0.0061502339474467371 0.065009793918767877 -0.017337055487726905 0 -0.017337055487726905 0.045872110910039288 0 0 0 0.027720476207201805 0.036293209931625686 -0.015677987335978805 0 -0.015677987335978805 0.029714174373612234 0 0 0 0.016501846076309473 0.082277112263186472 0.017833449354376186 0 0.017833449354376186 0.021540582029621252 0 0 0 0.02595442357320191 -0.031592561845473682 -0.026667473457878885 0 -0.026667473457878885 -0.010546043256503913 0 0 0 -0.010534651275494394 -0.055379920071936956 0.0089529342455352788 0 0.0089529342455352788 0.0028994011998105459 0 0 0 -0.013120129718031635 -0.071924580080717462 -0.013800469642763102 0 -0.013800469642763102 0.0079143817743057461 0 0 0 -0.016002549576602916 0.035048937746815417 -0.016826591550123324 0 -0.016826591550123324 0.049767476572936398 0 0 0 0.021204103579937961 -0.031037953553620077 0.0070643443996391136 0 0.0070643443996391136 0.0048058001031383232 0 0 0 -0.0065580383626204497 0.039642272531467765 0.0067207243864664274 0 0.0067207243864664274 0.097125456013200689 0 0 0 0.034191932136167127 0.039314461295169176 -0.0012205051181686639 0 -0.0012205051181686639 0.013107239303112842 0 0 0 0.013105425149570504 0.045069831926000975 -0.015732146860184926 0 -0.015732146860184926 0.031691620720159186 0 0 0 0.019190363161539964 -0.078871577295587664 0.0033053377928198985 0 0.0033053377928198985 0.0032732016765839936 0 0 0 -0.018899593904750961 -0.1362159633098157 -0.010493546642160956 0 -0.010493546642160956 0.0065050586338196159 0 0 0 -0.032427726168998999 -0.059056003239518831 -0.016909833098788463 0 -0.016909833098788463 0.0068548845413641812 0 0 0 -0.013050279674538603 0.0094858606540219464 -0.016847537511881575 0 -0.016847537511881575 0.033371653177136806 0 0 0 0.010714378457789733 0.022678513995089633 -0.0095642147264539124 0 -0.0095642147264539124 0.062025311352153112 0 0 0 0.021175956336810686 -0.0075328350431294764 0.0089996111217587257 0 0.0089996111217587257 0.0053818559880093597 0 0 0 -0.00053774476378002072 0.03628959599900744 -0.016733496640554221 0 -0.016733496640554221 0.013233386262189617 0 0 0 0.012380745565299223 -0.026417207307788872 -0.015919913484913173 0 -0.015919913484913173 0.0038157925629044714 0 0 0 -0.0056503536862210456 -0.020876449733407489 0.0099038667112404909 0 0.0099038667112404909 0.005679061425164232 0 0 0 -0.0037993470770608146 0.040908732387289454 -0.017028793684237181 0 -0.017028793684237181 0.0091401085575826824 0 0 0 0.012512210236217985 0.042613643378795224 -0.003117308836622491 0 -0.003117308836622491 -0.0032282777199021222 0 0 0 0.0098463414147232746 -0.083363659087684699 0.0020461435348712309 0 0.0020461435348712309 0.0027783807547681894 0 0 0 -0.020146319583229128 -0.15057137810600049 -0.0043211750311551445 0 -0.0043211750311551445 0.004493328779531458 0 0 0 -0.036519512331617238 -0.04180633885924856 -0.0056514788605743771 0 -0.0056514788605743771 0.00055233162326107088 0 0 0 -0.010313501808996595 0.13885354152692347 0.011698306788071378 0 0.011698306788071378 0.10463980913520288 0 0 0 0.060873337665531324 0.12971593209017029 0.022870090777245444 0 0.022870090777245444 0.083810898692943336 0 0 0 0.053381707695778435 -0.0404085679850541 -0.005083864684725067 0 -0.005083864684725067 0.0018184016185931462 0 0 0 -0.0096475415916155161 0.16225573734164245 0.0075676201531345785 0 0.0075676201531345785 0.13377523656991386 0 0 0 0.074007743477888965 0.08924372710171416 -0.013790006119884408 0 -0.013790006119884408 0.026675324114103005 0 0 0 0.028979762803954229 0.024272728118798825 -0.017936303354207817 0 -0.017936303354207817 0.02503401953130846 0 0 0 0.012326686912526835 0.14456943364800934 -0.013154280808809293 0 -0.013154280808809293 0.1073467290590786 0 0 0 0.062979040676772069 0.23242935315879282 0.013144624399928528 0 0.013144624399928528 0.19530956157550361 0 0 0 0.10693472868357412 -0.067235539458824073 -0.02112085697408253 0 -0.02112085697408253 0.027190910049616601 0 0 0 -0.010011157352301847 -0.015813830929611396 0.01194599864494319 0 0.01194599864494319 0.0022647025221391032 0 0 0 -0.0033872821018680714 0.043849995691575321 0.009852913482765846 0 0.009852913482765846 0.0046514530233857853 0 0 0 0.012125362178740263 -0.031668192155867914 0.034039402728797241 0 0.034039402728797241 0.0017808825380885018 0 0 0 -0.0074718274044447419 0.061581133002636956 -0.019987652657087629 0 -0.019987652657087629 0.025580753066915873 0 0 0 0.021790471517388055 0.042744786558996051 0.00083173740724603305 0 0.00083173740724603305 0.0045137767761511804 0 0 0 0.01181464083378681 -0.010035822807558653 0.0083804615147281131 0 0.0083804615147281131 0.015923139139418931 0 0 0 0.0014718290829650506 0.15710821400548469 0.01277562217672798 0 0.01277562217672798 0.085281359059064421 0 0 0 0.060597393266137223 0.027469703562880365 -0.015497527254267705 0 -0.015497527254267705 -0.0093994678838209833 0 0 0 0.0045175589197648386 0.07646560818000965 -0.0040561554525760379 0 -0.0040561554525760379 0.016026303825888738 0 0 0 0.023122978001474628 0.079792904640964946 -0.006394138385358239 0 -0.006394138385358239 0.018765279463440122 0 0 0 0.0246395460261013 0.093251747896928305 -0.017845584492628297 0 -0.017845584492628297 0.062562549844146664 0 0 0 0.038953574435268812 0.10986847134566446 -0.0082590197368260787 0 -0.0082590197368260787 0.10087781748339009 0 0 0 0.052686572207263582 0.18070391469261343 0.0045196524106775327 0 0.0045196524106775327 0.18270307917006612 0 0 0 0.090851748465669846 0.15130097781620153 0.022474953779123952 0 0.022474953779123952 0.12013615854287163 0 0 0 0.06785928408976824 0.056529901753879522 0.02099803935626577 0 0.02099803935626577 0.03747721029074505 0 0 0 0.023501778011156126 0.08794291227313962 -0.023876073716905755 0 -0.023876073716905755 0.01055198355537218 0 0 0 0.024623723957127933 0.10175593027461255 -0.044171402004550386 0 -0.044171402004550386 0.051206339690141933 0 0 0 0.038240567491188683 -0.036773479371078804 -0.016247031148658886 0 -0.016247031148658886 0.0045315820678232255 0 0 0 -0.0080604743258139433 -0.037077074793257905 0.010661385663431618 0 0.010661385663431618 0.003036400191877682 0 0 0 -0.0085101686503450402 -0.022256188343144596 0.012958853365006698 0 0.012958853365006698 0.0039840508541698211 0 0 0 -0.0045680343722436928 -0.042335955152190269 0.013653162541158462 0 0.013653162541158462 0.061539732145575787 0 0 0 0.0048009442483463727 0.06717203968524077 -0.016577215519324506 0 -0.016577215519324506 0.046579833853729546 0 0 0 0.028437968384742662 0.11515531844416627 0.019772671604637915 0 0.019772671604637915 0.089181110004184383 0 0 0 0.051084107112087662 0.042786939971140692 0.01186386583701295 0 0.01186386583701295 0.010412420451526423 0 0 0 0.013299840105666774 0.039722477387898913 -0.0025521524573130505 0 -0.0025521524573130505 -0.020390358973797706 0 0 0 0.004833029603525274 0.02821527884341685 0.0096075637785265899 0 0.0096075637785265899 0.0026344162264623008 0 0 0 0.0077124237674697886 0.038154116594016088 -0.017727306893729512 0 -0.017727306893729512 0.020650358522514178 0 0 0 0.014701118779132563 0.0444630169193245 0.0007721687063659134 0 0.0007721687063659134 -0.0045503477516326725 0 0 0 0.0099781672919229576 0.054879893841624172 0.038598401540827054 0 0.038598401540827054 0.012183597889274367 0 0 0 0.01676587293272469 0.064118667619954162 0.032623920171576781 0 0.032623920171576781 0.025452273978077755 0 0 0 0.022392735399508423 0.003804530849284532 -0.022509466943025913 0 -0.022509466943025913 0.010528802371500473 0 0 0 0.0035833333051964178 0.13201581363717793 -0.092008792151342084 0 -0.092008792151342084 0.17789832046780635 0 0 0 0.077478533526246035 0.041034261706632769 0.0025772665936841664 0 0.0025772665936841664 -0.00053299347175059242 0 0 0 0.010125317058720542 -0.04319059236532885 -0.0098348395867741134 0 -0.0098348395867741134 0.0041660437999793132 0 0 0 -0.0097561371413373843 0.0033087877892525874 -0.0017163541690410344 0 -0.0017163541690410344 0.0038628599294709964 0 0 0 0.0017929119296806739 0.26983513410261839 -0.0012012540621650913 0 -0.0012012540621650913 0.21770232393689071 0 0 0 0.1218843645098775 0.21940135178271425 -0.014379307710473022 0 -0.014379307710473022 0.20415784655027983 0 0 0 0.10588979958324864 0.13739808142094367 0.006171465705913759 0 0.006171465705913759 0.11667390240638742 0 0 0 0.063517995956832829 0.0055614923972768793 0.002748103228452663 0 0.002748103228452663 0.006721183203554304 0 0 0 0.0030706689002082399 0.005472511860430085 -0.0012331801926293018 0 -0.0012331801926293018 0.004198971503588755 0 0 0 0.0024178708410048763 0.16753067710182656 -0.0022769855057299766 0 -0.0022769855057299766 0.12648000292973105 0 0 0 0.073502670007889126 0.0093593370295379508 0.002007725007702188 0 0.002007725007702188 0.0069901255992537159 0 0 0 0.0040873656571980277 0.03617780809051626 0.0010084760060061339 0 0.0010084760060061339 0.0028681242889779086 0 0 0 0.0097614830948735427 0.045964683777857965 -0.015997691225856203 0 -0.015997691225856203 0.0068282640988967663 0 0 0 0.013198236969188721 -0.020734334700819191 0.011914912776363938 0 0.011914912776363938 0.0090987293479881659 0 0 0 -0.0029089013382077519 -0.018168090590336083 -0.022141345543662427 0 -0.022141345543662427 0.0060767209397583066 0 0 0 -0.0030228424126442777 0.038436751372157872 -0.0074176740191955019 0 -0.0074176740191955019 -0.0074680043035503449 0 0 0 0.0077421867671518801 0.018435550870117279 0.02707973401516317 0 0.02707973401516317 0.015139103219824257 0 0 0 0.008393663522485717 0.036682486611053555 -0.0213518515193728 0 -0.0213518515193728 0.019329990160633859 0 0 0 0.014003119192921742 0.083820863361452447 -0.013581545616540625 0 -0.013581545616540625 0.080216181646949769 0 0 0 0.041009261252100582 0.1516421624353409 0.012233974599331732 0 0.012233974599331732 0.15007529293984534 0 0 0 0.075429363843796615 0.056802885703644945 0.0095722887095948117 0 0.0095722887095948117 0.074479014228433449 0 0 0 0.032820474983019599 -0.01572789091497459 0.0049591618561011276 0 0.0049591618561011276 0.0086541917828700243 0 0 0 -0.0017684247830261346 0.041953033466651302 -0.013531574812436909 0 -0.013531574812436909 0.057102289019973718 0 0 0 0.024763830621656269 0.09858380996979535 0.010233930059027924 0 0.010233930059027924 0.11070896502374938 0 0 0 0.052323193748386038 0.02105171289946256 -0.024187637985973565 0 -0.024187637985973565 0.01106939857911482 0 0 0 0.0080302778696442201 0.044916669362167178 0.0099383050342443224 0 0.0099383050342443224 0.0049820855313861961 0 0 0 0.012474688723388336 0.033312988282281131 -0.02125968362224584 0 -0.02125968362224584 0.027723468643338744 0 0 0 0.015259114231404913 0.015447373642051065 0.021686743879303805 0 0.021686743879303805 0.011504516814089705 0 0 0 0.0067379726140353036 0.080610980456631315 0.0041601349057449333 0 0.0041601349057449333 0.039739334470346277 0 0 0 0.030087578731744391 0.087102130239912534 0.0015484647477992525 0 0.0015484647477992525 0.041897175077739268 0 0 0 0.032249826329412978 0.0080400059275703463 0.011612569453445687 0 0.011612569453445687 0.0028514359291256161 0 0 0 0.002722860464173988 0.0026479869762488367 -0.001033243213063112 0 -0.001033243213063112 0.041022624110820249 0 0 0 0.010917652771767247 0.0723220704561581 -0.022068373559551102 0 -0.022068373559551102 0.025240925116942647 0 0 0 0.02439074889327511 0.048963758077907239 -0.01771315462526396 0 -0.01771315462526396 0.0071617397481014838 0 0 0 0.014031374456502188 0.10641311810125531 -0.016068258494102983 0 -0.016068258494102983 0.032427053241266712 0 0 0 0.034710042835630617 0.096698158648748145 0.0067796868107489194 0 0.0067796868107489194 0.079102673933116874 0 0 0 0.043950208145466296 0.085755315041644492 0.009394597959632045 0 0.009394597959632045 0.046664007642148508 0 0 0 0.033104830670948299 -0.026979678062660689 0.012251704833204022 0 0.012251704833204022 0.0013154249793315941 0 0 0 -0.006416063270832266 0.02084560630768378 -0.0053414886362495254 0 -0.0053414886362495254 0.045778223274057527 0 0 0 0.016655957395435333 0.022206194336932019 -0.0034065765132343315 0 -0.0034065765132343315 0.055360870250560912 0 0 0 0.01939176614687323 0.11355555843958866 0.05937413945889497 0 0.05937413945889497 0.18856481560359781 0 0 0 0.075530093510796606 0.064879875917317698 -0.019670368936525094 0 -0.019670368936525094 0.21650040895998199 0 0 0 0.070345071219324984 0.15510415116682896 0.011605311076301575 0 0.011605311076301575 0.10364587266058489 0 0 0 0.064687505956853686 0.053401975051205745 0.022556313686454065 0 0.022556313686454065 0.04985499239429142 0 0 0 0.025814241861374286 -0.05598471232362412 -0.0067922098073455051 0 -0.0067922098073455051 0.0039152444099941341 0 0 0 -0.013017366978407496 0.0074755788821710689 0.011445090494423528 0 0.011445090494423528 0.0011796351367687058 0 0 0 0.0021638035047349437 -0.025730729800703456 -0.019754367320423939 0 -0.019754367320423939 -0.004599796232538006 0 0 0 -0.0075826315083103585 -0.026741781065842032 0.011629535157283941 0 0.011629535157283941 -0.00084217599269949261 0 0 0 -0.0068959892646353813 0.057985590880472414 0.0015210230935170481 0 0.0015210230935170481 -0.0067804228885107974 0 0 0 0.012801291997990396 -0.041939444176335751 0.0037363373860367106 0 0.0037363373860367106 0.0023343508099007461 0 0 0 -0.0099012733416087521 -0.039921867875403617 0.0045257403507667042 0 0.0045257403507667042 -0.005721382448493819 0 0 0 -0.011410812580974358 -0.053507161125774451 -0.0073835951360585444 0 -0.0073835951360585444 0.0040969459514820505 0 0 0 -0.012352553793573102 -0.051348641547547341 -0.0085991017833101733 0 -0.0085991017833101733 -0.0065873018236747849 0 0 0 -0.014483985842805532 -0.0066473383826596288 -0.015514196176020345 0 -0.015514196176020345 0.023683252158946316 0 0 0 0.0042589784440716927 0.046658835112645937 0.0027986601669399624 0 0.0027986601669399624 0.0012274218953625983 0 0 0 0.011971564252002131 0.13925092640603542 0.023695409201353712 0 0.023695409201353712 0.043330646909929271 0 0 0 0.04564539332899098 0.05076114941408541 -0.0015457764618853759 0 -0.0015457764618853759 0.077142305491709529 0 0 0 0.0319758637264487 0.06600961910119596 0.030901164722215643 0 0.030901164722215643 0.074927820005652845 0 0 0 0.035234359776712222 0.021116166327610153 -0.0283423168864891 0 -0.0283423168864891 0.033119968458107163 0 0 0 0.013559033696429357 0.016718933295894391 0.0030849611986312198 0 0.0030849611986312198 0.0027247930735573187 0 0 0 0.0048609315923627047 0.083290656485397435 0.0065385646289866095 0 0.0065385646289866095 0.048082363834313899 0 0 0 0.032843255079927781 0.13241082585632527 -0.012518651906789025 0 -0.012518651906789025 0.089041716678495683 0 0 0 0.055363135633705457 0.0095452182992894711 -0.0023285510596795511 0 -0.0023285510596795511 0.00091833933555370072 0 0 0 0.0026158894087105157 0.051164542455627501 -0.0091723415049164148 0 -0.0091723415049164148 0.02633398224195227 0 0 0 0.01937463117439496 0.080113819519606222 0.0067939740565502726 0 0.0067939740565502726 0.047132199120514695 0 0 0 0.031811504660030132 -0.039159558634746815 0.0029364687354094914 0 0.0029364687354094914 -0.013028789324661168 0 0 0 -0.013047086989851995 -0.049753635527316757 -0.0065739857777603111 0 -0.0065739857777603111 -0.01655216650878771 0 0 0 -0.016576450509026116 -0.052326358678325045 -0.0049861001487373335 0 -0.0049861001487373335 -0.0063869432786238401 0 0 0 -0.014678325489237223 -0.041522886175089486 0.0018604331717280652 0 0.0018604331717280652 -0.0053856442125434778 0 0 0 -0.011727132596908243 0.024068356401231616 -0.027631105989915805 0 -0.027631105989915805 0.015329213699906252 0 0 0 0.0098493925252844949 0.0076458715729548349 0.011403206062844329 0 0.011403206062844329 0.0047458057846516896 0 0 0 0.0030979193394016311 0.043181628729785593 -0.018550600929235737 0 -0.018550600929235737 0.01304562855608804 0 0 0 0.014056814321468408 0.048520807568433771 -0.016835366889591044 0 -0.016835366889591044 0.0068808754118039328 0 0 0 0.013850420745059405 0.017170610153520859 0.01003071556607176 0 0.01003071556607176 0.0074125152695333485 0 0 0 0.0061457813557635535 0.035090402131490617 0.0087606068204263299 0 0.0087606068204263299 0.0033030075035004776 0 0 0 0.0095983524087477727 0.034885700211043633 0.010388815594004154 0 0.010388815594004154 0.0028056468013984495 0 0 0 0.0094228367531105223 0.046501596836361722 -0.041725069911712487 0 -0.041725069911712487 0.14322044476609641 0 0 0 0.047430510400614537 0.11309474663588513 -0.013046565988507064 0 -0.013046565988507064 0.38817214194350874 0 0 0 0.12531672214484849 -0.023138662025147937 -0.008327850314999663 0 -0.008327850314999663 0.015876769236528365 0 0 0 -0.0018154731971549085 0.090230305516192932 0.0052476640114347134 0 0.0052476640114347134 0.067761113816581786 0 0 0 0.039497854833193735 0.042432703941556432 -0.01451372080548613 0 -0.01451372080548613 0.039489465163163984 0 0 0 0.020480542276180153 0.038316513445647848 0.009860998761513029 0 0.009860998761513029 0.011514819123158285 0 0 0 0.01245783314220154 0.13076471826401059 0.015673584607459379 0 0.015673584607459379 0.087918028353372257 0 0 0 0.054670686654345602 -0.022022349496968352 -0.011020641932792952 0 -0.011020641932792952 0.0040323078436441673 0 0 0 -0.0044975104133312405 0.07790661246025897 -0.024482271515687666 0 -0.024482271515687666 0.064882650922624407 0 0 0 0.035697315845720862 0.088502097189694151 -0.003881411435398191 0 -0.003881411435398191 0.031554118284125576 0 0 0 0.03001405386845496 -0.0107172459897662 0.020503414462661684 0 0.020503414462661684 0.0092795737708435411 0 0 0 -0.00035941805473060917 0.050194121313604345 -0.021287956524726148 0 -0.021287956524726148 0.040912048751597041 0 0 0 0.022776542516300236 0.047784877932443903 -0.019863979284902952 0 -0.019863979284902952 0.030029087011779865 0 0 0 0.019453491236055998 0.042032812599938518 -0.0072634778020013724 0 -0.0072634778020013724 0.011885152463174897 0 0 0 0.013479491265778354 0.10874067130902185 0.0095393556313914107 0 0.0095393556313914107 0.097203055155773765 0 0 0 0.051485931616198882 0.041882821090945384 -0.014657476616470331 0 -0.014657476616470331 -0.0080117826073277387 0 0 0 0.008467759620904413 0.04920442041023998 0.0050510102748166918 0 0.0050510102748166918 0.006992345040608916 0 0 0 0.01404919136271221 0.00012513541796536042 0.01381376385496625 0 0.01381376385496625 0.00067202102285459503 0 0 0 0.00019928911020498409 0.0078478107090119362 0.013336733204970735 0 0.013336733204970735 0.00055837982644695028 0 0 0 0.0021015476338647199 0.021863224351926183 0.000122338835581123 0 0.000122338835581123 0.033814336435869473 0 0 0 0.013919390196948923 0.00047281817222494249 -0.011642268109197995 0 -0.011642268109197995 0.038809870412187197 0 0 0 0.0098206721461030488 0.020789736542332477 0.0087124900026538769 0 0.0087124900026538769 0.0016456627914420985 0 0 0 0.0056088498334436535 0.024453053217465291 0.010814295721116527 0 0.010814295721116527 0.0086231820180334984 0 0 0 0.0082690588088747061 0.021508934067496707 0.0092501959618184262 0 0.0092501959618184262 0.0064088097092176097 0 0 0 0.0069794359441785712 0.053232211025052711 -0.0077459596621913263 0 -0.0077459596621913263 -0.00088042083783457237 0 0 0 0.013087947546804535 0.062215634717698143 -0.0073877081888891749 0 -0.0073877081888891749 0.031582003013167714 0 0 0 0.023449409432716395 0.098369439954310134 0.0056383954017698024 0 0.0056383954017698024 0.06618106736590712 0 0 0 0.041137626830054286 0.084260131344504274 0.0090965988137786669 0 0.0090965988137786669 0.022633287304785976 0 0 0 0.026723354662322452 0.084153907659160782 -0.041824617608854829 0 -0.041824617608854829 0.14445604783771132 0 0 0 0.057152488874218019 0.12798795828573217 0.0068010179694799611 0 0.0068010179694799611 0.090015607972693701 0 0 0 0.054500891564607024 0.0087740017704143192 -0.0062084385549719956 0 -0.0062084385549719956 0.0038455789692495301 0 0 0 0.0031548951849154072 0.080286620718226454 -0.0073650498442536794 0 -0.0073650498442536794 0.04858190188511613 0 0 0 0.032217130650835535 0.015145238962616103 0.0085483774965897652 0 0.0085483774965897652 0.0092189227938033191 0 0 0 0.0060910404391052442 -0.013499748357360453 0.027366151323617333 0 0.027366151323617333 0.0050862645979021792 0 0 0 -0.0021033709398645684 0.045520039987176464 -0.022609237849745188 0 -0.022609237849745188 0.026213898727609486 0 0 0 0.017933484678696265 0.04401177051005456 -0.022556205314789413 0 -0.022556205314789413 0.019791359168452427 0 0 0 0.015950782419626774 0.025356692549654867 -0.0016758126203247539 0 -0.0016758126203247539 0.045535025841699169 0 0 0 0.017722929597838517 0.094757417371348573 -0.00048960747389836801 0 -0.00048960747389836801 0.080051901303997752 0 0 0 0.043702329668836803 0.016331814128375921 -0.0050686367110199804 0 -0.0050686367110199804 0.004948386770654345 0 0 0 0.0053200502247574555 0.026609990721517374 0.007348166369049558 0 0.007348166369049558 0.0097345445632743832 0 0 0 0.0090861338211980502 0.057885735871687771 -0.0019091030426534594 0 -0.0019091030426534594 0.040619816345280224 0 0 0 0.024626388054242554 0.045800966556561851 -0.0050346568635514788 0 -0.0050346568635514788 0.01162223932730222 0 0 0 0.014355801470965934 0.079397830784681253 -0.027144791375359356 0 -0.027144791375359356 0.015624911177298806 0 0 0 0.023755685490495101 0.12664731347486263 -0.016447799755152315 0 -0.016447799755152315 0.11025486973059573 0 0 0 0.05922554580136459 0.20064985005916297 0.018555595601964292 0 0.018555595601964292 0.19896173126631433 0 0 0 0.099902895331369368 0.039932307408990342 0.0096041689696692266 0 0.0096041689696692266 0.0018398001098291206 0 0 0 0.010443026879704869 -0.048660718584597307 0.032170259369275866 0 0.032170259369275866 0.0054068484147427043 0 0 0 -0.010813467542463595 -0.037955080374944661 0.026635767179952322 0 0.026635767179952322 0.0045067879287792323 0 0 0 -0.0083620731115412461 0.043558109934890676 -0.0068341141487338608 0 -0.0068341141487338608 0.0067386162414028797 0 0 0 0.012574181544073419 0.024142662783032436 0.0033327586264716592 0 0.0033327586264716592 0.017888938240029569 0 0 0 0.01050790025576551 0.03758713807350695 -0.017229676705681485 0 -0.017229676705681485 0.010910364583976227 0 0 0 0.012124375664370808 0.047597405423742328 -0.02292624096994933 0 -0.02292624096994933 0.025292332165395635 0 0 0 0.018222434397284493 0.0017784174497283978 0.024870561134970159 0 0.024870561134970159 0.0063627732950291005 0 0 0 0.0020352976861892635 0.034302895548216084 -0.0203505385405304 0 -0.0203505385405304 0.024741279786296477 0 0 0 0.014761043833628085 0.030027809415473561 -0.026546513071212252 0 -0.026546513071212252 0.017928626987314455 0 0 0 0.011989109100696949 -0.041402633773039051 0.011877482540167312 0 0.011877482540167312 -0.0013242826335305852 0 0 0 -0.010681729101642411 -0.053083065396861362 -0.02109369239172074 0 -0.02109369239172074 -0.0051575015801150065 0 0 0 -0.014560141744244096 -0.045178527395535177 -0.021153947798557782 0 -0.021153947798557782 0.001609781569753499 0 0 0 -0.010892186456445414 -0.037829411616113112 0.011040851066737165 0 0.011040851066737165 0.0013286493117027759 0 0 0 -0.0091251905761025858 0.02400093572183197 0.0012312861800132264 0 0.0012312861800132264 0.023584052192150123 0 0 0 0.011896246978495506 -0.04380378260520712 0.019988294634208037 0 0.019988294634208037 0.003197584713734436 0 0 0 -0.010151549472867893 0.059066405104995834 -0.017329009462949019 0 -0.017329009462949019 0.037983372021268114 0 0 0 0.024262444281565876 0.054408265569792502 -0.021816397558584916 0 -0.021816397558584916 0.028785910622616484 0 0 0 0.020798544048102219 -0.016580952787783834 -0.02603349494769136 0 -0.02603349494769136 0.0097544152199227074 0 0 0 -0.0017066343919652921 0.046144542341509644 -0.0082728476296158315 0 -0.0082728476296158315 0.012771222518517283 0 0 0 0.014728941215006709 0.050673002770198927 -0.021976029598788072 0 -0.021976029598788072 -0.0030868081185092301 0 0 0 0.011896548662922432 0.02447782038552055 -0.002268827727156566 0 -0.002268827727156566 0.017066131604597919 0 0 0 0.010385987997529617 -0.02681707699111403 0.014981040472079378 0 0.014981040472079378 -0.0003475542089761835 0 0 0 -0.0067911578000225507 -0.036927582055820252 0.052711347822081756 0 0.052711347822081756 0.019863993906747202 0 0 0 -0.004265897037268207 -0.02653275836092206 -0.023850678424441663 0 -0.023850678424441663 0.011297005218547485 0 0 0 -0.0038089382855935883 0.088181063171170665 0.019398177123806537 0 0.019398177123806537 0.04958522667452675 0 0 0 0.034441572461424513 -0.0084551267131019181 -0.015382647377824021 0 -0.015382647377824021 0.0034695182920502499 0 0 0 -0.0012464021052629726 0.082459384140442293 0.048106858379485695 0 0.048106858379485695 0.019046949970235261 0 0 0 0.025376583527669472 -0.022714516303346793 0.010856011722288464 0 0.010856011722288464 0.0030529376121473722 0 0 0 -0.0049153946727998705 0.021598191104734855 0.0058137223802941888 0 0.0058137223802941888 0.013010001756331928 0 0 0 0.0086520482152666958 -0.014939668501331993 -0.019690094195336294 0 -0.019690094195336294 0.0060815943168042175 0 0 0 -0.0022145185461319716 0.10697682721120791 -0.0048794499301920702 0 -0.0048794499301920702 0.069429882970682671 0 0 0 0.044101677545472645 0.17090628334339253 0.002794881549577688 0 0.002794881549577688 0.13085420134278847 0 0 0 0.075440121171545194 0.023517037419753785 0.0064854408058069649 0 0.0064854408058069649 0.0063984279611386582 0 0 0 0.0074788663452231077 0.011586498544078783 0.0032719179852045421 0 0.0032719179852045421 0.0076194716927329154 0 0 0 0.0048014925592032576 0.0088605991243864146 0.0051975394917884721 0 0.0051975394917884721 0.0070533737984330713 0 0 0 0.0039784932307047605 0.096520245940190819 0.0018552108714275928 0 0.0018552108714275928 0.070397230881852124 0 0 0 0.04172936920551118 0.11350992921829151 -0.0076399299832006218 0 -0.0076399299832006218 0.074358236867730909 0 0 0 0.046967041521505548 0.17709967854727404 0.01004012635328877 0 0.01004012635328877 0.13460318057660992 0 0 0 0.077925714780970878 0.0071195051744210591 -0.0021654123992465024 0 -0.0021654123992465024 0.0042912264461385519 0 0 0 0.0028526829051400693 0.1575751833112502 -0.010068588220630392 0 -0.010068588220630392 0.13163875663145674 0 0 0 0.072303484985676736 0.0042128283725575422 -0.0038233646150556133 0 -0.0038233646150556133 0.0036193373387272132 0 0 0 0.0019580414278212999 0.050454621514672948 -0.0033733107087175473 0 -0.0033733107087175473 0.011208584080199868 0 0 0 0.015415801398718232 0.044396206116575521 -0.013681434756747728 0 -0.013681434756747728 0.026264316853052971 0 0 0 0.017665130742407109 0.037979906293348964 -0.015533989089674495 0 -0.015533989089674495 0.023325953198827021 0 0 0 0.015326464873043955 0.039233374583316105 -0.0046098501663146552 0 -0.0046098501663146552 0.0095250283730527047 0 0 0 0.012189600739092254 0.043118290440995188 -0.009153126613144269 0 -0.009153126613144269 0.013575033756662913 0 0 0 0.014173331049414595 0.05781203865099209 0.026095385698833254 0 0.026095385698833254 0.10685285752189955 0 0 0 0.041166224043222885 0.018914881794928284 -0.02372060296262039 0 -0.02372060296262039 0.013129467860530215 0 0 0 0.0080110874138646249 0.016097213923889152 -0.033345331427617309 0 -0.033345331427617309 0.0063984347088435894 0 0 0 0.0056239121581831836 -0.0083999292443789932 0.0086739136630136892 0 0.0086739136630136892 0.0068648213064847266 0 0 0 -0.00038377698447356924 -0.048240954711090245 0.032935932560803738 0 0.032935932560803738 0.0076356041667873242 0 0 0 -0.010151337636075897 -0.026963580132322695 0.050829840113782554 0 0.050829840113782554 0.043401496679490448 0 0 0 0.0041094791367919381 0.060554529754591267 0.025712930267429206 0 0.025712930267429206 0.069116460034410132 0 0 0 0.032417747447250393 0.081270731803630147 0.008424260287605824 0 0.008424260287605824 0.050401794701332214 0 0 0 0.032918131626240632 0.095058420120031462 0.012354016457820562 0 0.012354016457820562 0.05732311927852729 0 0 0 0.038095384849639757 0.087226239025882391 0.03398812489112036 0 0.03398812489112036 0.071909421502328069 0 0 0 0.039783915132052608 -0.024648386418811591 -0.022067137378947721 0 -0.022067137378947721 0.019137734321368782 0 0 0 -0.0013776630243606813 -0.035842559783901037 -0.013526274676347982 0 -0.013526274676347982 0.0023688039843394182 0 0 0 -0.0083684389498902972 0.056802703545948859 0.022978394120400758 0 0.022978394120400758 0.050959818362454834 0 0 0 0.026940630477100914 0.073987793779053068 0.027073837931204936 0 0.027073837931204936 0.042251433180730366 0 0 0 0.029059806739945866 0.03330554348817627 -0.0168918775576411 0 -0.0168918775576411 0.035276501816308592 0 0 0 0.017145511326121243 0.022588435769414571 0.00079236164303760374 0 0.00079236164303760374 0.014449530943740432 0 0 0 0.0092594916782887515 0.024771152472361169 0.0026754912980870723 0 0.0026754912980870723 0.02342185066461322 0 0 0 0.01204825078424359 0.028534424047339167 0.0020945832766306287 0 0.0020945832766306287 0.036981217806623612 0 0 0 0.016378910463490704 0.14788877032303915 0.013537371048429669 0 0.013537371048429669 0.13885240871176352 0 0 0 0.071685294758701001 -0.023943872091451324 -0.0046171846769904601 0 -0.0046171846769904601 0.003973263573843866 0 0 0 -0.0049926521294019199 -0.023124201312839699 0.012948279815260262 0 0.012948279815260262 0.0018997913862288732 0 0 0 -0.0053061024816527082 0.031261775956968711 0.0093405560562044888 0 0.0093405560562044888 0.0052831158640280727 0 0 0 0.0091362229552491951 0.15000521861912819 0.016155711749914703 0 0.016155711749914703 0.07997284935713922 0 0 0 0.057494516994066935 0.043936636887045077 -0.0037734310747978839 0 -0.0037734310747978839 0.009048157962260106 0 0 0 0.013246198712326296 0.0085660475258709842 -0.033303412621821848 0 -0.033303412621821848 -8.9729455194025899e-05 0 0 0 0.0021190795176692411 -0.019700417170340444 -0.027654651669417746 0 -0.027654651669417746 0.0034839569360974529 0 0 0 -0.0040541150585607436 0.039249696118887484 -0.01193644254926185 0 -0.01193644254926185 0.053755785557835556 0 0 0 0.023251370419180767 
</DataArray>
</CellData>
</Piece>
</UnstructuredGrid>
</VTKFile>
