<?xml version="1.0"?>
<VTKFile type="UnstructuredGrid" version="0.1" byte_order="LittleEndian">
<UnstructuredGrid>
<Piece NumberOfPoints="3142" NumberOfCells="1054">
<Points>
<DataArray type="Float64" NumberOfComponents="3" format="ascii">
0.5 0.29999999999999999 0 0.54999999999999993 0.29999999999999999 0 0.54999999999999993 0.29999999999999999 0 0.59999999999999976 0.29999999999999999 0 0.59999999999999976 0.29999999999999999 0 0.6499999999999998 0.29999999999999999 0 0.6499999999999998 0.29999999999999999 0 0.69999999999999984 0.29999999999999999 0 0.69999999999999984 0.29999999999999999 0 0.74999999999999989 0.29999999999999999 0 0.74999999999999989 0.29999999999999999 0 0.79999999999999982 0.29999999999999999 0 0.79999999999999982 0.29999999999999999 0 0.84999999999999987 0.29999999999999999 0 0.84999999999999987 0.29999999999999999 0 0.89999999999999991 0.29999999999999999 0 0.89999999999999991 0.29999999999999999 0 0.94999999999999996 0.29999999999999999 0 0.94999999999999996 0.29999999999999999 0 1 0.29999999999999999 0 0.5 0.69999999999999996 0 0.54999999999999993 0.69999999999999996 0 0.54999999999999993 0.69999999999999996 0 0.59999999999999976 0.69999999999999996 0 0.59999999999999976 0.69999999999999996 0 0.6499999999999998 0.69999999999999996 0 0.6499999999999998 0.69999999999999996 0 0.69999999999999984 0.69999999999999996 0 0.69999999999999984 0.69999999999999996 0 0.74999999999999989 0.69999999999999996 0 0.74999999999999989 0.69999999999999996 0 0.79999999999999982 0.69999999999999996 0 0.79999999999999982 0.69999999999999996 0 0.84999999999999987 0.69999999999999996 0 0.84999999999999987 0.69999999999999996 0 0.89999999999999991 0.69999999999999996 0 0.89999999999999991 0.69999999999999996 0 0.94999999999999996 0.69999999999999996 0 0.94999999999999996 0.69999999999999996 0 1 0.69999999999999996 0 0.40076539126862748 0.34589349467022118 0 0.33277555741076909 0.36432196682010132 0 0.36575549820117997 0.31677992835137742 0 0.38083244760691543 0.38531983672244652 0 0.33277555741076909 0.36432196682010132 0 0.40076539126862748 0.34589349467022118 0 0.56836770495988642 0.3523062350852913 0 0.52289427570932567 0.3932284363388488 0 0.52752007115234678 0.33170632466418198 0 0.52752007115234678 0.33170632466418198 0 0.52289427570932567 0.3932284363388488 0 0.49077833859261139 0.35229981449445641 0 0.10000000000041601 1 0 0.053064897599294662 0.95186845269532028 0 0.10266856499240549 0.95548163909968886 0 0.099999999999814668 0 0 0.10266856499169109 0.044518360900210059 0 0.053064897599215843 0.048131547304697528 0 0.050000000000207989 1 0 0.053064897599294662 0.95186845269532028 0 0.10000000000041601 1 0 0.049999999999899652 0 0 0.099999999999814668 0 0 0.053064897599215843 0.048131547304697528 0 0.24999999999941211 0 0 0.29999999999926641 0 0 0.27499999999933927 0.060310814194988557 0 0.30000000000124832 1 0 0.25000000000104028 1 0 0.27609987656793722 0.94991445621608572 0 0.15720202157091859 0.60665697304410315 0 0.19914261668318661 0.62286739485272158 0 0.16500388252850301 0.66612077714085194 0 0.2236846579037573 0.67380363126050236 0 0.16500388252850301 0.66612077714085194 0 0.19914261668318661 0.62286739485272158 0 0.1247745017231483 0.27198077544791172 0 0.168349569971391 0.28054490850913671 0 0.14223753364722069 0.3341983344262433 0 0 0.75000000000034661 0 0 0.7000000000006934 0 0.049706944316475897 0.72477277076253799 0 0 0.30000000000124832 0 0 0.25000000000104028 0 0.049706944316556423 0.27522722923869108 0 0.59999999999999976 0.29999999999999999 0 0.61959173890754571 0.33832250091341232 0 0.56836770495988642 0.3523062350852913 0 0.5 0.69999999999999996 0 0.43323420005758778 0.6913544522562407 0 0.47913475093885149 0.66010775372412711 0 1 0.14999999999961891 0 0.95391631417672862 0.19584263333809451 0 0.93677536231883773 0.14999999999999089 0 1 0.84999999999982645 0 0.95391631417670719 0.89584263333814784 0 0.93677536231884972 0.85000000000000286 0 1 0.84999999999982645 0 0.93677536231884972 0.85000000000000286 0 0.95386563387742829 0.80414874155775029 0 1 0.14999999999961891 0 0.93677536231883773 0.14999999999999089 0 0.95386563387744361 0.1041487415577465 0 0.90416666666660628 0.9041666666666166 0 0.88088768115933802 0.84674609810493673 0 0.93677536231884972 0.85000000000000286 0 0.90416666666668166 0.20416666666667119 0 0.88088768115941807 0.14674609810479519 0 0.93677536231883773 0.14999999999999089 0 0.1247745017231483 0.27198077544791172 0 0.14223753364722069 0.3341983344262433 0 0.093851963071650835 0.30582068233324772 0 0.5 0.69999999999999996 0 0.45582236402875981 0.73896743678908217 0 0.43323420005758778 0.6913544522562407 0 0.55000000000173355 1 0 0.50000000000205869 1 0 0.52122150208832174 0.94089974453840242 0 0.49999999999869432 0 0 0.5499999999988151 0 0 0.52375890611712683 0.059318771819432882 0 0.54999999999999993 0.29999999999999999 0 0.59999999999999976 0.29999999999999999 0 0.56836770495988642 0.3523062350852913 0 0.50202631463681879 0.87892870825713787 0 0.44003836461056539 0.88093474584252718 0 0.45677673713123867 0.84253684404072415 0 0.33403534827021109 0.84402799729020661 0 0.35864759629805099 0.87963482415279515 0 0.30864387279288652 0.89906554525974958 0 0.53245488764484505 0.55078124999999989 0 0.47793794143994173 0.52940715638744962 0 0.53330375813596242 0.50827942741749099 0 0.82709327591102189 0.14937141670914489 0 0.81283102246527783 0.1881007222486438 0 0.77144070960558853 0.14311854477243749 0 0.82709327591091286 0.84937141670920724 0 0.81159157511211755 0.88795995483179491 0 0.76901770135486491 0.84293557325473656 0 0.77144070960558853 0.14311854477243749 0 0.81283102246527783 0.1881007222486438 0 0.76587607630038135 0.18880039518954719 0 0.76901770135486491 0.84293557325473656 0 0.81159157511211755 0.88795995483179491 0 0.76891166905518427 0.88835469571185499 0 0.33403534827021109 0.84402799729020661 0 0.30864387279288652 0.89906554525974958 0 0.29209212897034281 0.84715728365233667 0 0.57412547362576272 0.58273804879550706 0 0.5166924242153631 0.59825134841919447 0 0.53245488764484505 0.55078124999999989 0 0.50202631463681879 0.87892870825713787 0 0.47401147028110507 0.91529957330468115 0 0.44003836461056539 0.88093474584252718 0 0.5 0.69999999999999996 0 0.54999999999999993 0.69999999999999996 0 0.55363780716230748 0.74348740161571747 0 1 0.34999999999993492 0 0.95871855522754235 0.40006508612975411 0 0.95780851984364423 0.34215720972155339 0 1 0.64999999999986979 0 0.9578014258160763 0.65787212321113708 0 0.95867599106212187 0.60011091146651041 0 0.46666084890304671 0.57634471035397938 0 0.47793794143994173 0.52940715638744962 0 0.53245488764484505 0.55078124999999989 0 0.94999999999999996 0.29999999999999999 0 0.89898474358614167 0.25391965591104898 0 0.94399509803921056 0.24399509803922639 0 0.94999999999979179 1 0 0.89898474358632463 0.95391965591118966 0 0.94399509803919068 0.9439950980391687 0 0 0.65000000000104008 0 0.050069554451969707 0.61308520079857043 0 0.046634677244967337 0.671418230738282 0 0 0.35000000000145642 0 0.046389130980076937 0.32668781832131749 0 0.050583896093752537 0.38543522283434112 0 0.50202631463681879 0.87892870825713787 0 0.50627822638148745 0.8263979829520941 0 0.55899371797446828 0.85003102233514438 0 0.54782696902220018 0.79245182748204157 0 0.55899371797446828 0.85003102233514438 0 0.50627822638148745 0.8263979829520941 0 0.50945740445113552 0.75476055527778108 0 0.5 0.69999999999999996 0 0.55363780716230748 0.74348740161571747 0 0.84999999999965292 1 0 0.85170973911348691 0.93569607295217616 0 0.89898474358632463 0.95391965591118966 0 0.84999999999999987 0.29999999999999999 0 0.8517097391133297 0.2356960729520409 0 0.89898474358614167 0.25391965591104898 0 0.86956835336234861 0.571283299838105 0 0.82862096804812391 0.55037090955459045 0 0.86907294890112186 0.52008116128001669 0 0.49102375406324739 0.49123754822244059 0 0.53330375813596242 0.50827942741749099 0 0.47793794143994173 0.52940715638744962 0 0.57611405284611883 0.50165903596042916 0 0.61547661924074692 0.48539576058873962 0 0.62042975506801734 0.54295974692364424 0 0.71406021706547751 0.63292083137662503 0 0.67529834988829951 0.61613270668143583 0 0.71809016091162536 0.58185040402320831 0 0.65000000000104008 1 0 0.62065498684670595 0.95224934003983619 0 0.68015064798562208 0.95924320340003011 0 0.84999999999960507 0 0 0.899991664607802 0.045289349238254978 0 0.85491058998398861 0.060047533455626502 0 0.84999999999999987 0.69999999999999996 0 0.89999166460796554 0.74528934923809909 0 0.85491058998424563 0.76004753345552634 0 0.89999999999999991 0.29999999999999999 0 0.89898474358614167 0.25391965591104898 0 0.94999999999999996 0.29999999999999999 0 0.94999999999979179 1 0 0.89999999999958358 1 0 0.89898474358632463 0.95391965591118966 0 0.86411095495256451 0.42388805655111889 0 0.81308179852519835 0.39754945808726527 0 0.86844634540301924 0.38530937474099819 0 0.5 0.29999999999999999 0 0.49695729691142171 0.25014895411178018 0 0.54248833945060504 0.2520322959927106 0 0.86411095495256451 0.42388805655111889 0 0.81973119833356312 0.43505687159469048 0 0.81308179852519835 0.39754945808726527 0 0.67323294229744413 0.57556450033612505 0 0.71809016091162536 0.58185040402320831 0 0.67529834988829951 0.61613270668143583 0 0.6236733212988993 0.14864538214901801 0 0.68391457121233579 0.14440470121196541 0 0.64011864159029941 0.18789607982138171 0 0 0.050000000000207989 0 0.053064897599215843 0.048131547304697528 0 0.044310582753132287 0.101412518374475 0 0 0.94999999999979179 0 0.0443105827531413 0.89858748162559932 0 0.053064897599294662 0.95186845269532028 0 1 0.34999999999993492 0 1 0.39999999999978308 0 0.95871855522754235 0.40006508612975411 0 1 0.59999999999973963 0 1 0.64999999999986979 0 0.95867599106212187 0.60011091146651041 0 0 0.84999999999965292 0 0.065374659239661639 0.8551091961254178 0 0.0443105827531413 0.89858748162559932 0 0 0.15000000000062411 0 0.044310582753132287 0.101412518374475 0 0.065374659239632718 0.1448908038746782 0 0.16500388252850301 0.66612077714085194 0 0.1020579365089687 0.69352219419301997 0 0.1241190223511371 0.64391885572885044 0 0.14999999999970359 0 0 0.14618258501891079 0.062070108745602003 0 0.10266856499169109 0.044518360900210059 0 0.15000000000062411 1 0 0.10266856499240549 0.95548163909968886 0 0.14617343800780541 0.93808063414349496 0 0.7152569930854884 0.5237994455134295 0 0.67569444444444449 0.53500863336860327 0 0.69385896817107129 0.48377516041410151 0 0.6541250972820879 0.49999999999999989 0 0.62042975506801734 0.54295974692364424 0 0.61547661924074692 0.48539576058873962 0 0.94999999999999996 0.69999999999999996 0 0.94399509803918602 0.75600490196082126 0 0.89999166460796554 0.74528934923809909 0 0.94999999999986839 0 0 0.94399509803922566 0.056004901960802607 0 0.899991664607802 0.045289349238254978 0 0.6541250972820879 0.49999999999999989 0 0.69385896817107129 0.48377516041410151 0 0.67569444444444449 0.53500863336860327 0 0.82862096804812391 0.55037090955459045 0 0.81723410853263523 0.59419663659258926 0 0.77151014687832564 0.54436834383023036 0 0.7250000000005199 0.89375000000045834 0 0.66412543161245952 0.88015090885499059 0 0.68697391633157634 0.84450604838764298 0 0 0.94999999999979179 0 0 0.89999999999958358 0 0.0443105827531413 0.89858748162559932 0 0 0.10000000000041601 0 0 0.050000000000207989 0 0.044310582753132287 0.101412518374475 0 0.16500388252850301 0.66612077714085194 0 0.15332765547575641 0.71200081858233666 0 0.1020579365089687 0.69352219419301997 0 0.90299850604011456 0.79563452813489832 0 0.93677536231884972 0.85000000000000286 0 0.88088768115933802 0.84674609810493673 0 0.90299850604006393 0.09563452813493091 0 0.93677536231883773 0.14999999999999089 0 0.88088768115941807 0.14674609810479519 0 0.68391457121233579 0.14440470121196541 0 0.6865991819015953 0.189116534044597 0 0.64011864159029941 0.18789607982138171 0 0.085622222639554768 0.53333248912060549 0 0.1216098864341134 0.50637075089503902 0 0.1154888278694548 0.56733818459978413 0 0.21858834311891909 0.81980263716112767 0 0.22556077506376701 0.77837424984191617 0 0.26104540868854792 0.81401944968719064 0 0.81723410853263523 0.59419663659258926 0 0.77293540622714185 0.59448302402785813 0 0.77151014687832564 0.54436834383023036 0 0.1154888278694548 0.56733818459978413 0 0.1216098864341134 0.50637075089503902 0 0.14934928745814749 0.55042914607228977 0 0.1216098864341134 0.50637075089503902 0 0.068743045408989428 0.48853989837882689 0 0.113541300460994 0.46208784312094731 0 0.078358742472063481 0.43365249433908948 0 0.113541300460994 0.46208784312094731 0 0.068743045408989428 0.48853989837882689 0 0.83573492347052902 0.36590755630746369 0 0.81308179852519835 0.39754945808726527 0 0.78145581580700685 0.34881365920033602 0 0.57611405284611883 0.50165903596042916 0 0.62042975506801734 0.54295974692364424 0 0.57435499076887508 0.54267261987897775 0 0.86956835336234861 0.571283299838105 0 0.81723410853263523 0.59419663659258926 0 0.82862096804812391 0.55037090955459045 0 0.46666084890304671 0.57634471035397938 0 0.53245488764484505 0.55078124999999989 0 0.5166924242153631 0.59825134841919447 0 0.89999999999999991 0.69999999999999996 0 0.94999999999999996 0.69999999999999996 0 0.89999166460796554 0.74528934923809909 0 0.89999999999973679 0 0 0.94999999999986839 0 0 0.899991664607802 0.045289349238254978 0 0.84999999999960507 0 0 0.89999999999973679 0 0 0.899991664607802 0.045289349238254978 0 0.84999999999999987 0.69999999999999996 0 0.89999999999999991 0.69999999999999996 0 0.89999166460796554 0.74528934923809909 0 0.43545892161006339 0.61093128915313821 0 0.4089290844030305 0.58728915500154233 0 0.46666084890304671 0.57634471035397938 0 0.1650278706801647 0.38791388161335733 0 0.1117088112799664 0.38831403004970022 0 0.14223753364722069 0.3341983344262433 0 0.087545339447545459 0.35122518864182262 0 0.14223753364722069 0.3341983344262433 0 0.1117088112799664 0.38831403004970022 0 0.6916490518212759 0.75387992374886192 0 0.72501250972655151 0.74067302935308721 0 0.72500000000000064 0.7952620967744265 0 0.72501250972655151 0.74067302935308721 0 0.75841349681148107 0.75422312624214749 0 0.72500000000000064 0.7952620967744265 0 0.57412547362576272 0.58273804879550706 0 0.53245488764484505 0.55078124999999989 0 0.57435499076887508 0.54267261987897775 0 1 0.54999999999963112 0 0.95867599106212187 0.60011091146651041 0 0.93732437411268477 0.55911392101136159 0 1 0.44999999999963131 0 0.93814194660195893 0.44426664081746747 0 0.95871855522754235 0.40006508612975411 0 0.4089290844030305 0.58728915500154233 0 0.42644501560315817 0.54603747078095544 0 0.46666084890304671 0.57634471035397938 0 0.89999999999958358 1 0 0.84999999999965292 1 0 0.89898474358632463 0.95391965591118966 0 0.84999999999999987 0.29999999999999999 0 0.89898474358614167 0.25391965591104898 0 0.89999999999999991 0.29999999999999999 0 0.29999999999926641 0 0 0.32541448401678508 0.046215317981507749 0 0.27499999999933927 0.060310814194988557 0 0.30000000000124832 1 0 0.27609987656793722 0.94991445621608572 0 0.32544832635163229 0.95485394099568932 0 0.57412547362576272 0.58273804879550706 0 0.62042975506801734 0.54295974692364424 0 0.63065402604362242 0.59661356661633302 0 0.5 0.29999999999999999 0 0.54248833945060504 0.2520322959927106 0 0.54999999999999993 0.29999999999999999 0 0.67323294229744413 0.57556450033612505 0 0.62042975506801734 0.54295974692364424 0 0.67569444444444449 0.53500863336860327 0 0.6541250972820879 0.49999999999999989 0 0.67569444444444449 0.53500863336860327 0 0.62042975506801734 0.54295974692364424 0 1 0.14999999999961891 0 1 0.19999999999974799 0 0.95391631417672862 0.19584263333809451 0 1 0.84999999999982645 0 1 0.8999999999998336 0 0.95391631417670719 0.89584263333814784 0 1 0.7999999999998193 0 1 0.84999999999982645 0 0.95386563387742829 0.80414874155775029 0 1 0.099999999999753911 0 1 0.14999999999961891 0 0.95386563387744361 0.1041487415577465 0 0.4656888918609538 0.78493261229743638 0 0.50627822638148745 0.8263979829520941 0 0.45677673713123867 0.84253684404072415 0 0.6879972333610942 0.43038561374960838 0 0.72622533758026719 0.40265885511101601 0 0.73483647259922602 0.44789725365921768 0 0.67323294229744413 0.57556450033612505 0 0.67569444444444449 0.53500863336860327 0 0.71809016091162536 0.58185040402320831 0 0.7152569930854884 0.5237994455134295 0 0.71809016091162536 0.58185040402320831 0 0.67569444444444449 0.53500863336860327 0 0.65394964615507722 0.22666784374016369 0 0.59814117807200873 0.23398510860739519 0 0.64011864159029941 0.18789607982138171 0 0.55000000000173355 1 0 0.52122150208832174 0.94089974453840242 0 0.57382506491224949 0.9629411906298494 0 0.39801143831225599 0.16651381068160659 0 0.44288491854585582 0.14116182884956319 0 0.42905200079338551 0.19982395548231649 0 0.47357141910802508 0.1873585799078378 0 0.42905200079338551 0.19982395548231649 0 0.44288491854585582 0.14116182884956319 0 0.90594285160987287 0.4141265964174129 0 0.88594198078881503 0.46167788676578442 0 0.86411095495256451 0.42388805655111889 0 0.65507451745379841 0.92229208810758578 0 0.68015064798562208 0.95924320340003011 0 0.62065498684670595 0.95224934003983619 0 0.35312867752657662 0.084946736076730367 0 0.39591832466117061 0.056982757562006353 0 0.39823268594401579 0.1116623613130045 0 0.43698630808430822 0.080423614171545449 0 0.39823268594401579 0.1116623613130045 0 0.39591832466117061 0.056982757562006353 0 0.4367309254023824 0.92065556789053882 0 0.39641108128798319 0.94356127926187128 0 0.39767323751400468 0.89584229130535065 0 0.35752321586431363 0.9185439911803448 0 0.39767323751400468 0.89584229130535065 0 0.39641108128798319 0.94356127926187128 0 0.77354604466818633 0.40378688774472771 0 0.77972660463949339 0.45529290596363098 0 0.73483647259922602 0.44789725365921768 0 0.5499999999988151 0 0 0.57396793757665954 0.037011367187645222 0 0.52375890611712683 0.059318771819432882 0 0.64753070846764316 0.77332939069435502 0 0.60294066490120068 0.80851322453934582 0 0.59636844454254345 0.75937156204589151 0 0.49102375406324739 0.49123754822244059 0 0.48858720058566618 0.43964267759203868 0 0.53823865529665704 0.45873898050322898 0 0.28307294598219601 0.50789252727458634 0 0.29110487519241501 0.56588143995431495 0 0.25115337790845271 0.54719303014923271 0 0.79680861578988083 0.92656778056766709 0 0.81159157511211755 0.88795995483179491 0 0.85170973911348691 0.93569607295217616 0 0.79680861578956375 0.22656778056752541 0 0.81283102246527783 0.1881007222486438 0 0.8517097391133297 0.2356960729520409 0 0.57412547362576272 0.58273804879550706 0 0.57435499076887508 0.54267261987897775 0 0.62042975506801734 0.54295974692364424 0 0.93814194660195893 0.44426664081746747 0 0.88594198078881503 0.46167788676578442 0 0.90594285160987287 0.4141265964174129 0 0.7152569930854884 0.5237994455134295 0 0.73947346780852752 0.49062440112282169 0 0.77151014687832564 0.54436834383023036 0 0 0.7000000000006934 0 0.046634677244967337 0.671418230738282 0 0.049706944316475897 0.72477277076253799 0 0 0.30000000000124832 0 0.049706944316556423 0.27522722923869108 0 0.046389130980076937 0.32668781832131749 0 0.59814117807200873 0.23398510860739519 0 0.59443395090188023 0.18455690917515069 0 0.64011864159029941 0.18789607982138171 0 0.21858834311891909 0.81980263716112767 0 0.26104540868854792 0.81401944968719064 0 0.2401283238295133 0.85648409884788523 0 0.39536230704883951 0.84069429572832477 0 0.45677673713123867 0.84253684404072415 0 0.44003836461056539 0.88093474584252718 0 0.086179601630648681 0.64647209519980475 0 0.050069554451969707 0.61308520079857043 0 0.1024350934457823 0.60772393977513839 0 0.077693244765132896 0.56932317963405099 0 0.1024350934457823 0.60772393977513839 0 0.050069554451969707 0.61308520079857043 0 0.078358742472063481 0.43365249433908948 0 0.050583896093752537 0.38543522283434112 0 0.1117088112799664 0.38831403004970022 0 0.087545339447545459 0.35122518864182262 0 0.1117088112799664 0.38831403004970022 0 0.050583896093752537 0.38543522283434112 0 0.33403534827021109 0.84402799729020661 0 0.35642984951668422 0.80994399665655703 0 0.39536230704883951 0.84069429572832477 0 0.28307294598219601 0.50789252727458634 0 0.33190227185843768 0.52715113583864037 0 0.29110487519241501 0.56588143995431495 0 0.2236846579037573 0.67380363126050236 0 0.19068556247388771 0.71028988922845504 0 0.16500388252850301 0.66612077714085194 0 0.26104540868854792 0.81401944968719064 0 0.22556077506376701 0.77837424984191617 0 0.2792923945214143 0.77665808831789485 0 0.38244435121258652 0.51653317813019495 0 0.37272913873093971 0.56192925302619479 0 0.33190227185843768 0.52715113583864037 0 0.25195515620380449 0.25883339815888678 0 0.29132859388405002 0.27203693976649962 0 0.24432083401701241 0.3006253385567515 0 0.29348325746214782 0.31350119524708198 0 0.24432083401701241 0.3006253385567515 0 0.29132859388405002 0.27203693976649962 0 0 0.89999999999958358 0 0 0.84999999999965292 0 0.0443105827531413 0.89858748162559932 0 0 0.15000000000062411 0 0 0.10000000000041601 0 0.044310582753132287 0.101412518374475 0 0.59999999999999976 0.69999999999999996 0 0.59636844454254345 0.75937156204589151 0 0.55363780716230748 0.74348740161571747 0 0.1650278706801647 0.38791388161335733 0 0.22033343844674469 0.36963382230740238 0 0.191953871957803 0.42546416763755879 0 0.52289427570932567 0.3932284363388488 0 0.46655310992796922 0.39650496622958609 0 0.49077833859261139 0.35229981449445641 0 0.91696753777131557 0.497780560203536 0 0.88594198078881503 0.46167788676578442 0 0.93814194660195893 0.44426664081746747 0 0.24999999999941211 0 0 0.27499999999933927 0.060310814194988557 0 0.22668068146512929 0.045875643423131329 0 0.25000000000104028 1 0 0.22850979588452081 0.95594428570238643 0 0.27609987656793722 0.94991445621608572 0 0.77846603114747959 0.49850927265137401 0 0.77151014687832564 0.54436834383023036 0 0.73947346780852752 0.49062440112282169 0 0.27499999999933927 0.060310814194988557 0 0.27474541102162192 0.11822029332053539 0 0.24218496799700481 0.089025544070598317 0 0.27270076654418179 0.87751467830216623 0 0.29209212897034281 0.84715728365233667 0 0.30864387279288652 0.89906554525974958 0 0.3096713403101819 0.085471541595262421 0 0.27474541102162192 0.11822029332053539 0 0.27499999999933927 0.060310814194988557 0 0.17933913398461551 0.2350063570234002 0 0.18124454140915969 0.18790916706335251 0 0.224700362040408 0.22206622194729711 0 0.18269480424590959 0.75905448272264375 0 0.22556077506376701 0.77837424984191617 0 0.17777405986036951 0.81832336108265358 0 0.35864759629805099 0.87963482415279515 0 0.33403534827021109 0.84402799729020661 0 0.39536230704883951 0.84069429572832477 0 0.77354604466818633 0.40378688774472771 0 0.73483647259922602 0.44789725365921768 0 0.72622533758026719 0.40265885511101601 0 0.80185942888539485 0.77452061303608133 0 0.85491058998424563 0.76004753345552634 0 0.84725310900444062 0.80779732082917555 0 0.80185942888501827 0.074520613036224564 0 0.85491058998398861 0.060047533455626502 0 0.84725310900442086 0.10779732082922661 0 0.086179601630648681 0.64647209519980475 0 0.046634677244967337 0.671418230738282 0 0.050069554451969707 0.61308520079857043 0 0.087545339447545459 0.35122518864182262 0 0.050583896093752537 0.38543522283434112 0 0.046389130980076937 0.32668781832131749 0 0 0.75000000000034661 0 0.049706944316475897 0.72477277076253799 0 0.04408157711937423 0.7728941757575627 0 0 0.25000000000104028 0 0.044081577119474857 0.2271058242433576 0 0.049706944316556423 0.27522722923869108 0 0.52289427570932567 0.3932284363388488 0 0.56836770495988642 0.3523062350852913 0 0.57744073070774993 0.41535148636609359 0 0.6084546825910605 0.37989672713932537 0 0.57744073070774993 0.41535148636609359 0 0.56836770495988642 0.3523062350852913 0 0.61343887413683884 0.856862479058357 0 0.55899371797446828 0.85003102233514438 0 0.60294066490120068 0.80851322453934582 0 0.54782696902220018 0.79245182748204157 0 0.60294066490120068 0.80851322453934582 0 0.55899371797446828 0.85003102233514438 0 0.40326160981139969 0.73346192995102844 0 0.36622285152418499 0.69092437780804039 0 0.43323420005758778 0.6913544522562407 0 0.52289427570932567 0.3932284363388488 0 0.48858720058566618 0.43964267759203868 0 0.46655310992796922 0.39650496622958609 0 0.15720202157091859 0.60665697304410315 0 0.1154888278694548 0.56733818459978413 0 0.14934928745814749 0.55042914607228977 0 0.6879972333610942 0.43038561374960838 0 0.73483647259922602 0.44789725365921768 0 0.69385896817107129 0.48377516041410151 0 0.7250000000005199 0.89375000000045834 0 0.68987011941058407 0.92105047536677087 0 0.66412543161245952 0.88015090885499059 0 0.83573492347052902 0.36590755630746369 0 0.78145581580700685 0.34881365920033602 0 0.82500000000000062 0.33010209762754811 0 0.82862096804812391 0.55037090955459045 0 0.81441713509985358 0.51161854125224959 0 0.86907294890112186 0.52008116128001669 0 0.19670163708476801 0.31472518408333222 0 0.14223753364722069 0.3341983344262433 0 0.168349569971391 0.28054490850913671 0 0.50202631463681879 0.87892870825713787 0 0.45677673713123867 0.84253684404072415 0 0.50627822638148745 0.8263979829520941 0 0.099999999999814668 0 0 0.14999999999970359 0 0 0.10266856499169109 0.044518360900210059 0 0.15000000000062411 1 0 0.10000000000041601 1 0 0.10266856499240549 0.95548163909968886 0 0.67323294229744413 0.57556450033612505 0 0.63065402604362242 0.59661356661633302 0 0.62042975506801734 0.54295974692364424 0 0.083105206071467416 0.20007701332709979 0 0.13737030665753211 0.20313708640667491 0 0.095326043202144745 0.24554465089224409 0 0.083105206071452636 0.79992298667296435 0 0.090953281884486245 0.7564451946902494 0 0.1382744753146134 0.79650574229207483 0 0.50000000000205869 1 0 0.47135117303824892 0.95556877749289892 0 0.52122150208832174 0.94089974453840242 0 0.49999999999869432 0 0 0.52375890611712683 0.059318771819432882 0 0.47040171442036788 0.044141676406503738 0 0.4656888918609538 0.78493261229743638 0 0.45582236402875981 0.73896743678908217 0 0.50945740445113552 0.75476055527778108 0 0.5 0.69999999999999996 0 0.50945740445113552 0.75476055527778108 0 0.45582236402875981 0.73896743678908217 0 0.55306006949600994 0.20198184231352201 0 0.56202748619534593 0.15054058349222879 0 0.59443395090188023 0.18455690917515069 0 0.6236733212988993 0.14864538214901801 0 0.59443395090188023 0.18455690917515069 0 0.56202748619534593 0.15054058349222879 0 0.57412547362576272 0.58273804879550706 0 0.5498280205245758 0.6290146943450976 0 0.5166924242153631 0.59825134841919447 0 0.91696753777131557 0.497780560203536 0 0.93814194660195893 0.44426664081746747 0 0.96228564064454991 0.48206450662049471 0 0.15720202157091859 0.60665697304410315 0 0.16500388252850301 0.66612077714085194 0 0.1241190223511371 0.64391885572885044 0 0.44288491854585582 0.14116182884956319 0 0.47881186583059909 0.093591717165689425 0 0.48466639505193998 0.1421439844745814 0 1 0.54999999999963112 0 0.93732437411268477 0.55911392101136159 0 0.95631871884947484 0.51827533208233789 0 0.57724883562309992 0.92155686857100794 0 0.57382506491224949 0.9629411906298494 0 0.52122150208832174 0.94089974453840242 0 0.85170973911348691 0.93569607295217616 0 0.81159157511211755 0.88795995483179491 0 0.85600844944837662 0.88483418979512773 0 0.8517097391133297 0.2356960729520409 0 0.81283102246527783 0.1881007222486438 0 0.85600844944842547 0.1848341897950983 0 0.27866744612395528 0.38416094670951489 0 0.29124338931648802 0.43334555462578611 0 0.24049127783545701 0.41270748208749802 0 0.6084546825910605 0.37989672713932537 0 0.56836770495988642 0.3523062350852913 0 0.61959173890754571 0.33832250091341232 0 0.20050006573841939 0.53248514016039872 0 0.25115337790845271 0.54719303014923271 0 0.22549374774072969 0.58452645269293457 0 0.26573297623774761 0.59828298563722948 0 0.22549374774072969 0.58452645269293457 0 0.25115337790845271 0.54719303014923271 0 0.26104540868854792 0.81401944968719064 0 0.29209212897034281 0.84715728365233667 0 0.2401283238295133 0.85648409884788523 0 0.6236733212988993 0.14864538214901801 0 0.65290632656860115 0.11434202593454081 0 0.68391457121233579 0.14440470121196541 0 0.19901705110390991 0.9175543425573498 0 0.19741632902693801 0.86755867406447229 0 0.24536017905392571 0.90704567837671446 0 0.72500000000000064 0.7952620967744265 0 0.76901770135486491 0.84293557325473656 0 0.72863726579783861 0.85390518901155588 0 0.72500000000000064 0.7952620967744265 0 0.72863726579783861 0.85390518901155588 0 0.68697391633157634 0.84450604838764298 0 0.7250000000005199 0.89375000000045834 0 0.68697391633157634 0.84450604838764298 0 0.72863726579783861 0.85390518901155588 0 0.72525833953073282 0.1032114801687094 0 0.77144070960558853 0.14311854477243749 0 0.72634814642510737 0.16106886917518889 0 0.72525833953073282 0.1032114801687094 0 0.72634814642510737 0.16106886917518889 0 0.68391457121233579 0.14440470121196541 0 0.36622285152418499 0.69092437780804039 0 0.3977710372045391 0.65868194622830212 0 0.43323420005758778 0.6913544522562407 0 0 0.65000000000104008 0 0 0.60000000000138687 0 0.050069554451969707 0.61308520079857043 0 0 0.40000000000166441 0 0 0.35000000000145642 0 0.050583896093752537 0.38543522283434112 0 0.22033343844674469 0.36963382230740238 0 0.24049127783545701 0.41270748208749802 0 0.191953871957803 0.42546416763755879 0 0.5 0.29999999999999999 0 0.4604742573284204 0.27846934318264788 0 0.49695729691142171 0.25014895411178018 0 0.19741632902693801 0.86755867406447229 0 0.2401283238295133 0.85648409884788523 0 0.24536017905392571 0.90704567837671446 0 0 0.50000000000205869 0 0.068743045408989428 0.48853989837882689 0 0.044576108720083309 0.53509043209532614 0 0.15000000000062411 1 0 0.14617343800780541 0.93808063414349496 0 0.18474005699953849 0.96231585248064622 0 0.14999999999970359 0 0 0.184418230509967 0.038773194583122873 0 0.14618258501891079 0.062070108745602003 0 0.57667858002728545 0.078486105337742612 0 0.52375890611712683 0.059318771819432882 0 0.57396793757665954 0.037011367187645222 0 0.113541300460994 0.46208784312094731 0 0.078358742472063481 0.43365249433908948 0 0.13773355295499351 0.42497777642586831 0 0.77354604466818633 0.40378688774472771 0 0.78145581580700685 0.34881365920033602 0 0.81308179852519835 0.39754945808726527 0 0.38244435121258652 0.51653317813019495 0 0.33190227185843768 0.52715113583864037 0 0.35024835142131061 0.48654922671676981 0 0.64753070846764316 0.77332939069435502 0 0.65005442820240822 0.82644988530054031 0 0.60294066490120068 0.80851322453934582 0 0.15720202157091859 0.60665697304410315 0 0.1024350934457823 0.60772393977513839 0 0.1154888278694548 0.56733818459978413 0 0.90416666666660628 0.9041666666666166 0 0.85600844944837662 0.88483418979512773 0 0.88088768115933802 0.84674609810493673 0 0.90416666666668166 0.20416666666667119 0 0.85600844944842547 0.1848341897950983 0 0.88088768115941807 0.14674609810479519 0 0.078358742472063481 0.43365249433908948 0 0.1117088112799664 0.38831403004970022 0 0.13773355295499351 0.42497777642586831 0 0.38244435121258652 0.51653317813019495 0 0.3908716102680424 0.47010282357248828 0 0.43507373378304309 0.49699695397193322 0 0.90299850604011456 0.79563452813489832 0 0.95386563387742829 0.80414874155775029 0 0.93677536231884972 0.85000000000000286 0 0.90416666666660628 0.9041666666666166 0 0.93677536231884972 0.85000000000000286 0 0.95391631417670719 0.89584263333814784 0 0.90299850604006393 0.09563452813493091 0 0.95386563387744361 0.1041487415577465 0 0.93677536231883773 0.14999999999999089 0 0.90416666666668166 0.20416666666667119 0 0.93677536231883773 0.14999999999999089 0 0.95391631417672862 0.19584263333809451 0 0.39536230704883951 0.84069429572832477 0 0.44003836461056539 0.88093474584252718 0 0.39767323751400468 0.89584229130535065 0 0.51076801031701946 0.1202837388510348 0 0.52375890611712683 0.059318771819432882 0 0.54979595918804436 0.1060565713905809 0 0.57667858002728545 0.078486105337742612 0 0.54979595918804436 0.1060565713905809 0 0.52375890611712683 0.059318771819432882 0 0.57724883562309992 0.92155686857100794 0 0.52122150208832174 0.94089974453840242 0 0.54783390826260769 0.89287767010860219 0 0.50202631463681879 0.87892870825713787 0 0.54783390826260769 0.89287767010860219 0 0.52122150208832174 0.94089974453840242 0 0.087545339447545459 0.35122518864182262 0 0.093851963071650835 0.30582068233324772 0 0.14223753364722069 0.3341983344262433 0 0.54999999999999993 0.69999999999999996 0 0.59999999999999976 0.69999999999999996 0 0.55363780716230748 0.74348740161571747 0 0.083105206071452636 0.79992298667296435 0 0.1074251789111534 0.83564394292147814 0 0.065374659239661639 0.8551091961254178 0 0.083105206071467416 0.20007701332709979 0 0.065374659239632718 0.1448908038746782 0 0.106902708054812 0.16453234188234539 0 0.52289427570932567 0.3932284363388488 0 0.53823865529665704 0.45873898050322898 0 0.48858720058566618 0.43964267759203868 0 0.13737030665753211 0.20313708640667491 0 0.14377654328998779 0.2442024734791064 0 0.095326043202144745 0.24554465089224409 0 0.1382744753146134 0.79650574229207483 0 0.090953281884486245 0.7564451946902494 0 0.14335651144331049 0.75565258250209677 0 0.27270076654418179 0.87751467830216623 0 0.30864387279288652 0.89906554525974958 0 0.24536017905392571 0.90704567837671446 0 0.27609987656793722 0.94991445621608572 0 0.24536017905392571 0.90704567837671446 0 0.30864387279288652 0.89906554525974958 0 0.90299850604011456 0.79563452813489832 0 0.84725310900444062 0.80779732082917555 0 0.85491058998424563 0.76004753345552634 0 0.90299850604006393 0.09563452813493091 0 0.84725310900442086 0.10779732082922661 0 0.85491058998398861 0.060047533455626502 0 1 0.54999999999963112 0 1 0.59999999999973963 0 0.95867599106212187 0.60011091146651041 0 1 0.39999999999978308 0 1 0.44999999999963131 0 0.95871855522754235 0.40006508612975411 0 0.28040350263641872 0.23054717217092141 0 0.25195515620380449 0.25883339815888678 0 0.224700362040408 0.22206622194729711 0 0.84999999999999987 0.29999999999999999 0 0.87430060258887643 0.34056085888204451 0 0.82500000000000062 0.33010209762754811 0 0.84999999999999987 0.69999999999999996 0 0.82457059160610424 0.66831947184359608 0 0.87712158428786946 0.65709029563313581 0 0.86956835336234861 0.571283299838105 0 0.87159648282691515 0.61285406320581504 0 0.81723410853263523 0.59419663659258926 0 0.43698630808430822 0.080423614171545449 0 0.47881186583059909 0.093591717165689425 0 0.44288491854585582 0.14116182884956319 0 1 0.44999999999963131 0 0.96228564064454991 0.48206450662049471 0 0.93814194660195893 0.44426664081746747 0 0.35752321586431363 0.9185439911803448 0 0.30864387279288652 0.89906554525974958 0 0.35864759629805099 0.87963482415279515 0 0.29124338931648802 0.43334555462578611 0 0.25982634974572738 0.46097799597715272 0 0.24049127783545701 0.41270748208749802 0 0.51076801031701946 0.1202837388510348 0 0.56202748619534593 0.15054058349222879 0 0.51729576145820033 0.1683240575987815 0 0.55306006949600994 0.20198184231352201 0 0.51729576145820033 0.1683240575987815 0 0.56202748619534593 0.15054058349222879 0 0.26429849586623999 0.19346700179430079 0 0.28040350263641872 0.23054717217092141 0 0.224700362040408 0.22206622194729711 0 0.51076801031701946 0.1202837388510348 0 0.48466639505193998 0.1421439844745814 0 0.47881186583059909 0.093591717165689425 0 0.2185883431182947 0.18019736283949719 0 0.26429849586623999 0.19346700179430079 0 0.224700362040408 0.22206622194729711 0 0.18269480424590959 0.75905448272264375 0 0.2248999640082178 0.72584299459689172 0 0.22556077506376701 0.77837424984191617 0 0.51076801031701946 0.1202837388510348 0 0.47881186583059909 0.093591717165689425 0 0.52375890611712683 0.059318771819432882 0 0.50202631463681879 0.87892870825713787 0 0.52122150208832174 0.94089974453840242 0 0.47401147028110507 0.91529957330468115 0 0 0.84999999999965292 0 0.038512288486097702 0.8155852717111195 0 0.065374659239661639 0.8551091961254178 0 0 0.15000000000062411 0 0.065374659239632718 0.1448908038746782 0 0.038512288486115001 0.1844147282893184 0 0.2185883431182947 0.18019736283949719 0 0.224700362040408 0.22206622194729711 0 0.18124454140915969 0.18790916706335251 0 0.21858834311891909 0.81980263716112767 0 0.17777405986036951 0.81832336108265358 0 0.22556077506376701 0.77837424984191617 0 0.1215415378367805 0.72939333680004137 0 0.1020579365089687 0.69352219419301997 0 0.15332765547575641 0.71200081858233666 0 0.49695729691142171 0.25014895411178018 0 0.50760557329222289 0.20700468884612061 0 0.54248833945060504 0.2520322959927106 0 0.15720202157091859 0.60665697304410315 0 0.14934928745814749 0.55042914607228977 0 0.18381867841758909 0.57774125163628387 0 0.90416666666660628 0.9041666666666166 0 0.85170973911348691 0.93569607295217616 0 0.85600844944837662 0.88483418979512773 0 0.90416666666668166 0.20416666666667119 0 0.8517097391133297 0.2356960729520409 0 0.85600844944842547 0.1848341897950983 0 0.17933913398461551 0.2350063570234002 0 0.13737030665753211 0.20313708640667491 0 0.18124454140915969 0.18790916706335251 0 0.18269480424590959 0.75905448272264375 0 0.17777405986036951 0.81832336108265358 0 0.1382744753146134 0.79650574229207483 0 0.1216098864341134 0.50637075089503902 0 0.15801167086041079 0.46008690540259539 0 0.16618607197337229 0.50652878253548905 0 0.50760557329222289 0.20700468884612061 0 0.55306006949600994 0.20198184231352201 0 0.54248833945060504 0.2520322959927106 0 0.75000000000034661 1 0 0.7000000000006934 1 0 0.7250000000005199 0.94981617647078953 0 0.69999999999999984 0.29999999999999999 0 0.72500000000000064 0.2498161764706 0 0.74999999999999989 0.29999999999999999 0 0.72525833953073282 0.1032114801687094 0 0.68391457121233579 0.14440470121196541 0 0.68330259535470161 0.10038702501083881 0 0.43249999999999988 0.43937499999999979 0 0.46655310992796922 0.39650496622958609 0 0.48858720058566618 0.43964267759203868 0 0.19901705110390991 0.9175543425573498 0 0.14617343800780541 0.93808063414349496 0 0.16206583317966519 0.89685560785156404 0 0.19922788606653311 0.085920220746880993 0 0.16141998738593399 0.10404039647458049 0 0.14618258501891079 0.062070108745602003 0 0.31378396441836959 0.70157213313026345 0 0.26439878998046262 0.7048065392091396 0 0.27820712747429932 0.65530134213254643 0 0.1216098864341134 0.50637075089503902 0 0.113541300460994 0.46208784312094731 0 0.15801167086041079 0.46008690540259539 0 0.6084546825910605 0.37989672713932537 0 0.65481233915350323 0.35652751921065562 0 0.63912439215427275 0.41063340167983359 0 0.19901705110390991 0.9175543425573498 0 0.18474005699953849 0.96231585248064622 0 0.14617343800780541 0.93808063414349496 0 0.19922788606653311 0.085920220746880993 0 0.14618258501891079 0.062070108745602003 0 0.184418230509967 0.038773194583122873 0 0.38244435121258652 0.51653317813019495 0 0.35024835142131061 0.48654922671676981 0 0.3908716102680424 0.47010282357248828 0 0.82709327591102189 0.14937141670914489 0 0.77144070960558853 0.14311854477243749 0 0.80076557130237269 0.1154587552654202 0 0.82709327591091286 0.84937141670920724 0 0.76901770135486491 0.84293557325473656 0 0.80041942726660109 0.81543261647703358 0 0.43698630808430822 0.080423614171545449 0 0.44288491854585582 0.14116182884956319 0 0.39823268594401579 0.1116623613130045 0 0.39801143831225599 0.16651381068160659 0 0.39823268594401579 0.1116623613130045 0 0.44288491854585582 0.14116182884956319 0 0.36575549820117997 0.31677992835137742 0 0.3786248352540974 0.27082301512024259 0 0.41914690343363781 0.30688979866601612 0 0.42377727103934271 0.25099357235810238 0 0.41914690343363781 0.30688979866601612 0 0.3786248352540974 0.27082301512024259 0 0.049706944316475897 0.72477277076253799 0 0.1020579365089687 0.69352219419301997 0 0.090953281884486245 0.7564451946902494 0 0.1215415378367805 0.72939333680004137 0 0.090953281884486245 0.7564451946902494 0 0.1020579365089687 0.69352219419301997 0 0.1247745017231483 0.27198077544791172 0 0.093851963071650835 0.30582068233324772 0 0.095326043202144745 0.24554465089224409 0 0.049706944316556423 0.27522722923869108 0 0.095326043202144745 0.24554465089224409 0 0.093851963071650835 0.30582068233324772 0 0.77354604466818633 0.40378688774472771 0 0.81973119833356312 0.43505687159469048 0 0.77972660463949339 0.45529290596363098 0 0.43249999999999988 0.43937499999999979 0 0.43507373378304309 0.49699695397193322 0 0.3908716102680424 0.47010282357248828 0 0.26573297623774761 0.59828298563722948 0 0.2459498854893499 0.63248470766216769 0 0.22549374774072969 0.58452645269293457 0 0.72500000000000064 0.7952620967744265 0 0.77094201086366854 0.79647480515688507 0 0.76901770135486491 0.84293557325473656 0 0.72525833953073282 0.1032114801687094 0 0.76878382444651716 0.097147941686331368 0 0.77144070960558853 0.14311854477243749 0 0.72500000000000064 0.7952620967744265 0 0.68697391633157634 0.84450604838764298 0 0.68024162096458085 0.79868546898116533 0 0.31378396441836959 0.70157213313026345 0 0.29904318922293632 0.74132814928635593 0 0.26439878998046262 0.7048065392091396 0 0.31378396441836959 0.70157213313026345 0 0.35415581127540569 0.73730480045900215 0 0.29904318922293632 0.74132814928635593 0 0.61343887413683884 0.856862479058357 0 0.65005442820240822 0.82644988530054031 0 0.66412543161245952 0.88015090885499059 0 0.68697391633157634 0.84450604838764298 0 0.66412543161245952 0.88015090885499059 0 0.65005442820240822 0.82644988530054031 0 0.083411279318375747 0.91030024466934134 0 0.065374659239661639 0.8551091961254178 0 0.10562472963403439 0.87143394428979881 0 0.083411279318303222 0.089699755330707398 0 0.1053400320299198 0.12877248826361379 0 0.065374659239632718 0.1448908038746782 0 0.55306006949600994 0.20198184231352201 0 0.59443395090188023 0.18455690917515069 0 0.59814117807200873 0.23398510860739519 0 0.84999999999999987 0.29999999999999999 0 0.89999999999999991 0.29999999999999999 0 0.87430060258887643 0.34056085888204451 0 0.84999999999999987 0.69999999999999996 0 0.87712158428786946 0.65709029563313581 0 0.89999999999999991 0.69999999999999996 0 0.34258405725730701 0.4444034294386992 0 0.3908716102680424 0.47010282357248828 0 0.35024835142131061 0.48654922671676981 0 0.26573297623774761 0.59828298563722948 0 0.31502927232353312 0.6134992213375432 0 0.27820712747429932 0.65530134213254643 0 0.91696753777131557 0.497780560203536 0 0.86907294890112186 0.52008116128001669 0 0.88594198078881503 0.46167788676578442 0 0.84723782639812573 0.48638347960178252 0 0.88594198078881503 0.46167788676578442 0 0.86907294890112186 0.52008116128001669 0 0.7152569930854884 0.5237994455134295 0 0.77151014687832564 0.54436834383023036 0 0.71809016091162536 0.58185040402320831 0 0.90416666666660628 0.9041666666666166 0 0.89898474358632463 0.95391965591118966 0 0.85170973911348691 0.93569607295217616 0 0.90416666666668166 0.20416666666667119 0 0.89898474358614167 0.25391965591104898 0 0.8517097391133297 0.2356960729520409 0 0.91750694127107502 0.36982372220068471 0 0.95780851984364423 0.34215720972155339 0 0.95871855522754235 0.40006508612975411 0 0.91750694127105259 0.63017627779935648 0 0.95867599106212187 0.60011091146651041 0 0.9578014258160763 0.65787212321113708 0 0.90299850604011456 0.79563452813489832 0 0.88088768115933802 0.84674609810493673 0 0.84725310900444062 0.80779732082917555 0 0.90299850604006393 0.09563452813493091 0 0.88088768115941807 0.14674609810479519 0 0.84725310900442086 0.10779732082922661 0 0.1216098864341134 0.50637075089503902 0 0.16618607197337229 0.50652878253548905 0 0.14934928745814749 0.55042914607228977 0 0.20050006573841939 0.53248514016039872 0 0.14934928745814749 0.55042914607228977 0 0.16618607197337229 0.50652878253548905 0 0.80185942888539485 0.77452061303608133 0 0.84725310900444062 0.80779732082917555 0 0.80041942726660109 0.81543261647703358 0 0.80185942888501827 0.074520613036224564 0 0.84725310900442086 0.10779732082922661 0 0.80076557130237269 0.1154587552654202 0 0.083105206071452636 0.79992298667296435 0 0.065374659239661639 0.8551091961254178 0 0.038512288486097702 0.8155852717111195 0 0.083105206071467416 0.20007701332709979 0 0.038512288486115001 0.1844147282893184 0 0.065374659239632718 0.1448908038746782 0 0.54782696902220018 0.79245182748204157 0 0.59636844454254345 0.75937156204589151 0 0.60294066490120068 0.80851322453934582 0 0.083411279318375747 0.91030024466934134 0 0.0443105827531413 0.89858748162559932 0 0.065374659239661639 0.8551091961254178 0 0.083411279318303222 0.089699755330707398 0 0.065374659239632718 0.1448908038746782 0 0.044310582753132287 0.101412518374475 0 0.84999999999965292 1 0 0.81486180804382891 0.96321394949790495 0 0.85170973911348691 0.93569607295217616 0 0.84999999999999987 0.29999999999999999 0 0.81486180804364938 0.26321394949780091 0 0.8517097391133297 0.2356960729520409 0 0.4656888918609538 0.78493261229743638 0 0.45677673713123867 0.84253684404072415 0 0.42609163930740518 0.80361684430568059 0 0.39536230704883951 0.84069429572832477 0 0.42609163930740518 0.80361684430568059 0 0.45677673713123867 0.84253684404072415 0 0.6236733212988993 0.14864538214901801 0 0.56202748619534593 0.15054058349222879 0 0.58516465772821369 0.11653801664834119 0 0.57412547362576272 0.58273804879550706 0 0.63065402604362242 0.59661356661633302 0 0.5991018319127801 0.62925360607495295 0 0.61343887413683884 0.856862479058357 0 0.5832743223239254 0.88483152652961872 0 0.55899371797446828 0.85003102233514438 0 0.50202631463681879 0.87892870825713787 0 0.55899371797446828 0.85003102233514438 0 0.54783390826260769 0.89287767010860219 0 0.51076801031701946 0.1202837388510348 0 0.54979595918804436 0.1060565713905809 0 0.56202748619534593 0.15054058349222879 0 0.55306006949600994 0.20198184231352201 0 0.59814117807200873 0.23398510860739519 0 0.54248833945060504 0.2520322959927106 0 0.83573492347052902 0.36590755630746369 0 0.82500000000000062 0.33010209762754811 0 0.87430060258887643 0.34056085888204451 0 0.83758014339878906 0.63222013025741819 0 0.87712158428786946 0.65709029563313581 0 0.82457059160610424 0.66831947184359608 0 0.49102375406324739 0.49123754822244059 0 0.53823865529665704 0.45873898050322898 0 0.53330375813596242 0.50827942741749099 0 0.52289427570932567 0.3932284363388488 0 0.57744073070774993 0.41535148636609359 0 0.53823865529665704 0.45873898050322898 0 0.4089290844030305 0.58728915500154233 0 0.37272913873093971 0.56192925302619479 0 0.42644501560315817 0.54603747078095544 0 0.49695729691142171 0.25014895411178018 0 0.4604742573284204 0.27846934318264788 0 0.46429753744194407 0.22870891180733599 0 0.90299850604011456 0.79563452813489832 0 0.85491058998424563 0.76004753345552634 0 0.89999166460796554 0.74528934923809909 0 0.90299850604006393 0.09563452813493091 0 0.85491058998398861 0.060047533455626502 0 0.899991664607802 0.045289349238254978 0 0.38244435121258652 0.51653317813019495 0 0.42644501560315817 0.54603747078095544 0 0.37272913873093971 0.56192925302619479 0 0.71406021706547751 0.63292083137662503 0 0.71809016091162536 0.58185040402320831 0 0.74994237037456724 0.62775548192980357 0 0.84723782639812573 0.48638347960178252 0 0.86907294890112186 0.52008116128001669 0 0.81441713509985358 0.51161854125224959 0 0.33122374654748771 0.57588941099433744 0 0.33190227185843768 0.52715113583864037 0 0.37272913873093971 0.56192925302619479 0 0.086179601630648681 0.64647209519980475 0 0.1241190223511371 0.64391885572885044 0 0.1020579365089687 0.69352219419301997 0 0.59999999999894682 0 0 0.64999999999907843 0 0 0.61940220174112337 0.047251958781050582 0 0.18269480424590959 0.75905448272264375 0 0.14335651144331049 0.75565258250209677 0 0.15332765547575641 0.71200081858233666 0 0.22549374774072969 0.58452645269293457 0 0.2459498854893499 0.63248470766216769 0 0.19914261668318661 0.62286739485272158 0 0.38244435121258652 0.51653317813019495 0 0.43507373378304309 0.49699695397193322 0 0.42644501560315817 0.54603747078095544 0 0.65000000000104008 1 0 0.60000000000138687 1 0 0.62065498684670595 0.95224934003983619 0 0.078358742472063481 0.43365249433908948 0 0.068743045408989428 0.48853989837882689 0 0.033550201249889847 0.46247875832467239 0 0.2236846579037573 0.67380363126050236 0 0.27820712747429932 0.65530134213254643 0 0.26439878998046262 0.7048065392091396 0 0.6879972333610942 0.43038561374960838 0 0.68128176404677243 0.38629093627004979 0 0.72622533758026719 0.40265885511101601 0 0.72525833953073282 0.1032114801687094 0 0.7010294155333181 0.056779085686491267 0 0.7527966693318906 0.053051678021508272 0 0.18269480424590959 0.75905448272264375 0 0.15332765547575641 0.71200081858233666 0 0.19068556247388771 0.71028988922845504 0 0.1216098864341134 0.50637075089503902 0 0.085622222639554768 0.53333248912060549 0 0.068743045408989428 0.48853989837882689 0 0.25676291524611189 0.7436741304886243 0 0.26439878998046262 0.7048065392091396 0 0.29904318922293632 0.74132814928635593 0 0.65481233915350323 0.35652751921065562 0 0.68128176404677243 0.38629093627004979 0 0.63912439215427275 0.41063340167983359 0 0.83573492347052902 0.36590755630746369 0 0.86844634540301924 0.38530937474099819 0 0.81308179852519835 0.39754945808726527 0 0.27270076654418179 0.87751467830216623 0 0.2401283238295133 0.85648409884788523 0 0.29209212897034281 0.84715728365233667 0 0.84999999999999987 0.69999999999999996 0 0.85491058998424563 0.76004753345552634 0 0.81864958914779962 0.73589050177899629 0 0.84999999999960507 0 0 0.85491058998398861 0.060047533455626502 0 0.81864958914740749 0.035890501779055867 0 0.18381867841758909 0.57774125163628387 0 0.19914261668318661 0.62286739485272158 0 0.15720202157091859 0.60665697304410315 0 0.22549374774072969 0.58452645269293457 0 0.19914261668318661 0.62286739485272158 0 0.18381867841758909 0.57774125163628387 0 0.79680861578988083 0.92656778056766709 0 0.85170973911348691 0.93569607295217616 0 0.81486180804382891 0.96321394949790495 0 0.79680861578956375 0.22656778056752541 0 0.8517097391133297 0.2356960729520409 0 0.81486180804364938 0.26321394949780091 0 0.20050006573841939 0.53248514016039872 0 0.23975172658309729 0.49475499200540818 0 0.25115337790845271 0.54719303014923271 0 0.28307294598219601 0.50789252727458634 0 0.25115337790845271 0.54719303014923271 0 0.23975172658309729 0.49475499200540818 0 0.20050006573841939 0.53248514016039872 0 0.18381867841758909 0.57774125163628387 0 0.14934928745814749 0.55042914607228977 0 0.19922788606653311 0.085920220746880993 0 0.22985637510995899 0.1298347970200906 0 0.18652628422869419 0.14162325200928061 0 0.33758650185219202 0.23837101504325639 0 0.38831533174504851 0.2189834941785925 0 0.3786248352540974 0.27082301512024259 0 0.42377727103934271 0.25099357235810238 0 0.3786248352540974 0.27082301512024259 0 0.38831533174504851 0.2189834941785925 0 0.19922788606653311 0.085920220746880993 0 0.18652628422869419 0.14162325200928061 0 0.16141998738593399 0.10404039647458049 0 0.54782696902220018 0.79245182748204157 0 0.55363780716230748 0.74348740161571747 0 0.59636844454254345 0.75937156204589151 0 0.82709327591091286 0.84937141670920724 0 0.88088768115933802 0.84674609810493673 0 0.85600844944837662 0.88483418979512773 0 0.82709327591102189 0.14937141670914489 0 0.88088768115941807 0.14674609810479519 0 0.85600844944842547 0.1848341897950983 0 0.27866744612395528 0.38416094670951489 0 0.22033343844674469 0.36963382230740238 0 0.25966125648670141 0.34351016742083729 0 0 0.50000000000205869 0 0.033550201249889847 0.46247875832467239 0 0.068743045408989428 0.48853989837882689 0 0.31378396441836959 0.70157213313026345 0 0.36622285152418499 0.69092437780804039 0 0.35415581127540569 0.73730480045900215 0 0.77293540622714185 0.59448302402785813 0 0.71809016091162536 0.58185040402320831 0 0.77151014687832564 0.54436834383023036 0 0.7152569930854884 0.5237994455134295 0 0.69385896817107129 0.48377516041410151 0 0.73947346780852752 0.49062440112282169 0 0.15801167086041079 0.46008690540259539 0 0.191953871957803 0.42546416763755879 0 0.19604738184454831 0.47787523520405789 0 0.57667858002728545 0.078486105337742612 0 0.61940220174112337 0.047251958781050582 0 0.61956000905586006 0.1043312481793135 0 0.65408113592120842 0.073941773121567966 0 0.61956000905586006 0.1043312481793135 0 0.61940220174112337 0.047251958781050582 0 0 0.55000000000173355 0 0 0.50000000000205869 0 0.044576108720083309 0.53509043209532614 0 0.65507451745379841 0.92229208810758578 0 0.62065498684670595 0.95224934003983619 0 0.61885627562261258 0.90282959257498208 0 0.57724883562309992 0.92155686857100794 0 0.61885627562261258 0.90282959257498208 0 0.62065498684670595 0.95224934003983619 0 0.91750694127107502 0.36982372220068471 0 0.86844634540301924 0.38530937474099819 0 0.87430060258887643 0.34056085888204451 0 0.91750694127105259 0.63017627779935648 0 0.87712158428786946 0.65709029563313581 0 0.87159648282691515 0.61285406320581504 0 0.33123028043633618 0.77629643437932982 0 0.29904318922293632 0.74132814928635593 0 0.35415581127540569 0.73730480045900215 0 0.86411095495256451 0.42388805655111889 0 0.84925632466077294 0.45359738909549091 0 0.81973119833356312 0.43505687159469048 0 0.43846182030517877 0.64845797726506715 0 0.47913475093885149 0.66010775372412711 0 0.43323420005758778 0.6913544522562407 0 0.18269480424590959 0.75905448272264375 0 0.19068556247388771 0.71028988922845504 0 0.2248999640082178 0.72584299459689172 0 0.39536230704883951 0.84069429572832477 0 0.38586766253264881 0.78219501014812498 0 0.42609163930740518 0.80361684430568059 0 0.59999999999999976 0.69999999999999996 0 0.63221990677827677 0.73442891067859706 0 0.59636844454254345 0.75937156204589151 0 0.27866744612395528 0.38416094670951489 0 0.24049127783545701 0.41270748208749802 0 0.22033343844674469 0.36963382230740238 0 0.82709327591091286 0.84937141670920724 0 0.84725310900444062 0.80779732082917555 0 0.88088768115933802 0.84674609810493673 0 0.82709327591102189 0.14937141670914489 0 0.84725310900442086 0.10779732082922661 0 0.88088768115941807 0.14674609810479519 0 0.1650278706801647 0.38791388161335733 0 0.18434624290945251 0.35208838264196463 0 0.22033343844674469 0.36963382230740238 0 0.4409427642593301 0.35743108089689513 0 0.49077833859261139 0.35229981449445641 0 0.46655310992796922 0.39650496622958609 0 0.80185942888539485 0.77452061303608133 0 0.81864958914779962 0.73589050177899629 0 0.85491058998424563 0.76004753345552634 0 0.80185942888501827 0.074520613036224564 0 0.81864958914740749 0.035890501779055867 0 0.85491058998398861 0.060047533455626502 0 0.29999999999926641 0 0 0.34999999999912063 0 0 0.32541448401678508 0.046215317981507749 0 0.35000000000145642 1 0 0.30000000000124832 1 0 0.32544832635163229 0.95485394099568932 0 0.4656888918609538 0.78493261229743638 0 0.50731287292894423 0.78963574450233831 0 0.50627822638148745 0.8263979829520941 0 0.2185883431182947 0.18019736283949719 0 0.25557216766470708 0.15874861286892261 0 0.26429849586623999 0.19346700179430079 0 1 0.29999999999999999 0 1 0.34999999999993492 0 0.95780851984364423 0.34215720972155339 0 1 0.29999999999999999 0 0.95780851984364423 0.34215720972155339 0 0.94999999999999996 0.29999999999999999 0 1 0.69999999999999996 0 0.94999999999999996 0.69999999999999996 0 0.9578014258160763 0.65787212321113708 0 1 0.69999999999999996 0 0.9578014258160763 0.65787212321113708 0 1 0.64999999999986979 0 0.91750694127107502 0.36982372220068471 0 0.90594285160987287 0.4141265964174129 0 0.86844634540301924 0.38530937474099819 0 0.91750694127105259 0.63017627779935648 0 0.87159648282691515 0.61285406320581504 0 0.91143117093204207 0.58709913730335972 0 0.74999999999999989 0.69999999999999996 0 0.7750489929959945 0.66593931409600093 0 0.79999999999999982 0.69999999999999996 0 0.74999999999999989 0.29999999999999999 0 0.79999999999999982 0.29999999999999999 0 0.78145581580700685 0.34881365920033602 0 0.54999999999999993 0.69999999999999996 0 0.57484956128872922 0.66573805030881994 0 0.59999999999999976 0.69999999999999996 0 0.90299850604011456 0.79563452813489832 0 0.94399509803918602 0.75600490196082126 0 0.95386563387742829 0.80414874155775029 0 0.90416666666660628 0.9041666666666166 0 0.95391631417670719 0.89584263333814784 0 0.94399509803919068 0.9439950980391687 0 0.90299850604006393 0.09563452813493091 0 0.94399509803922566 0.056004901960802607 0 0.95386563387744361 0.1041487415577465 0 0.90416666666668166 0.20416666666667119 0 0.95391631417672862 0.19584263333809451 0 0.94399509803921056 0.24399509803922639 0 0.22278230690790279 0.44824268025881547 0 0.19604738184454831 0.47787523520405789 0 0.191953871957803 0.42546416763755879 0 0.90299850604011456 0.79563452813489832 0 0.89999166460796554 0.74528934923809909 0 0.94399509803918602 0.75600490196082126 0 0.90299850604006393 0.09563452813493091 0 0.899991664607802 0.045289349238254978 0 0.94399509803922566 0.056004901960802607 0 0.49102375406324739 0.49123754822244059 0 0.47793794143994173 0.52940715638744962 0 0.43507373378304309 0.49699695397193322 0 0.90416666666660628 0.9041666666666166 0 0.94399509803919068 0.9439950980391687 0 0.89898474358632463 0.95391965591118966 0 0.90416666666668166 0.20416666666667119 0 0.94399509803921056 0.24399509803922639 0 0.89898474358614167 0.25391965591104898 0 0.65394964615507722 0.22666784374016369 0 0.62657463266645097 0.26524202571255862 0 0.59814117807200873 0.23398510860739519 0 0.6084546825910605 0.37989672713932537 0 0.63912439215427275 0.41063340167983359 0 0.57744073070774993 0.41535148636609359 0 0.61209567303293111 0.44669033081290321 0 0.57744073070774993 0.41535148636609359 0 0.63912439215427275 0.41063340167983359 0 0.25676291524611189 0.7436741304886243 0 0.22556077506376701 0.77837424984191617 0 0.2248999640082178 0.72584299459689172 0 0.61343887413683884 0.856862479058357 0 0.60294066490120068 0.80851322453934582 0 0.65005442820240822 0.82644988530054031 0 0.64999999999907843 0 0 0.66369801598854572 0.036327466368102787 0 0.61940220174112337 0.047251958781050582 0 0.40326160981139969 0.73346192995102844 0 0.38586766253264881 0.78219501014812498 0 0.35415581127540569 0.73730480045900215 0 0.33123028043633618 0.77629643437932982 0 0.35415581127540569 0.73730480045900215 0 0.38586766253264881 0.78219501014812498 0 0.26573297623774761 0.59828298563722948 0 0.29110487519241501 0.56588143995431495 0 0.31502927232353312 0.6134992213375432 0 0.77846603114747959 0.49850927265137401 0 0.81441713509985358 0.51161854125224959 0 0.77151014687832564 0.54436834383023036 0 0.82862096804812391 0.55037090955459045 0 0.77151014687832564 0.54436834383023036 0 0.81441713509985358 0.51161854125224959 0 0.50000000000205869 1 0 0.45000000000187229 1 0 0.47135117303824892 0.95556877749289892 0 0.44999999999882923 0 0 0.49999999999869432 0 0 0.47040171442036788 0.044141676406503738 0 0 0.7000000000006934 0 0 0.65000000000104008 0 0.046634677244967337 0.671418230738282 0 0 0.35000000000145642 0 0 0.30000000000124832 0 0.046389130980076937 0.32668781832131749 0 0.31378396441836959 0.70157213313026345 0 0.27820712747429932 0.65530134213254643 0 0.32263089806001177 0.66003674931826484 0 0.33122374654748771 0.57588941099433744 0 0.31502927232353312 0.6134992213375432 0 0.29110487519241501 0.56588143995431495 0 0.26573297623774761 0.59828298563722948 0 0.27820712747429932 0.65530134213254643 0 0.2459498854893499 0.63248470766216769 0 0.14474682429600511 0.85524784522713515 0 0.16206583317966519 0.89685560785156404 0 0.1241151115713819 0.9045666525468371 0 0.14332333627550789 0.14578431753966009 0 0.12372429750337779 0.095814237875728972 0 0.16141998738593399 0.10404039647458049 0 0.64753070846764316 0.77332939069435502 0 0.59636844454254345 0.75937156204589151 0 0.63221990677827677 0.73442891067859706 0 0.14474682429600511 0.85524784522713515 0 0.1241151115713819 0.9045666525468371 0 0.10562472963403439 0.87143394428979881 0 0.14332333627550789 0.14578431753966009 0 0.1053400320299198 0.12877248826361379 0 0.12372429750337779 0.095814237875728972 0 0.77354604466818633 0.40378688774472771 0 0.81308179852519835 0.39754945808726527 0 0.81973119833356312 0.43505687159469048 0 0.54782696902220018 0.79245182748204157 0 0.50945740445113552 0.75476055527778108 0 0.55363780716230748 0.74348740161571747 0 0.2236846579037573 0.67380363126050236 0 0.2459498854893499 0.63248470766216769 0 0.27820712747429932 0.65530134213254643 0 0.77293540622714185 0.59448302402785813 0 0.74994237037456724 0.62775548192980357 0 0.71809016091162536 0.58185040402320831 0 0 0.79999999999999982 0 0 0.75000000000034661 0 0.04408157711937423 0.7728941757575627 0 0 0.25000000000104028 0 0 0.20000000000083221 0 0.044081577119474857 0.2271058242433576 0 0.19999999999955789 0 0 0.24999999999941211 0 0 0.22668068146512929 0.045875643423131329 0 0.25000000000104028 1 0 0.20000000000083221 1 0 0.22850979588452081 0.95594428570238643 0 0.47357141910802508 0.1873585799078378 0 0.44288491854585582 0.14116182884956319 0 0.48466639505193998 0.1421439844745814 0 0.59999999999999976 0.29999999999999999 0 0.5794309697024993 0.27124795968204829 0 0.62657463266645097 0.26524202571255862 0 0.43249999999999988 0.43937499999999979 0 0.42161023666869668 0.39493916313643851 0 0.46655310992796922 0.39650496622958609 0 0.31068898841644388 0.47541502461811092 0 0.33190227185843768 0.52715113583864037 0 0.28307294598219601 0.50789252727458634 0 0.35024835142131061 0.48654922671676981 0 0.33190227185843768 0.52715113583864037 0 0.31068898841644388 0.47541502461811092 0 0.35864735590330371 0.63903383440414463 0 0.36622285152418499 0.69092437780804039 0 0.32263089806001177 0.66003674931826484 0 0.31378396441836959 0.70157213313026345 0 0.32263089806001177 0.66003674931826484 0 0.36622285152418499 0.69092437780804039 0 0.86956835336234861 0.571283299838105 0 0.90900154012161016 0.53607784105648792 0 0.91143117093204207 0.58709913730335972 0 0.6499999999999998 0.29999999999999999 0 0.65481233915350323 0.35652751921065562 0 0.61959173890754571 0.33832250091341232 0 0.4409427642593301 0.35743108089689513 0 0.46226845272279993 0.31901800744800313 0 0.49077833859261139 0.35229981449445641 0 0.5 0.29999999999999999 0 0.49077833859261139 0.35229981449445641 0 0.46226845272279993 0.31901800744800313 0 0.14999999999970359 0 0 0.19999999999955789 0 0 0.184418230509967 0.038773194583122873 0 0.20000000000083221 1 0 0.15000000000062411 1 0 0.18474005699953849 0.96231585248064622 0 1 0.49999999999950101 0 1 0.54999999999963112 0 0.95631871884947484 0.51827533208233789 0 0.38586766253264881 0.78219501014812498 0 0.42676259796334498 0.76772545931379299 0 0.42609163930740518 0.80361684430568059 0 0.20050006573841939 0.53248514016039872 0 0.22549374774072969 0.58452645269293457 0 0.18381867841758909 0.57774125163628387 0 0.065374659239661639 0.8551091961254178 0 0.1074251789111534 0.83564394292147814 0 0.10562472963403439 0.87143394428979881 0 0.065374659239632718 0.1448908038746782 0 0.1053400320299198 0.12877248826361379 0 0.106902708054812 0.16453234188234539 0 0.1650278706801647 0.38791388161335733 0 0.14223753364722069 0.3341983344262433 0 0.18434624290945251 0.35208838264196463 0 0.43249999999999988 0.43937499999999979 0 0.46111841286828259 0.46690301029591341 0 0.43507373378304309 0.49699695397193322 0 0.83758014339878906 0.63222013025741819 0 0.81723410853263523 0.59419663659258926 0 0.87159648282691515 0.61285406320581504 0 0.19670163708476801 0.31472518408333222 0 0.18434624290945251 0.35208838264196463 0 0.14223753364722069 0.3341983344262433 0 0.75000000000034661 1 0 0.7250000000005199 0.94981617647078953 0 0.770759834363826 0.95919399014344442 0 0.74999999999999989 0.29999999999999999 0 0.72500000000000064 0.2498161764706 0 0.77075983436335049 0.25919399014334171 0 0.69999999999999984 0.29999999999999999 0 0.67933712972090698 0.25920070958121938 0 0.72500000000000064 0.2498161764706 0 0.57611405284611883 0.50165903596042916 0 0.53330375813596242 0.50827942741749099 0 0.53823865529665704 0.45873898050322898 0 0.6499999999999998 0.29999999999999999 0 0.68887083591306764 0.33632058575757479 0 0.65481233915350323 0.35652751921065562 0 0.27866744612395528 0.38416094670951489 0 0.33277555741076909 0.36432196682010132 0 0.31778888742534622 0.40581751814196781 0 0.49102375406324739 0.49123754822244059 0 0.43507373378304309 0.49699695397193322 0 0.46111841286828259 0.46690301029591341 0 0.94999999999999996 0.69999999999999996 0 0.97166519676947294 0.73337114490064459 0 0.94399509803918602 0.75600490196082126 0 0.94999999999986839 0 0 0.97166519676946894 0.033371144900598393 0 0.94399509803922566 0.056004901960802607 0 0.94999999999999996 0.29999999999999999 0 0.94399509803921056 0.24399509803922639 0 0.97166519676951801 0.26662885509932011 0 0.94999999999979179 1 0 0.94399509803919068 0.9439950980391687 0 0.97166519676946206 0.96662885509935492 0 0.34258405725730701 0.4444034294386992 0 0.29124338931648802 0.43334555462578611 0 0.31778888742534622 0.40581751814196781 0 0.27866744612395528 0.38416094670951489 0 0.31778888742534622 0.40581751814196781 0 0.29124338931648802 0.43334555462578611 0 0.36575549820117997 0.31677992835137742 0 0.33277555741076909 0.36432196682010132 0 0.32752639306529541 0.32610012995269699 0 0.35752321586431363 0.9185439911803448 0 0.32544832635163229 0.95485394099568932 0 0.30864387279288652 0.89906554525974958 0 0.27609987656793722 0.94991445621608572 0 0.30864387279288652 0.89906554525974958 0 0.32544832635163229 0.95485394099568932 0 0.33123028043633618 0.77629643437932982 0 0.30857225866488791 0.81101973481716805 0 0.2792923945214143 0.77665808831789485 0 0.33758650185219202 0.23837101504325639 0 0.29132859388405002 0.27203693976649962 0 0.28040350263641872 0.23054717217092141 0 0.4409427642593301 0.35743108089689513 0 0.41914690343363781 0.30688979866601612 0 0.46226845272279993 0.31901800744800313 0 0.14332333627550789 0.14578431753966009 0 0.13737030665753211 0.20313708640667491 0 0.106902708054812 0.16453234188234539 0 0.083105206071467416 0.20007701332709979 0 0.106902708054812 0.16453234188234539 0 0.13737030665753211 0.20313708640667491 0 0.083105206071452636 0.79992298667296435 0 0.1382744753146134 0.79650574229207483 0 0.1074251789111534 0.83564394292147814 0 0.14474682429600511 0.85524784522713515 0 0.1074251789111534 0.83564394292147814 0 0.1382744753146134 0.79650574229207483 0 0.65408113592120842 0.073941773121567966 0 0.7010294155333181 0.056779085686491267 0 0.68330259535470161 0.10038702501083881 0 0.72525833953073282 0.1032114801687094 0 0.68330259535470161 0.10038702501083881 0 0.7010294155333181 0.056779085686491267 0 0.049706944316475897 0.72477277076253799 0 0.046634677244967337 0.671418230738282 0 0.1020579365089687 0.69352219419301997 0 0.086179601630648681 0.64647209519980475 0 0.1020579365089687 0.69352219419301997 0 0.046634677244967337 0.671418230738282 0 0.087545339447545459 0.35122518864182262 0 0.046389130980076937 0.32668781832131749 0 0.093851963071650835 0.30582068233324772 0 0.049706944316556423 0.27522722923869108 0 0.093851963071650835 0.30582068233324772 0 0.046389130980076937 0.32668781832131749 0 0.82709327591091286 0.84937141670920724 0 0.80041942726660109 0.81543261647703358 0 0.84725310900444062 0.80779732082917555 0 0.82709327591102189 0.14937141670914489 0 0.80076557130237269 0.1154587552654202 0 0.84725310900442086 0.10779732082922661 0 0.17933913398461551 0.2350063570234002 0 0.14377654328998779 0.2442024734791064 0 0.13737030665753211 0.20313708640667491 0 0.18269480424590959 0.75905448272264375 0 0.1382744753146134 0.79650574229207483 0 0.14335651144331049 0.75565258250209677 0 0.33758650185219202 0.23837101504325639 0 0.3786248352540974 0.27082301512024259 0 0.33402499257867951 0.28911035184473982 0 0.14332333627550789 0.14578431753966009 0 0.18124454140915969 0.18790916706335251 0 0.13737030665753211 0.20313708640667491 0 0.14474682429600511 0.85524784522713515 0 0.1382744753146134 0.79650574229207483 0 0.17777405986036951 0.81832336108265358 0 0.5 0.29999999999999999 0 0.52752007115234678 0.33170632466418198 0 0.49077833859261139 0.35229981449445641 0 0.27866744612395528 0.38416094670951489 0 0.29644548887253103 0.34914008784168082 0 0.33277555741076909 0.36432196682010132 0 0 0.84999999999965292 0 0 0.79999999999999982 0 0.038512288486097702 0.8155852717111195 0 0 0.20000000000083221 0 0 0.15000000000062411 0 0.038512288486115001 0.1844147282893184 0 0.40326160981139969 0.73346192995102844 0 0.35415581127540569 0.73730480045900215 0 0.36622285152418499 0.69092437780804039 0 0.91696753777131557 0.497780560203536 0 0.96228564064454991 0.48206450662049471 0 0.95631871884947484 0.51827533208233789 0 0.33758650185219202 0.23837101504325639 0 0.31255190597181792 0.19850845631528771 0 0.3572130504031617 0.1874703368446563 0 0.59814117807200873 0.23398510860739519 0 0.62657463266645097 0.26524202571255862 0 0.5794309697024993 0.27124795968204829 0 0.34258405725730701 0.4444034294386992 0 0.31068898841644388 0.47541502461811092 0 0.29124338931648802 0.43334555462578611 0 0.38083244760691543 0.38531983672244652 0 0.35221190152536241 0.40457127605439203 0 0.33277555741076909 0.36432196682010132 0 0.083411279318375747 0.91030024466934134 0 0.10266856499240549 0.95548163909968886 0 0.053064897599294662 0.95186845269532028 0 0.083411279318303222 0.089699755330707398 0 0.053064897599215843 0.048131547304697528 0 0.10266856499169109 0.044518360900210059 0 0.42377727103934271 0.25099357235810238 0 0.4604742573284204 0.27846934318264788 0 0.41914690343363781 0.30688979866601612 0 0.28307294598219601 0.50789252727458634 0 0.25982634974572738 0.46097799597715272 0 0.31068898841644388 0.47541502461811092 0 0.29348325746214782 0.31350119524708198 0 0.29132859388405002 0.27203693976649962 0 0.33402499257867951 0.28911035184473982 0 0.35312867752657662 0.084946736076730367 0 0.39823268594401579 0.1116623613130045 0 0.36246644853392812 0.1399454205365751 0 0.7000000000006934 1 0 0.68015064798562208 0.95924320340003011 0 0.7250000000005199 0.94981617647078953 0 0.42377727103934271 0.25099357235810238 0 0.38831533174504851 0.2189834941785925 0 0.42905200079338551 0.19982395548231649 0 0.53823865529665704 0.45873898050322898 0 0.57744073070774993 0.41535148636609359 0 0.57975577671020095 0.46172033326338591 0 0.33758650185219202 0.23837101504325639 0 0.3572130504031617 0.1874703368446563 0 0.38831533174504851 0.2189834941785925 0 0.29124338931648802 0.43334555462578611 0 0.31068898841644388 0.47541502461811092 0 0.25982634974572738 0.46097799597715272 0 0.6084546825910605 0.37989672713932537 0 0.61959173890754571 0.33832250091341232 0 0.65481233915350323 0.35652751921065562 0 0.40326160981139969 0.73346192995102844 0 0.43323420005758778 0.6913544522562407 0 0.45582236402875981 0.73896743678908217 0 0.33758650185219202 0.23837101504325639 0 0.28040350263641872 0.23054717217092141 0 0.31255190597181792 0.19850845631528771 0 0.79999999999999982 1 0 0.75000000000034661 1 0 0.770759834363826 0.95919399014344442 0 0.74999999999999989 0.29999999999999999 0 0.77075983436335049 0.25919399014334171 0 0.79999999999999982 0.29999999999999999 0 0.6499999999999998 0.29999999999999999 0 0.67933712972090698 0.25920070958121938 0 0.69999999999999984 0.29999999999999999 0 0.39536230704883951 0.84069429572832477 0 0.39767323751400468 0.89584229130535065 0 0.35864759629805099 0.87963482415279515 0 0.54999999999999993 0.69999999999999996 0 0.52584555706968406 0.66664215091846768 0 0.57484956128872922 0.66573805030881994 0 0.35312867752657662 0.084946736076730367 0 0.32541448401678508 0.046215317981507749 0 0.3615861437013822 0.03582617922508851 0 0.35752321586431363 0.9185439911803448 0 0.36184234618600131 0.96443954459096326 0 0.32544832635163229 0.95485394099568932 0 0.35312867752657662 0.084946736076730367 0 0.3615861437013822 0.03582617922508851 0 0.39591832466117061 0.056982757562006353 0 0.35752321586431363 0.9185439911803448 0 0.39641108128798319 0.94356127926187128 0 0.36184234618600131 0.96443954459096326 0 0.083411279318303222 0.089699755330707398 0 0.044310582753132287 0.101412518374475 0 0.053064897599215843 0.048131547304697528 0 0.083411279318375747 0.91030024466934134 0 0.053064897599294662 0.95186845269532028 0 0.0443105827531413 0.89858748162559932 0 0.38083244760691543 0.38531983672244652 0 0.40076539126862748 0.34589349467022118 0 0.42161023666869668 0.39493916313643851 0 0.4409427642593301 0.35743108089689513 0 0.42161023666869668 0.39493916313643851 0 0.40076539126862748 0.34589349467022118 0 0.79999999999999982 0.29999999999999999 0 0.82500000000000062 0.33010209762754811 0 0.78145581580700685 0.34881365920033602 0 0.79999999999999982 0.69999999999999996 0 0.7750489929959945 0.66593931409600093 0 0.82457059160610424 0.66831947184359608 0 0.59999999999999976 0.69999999999999996 0 0.57484956128872922 0.66573805030881994 0 0.62460753523532009 0.66851202781000296 0 0.74999999999999989 0.69999999999999996 0 0.72500000000000064 0.67022701834392062 0 0.7750489929959945 0.66593931409600093 0 0.74999999999999989 0.29999999999999999 0 0.78145581580700685 0.34881365920033602 0 0.73090396928863699 0.33699297293167962 0 0.33758650185219202 0.23837101504325639 0 0.33402499257867951 0.28911035184473982 0 0.29132859388405002 0.27203693976649962 0 0.36575549820117997 0.31677992835137742 0 0.41914690343363781 0.30688979866601612 0 0.40076539126862748 0.34589349467022118 0 0.4409427642593301 0.35743108089689513 0 0.40076539126862748 0.34589349467022118 0 0.41914690343363781 0.30688979866601612 0 0.34258405725730701 0.4444034294386992 0 0.38707855792647411 0.42299362914874578 0 0.3908716102680424 0.47010282357248828 0 0.7000000000006934 1 0 0.65000000000104008 1 0 0.68015064798562208 0.95924320340003011 0 0.49102375406324739 0.49123754822244059 0 0.46111841286828259 0.46690301029591341 0 0.48858720058566618 0.43964267759203868 0 0.4656888918609538 0.78493261229743638 0 0.42676259796334498 0.76772545931379299 0 0.45582236402875981 0.73896743678908217 0 0.40326160981139969 0.73346192995102844 0 0.45582236402875981 0.73896743678908217 0 0.42676259796334498 0.76772545931379299 0 0.59999999999999976 0.29999999999999999 0 0.62657463266645097 0.26524202571255862 0 0.6499999999999998 0.29999999999999999 0 0.40000000000166441 1 0 0.36184234618600131 0.96443954459096326 0 0.39641108128798319 0.94356127926187128 0 0.3999999999989749 0 0 0.39591832466117061 0.056982757562006353 0 0.3615861437013822 0.03582617922508851 0 0.43249999999999988 0.43937499999999979 0 0.48858720058566618 0.43964267759203868 0 0.46111841286828259 0.46690301029591341 0 0.7250000000005199 0.89375000000045834 0 0.7250000000005199 0.94981617647078953 0 0.68987011941058407 0.92105047536677087 0 0.7250000000005199 0.89375000000045834 0 0.75729602384198635 0.92353652857884294 0 0.7250000000005199 0.94981617647078953 0 0.72500000000001008 0.19776155966387679 0 0.75668890529066124 0.2244279804069782 0 0.72500000000000064 0.2498161764706 0 0.72500000000001008 0.19776155966387679 0 0.72500000000000064 0.2498161764706 0 0.69397719155551807 0.2245125647000914 0 0.79999999999999982 0.29999999999999999 0 0.81486180804364938 0.26321394949780091 0 0.84999999999999987 0.29999999999999999 0 0.84999999999965292 1 0 0.79999999999999982 1 0 0.81486180804382891 0.96321394949790495 0 0.1247745017231483 0.27198077544791172 0 0.095326043202144745 0.24554465089224409 0 0.14377654328998779 0.2442024734791064 0 0.1215415378367805 0.72939333680004137 0 0.14335651144331049 0.75565258250209677 0 0.090953281884486245 0.7564451946902494 0 0.72500000000001008 0.19776155966387679 0 0.72634814642510737 0.16106886917518889 0 0.76587607630038135 0.18880039518954719 0 0.72500000000001008 0.19776155966387679 0 0.6865991819015953 0.189116534044597 0 0.72634814642510737 0.16106886917518889 0 0.77144070960558853 0.14311854477243749 0 0.76587607630038135 0.18880039518954719 0 0.72634814642510737 0.16106886917518889 0 0.68391457121233579 0.14440470121196541 0 0.72634814642510737 0.16106886917518889 0 0.6865991819015953 0.189116534044597 0 0.7250000000005199 0.89375000000045834 0 0.72863726579783861 0.85390518901155588 0 0.76891166905518427 0.88835469571185499 0 0.76901770135486491 0.84293557325473656 0 0.76891166905518427 0.88835469571185499 0 0.72863726579783861 0.85390518901155588 0 0 0.20000000000083221 0 0.038512288486115001 0.1844147282893184 0 0.044081577119474857 0.2271058242433576 0 0 0.79999999999999982 0 0.04408157711937423 0.7728941757575627 0 0.038512288486097702 0.8155852717111195 0 0.52375890611712683 0.059318771819432882 0 0.47881186583059909 0.093591717165689425 0 0.47040171442036788 0.044141676406503738 0 0.52122150208832174 0.94089974453840242 0 0.47135117303824892 0.95556877749289892 0 0.47401147028110507 0.91529957330468115 0 0.27474541102162192 0.11822029332053539 0 0.3096713403101819 0.085471541595262421 0 0.32215584939770009 0.1218492143506909 0 0.22278230690790279 0.44824268025881547 0 0.24049127783545701 0.41270748208749802 0 0.25982634974572738 0.46097799597715272 0 0.93732437411268477 0.55911392101136159 0 0.91143117093204207 0.58709913730335972 0 0.90900154012161016 0.53607784105648792 0 0.19901705110390991 0.9175543425573498 0 0.24536017905392571 0.90704567837671446 0 0.22850979588452081 0.95594428570238643 0 0.27609987656793722 0.94991445621608572 0 0.22850979588452081 0.95594428570238643 0 0.24536017905392571 0.90704567837671446 0 0.15720202157091859 0.60665697304410315 0 0.1241190223511371 0.64391885572885044 0 0.1024350934457823 0.60772393977513839 0 0.6499999999999998 0.69999999999999996 0 0.675261390228442 0.65996937624687813 0 0.69999999999999984 0.69999999999999996 0 0.3999999999989749 0 0 0.4320097814748517 0.037406712692169303 0 0.39591832466117061 0.056982757562006353 0 0.40000000000166441 1 0 0.39641108128798319 0.94356127926187128 0 0.4308986359464303 0.96395712492906194 0 0.54999999999999993 0.29999999999999999 0 0.56836770495988642 0.3523062350852913 0 0.52752007115234678 0.33170632466418198 0 0.14474682429600511 0.85524784522713515 0 0.17777405986036951 0.81832336108265358 0 0.19741632902693801 0.86755867406447229 0 0.21858834311891909 0.81980263716112767 0 0.19741632902693801 0.86755867406447229 0 0.17777405986036951 0.81832336108265358 0 0.54782696902220018 0.79245182748204157 0 0.50731287292894423 0.78963574450233831 0 0.50945740445113552 0.75476055527778108 0 0.20000000000083221 1 0 0.18474005699953849 0.96231585248064622 0 0.22850979588452081 0.95594428570238643 0 0.19999999999955789 0 0 0.22668068146512929 0.045875643423131329 0 0.184418230509967 0.038773194583122873 0 0.77846603114747959 0.49850927265137401 0 0.73947346780852752 0.49062440112282169 0 0.77972660463949339 0.45529290596363098 0 0.73483647259922602 0.44789725365921768 0 0.77972660463949339 0.45529290596363098 0 0.73947346780852752 0.49062440112282169 0 0.34258405725730701 0.4444034294386992 0 0.35024835142131061 0.48654922671676981 0 0.31068898841644388 0.47541502461811092 0 0.33123028043633618 0.77629643437932982 0 0.2792923945214143 0.77665808831789485 0 0.29904318922293632 0.74132814928635593 0 0.26573297623774761 0.59828298563722948 0 0.25115337790845271 0.54719303014923271 0 0.29110487519241501 0.56588143995431495 0 0.4656888918609538 0.78493261229743638 0 0.50945740445113552 0.75476055527778108 0 0.50731287292894423 0.78963574450233831 0 0.35312867752657662 0.084946736076730367 0 0.36246644853392812 0.1399454205365751 0 0.32215584939770009 0.1218492143506909 0 0.29348325746214782 0.31350119524708198 0 0.25966125648670141 0.34351016742083729 0 0.24432083401701241 0.3006253385567515 0 0.59999999999999976 0.69999999999999996 0 0.6499999999999998 0.69999999999999996 0 0.63221990677827677 0.73442891067859706 0 0.69999999999921003 0 0 0.7010294155333181 0.056779085686491267 0 0.66369801598854572 0.036327466368102787 0 0.40000000000166441 1 0 0.35000000000145642 1 0 0.36184234618600131 0.96443954459096326 0 0.34999999999912063 0 0 0.3999999999989749 0 0 0.3615861437013822 0.03582617922508851 0 0.43507373378304309 0.49699695397193322 0 0.47793794143994173 0.52940715638744962 0 0.42644501560315817 0.54603747078095544 0 0.14474682429600511 0.85524784522713515 0 0.19741632902693801 0.86755867406447229 0 0.16206583317966519 0.89685560785156404 0 0.19901705110390991 0.9175543425573498 0 0.16206583317966519 0.89685560785156404 0 0.19741632902693801 0.86755867406447229 0 0.35864735590330371 0.63903383440414463 0 0.3977710372045391 0.65868194622830212 0 0.36622285152418499 0.69092437780804039 0 0.7527966693318906 0.053051678021508272 0 0.7010294155333181 0.056779085686491267 0 0.72683645290270404 0.027797073151180601 0 0.71508799138962864 0.36622814920737751 0 0.72622533758026719 0.40265885511101601 0 0.68128176404677243 0.38629093627004979 0 0.79999999999999982 0.69999999999999996 0 0.84999999999999987 0.69999999999999996 0 0.81864958914779962 0.73589050177899629 0 0.79999999999947335 0 0 0.84999999999960507 0 0 0.81864958914740749 0.035890501779055867 0 0.39536230704883951 0.84069429572832477 0 0.35642984951668422 0.80994399665655703 0 0.38586766253264881 0.78219501014812498 0 0.42377727103934271 0.25099357235810238 0 0.46429753744194407 0.22870891180733599 0 0.4604742573284204 0.27846934318264788 0 0.39801143831225599 0.16651381068160659 0 0.42905200079338551 0.19982395548231649 0 0.38831533174504851 0.2189834941785925 0 0.79999999999999982 1 0 0.770759834363826 0.95919399014344442 0 0.81486180804382891 0.96321394949790495 0 0.79999999999999982 0.29999999999999999 0 0.77075983436335049 0.25919399014334171 0 0.81486180804364938 0.26321394949780091 0 0.25195515620380449 0.25883339815888678 0 0.21049769590865089 0.26857363548218488 0 0.224700362040408 0.22206622194729711 0 0.40326160981139969 0.73346192995102844 0 0.42676259796334498 0.76772545931379299 0 0.38586766253264881 0.78219501014812498 0 0.35312867752657662 0.084946736076730367 0 0.3096713403101819 0.085471541595262421 0 0.32541448401678508 0.046215317981507749 0 0.59999999999999976 0.29999999999999999 0 0.6499999999999998 0.29999999999999999 0 0.61959173890754571 0.33832250091341232 0 0.2185883431182947 0.18019736283949719 0 0.18652628422869419 0.14162325200928061 0 0.22985637510995899 0.1298347970200906 0 0.64999999999907843 0 0 0.69999999999921003 0 0 0.66369801598854572 0.036327466368102787 0 0.27499999999933927 0.060310814194988557 0 0.24218496799700481 0.089025544070598317 0 0.22668068146512929 0.045875643423131329 0 0.19922788606653311 0.085920220746880993 0 0.22668068146512929 0.045875643423131329 0 0.24218496799700481 0.089025544070598317 0 0.65507451745379841 0.92229208810758578 0 0.66412543161245952 0.88015090885499059 0 0.68987011941058407 0.92105047536677087 0 0.049706944316475897 0.72477277076253799 0 0.090953281884486245 0.7564451946902494 0 0.04408157711937423 0.7728941757575627 0 0.083105206071452636 0.79992298667296435 0 0.04408157711937423 0.7728941757575627 0 0.090953281884486245 0.7564451946902494 0 0.083105206071467416 0.20007701332709979 0 0.095326043202144745 0.24554465089224409 0 0.044081577119474857 0.2271058242433576 0 0.049706944316556423 0.27522722923869108 0 0.044081577119474857 0.2271058242433576 0 0.095326043202144745 0.24554465089224409 0 0.36575549820117997 0.31677992835137742 0 0.33402499257867951 0.28911035184473982 0 0.3786248352540974 0.27082301512024259 0 0.53245488764484505 0.55078124999999989 0 0.53330375813596242 0.50827942741749099 0 0.57435499076887508 0.54267261987897775 0 0.57611405284611883 0.50165903596042916 0 0.57435499076887508 0.54267261987897775 0 0.53330375813596242 0.50827942741749099 0 0.6499999999999998 0.29999999999999999 0 0.69999999999999984 0.29999999999999999 0 0.68887083591306764 0.33632058575757479 0 0.57611405284611883 0.50165903596042916 0 0.53823865529665704 0.45873898050322898 0 0.57975577671020095 0.46172033326338591 0 0.7750489929959945 0.66593931409600093 0 0.72500000000000064 0.67022701834392062 0 0.74994237037456724 0.62775548192980357 0 0.78145581580700685 0.34881365920033602 0 0.74764719760526988 0.3719647154012321 0 0.73090396928863699 0.33699297293167962 0 0.3999999999989749 0 0 0.44999999999882923 0 0 0.4320097814748517 0.037406712692169303 0 0.45000000000187229 1 0 0.40000000000166441 1 0 0.4308986359464303 0.96395712492906194 0 0.57484956128872922 0.66573805030881994 0 0.5991018319127801 0.62925360607495295 0 0.62460753523532009 0.66851202781000296 0 0.7750489929959945 0.66593931409600093 0 0.79884539758237771 0.62875045078114233 0 0.82457059160610424 0.66831947184359608 0 0.39801143831225599 0.16651381068160659 0 0.36246644853392812 0.1399454205365751 0 0.39823268594401579 0.1116623613130045 0 0.078358742472063481 0.43365249433908948 0 0.033550201249889847 0.46247875832467239 0 0.035463093262830522 0.42673416072819947 0 0.25676291524611189 0.7436741304886243 0 0.2792923945214143 0.77665808831789485 0 0.22556077506376701 0.77837424984191617 0 0.2236846579037573 0.67380363126050236 0 0.2248999640082178 0.72584299459689172 0 0.19068556247388771 0.71028988922845504 0 0.50715858906372158 0.63295939104129484 0 0.5166924242153631 0.59825134841919447 0 0.5498280205245758 0.6290146943450976 0 0.14618258501891079 0.062070108745602003 0 0.12372429750337779 0.095814237875728972 0 0.10266856499169109 0.044518360900210059 0 0.083411279318303222 0.089699755330707398 0 0.10266856499169109 0.044518360900210059 0 0.12372429750337779 0.095814237875728972 0 0.083411279318375747 0.91030024466934134 0 0.1241151115713819 0.9045666525468371 0 0.10266856499240549 0.95548163909968886 0 0.14617343800780541 0.93808063414349496 0 0.10266856499240549 0.95548163909968886 0 0.1241151115713819 0.9045666525468371 0 0.5499999999988151 0 0 0.59999999999894682 0 0 0.57396793757665954 0.037011367187645222 0 0.54782696902220018 0.79245182748204157 0 0.50627822638148745 0.8263979829520941 0 0.50731287292894423 0.78963574450233831 0 0.6499999999999998 0.29999999999999999 0 0.62657463266645097 0.26524202571255862 0 0.67933712972090698 0.25920070958121938 0 0.86956835336234861 0.571283299838105 0 0.86907294890112186 0.52008116128001669 0 0.90900154012161016 0.53607784105648792 0 0.17933913398461551 0.2350063570234002 0 0.224700362040408 0.22206622194729711 0 0.21049769590865089 0.26857363548218488 0 0.43249999999999988 0.43937499999999979 0 0.3908716102680424 0.47010282357248828 0 0.38707855792647411 0.42299362914874578 0 0.27474541102162192 0.11822029332053539 0 0.22985637510995899 0.1298347970200906 0 0.24218496799700481 0.089025544070598317 0 0.64753070846764316 0.77332939069435502 0 0.66427993341343905 0.73232764502436276 0 0.6916490518212759 0.75387992374886192 0 0 0.40000000000166441 0 0.050583896093752537 0.38543522283434112 0 0.035463093262830522 0.42673416072819947 0 0.73483647259922602 0.44789725365921768 0 0.73947346780852752 0.49062440112282169 0 0.69385896817107129 0.48377516041410151 0 0.57484956128872922 0.66573805030881994 0 0.52584555706968406 0.66664215091846768 0 0.5498280205245758 0.6290146943450976 0 0.60000000000138687 1 0 0.55000000000173355 1 0 0.57382506491224949 0.9629411906298494 0 0.068743045408989428 0.48853989837882689 0 0.085622222639554768 0.53333248912060549 0 0.044576108720083309 0.53509043209532614 0 0.083105206071467416 0.20007701332709979 0 0.044081577119474857 0.2271058242433576 0 0.038512288486115001 0.1844147282893184 0 0.083105206071452636 0.79992298667296435 0 0.038512288486097702 0.8155852717111195 0 0.04408157711937423 0.7728941757575627 0 0.28307294598219601 0.50789252727458634 0 0.23975172658309729 0.49475499200540818 0 0.25982634974572738 0.46097799597715272 0 0.43698630808430822 0.080423614171545449 0 0.39591832466117061 0.056982757562006353 0 0.4320097814748517 0.037406712692169303 0 0.4367309254023824 0.92065556789053882 0 0.4308986359464303 0.96395712492906194 0 0.39641108128798319 0.94356127926187128 0 0.80185942888539485 0.77452061303608133 0 0.75841349681148107 0.75422312624214749 0 0.78578450296893509 0.73292684821144505 0 0.80185942888501827 0.074520613036224564 0 0.7527966693318906 0.053051678021508272 0 0.78393852574753176 0.032039079577822822 0 0.6499999999999998 0.69999999999999996 0 0.62460753523532009 0.66851202781000296 0 0.675261390228442 0.65996937624687813 0 0.33123028043633618 0.77629643437932982 0 0.38586766253264881 0.78219501014812498 0 0.35642984951668422 0.80994399665655703 0 0.6405463747586706 0.63290524857395714 0 0.675261390228442 0.65996937624687813 0 0.62460753523532009 0.66851202781000296 0 0.22278230690790279 0.44824268025881547 0 0.191953871957803 0.42546416763755879 0 0.24049127783545701 0.41270748208749802 0 0.077693244765132896 0.56932317963405099 0 0.050069554451969707 0.61308520079857043 0 0.034381862692950467 0.57372682250960894 0 0.25195515620380449 0.25883339815888678 0 0.24432083401701241 0.3006253385567515 0 0.21049769590865089 0.26857363548218488 0 0.46666084890304671 0.57634471035397938 0 0.5166924242153631 0.59825134841919447 0 0.47095389620662098 0.61892551373708504 0 0.50715858906372158 0.63295939104129484 0 0.47095389620662098 0.61892551373708504 0 0.5166924242153631 0.59825134841919447 0 0.72525833953073282 0.1032114801687094 0 0.7527966693318906 0.053051678021508272 0 0.76878382444651716 0.097147941686331368 0 0.80185942888501827 0.074520613036224564 0 0.76878382444651716 0.097147941686331368 0 0.7527966693318906 0.053051678021508272 0 0.72500000000000064 0.7952620967744265 0 0.75841349681148107 0.75422312624214749 0 0.77094201086366854 0.79647480515688507 0 0.80185942888539485 0.77452061303608133 0 0.77094201086366854 0.79647480515688507 0 0.75841349681148107 0.75422312624214749 0 0.72500000000000064 0.7952620967744265 0 0.68024162096458085 0.79868546898116533 0 0.6916490518212759 0.75387992374886192 0 0.64753070846764316 0.77332939069435502 0 0.6916490518212759 0.75387992374886192 0 0.68024162096458085 0.79868546898116533 0 0 0.50000000000205869 0 0 0.45000000000187229 0 0.033550201249889847 0.46247875832467239 0 0.69999999999999984 0.69999999999999996 0 0.675261390228442 0.65996937624687813 0 0.72500000000000064 0.67022701834392062 0 0.71406021706547751 0.63292083137662503 0 0.72500000000000064 0.67022701834392062 0 0.675261390228442 0.65996937624687813 0 0.65408113592120842 0.073941773121567966 0 0.61940220174112337 0.047251958781050582 0 0.66369801598854572 0.036327466368102787 0 0.59999999999894682 0 0 0.61940220174112337 0.047251958781050582 0 0.57396793757665954 0.037011367187645222 0 0.60000000000138687 1 0 0.57382506491224949 0.9629411906298494 0 0.62065498684670595 0.95224934003983619 0 0.33122374654748771 0.57588941099433744 0 0.35765792684946668 0.6000687869219653 0 0.31502927232353312 0.6134992213375432 0 0.35864735590330371 0.63903383440414463 0 0.31502927232353312 0.6134992213375432 0 0.35765792684946668 0.6000687869219653 0 0.15801167086041079 0.46008690540259539 0 0.19604738184454831 0.47787523520405789 0 0.16618607197337229 0.50652878253548905 0 0.078358742472063481 0.43365249433908948 0 0.035463093262830522 0.42673416072819947 0 0.050583896093752537 0.38543522283434112 0 0.19901705110390991 0.9175543425573498 0 0.22850979588452081 0.95594428570238643 0 0.18474005699953849 0.96231585248064622 0 0.19922788606653311 0.085920220746880993 0 0.184418230509967 0.038773194583122873 0 0.22668068146512929 0.045875643423131329 0 0.19922788606653311 0.085920220746880993 0 0.24218496799700481 0.089025544070598317 0 0.22985637510995899 0.1298347970200906 0 0.74999999999999989 0.69999999999999996 0 0.78578450296893509 0.73292684821144505 0 0.75841349681148107 0.75422312624214749 0 0.74999999999934175 0 0 0.78393852574753176 0.032039079577822822 0 0.7527966693318906 0.053051678021508272 0 0 0.60000000000138687 0 0.034381862692950467 0.57372682250960894 0 0.050069554451969707 0.61308520079857043 0 0.2236846579037573 0.67380363126050236 0 0.26439878998046262 0.7048065392091396 0 0.2248999640082178 0.72584299459689172 0 0.6236733212988993 0.14864538214901801 0 0.58516465772821369 0.11653801664834119 0 0.61956000905586006 0.1043312481793135 0 0.26104540868854792 0.81401944968719064 0 0.2792923945214143 0.77665808831789485 0 0.30857225866488791 0.81101973481716805 0 0.42377727103934271 0.25099357235810238 0 0.42905200079338551 0.19982395548231649 0 0.46429753744194407 0.22870891180733599 0 0.27820712747429932 0.65530134213254643 0 0.31502927232353312 0.6134992213375432 0 0.32263089806001177 0.66003674931826484 0 0.61343887413683884 0.856862479058357 0 0.61885627562261258 0.90282959257498208 0 0.5832743223239254 0.88483152652961872 0 0.43698630808430822 0.080423614171545449 0 0.47040171442036788 0.044141676406503738 0 0.47881186583059909 0.093591717165689425 0 0.4367309254023824 0.92065556789053882 0 0.47401147028110507 0.91529957330468115 0 0.47135117303824892 0.95556877749289892 0 0.91696753777131557 0.497780560203536 0 0.95631871884947484 0.51827533208233789 0 0.90900154012161016 0.53607784105648792 0 0.93732437411268477 0.55911392101136159 0 0.90900154012161016 0.53607784105648792 0 0.95631871884947484 0.51827533208233789 0 0.27474541102162192 0.11822029332053539 0 0.25557216766470708 0.15874861286892261 0 0.22985637510995899 0.1298347970200906 0 0.2185883431182947 0.18019736283949719 0 0.22985637510995899 0.1298347970200906 0 0.25557216766470708 0.15874861286892261 0 0.29348325746214782 0.31350119524708198 0 0.33402499257867951 0.28911035184473982 0 0.32752639306529541 0.32610012995269699 0 0.27499999999933927 0.060310814194988557 0 0.32541448401678508 0.046215317981507749 0 0.3096713403101819 0.085471541595262421 0 0.27270076654418179 0.87751467830216623 0 0.24536017905392571 0.90704567837671446 0 0.2401283238295133 0.85648409884788523 0 1 0.44999999999963131 0 1 0.49999999999950101 0 0.96228564064454991 0.48206450662049471 0 0.61343887413683884 0.856862479058357 0 0.66412543161245952 0.88015090885499059 0 0.61885627562261258 0.90282959257498208 0 0 0.45000000000187229 0 0 0.40000000000166441 0 0.035463093262830522 0.42673416072819947 0 0.69999999999999984 0.69999999999999996 0 0.6916490518212759 0.75387992374886192 0 0.66427993341343905 0.73232764502436276 0 0.43846182030517877 0.64845797726506715 0 0.43323420005758778 0.6913544522562407 0 0.3977710372045391 0.65868194622830212 0 0.4367309254023824 0.92065556789053882 0 0.44003836461056539 0.88093474584252718 0 0.47401147028110507 0.91529957330468115 0 0.43846182030517877 0.64845797726506715 0 0.39743091024207589 0.6239520004230239 0 0.43545892161006339 0.61093128915313821 0 0.43846182030517877 0.64845797726506715 0 0.3977710372045391 0.65868194622830212 0 0.39743091024207589 0.6239520004230239 0 0.26429849586623999 0.19346700179430079 0 0.29336099386129338 0.15892013001050981 0 0.31255190597181792 0.19850845631528771 0 0.19670163708476801 0.31472518408333222 0 0.21049769590865089 0.26857363548218488 0 0.24432083401701241 0.3006253385567515 0 0.57724883562309992 0.92155686857100794 0 0.62065498684670595 0.95224934003983619 0 0.57382506491224949 0.9629411906298494 0 0.4409427642593301 0.35743108089689513 0 0.46655310992796922 0.39650496622958609 0 0.42161023666869668 0.39493916313643851 0 0.46666084890304671 0.57634471035397938 0 0.47095389620662098 0.61892551373708504 0 0.43545892161006339 0.61093128915313821 0 0.6879972333610942 0.43038561374960838 0 0.65178832218679827 0.45929119821019959 0 0.63912439215427275 0.41063340167983359 0 0.43698630808430822 0.080423614171545449 0 0.4320097814748517 0.037406712692169303 0 0.47040171442036788 0.044141676406503738 0 0.4367309254023824 0.92065556789053882 0 0.47135117303824892 0.95556877749289892 0 0.4308986359464303 0.96395712492906194 0 0.79680861578988083 0.92656778056766709 0 0.81486180804382891 0.96321394949790495 0 0.770759834363826 0.95919399014344442 0 0.79680861578956375 0.22656778056752541 0 0.81486180804364938 0.26321394949780091 0 0.77075983436335049 0.25919399014334171 0 0.71508799138962864 0.36622814920737751 0 0.68128176404677243 0.38629093627004979 0 0.68887083591306764 0.33632058575757479 0 0.35864735590330371 0.63903383440414463 0 0.32263089806001177 0.66003674931826484 0 0.31502927232353312 0.6134992213375432 0 0.21858834311891909 0.81980263716112767 0 0.2401283238295133 0.85648409884788523 0 0.19741632902693801 0.86755867406447229 0 0.35312867752657662 0.084946736076730367 0 0.32215584939770009 0.1218492143506909 0 0.3096713403101819 0.085471541595262421 0 0.35752321586431363 0.9185439911803448 0 0.35864759629805099 0.87963482415279515 0 0.39767323751400468 0.89584229130535065 0 0.41914690343363781 0.30688979866601612 0 0.4604742573284204 0.27846934318264788 0 0.46226845272279993 0.31901800744800313 0 0.33084213324567391 0.16272720141332131 0 0.32215584939770009 0.1218492143506909 0 0.36246644853392812 0.1399454205365751 0 0.46666084890304671 0.57634471035397938 0 0.42644501560315817 0.54603747078095544 0 0.47793794143994173 0.52940715638744962 0 0 0.60000000000138687 0 0 0.55000000000173355 0 0.034381862692950467 0.57372682250960894 0 0.77354604466818633 0.40378688774472771 0 0.74764719760526988 0.3719647154012321 0 0.78145581580700685 0.34881365920033602 0 0.34999999999912063 0 0 0.3615861437013822 0.03582617922508851 0 0.32541448401678508 0.046215317981507749 0 0.35000000000145642 1 0 0.32544832635163229 0.95485394099568932 0 0.36184234618600131 0.96443954459096326 0 0.57667858002728545 0.078486105337742612 0 0.57396793757665954 0.037011367187645222 0 0.61940220174112337 0.047251958781050582 0 0.47357141910802508 0.1873585799078378 0 0.50760557329222289 0.20700468884612061 0 0.46429753744194407 0.22870891180733599 0 0.49695729691142171 0.25014895411178018 0 0.46429753744194407 0.22870891180733599 0 0.50760557329222289 0.20700468884612061 0 0.33084213324567391 0.16272720141332131 0 0.3572130504031617 0.1874703368446563 0 0.31255190597181792 0.19850845631528771 0 0.6879972333610942 0.43038561374960838 0 0.63912439215427275 0.41063340167983359 0 0.68128176404677243 0.38629093627004979 0 0.65408113592120842 0.073941773121567966 0 0.65290632656860115 0.11434202593454081 0 0.61956000905586006 0.1043312481793135 0 0.33084213324567391 0.16272720141332131 0 0.31255190597181792 0.19850845631528771 0 0.29336099386129338 0.15892013001050981 0 0.61209567303293111 0.44669033081290321 0 0.63912439215427275 0.41063340167983359 0 0.65178832218679827 0.45929119821019959 0 0.086179601630648681 0.64647209519980475 0 0.1024350934457823 0.60772393977513839 0 0.1241190223511371 0.64391885572885044 0 0.44999999999882923 0 0 0.47040171442036788 0.044141676406503738 0 0.4320097814748517 0.037406712692169303 0 0.45000000000187229 1 0 0.4308986359464303 0.96395712492906194 0 0.47135117303824892 0.95556877749289892 0 0.74999999999934175 0 0 0.7527966693318906 0.053051678021508272 0 0.72683645290270404 0.027797073151180601 0 0.74999999999999989 0.69999999999999996 0 0.75841349681148107 0.75422312624214749 0 0.72501250972655151 0.74067302935308721 0 0.69999999999999984 0.69999999999999996 0 0.72501250972655151 0.74067302935308721 0 0.6916490518212759 0.75387992374886192 0 0.74999999999934175 0 0 0.79999999999947335 0 0 0.78393852574753176 0.032039079577822822 0 0.74999999999999989 0.69999999999999996 0 0.79999999999999982 0.69999999999999996 0 0.78578450296893509 0.73292684821144505 0 0.6405463747586706 0.63290524857395714 0 0.5991018319127801 0.62925360607495295 0 0.63065402604362242 0.59661356661633302 0 0.65481233915350323 0.35652751921065562 0 0.68887083591306764 0.33632058575757479 0 0.68128176404677243 0.38629093627004979 0 0.89999999999999991 0.29999999999999999 0 0.94999999999999996 0.29999999999999999 0 0.92012390126144183 0.33123581297173937 0 0.89999999999999991 0.69999999999999996 0 0.92057473616084773 0.66770436535372446 0 0.94999999999999996 0.69999999999999996 0 0.4367309254023824 0.92065556789053882 0 0.39767323751400468 0.89584229130535065 0 0.44003836461056539 0.88093474584252718 0 0.2185883431182947 0.18019736283949719 0 0.18124454140915969 0.18790916706335251 0 0.18652628422869419 0.14162325200928061 0 0.20050006573841939 0.53248514016039872 0 0.19604738184454831 0.47787523520405789 0 0.23975172658309729 0.49475499200540818 0 0.65507451745379841 0.92229208810758578 0 0.61885627562261258 0.90282959257498208 0 0.66412543161245952 0.88015090885499059 0 0.65394964615507722 0.22666784374016369 0 0.67933712972090698 0.25920070958121938 0 0.62657463266645097 0.26524202571255862 0 0.077693244765132896 0.56932317963405099 0 0.034381862692950467 0.57372682250960894 0 0.044576108720083309 0.53509043209532614 0 0.39801143831225599 0.16651381068160659 0 0.38831533174504851 0.2189834941785925 0 0.3572130504031617 0.1874703368446563 0 0.6499999999999998 0.69999999999999996 0 0.69999999999999984 0.69999999999999996 0 0.66427993341343905 0.73232764502436276 0 0.1215415378367805 0.72939333680004137 0 0.15332765547575641 0.71200081858233666 0 0.14335651144331049 0.75565258250209677 0 0.6405463747586706 0.63290524857395714 0 0.63065402604362242 0.59661356661633302 0 0.67529834988829951 0.61613270668143583 0 0.67323294229744413 0.57556450033612505 0 0.67529834988829951 0.61613270668143583 0 0.63065402604362242 0.59661356661633302 0 0.91750694127107502 0.36982372220068471 0 0.87430060258887643 0.34056085888204451 0 0.92012390126144183 0.33123581297173937 0 0.89999999999999991 0.29999999999999999 0 0.92012390126144183 0.33123581297173937 0 0.87430060258887643 0.34056085888204451 0 0.89999999999999991 0.69999999999999996 0 0.87712158428786946 0.65709029563313581 0 0.92057473616084773 0.66770436535372446 0 0.91750694127105259 0.63017627779935648 0 0.92057473616084773 0.66770436535372446 0 0.87712158428786946 0.65709029563313581 0 0.33122374654748771 0.57588941099433744 0 0.29110487519241501 0.56588143995431495 0 0.33190227185843768 0.52715113583864037 0 0.57484956128872922 0.66573805030881994 0 0.5498280205245758 0.6290146943450976 0 0.5991018319127801 0.62925360607495295 0 0.57412547362576272 0.58273804879550706 0 0.5991018319127801 0.62925360607495295 0 0.5498280205245758 0.6290146943450976 0 0.65408113592120842 0.073941773121567966 0 0.66369801598854572 0.036327466368102787 0 0.7010294155333181 0.056779085686491267 0 0.27474541102162192 0.11822029332053539 0 0.32215584939770009 0.1218492143506909 0 0.29336099386129338 0.15892013001050981 0 0.33084213324567391 0.16272720141332131 0 0.29336099386129338 0.15892013001050981 0 0.32215584939770009 0.1218492143506909 0 0.5 0.29999999999999999 0 0.54999999999999993 0.29999999999999999 0 0.52752007115234678 0.33170632466418198 0 0.83573492347052902 0.36590755630746369 0 0.87430060258887643 0.34056085888204451 0 0.86844634540301924 0.38530937474099819 0 0.83758014339878906 0.63222013025741819 0 0.87159648282691515 0.61285406320581504 0 0.87712158428786946 0.65709029563313581 0 0.22278230690790279 0.44824268025881547 0 0.23975172658309729 0.49475499200540818 0 0.19604738184454831 0.47787523520405789 0 1 0.49999999999950101 0 0.95631871884947484 0.51827533208233789 0 0.96228564064454991 0.48206450662049471 0 0.1650278706801647 0.38791388161335733 0 0.13773355295499351 0.42497777642586831 0 0.1117088112799664 0.38831403004970022 0 0.61209567303293111 0.44669033081290321 0 0.57975577671020095 0.46172033326338591 0 0.57744073070774993 0.41535148636609359 0 0.077693244765132896 0.56932317963405099 0 0.1154888278694548 0.56733818459978413 0 0.1024350934457823 0.60772393977513839 0 0.68697391633157634 0.84450604838764298 0 0.65005442820240822 0.82644988530054031 0 0.68024162096458085 0.79868546898116533 0 0.76901770135486491 0.84293557325473656 0 0.77094201086366854 0.79647480515688507 0 0.80041942726660109 0.81543261647703358 0 0.77144070960558853 0.14311854477243749 0 0.76878382444651716 0.097147941686331368 0 0.80076557130237269 0.1154587552654202 0 0.5 0.69999999999999996 0 0.52584555706968406 0.66664215091846768 0 0.54999999999999993 0.69999999999999996 0 0.077693244765132896 0.56932317963405099 0 0.044576108720083309 0.53509043209532614 0 0.085622222639554768 0.53333248912060549 0 0.69999999999921003 0 0 0.72683645290270404 0.027797073151180601 0 0.7010294155333181 0.056779085686491267 0 1 0 0 0.97166519676946894 0.033371144900598393 0 0.94999999999986839 0 0 1 0.69999999999999996 0 0.97166519676947294 0.73337114490064459 0 0.94999999999999996 0.69999999999999996 0 1 0.69999999999999996 0 1 0.74999999999993494 0 0.97166519676947294 0.73337114490064459 0 1 0.29999999999999999 0 0.97166519676951801 0.26662885509932011 0 1 0.24999999999987299 0 1 1 0 0.94999999999979179 1 0 0.97166519676946206 0.96662885509935492 0 1 0 0 1 0.049999999999896842 0 0.97166519676946894 0.033371144900598393 0 1 0.29999999999999999 0 0.94999999999999996 0.29999999999999999 0 0.97166519676951801 0.26662885509932011 0 1 1 0 0.97166519676946206 0.96662885509935492 0 1 0.94999999999997109 0 0 0.55000000000173355 0 0.044576108720083309 0.53509043209532614 0 0.034381862692950467 0.57372682250960894 0 0.6879972333610942 0.43038561374960838 0 0.69385896817107129 0.48377516041410151 0 0.65178832218679827 0.45929119821019959 0 0.33084213324567391 0.16272720141332131 0 0.36246644853392812 0.1399454205365751 0 0.3572130504031617 0.1874703368446563 0 0.65408113592120842 0.073941773121567966 0 0.68330259535470161 0.10038702501083881 0 0.65290632656860115 0.11434202593454081 0 0.16500388252850301 0.66612077714085194 0 0.19068556247388771 0.71028988922845504 0 0.15332765547575641 0.71200081858233666 0 0.82709327591091286 0.84937141670920724 0 0.85600844944837662 0.88483418979512773 0 0.81159157511211755 0.88795995483179491 0 0.82709327591102189 0.14937141670914489 0 0.85600844944842547 0.1848341897950983 0 0.81283102246527783 0.1881007222486438 0 0.79999999999999982 0.29999999999999999 0 0.84999999999999987 0.29999999999999999 0 0.82500000000000062 0.33010209762754811 0 0.79999999999999982 0.69999999999999996 0 0.82457059160610424 0.66831947184359608 0 0.84999999999999987 0.69999999999999996 0 0.59999999999999976 0.69999999999999996 0 0.62460753523532009 0.66851202781000296 0 0.6499999999999998 0.69999999999999996 0 0.39801143831225599 0.16651381068160659 0 0.3572130504031617 0.1874703368446563 0 0.36246644853392812 0.1399454205365751 0 0.69999999999999984 0.29999999999999999 0 0.74999999999999989 0.29999999999999999 0 0.73090396928863699 0.33699297293167962 0 0.69999999999999984 0.69999999999999996 0 0.72500000000000064 0.67022701834392062 0 0.74999999999999989 0.69999999999999996 0 0.6236733212988993 0.14864538214901801 0 0.64011864159029941 0.18789607982138171 0 0.59443395090188023 0.18455690917515069 0 0.20050006573841939 0.53248514016039872 0 0.16618607197337229 0.50652878253548905 0 0.19604738184454831 0.47787523520405789 0 0.79680861578956375 0.22656778056752541 0 0.76587607630038135 0.18880039518954719 0 0.81283102246527783 0.1881007222486438 0 0.79680861578988083 0.92656778056766709 0 0.76891166905518427 0.88835469571185499 0 0.81159157511211755 0.88795995483179491 0 0.71406021706547751 0.63292083137662503 0 0.675261390228442 0.65996937624687813 0 0.67529834988829951 0.61613270668143583 0 0.6405463747586706 0.63290524857395714 0 0.67529834988829951 0.61613270668143583 0 0.675261390228442 0.65996937624687813 0 0.19670163708476801 0.31472518408333222 0 0.168349569971391 0.28054490850913671 0 0.21049769590865089 0.26857363548218488 0 0.47357141910802508 0.1873585799078378 0 0.46429753744194407 0.22870891180733599 0 0.42905200079338551 0.19982395548231649 0 0.59814117807200873 0.23398510860739519 0 0.5794309697024993 0.27124795968204829 0 0.54248833945060504 0.2520322959927106 0 0.6541250972820879 0.49999999999999989 0 0.65178832218679827 0.45929119821019959 0 0.69385896817107129 0.48377516041410151 0 0.54999999999999993 0.29999999999999999 0 0.5794309697024993 0.27124795968204829 0 0.59999999999999976 0.29999999999999999 0 0.7750489929959945 0.66593931409600093 0 0.74994237037456724 0.62775548192980357 0 0.79884539758237771 0.62875045078114233 0 0.77293540622714185 0.59448302402785813 0 0.79884539758237771 0.62875045078114233 0 0.74994237037456724 0.62775548192980357 0 0.14332333627550789 0.14578431753966009 0 0.16141998738593399 0.10404039647458049 0 0.18652628422869419 0.14162325200928061 0 0.38083244760691543 0.38531983672244652 0 0.42161023666869668 0.39493916313643851 0 0.38707855792647411 0.42299362914874578 0 0.43249999999999988 0.43937499999999979 0 0.38707855792647411 0.42299362914874578 0 0.42161023666869668 0.39493916313643851 0 0.43846182030517877 0.64845797726506715 0 0.47095389620662098 0.61892551373708504 0 0.47913475093885149 0.66010775372412711 0 0.50715858906372158 0.63295939104129484 0 0.47913475093885149 0.66010775372412711 0 0.47095389620662098 0.61892551373708504 0 0.69999999999999984 0.69999999999999996 0 0.74999999999999989 0.69999999999999996 0 0.72501250972655151 0.74067302935308721 0 0.4089290844030305 0.58728915500154233 0 0.35765792684946668 0.6000687869219653 0 0.37272913873093971 0.56192925302619479 0 0.69999999999921003 0 0 0.74999999999934175 0 0 0.72683645290270404 0.027797073151180601 0 0.17933913398461551 0.2350063570234002 0 0.21049769590865089 0.26857363548218488 0 0.168349569971391 0.28054490850913671 0 0.14474682429600511 0.85524784522713515 0 0.10562472963403439 0.87143394428979881 0 0.1074251789111534 0.83564394292147814 0 0.14332333627550789 0.14578431753966009 0 0.106902708054812 0.16453234188234539 0 0.1053400320299198 0.12877248826361379 0 0.2236846579037573 0.67380363126050236 0 0.19914261668318661 0.62286739485272158 0 0.2459498854893499 0.63248470766216769 0 0.049999999999899652 0 0 0.053064897599215843 0.048131547304697528 0 0.02576622439977887 0.024532886826226379 0 0 0.050000000000207989 0 0.02576622439977887 0.024532886826226379 0 0.053064897599215843 0.048131547304697528 0 0.050000000000207989 1 0 0.025766224399875661 0.97546711317377799 0 0.053064897599294662 0.95186845269532028 0 0 0.94999999999979179 0 0.053064897599294662 0.95186845269532028 0 0.025766224399875661 0.97546711317377799 0 0.47357141910802508 0.1873585799078378 0 0.48466639505193998 0.1421439844745814 0 0.51729576145820033 0.1683240575987815 0 0.077693244765132896 0.56932317963405099 0 0.085622222639554768 0.53333248912060549 0 0.1154888278694548 0.56733818459978413 0 0.64753070846764316 0.77332939069435502 0 0.63221990677827677 0.73442891067859706 0 0.66427993341343905 0.73232764502436276 0 0.4656888918609538 0.78493261229743638 0 0.42609163930740518 0.80361684430568059 0 0.42676259796334498 0.76772545931379299 0 0.4089290844030305 0.58728915500154233 0 0.39743091024207589 0.6239520004230239 0 0.35765792684946668 0.6000687869219653 0 0.55306006949600994 0.20198184231352201 0 0.50760557329222289 0.20700468884612061 0 0.51729576145820033 0.1683240575987815 0 1 0.8999999999998336 0 1 0.94999999999997109 0 0.97435614836744289 0.92499999999990257 0 1 0.19999999999974799 0 1 0.24999999999987299 0 0.97435614836740092 0.22499999999981049 0 1 0.74999999999993494 0 1 0.7999999999998193 0 0.97435614836745565 0.77499999999987745 0 1 0.049999999999896842 0 1 0.099999999999753911 0 0.97435614836748241 0.074999999999825387 0 0.86411095495256451 0.42388805655111889 0 0.86844634540301924 0.38530937474099819 0 0.90594285160987287 0.4141265964174129 0 0.86956835336234861 0.571283299838105 0 0.91143117093204207 0.58709913730335972 0 0.87159648282691515 0.61285406320581504 0 0 0 0 0.02576622439977887 0.024532886826226379 0 0 0.050000000000207989 0 0 1 0 0 0.94999999999979179 0 0.025766224399875661 0.97546711317377799 0 0 1 0 0.025766224399875661 0.97546711317377799 0 0.050000000000207989 1 0 0 0 0 0.049999999999899652 0 0 0.02576622439977887 0.024532886826226379 0 0.65394964615507722 0.22666784374016369 0 0.64011864159029941 0.18789607982138171 0 0.6865991819015953 0.189116534044597 0 0.25195515620380449 0.25883339815888678 0 0.28040350263641872 0.23054717217092141 0 0.29132859388405002 0.27203693976649962 0 0.61209567303293111 0.44669033081290321 0 0.65178832218679827 0.45929119821019959 0 0.61547661924074692 0.48539576058873962 0 0.6541250972820879 0.49999999999999989 0 0.61547661924074692 0.48539576058873962 0 0.65178832218679827 0.45929119821019959 0 0.19670163708476801 0.31472518408333222 0 0.24432083401701241 0.3006253385567515 0 0.22615676742807109 0.33458786033114157 0 0.15801167086041079 0.46008690540259539 0 0.13773355295499351 0.42497777642586831 0 0.191953871957803 0.42546416763755879 0 0.1650278706801647 0.38791388161335733 0 0.191953871957803 0.42546416763755879 0 0.13773355295499351 0.42497777642586831 0 0.50715858906372158 0.63295939104129484 0 0.52584555706968406 0.66664215091846768 0 0.47913475093885149 0.66010775372412711 0 0.5 0.69999999999999996 0 0.47913475093885149 0.66010775372412711 0 0.52584555706968406 0.66664215091846768 0 0.51076801031701946 0.1202837388510348 0 0.51729576145820033 0.1683240575987815 0 0.48466639505193998 0.1421439844745814 0 0.71406021706547751 0.63292083137662503 0 0.74994237037456724 0.62775548192980357 0 0.72500000000000064 0.67022701834392062 0 0.71508799138962864 0.36622814920737751 0 0.73090396928863699 0.33699297293167962 0 0.74764719760526988 0.3719647154012321 0 0.22278230690790279 0.44824268025881547 0 0.25982634974572738 0.46097799597715272 0 0.23975172658309729 0.49475499200540818 0 0.80185942888539485 0.77452061303608133 0 0.78578450296893509 0.73292684821144505 0 0.81864958914779962 0.73589050177899629 0 0.80185942888501827 0.074520613036224564 0 0.78393852574753176 0.032039079577822822 0 0.81864958914740749 0.035890501779055867 0 0.5 0.29999999999999999 0 0.46226845272279993 0.31901800744800313 0 0.4604742573284204 0.27846934318264788 0 0.6405463747586706 0.63290524857395714 0 0.62460753523532009 0.66851202781000296 0 0.5991018319127801 0.62925360607495295 0 0.79680861578988083 0.92656778056766709 0 0.770759834363826 0.95919399014344442 0 0.75729602384198635 0.92353652857884294 0 0.79680861578956375 0.22656778056752541 0 0.77075983436335049 0.25919399014334171 0 0.75668890529066124 0.2244279804069782 0 0.65394964615507722 0.22666784374016369 0 0.69397719155551807 0.2245125647000914 0 0.67933712972090698 0.25920070958121938 0 0.81973119833356312 0.43505687159469048 0 0.84925632466077294 0.45359738909549091 0 0.81400510706333218 0.47357325943904899 0 0.83758014339878906 0.63222013025741819 0 0.82457059160610424 0.66831947184359608 0 0.79884539758237771 0.62875045078114233 0 0.25676291524611189 0.7436741304886243 0 0.2248999640082178 0.72584299459689172 0 0.26439878998046262 0.7048065392091396 0 0.91696753777131557 0.497780560203536 0 0.90900154012161016 0.53607784105648792 0 0.86907294890112186 0.52008116128001669 0 0.17933913398461551 0.2350063570234002 0 0.168349569971391 0.28054490850913671 0 0.14377654328998779 0.2442024734791064 0 0.1247745017231483 0.27198077544791172 0 0.14377654328998779 0.2442024734791064 0 0.168349569971391 0.28054490850913671 0 0.34258405725730701 0.4444034294386992 0 0.35221190152536241 0.40457127605439203 0 0.38707855792647411 0.42299362914874578 0 0.47357141910802508 0.1873585799078378 0 0.51729576145820033 0.1683240575987815 0 0.50760557329222289 0.20700468884612061 0 0.19670163708476801 0.31472518408333222 0 0.22615676742807109 0.33458786033114157 0 0.18434624290945251 0.35208838264196463 0 0.22033343844674469 0.36963382230740238 0 0.18434624290945251 0.35208838264196463 0 0.22615676742807109 0.33458786033114157 0 0.24432083401701241 0.3006253385567515 0 0.25966125648670141 0.34351016742083729 0 0.22615676742807109 0.33458786033114157 0 0.93814194660195893 0.44426664081746747 0 0.90594285160987287 0.4141265964174129 0 0.95871855522754235 0.40006508612975411 0 0.91750694127107502 0.36982372220068471 0 0.95871855522754235 0.40006508612975411 0 0.90594285160987287 0.4141265964174129 0 0.91750694127105259 0.63017627779935648 0 0.91143117093204207 0.58709913730335972 0 0.95867599106212187 0.60011091146651041 0 0.93732437411268477 0.55911392101136159 0 0.95867599106212187 0.60011091146651041 0 0.91143117093204207 0.58709913730335972 0 0.50715858906372158 0.63295939104129484 0 0.5498280205245758 0.6290146943450976 0 0.52584555706968406 0.66664215091846768 0 0.94399509803918602 0.75600490196082126 0 0.97435614836745565 0.77499999999987745 0 0.95386563387742829 0.80414874155775029 0 0.94399509803922566 0.056004901960802607 0 0.97435614836748241 0.074999999999825387 0 0.95386563387744361 0.1041487415577465 0 0.94399509803921056 0.24399509803922639 0 0.95391631417672862 0.19584263333809451 0 0.97435614836740092 0.22499999999981049 0 0.94399509803919068 0.9439950980391687 0 0.95391631417670719 0.89584263333814784 0 0.97435614836744289 0.92499999999990257 0 0.79680861578988083 0.92656778056766709 0 0.75729602384198635 0.92353652857884294 0 0.76891166905518427 0.88835469571185499 0 0.79680861578956375 0.22656778056752541 0 0.75668890529066124 0.2244279804069782 0 0.76587607630038135 0.18880039518954719 0 0.65394964615507722 0.22666784374016369 0 0.6865991819015953 0.189116534044597 0 0.69397719155551807 0.2245125647000914 0 0.38083244760691543 0.38531983672244652 0 0.38707855792647411 0.42299362914874578 0 0.35221190152536241 0.40457127605439203 0 1 0.7999999999998193 0 0.95386563387742829 0.80414874155775029 0 0.97435614836745565 0.77499999999987745 0 1 0.099999999999753911 0 0.95386563387744361 0.1041487415577465 0 0.97435614836748241 0.074999999999825387 0 1 0.8999999999998336 0 0.97435614836744289 0.92499999999990257 0 0.95391631417670719 0.89584263333814784 0 1 0.19999999999974799 0 0.97435614836740092 0.22499999999981049 0 0.95391631417672862 0.19584263333809451 0 0.84723782639812573 0.48638347960178252 0 0.81400510706333218 0.47357325943904899 0 0.84925632466077294 0.45359738909549091 0 0.54999999999999993 0.29999999999999999 0 0.54248833945060504 0.2520322959927106 0 0.5794309697024993 0.27124795968204829 0 0.94999999999999996 0.29999999999999999 0 0.95780851984364423 0.34215720972155339 0 0.92012390126144183 0.33123581297173937 0 0.94999999999999996 0.69999999999999996 0 0.92057473616084773 0.66770436535372446 0 0.9578014258160763 0.65787212321113708 0 0.15801167086041079 0.46008690540259539 0 0.113541300460994 0.46208784312094731 0 0.13773355295499351 0.42497777642586831 0 0.7250000000005199 0.94981617647078953 0 0.68015064798562208 0.95924320340003011 0 0.68987011941058407 0.92105047536677087 0 0.65507451745379841 0.92229208810758578 0 0.68987011941058407 0.92105047536677087 0 0.68015064798562208 0.95924320340003011 0 0.77846603114747959 0.49850927265137401 0 0.77972660463949339 0.45529290596363098 0 0.81400510706333218 0.47357325943904899 0 0.27866744612395528 0.38416094670951489 0 0.25966125648670141 0.34351016742083729 0 0.29644548887253103 0.34914008784168082 0 0.61209567303293111 0.44669033081290321 0 0.61547661924074692 0.48539576058873962 0 0.57975577671020095 0.46172033326338591 0 0.57611405284611883 0.50165903596042916 0 0.57975577671020095 0.46172033326338591 0 0.61547661924074692 0.48539576058873962 0 0.7250000000005199 0.89375000000045834 0 0.76891166905518427 0.88835469571185499 0 0.75729602384198635 0.92353652857884294 0 0.72500000000001008 0.19776155966387679 0 0.76587607630038135 0.18880039518954719 0 0.75668890529066124 0.2244279804069782 0 0.72500000000001008 0.19776155966387679 0 0.69397719155551807 0.2245125647000914 0 0.6865991819015953 0.189116534044597 0 0.083411279318303222 0.089699755330707398 0 0.12372429750337779 0.095814237875728972 0 0.1053400320299198 0.12877248826361379 0 0.083411279318375747 0.91030024466934134 0 0.10562472963403439 0.87143394428979881 0 0.1241151115713819 0.9045666525468371 0 0.14617343800780541 0.93808063414349496 0 0.1241151115713819 0.9045666525468371 0 0.16206583317966519 0.89685560785156404 0 0.14618258501891079 0.062070108745602003 0 0.16141998738593399 0.10404039647458049 0 0.12372429750337779 0.095814237875728972 0 0.33277555741076909 0.36432196682010132 0 0.35221190152536241 0.40457127605439203 0 0.31778888742534622 0.40581751814196781 0 0.7250000000005199 0.94981617647078953 0 0.75729602384198635 0.92353652857884294 0 0.770759834363826 0.95919399014344442 0 0.72500000000000064 0.2498161764706 0 0.75668890529066124 0.2244279804069782 0 0.77075983436335049 0.25919399014334171 0 0.72500000000000064 0.2498161764706 0 0.67933712972090698 0.25920070958121938 0 0.69397719155551807 0.2245125647000914 0 0.6236733212988993 0.14864538214901801 0 0.61956000905586006 0.1043312481793135 0 0.65290632656860115 0.11434202593454081 0 0.81973119833356312 0.43505687159469048 0 0.81400510706333218 0.47357325943904899 0 0.77972660463949339 0.45529290596363098 0 0.25676291524611189 0.7436741304886243 0 0.29904318922293632 0.74132814928635593 0 0.2792923945214143 0.77665808831789485 0 0.36575549820117997 0.31677992835137742 0 0.32752639306529541 0.32610012995269699 0 0.33402499257867951 0.28911035184473982 0 0.14332333627550789 0.14578431753966009 0 0.18652628422869419 0.14162325200928061 0 0.18124454140915969 0.18790916706335251 0 0.57724883562309992 0.92155686857100794 0 0.5832743223239254 0.88483152652961872 0 0.61885627562261258 0.90282959257498208 0 0.57667858002728545 0.078486105337742612 0 0.61956000905586006 0.1043312481793135 0 0.58516465772821369 0.11653801664834119 0 0.80185942888539485 0.77452061303608133 0 0.80041942726660109 0.81543261647703358 0 0.77094201086366854 0.79647480515688507 0 0.80185942888501827 0.074520613036224564 0 0.80076557130237269 0.1154587552654202 0 0.76878382444651716 0.097147941686331368 0 0.64753070846764316 0.77332939069435502 0 0.68024162096458085 0.79868546898116533 0 0.65005442820240822 0.82644988530054031 0 0.26429849586623999 0.19346700179430079 0 0.25557216766470708 0.15874861286892261 0 0.29336099386129338 0.15892013001050981 0 0.29348325746214782 0.31350119524708198 0 0.29644548887253103 0.34914008784168082 0 0.25966125648670141 0.34351016742083729 0 0.68391457121233579 0.14440470121196541 0 0.65290632656860115 0.11434202593454081 0 0.68330259535470161 0.10038702501083881 0 0.91750694127107502 0.36982372220068471 0 0.92012390126144183 0.33123581297173937 0 0.95780851984364423 0.34215720972155339 0 0.91750694127105259 0.63017627779935648 0 0.9578014258160763 0.65787212321113708 0 0.92057473616084773 0.66770436535372446 0 0.22033343844674469 0.36963382230740238 0 0.22615676742807109 0.33458786033114157 0 0.25966125648670141 0.34351016742083729 0 1 0.94999999999997109 0 0.97166519676946206 0.96662885509935492 0 0.97435614836744289 0.92499999999990257 0 0.94399509803919068 0.9439950980391687 0 0.97435614836744289 0.92499999999990257 0 0.97166519676946206 0.96662885509935492 0 0.94399509803921056 0.24399509803922639 0 0.97435614836740092 0.22499999999981049 0 0.97166519676951801 0.26662885509932011 0 1 0.24999999999987299 0 0.97166519676951801 0.26662885509932011 0 0.97435614836740092 0.22499999999981049 0 1 0.74999999999993494 0 0.97435614836745565 0.77499999999987745 0 0.97166519676947294 0.73337114490064459 0 1 0.049999999999896842 0 0.97435614836748241 0.074999999999825387 0 0.97166519676946894 0.033371144900598393 0 0.94399509803918602 0.75600490196082126 0 0.97166519676947294 0.73337114490064459 0 0.97435614836745565 0.77499999999987745 0 0.94399509803922566 0.056004901960802607 0 0.97166519676946894 0.033371144900598393 0 0.97435614836748241 0.074999999999825387 0 0.77846603114747959 0.49850927265137401 0 0.81400510706333218 0.47357325943904899 0 0.81441713509985358 0.51161854125224959 0 0.77354604466818633 0.40378688774472771 0 0.72622533758026719 0.40265885511101601 0 0.74764719760526988 0.3719647154012321 0 0.71508799138962864 0.36622814920737751 0 0.74764719760526988 0.3719647154012321 0 0.72622533758026719 0.40265885511101601 0 0.84723782639812573 0.48638347960178252 0 0.84925632466077294 0.45359738909549091 0 0.88594198078881503 0.46167788676578442 0 0.86411095495256451 0.42388805655111889 0 0.88594198078881503 0.46167788676578442 0 0.84925632466077294 0.45359738909549091 0 0.43846182030517877 0.64845797726506715 0 0.43545892161006339 0.61093128915313821 0 0.47095389620662098 0.61892551373708504 0 0.33123028043633618 0.77629643437932982 0 0.35642984951668422 0.80994399665655703 0 0.30857225866488791 0.81101973481716805 0 0.33403534827021109 0.84402799729020661 0 0.30857225866488791 0.81101973481716805 0 0.35642984951668422 0.80994399665655703 0 0.26429849586623999 0.19346700179430079 0 0.31255190597181792 0.19850845631528771 0 0.28040350263641872 0.23054717217092141 0 0.57724883562309992 0.92155686857100794 0 0.54783390826260769 0.89287767010860219 0 0.5832743223239254 0.88483152652961872 0 0.55899371797446828 0.85003102233514438 0 0.5832743223239254 0.88483152652961872 0 0.54783390826260769 0.89287767010860219 0 0.4089290844030305 0.58728915500154233 0 0.43545892161006339 0.61093128915313821 0 0.39743091024207589 0.6239520004230239 0 0.77293540622714185 0.59448302402785813 0 0.81723410853263523 0.59419663659258926 0 0.79884539758237771 0.62875045078114233 0 0.83758014339878906 0.63222013025741819 0 0.79884539758237771 0.62875045078114233 0 0.81723410853263523 0.59419663659258926 0 0.35864735590330371 0.63903383440414463 0 0.39743091024207589 0.6239520004230239 0 0.3977710372045391 0.65868194622830212 0 0.56202748619534593 0.15054058349222879 0 0.54979595918804436 0.1060565713905809 0 0.58516465772821369 0.11653801664834119 0 0.57667858002728545 0.078486105337742612 0 0.58516465772821369 0.11653801664834119 0 0.54979595918804436 0.1060565713905809 0 0.33122374654748771 0.57588941099433744 0 0.37272913873093971 0.56192925302619479 0 0.35765792684946668 0.6000687869219653 0 0.35864735590330371 0.63903383440414463 0 0.35765792684946668 0.6000687869219653 0 0.39743091024207589 0.6239520004230239 0 0.71508799138962864 0.36622814920737751 0 0.68887083591306764 0.33632058575757479 0 0.73090396928863699 0.33699297293167962 0 0.29348325746214782 0.31350119524708198 0 0.32752639306529541 0.32610012995269699 0 0.29644548887253103 0.34914008784168082 0 0.33277555741076909 0.36432196682010132 0 0.29644548887253103 0.34914008784168082 0 0.32752639306529541 0.32610012995269699 0 0.34258405725730701 0.4444034294386992 0 0.31778888742534622 0.40581751814196781 0 0.35221190152536241 0.40457127605439203 0 0.79999999999999982 0.69999999999999996 0 0.81864958914779962 0.73589050177899629 0 0.78578450296893509 0.73292684821144505 0 0.79999999999947335 0 0 0.81864958914740749 0.035890501779055867 0 0.78393852574753176 0.032039079577822822 0 0.27474541102162192 0.11822029332053539 0 0.29336099386129338 0.15892013001050981 0 0.25557216766470708 0.15874861286892261 0 0 0.45000000000187229 0 0.035463093262830522 0.42673416072819947 0 0.033550201249889847 0.46247875832467239 0 0.6499999999999998 0.69999999999999996 0 0.66427993341343905 0.73232764502436276 0 0.63221990677827677 0.73442891067859706 0 0.84723782639812573 0.48638347960178252 0 0.81441713509985358 0.51161854125224959 0 0.81400510706333218 0.47357325943904899 0 0.26104540868854792 0.81401944968719064 0 0.30857225866488791 0.81101973481716805 0 0.29209212897034281 0.84715728365233667 0 0.33403534827021109 0.84402799729020661 0 0.29209212897034281 0.84715728365233667 0 0.30857225866488791 0.81101973481716805 0 0.69999999999999984 0.29999999999999999 0 0.73090396928863699 0.33699297293167962 0 0.68887083591306764 0.33632058575757479 0 
</DataArray>
</Points>
<Cells>
<DataArray type="UInt32" Name="connectivity" format="ascii">
0 1 2 3 4 5 6 7 8 9 10 11 12 13 14 15 16 17 18 19 20 21 22 23 24 25 26 27 28 29 30 31 32 33 34 35 36 37 38 39 40 41 42 43 44 45 46 47 48 49 50 51 52 53 54 55 56 57 58 59 60 61 62 63 64 65 66 67 68 69 70 71 72 73 74 75 76 77 78 79 80 81 82 83 84 85 86 87 88 89 90 91 92 93 94 95 96 97 98 99 100 101 102 103 104 105 106 107 108 109 110 111 112 113 114 115 116 117 118 119 120 121 122 123 124 125 126 127 128 129 130 131 132 133 134 135 136 137 138 139 140 141 142 143 144 145 146 147 148 149 150 151 152 153 154 155 156 157 158 159 160 161 162 163 164 165 166 167 168 169 170 171 172 173 174 175 176 177 178 179 180 181 182 183 184 185 186 187 188 189 190 191 192 193 194 195 196 197 198 199 200 201 202 203 204 205 206 207 208 209 210 211 212 213 214 215 216 217 218 219 220 221 222 223 224 225 226 227 228 229 230 231 232 233 234 235 236 237 238 239 240 241 242 243 244 245 246 247 248 249 250 251 252 253 254 255 256 257 258 259 260 261 262 263 264 265 266 267 268 269 270 271 272 273 274 275 276 277 278 279 280 281 282 283 284 285 286 287 288 289 290 291 292 293 294 295 296 297 298 299 300 301 302 303 304 305 306 307 308 309 310 311 312 313 314 315 316 317 318 319 320 321 322 323 324 325 326 327 328 329 330 331 332 333 334 335 336 337 338 339 340 341 342 343 344 345 346 347 348 349 350 351 352 353 354 355 356 357 358 359 360 361 362 363 364 365 366 367 368 369 370 371 372 373 374 375 376 377 378 379 380 381 382 383 384 385 386 387 388 389 390 391 392 393 394 395 396 397 398 399 400 401 402 403 404 405 406 407 408 409 410 411 412 413 414 415 416 417 418 419 420 421 422 423 424 425 426 427 428 429 430 431 432 433 434 435 436 437 438 439 440 441 442 443 444 445 446 447 448 449 450 451 452 453 454 455 456 457 458 459 460 461 462 463 464 465 466 467 468 469 470 471 472 473 474 475 476 477 478 479 480 481 482 483 484 485 486 487 488 489 490 491 492 493 494 495 496 497 498 499 500 501 502 503 504 505 506 507 508 509 510 511 512 513 514 515 516 517 518 519 520 521 522 523 524 525 526 527 528 529 530 531 532 533 534 535 536 537 538 539 540 541 542 543 544 545 546 547 548 549 550 551 552 553 554 555 556 557 558 559 560 561 562 563 564 565 566 567 568 569 570 571 572 573 574 575 576 577 578 579 580 581 582 583 584 585 586 587 588 589 590 591 592 593 594 595 596 597 598 599 600 601 602 603 604 605 606 607 608 609 610 611 612 613 614 615 616 617 618 619 620 621 622 623 624 625 626 627 628 629 630 631 632 633 634 635 636 637 638 639 640 641 642 643 644 645 646 647 648 649 650 651 652 653 654 655 656 657 658 659 660 661 662 663 664 665 666 667 668 669 670 671 672 673 674 675 676 677 678 679 680 681 682 683 684 685 686 687 688 689 690 691 692 693 694 695 696 697 698 699 700 701 702 703 704 705 706 707 708 709 710 711 712 713 714 715 716 717 718 719 720 721 722 723 724 725 726 727 728 729 730 731 732 733 734 735 736 737 738 739 740 741 742 743 744 745 746 747 748 749 750 751 752 753 754 755 756 757 758 759 760 761 762 763 764 765 766 767 768 769 770 771 772 773 774 775 776 777 778 779 780 781 782 783 784 785 786 787 788 789 790 791 792 793 794 795 796 797 798 799 800 801 802 803 804 805 806 807 808 809 810 811 812 813 814 815 816 817 818 819 820 821 822 823 824 825 826 827 828 829 830 831 832 833 834 835 836 837 838 839 840 841 842 843 844 845 846 847 848 849 850 851 852 853 854 855 856 857 858 859 860 861 862 863 864 865 866 867 868 869 870 871 872 873 874 875 876 877 878 879 880 881 882 883 884 885 886 887 888 889 890 891 892 893 894 895 896 897 898 899 900 901 902 903 904 905 906 907 908 909 910 911 912 913 914 915 916 917 918 919 920 921 922 923 924 925 926 927 928 929 930 931 932 933 934 935 936 937 938 939 940 941 942 943 944 945 946 947 948 949 950 951 952 953 954 955 956 957 958 959 960 961 962 963 964 965 966 967 968 969 970 971 972 973 974 975 976 977 978 979 980 981 982 983 984 985 986 987 988 989 990 991 992 993 994 995 996 997 998 999 1000 1001 1002 1003 1004 1005 1006 1007 1008 1009 1010 1011 1012 1013 1014 1015 1016 1017 1018 1019 1020 1021 1022 1023 1024 1025 1026 1027 1028 1029 1030 1031 1032 1033 1034 1035 1036 1037 1038 1039 1040 1041 1042 1043 1044 1045 1046 1047 1048 1049 1050 1051 1052 1053 1054 1055 1056 1057 1058 1059 1060 1061 1062 1063 1064 1065 1066 1067 1068 1069 1070 1071 1072 1073 1074 1075 1076 1077 1078 1079 1080 1081 1082 1083 1084 1085 1086 1087 1088 1089 1090 1091 1092 1093 1094 1095 1096 1097 1098 1099 1100 1101 1102 1103 1104 1105 1106 1107 1108 1109 1110 1111 1112 1113 1114 1115 1116 1117 1118 1119 1120 1121 1122 1123 1124 1125 1126 1127 1128 1129 1130 1131 1132 1133 1134 1135 1136 1137 1138 1139 1140 1141 1142 1143 1144 1145 1146 1147 1148 1149 1150 1151 1152 1153 1154 1155 1156 1157 1158 1159 1160 1161 1162 1163 1164 1165 1166 1167 1168 1169 1170 1171 1172 1173 1174 1175 1176 1177 1178 1179 1180 1181 1182 1183 1184 1185 1186 1187 1188 1189 1190 1191 1192 1193 1194 1195 1196 1197 1198 1199 1200 1201 1202 1203 1204 1205 1206 1207 1208 1209 1210 1211 1212 1213 1214 1215 1216 1217 1218 1219 1220 1221 1222 1223 1224 1225 1226 1227 1228 1229 1230 1231 1232 1233 1234 1235 1236 1237 1238 1239 1240 1241 1242 1243 1244 1245 1246 1247 1248 1249 1250 1251 1252 1253 1254 1255 1256 1257 1258 1259 1260 1261 1262 1263 1264 1265 1266 1267 1268 1269 1270 1271 1272 1273 1274 1275 1276 1277 1278 1279 1280 1281 1282 1283 1284 1285 1286 1287 1288 1289 1290 1291 1292 1293 1294 1295 1296 1297 1298 1299 1300 1301 1302 1303 1304 1305 1306 1307 1308 1309 1310 1311 1312 1313 1314 1315 1316 1317 1318 1319 1320 1321 1322 1323 1324 1325 1326 1327 1328 1329 1330 1331 1332 1333 1334 1335 1336 1337 1338 1339 1340 1341 1342 1343 1344 1345 1346 1347 1348 1349 1350 1351 1352 1353 1354 1355 1356 1357 1358 1359 1360 1361 1362 1363 1364 1365 1366 1367 1368 1369 1370 1371 1372 1373 1374 1375 1376 1377 1378 1379 1380 1381 1382 1383 1384 1385 1386 1387 1388 1389 1390 1391 1392 1393 1394 1395 1396 1397 1398 1399 1400 1401 1402 1403 1404 1405 1406 1407 1408 1409 1410 1411 1412 1413 1414 1415 1416 1417 1418 1419 1420 1421 1422 1423 1424 1425 1426 1427 1428 1429 1430 1431 1432 1433 1434 1435 1436 1437 1438 1439 1440 1441 1442 1443 1444 1445 1446 1447 1448 1449 1450 1451 1452 1453 1454 1455 1456 1457 1458 1459 1460 1461 1462 1463 1464 1465 1466 1467 1468 1469 1470 1471 1472 1473 1474 1475 1476 1477 1478 1479 1480 1481 1482 1483 1484 1485 1486 1487 1488 1489 1490 1491 1492 1493 1494 1495 1496 1497 1498 1499 1500 1501 1502 1503 1504 1505 1506 1507 1508 1509 1510 1511 1512 1513 1514 1515 1516 1517 1518 1519 1520 1521 1522 1523 1524 1525 1526 1527 1528 1529 1530 1531 1532 1533 1534 1535 1536 1537 1538 1539 1540 1541 1542 1543 1544 1545 1546 1547 1548 1549 1550 1551 1552 1553 1554 1555 1556 1557 1558 1559 1560 1561 1562 1563 1564 1565 1566 1567 1568 1569 1570 1571 1572 1573 1574 1575 1576 1577 1578 1579 1580 1581 1582 1583 1584 1585 1586 1587 1588 1589 1590 1591 1592 1593 1594 1595 1596 1597 1598 1599 1600 1601 1602 1603 1604 1605 1606 1607 1608 1609 1610 1611 1612 1613 1614 1615 1616 1617 1618 1619 1620 1621 1622 1623 1624 1625 1626 1627 1628 1629 1630 1631 1632 1633 1634 1635 1636 1637 1638 1639 1640 1641 1642 1643 1644 1645 1646 1647 1648 1649 1650 1651 1652 1653 1654 1655 1656 1657 1658 1659 1660 1661 1662 1663 1664 1665 1666 1667 1668 1669 1670 1671 1672 1673 1674 1675 1676 1677 1678 1679 1680 1681 1682 1683 1684 1685 1686 1687 1688 1689 1690 1691 1692 1693 1694 1695 1696 1697 1698 1699 1700 1701 1702 1703 1704 1705 1706 1707 1708 1709 1710 1711 1712 1713 1714 1715 1716 1717 1718 1719 1720 1721 1722 1723 1724 1725 1726 1727 1728 1729 1730 1731 1732 1733 1734 1735 1736 1737 1738 1739 1740 1741 1742 1743 1744 1745 1746 1747 1748 1749 1750 1751 1752 1753 1754 1755 1756 1757 1758 1759 1760 1761 1762 1763 1764 1765 1766 1767 1768 1769 1770 1771 1772 1773 1774 1775 1776 1777 1778 1779 1780 1781 1782 1783 1784 1785 1786 1787 1788 1789 1790 1791 1792 1793 1794 1795 1796 1797 1798 1799 1800 1801 1802 1803 1804 1805 1806 1807 1808 1809 1810 1811 1812 1813 1814 1815 1816 1817 1818 1819 1820 1821 1822 1823 1824 1825 1826 1827 1828 1829 1830 1831 1832 1833 1834 1835 1836 1837 1838 1839 1840 1841 1842 1843 1844 1845 1846 1847 1848 1849 1850 1851 1852 1853 1854 1855 1856 1857 1858 1859 1860 1861 1862 1863 1864 1865 1866 1867 1868 1869 1870 1871 1872 1873 1874 1875 1876 1877 1878 1879 1880 1881 1882 1883 1884 1885 1886 1887 1888 1889 1890 1891 1892 1893 1894 1895 1896 1897 1898 1899 1900 1901 1902 1903 1904 1905 1906 1907 1908 1909 1910 1911 1912 1913 1914 1915 1916 1917 1918 1919 1920 1921 1922 1923 1924 1925 1926 1927 1928 1929 1930 1931 1932 1933 1934 1935 1936 1937 1938 1939 1940 1941 1942 1943 1944 1945 1946 1947 1948 1949 1950 1951 1952 1953 1954 1955 1956 1957 1958 1959 1960 1961 1962 1963 1964 1965 1966 1967 1968 1969 1970 1971 1972 1973 1974 1975 1976 1977 1978 1979 1980 1981 1982 1983 1984 1985 1986 1987 1988 1989 1990 1991 1992 1993 1994 1995 1996 1997 1998 1999 2000 2001 2002 2003 2004 2005 2006 2007 2008 2009 2010 2011 2012 2013 2014 2015 2016 2017 2018 2019 2020 2021 2022 2023 2024 2025 2026 2027 2028 2029 2030 2031 2032 2033 2034 2035 2036 2037 2038 2039 2040 2041 2042 2043 2044 2045 2046 2047 2048 2049 2050 2051 2052 2053 2054 2055 2056 2057 2058 2059 2060 2061 2062 2063 2064 2065 2066 2067 2068 2069 2070 2071 2072 2073 2074 2075 2076 2077 2078 2079 2080 2081 2082 2083 2084 2085 2086 2087 2088 2089 2090 2091 2092 2093 2094 2095 2096 2097 2098 2099 2100 2101 2102 2103 2104 2105 2106 2107 2108 2109 2110 2111 2112 2113 2114 2115 2116 2117 2118 2119 2120 2121 2122 2123 2124 2125 2126 2127 2128 2129 2130 2131 2132 2133 2134 2135 2136 2137 2138 2139 2140 2141 2142 2143 2144 2145 2146 2147 2148 2149 2150 2151 2152 2153 2154 2155 2156 2157 2158 2159 2160 2161 2162 2163 2164 2165 2166 2167 2168 2169 2170 2171 2172 2173 2174 2175 2176 2177 2178 2179 2180 2181 2182 2183 2184 2185 2186 2187 2188 2189 2190 2191 2192 2193 2194 2195 2196 2197 2198 2199 2200 2201 2202 2203 2204 2205 2206 2207 2208 2209 2210 2211 2212 2213 2214 2215 2216 2217 2218 2219 2220 2221 2222 2223 2224 2225 2226 2227 2228 2229 2230 2231 2232 2233 2234 2235 2236 2237 2238 2239 2240 2241 2242 2243 2244 2245 2246 2247 2248 2249 2250 2251 2252 2253 2254 2255 2256 2257 2258 2259 2260 2261 2262 2263 2264 2265 2266 2267 2268 2269 2270 2271 2272 2273 2274 2275 2276 2277 2278 2279 2280 2281 2282 2283 2284 2285 2286 2287 2288 2289 2290 2291 2292 2293 2294 2295 2296 2297 2298 2299 2300 2301 2302 2303 2304 2305 2306 2307 2308 2309 2310 2311 2312 2313 2314 2315 2316 2317 2318 2319 2320 2321 2322 2323 2324 2325 2326 2327 2328 2329 2330 2331 2332 2333 2334 2335 2336 2337 2338 2339 2340 2341 2342 2343 2344 2345 2346 2347 2348 2349 2350 2351 2352 2353 2354 2355 2356 2357 2358 2359 2360 2361 2362 2363 2364 2365 2366 2367 2368 2369 2370 2371 2372 2373 2374 2375 2376 2377 2378 2379 2380 2381 2382 2383 2384 2385 2386 2387 2388 2389 2390 2391 2392 2393 2394 2395 2396 2397 2398 2399 2400 2401 2402 2403 2404 2405 2406 2407 2408 2409 2410 2411 2412 2413 2414 2415 2416 2417 2418 2419 2420 2421 2422 2423 2424 2425 2426 2427 2428 2429 2430 2431 2432 2433 2434 2435 2436 2437 2438 2439 2440 2441 2442 2443 2444 2445 2446 2447 2448 2449 2450 2451 2452 2453 2454 2455 2456 2457 2458 2459 2460 2461 2462 2463 2464 2465 2466 2467 2468 2469 2470 2471 2472 2473 2474 2475 2476 2477 2478 2479 2480 2481 2482 2483 2484 2485 2486 2487 2488 2489 2490 2491 2492 2493 2494 2495 2496 2497 2498 2499 2500 2501 2502 2503 2504 2505 2506 2507 2508 2509 2510 2511 2512 2513 2514 2515 2516 2517 2518 2519 2520 2521 2522 2523 2524 2525 2526 2527 2528 2529 2530 2531 2532 2533 2534 2535 2536 2537 2538 2539 2540 2541 2542 2543 2544 2545 2546 2547 2548 2549 2550 2551 2552 2553 2554 2555 2556 2557 2558 2559 2560 2561 2562 2563 2564 2565 2566 2567 2568 2569 2570 2571 2572 2573 2574 2575 2576 2577 2578 2579 2580 2581 2582 2583 2584 2585 2586 2587 2588 2589 2590 2591 2592 2593 2594 2595 2596 2597 2598 2599 2600 2601 2602 2603 2604 2605 2606 2607 2608 2609 2610 2611 2612 2613 2614 2615 2616 2617 2618 2619 2620 2621 2622 2623 2624 2625 2626 2627 2628 2629 2630 2631 2632 2633 2634 2635 2636 2637 2638 2639 2640 2641 2642 2643 2644 2645 2646 2647 2648 2649 2650 2651 2652 2653 2654 2655 2656 2657 2658 2659 2660 2661 2662 2663 2664 2665 2666 2667 2668 2669 2670 2671 2672 2673 2674 2675 2676 2677 2678 2679 2680 2681 2682 2683 2684 2685 2686 2687 2688 2689 2690 2691 2692 2693 2694 2695 2696 2697 2698 2699 2700 2701 2702 2703 2704 2705 2706 2707 2708 2709 2710 2711 2712 2713 2714 2715 2716 2717 2718 2719 2720 2721 2722 2723 2724 2725 2726 2727 2728 2729 2730 2731 2732 2733 2734 2735 2736 2737 2738 2739 2740 2741 2742 2743 2744 2745 2746 2747 2748 2749 2750 2751 2752 2753 2754 2755 2756 2757 2758 2759 2760 2761 2762 2763 2764 2765 2766 2767 2768 2769 2770 2771 2772 2773 2774 2775 2776 2777 2778 2779 2780 2781 2782 2783 2784 2785 2786 2787 2788 2789 2790 2791 2792 2793 2794 2795 2796 2797 2798 2799 2800 2801 2802 2803 2804 2805 2806 2807 2808 2809 2810 2811 2812 2813 2814 2815 2816 2817 2818 2819 2820 2821 2822 2823 2824 2825 2826 2827 2828 2829 2830 2831 2832 2833 2834 2835 2836 2837 2838 2839 2840 2841 2842 2843 2844 2845 2846 2847 2848 2849 2850 2851 2852 2853 2854 2855 2856 2857 2858 2859 2860 2861 2862 2863 2864 2865 2866 2867 2868 2869 2870 2871 2872 2873 2874 2875 2876 2877 2878 2879 2880 2881 2882 2883 2884 2885 2886 2887 2888 2889 2890 2891 2892 2893 2894 2895 2896 2897 2898 2899 2900 2901 2902 2903 2904 2905 2906 2907 2908 2909 2910 2911 2912 2913 2914 2915 2916 2917 2918 2919 2920 2921 2922 2923 2924 2925 2926 2927 2928 2929 2930 2931 2932 2933 2934 2935 2936 2937 2938 2939 2940 2941 2942 2943 2944 2945 2946 2947 2948 2949 2950 2951 2952 2953 2954 2955 2956 2957 2958 2959 2960 2961 2962 2963 2964 2965 2966 2967 2968 2969 2970 2971 2972 2973 2974 2975 2976 2977 2978 2979 2980 2981 2982 2983 2984 2985 2986 2987 2988 2989 2990 2991 2992 2993 2994 2995 2996 2997 2998 2999 3000 3001 3002 3003 3004 3005 3006 3007 3008 3009 3010 3011 3012 3013 3014 3015 3016 3017 3018 3019 3020 3021 3022 3023 3024 3025 3026 3027 3028 3029 3030 3031 3032 3033 3034 3035 3036 3037 3038 3039 3040 3041 3042 3043 3044 3045 3046 3047 3048 3049 3050 3051 3052 3053 3054 3055 3056 3057 3058 3059 3060 3061 3062 3063 3064 3065 3066 3067 3068 3069 3070 3071 3072 3073 3074 3075 3076 3077 3078 3079 3080 3081 3082 3083 3084 3085 3086 3087 3088 3089 3090 3091 3092 3093 3094 3095 3096 3097 3098 3099 3100 3101 3102 3103 3104 3105 3106 3107 3108 3109 3110 3111 3112 3113 3114 3115 3116 3117 3118 3119 3120 3121 3122 3123 3124 3125 3126 3127 3128 3129 3130 3131 3132 3133 3134 3135 3136 3137 3138 3139 3140 3141 
</DataArray>
<DataArray type="UInt32" Name="offsets" format="ascii">
2 4 6 8 10 12 14 16 18 20 22 24 26 28 30 32 34 36 38 40 43 46 49 52 55 58 61 64 67 70 73 76 79 82 85 88 91 94 97 100 103 106 109 112 115 118 121 124 127 130 133 136 139 142 145 148 151 154 157 160 163 166 169 172 175 178 181 184 187 190 193 196 199 202 205 208 211 214 217 220 223 226 229 232 235 238 241 244 247 250 253 256 259 262 265 268 271 274 277 280 283 286 289 292 295 298 301 304 307 310 313 316 319 322 325 328 331 334 337 340 343 346 349 352 355 358 361 364 367 370 373 376 379 382 385 388 391 394 397 400 403 406 409 412 415 418 421 424 427 430 433 436 439 442 445 448 451 454 457 460 463 466 469 472 475 478 481 484 487 490 493 496 499 502 505 508 511 514 517 520 523 526 529 532 535 538 541 544 547 550 553 556 559 562 565 568 571 574 577 580 583 586 589 592 595 598 601 604 607 610 613 616 619 622 625 628 631 634 637 640 643 646 649 652 655 658 661 664 667 670 673 676 679 682 685 688 691 694 697 700 703 706 709 712 715 718 721 724 727 730 733 736 739 742 745 748 751 754 757 760 763 766 769 772 775 778 781 784 787 790 793 796 799 802 805 808 811 814 817 820 823 826 829 832 835 838 841 844 847 850 853 856 859 862 865 868 871 874 877 880 883 886 889 892 895 898 901 904 907 910 913 916 919 922 925 928 931 934 937 940 943 946 949 952 955 958 961 964 967 970 973 976 979 982 985 988 991 994 997 1000 1003 1006 1009 1012 1015 1018 1021 1024 1027 1030 1033 1036 1039 1042 1045 1048 1051 1054 1057 1060 1063 1066 1069 1072 1075 1078 1081 1084 1087 1090 1093 1096 1099 1102 1105 1108 1111 1114 1117 1120 1123 1126 1129 1132 1135 1138 1141 1144 1147 1150 1153 1156 1159 1162 1165 1168 1171 1174 1177 1180 1183 1186 1189 1192 1195 1198 1201 1204 1207 1210 1213 1216 1219 1222 1225 1228 1231 1234 1237 1240 1243 1246 1249 1252 1255 1258 1261 1264 1267 1270 1273 1276 1279 1282 1285 1288 1291 1294 1297 1300 1303 1306 1309 1312 1315 1318 1321 1324 1327 1330 1333 1336 1339 1342 1345 1348 1351 1354 1357 1360 1363 1366 1369 1372 1375 1378 1381 1384 1387 1390 1393 1396 1399 1402 1405 1408 1411 1414 1417 1420 1423 1426 1429 1432 1435 1438 1441 1444 1447 1450 1453 1456 1459 1462 1465 1468 1471 1474 1477 1480 1483 1486 1489 1492 1495 1498 1501 1504 1507 1510 1513 1516 1519 1522 1525 1528 1531 1534 1537 1540 1543 1546 1549 1552 1555 1558 1561 1564 1567 1570 1573 1576 1579 1582 1585 1588 1591 1594 1597 1600 1603 1606 1609 1612 1615 1618 1621 1624 1627 1630 1633 1636 1639 1642 1645 1648 1651 1654 1657 1660 1663 1666 1669 1672 1675 1678 1681 1684 1687 1690 1693 1696 1699 1702 1705 1708 1711 1714 1717 1720 1723 1726 1729 1732 1735 1738 1741 1744 1747 1750 1753 1756 1759 1762 1765 1768 1771 1774 1777 1780 1783 1786 1789 1792 1795 1798 1801 1804 1807 1810 1813 1816 1819 1822 1825 1828 1831 1834 1837 1840 1843 1846 1849 1852 1855 1858 1861 1864 1867 1870 1873 1876 1879 1882 1885 1888 1891 1894 1897 1900 1903 1906 1909 1912 1915 1918 1921 1924 1927 1930 1933 1936 1939 1942 1945 1948 1951 1954 1957 1960 1963 1966 1969 1972 1975 1978 1981 1984 1987 1990 1993 1996 1999 2002 2005 2008 2011 2014 2017 2020 2023 2026 2029 2032 2035 2038 2041 2044 2047 2050 2053 2056 2059 2062 2065 2068 2071 2074 2077 2080 2083 2086 2089 2092 2095 2098 2101 2104 2107 2110 2113 2116 2119 2122 2125 2128 2131 2134 2137 2140 2143 2146 2149 2152 2155 2158 2161 2164 2167 2170 2173 2176 2179 2182 2185 2188 2191 2194 2197 2200 2203 2206 2209 2212 2215 2218 2221 2224 2227 2230 2233 2236 2239 2242 2245 2248 2251 2254 2257 2260 2263 2266 2269 2272 2275 2278 2281 2284 2287 2290 2293 2296 2299 2302 2305 2308 2311 2314 2317 2320 2323 2326 2329 2332 2335 2338 2341 2344 2347 2350 2353 2356 2359 2362 2365 2368 2371 2374 2377 2380 2383 2386 2389 2392 2395 2398 2401 2404 2407 2410 2413 2416 2419 2422 2425 2428 2431 2434 2437 2440 2443 2446 2449 2452 2455 2458 2461 2464 2467 2470 2473 2476 2479 2482 2485 2488 2491 2494 2497 2500 2503 2506 2509 2512 2515 2518 2521 2524 2527 2530 2533 2536 2539 2542 2545 2548 2551 2554 2557 2560 2563 2566 2569 2572 2575 2578 2581 2584 2587 2590 2593 2596 2599 2602 2605 2608 2611 2614 2617 2620 2623 2626 2629 2632 2635 2638 2641 2644 2647 2650 2653 2656 2659 2662 2665 2668 2671 2674 2677 2680 2683 2686 2689 2692 2695 2698 2701 2704 2707 2710 2713 2716 2719 2722 2725 2728 2731 2734 2737 2740 2743 2746 2749 2752 2755 2758 2761 2764 2767 2770 2773 2776 2779 2782 2785 2788 2791 2794 2797 2800 2803 2806 2809 2812 2815 2818 2821 2824 2827 2830 2833 2836 2839 2842 2845 2848 2851 2854 2857 2860 2863 2866 2869 2872 2875 2878 2881 2884 2887 2890 2893 2896 2899 2902 2905 2908 2911 2914 2917 2920 2923 2926 2929 2932 2935 2938 2941 2944 2947 2950 2953 2956 2959 2962 2965 2968 2971 2974 2977 2980 2983 2986 2989 2992 2995 2998 3001 3004 3007 3010 3013 3016 3019 3022 3025 3028 3031 3034 3037 3040 3043 3046 3049 3052 3055 3058 3061 3064 3067 3070 3073 3076 3079 3082 3085 3088 3091 3094 3097 3100 3103 3106 3109 3112 3115 3118 3121 3124 3127 3130 3133 3136 3139 3142 
</DataArray>
<DataArray type="UInt32" Name="types" format="ascii">
3 3 3 3 3 3 3 3 3 3 3 3 3 3 3 3 3 3 3 3 5 5 5 5 5 5 5 5 5 5 5 5 5 5 5 5 5 5 5 5 5 5 5 5 5 5 5 5 5 5 5 5 5 5 5 5 5 5 5 5 5 5 5 5 5 5 5 5 5 5 5 5 5 5 5 5 5 5 5 5 5 5 5 5 5 5 5 5 5 5 5 5 5 5 5 5 5 5 5 5 5 5 5 5 5 5 5 5 5 5 5 5 5 5 5 5 5 5 5 5 5 5 5 5 5 5 5 5 5 5 5 5 5 5 5 5 5 5 5 5 5 5 5 5 5 5 5 5 5 5 5 5 5 5 5 5 5 5 5 5 5 5 5 5 5 5 5 5 5 5 5 5 5 5 5 5 5 5 5 5 5 5 5 5 5 5 5 5 5 5 5 5 5 5 5 5 5 5 5 5 5 5 5 5 5 5 5 5 5 5 5 5 5 5 5 5 5 5 5 5 5 5 5 5 5 5 5 5 5 5 5 5 5 5 5 5 5 5 5 5 5 5 5 5 5 5 5 5 5 5 5 5 5 5 5 5 5 5 5 5 5 5 5 5 5 5 5 5 5 5 5 5 5 5 5 5 5 5 5 5 5 5 5 5 5 5 5 5 5 5 5 5 5 5 5 5 5 5 5 5 5 5 5 5 5 5 5 5 5 5 5 5 5 5 5 5 5 5 5 5 5 5 5 5 5 5 5 5 5 5 5 5 5 5 5 5 5 5 5 5 5 5 5 5 5 5 5 5 5 5 5 5 5 5 5 5 5 5 5 5 5 5 5 5 5 5 5 5 5 5 5 5 5 5 5 5 5 5 5 5 5 5 5 5 5 5 5 5 5 5 5 5 5 5 5 5 5 5 5 5 5 5 5 5 5 5 5 5 5 5 5 5 5 5 5 5 5 5 5 5 5 5 5 5 5 5 5 5 5 5 5 5 5 5 5 5 5 5 5 5 5 5 5 5 5 5 5 5 5 5 5 5 5 5 5 5 5 5 5 5 5 5 5 5 5 5 5 5 5 5 5 5 5 5 5 5 5 5 5 5 5 5 5 5 5 5 5 5 5 5 5 5 5 5 5 5 5 5 5 5 5 5 5 5 5 5 5 5 5 5 5 5 5 5 5 5 5 5 5 5 5 5 5 5 5 5 5 5 5 5 5 5 5 5 5 5 5 5 5 5 5 5 5 5 5 5 5 5 5 5 5 5 5 5 5 5 5 5 5 5 5 5 5 5 5 5 5 5 5 5 5 5 5 5 5 5 5 5 5 5 5 5 5 5 5 5 5 5 5 5 5 5 5 5 5 5 5 5 5 5 5 5 5 5 5 5 5 5 5 5 5 5 5 5 5 5 5 5 5 5 5 5 5 5 5 5 5 5 5 5 5 5 5 5 5 5 5 5 5 5 5 5 5 5 5 5 5 5 5 5 5 5 5 5 5 5 5 5 5 5 5 5 5 5 5 5 5 5 5 5 5 5 5 5 5 5 5 5 5 5 5 5 5 5 5 5 5 5 5 5 5 5 5 5 5 5 5 5 5 5 5 5 5 5 5 5 5 5 5 5 5 5 5 5 5 5 5 5 5 5 5 5 5 5 5 5 5 5 5 5 5 5 5 5 5 5 5 5 5 5 5 5 5 5 5 5 5 5 5 5 5 5 5 5 5 5 5 5 5 5 5 5 5 5 5 5 5 5 5 5 5 5 5 5 5 5 5 5 5 5 5 5 5 5 5 5 5 5 5 5 5 5 5 5 5 5 5 5 5 5 5 5 5 5 5 5 5 5 5 5 5 5 5 5 5 5 5 5 5 5 5 5 5 5 5 5 5 5 5 5 5 5 5 5 5 5 5 5 5 5 5 5 5 5 5 5 5 5 5 5 5 5 5 5 5 5 5 5 5 5 5 5 5 5 5 5 5 5 5 5 5 5 5 5 5 5 5 5 5 5 5 5 5 5 5 5 5 5 5 5 5 5 5 5 5 5 5 5 5 5 5 5 5 5 5 5 5 5 5 5 5 5 5 5 5 5 5 5 5 5 5 5 5 5 5 5 5 5 5 5 5 5 5 5 5 5 5 5 5 5 5 5 5 5 5 5 5 5 5 5 5 5 5 5 5 5 5 5 5 5 5 5 5 5 5 5 5 5 5 5 5 5 5 5 5 5 5 5 5 5 5 5 5 5 5 5 5 5 5 5 5 5 5 5 5 5 5 5 5 5 5 5 5 5 5 5 5 5 5 5 5 5 5 5 5 5 5 5 5 5 5 5 5 5 5 5 5 5 5 5 5 5 5 5 5 5 5 5 5 5 5 5 5 5 5 5 5 5 5 5 5 5 5 5 
</DataArray>
</Cells>
<PointData Scalars="" Vectors="displacement," Tensors="">
<DataArray type="Float64" Name="displacement" NumberOfComponents="3" format="ascii">
-1.8782516798779017e-05 -1.8016057016215498e-05 0 -2.0250538774907434e-05 -2.4399958187537311e-05 0 -2.0250538774907434e-05 -2.4399958187537311e-05 0 -2.1984570447206577e-05 -3.1697556722849412e-05 0 -2.1984570447206577e-05 -3.1697556722849412e-05 0 -2.3957590120952224e-05 -4.009436491357686e-05 0 -2.3957590120952224e-05 -4.009436491357686e-05 0 -2.5788503465093832e-05 -4.8776283145132485e-05 0 -2.5788503465093832e-05 -4.8776283145132485e-05 0 -2.7427167408972884e-05 -5.7438780438561224e-05 0 -2.7427167408972884e-05 -5.7438780438561224e-05 0 -2.9012017828476108e-05 -6.5979490570777942e-05 0 -2.9012017828476108e-05 -6.5979490570777942e-05 0 -3.067634469037065e-05 -7.401130734364353e-05 0 -3.067634469037065e-05 -7.401130734364353e-05 0 -3.2403338613329197e-05 -8.1927818963747976e-05 0 -3.2403338613329197e-05 -8.1927818963747976e-05 0 -3.3523966454092615e-05 -8.8335726131589387e-05 0 -3.3523966454092615e-05 -8.8335726131589387e-05 0 -3.7037040739142878e-05 -9.5327977281972108e-05 0 1.4907666547323215e-06 2.4399049407624593e-05 0 5.4286465638371316e-06 3.753584049925222e-05 0 5.4286465638371316e-06 3.753584049925222e-05 0 4.4809875001223632e-06 4.4016511455478142e-05 0 4.4809875001223632e-06 4.4016511455478142e-05 0 3.2658719450314886e-06 5.6405326288984051e-05 0 3.2658719450314886e-06 5.6405326288984051e-05 0 1.6754952410030716e-06 6.7321616963046232e-05 0 1.6754952410030716e-06 6.7321616963046232e-05 0 -2.3300802643319322e-07 7.94074995982452e-05 0 -2.3300802643319322e-07 7.94074995982452e-05 0 -2.4573207027054578e-06 9.1615066479064017e-05 0 -2.4573207027054578e-06 9.1615066479064017e-05 0 -4.8261244914428765e-06 0.00010262079417199895 0 -4.8261244914428765e-06 0.00010262079417199895 0 -8.5937348447876239e-06 0.00011566894919061694 0 -8.5937348447876239e-06 0.00011566894919061694 0 -7.6453291537382236e-06 0.00012445858659185314 0 -7.6453291537382236e-06 0.00012445858659185314 0 -2.5508685943615975e-05 0.00013725810330711906 0 -1.54284816665638e-05 -7.5127590005231612e-06 0 -1.1662053696918302e-05 -3.134822443603194e-06 0 -1.4333207798537932e-05 -6.612864847472286e-06 0 -1.3744757155097211e-05 -4.5411862867107736e-06 0 -1.1662053696918302e-05 -3.134822443603194e-06 0 -1.54284816665638e-05 -7.5127590005231612e-06 0 -2.6866283894127482e-05 -1.3707746179597892e-05 0 -2.353911755249318e-05 -1.0300729382106062e-05 0 -2.4202038268447381e-05 -1.3569328005755134e-05 0 -2.4202038268447381e-05 -1.3569328005755134e-05 0 -2.3539117552493184e-05 -1.0300729382106062e-05 0 -2.1525796638922995e-05 -1.2277851903755192e-05 0 -1.3823175257985644e-05 4.5450192230848554e-06 0 -6.0124450110748821e-06 1.2284889400424669e-06 0 -1.251133061010606e-05 2.6397565740150445e-06 0 -1.003487721469695e-05 -4.2382245533409739e-06 0 -9.0128885187717069e-06 -2.9564127744497065e-06 0 -4.3776913575475851e-06 -1.473539295289041e-06 0 -7.1197248290345267e-06 3.2500753270525203e-06 0 -6.0124450110748821e-06 1.2284889400424669e-06 0 -1.3823175257985644e-05 4.5450192230848554e-06 0 -5.3215852360507587e-06 -2.8710942655021789e-06 0 -1.003487721469695e-05 -4.2382245533409739e-06 0 -4.3776913575475851e-06 -1.473539295289041e-06 0 -2.5263503802439367e-05 -9.002928710890263e-06 0 -3.0793064226719322e-05 -1.1610356836548613e-05 0 -2.4380769647705797e-05 -8.1046580299673283e-06 0 -4.7058632446914422e-05 1.5602994593611114e-05 0 -3.7547168424007628e-05 1.0990466801650185e-05 0 -3.6681981484163592e-05 1.024471750702193e-05 0 -2.969547719641304e-06 8.342670445367365e-07 0 -3.7846104440765518e-06 1.7444017464957988e-06 0 -4.0530579341795171e-06 5.6153070151807958e-07 0 -5.2627742188698826e-06 2.3366464202426818e-06 0 -4.0530579341795179e-06 5.6153070151807958e-07 0 -3.7846104440765518e-06 1.7444017464957988e-06 0 -5.2933030856654078e-06 3.2422223897799413e-07 0 -6.9933331062041248e-06 -1.3978919077667096e-07 0 -4.8350561531833574e-06 5.9974163615688914e-07 0 -2.329927190139957e-09 -5.6873226492375299e-10 0 -1.8083123467953404e-09 -3.8788845648921041e-10 0 -1.9842108813140188e-06 -8.4579584764286274e-07 0 -1.8452338567783146e-09 2.8855269185606492e-10 0 -2.1753532807203114e-09 2.9356623790351694e-10 0 -2.0283143929866374e-06 5.2444162485154913e-07 0 -3.0480580736263365e-05 -1.8042040050448168e-05 0 -3.050886888911135e-05 -1.792581428852452e-05 0 -2.6866283894127482e-05 -1.3707746179597892e-05 0 6.1280930196117776e-08 2.7383750385156645e-05 0 -5.0718890390403419e-06 1.8183200598268352e-05 0 -6.8429631836319072e-06 1.8628446707282911e-05 0 -4.9529918521072861e-05 -0.00014894979317213848 0 -4.1381549042403402e-05 -0.00013958666619110169 0 -4.9507571388176329e-05 -0.00013593545543070748 0 -6.1577155301794831e-05 0.0003199072766605427 0 -8.2842644215433146e-05 0.00029795787652356066 0 -6.1456300141252729e-05 0.00028951798919435359 0 -6.1577155301794831e-05 0.0003199072766605427 0 -6.1456300141252729e-05 0.00028951798919435359 0 -4.1062252002232145e-05 0.00029750069605992603 0 -4.9529918521072861e-05 -0.00014894979317213848 0 -4.9507571388176329e-05 -0.00013593545543070748 0 -5.8334667732402005e-05 -0.00013948768378246231 0 -8.6550557127544703e-05 0.00027258059094024278 0 -5.9346176227390452e-05 0.00026021210870171365 0 -6.1456300141252729e-05 0.00028951798919435359 0 -3.9450301820997994e-05 -0.00012809905231295779 0 -4.9619363028656128e-05 -0.00012255583499635951 0 -4.9507571388176329e-05 -0.00013593545543070748 0 -5.2933030856654078e-06 3.2422223897799413e-07 0 -4.8350561531833574e-06 5.9974163615688914e-07 0 -3.4899778461769324e-06 6.6623407006526696e-07 0 6.1280930196117776e-08 2.7383750385156645e-05 0 -9.6865966643179274e-06 2.4766733509703023e-05 0 -5.0718890390403419e-06 1.8183200598268352e-05 0 -0.00010404971580424175 8.2599222580431191e-05 0 -9.3495383398599068e-05 6.1952957191244959e-05 0 -7.5664639840883861e-05 6.6219368145272741e-05 0 -5.5908052511669228e-05 -3.3178233016190192e-05 0 -6.1683434459692816e-05 -4.2250212752045748e-05 0 -4.8706621510759081e-05 -3.5072098345206503e-05 0 -2.5762909508646708e-05 -1.4916056395944659e-05 0 -3.0480580736263365e-05 -1.8042040050448168e-05 0 -2.6866283894127482e-05 -1.3707746179597892e-05 0 -5.2569127445344281e-05 5.4224846646616057e-05 0 -4.5695034242301616e-05 3.3662257203459523e-05 0 -3.714809414780517e-05 3.5743401089340255e-05 0 -2.660508770078075e-05 1.1682284061526354e-05 0 -3.5853353712741318e-05 1.6591179710231601e-05 0 -3.3674772909714092e-05 1.088891686185782e-05 0 -1.8871324822655003e-05 -2.4643814439431422e-06 0 -1.631427037491916e-05 1.1932159097655908e-06 0 -2.0625113402961422e-05 -5.0906462110287915e-06 0 -4.8114977673759428e-05 -0.00010864906851705388 0 -4.0442041218969647e-05 -0.00010438981815332633 0 -4.7807160268852224e-05 -9.3762374479671245e-05 0 -5.9422013163151736e-05 0.00023045675786101172 0 -7.6982281243051284e-05 0.00022195320153601316 0 -5.4723459205924253e-05 0.00019720117278492494 0 -4.7807160268852224e-05 -9.3762374479671245e-05 0 -4.0442041218969647e-05 -0.00010438981815332633 0 -3.893084118978653e-05 -9.1547465228046296e-05 0 -5.4723459205924253e-05 0.00019720117278492494 0 -7.6982281243051284e-05 0.00022195320153601316 0 -7.562409223079778e-05 0.00019756380712249622 0 -2.660508770078075e-05 1.1682284061526354e-05 0 -3.3674772909714092e-05 1.088891686185782e-05 0 -2.3565031273690427e-05 7.5821470654958757e-06 0 -1.9196385391061265e-05 -6.7777836899314704e-06 0 -1.5655822329450568e-05 3.2402641136559176e-06 0 -1.8871324822655003e-05 -2.4643814439431422e-06 0 -5.2569127445344281e-05 5.4224846646616057e-05 0 -6.0125931264972829e-05 4.6832212715115922e-05 0 -4.5695034242301616e-05 3.3662257203459523e-05 0 6.1280930196117776e-08 2.7383750385156645e-05 0 1.0797119424006273e-05 6.8368177108065267e-05 0 -1.1005392314210386e-05 7.080732633406398e-05 0 -4.1841874714753484e-05 -4.2933942002078809e-05 0 -3.7813369556950517e-05 -4.005324519346341e-05 0 -4.2195326011452594e-05 -4.0662575071848991e-05 0 -2.6862672479471544e-05 -4.3665633281603626e-05 0 -2.5938218749471002e-05 -4.149477322046701e-05 0 -2.7227406505342007e-05 -4.3912594713720099e-05 0 -1.3244129431731372e-05 6.4100583005056259e-06 0 -1.631427037491916e-05 1.1932159097655908e-06 0 -1.8871324822655003e-05 -2.4643814439431422e-06 0 -2.308498762447992e-05 -0.00013463783595380174 0 -3.0272956426301971e-05 -0.00012538879353421318 0 -3.3089270983584809e-05 -0.00013655983754201013 0 -0.00013441490767112375 0.00029593271846701819 0 -0.00011097573261693358 0.00026985023784843564 0 -0.00010626298171739549 0.00029287997976224493 0 -1.4722379550389033e-09 -2.9716082643432212e-10 0 -1.1645349131205912e-06 -2.3380559655567761e-07 0 -1.3688544104382645e-06 -5.3402834861046428e-07 0 -1.6097032649348032e-09 3.0487971137162178e-10 0 -1.5904646531755993e-06 5.4923363639902558e-07 0 -1.4468169631645119e-06 5.9720406217840662e-07 0 -5.2569127445344281e-05 5.4224846646616057e-05 0 -3.7007913177409564e-05 5.1909677690248083e-05 0 -4.870984549884729e-05 7.8424455544743251e-05 0 -2.8891753709689873e-05 6.9570040367275914e-05 0 -4.870984549884729e-05 7.8424455544743251e-05 0 -3.7007913177409564e-05 5.1909677690248083e-05 0 -1.5702990561886266e-05 4.4156174986324979e-05 0 6.1280930196117842e-08 2.7383750385156645e-05 0 -1.1005392314210386e-05 7.080732633406398e-05 0 -0.00013413587247901131 0.00024387774220267344 0 -0.00010107195232649844 0.0002445173189702399 0 -0.00011097573261693358 0.00026985023784843564 0 -1.8947051245512032e-05 -0.00010982122143816887 0 -3.2480296041287012e-05 -0.00011378734499326852 0 -3.0272956426301971e-05 -0.00012538879353421315 0 -2.7289559489987176e-05 -3.7687035430288376e-05 0 -2.7608762152458966e-05 -3.4326538206303204e-05 0 -2.9740707044446662e-05 -3.7108441084500614e-05 0 -1.8630295433477699e-05 -2.6171502787748098e-06 0 -2.0625113402961422e-05 -5.0906462110287915e-06 0 -1.631427037491916e-05 1.1932159097655908e-06 0 -2.3071480145956638e-05 -9.7577887354872738e-06 0 -2.5236842912098519e-05 -1.4299027912134106e-05 0 -2.2845366164456417e-05 -1.3968050207973252e-05 0 -1.8621346074426833e-05 -2.29097369854284e-05 0 -1.8749461137310475e-05 -1.9643826517835836e-05 0 -2.2740047725837723e-05 -2.4443222005351178e-05 0 -0.00012130035156131903 0.00013278574379063903 0 -9.4225245846981458e-05 0.00011503200336699843 0 -0.00010390396937926419 0.00014798790779048374 0 -8.0368501018475649e-05 -0.0001152129573891909 0 -7.0438880880554838e-05 -0.00012720445549894735 0 -6.6667031319827839e-05 -0.00011621507586010827 0 1.0779359314552875e-05 0.0002352069353862124 0 -1.3625097884505215e-05 0.0002672320797255641 0 -1.8960486336891452e-05 0.00024370975358594852 0 -2.0973543780874523e-05 -0.00012209686200917848 0 -3.0272956426301971e-05 -0.00012538879353421315 0 -2.308498762447992e-05 -0.00013463783595380174 0 -0.00013441490767112375 0.00029593271846701819 0 -0.0001344699304840894 0.00027031028156595269 0 -0.00011097573261693358 0.00026985023784843564 0 -3.5446910642559487e-05 -3.54260069791413e-05 0 -3.6013154188449703e-05 -3.244761543615335e-05 0 -3.8017874157379578e-05 -3.5812192848464223e-05 0 -1.8982190467399179e-05 -1.8187989890770187e-05 0 -2.2306092085882671e-05 -2.2023261295647675e-05 0 -2.3243835502514857e-05 -3.1827313848730647e-05 0 -3.5446910642559487e-05 -3.54260069791413e-05 0 -3.3894297065944683e-05 -3.2709930787629014e-05 0 -3.6013154188449703e-05 -3.244761543615335e-05 0 -2.1929658839245295e-05 -1.9850499665088437e-05 0 -2.2740047725837723e-05 -2.4443222005351178e-05 0 -1.8749461137310475e-05 -1.9643826517835836e-05 0 -4.1115126070483746e-05 -5.4483728775200337e-05 0 -4.440580094896179e-05 -7.0106753622135233e-05 0 -3.5106928042954793e-05 -5.7865808553836497e-05 0 -3.2834209289462906e-09 2.7245994739474068e-10 0 -4.3776913575475851e-06 -1.473539295289041e-06 0 -3.0503708660176399e-06 -4.5417200242156465e-07 0 -4.5921885192837105e-09 -6.2187111887020267e-10 0 -4.0719206853714988e-06 -8.0193674193990522e-08 0 -6.0124450110748821e-06 1.2284889400424669e-06 0 -4.1841874714753484e-05 -4.2933942002078809e-05 0 -3.7709111331633353e-05 -4.3025142615550143e-05 0 -3.7813369556950517e-05 -4.005324519346341e-05 0 -2.744556161330207e-05 -4.4976150728197723e-05 0 -2.6862672479471544e-05 -4.3665633281603626e-05 0 -2.7227406505342007e-05 -4.3912594713720099e-05 0 -3.4316775451966696e-09 -8.8169621276379213e-10 0 -5.2498723331767764e-06 -6.0298209993553726e-07 0 -4.071920685371498e-06 -8.0193674193990839e-08 0 -2.7294278309911193e-09 3.6711735306658306e-10 0 -3.0503708660176399e-06 -4.5417200242156465e-07 0 -4.1370491505128074e-06 -2.2626822611490055e-07 0 -4.0530579341795171e-06 5.6153070151807958e-07 0 -3.2202570524434082e-06 -6.6506381445406855e-07 0 -2.8855749379333947e-06 5.9167545495604762e-08 0 -1.4822215841088219e-05 -5.506693775105604e-06 0 -1.2435329964915095e-05 -3.5132055762146301e-06 0 -9.0128885187717069e-06 -2.9564127744497065e-06 0 -2.0979291344675422e-05 5.9167535335613149e-06 0 -1.251133061010606e-05 2.6397565740150449e-06 0 -1.7340114386858248e-05 3.0339137293672193e-06 0 -2.635520732160167e-05 -2.425982733694859e-05 0 -2.465877961556065e-05 -2.0277340518761089e-05 0 -2.7894588145882173e-05 -2.2201183570415999e-05 0 -2.5901132115310348e-05 -1.8103535376723351e-05 0 -2.2845366164456417e-05 -1.3968050207973252e-05 0 -2.5236842912098519e-05 -1.4299027912134106e-05 0 5.0910717448802428e-06 0.00028763838307761358 0 -1.9892850530189337e-05 0.00029073922128301712 0 -1.3625097884505215e-05 0.0002672320797255641 0 -8.0630236513986746e-05 -0.00013855401180782044 0 -6.831670696129105e-05 -0.00013719873654144049 0 -7.0438880880554838e-05 -0.00012720445549894735 0 -2.5901132115310348e-05 -1.8103535376723351e-05 0 -2.7894588145882173e-05 -2.2201183570415999e-05 0 -2.465877961556065e-05 -2.0277340518761089e-05 0 -2.7608762152458966e-05 -3.4326538206303204e-05 0 -2.4950173614306623e-05 -3.3256149644149592e-05 0 -2.6604898299238503e-05 -2.9566593410677047e-05 0 -7.6094390955522683e-05 0.00017229542193669187 0 -6.6778106320450223e-05 0.00013699005097449931 0 -5.2667743311936012e-05 0.00014953139477141453 0 -4.5921885192837105e-09 -6.2187111887020267e-10 0 -4.8784382615314294e-09 3.287433333436397e-10 0 -4.071920685371498e-06 -8.0193674193990839e-08 0 -3.654060750909411e-09 -4.1479749387761399e-10 0 -3.2834209289462906e-09 2.7245994739474068e-10 0 -3.0503708660176399e-06 -4.5417200242156465e-07 0 -4.0530579341795171e-06 5.6153070151807958e-07 0 -5.1283303460449464e-06 4.611131685826554e-08 0 -3.2202570524434082e-06 -6.6506381445406855e-07 0 -3.6564990909166425e-05 0.00027150074895408564 0 -6.1456300141252729e-05 0.00028951798919435359 0 -5.9346176227390452e-05 0.00026021210870171365 0 -5.9842248934160382e-05 -0.00012794068338176413 0 -4.9507571388176329e-05 -0.00013593545543070748 0 -4.9619363028656128e-05 -0.00012255583499635951 0 -4.440580094896179e-05 -7.0106753622135233e-05 0 -3.6383347713446029e-05 -7.0081208668623432e-05 0 -3.5106928042954793e-05 -5.7865808553836497e-05 0 -1.6753628263274374e-06 4.3882134670762299e-07 0 -2.3630459712161684e-06 8.4975743261614051e-07 0 -2.1570992937918114e-06 5.0753557079929192e-07 0 -1.4960907630746904e-05 2.46891293716691e-06 0 -1.1587059395071412e-05 2.2666031101912923e-06 0 -1.704306894411621e-05 4.6310028774428843e-06 0 -2.4950173614306623e-05 -3.3256149644149592e-05 0 -2.3577620222623919e-05 -2.9299396007716885e-05 0 -2.6604898299238503e-05 -2.9566593410677047e-05 0 -2.1570992937918114e-06 5.0753557079929192e-07 0 -2.3630459712161684e-06 8.4975743261614051e-07 0 -2.7155109428899896e-06 9.969173489852958e-07 0 -2.3630459712161684e-06 8.4975743261614051e-07 0 -1.4319031098673037e-06 5.1424697916220251e-07 0 -2.5118211982386929e-06 8.6741881259454672e-07 0 -1.8936022956137111e-06 7.2033049180044399e-07 0 -2.5118211982386929e-06 8.6741881259454672e-07 0 -1.4319031098673037e-06 5.1424697916220251e-07 0 -3.8410045356775376e-05 -3.4408438920017756e-05 0 -3.6013154188449703e-05 -3.244761543615335e-05 0 -3.7726258643234858e-05 -3.151138783249472e-05 0 -2.3071480145956638e-05 -9.7577887354872738e-06 0 -2.2845366164456414e-05 -1.3968050207973251e-05 0 -2.1152652418261783e-05 -8.203087116112517e-06 0 -2.7289559489987176e-05 -3.7687035430288376e-05 0 -2.4950173614306623e-05 -3.3256149644149592e-05 0 -2.7608762152458966e-05 -3.4326538206303204e-05 0 -1.3244129431731372e-05 6.4100583005056259e-06 0 -1.8871324822655003e-05 -2.4643814439431413e-06 0 -1.5655822329450568e-05 3.2402641136559176e-06 0 8.0525445449285431e-06 0.0002611498806194772 0 5.0910717448802428e-06 0.00028763838307761358 0 -1.3625097884505215e-05 0.0002672320797255641 0 -8.0650149995722652e-05 -0.00012717064109970568 0 -8.0630236513986746e-05 -0.00013855401180782044 0 -7.0438880880554838e-05 -0.00012720445549894735 0 -8.0368501018475649e-05 -0.0001152129573891909 0 -8.0650149995722652e-05 -0.00012717064109970568 0 -7.0438880880554838e-05 -0.00012720445549894735 0 1.0779359314552875e-05 0.0002352069353862124 0 8.0525445449285431e-06 0.0002611498806194772 0 -1.3625097884505215e-05 0.0002672320797255641 0 -9.0519744497178298e-06 1.0619721045141622e-05 0 -8.9589296770967937e-06 8.417276089066547e-06 0 -1.3244129431731372e-05 6.4100583005056259e-06 0 -4.7198739462616159e-06 7.5618338403915064e-07 0 -3.1143597592985042e-06 8.6204054797668741e-07 0 -4.8350561531833574e-06 5.9974163615688914e-07 0 -2.7834844344541814e-06 7.6993644243470968e-07 0 -4.8350561531833574e-06 5.9974163615688914e-07 0 -3.1143597592985042e-06 8.6204054797668741e-07 0 -1.170861941171688e-05 0.00015081852300244142 0 -5.6117914792266731e-06 0.00016919414684622215 0 -3.1715338718979572e-05 0.00017100436838744532 0 -5.6117914792266731e-06 0.00016919414684622215 0 -1.3004396858639102e-05 0.00018881847497822474 0 -3.1715338718979572e-05 0.00017100436838744532 0 -1.9196385391061265e-05 -6.7777836899314704e-06 0 -1.8871324822654999e-05 -2.4643814439431426e-06 0 -2.1152652418261783e-05 -8.203087116112517e-06 0 -2.8338385135157604e-05 -4.5297106783515864e-05 0 -2.7227406505342007e-05 -4.3912594713720099e-05 0 -2.8373646008952835e-05 -4.2408193252938931e-05 0 -3.3659377481557294e-05 -4.3597689758126276e-05 0 -3.4493641731642228e-05 -3.9664295124064853e-05 0 -3.7813369556950517e-05 -4.005324519346341e-05 0 -8.9589296770967937e-06 8.417276089066547e-06 0 -1.1914222335798335e-05 4.7989125959004214e-06 0 -1.3244129431731372e-05 6.4100583005056259e-06 0 -0.0001344699304840894 0.00027031028156595269 0 -0.00013413587247901131 0.00024387774220267344 0 -0.00011097573261693358 0.00026985023784843564 0 -1.8947051245512032e-05 -0.00010982122143816887 0 -3.0272956426301971e-05 -0.00012538879353421315 0 -2.0973543780874523e-05 -0.00012209686200917848 0 -3.0793064226719322e-05 -1.1610356836548613e-05 0 -3.0389935115879383e-05 -1.1475031432070039e-05 0 -2.4380769647705797e-05 -8.1046580299673283e-06 0 -4.7058632446914422e-05 1.5602994593611114e-05 0 -3.6681981484163592e-05 1.024471750702193e-05 0 -4.5428840333232252e-05 1.5810762584272045e-05 0 -1.9196385391061265e-05 -6.7777836899314704e-06 0 -2.2845366164456417e-05 -1.3968050207973252e-05 0 -1.9297259872614867e-05 -1.4799271196941326e-05 0 -1.8982190467399179e-05 -1.8187989890770187e-05 0 -2.3243835502514857e-05 -3.1827313848730647e-05 0 -1.4943556766270428e-05 -3.3539437779854745e-05 0 -2.1929658839245295e-05 -1.9850499665088437e-05 0 -2.2845366164456417e-05 -1.3968050207973252e-05 0 -2.465877961556065e-05 -2.0277340518761089e-05 0 -2.5901132115310348e-05 -1.8103535376723351e-05 0 -2.465877961556065e-05 -2.0277340518761089e-05 0 -2.2845366164456417e-05 -1.3968050207973252e-05 0 -4.9529918521072861e-05 -0.00014894979317213848 0 -4.0792747057045584e-05 -0.00014848276672911154 0 -4.1381549042403402e-05 -0.00013958666619110169 0 -6.1577155301794831e-05 0.0003199072766605427 0 -8.4990957805162302e-05 0.00032030080352289024 0 -8.2842644215433146e-05 0.00029795787652356066 0 -3.9584088701877833e-05 0.00031875197421546349 0 -6.1577155301794831e-05 0.0003199072766605427 0 -4.1062252002232145e-05 0.00029750069605992603 0 -5.9255992692990432e-05 -0.00014907957716057385 0 -4.9529918521072861e-05 -0.00014894979317213848 0 -5.8334667732402005e-05 -0.00013948768378246231 0 -2.1965283411088442e-05 3.3173207556498087e-05 0 -3.7007913177409564e-05 5.1909677690248083e-05 0 -3.714809414780517e-05 3.5743401089340255e-05 0 -3.01309069744639e-05 -2.1974301191386935e-05 0 -3.2855488550000019e-05 -2.5788570136128397e-05 0 -3.0881878960843167e-05 -2.6077143015551205e-05 0 -2.1929658839245295e-05 -1.9850499665088437e-05 0 -2.465877961556065e-05 -2.0277340518761089e-05 0 -2.2740047725837723e-05 -2.4443222005351178e-05 0 -2.635520732160167e-05 -2.425982733694859e-05 0 -2.2740047725837723e-05 -2.4443222005351178e-05 0 -2.465877961556065e-05 -2.0277340518761089e-05 0 -2.8603955763044578e-05 -6.071999791549322e-05 0 -2.6345557133966524e-05 -4.622656023951224e-05 0 -3.5106928042954793e-05 -5.7865808553836497e-05 0 -0.00010404971580424175 8.2599222580431191e-05 0 -7.5664639840883861e-05 6.6219368145272741e-05 0 -9.2577576332555605e-05 9.1617719383480222e-05 0 -2.5437764314787781e-05 -1.3584583240441026e-05 0 -3.1143054725559421e-05 -1.9433908087772826e-05 0 -2.4064296420824561e-05 -1.5601770794610835e-05 0 -2.7942065239255056e-05 -2.1815188819711155e-05 0 -2.4064296420824561e-05 -1.5601770794610835e-05 0 -3.1143054725559421e-05 -1.9433908087772826e-05 0 -3.6563266542260501e-05 -3.7503205138074913e-05 0 -3.3241375344756079e-05 -3.7096404693044306e-05 0 -3.5446910642559487e-05 -3.54260069791413e-05 0 -8.4479010895871271e-05 0.00013291081636561294 0 -0.00010390396937926419 0.00014798790779048374 0 -9.4225245846981458e-05 0.00011503200336699843 0 -2.9724999202618356e-05 -1.2193947107727206e-05 0 -3.6548656415550086e-05 -1.7042711217421176e-05 0 -3.0979831460884399e-05 -1.539213045536578e-05 0 -3.7806356005892955e-05 -2.0847686642681141e-05 0 -3.0979831460884399e-05 -1.539213045536578e-05 0 -3.6548656415550086e-05 -1.7042711217421176e-05 0 -5.6100967000818966e-05 3.5455184846385342e-05 0 -5.5477020173318078e-05 2.7169911974881724e-05 0 -4.4233717263615636e-05 2.4566720763794475e-05 0 -4.3782551521289882e-05 1.8315913223882166e-05 0 -4.4233717263615636e-05 2.4566720763794475e-05 0 -5.5477020173318078e-05 2.7169911974881724e-05 0 -3.4426657892543027e-05 -2.9584012498282801e-05 0 -3.17761236180717e-05 -2.9828527624329254e-05 0 -3.0881878960843167e-05 -2.6077143015551205e-05 0 -6.1683434459692816e-05 -4.2250212752045748e-05 0 -5.7200149131134025e-05 -4.5947848847042189e-05 0 -4.8706621510759081e-05 -3.5072098345206503e-05 0 -2.0927274105295222e-05 0.00012602342258200857 0 -3.5584641526177189e-05 0.00010091117827928739 0 -1.5847335122806349e-05 9.6276818463452392e-05 0 -1.8630295433477699e-05 -2.6171502787748098e-06 0 -2.0027599492044917e-05 -5.8846685181558601e-06 0 -2.2690749775026487e-05 -8.01930195132885e-06 0 -6.1592360541505033e-06 2.4899579742858606e-06 0 -5.325814568592604e-06 4.2001633983331089e-06 0 -4.6137694755536784e-06 2.7870277555227254e-06 0 -9.5046548582764567e-05 0.00021392041291947865 0 -7.6982281243051284e-05 0.00022195320153601316 0 -0.00010107195232649844 0.0002445173189702399 0 -3.2579691554397705e-05 -9.916223443581589e-05 0 -4.0442041218969647e-05 -0.00010438981815332633 0 -3.2480296041287012e-05 -0.00011378734499326852 0 -1.9196385391061265e-05 -6.7777836899314704e-06 0 -2.115265241826178e-05 -8.203087116112517e-06 0 -2.2845366164456417e-05 -1.3968050207973252e-05 0 -3.4493641731642228e-05 -3.9664295124064853e-05 0 -3.3241375344756079e-05 -3.7096404693044306e-05 0 -3.6563266542260501e-05 -3.7503205138074913e-05 0 -2.635520732160167e-05 -2.425982733694859e-05 0 -2.8821002464884366e-05 -2.6470948760537858e-05 0 -2.6604898299238503e-05 -2.9566593410677047e-05 0 -1.8083123467953404e-09 -3.8788845648921041e-10 0 -1.3688544104382645e-06 -5.3402834861046428e-07 0 -1.9842108813140188e-06 -8.4579584764286274e-07 0 -1.8452338567783146e-09 2.8855269185606492e-10 0 -2.0283143929866374e-06 5.2444162485154913e-07 0 -1.5904646531755993e-06 5.4923363639902558e-07 0 -2.6345557133966524e-05 -4.622656023951224e-05 0 -3.4148503675170235e-05 -4.653507126438939e-05 0 -3.5106928042954793e-05 -5.7865808553836497e-05 0 -1.4960907630746904e-05 2.46891293716691e-06 0 -1.704306894411621e-05 4.6310028774428843e-06 0 -2.050802578166163e-05 4.2425774658109033e-06 0 -3.0945377638586867e-05 2.059329059858717e-05 0 -3.7148094147805163e-05 3.5743401089340255e-05 0 -4.5695034242301616e-05 3.3662257203459523e-05 0 -2.1462449405376485e-06 -3.6507175610721313e-07 0 -1.1645349131205912e-06 -2.3380559655567761e-07 0 -2.113957266757019e-06 6.4809447150332892e-08 0 -1.5404935642591312e-06 1.7483056103672826e-07 0 -2.113957266757019e-06 6.4809447150332892e-08 0 -1.1645349131205912e-06 -2.3380559655567761e-07 0 -1.8936022956137111e-06 7.2033049180044399e-07 0 -1.4468169631645119e-06 5.9720406217840662e-07 0 -3.1143597592985042e-06 8.6204054797668741e-07 0 -2.7834844344541814e-06 7.6993644243470968e-07 0 -3.1143597592985042e-06 8.6204054797668741e-07 0 -1.4468169631645119e-06 5.9720406217840662e-07 0 -2.660508770078075e-05 1.1682284061526354e-05 0 -2.1814757519173255e-05 1.3322729078666419e-05 0 -3.0945377638586867e-05 2.059329059858717e-05 0 -6.1592360541505033e-06 2.4899579742858606e-06 0 -7.4841442555495916e-06 3.7319258025150087e-06 0 -5.325814568592604e-06 4.2001633983331089e-06 0 -5.2627742188698826e-06 2.3366464202426818e-06 0 -6.0800651811256805e-06 1.0630538819213494e-06 0 -4.0530579341795171e-06 5.6153070151807958e-07 0 -1.704306894411621e-05 4.6310028774428843e-06 0 -1.1587059395071412e-05 2.2666031101912923e-06 0 -1.3654436564904922e-05 5.3554412958867969e-06 0 -1.0381131281105784e-05 3.1999446440654543e-06 0 -8.1888670182967437e-06 6.0508938582319696e-06 0 -7.4841442555495916e-06 3.7319258025150083e-06 0 -1.1578516390568701e-05 -2.5141112825200154e-06 0 -1.2825746758994137e-05 -3.7958441278310543e-06 0 -9.6918061572950185e-06 -1.5386506775284265e-06 0 -1.1353868054148991e-05 -3.0281947563386409e-06 0 -9.6918061572950185e-06 -1.5386506775284265e-06 0 -1.2825746758994137e-05 -3.7958441278310543e-06 0 -4.8784382615313533e-09 3.287433333436413e-10 0 -3.4316775451966696e-09 -8.8169621276379213e-10 0 -4.071920685371498e-06 -8.0193674193990839e-08 0 -2.7294278309911193e-09 3.6711735306658306e-10 0 -3.654060750909411e-09 -4.1479749387761399e-10 0 -3.0503708660176399e-06 -4.5417200242156465e-07 0 1.3979043496451661e-05 9.785489191091115e-05 0 -1.5847335122806349e-05 9.6276818463452392e-05 0 -1.1005392314210386e-05 7.080732633406398e-05 0 -4.7198739462616159e-06 7.5618338403915064e-07 0 -6.8921832891836813e-06 1.7063642669005198e-08 0 -4.8880670517989171e-06 9.1553622178169437e-07 0 -2.353911755249318e-05 -1.0300729382106062e-05 0 -1.923544131193863e-05 -7.9010127665030048e-06 0 -2.1525796638922995e-05 -1.2277851903755192e-05 0 -3.1179759975706288e-05 -3.9776002132380752e-05 0 -3.3241375344756079e-05 -3.7096404693044306e-05 0 -3.4493641731642228e-05 -3.9664295124064853e-05 0 -2.5263503802439367e-05 -9.002928710890263e-06 0 -2.4380769647705797e-05 -8.1046580299673283e-06 0 -2.0518631779143289e-05 -6.4623848538365867e-06 0 -3.7547168424007628e-05 1.0990466801650185e-05 0 -3.0027603966234954e-05 7.1773147593811459e-06 0 -3.6681981484163592e-05 1.024471750702193e-05 0 -2.9328137069948756e-05 -2.9902366152695938e-05 0 -2.6604898299238503e-05 -2.9566593410677047e-05 0 -2.8821002464884366e-05 -2.6470948760537858e-05 0 -2.4380769647705797e-05 -8.1046580299673283e-06 0 -2.058022647403664e-05 -6.3940242979962315e-06 0 -1.9660700543378462e-05 -5.777729744653868e-06 0 -2.6308591032077906e-05 6.9853328811494717e-06 0 -2.3565031273690427e-05 7.5821470654958757e-06 0 -3.3674772909714092e-05 1.088891686185782e-05 0 -2.5796458304323937e-05 -9.2238506839432498e-06 0 -2.058022647403664e-05 -6.3940242979962315e-06 0 -2.4380769647705797e-05 -8.1046580299673283e-06 0 -8.8251682085510403e-06 -8.4465678003462264e-07 0 -1.0542820182168474e-05 -1.5746527216496064e-06 0 -1.170519655132776e-05 -2.1865267533525403e-06 0 -8.338645614049735e-06 5.8729731154343809e-07 0 -1.1587059395071412e-05 2.2666031101912923e-06 0 -1.2074860927873739e-05 7.5288272506640319e-07 0 -3.5853353712741318e-05 1.6591179710231601e-05 0 -2.660508770078075e-05 1.1682284061526354e-05 0 -3.0945377638586867e-05 2.059329059858717e-05 0 -3.4426657892543027e-05 -2.9584012498282801e-05 0 -3.0881878960843167e-05 -2.6077143015551205e-05 0 -3.2855488550000019e-05 -2.5788570136128397e-05 0 -2.4059804414171393e-05 0.00021453955062652715 0 -1.8960486336891452e-05 0.00024370975358594852 0 -4.0826480426329882e-05 0.00024119270932551989 0 -6.2450393068322167e-05 -0.00010253879495903816 0 -6.6667031319827825e-05 -0.00011621507586010827 0 -5.6651721944132606e-05 -0.00011412762122748837 0 -2.1462449405376485e-06 -3.6507175610721313e-07 0 -1.3688544104382645e-06 -5.3402834861046428e-07 0 -1.1645349131205912e-06 -2.3380559655567761e-07 0 -2.7834844344541814e-06 7.6993644243470968e-07 0 -1.4468169631645117e-06 5.9720406217840662e-07 0 -1.5904646531755993e-06 5.4923363639902558e-07 0 -2.329927190139957e-09 -5.6873226492375299e-10 0 -1.9842108813140188e-06 -8.4579584764286274e-07 0 -2.2978163248483685e-06 -8.790237840114097e-07 0 -2.1753532807203114e-09 2.9356623790351694e-10 0 -2.1123188182360405e-06 3.6462072939012113e-07 0 -2.0283143929866374e-06 5.2444162485154913e-07 0 -2.353911755249318e-05 -1.0300729382106062e-05 0 -2.6866283894127482e-05 -1.3707746179597892e-05 0 -2.6069275698651755e-05 -1.2394411616158989e-05 0 -2.8535623940441096e-05 -1.5744110358329605e-05 0 -2.6069275698651755e-05 -1.2394411616158989e-05 0 -2.6866283894127482e-05 -1.3707746179597892e-05 0 -5.436218736703321e-05 0.00010802359466569298 0 -4.870984549884729e-05 7.8424455544743251e-05 0 -3.5584641526177189e-05 0.00010091117827928739 0 -2.8891753709689873e-05 6.9570040367275914e-05 0 -3.5584641526177196e-05 0.00010091117827928739 0 -4.870984549884729e-05 7.8424455544743251e-05 0 -9.918500206879698e-06 1.670872738398843e-05 0 -6.6157378350038669e-06 1.1326931260232362e-05 0 -5.0718890390403419e-06 1.8183200598268352e-05 0 -2.353911755249318e-05 -1.0300729382106062e-05 0 -2.0027599492044917e-05 -5.8846685181558601e-06 0 -1.923544131193863e-05 -7.9010127665030048e-06 0 -2.969547719641304e-06 8.342670445367365e-07 0 -2.1570992937918114e-06 5.0753557079929192e-07 0 -2.7155109428899896e-06 9.969173489852958e-07 0 -3.01309069744639e-05 -2.1974301191386935e-05 0 -3.0881878960843167e-05 -2.6077143015551205e-05 0 -2.7894588145882173e-05 -2.2201183570415999e-05 0 -7.6094390955522683e-05 0.00017229542193669187 0 -8.6615486806459845e-05 0.00015254479318226429 0 -6.6778106320450223e-05 0.00013699005097449931 0 -3.8410045356775376e-05 -3.4408438920017756e-05 0 -3.7726258643234858e-05 -3.151138783249472e-05 0 -4.0088887348131469e-05 -3.5198340375642342e-05 0 -2.7608762152458966e-05 -3.4326538206303204e-05 0 -2.938341203874818e-05 -3.2903394528505785e-05 0 -2.9740707044446662e-05 -3.7108441084500614e-05 0 -7.3254460315870701e-06 -2.5798065018492043e-07 0 -4.8350561531833574e-06 5.9974163615688914e-07 0 -6.9933331062041248e-06 -1.3978919077667096e-07 0 -5.2569127445344281e-05 5.4224846646616057e-05 0 -3.714809414780517e-05 3.5743401089340255e-05 0 -3.7007913177409564e-05 5.1909677690248083e-05 0 -1.003487721469695e-05 -4.2382245533409739e-06 0 -1.4822215841088219e-05 -5.506693775105604e-06 0 -9.0128885187717069e-06 -2.9564127744497065e-06 0 -2.0979291344675422e-05 5.9167535335613149e-06 0 -1.3823175257985644e-05 4.5450192230848554e-06 0 -1.251133061010606e-05 2.6397565740150445e-06 0 -2.1929658839245295e-05 -1.9850499665088437e-05 0 -1.9297259872614867e-05 -1.4799271196941326e-05 0 -2.2845366164456417e-05 -1.3968050207973252e-05 0 -4.4752118306642143e-06 1.2530486962317654e-07 0 -7.4365112774915434e-06 -4.5082351976259135e-07 0 -4.3753249823556196e-06 3.942742620726146e-07 0 -5.113307699797434e-06 -9.6810938268726394e-07 0 -4.2370236357515238e-06 -1.0182216947241022e-06 0 -8.2421451641231283e-06 -4.2014729334512563e-07 0 -9.3495383398599068e-05 6.1952957191244959e-05 0 -7.2150756590128973e-05 4.8407648809347643e-05 0 -7.5664639840883861e-05 6.6219368145272741e-05 0 -5.5908052511669228e-05 -3.3178233016190192e-05 0 -4.8706621510759081e-05 -3.5072098345206503e-05 0 -4.5755500919066167e-05 -2.672023581080006e-05 0 -2.1965283411088442e-05 3.3173207556498087e-05 0 -9.6865966643179274e-06 2.4766733509703023e-05 0 -1.5702990561886266e-05 4.4156174986324979e-05 0 6.1280930196117776e-08 2.7383750385156645e-05 0 -1.5702990561886266e-05 4.4156174986324979e-05 0 -9.6865966643179274e-06 2.4766733509703023e-05 0 -3.003588996565146e-05 -3.6098015589578225e-05 0 -3.7761023240126118e-05 -3.9835232353831854e-05 0 -3.4148503675170235e-05 -4.653507126438939e-05 0 -4.1115126070483746e-05 -5.4483728775200337e-05 0 -3.4148503675170235e-05 -4.653507126438939e-05 0 -3.7761023240126118e-05 -3.9835232353831854e-05 0 -1.9196385391061265e-05 -6.7777836899314704e-06 0 -1.5142330499684383e-05 -2.4786432024100358e-07 0 -1.5655822329450568e-05 3.2402641136559176e-06 0 -3.1179759975706288e-05 -3.9776002132380752e-05 0 -3.4493641731642228e-05 -3.9664295124064853e-05 0 -3.1916693742177614e-05 -4.2049725978097608e-05 0 -2.969547719641304e-06 8.342670445367365e-07 0 -4.0530579341795171e-06 5.6153070151807958e-07 0 -2.8855749379333947e-06 5.9167545495604762e-08 0 -3.1143054725559421e-05 -1.9433908087772826e-05 0 -3.9784973954110555e-05 -2.6241397243395989e-05 0 -3.4025688932355337e-05 -2.5434107159899715e-05 0 -2.8338385135157604e-05 -4.5297106783515864e-05 0 -2.8373646008952835e-05 -4.2408193252938931e-05 0 -2.9968824722887596e-05 -4.2608670484451633e-05 0 -7.6266441300801055e-05 9.1133615614306639e-05 0 -9.2577576332555605e-05 9.1617719383480222e-05 0 -7.5664639840883861e-05 6.6219368145272741e-05 0 -0.00010107195232649844 0.0002445173189702399 0 -7.6982281243051284e-05 0.00022195320153601316 0 -7.6652150221965737e-05 0.00024674117245057246 0 -3.2480296041287012e-05 -0.00011378734499326852 0 -4.0442041218969647e-05 -0.00010438981815332633 0 -4.2121745360620059e-05 -0.00011587877221774629 0 -8.7759137341911442e-06 -7.9648315063020457e-07 0 -8.1702495859493163e-06 2.9817495021067391e-07 0 -6.6980028107463011e-06 4.301623677668321e-07 0 -2.8535623940441096e-05 -1.5744110358329605e-05 0 -2.6866283894127482e-05 -1.3707746179597892e-05 0 -3.050886888911135e-05 -1.792581428852452e-05 0 -3.6929331593720266e-06 1.7419540732374095e-06 0 -4.6137694755536784e-06 2.7870277555227254e-06 0 -3.9051349956765499e-06 2.5094752863812658e-06 0 -4.5714314962146744e-06 3.8395994205947726e-06 0 -3.9051349956765499e-06 2.5094752863812658e-06 0 -4.6137694755536784e-06 2.7870277555227254e-06 0 -1.704306894411621e-05 4.6310028774428843e-06 0 -2.3565031273690427e-05 7.5821470654958757e-06 0 -2.050802578166163e-05 4.2425774658109033e-06 0 -4.1115126070483746e-05 -5.4483728775200337e-05 0 -4.8452565621956752e-05 -6.2630460996678468e-05 0 -4.440580094896179e-05 -7.0106753622135233e-05 0 -2.2456807036329891e-05 4.0905115613457453e-06 0 -1.7726834122806595e-05 2.3375301547412046e-06 0 -2.6986369535042766e-05 5.984695315110601e-06 0 -3.1715338718979572e-05 0.00017100436838744532 0 -5.4723459205924253e-05 0.00019720117278492494 0 -5.8369756347626283e-05 0.00017394802485575672 0 -3.1715338718979572e-05 0.00017100436838744532 0 -5.8369756347626283e-05 0.00017394802485575672 0 -5.2667743311936012e-05 0.00014953139477141453 0 -7.6094390955522683e-05 0.00017229542193669187 0 -5.2667743311936012e-05 0.00014953139477141451 0 -5.8369756347626283e-05 0.00017394802485575672 0 -5.3881990228824605e-05 -8.1792220537774748e-05 0 -4.7807160268852224e-05 -9.3762374479671245e-05 0 -4.2873397592233924e-05 -8.1255510549906965e-05 0 -5.3881990228824605e-05 -8.1792220537774748e-05 0 -4.2873397592233924e-05 -8.1255510549906965e-05 0 -4.440580094896179e-05 -7.0106753622135233e-05 0 -6.6157378350038669e-06 1.1326931260232362e-05 0 -5.77169942442581e-06 1.302792445631795e-05 0 -5.0718890390403419e-06 1.8183200598268352e-05 0 -1.4722379550389033e-09 -2.9716082643432212e-10 0 -1.1320647371417644e-09 2.0830926130968727e-11 0 -1.1645349131205912e-06 -2.3380559655567761e-07 0 -1.3502556856203968e-09 2.287815388953487e-10 0 -1.6097032649348032e-09 3.0487971137162178e-10 0 -1.4468169631645119e-06 5.9720406217840662e-07 0 -6.8921832891836813e-06 1.7063642669005198e-08 0 -6.6980028107463011e-06 4.30162367766832e-07 0 -4.8880670517989171e-06 9.1553622178169437e-07 0 -1.8982190467399179e-05 -1.8187989890770187e-05 0 -1.9056208666035367e-05 -1.5550124575779293e-05 0 -2.2306092085882671e-05 -2.2023261295647675e-05 0 -1.7726834122806595e-05 2.3375301547412046e-06 0 -2.0508025781661627e-05 4.2425774658109033e-06 0 -2.6986369535042766e-05 5.984695315110601e-06 0 -1.1278447575824176e-09 1.7514076031256325e-10 0 -1.4319031098673037e-06 5.1424697916220251e-07 0 -9.2115766653404075e-07 1.8860327378195381e-07 0 -2.0979291344675422e-05 5.9167535335613149e-06 0 -1.7340114386858248e-05 3.0339137293672193e-06 0 -2.4087655753632833e-05 5.408505517415819e-06 0 -1.4822215841088219e-05 -5.506693775105604e-06 0 -1.6811688562337226e-05 -5.2625227486641339e-06 0 -1.2435329964915094e-05 -3.5132055762146301e-06 0 -5.004611350010336e-05 -4.524322597226364e-05 0 -4.8706621510759081e-05 -3.5072098345206496e-05 0 -5.7200149131134025e-05 -4.5947848847042189e-05 0 -2.5118211982386929e-06 8.6741881259454672e-07 0 -1.8936022956137111e-06 7.2033049180044399e-07 0 -3.4279146717266998e-06 9.5985674735273292e-07 0 -3.4426657892543027e-05 -2.9584012498282801e-05 0 -3.7726258643234858e-05 -3.151138783249472e-05 0 -3.6013154188449703e-05 -3.244761543615335e-05 0 -1.0381131281105784e-05 3.1999446440654543e-06 0 -7.4841442555495916e-06 3.7319258025150083e-06 0 -9.5492080882981942e-06 1.7305408751933134e-06 0 -2.0927274105295222e-05 0.00012602342258200857 0 -4.3762270310754315e-05 0.00012807365444988342 0 -3.5584641526177189e-05 0.00010091117827928739 0 -2.969547719641304e-06 8.342670445367365e-07 0 -2.113957266757019e-06 6.4809447150332892e-08 0 -2.1570992937918114e-06 5.0753557079929192e-07 0 -8.6550557127544703e-05 0.00027258059094024278 0 -7.6652150221965737e-05 0.00024674117245057246 0 -5.9346176227390452e-05 0.00026021210870171365 0 -3.9450301820997994e-05 -0.00012809905231295779 0 -4.2121745360620059e-05 -0.00011587877221774629 0 -4.9619363028656128e-05 -0.00012255583499635951 0 -1.8936022956137111e-06 7.2033049180044399e-07 0 -3.1143597592985042e-06 8.6204054797668741e-07 0 -3.4279146717266998e-06 9.5985674735273292e-07 0 -1.0381131281105784e-05 3.1999446440654543e-06 0 -1.2377260305656023e-05 2.458284599185282e-08 0 -1.450119026935303e-05 6.7372756337697915e-07 0 -3.6564990909166425e-05 0.00027150074895408564 0 -4.1062252002232145e-05 0.00029750069605992603 0 -6.1456300141252729e-05 0.00028951798919435359 0 -8.6550557127544703e-05 0.00027258059094024278 0 -6.1456300141252715e-05 0.00028951798919435353 0 -8.2842644215433146e-05 0.00029795787652356066 0 -5.9842248934160382e-05 -0.00012794068338176413 0 -5.8334667732402005e-05 -0.00013948768378246231 0 -4.9507571388176329e-05 -0.00013593545543070748 0 -3.9450301820997994e-05 -0.00012809905231295779 0 -4.9507571388176329e-05 -0.00013593545543070748 0 -4.1381549042403402e-05 -0.00013958666619110169 0 -3.0945377638586867e-05 2.059329059858717e-05 0 -4.5695034242301616e-05 3.3662257203459523e-05 0 -4.4233717263615636e-05 2.4566720763794475e-05 0 -3.8704006937692839e-05 -3.0609958700454138e-05 0 -4.8706621510759081e-05 -3.5072098345206503e-05 0 -4.3611056603696007e-05 -3.8804497170601512e-05 0 -5.004611350010336e-05 -4.524322597226364e-05 0 -4.3611056603696007e-05 -3.8804497170601512e-05 0 -4.8706621510759081e-05 -3.5072098345206503e-05 0 -7.6266441300801055e-05 9.1133615614306639e-05 0 -7.5664639840883861e-05 6.6219368145272741e-05 0 -6.2335171271492491e-05 7.5711566012691395e-05 0 -5.2569127445344281e-05 5.4224846646616057e-05 0 -6.2335171271492491e-05 7.5711566012691395e-05 0 -7.5664639840883861e-05 6.6219368145272741e-05 0 -2.7834844344541814e-06 7.6993644243470968e-07 0 -3.4899778461769324e-06 6.6623407006526696e-07 0 -4.8350561531833574e-06 5.9974163615688914e-07 0 1.0797119424006273e-05 6.8368177108065267e-05 0 1.3979043496451661e-05 9.785489191091115e-05 0 -1.1005392314210386e-05 7.080732633406398e-05 0 -5.113307699797434e-06 -9.6810938268726394e-07 0 -8.0105876872397094e-06 -5.2927642699482176e-07 0 -5.2498723331767764e-06 -6.0298209993553715e-07 0 -4.4752118306642143e-06 1.2530486962317654e-07 0 -4.1370491505128074e-06 -2.2626822611490055e-07 0 -6.5269286298434285e-06 -5.0033432863942974e-07 0 -2.353911755249318e-05 -1.0300729382106062e-05 0 -2.2690749775026487e-05 -8.01930195132885e-06 0 -2.0027599492044917e-05 -5.8846685181558601e-06 0 -7.4365112774915434e-06 -4.5082351976259135e-07 0 -6.8024327992723841e-06 -1.4219787410166842e-07 0 -4.3753249823556196e-06 3.942742620726146e-07 0 -8.2421451641231283e-06 -4.2014729334512563e-07 0 -4.2370236357515238e-06 -1.0182216947241022e-06 0 -6.589706745456206e-06 -2.667591284603649e-07 0 -2.6308591032077906e-05 6.9853328811494717e-06 0 -3.3674772909714092e-05 1.088891686185782e-05 0 -2.6986369535042766e-05 5.984695315110601e-06 0 -3.6681981484163592e-05 1.024471750702193e-05 0 -2.6986369535042766e-05 5.984695315110601e-06 0 -3.3674772909714092e-05 1.088891686185782e-05 0 -3.6564990909166425e-05 0.00027150074895408564 0 -4.0826480426329882e-05 0.00024119270932551989 0 -1.8960486336891452e-05 0.00024370975358594852 0 -5.9842248934160382e-05 -0.00012794068338176413 0 -5.6651721944132606e-05 -0.00011412762122748837 0 -6.6667031319827839e-05 -0.00011621507586010827 0 -2.8338385135157604e-05 -4.5297106783515864e-05 0 -2.744556161330207e-05 -4.4976150728197723e-05 0 -2.7227406505342007e-05 -4.3912594713720099e-05 0 -3.7709111331633353e-05 -4.3025142615550143e-05 0 -3.3659377481557294e-05 -4.3597689758126276e-05 0 -3.7813369556950517e-05 -4.005324519346341e-05 0 -1.4271119706882752e-05 -4.1211204232365029e-06 0 -1.1578516390568701e-05 -2.5141112825200154e-06 0 -1.170519655132776e-05 -2.1865267533525403e-06 0 -4.2073477328564162e-05 -3.8520675797808959e-05 0 -4.081505691126944e-05 -3.7244036161889717e-05 0 -4.0088887348131469e-05 -3.5198340375642342e-05 0 -1.9217850772462109e-05 -2.864386714085202e-05 0 -2.046558990976398e-05 -3.0246106188832898e-05 0 -2.3348584812431799e-05 -3.5635941562904786e-05 0 -2.7289559489987176e-05 -3.7687035430288376e-05 0 -2.5455891823910303e-05 -3.7367186962565136e-05 0 -2.4950173614306623e-05 -3.3256149644149592e-05 0 -3.7806356005892955e-05 -2.0847686642681141e-05 0 -3.9784973954110555e-05 -2.6241397243395989e-05 0 -3.1143054725559421e-05 -1.9433908087772826e-05 0 -3.3659377481557294e-05 -4.3597689758126276e-05 0 -3.1916693742177614e-05 -4.2049725978097608e-05 0 -3.4493641731642228e-05 -3.9664295124064853e-05 0 -4.3782551521289882e-05 1.8315913223882166e-05 0 -3.3674772909714092e-05 1.088891686185782e-05 0 -3.5853353712741318e-05 1.6591179710231601e-05 0 -8.1702495859493163e-06 2.9817495021067386e-07 0 -6.3624415900519991e-06 1.2717408718292787e-06 0 -6.6980028107463011e-06 4.301623677668321e-07 0 -3.8704006937692839e-05 -3.0609958700454138e-05 0 -3.7761023240126118e-05 -3.9835232353831854e-05 0 -3.276865587785401e-05 -3.0002291332725531e-05 0 -3.003588996565146e-05 -3.6098015589578225e-05 0 -3.276865587785401e-05 -3.0002291332725531e-05 0 -3.7761023240126118e-05 -3.9835232353831854e-05 0 -1.531995846210571e-05 -4.1705408908805348e-06 0 -1.4271119706882752e-05 -4.1211204232365029e-06 0 -1.170519655132776e-05 -2.1865267533525403e-06 0 -3.8704006937692839e-05 -3.0609958700454138e-05 0 -3.4025688932355337e-05 -2.5434107159899715e-05 0 -3.9784973954110555e-05 -2.6241397243395989e-05 0 -1.3183198980659695e-05 -2.7638692053212914e-06 0 -1.531995846210571e-05 -4.1705408908805348e-06 0 -1.170519655132776e-05 -2.1865267533525403e-06 0 -8.338645614049735e-06 5.8729731154343809e-07 0 -7.6698871451556553e-06 2.2019589463022681e-06 0 -1.1587059395071412e-05 2.2666031101912923e-06 0 -3.8704006937692839e-05 -3.0609958700454138e-05 0 -3.9784973954110555e-05 -2.6241397243395989e-05 0 -4.8706621510759081e-05 -3.5072098345206503e-05 0 -5.2569127445344281e-05 5.4224846646616057e-05 0 -7.5664639840883861e-05 6.6219368145272741e-05 0 -6.0125931264972829e-05 4.6832212715115922e-05 0 -3.4316775451966696e-09 -8.8169621276379213e-10 0 -2.5171900973082639e-06 -6.9634013089612835e-07 0 -5.2498723331767764e-06 -6.0298209993553715e-07 0 -2.7294278309911193e-09 3.6711735306658306e-10 0 -4.1370491505128074e-06 -2.2626822611490055e-07 0 -2.112006669068892e-06 1.5237344770682442e-07 0 -1.3183198980659695e-05 -2.7638692053212914e-06 0 -1.170519655132776e-05 -2.1865267533525403e-06 0 -1.0542820182168474e-05 -1.5746527216496064e-06 0 -1.4960907630746904e-05 2.46891293716691e-06 0 -1.2074860927873739e-05 7.5288272506640319e-07 0 -1.1587059395071412e-05 2.2666031101912923e-06 0 -4.7290586666972682e-06 -6.0700708162002794e-07 0 -3.2202570524434082e-06 -6.6506381445406855e-07 0 -5.1283303460449464e-06 4.611131685826554e-08 0 -2.2306092085882671e-05 -2.2023261295647675e-05 0 -2.7561529002719646e-05 -2.6445423763083995e-05 0 -2.3243835502514857e-05 -3.1827313848730647e-05 0 -2.969547719641304e-06 8.342670445367365e-07 0 -2.7155109428899896e-06 9.9691734898529601e-07 0 -3.2546719312192764e-06 1.4865729563433542e-06 0 -8.6550557127544703e-05 0.00027258059094024278 0 -0.00010107195232649844 0.0002445173189702399 0 -7.6652150221965737e-05 0.00024674117245057246 0 -3.9450301820997994e-05 -0.00012809905231295779 0 -3.2480296041287012e-05 -0.00011378734499326852 0 -4.2121745360620059e-05 -0.00011587877221774629 0 -8.8251682085510403e-06 -8.4465678003462264e-07 0 -7.4365112774915434e-06 -4.5082351976259135e-07 0 -1.0542820182168474e-05 -1.5746527216496064e-06 0 -8.338645614049735e-06 5.8729731154343809e-07 0 -1.2074860927873739e-05 7.5288272506640319e-07 0 -8.2421451641231283e-06 -4.2014729334512563e-07 0 -2.3630459712161684e-06 8.4975743261614051e-07 0 -3.5087841446211651e-06 1.0988707095343731e-06 0 -3.2346170182222136e-06 1.236325393758615e-06 0 -2.7561529002719646e-05 -2.6445423763083995e-05 0 -3.003588996565146e-05 -3.6098015589578225e-05 0 -2.3243835502514857e-05 -3.1827313848730647e-05 0 -0.00013081227948001555 0.00018851068765691987 0 -0.0001270010605285853 0.0001604690066641095 0 -0.00010271247445621775 0.00017328387383761142 0 -1.4225830671456772e-05 -7.0336980691097014e-05 0 -2.5779702894303663e-05 -7.8949117549999851e-05 0 -1.5370197344317161e-05 -8.3289362688308783e-05 0 -5.3881990228824605e-05 -8.1792220537774748e-05 0 -4.440580094896179e-05 -7.0106753622135219e-05 0 -5.255339497295391e-05 -7.074227485919562e-05 0 -1.598255729894282e-05 -3.3818149640619385e-06 0 -1.923544131193863e-05 -7.9010127665030048e-06 0 -2.0027599492044917e-05 -5.8846685181558601e-06 0 -2.2456807036329891e-05 4.0905115613457453e-06 0 -1.7340114386858245e-05 3.0339137293672189e-06 0 -1.6485469958133365e-05 2.0141321957469004e-06 0 -1.6127707346663193e-05 -4.3142866112556559e-06 0 -1.2261239130130226e-05 -2.7992145816994579e-06 0 -1.2435329964915094e-05 -3.5132055762146301e-06 0 -7.4210772431713189e-06 7.3023826218464368e-06 0 -7.1911544418105013e-06 4.1962147768787391e-06 0 -5.2727189043928305e-06 4.8687398740993096e-06 0 -2.3630459712161684e-06 8.4975743261614051e-07 0 -2.5118211982386929e-06 8.6741881259454672e-07 0 -3.5087841446211651e-06 1.0988707095343731e-06 0 -2.8535623940441096e-05 -1.5744110358329605e-05 0 -3.1738956947192494e-05 -2.0457168709959547e-05 0 -2.8955290845443415e-05 -1.7723180004251057e-05 0 -2.2456807036329891e-05 4.0905115613457453e-06 0 -2.4087655753632833e-05 5.408505517415819e-06 0 -1.7340114386858248e-05 3.0339137293672193e-06 0 -1.6127707346663193e-05 -4.3142866112556559e-06 0 -1.2435329964915092e-05 -3.5132055762146297e-06 0 -1.6811688562337226e-05 -5.2625227486641348e-06 0 -1.0381131281105784e-05 3.1999446440654543e-06 0 -9.5492080882981942e-06 1.7305408751933134e-06 0 -1.2377260305656023e-05 2.458284599185282e-08 0 -4.8114977673759428e-05 -0.00010864906851705388 0 -4.7807160268852224e-05 -9.3762374479671245e-05 0 -5.4053160187504732e-05 -0.00010192610983569388 0 -5.9422013163151736e-05 0.00023045675786101172 0 -5.472345920592426e-05 0.00019720117278492494 0 -4.3055694999547855e-05 0.00021478496274237696 0 -3.7806356005892955e-05 -2.0847686642681141e-05 0 -3.1143054725559421e-05 -1.9433908087772826e-05 0 -3.0979831460884399e-05 -1.539213045536578e-05 0 -2.5437764314787781e-05 -1.3584583240441026e-05 0 -3.0979831460884399e-05 -1.5392130455365776e-05 0 -3.1143054725559421e-05 -1.9433908087772826e-05 0 -1.4333207798537932e-05 -6.612864847472286e-06 0 -1.6661139676626712e-05 -8.8718009981461631e-06 0 -1.6692279228945804e-05 -1.0617189536956658e-05 0 -1.9536540996362821e-05 -1.3129099106285613e-05 0 -1.6692279228945804e-05 -1.0617189536956658e-05 0 -1.6661139676626712e-05 -8.8718009981461631e-06 0 -1.9842108813140188e-06 -8.4579584764286274e-07 0 -3.2202570524434082e-06 -6.6506381445406855e-07 0 -4.2370236357515238e-06 -1.0182216947241022e-06 0 -4.7290586666972682e-06 -6.0700708162002794e-07 0 -4.2370236357515238e-06 -1.0182216947241022e-06 0 -3.2202570524434082e-06 -6.6506381445406855e-07 0 -5.2933030856654078e-06 3.2422223897799413e-07 0 -3.4899778461769324e-06 6.6623407006526696e-07 0 -4.3753249823556196e-06 3.942742620726146e-07 0 -2.0283143929866374e-06 5.2444162485154913e-07 0 -4.3753249823556196e-06 3.942742620726146e-07 0 -3.4899778461769324e-06 6.6623407006526696e-07 0 -3.4426657892543027e-05 -2.9584012498282801e-05 0 -3.3894297065944683e-05 -3.2709930787629014e-05 0 -3.17761236180717e-05 -2.9828527624329254e-05 0 -1.598255729894282e-05 -3.3818149640619385e-06 0 -1.450119026935303e-05 6.7372756337697915e-07 0 -1.2377260305656023e-05 2.458284599185282e-08 0 -4.5714314962146744e-06 3.8395994205947726e-06 0 -4.5478632989496567e-06 3.3555870039512884e-06 0 -3.9051349956765499e-06 2.5094752863812658e-06 0 -3.1715338718979572e-05 0.00017100436838744532 0 -3.348781136459152e-05 0.00019752185345152403 0 -5.4723459205924253e-05 0.00019720117278492494 0 -5.3881990228824605e-05 -8.1792220537774748e-05 0 -5.6723893012227024e-05 -9.359528794601454e-05 0 -4.7807160268852224e-05 -9.3762374479671245e-05 0 -3.1715338718979572e-05 0.00017100436838744532 0 -5.2667743311936012e-05 0.00014953139477141453 0 -3.2375118661306767e-05 0.00014509975855896652 0 -7.4210772431713189e-06 7.3023826218464368e-06 0 -1.0447022310704926e-05 6.4861404411226234e-06 0 -7.1911544418105013e-06 4.1962147768787391e-06 0 -7.4210772431713189e-06 7.3023826218464368e-06 0 -1.0543523586431942e-05 1.1170148766480635e-05 0 -1.0447022310704926e-05 6.4861404411226234e-06 0 -5.436218736703321e-05 0.00010802359466569298 0 -4.3762270310754309e-05 0.00012807365444988342 0 -6.6778106320450223e-05 0.00013699005097449931 0 -5.2667743311936012e-05 0.00014953139477141453 0 -6.6778106320450223e-05 0.00013699005097449931 0 -4.3762270310754309e-05 0.00012807365444988342 0 -8.427144685179662e-06 6.1619602494346469e-07 0 -5.2498723331767764e-06 -6.0298209993553705e-07 0 -9.3506614037011628e-06 3.1909861292225253e-08 0 -6.2477227908653426e-06 -1.3362849710341115e-06 0 -7.2083466251923325e-06 -1.0241948289701125e-06 0 -4.1370491505128074e-06 -2.2626822611490055e-07 0 -3.003588996565146e-05 -3.6098015589578225e-05 0 -3.4148503675170235e-05 -4.653507126438939e-05 0 -2.6345557133966524e-05 -4.622656023951224e-05 0 -4.2073477328564162e-05 -3.8520675797808959e-05 0 -4.3051706991654116e-05 -4.1066232349130891e-05 0 -4.081505691126944e-05 -3.7244036161889717e-05 0 -1.9217850772462109e-05 -2.864386714085202e-05 0 -2.3348584812431799e-05 -3.5635941562904786e-05 0 -2.1331328826328738e-05 -3.221193984905372e-05 0 -1.026049721549303e-05 -2.2181258928070306e-07 0 -1.2377260305656023e-05 2.458284599185282e-08 0 -9.5492080882981942e-06 1.7305408751933134e-06 0 -4.5714314962146744e-06 3.8395994205947726e-06 0 -5.2909201408406262e-06 6.2172427124474014e-06 0 -5.2727189043928305e-06 4.8687398740993096e-06 0 -3.1179759975706288e-05 -3.9776002132380752e-05 0 -2.9740707044446662e-05 -3.7108441084500614e-05 0 -3.3241375344756079e-05 -3.7096404693044306e-05 0 -3.1393346565663533e-05 -3.5030573661202981e-05 0 -3.3241375344756079e-05 -3.7096404693044306e-05 0 -2.9740707044446662e-05 -3.7108441084500614e-05 0 -2.635520732160167e-05 -2.425982733694859e-05 0 -2.6604898299238503e-05 -2.9566593410677047e-05 0 -2.2740047725837723e-05 -2.4443222005351178e-05 0 -8.6550557127544703e-05 0.00027258059094024278 0 -0.00011097573261693358 0.00026985023784843564 0 -0.00010107195232649844 0.0002445173189702399 0 -3.9450301820997994e-05 -0.00012809905231295779 0 -3.0272956426301971e-05 -0.00012538879353421315 0 -3.2480296041287012e-05 -0.00011378734499326852 0 -3.9819830700334881e-05 -3.8176485475197425e-05 0 -4.2195326011452594e-05 -4.0662575071848991e-05 0 -3.7813369556950517e-05 -4.005324519346341e-05 0 -2.581330053044103e-05 -4.0466691639685359e-05 0 -2.7227406505342007e-05 -4.3912594713720099e-05 0 -2.5938218749471002e-05 -4.149477322046701e-05 0 -3.6564990909166425e-05 0.00027150074895408564 0 -5.9346176227390452e-05 0.00026021210870171365 0 -4.0826480426329882e-05 0.00024119270932551989 0 -5.9842248934160382e-05 -0.00012794068338176413 0 -4.9619363028656128e-05 -0.00012255583499635951 0 -5.6651721944132606e-05 -0.00011412762122748837 0 -2.3630459712161684e-06 8.4975743261614051e-07 0 -3.2346170182222136e-06 1.236325393758615e-06 0 -2.7155109428899896e-06 9.969173489852958e-07 0 -3.6929331593720266e-06 1.7419540732374095e-06 0 -2.7155109428899896e-06 9.969173489852958e-07 0 -3.2346170182222136e-06 1.236325393758615e-06 0 -2.4059804414171393e-05 0.00021453955062652715 0 -4.0826480426329882e-05 0.00024119270932551989 0 -4.3055694999547855e-05 0.00021478496274237696 0 -6.2450393068322167e-05 -0.00010253879495903816 0 -5.6651721944132606e-05 -0.00011412762122748837 0 -5.4053160187504732e-05 -0.00010192610983569388 0 -5.113307699797434e-06 -9.6810938268726394e-07 0 -5.2498723331767773e-06 -6.0298209993553705e-07 0 -2.5171900973082639e-06 -6.9634013089612835e-07 0 -4.4752118306642143e-06 1.2530486962317654e-07 0 -2.112006669068892e-06 1.5237344770682442e-07 0 -4.1370491505128074e-06 -2.2626822611490055e-07 0 -2.8891753709689873e-05 6.9570040367275914e-05 0 -1.5847335122806349e-05 9.6276818463452392e-05 0 -3.5584641526177189e-05 0.00010091117827928739 0 -8.427144685179662e-06 6.1619602494346469e-07 0 -4.071920685371498e-06 -8.0193674193990839e-08 0 -5.2498723331767764e-06 -6.0298209993553715e-07 0 -6.2477227908653426e-06 -1.3362849710341115e-06 0 -4.1370491505128074e-06 -2.2626822611490055e-07 0 -3.0503708660176399e-06 -4.5417200242156465e-07 0 -0.00013413587247901131 0.00024387774220267344 0 -0.00011414444797702047 0.00022433811409259616 0 -0.00010107195232649844 0.0002445173189702399 0 -1.8947051245512032e-05 -0.00010982122143816887 0 -2.562075367023821e-05 -0.00010270634421474567 0 -3.2480296041287012e-05 -0.00011378734499326852 0 -2.1965283411088442e-05 3.3173207556498087e-05 0 -3.714809414780517e-05 3.5743401089340255e-05 0 -2.4429378717799277e-05 2.4765449886904451e-05 0 -3.0945377638586867e-05 2.059329059858717e-05 0 -2.4429378717799277e-05 2.4765449886904451e-05 0 -3.714809414780517e-05 3.5743401089340255e-05 0 -4.1115126070483746e-05 -5.4483728775200337e-05 0 -3.7761023240126118e-05 -3.9835232353831854e-05 0 -4.4318427664009557e-05 -4.6139574710983671e-05 0 -1.9196385391061265e-05 -6.7777836899314704e-06 0 -1.9297259872614867e-05 -1.4799271196941326e-05 0 -1.5707857703094065e-05 -9.9526923716837377e-06 0 -5.436218736703321e-05 0.00010802359466569298 0 -6.2982455571655678e-05 9.2682268956484069e-05 0 -4.870984549884729e-05 7.8424455544743251e-05 0 -5.2569127445344281e-05 5.4224846646616057e-05 0 -4.870984549884729e-05 7.8424455544743251e-05 0 -6.2335171271492491e-05 7.5711566012691395e-05 0 -3.8704006937692839e-05 -3.0609958700454138e-05 0 -4.3611056603696007e-05 -3.8804497170601512e-05 0 -3.7761023240126118e-05 -3.9835232353831854e-05 0 -3.003588996565146e-05 -3.6098015589578225e-05 0 -2.6345557133966524e-05 -4.622656023951224e-05 0 -2.3243835502514857e-05 -3.1827313848730647e-05 0 -3.8410045356775376e-05 -3.4408438920017756e-05 0 -4.0088887348131469e-05 -3.5198340375642342e-05 0 -4.081505691126944e-05 -3.7244036161889717e-05 0 -2.3418337785186844e-05 -3.3816123382321012e-05 0 -2.3348584812431799e-05 -3.5635941562904786e-05 0 -2.046558990976398e-05 -3.0246106188832898e-05 0 -1.8630295433477699e-05 -2.6171502787748098e-06 0 -2.2690749775026487e-05 -8.01930195132885e-06 0 -2.0625113402961422e-05 -5.0906462110287915e-06 0 -2.353911755249318e-05 -1.0300729382106062e-05 0 -2.6069275698651755e-05 -1.2394411616158989e-05 0 -2.2690749775026487e-05 -8.01930195132885e-06 0 -8.9589296770967937e-06 8.417276089066547e-06 0 -8.1888670182967437e-06 6.0508938582319696e-06 0 -1.1914222335798337e-05 4.7989125959004214e-06 0 -2.2306092085882671e-05 -2.2023261295647675e-05 0 -1.9056208666035367e-05 -1.5550124575779293e-05 0 -2.3051727833356162e-05 -1.8520796573571772e-05 0 -3.6564990909166425e-05 0.00027150074895408564 0 -1.8960486336891452e-05 0.00024370975358594852 0 -1.3625097884505215e-05 0.0002672320797255641 0 -5.9842248934160382e-05 -0.00012794068338176413 0 -6.6667031319827839e-05 -0.00011621507586010827 0 -7.0438880880554838e-05 -0.00012720445549894735 0 -1.0381131281105784e-05 3.1999446440654543e-06 0 -1.1914222335798337e-05 4.7989125959004214e-06 0 -8.1888670182967437e-06 6.0508938582319696e-06 0 -1.8621346074426833e-05 -2.29097369854284e-05 0 -2.2740047725837723e-05 -2.4443222005351178e-05 0 -2.0394968911520187e-05 -2.6403076641177225e-05 0 -3.1393346565663533e-05 -3.5030573661202981e-05 0 -2.9740707044446662e-05 -3.7108441084500614e-05 0 -2.938341203874818e-05 -3.2903394528505785e-05 0 -6.2757664260842197e-06 5.6827757251438634e-06 0 -7.4841442555495907e-06 3.7319258025150083e-06 0 -8.1888670182967437e-06 6.0508938582319696e-06 0 -2.1462449405376485e-06 -3.6507175610721313e-07 0 -2.8855749379333947e-06 5.9167545495604769e-08 0 -3.2202570524434082e-06 -6.6506381445406855e-07 0 -6.7170484629152505e-05 -5.2871609588366014e-05 0 -7.1634661473506082e-05 -6.4496514511652291e-05 0 -5.8951215530169773e-05 -5.5924119508549475e-05 0 -8.338645614049735e-06 5.8729731154343809e-07 0 -6.589706745456206e-06 -2.667591284603649e-07 0 -5.1283303460449464e-06 4.611131685826554e-08 0 -3.9051349956765499e-06 2.5094752863812658e-06 0 -4.5478632989496567e-06 3.3555870039512884e-06 0 -3.7846104440765518e-06 1.7444017464957988e-06 0 -1.0381131281105784e-05 3.1999446440654543e-06 0 -1.450119026935303e-05 6.7372756337697915e-07 0 -1.1914222335798337e-05 4.7989125959004214e-06 0 -0.00012130035156131903 0.00013278574379063903 0 -0.00011381432294340562 0.00010671137819663953 0 -9.4225245846981458e-05 0.00011503200336699843 0 -1.8936022956137111e-06 7.2033049180044399e-07 0 -1.4319031098673037e-06 5.1424697916220251e-07 0 -7.7144184032872881e-07 3.3377595531155852e-07 0 -5.2627742188698826e-06 2.3366464202426818e-06 0 -5.2727189043928305e-06 4.8687398740993096e-06 0 -7.1911544418105013e-06 4.1962147768787391e-06 0 -3.01309069744639e-05 -2.1974301191386935e-05 0 -3.1763905925747288e-05 -2.2083343123026121e-05 0 -3.2855488550000019e-05 -2.5788570136128397e-05 0 -5.3881990228824605e-05 -8.1792220537774748e-05 0 -6.2225230640998075e-05 -7.6146865699031909e-05 0 -6.540204891832502e-05 -8.9809018769797098e-05 0 -8.338645614049735e-06 5.8729731154343809e-07 0 -5.1283303460449464e-06 4.611131685826554e-08 0 -6.0800651811256796e-06 1.0630538819213492e-06 0 -2.3630459712161684e-06 8.4975743261614051e-07 0 -1.6753628263274374e-06 4.3882134670762299e-07 0 -1.4319031098673037e-06 5.1424697916220251e-07 0 -9.8053952088088467e-06 3.8257311880843244e-06 0 -7.1911544418105013e-06 4.1962147768787391e-06 0 -1.0447022310704926e-05 6.4861404411226234e-06 0 -3.1738956947192494e-05 -2.0457168709959547e-05 0 -3.1763905925747288e-05 -2.2083343123026121e-05 0 -2.8955290845443415e-05 -1.7723180004251057e-05 0 -3.8410045356775376e-05 -3.4408438920017756e-05 0 -3.8017874157379578e-05 -3.5812192848464223e-05 0 -3.6013154188449703e-05 -3.244761543615335e-05 0 -2.6308591032077906e-05 6.9853328811494717e-06 0 -2.050802578166163e-05 4.2425774658109033e-06 0 -2.3565031273690427e-05 7.5821470654958757e-06 0 1.0779359314552875e-05 0.0002352069353862124 0 -1.8960486336891452e-05 0.00024370975358594852 0 -5.7883922250494621e-06 0.000221708470000928 0 -8.0368501018475649e-05 -0.0001152129573891909 0 -6.6667031319827839e-05 -0.00011621507586010827 0 -7.1439710554314218e-05 -0.00010712066997504616 0 -3.2546719312192764e-06 1.4865729563433542e-06 0 -3.7846104440765518e-06 1.7444017464957988e-06 0 -2.969547719641304e-06 8.342670445367365e-07 0 -3.9051349956765499e-06 2.5094752863812658e-06 0 -3.7846104440765518e-06 1.7444017464957988e-06 0 -3.2546719312192764e-06 1.4865729563433542e-06 0 -9.5046548582764567e-05 0.00021392041291947865 0 -0.00010107195232649844 0.0002445173189702399 0 -0.00011414444797702047 0.00022433811409259616 0 -3.2579691554397705e-05 -9.916223443581589e-05 0 -3.2480296041287012e-05 -0.00011378734499326853 0 -2.562075367023821e-05 -0.00010270634421474567 0 -3.6929331593720266e-06 1.7419540732374095e-06 0 -5.1121093821241938e-06 1.843377197255395e-06 0 -4.6137694755536784e-06 2.7870277555227254e-06 0 -6.1592360541505033e-06 2.4899579742858606e-06 0 -4.6137694755536784e-06 2.7870277555227254e-06 0 -5.1121093821241938e-06 1.843377197255395e-06 0 -3.6929331593720266e-06 1.7419540732374095e-06 0 -3.2546719312192764e-06 1.4865729563433542e-06 0 -2.7155109428899896e-06 9.969173489852958e-07 0 -1.6127707346663193e-05 -4.3142866112556559e-06 0 -1.6455808382387336e-05 -4.2325754946049604e-06 0 -1.2695403156386491e-05 -2.6017242486805667e-06 0 -1.6648569450145221e-05 -6.9451250523670995e-06 0 -2.0347643391420466e-05 -1.1089552178855132e-05 0 -1.6661139676626712e-05 -8.8718009981461631e-06 0 -1.9536540996362821e-05 -1.3129099106285613e-05 0 -1.6661139676626712e-05 -8.8718009981461631e-06 0 -2.0347643391420466e-05 -1.1089552178855132e-05 0 -1.6127707346663193e-05 -4.3142866112556559e-06 0 -1.2695403156386491e-05 -2.6017242486805667e-06 0 -1.2261239130130226e-05 -2.7992145816994579e-06 0 -2.8891753709689873e-05 6.9570040367275914e-05 0 -1.1005392314210386e-05 7.080732633406398e-05 0 -1.5847335122806349e-05 9.6276818463452392e-05 0 -5.9422013163151736e-05 0.00023045675786101172 0 -5.9346176227390445e-05 0.00026021210870171365 0 -7.6652150221965737e-05 0.00024674117245057246 0 -4.8114977673759428e-05 -0.00010864906851705388 0 -4.9619363028656128e-05 -0.00012255583499635951 0 -4.2121745360620059e-05 -0.00011587877221774629 0 -8.7759137341911442e-06 -7.9648315063020457e-07 0 -6.8921832891836813e-06 1.7063642669005026e-08 0 -9.024098016289909e-06 -1.2368041942254805e-06 0 -1.1278447575824176e-09 1.7514076031256325e-10 0 -7.7144184032872881e-07 3.3377595531155852e-07 0 -1.4319031098673037e-06 5.1424697916220251e-07 0 -7.4210772431713189e-06 7.3023826218464368e-06 0 -6.6157378350038669e-06 1.1326931260232362e-05 0 -1.0543523586431942e-05 1.1170148766480635e-05 0 -2.3577620222623919e-05 -2.9299396007716885e-05 0 -2.2740047725837723e-05 -2.4443222005351178e-05 0 -2.6604898299238503e-05 -2.9566593410677047e-05 0 -2.635520732160167e-05 -2.425982733694859e-05 0 -2.7894588145882173e-05 -2.2201183570415999e-05 0 -2.8821002464884366e-05 -2.6470948760537858e-05 0 -3.5087841446211651e-06 1.0988707095343731e-06 0 -4.8880670517989171e-06 9.1553622178169437e-07 0 -4.2240879822639132e-06 1.322951160272501e-06 0 -5.004611350010336e-05 -4.524322597226364e-05 0 -5.8951215530169773e-05 -5.5924119508549475e-05 0 -4.8388596498481297e-05 -5.4546390907382238e-05 0 -5.6131668858238457e-05 -6.3750795184171823e-05 0 -4.8388596498481297e-05 -5.4546390907382238e-05 0 -5.8951215530169773e-05 -5.5924119508549475e-05 0 -1.1085238466256728e-09 -4.6232004773676747e-11 0 -1.1278447575824679e-09 1.7514076031257354e-10 0 -9.2115766653404075e-07 1.8860327378195381e-07 0 -8.4479010895871271e-05 0.00013291081636561294 0 -9.4225245846981458e-05 0.00011503200336699843 0 -7.3002361162990007e-05 0.00011225962452162003 0 -7.6266441300801055e-05 9.1133615614306639e-05 0 -7.3002361162990007e-05 0.00011225962452162003 0 -9.4225245846981458e-05 0.00011503200336699843 0 -3.9819830700334881e-05 -3.8176485475197425e-05 0 -3.8017874157379578e-05 -3.5812192848464223e-05 0 -4.081505691126944e-05 -3.7244036161889717e-05 0 -2.581330053044103e-05 -4.0466691639685359e-05 0 -2.3348584812431799e-05 -3.5635941562904786e-05 0 -2.5455891823910303e-05 -3.7367186962565136e-05 0 -1.532694843748988e-05 9.620092238223762e-06 0 -1.0447022310704926e-05 6.4861404411226234e-06 0 -1.0543523586431942e-05 1.1170148766480635e-05 0 -3.5446910642559487e-05 -3.54260069791413e-05 0 -3.3306507663590083e-05 -3.472835494518505e-05 0 -3.3894297065944683e-05 -3.2709930787629014e-05 0 -6.5925012086638944e-06 1.4607089629364986e-05 0 -6.8429631836319072e-06 1.8628446707282911e-05 0 -5.0718890390403419e-06 1.8183200598268352e-05 0 -8.338645614049735e-06 5.8729731154343809e-07 0 -6.0800651811256796e-06 1.0630538819213492e-06 0 -7.6698871451556553e-06 2.2019589463022681e-06 0 -3.0945377638586867e-05 2.059329059858717e-05 0 -1.7713787729149747e-05 1.6205042882270341e-05 0 -2.4429378717799277e-05 2.4765449886904451e-05 0 1.3979043496451661e-05 9.785489191091115e-05 0 -2.4048656938328024e-06 0.00011674331578938241 0 -1.5847335122806349e-05 9.6276818463452392e-05 0 -8.7759137341911442e-06 -7.9648315063020457e-07 0 -6.6980028107463011e-06 4.30162367766832e-07 0 -6.8921832891836813e-06 1.7063642669005198e-08 0 -5.9422013163151736e-05 0.00023045675786101172 0 -4.0826480426329882e-05 0.00024119270932551989 0 -5.9346176227390452e-05 0.00026021210870171365 0 -4.8114977673759428e-05 -0.00010864906851705388 0 -5.6651721944132606e-05 -0.00011412762122748837 0 -4.9619363028656128e-05 -0.00012255583499635951 0 -4.7198739462616159e-06 7.5618338403915064e-07 0 -6.0071825274234992e-06 2.7216252916584247e-07 0 -6.8921832891836813e-06 1.7063642669005198e-08 0 -1.7640000711720071e-05 -9.4776404532836135e-06 0 -2.1525796638922995e-05 -1.2277851903755192e-05 0 -1.923544131193863e-05 -7.9010127665030048e-06 0 -2.4059804414171393e-05 0.00021453955062652715 0 -5.7883922250494621e-06 0.000221708470000928 0 -1.8960486336891452e-05 0.00024370975358594852 0 -6.2450393068322167e-05 -0.00010253879495903816 0 -7.1439710554314218e-05 -0.00010712066997504616 0 -6.6667031319827839e-05 -0.00011621507586010827 0 -3.0793064226719322e-05 -1.1610356836548613e-05 0 -3.6780899834358891e-05 -1.5063649061386322e-05 0 -3.0389935115879383e-05 -1.1475031432070039e-05 0 -5.7648379189823402e-05 2.2412448079311033e-05 0 -4.7058632446914422e-05 1.5602994593611114e-05 0 -4.5428840333232252e-05 1.5810762584272045e-05 0 -2.1965283411088442e-05 3.3173207556498087e-05 0 -2.5780653908242614e-05 4.8584020412955215e-05 0 -3.7007913177409564e-05 5.1909677690248083e-05 0 -1.3183198980659695e-05 -2.7638692053212914e-06 0 -1.6710783432309234e-05 -4.5706502273777607e-06 0 -1.531995846210571e-05 -4.1705408908805348e-06 0 -4.4851166497765155e-05 -4.5229245312887107e-05 0 -4.1841874714753484e-05 -4.2933942002078809e-05 0 -4.2195326011452594e-05 -4.0662575071848991e-05 0 -4.4851166497765155e-05 -4.5229245312887107e-05 0 -4.2195326011452594e-05 -4.0662575071848991e-05 0 -4.4074826687487879e-05 -4.3165802543512207e-05 0 -2.5493062038693133e-05 -3.8573243519535386e-05 0 -2.3632397913164959e-05 -3.5585669874622575e-05 0 -2.5938218749471002e-05 -4.149477322046701e-05 0 -2.5493062038693133e-05 -3.8573243519535386e-05 0 -2.5938218749471002e-05 -4.149477322046701e-05 0 -2.6862672479471544e-05 -4.3665633281603626e-05 0 -3.9819830700334881e-05 -3.8176485475197425e-05 0 -3.6563266542260501e-05 -3.7503205138074913e-05 0 -3.8017874157379578e-05 -3.5812192848464223e-05 0 -2.581330053044103e-05 -4.0466691639685359e-05 0 -2.5455891823910303e-05 -3.7367186962565136e-05 0 -2.7189785902383942e-05 -4.0829887500767123e-05 0 -1.4514312791952436e-05 -2.1150627895091809e-05 0 -1.8513414114992085e-05 -2.6385863428111444e-05 0 -1.6860116644833621e-05 -2.4822963566744834e-05 0 -3.9309000562670447e-05 -3.1576955412643027e-05 0 -4.0827203492343406e-05 -3.5440442973115477e-05 0 -3.7726258643234858e-05 -3.151138783249472e-05 0 -1.6287887637559633e-06 1.7377665734629951e-06 0 -1.0397403242098413e-05 -5.1488089315912883e-06 0 -5.5359800014784142e-06 -7.5992207391244359e-06 0 -3.6564990909166425e-05 0.00027150074895408564 0 -1.989285053018934e-05 0.00029073922128301717 0 -4.1062252002232145e-05 0.00029750069605992603 0 -8.6550557127544703e-05 0.00027258059094024278 0 -8.2842644215433146e-05 0.00029795787652356066 0 -0.00010626298171739549 0.00029287997976224493 0 -5.9842248934160382e-05 -0.00012794068338176413 0 -6.831670696129105e-05 -0.00013719873654144049 0 -5.8334667732402005e-05 -0.00013948768378246231 0 -3.9450301820997994e-05 -0.00012809905231295779 0 -4.1381549042403402e-05 -0.00013958666619110166 0 -3.3089270983584809e-05 -0.00013655983754201013 0 -5.4155951545263948e-06 1.0893006468081568e-06 0 -4.2240879822639132e-06 1.322951160272501e-06 0 -4.8880670517989171e-06 9.1553622178169437e-07 0 -3.6564990909166425e-05 0.00027150074895408564 0 -1.3625097884505213e-05 0.0002672320797255641 0 -1.9892850530189337e-05 0.00029073922128301717 0 -5.9842248934160382e-05 -0.00012794068338176413 0 -7.0438880880554838e-05 -0.00012720445549894735 0 -6.831670696129105e-05 -0.00013719873654144049 0 -1.8630295433477699e-05 -2.6171502787748098e-06 0 -1.631427037491916e-05 1.1932159097655908e-06 0 -1.450119026935303e-05 6.7372756337697915e-07 0 -8.6550557127544703e-05 0.00027258059094024278 0 -0.00010626298171739549 0.00029287997976224493 0 -0.00011097573261693358 0.00026985023784843564 0 -3.9450301820997994e-05 -0.00012809905231295779 0 -3.3089270983584809e-05 -0.00013655983754201013 0 -3.0272956426301971e-05 -0.00012538879353421315 0 -2.8603955763044578e-05 -6.071999791549322e-05 0 -2.0756680278172924e-05 -5.2846498760182923e-05 0 -2.6345557133966524e-05 -4.622656023951224e-05 0 -2.8535623940441096e-05 -1.5744110358329605e-05 0 -2.8955290845443415e-05 -1.7723180004251057e-05 0 -2.6069275698651755e-05 -1.2394411616158989e-05 0 -2.6554209880418112e-05 -1.4668825765159067e-05 0 -2.6069275698651755e-05 -1.2394411616158989e-05 0 -2.8955290845443415e-05 -1.7723180004251057e-05 0 -9.8053952088088467e-06 3.8257311880843244e-06 0 -1.1587059395071412e-05 2.2666031101912923e-06 0 -7.6698871451556553e-06 2.2019589463022681e-06 0 -5.436218736703321e-05 0.00010802359466569298 0 -3.5584641526177189e-05 0.00010091117827928739 0 -4.3762270310754309e-05 0.00012807365444988342 0 -7.1634661473506082e-05 -6.4496514511652291e-05 0 -6.4480666808413247e-05 -6.7014275979693477e-05 0 -5.8951215530169773e-05 -5.5924119508549475e-05 0 -9.918500206879698e-06 1.670872738398843e-05 0 -1.7713787729149747e-05 1.6205042882270341e-05 0 -1.0543523586431942e-05 1.1170148766480635e-05 0 -1.532694843748988e-05 9.620092238223762e-06 0 -1.0543523586431942e-05 1.1170148766480635e-05 0 -1.7713787729149747e-05 1.6205042882270341e-05 0 -4.5714314962146744e-06 3.8395994205947726e-06 0 -5.325814568592604e-06 4.2001633983331089e-06 0 -5.2909201408406262e-06 6.2172427124474014e-06 0 -2.9328137069948756e-05 -2.9902366152695938e-05 0 -2.938341203874818e-05 -3.2903394528505785e-05 0 -2.6604898299238503e-05 -2.9566593410677047e-05 0 -2.7608762152458966e-05 -3.4326538206303204e-05 0 -2.6604898299238503e-05 -2.9566593410677047e-05 0 -2.938341203874818e-05 -3.2903394528505785e-05 0 -9.3495383398599068e-05 6.1952957191244959e-05 0 -8.1624208499689617e-05 4.4908439701234981e-05 0 -7.2150756590128973e-05 4.8407648809347643e-05 0 -4.9577040009903522e-05 -2.5609129659114694e-05 0 -5.5908052511669228e-05 -3.3178233016190192e-05 0 -4.5755500919066167e-05 -2.672023581080006e-05 0 -1.8083123467953404e-09 -3.8788845648921041e-10 0 -1.4722379550389033e-09 -2.9716082643432212e-10 0 -1.3688544104382645e-06 -5.3402834861046428e-07 0 -1.6097032649348032e-09 3.0487971137162178e-10 0 -1.8452338567783146e-09 2.8855269185606492e-10 0 -1.5904646531755993e-06 5.4923363639902558e-07 0 -7.4210772431713189e-06 7.3023826218464368e-06 0 -5.2727189043928296e-06 4.8687398740993096e-06 0 -5.7690972332232669e-06 7.5059006279471127e-06 0 -6.2757664260842197e-06 5.6827757251438634e-06 0 -5.2909201408406262e-06 6.2172427124474014e-06 0 -5.325814568592604e-06 4.2001633983331089e-06 0 -4.5714314962146744e-06 3.8395994205947726e-06 0 -5.2727189043928305e-06 4.8687398740993088e-06 0 -4.5478632989496567e-06 3.3555870039512884e-06 0 -1.2050911140832189e-05 4.4733973915709977e-07 0 -1.6485469958133365e-05 2.0141321957469004e-06 0 -1.2838569323380352e-05 1.2455838880638409e-06 0 -9.4742617179422954e-06 -1.4511058474777563e-06 0 -9.4767657017197303e-06 -2.090979983004817e-06 0 -1.2261239130130226e-05 -2.7992145816994579e-06 0 -2.0927274105295222e-05 0.00012602342258200857 0 -1.5847335122806349e-05 9.6276818463452392e-05 0 -2.4048656938328024e-06 0.00011674331578938241 0 -1.2050911140832189e-05 4.4733973915709977e-07 0 -1.283856932338035e-05 1.2455838880638406e-06 0 -9.3506614037011628e-06 3.1909861292225253e-08 0 -9.4742617179422954e-06 -1.4511058474777563e-06 0 -7.2083466251923325e-06 -1.0241948289701125e-06 0 -9.4767657017197303e-06 -2.090979983004817e-06 0 -3.4426657892543027e-05 -2.9584012498282801e-05 0 -3.6013154188449703e-05 -3.244761543615335e-05 0 -3.3894297065944683e-05 -3.2709930787629014e-05 0 -2.8891753709689873e-05 6.9570040367275914e-05 0 -1.5702990561886266e-05 4.4156174986324979e-05 0 -1.1005392314210386e-05 7.080732633406398e-05 0 -5.2627742188698826e-06 2.3366464202426818e-06 0 -4.5478632989496567e-06 3.3555870039512884e-06 0 -5.2727189043928305e-06 4.8687398740993096e-06 0 -2.3577620222623919e-05 -2.9299396007716885e-05 0 -2.0394968911520187e-05 -2.6403076641177225e-05 0 -2.2740047725837723e-05 -2.4443222005351178e-05 0 -3.0406463012363313e-09 -3.7737230086532136e-10 0 -2.329927190139957e-09 -5.6873226492375299e-10 0 -2.2978163248483685e-06 -8.790237840114097e-07 0 -2.1753532807203114e-09 2.9356623790351694e-10 0 -2.5950132250989853e-09 1.039727957984457e-10 0 -2.1123188182360405e-06 3.6462072939012113e-07 0 -1.9898767782588353e-05 -7.0262627104612531e-06 0 -2.5263503802439367e-05 -9.002928710890263e-06 0 -2.0518631779143289e-05 -6.4623848538365867e-06 0 -3.7547168424007628e-05 1.0990466801650185e-05 0 -2.8846037161703275e-05 7.9649432559827332e-06 0 -3.0027603966234954e-05 7.1773147593811459e-06 0 -2.7942065239255056e-05 -2.1815188819711155e-05 0 -3.1143054725559421e-05 -1.9433908087772826e-05 0 -3.4025688932355337e-05 -2.5434107159899715e-05 0 -1.3497648897900468e-05 -4.5439979441779894e-05 0 -1.9537911143396208e-05 -4.0898677195320999e-05 0 -2.0756680278172921e-05 -5.2846498760182923e-05 0 -1.598255729894282e-05 -3.3818149640619385e-06 0 -1.6031309468862899e-05 -5.8990897521804613e-06 0 -1.923544131193863e-05 -7.9010127665030048e-06 0 -7.9616862681263334e-06 1.5362522084521247e-06 0 -7.4841442555495916e-06 3.7319258025150083e-06 0 -6.1592360541505033e-06 2.4899579742858606e-06 0 -9.5492080882981942e-06 1.7305408751933134e-06 0 -7.4841442555495916e-06 3.7319258025150083e-06 0 -7.9616862681263334e-06 1.5362522084521247e-06 0 -5.709990286004165e-06 9.3380201771960678e-06 0 -6.6157378350038669e-06 1.1326931260232362e-05 0 -5.7690972332232669e-06 7.5059006279471127e-06 0 -7.4210772431713189e-06 7.3023826218464368e-06 0 -5.7690972332232669e-06 7.5059006279471118e-06 0 -6.6157378350038669e-06 1.1326931260232362e-05 0 -2.7289559489987176e-05 -3.7687035430288376e-05 0 -2.9252680943726407e-05 -4.0175413250381222e-05 0 -2.7189785902383942e-05 -4.0829887500767123e-05 0 -3.4353424467849095e-05 -2.2397818222093357e-05 0 -3.1738956947192488e-05 -2.0457168709959547e-05 0 -3.050886888911135e-05 -1.792581428852452e-05 0 -1.7640000711720071e-05 -9.4776404532836135e-06 0 -1.8290251737122422e-05 -1.355284799189411e-05 0 -2.1525796638922995e-05 -1.2277851903755192e-05 0 -1.8982190467399179e-05 -1.8187989890770187e-05 0 -2.1525796638922995e-05 -1.2277851903755192e-05 0 -1.8290251737122422e-05 -1.355284799189411e-05 0 -1.4822215841088219e-05 -5.506693775105604e-06 0 -1.9898767782588353e-05 -7.0262627104612531e-06 0 -1.6811688562337226e-05 -5.2625227486641348e-06 0 -2.8846037161703275e-05 7.9649432559827332e-06 0 -2.0979291344675422e-05 5.9167535335613149e-06 0 -2.4087655753632833e-05 5.408505517415819e-06 0 -3.0626813907825164e-05 -4.4527724425791329e-05 0 -2.8338385135157604e-05 -4.5297106783515864e-05 0 -2.9968824722887596e-05 -4.2608670484451633e-05 0 -1.7713787729149747e-05 1.6205042882270341e-05 0 -1.5894022419984181e-05 2.208156227657222e-05 0 -2.4429378717799277e-05 2.4765449886904451e-05 0 -3.6929331593720266e-06 1.7419540732374095e-06 0 -3.9051349956765499e-06 2.5094752863812658e-06 0 -3.2546719312192764e-06 1.4865729563433542e-06 0 -5.2498723331767764e-06 -6.0298209993553715e-07 0 -8.0105876872397094e-06 -5.2927642699482187e-07 0 -9.3506614037011628e-06 3.1909861292225253e-08 0 -4.1370491505128074e-06 -2.2626822611490055e-07 0 -7.2083466251923334e-06 -1.0241948289701127e-06 0 -6.5269286298434285e-06 -5.0033432863942974e-07 0 -4.7198739462616159e-06 7.5618338403915064e-07 0 -4.8350561531833574e-06 5.9974163615688914e-07 0 -6.0071825274235001e-06 2.7216252916584247e-07 0 -1.598255729894282e-05 -3.3818149640619385e-06 0 -1.7287090795286541e-05 -2.7494673596693716e-06 0 -1.450119026935303e-05 6.7372756337697915e-07 0 -2.3418337785186844e-05 -3.3816123382321012e-05 0 -2.4950173614306623e-05 -3.3256149644149592e-05 0 -2.5455891823910303e-05 -3.7367186962565136e-05 0 -7.3254460315870701e-06 -2.5798065018492043e-07 0 -6.0071825274235001e-06 2.7216252916584247e-07 0 -4.8350561531833574e-06 5.9974163615688914e-07 0 -0.00013081227948001555 0.00018851068765691987 0 -0.00010271247445621775 0.00017328387383761142 0 -0.00011027364626589649 0.00019956906230912739 0 -1.5370197344317161e-05 -8.3289362688308783e-05 0 -2.5779702894303663e-05 -7.8949117549999851e-05 0 -2.5084099412580716e-05 -9.092802205663009e-05 0 -1.4225830671456772e-05 -7.0336980691097014e-05 0 -2.2712895634753972e-05 -6.6533328134207517e-05 0 -2.5779702894303663e-05 -7.8949117549999851e-05 0 -2.3071480145956638e-05 -9.7577887354872738e-06 0 -2.0625113402961422e-05 -5.0906462110287915e-06 0 -2.2690749775026487e-05 -8.01930195132885e-06 0 -3.4353424467849095e-05 -2.2397818222093357e-05 0 -3.4489467807465279e-05 -2.4324235993606187e-05 0 -3.1738956947192494e-05 -2.0457168709959547e-05 0 -8.7759137341911442e-06 -7.9648315063020457e-07 0 -1.1662053696918302e-05 -3.134822443603194e-06 0 -9.9950418670860852e-06 -1.2137018072415179e-06 0 -1.8630295433477699e-05 -2.6171502787748098e-06 0 -1.450119026935303e-05 6.7372756337697915e-07 0 -1.7287090795286541e-05 -2.7494673596693716e-06 0 5.0910717448802428e-06 0.00028763838307761358 0 -1.0719497774251211e-05 0.00030230696168103679 0 -1.9892850530189337e-05 0.00029073922128301717 0 -8.0630236513986746e-05 -0.00013855401180782044 0 -7.3294488563413948e-05 -0.00014327434511807521 0 -6.831670696129105e-05 -0.00013719873654144049 0 -2.308498762447992e-05 -0.00013463783595380174 0 -3.3089270983584809e-05 -0.0001365598375420101 0 -2.9606178651219165e-05 -0.00014155553081974208 0 -0.00013441490767112375 0.00029593271846701819 0 -0.00010626298171739549 0.00029287997976224493 0 -0.00011763680216756111 0.00030675340313095526 0 -1.026049721549303e-05 -2.2181258928070306e-07 0 -8.1702495859493163e-06 2.9817495021067386e-07 0 -9.9950418670860852e-06 -1.2137018072415179e-06 0 -8.7759137341911442e-06 -7.9648315063020457e-07 0 -9.9950418670860852e-06 -1.2137018072415179e-06 0 -8.1702495859493163e-06 2.9817495021067386e-07 0 -1.4333207798537932e-05 -6.612864847472286e-06 0 -1.16620536969183e-05 -3.1348224436031936e-06 0 -1.2412532781353051e-05 -4.1843134576362894e-06 0 -4.3782551521289882e-05 1.8315913223882166e-05 0 -4.5428840333232252e-05 1.5810762584272045e-05 0 -3.3674772909714092e-05 1.088891686185782e-05 0 -3.6681981484163592e-05 1.024471750702193e-05 0 -3.3674772909714092e-05 1.088891686185782e-05 0 -4.5428840333232252e-05 1.5810762584272045e-05 0 -1.532694843748988e-05 9.620092238223762e-06 0 -1.94039512817691e-05 8.1303216833507046e-06 0 -1.3654436564904922e-05 5.3554412958867969e-06 0 -1.6648569450145221e-05 -6.9451250523670995e-06 0 -1.2825746758994137e-05 -3.7958441278310543e-06 0 -1.4271119706882752e-05 -4.1211204232365029e-06 0 -1.7640000711720071e-05 -9.4776404532836135e-06 0 -1.6692279228945804e-05 -1.0617189536956658e-05 0 -1.8290251737122422e-05 -1.355284799189411e-05 0 -9.4742617179422954e-06 -1.4511058474777563e-06 0 -7.4365112774915425e-06 -4.508235197625913e-07 0 -6.5269286298434285e-06 -5.0033432863942974e-07 0 -4.4752118306642143e-06 1.2530486962317654e-07 0 -6.5269286298434285e-06 -5.0033432863942974e-07 0 -7.4365112774915434e-06 -4.5082351976259135e-07 0 -5.113307699797434e-06 -9.6810938268726394e-07 0 -8.2421451641231283e-06 -4.2014729334512563e-07 0 -8.0105876872397094e-06 -5.2927642699482176e-07 0 -1.2050911140832189e-05 4.4733973915709977e-07 0 -8.0105876872397094e-06 -5.2927642699482198e-07 0 -8.2421451641231283e-06 -4.2014729334512563e-07 0 -5.6131668858238457e-05 -6.3750795184171823e-05 0 -6.2225230640998075e-05 -7.6146865699031909e-05 0 -5.255339497295391e-05 -7.074227485919562e-05 0 -5.3881990228824605e-05 -8.1792220537774748e-05 0 -5.255339497295391e-05 -7.074227485919562e-05 0 -6.2225230640998075e-05 -7.6146865699031909e-05 0 -1.9842108813140188e-06 -8.4579584764286274e-07 0 -1.3688544104382645e-06 -5.3402834861046428e-07 0 -3.2202570524434082e-06 -6.6506381445406855e-07 0 -2.1462449405376485e-06 -3.6507175610721313e-07 0 -3.2202570524434082e-06 -6.6506381445406855e-07 0 -1.3688544104382645e-06 -5.3402834861046428e-07 0 -2.7834844344541814e-06 7.6993644243470968e-07 0 -1.5904646531755993e-06 5.4923363639902558e-07 0 -3.4899778461769324e-06 6.6623407006526696e-07 0 -2.0283143929866374e-06 5.2444162485154913e-07 0 -3.4899778461769324e-06 6.6623407006526696e-07 0 -1.5904646531755993e-06 5.4923363639902558e-07 0 -5.9422013163151736e-05 0.00023045675786101172 0 -4.3055694999547862e-05 0.00021478496274237696 0 -4.0826480426329882e-05 0.00024119270932551989 0 -4.8114977673759428e-05 -0.00010864906851705388 0 -5.4053160187504739e-05 -0.00010192610983569388 0 -5.6651721944132606e-05 -0.00011412762122748837 0 -8.8251682085510403e-06 -8.4465678003462264e-07 0 -6.8024327992723841e-06 -1.4219787410166831e-07 0 -7.4365112774915434e-06 -4.5082351976259135e-07 0 -8.338645614049735e-06 5.8729731154343809e-07 0 -8.2421451641231283e-06 -4.2014729334512563e-07 0 -6.589706745456206e-06 -2.667591284603649e-07 0 -1.6648569450145221e-05 -6.9451250523670995e-06 0 -1.6661139676626712e-05 -8.8718009981461631e-06 0 -1.3982912212880375e-05 -5.5353655770857667e-06 0 -9.4742617179422954e-06 -1.4511058474777563e-06 0 -1.0542820182168474e-05 -1.5746527216496064e-06 0 -7.4365112774915434e-06 -4.5082351976259135e-07 0 -1.2050911140832189e-05 4.4733973915709977e-07 0 -8.2421451641231283e-06 -4.2014729334512563e-07 0 -1.2074860927873739e-05 7.5288272506640319e-07 0 -1.8982190467399179e-05 -1.8187989890770187e-05 0 -2.4202038268447381e-05 -1.3569328005755134e-05 0 -2.1525796638922995e-05 -1.2277851903755192e-05 0 -8.7759137341911442e-06 -7.9648315063020457e-07 0 -1.0436330460070837e-05 -2.3056843357250372e-06 0 -1.1662053696918302e-05 -3.134822443603194e-06 0 -3.4316775451966696e-09 -8.8169621276379213e-10 0 -3.0406463012363313e-09 -3.7737230086532136e-10 0 -2.5171900973082639e-06 -6.9634013089612835e-07 0 -2.5950132250989853e-09 1.039727957984457e-10 0 -2.7294278309911193e-09 3.6711735306658306e-10 0 -2.112006669068892e-06 1.5237344770682442e-07 0 -9.918500206879698e-06 1.670872738398843e-05 0 -1.0543523586431942e-05 1.1170148766480635e-05 0 -6.6157378350038669e-06 1.1326931260232362e-05 0 -3.1179759975706288e-05 -3.9776002132380752e-05 0 -3.1916693742177614e-05 -4.2049725978097608e-05 0 -2.9968824722887596e-05 -4.2608670484451633e-05 0 -1.6648569450145221e-05 -6.9451250523670995e-06 0 -1.7849365114066522e-05 -6.4309808358676709e-06 0 -2.1151986203314587e-05 -9.5566929656592569e-06 0 -2.6345557133966524e-05 -4.622656023951224e-05 0 -2.0756680278172921e-05 -5.2846498760182923e-05 0 -1.9537911143396208e-05 -4.0898677195320999e-05 0 -1.026049721549303e-05 -2.2181258928070306e-07 0 -7.9616862681263334e-06 1.5362522084521247e-06 0 -8.1702495859493163e-06 2.9817495021067386e-07 0 -1.3744757155097211e-05 -4.5411862867107736e-06 0 -1.1740175275279219e-05 -2.3622338122471162e-06 0 -1.1662053696918302e-05 -3.134822443603194e-06 0 -8.427144685179662e-06 6.1619602494346469e-07 0 -1.251133061010606e-05 2.6397565740150445e-06 0 -6.0124450110748821e-06 1.2284889400424669e-06 0 -6.2477227908653426e-06 -1.3362849710341115e-06 0 -4.3776913575475851e-06 -1.473539295289041e-06 0 -9.0128885187717069e-06 -2.9564127744497065e-06 0 -1.9536540996362821e-05 -1.3129099106285613e-05 0 -1.905620866603537e-05 -1.5550124575779293e-05 0 -1.6692279228945804e-05 -1.0617189536956658e-05 0 -6.1592360541505033e-06 2.4899579742858606e-06 0 -6.3624415900519991e-06 1.2717408718292787e-06 0 -7.9616862681263334e-06 1.5362522084521247e-06 0 -1.1353868054148991e-05 -3.0281947563386409e-06 0 -1.2825746758994139e-05 -3.7958441278310548e-06 0 -1.3982912212880375e-05 -5.5353655770857667e-06 0 -2.9724999202618356e-05 -1.2193947107727206e-05 0 -3.0979831460884399e-05 -1.539213045536578e-05 0 -2.5503819587432396e-05 -1.1295495516367446e-05 0 -0.0001270010605285853 0.0001604690066641095 0 -0.00010390396937926419 0.00014798790779048374 0 -0.00010271247445621775 0.00017328387383761142 0 -1.9536540996362821e-05 -1.3129099106285613e-05 0 -2.0347643391420466e-05 -1.1089552178855132e-05 0 -2.4064296420824561e-05 -1.5601770794610835e-05 0 -2.2690749775026487e-05 -8.01930195132885e-06 0 -2.6069275698651751e-05 -1.2394411616158989e-05 0 -2.4586128064509431e-05 -1.1315202858175012e-05 0 -1.6648569450145221e-05 -6.9451250523670995e-06 0 -2.1151986203314587e-05 -9.5566929656592569e-06 0 -2.0347643391420466e-05 -1.1089552178855132e-05 0 -8.1702495859493163e-06 2.9817495021067386e-07 0 -7.9616862681263334e-06 1.5362522084521247e-06 0 -6.3624415900519991e-06 1.2717408718292787e-06 0 -2.8535623940441096e-05 -1.5744110358329605e-05 0 -3.050886888911135e-05 -1.792581428852452e-05 0 -3.1738956947192494e-05 -2.0457168709959547e-05 0 -9.918500206879698e-06 1.670872738398843e-05 0 -5.0718890390403419e-06 1.8183200598268352e-05 0 -9.6865966643179274e-06 2.4766733509703023e-05 0 -1.6648569450145221e-05 -6.9451250523670995e-06 0 -1.4271119706882752e-05 -4.1211204232365029e-06 0 -1.7849365114066522e-05 -6.4309808358676709e-06 0 -0.0001331406465985075 0.00021644645648173847 0 -0.00013081227948001555 0.00018851068765691987 0 -0.00011027364626589649 0.00019956906230912739 0 -1.5370197344317161e-05 -8.3289362688308783e-05 0 -2.5084099412580716e-05 -9.092802205663009e-05 0 -1.6915478233605121e-05 -9.6466821091637818e-05 0 -1.3526646652876244e-05 -5.7728309156145312e-05 0 -2.2712895634753972e-05 -6.6533328134207517e-05 0 -1.4225830671456772e-05 -7.0336980691097014e-05 0 -3.0945377638586867e-05 2.059329059858717e-05 0 -4.4233717263615636e-05 2.4566720763794475e-05 0 -3.5853353712741318e-05 1.6591179710231601e-05 0 -1.6287887637559633e-06 1.7377665734629951e-06 0 -1.0299473245543911e-05 9.2679318179389118e-06 0 -1.0397403242098413e-05 -5.1488089315912883e-06 0 -2.9724999202618356e-05 -1.2193947107727206e-05 0 -3.0389935115879383e-05 -1.1475031432070039e-05 0 -3.506935432890822e-05 -1.4610428186686988e-05 0 -4.3782551521289882e-05 1.8315913223882166e-05 0 -5.3719889807591201e-05 2.1851403264068014e-05 0 -4.5428840333232252e-05 1.5810762584272045e-05 0 -2.9724999202618356e-05 -1.2193947107727206e-05 0 -3.506935432890822e-05 -1.4610428186686988e-05 0 -3.6548656415550086e-05 -1.7042711217421176e-05 0 -4.3782551521289882e-05 1.8315913223882166e-05 0 -5.5477020173318078e-05 2.7169911974881724e-05 0 -5.3719889807591201e-05 2.1851403264068014e-05 0 -6.2477227908653426e-06 -1.3362849710341115e-06 0 -3.0503708660176399e-06 -4.5417200242156465e-07 0 -4.3776913575475851e-06 -1.473539295289041e-06 0 -8.427144685179662e-06 6.1619602494346469e-07 0 -6.0124450110748821e-06 1.2284889400424669e-06 0 -4.071920685371498e-06 -8.0193674193990839e-08 0 -1.3744757155097211e-05 -4.5411862867107736e-06 0 -1.54284816665638e-05 -7.5127590005231612e-06 0 -1.6031309468862899e-05 -5.8990897521804613e-06 0 -1.7640000711720071e-05 -9.4776404532836135e-06 0 -1.6031309468862899e-05 -5.8990897521804613e-06 0 -1.54284816665638e-05 -7.5127590005231612e-06 0 -4.0827203492343406e-05 -3.5440442973115477e-05 0 -4.0088887348131469e-05 -3.5198340375642342e-05 0 -3.7726258643234858e-05 -3.151138783249472e-05 0 -1.6860116644833621e-05 -2.4822963566744834e-05 0 -1.8513414114992085e-05 -2.6385863428111444e-05 0 -2.046558990976398e-05 -3.0246106188832898e-05 0 -5.5359800014784142e-06 -7.5992207391244359e-06 0 -1.0397403242098413e-05 -5.1488089315912875e-06 0 -1.1484250226195443e-05 -1.2551670210715795e-05 0 -1.4514312791952436e-05 -2.1150627895091809e-05 0 -1.5925738272847171e-05 -2.1952104575018325e-05 0 -1.8513414114992085e-05 -2.6385863428111444e-05 0 -3.9309000562670447e-05 -3.1576955412643027e-05 0 -3.7726258643234858e-05 -3.151138783249472e-05 0 -3.640766742601044e-05 -2.8058333189021788e-05 0 -1.6648569450145221e-05 -6.9451250523670995e-06 0 -1.3982912212880375e-05 -5.5353655770857667e-06 0 -1.2825746758994137e-05 -3.7958441278310543e-06 0 -1.4333207798537932e-05 -6.612864847472286e-06 0 -1.6692279228945804e-05 -1.0617189536956658e-05 0 -1.54284816665638e-05 -7.5127590005231612e-06 0 -1.7640000711720071e-05 -9.4776404532836135e-06 0 -1.54284816665638e-05 -7.5127590005231612e-06 0 -1.6692279228945804e-05 -1.0617189536956658e-05 0 -1.026049721549303e-05 -2.2181258928070306e-07 0 -1.3321317500442519e-05 -2.6856427472137783e-06 0 -1.2377260305656023e-05 2.458284599185282e-08 0 -0.0001270010605285853 0.0001604690066641095 0 -0.00012130035156131903 0.00013278574379063903 0 -0.00010390396937926419 0.00014798790779048374 0 -1.8630295433477699e-05 -2.6171502787748098e-06 0 -1.7287090795286541e-05 -2.7494673596693711e-06 0 -2.0027599492044917e-05 -5.8846685181558601e-06 0 -2.1965283411088442e-05 3.3173207556498087e-05 0 -1.5894022419984178e-05 2.208156227657222e-05 0 -9.6865966643179274e-06 2.4766733509703023e-05 0 -9.918500206879698e-06 1.670872738398843e-05 0 -9.6865966643179274e-06 2.4766733509703023e-05 0 -1.5894022419984181e-05 2.208156227657222e-05 0 -1.3497648897900468e-05 -4.5439979441779894e-05 0 -2.0756680278172921e-05 -5.2846498760182923e-05 0 -1.3526646652876244e-05 -5.7728309156145312e-05 0 -6.9344409729288237e-05 3.1708289753712853e-05 0 -5.3719889807591201e-05 2.1851403264068014e-05 0 -5.5477020173318078e-05 2.7169911974881724e-05 0 -4.3105803417800456e-05 -1.957244085409593e-05 0 -3.6548656415550079e-05 -1.7042711217421173e-05 0 -3.506935432890822e-05 -1.4610428186686988e-05 0 -1.598255729894282e-05 -3.3818149640619385e-06 0 -2.0027599492044914e-05 -5.8846685181558593e-06 0 -1.7287090795286541e-05 -2.7494673596693716e-06 0 -7.6094390955522683e-05 0.00017229542193669187 0 -0.00010271247445621775 0.00017328387383761142 0 -8.6615486806459831e-05 0.00015254479318226426 0 -7.6094390955522683e-05 0.00017229542193669187 0 -9.1867806106473381e-05 0.00019130012724628159 0 -0.00010271247445621775 0.00017328387383761142 0 -3.5977628807645423e-05 -8.0254615019750847e-05 0 -3.1745540324262107e-05 -8.8237190447382978e-05 0 -2.5779702894303663e-05 -7.8949117549999851e-05 0 -3.5977628807645423e-05 -8.0254615019750847e-05 0 -2.5779702894303663e-05 -7.8949117549999837e-05 0 -2.9964064382451288e-05 -7.1342901396272411e-05 0 -1.6915478233605121e-05 -9.6466821091637818e-05 0 -2.562075367023821e-05 -0.00010270634421474567 0 -1.8947051245512032e-05 -0.00010982122143816887 0 -0.00013413587247901131 0.00024387774220267344 0 -0.0001331406465985075 0.00021644645648173847 0 -0.00011414444797702047 0.00022433811409259616 0 -5.2933030856654078e-06 3.2422223897799413e-07 0 -4.3753249823556196e-06 3.942742620726146e-07 0 -6.8024327992723841e-06 -1.4219787410166842e-07 0 -4.7290586666972682e-06 -6.0700708162002794e-07 0 -6.589706745456206e-06 -2.667591284603649e-07 0 -4.2370236357515238e-06 -1.0182216947241022e-06 0 -3.5977628807645423e-05 -8.0254615019750847e-05 0 -4.2873397592233924e-05 -8.1255510549906965e-05 0 -3.893084118978653e-05 -9.1547465228046296e-05 0 -3.5977628807645423e-05 -8.0254615019750847e-05 0 -3.6383347713446029e-05 -7.0081208668623432e-05 0 -4.2873397592233924e-05 -8.1255510549906965e-05 0 -4.7807160268852224e-05 -9.3762374479671245e-05 0 -3.893084118978653e-05 -9.1547465228046296e-05 0 -4.2873397592233924e-05 -8.1255510549906965e-05 0 -4.440580094896179e-05 -7.0106753622135233e-05 0 -4.2873397592233924e-05 -8.1255510549906965e-05 0 -3.6383347713446029e-05 -7.0081208668623432e-05 0 -7.6094390955522683e-05 0.00017229542193669187 0 -5.8369756347626283e-05 0.00017394802485575672 0 -7.562409223079778e-05 0.00019756380712249622 0 -5.4723459205924253e-05 0.00019720117278492494 0 -7.562409223079778e-05 0.00019756380712249622 0 -5.8369756347626283e-05 0.00017394802485575672 0 -2.5950132250989853e-09 1.039727957984457e-10 0 -2.112006669068892e-06 1.5237344770682442e-07 0 -2.1123188182360405e-06 3.6462072939012113e-07 0 -3.0406463012363313e-09 -3.7737230086532136e-10 0 -2.2978163248483685e-06 -8.790237840114097e-07 0 -2.5171900973082639e-06 -6.9634013089612835e-07 0 -4.8706621510759081e-05 -3.5072098345206503e-05 0 -3.9784973954110555e-05 -2.6241397243395989e-05 0 -4.5755500919066167e-05 -2.672023581080006e-05 0 -7.5664639840883861e-05 6.6219368145272741e-05 0 -7.2150756590128973e-05 4.8407648809347643e-05 0 -6.0125931264972829e-05 4.6832212715115922e-05 0 -2.058022647403664e-05 -6.3940242979962315e-06 0 -2.579645830432394e-05 -9.2238506839432498e-06 0 -2.4000403533990308e-05 -8.9128649198984048e-06 0 -5.4155951545263948e-06 1.0893006468081568e-06 0 -6.6980028107463011e-06 4.301623677668321e-07 0 -6.3624415900519991e-06 1.2717408718292787e-06 0 -2.8373646008952835e-05 -4.2408193252938931e-05 0 -2.7189785902383942e-05 -4.0829887500767123e-05 0 -2.9252680943726407e-05 -4.0175413250381222e-05 0 -2.2456807036329891e-05 4.0905115613457453e-06 0 -2.6986369535042766e-05 5.984695315110601e-06 0 -3.0027603966234954e-05 7.1773147593811459e-06 0 -3.6681981484163592e-05 1.024471750702193e-05 0 -3.0027603966234954e-05 7.1773147593811459e-06 0 -2.6986369535042766e-05 5.984695315110601e-06 0 -2.969547719641304e-06 8.342670445367365e-07 0 -2.8855749379333947e-06 5.9167545495604762e-08 0 -2.113957266757019e-06 6.4809447150332892e-08 0 -9.0501549376227493e-06 -1.317269552440787e-05 0 -1.4608224595883149e-05 -1.8272539790653132e-05 0 -1.1857628603310238e-05 -1.7351768985090716e-05 0 -4.3105803417800456e-05 -1.957244085409593e-05 0 -4.2571340421721441e-05 -2.1802096609418808e-05 0 -3.6548656415550086e-05 -1.7042711217421176e-05 0 -6.9344409729288237e-05 3.1708289753712853e-05 0 -5.5477020173318078e-05 2.7169911974881724e-05 0 -6.6977336206438008e-05 3.6788777044019943e-05 0 -2.5762909508646708e-05 -1.4916056395944659e-05 0 -2.6866283894127482e-05 -1.3707746179597892e-05 0 -2.4202038268447381e-05 -1.3569328005755134e-05 0 -1.2050911140832189e-05 4.4733973915709977e-07 0 -1.2074860927873739e-05 7.5288272506640319e-07 0 -1.7726834122806595e-05 2.3375301547412046e-06 0 -1.4960907630746904e-05 2.46891293716691e-06 0 -1.7726834122806595e-05 2.3375301547412046e-06 0 -1.2074860927873739e-05 7.5288272506640319e-07 0 -2.8891753709689873e-05 6.9570040367275914e-05 0 -2.5780653908242618e-05 4.8584020412955222e-05 0 -1.5702990561886266e-05 4.4156174986324979e-05 0 -2.8846037161703275e-05 7.9649432559827332e-06 0 -2.4087655753632833e-05 5.408505517415819e-06 0 -3.0027603966234954e-05 7.1773147593811459e-06 0 -1.9898767782588353e-05 -7.0262627104612531e-06 0 -2.0518631779143289e-05 -6.4623848538365867e-06 0 -1.6811688562337226e-05 -5.2625227486641348e-06 0 -2.9328137069948756e-05 -2.9902366152695938e-05 0 -2.8821002464884366e-05 -2.6470948760537858e-05 0 -3.17761236180717e-05 -2.9828527624329254e-05 0 -3.0881878960843167e-05 -2.6077143015551205e-05 0 -3.17761236180717e-05 -2.9828527624329254e-05 0 -2.8821002464884366e-05 -2.6470948760537858e-05 0 -1.026049721549303e-05 -2.2181258928070306e-07 0 -9.5492080882981942e-06 1.7305408751933134e-06 0 -7.9616862681263334e-06 1.5362522084521247e-06 0 -1.532694843748988e-05 9.620092238223762e-06 0 -1.3654436564904924e-05 5.355441295886796e-06 0 -1.0447022310704926e-05 6.4861404411226234e-06 0 -4.5714314962146744e-06 3.8395994205947726e-06 0 -4.6137694755536784e-06 2.7870277555227254e-06 0 -5.325814568592604e-06 4.2001633983331089e-06 0 -2.1965283411088442e-05 3.3173207556498087e-05 0 -1.5702990561886266e-05 4.4156174986324979e-05 0 -2.5780653908242614e-05 4.8584020412955215e-05 0 -2.9724999202618356e-05 -1.2193947107727206e-05 0 -2.5503819587432396e-05 -1.1295495516367446e-05 0 -2.4000403533990308e-05 -8.9128649198984048e-06 0 -1.1353868054148991e-05 -3.0281947563386409e-06 0 -9.024098016289909e-06 -1.2368041942254805e-06 0 -9.6918061572950185e-06 -1.5386506775284265e-06 0 1.3979043496451661e-05 9.785489191091115e-05 0 1.5410348347814288e-05 0.00012500604800558176 0 -2.4048656938328024e-06 0.00011674331578938241 0 -7.5176980550692454e-05 -7.6986590223422191e-05 0 -6.2225230640998075e-05 -7.6146865699031909e-05 0 -6.4480666808413247e-05 -6.7014275979693477e-05 0 -6.9344409729288237e-05 3.1708289753712853e-05 0 -5.7648379189823402e-05 2.2412448079311033e-05 0 -5.3719889807591201e-05 2.1851403264068014e-05 0 -3.6780899834358891e-05 -1.5063649061386322e-05 0 -4.3105803417800456e-05 -1.957244085409593e-05 0 -3.506935432890822e-05 -1.4610428186686988e-05 0 -1.450119026935303e-05 6.7372756337697915e-07 0 -1.631427037491916e-05 1.1932159097655908e-06 0 -1.1914222335798337e-05 4.7989125959004214e-06 0 -1.2050911140832189e-05 4.4733973915709977e-07 0 -1.7726834122806595e-05 2.3375301547412046e-06 0 -1.6485469958133365e-05 2.0141321957469004e-06 0 -2.2456807036329891e-05 4.0905115613457453e-06 0 -1.6485469958133365e-05 2.0141321957469004e-06 0 -1.7726834122806595e-05 2.3375301547412046e-06 0 -5.709990286004165e-06 9.3380201771960678e-06 0 -5.77169942442581e-06 1.302792445631795e-05 0 -6.6157378350038669e-06 1.1326931260232362e-05 0 -6.540204891832502e-05 -8.9809018769797098e-05 0 -6.2225230640998075e-05 -7.6146865699031909e-05 0 -7.0168284171643664e-05 -8.3342518011399823e-05 0 -3.4222306251956207e-05 -2.5640732296572124e-05 0 -3.2855488550000019e-05 -2.5788570136128397e-05 0 -3.1763905925747288e-05 -2.2083343123026121e-05 0 1.3155515865811631e-05 0.00020746863853071535 0 1.0779359314552875e-05 0.0002352069353862124 0 -5.7883922250494621e-06 0.000221708470000928 0 -7.9554957072578949e-05 -0.00010268103757396454 0 -8.0368501018475649e-05 -0.0001152129573891909 0 -7.1439710554314218e-05 -0.00010712066997504616 0 -3.0945377638586867e-05 2.059329059858717e-05 0 -2.1814757519173255e-05 1.3322729078666419e-05 0 -1.7713787729149747e-05 1.6205042882270341e-05 0 -1.9536540996362821e-05 -1.3129099106285613e-05 0 -2.3051727833356162e-05 -1.8520796573571772e-05 0 -1.9056208666035367e-05 -1.5550124575779293e-05 0 -2.5437764314787781e-05 -1.3584583240441026e-05 0 -2.4064296420824561e-05 -1.5601770794610835e-05 0 -2.0347643391420466e-05 -1.1089552178855132e-05 0 -0.0001331406465985075 0.00021644645648173847 0 -0.00011027364626589649 0.00019956906230912739 0 -0.00011414444797702047 0.00022433811409259616 0 -1.6915478233605121e-05 -9.6466821091637818e-05 0 -2.5084099412580716e-05 -9.092802205663009e-05 0 -2.562075367023821e-05 -0.00010270634421474567 0 -1.1578516390568701e-05 -2.5141112825200154e-06 0 -9.2467793046715612e-06 -1.117192764167904e-06 0 -1.170519655132776e-05 -2.1865267533525403e-06 0 -9.918500206879698e-06 1.670872738398843e-05 0 -1.5894022419984181e-05 2.208156227657222e-05 0 -1.7713787729149747e-05 1.6205042882270341e-05 0 -2.9724999202618356e-05 -1.2193947107727206e-05 0 -2.5796458304323937e-05 -9.2238506839432498e-06 0 -3.0389935115879383e-05 -1.1475031432070039e-05 0 -3.0480580736263365e-05 -1.8042040050448168e-05 0 -3.4353424467849095e-05 -2.2397818222093357e-05 0 -3.050886888911135e-05 -1.792581428852452e-05 0 -1.3183198980659695e-05 -2.7638692053212914e-06 0 -1.2695403156386491e-05 -2.6017242486805667e-06 0 -1.6455808382387336e-05 -4.2325754946049604e-06 0 -7.1634661473506082e-05 -6.4496514511652291e-05 0 -7.5176980550692454e-05 -7.6986590223422191e-05 0 -6.4480666808413247e-05 -6.7014275979693477e-05 0 -2.4380769647705797e-05 -8.1046580299673283e-06 0 -1.9660700543378462e-05 -5.777729744653868e-06 0 -2.0518631779143289e-05 -6.4623848538365867e-06 0 -1.6127707346663193e-05 -4.3142866112556559e-06 0 -2.0518631779143289e-05 -6.4623848538365867e-06 0 -1.9660700543378462e-05 -5.777729744653868e-06 0 -8.4479010895871271e-05 0.00013291081636561294 0 -6.6778106320450223e-05 0.00013699005097449931 0 -8.6615486806459831e-05 0.00015254479318226426 0 -1.9842108813140188e-06 -8.4579584764286274e-07 0 -4.2370236357515238e-06 -1.0182216947241022e-06 0 -2.2978163248483685e-06 -8.790237840114097e-07 0 -5.113307699797434e-06 -9.6810938268726394e-07 0 -2.2978163248483685e-06 -8.790237840114097e-07 0 -4.2370236357515238e-06 -1.0182216947241022e-06 0 -4.4752118306642143e-06 1.2530486962317654e-07 0 -4.3753249823556196e-06 3.942742620726146e-07 0 -2.1123188182360405e-06 3.6462072939012113e-07 0 -2.0283143929866374e-06 5.2444162485154913e-07 0 -2.1123188182360405e-06 3.6462072939012113e-07 0 -4.3753249823556196e-06 3.942742620726146e-07 0 -1.4333207798537932e-05 -6.612864847472286e-06 0 -1.3982912212880373e-05 -5.5353655770857658e-06 0 -1.6661139676626712e-05 -8.8718009981461631e-06 0 -1.8871324822655003e-05 -2.4643814439431422e-06 0 -2.0625113402961422e-05 -5.0906462110287915e-06 0 -2.1152652418261783e-05 -8.203087116112517e-06 0 -2.3071480145956638e-05 -9.7577887354872738e-06 0 -2.1152652418261783e-05 -8.203087116112517e-06 0 -2.0625113402961422e-05 -5.0906462110287915e-06 0 -3.4353424467849095e-05 -2.2397818222093357e-05 0 -3.7240921561910743e-05 -2.7197306842209675e-05 0 -3.4489467807465279e-05 -2.4324235993606187e-05 0 -2.3071480145956638e-05 -9.7577887354872738e-06 0 -2.2690749775026487e-05 -8.01930195132885e-06 0 -2.4586128064509431e-05 -1.1315202858175012e-05 0 -1.8513414114992085e-05 -2.6385863428111444e-05 0 -1.5925738272847171e-05 -2.1952104575018325e-05 0 -2.0394968911520187e-05 -2.6403076641177225e-05 0 -3.7726258643234858e-05 -3.151138783249472e-05 0 -3.5259458851143654e-05 -2.8175769970193361e-05 0 -3.640766742601044e-05 -2.8058333189021788e-05 0 -4.3105803417800456e-05 -1.957244085409593e-05 0 -4.9577040009903522e-05 -2.5609129659114694e-05 0 -4.2571340421721441e-05 -2.1802096609418808e-05 0 -8.1624208499689617e-05 4.4908439701234981e-05 0 -6.9344409729288237e-05 3.1708289753712853e-05 0 -6.6977336206438008e-05 3.6788777044019943e-05 0 -1.0397403242098413e-05 -5.1488089315912883e-06 0 -1.5707857703094062e-05 -9.9526923716837377e-06 0 -1.1484250226195443e-05 -1.2551670210715795e-05 0 -1.8513414114992085e-05 -2.6385863428111444e-05 0 -2.2203258888147547e-05 -3.0634553799895643e-05 0 -2.046558990976398e-05 -3.0246106188832898e-05 0 -2.5437764314787781e-05 -1.3584583240441026e-05 0 -2.5503819587432396e-05 -1.1295495516367446e-05 0 -3.0979831460884399e-05 -1.539213045536578e-05 0 -1.8936022956137111e-06 7.2033049180044399e-07 0 -7.7144184032872881e-07 3.3377595531155852e-07 0 -8.9390214031554292e-07 4.0418276787120704e-07 0 -9.8053952088088467e-06 3.8257311880843244e-06 0 -1.3654436564904922e-05 5.3554412958867969e-06 0 -1.1587059395071412e-05 2.2666031101912923e-06 0 -5.2627742188698826e-06 2.3366464202426818e-06 0 -7.6698871451556553e-06 2.2019589463022681e-06 0 -6.0800651811256796e-06 1.0630538819213492e-06 0 -1.2463116396293356e-05 8.6452314280145875e-06 0 -1.5655822329450568e-05 3.2402641136559176e-06 0 -1.5142330499684383e-05 -2.4786432024100517e-07 0 -1.2435329964915094e-05 -3.5132055762146301e-06 0 -9.4767657017197303e-06 -2.090979983004817e-06 0 -9.0128885187717069e-06 -2.9564127744497065e-06 0 -6.2477227908653426e-06 -1.3362849710341115e-06 0 -9.0128885187717069e-06 -2.9564127744497065e-06 0 -9.4767657017197303e-06 -2.090979983004817e-06 0 -8.427144685179662e-06 6.1619602494346469e-07 0 -1.2838569323380352e-05 1.2455838880638409e-06 0 -1.251133061010606e-05 2.6397565740150445e-06 0 -1.7340114386858248e-05 3.0339137293672193e-06 0 -1.251133061010606e-05 2.6397565740150445e-06 0 -1.2838569323380352e-05 1.2455838880638409e-06 0 -6.1683434459692816e-05 -4.2250212752045748e-05 0 -6.7170484629152505e-05 -5.2871609588366014e-05 0 -5.7200149131134025e-05 -4.5947848847042189e-05 0 -2.8891753709689873e-05 6.9570040367275914e-05 0 -3.7007913177409564e-05 5.190967769024809e-05 0 -2.5780653908242614e-05 4.8584020412955215e-05 0 -1.3526646652876244e-05 -5.7728309156145312e-05 0 -2.0756680278172921e-05 -5.2846498760182923e-05 0 -2.2712895634753972e-05 -6.6533328134207517e-05 0 -2.7289559489987176e-05 -3.7687035430288376e-05 0 -2.9740707044446662e-05 -3.7108441084500614e-05 0 -2.9252680943726407e-05 -4.0175413250381222e-05 0 -8.8251682085510403e-06 -8.4465678003462264e-07 0 -1.170519655132776e-05 -2.1865267533525403e-06 0 -9.2467793046715612e-06 -1.117192764167904e-06 0 -1.598255729894282e-05 -3.3818149640619385e-06 0 -1.2377260305656023e-05 2.458284599185282e-08 0 -1.3321317500442519e-05 -2.6856427472137783e-06 0 -2.058022647403664e-05 -6.3940242979962315e-06 0 -1.6455808382387336e-05 -4.2325754946049604e-06 0 -1.9660700543378462e-05 -5.777729744653868e-06 0 -2.0927274105295222e-05 0.00012602342258200857 0 -9.8955951693921652e-07 0.00013460903340654874 0 -1.170861941171688e-05 0.00015081852300244142 0 -1.3502556856203968e-09 2.287815388953487e-10 0 -1.4468169631645119e-06 5.9720406217840662e-07 0 -8.9390214031554292e-07 4.0418276787120704e-07 0 -3.0881878960843167e-05 -2.6077143015551205e-05 0 -2.8821002464884366e-05 -2.6470948760537858e-05 0 -2.7894588145882173e-05 -2.2201183570415999e-05 0 -1.0397403242098413e-05 -5.1488089315912883e-06 0 -1.0299473245543911e-05 9.2679318179389118e-06 0 -1.5142330499684383e-05 -2.4786432024100517e-07 0 -0.00011381432294340562 0.00010671137819663953 0 -0.00010404971580424175 8.2599222580431191e-05 0 -9.2577576332555605e-05 9.1617719383480222e-05 0 -1.4319031098673037e-06 5.1424697916220251e-07 0 -1.6753628263274374e-06 4.3882134670762299e-07 0 -9.2115766653404075e-07 1.8860327378195381e-07 0 -4.4752118306642143e-06 1.2530486962317654e-07 0 -2.1123188182360405e-06 3.6462072939012113e-07 0 -2.112006669068892e-06 1.5237344770682442e-07 0 -5.113307699797434e-06 -9.6810938268726394e-07 0 -2.5171900973082639e-06 -6.9634013089612835e-07 0 -2.2978163248483685e-06 -8.790237840114097e-07 0 -6.1592360541505033e-06 2.4899579742858606e-06 0 -5.1121093821241938e-06 1.843377197255395e-06 0 -6.3624415900519991e-06 1.2717408718292787e-06 0 -3.7806356005892955e-05 -2.0847686642681141e-05 0 -3.6548656415550086e-05 -1.7042711217421176e-05 0 -4.2571340421721441e-05 -2.1802096609418808e-05 0 -5.6100967000818966e-05 3.5455184846385342e-05 0 -6.6977336206438008e-05 3.6788777044019943e-05 0 -5.5477020173318078e-05 2.7169911974881724e-05 0 -2.4059804414171393e-05 0.00021453955062652715 0 -1.3004396858639102e-05 0.00018881847497822474 0 -3.1491548936845458e-06 0.0002029643256920002 0 -6.2450393068322167e-05 -0.00010253879495903816 0 -6.540204891832502e-05 -8.9809018769797084e-05 0 -7.1376712828640613e-05 -9.8244216916572408e-05 0 -9.0501549376227493e-06 -1.317269552440787e-05 0 -1.1484250226195443e-05 -1.2551670210715793e-05 0 -1.4608224595883149e-05 -1.8272539790653132e-05 0 -1.532694843748988e-05 9.620092238223762e-06 0 -1.7713787729149743e-05 1.6205042882270341e-05 0 -2.1814757519173255e-05 1.3322729078666419e-05 0 -1.6184472460362062e-05 -1.5506649874602673e-05 0 -1.4608224595883149e-05 -1.8272539790653132e-05 0 -1.1484250226195443e-05 -1.2551670210715795e-05 0 -5.4155951545263948e-06 1.0893006468081568e-06 0 -4.8880670517989171e-06 9.1553622178169437e-07 0 -6.6980028107463011e-06 4.301623677668321e-07 0 -1.5404935642591312e-06 1.7483056103672826e-07 0 -1.1645349131205912e-06 -2.3380559655567761e-07 0 -7.4780050806440341e-07 -2.0361989909675838e-08 0 -1.1578516390568701e-05 -2.5141112825200154e-06 0 -9.6918061572950185e-06 -1.5386506775284267e-06 0 -9.2467793046715612e-06 -1.117192764167904e-06 0 -1.3244129431731372e-05 6.4100583005056259e-06 0 -1.5655822329450568e-05 3.2402641136559176e-06 0 -1.0657617526538798e-05 1.1428783162565772e-05 0 -1.2463116396293356e-05 8.6452314280145875e-06 0 -1.0657617526538798e-05 1.1428783162565772e-05 0 -1.5655822329450568e-05 3.2402641136559176e-06 0 -5.3881990228824605e-05 -8.1792220537774748e-05 0 -6.540204891832502e-05 -8.9809018769797098e-05 0 -5.6723893012227024e-05 -9.359528794601454e-05 0 -6.2450393068322167e-05 -0.00010253879495903816 0 -5.6723893012227024e-05 -9.359528794601454e-05 0 -6.540204891832502e-05 -8.9809018769797098e-05 0 -3.1715338718979572e-05 0.00017100436838744532 0 -1.3004396858639102e-05 0.00018881847497822474 0 -3.348781136459152e-05 0.00019752185345152403 0 -2.4059804414171393e-05 0.00021453955062652715 0 -3.348781136459152e-05 0.00019752185345152403 0 -1.3004396858639102e-05 0.00018881847497822474 0 -3.1715338718979572e-05 0.00017100436838744532 0 -3.2375118661306767e-05 0.00014509975855896652 0 -1.170861941171688e-05 0.00015081852300244142 0 -2.0927274105295222e-05 0.00012602342258200857 0 -1.170861941171688e-05 0.00015081852300244142 0 -3.2375118661306767e-05 0.00014509975855896652 0 -1.1278447575824176e-09 1.7514076031256325e-10 0 -1.1927438939974321e-09 1.9845610030301141e-10 0 -7.7144184032872881e-07 3.3377595531155852e-07 0 -1.1857628603310238e-05 -1.7351768985090716e-05 0 -1.4608224595883149e-05 -1.8272539790653135e-05 0 -1.5925738272847171e-05 -2.1952104575018325e-05 0 -1.8621346074426833e-05 -2.29097369854284e-05 0 -1.5925738272847171e-05 -2.1952104575018325e-05 0 -1.4608224595883149e-05 -1.8272539790653132e-05 0 -5.6131668858238457e-05 -6.3750795184171823e-05 0 -5.8951215530169773e-05 -5.5924119508549475e-05 0 -6.4480666808413247e-05 -6.7014275979693477e-05 0 -6.7170484629152505e-05 -5.2871609588366014e-05 0 -5.8951215530169773e-05 -5.5924119508549475e-05 0 -5.7200149131134025e-05 -4.5947848847042189e-05 0 -0.00011381432294340562 0.00010671137819663953 0 -9.2577576332555605e-05 9.1617719383480222e-05 0 -9.4225245846981458e-05 0.00011503200336699843 0 -6.2757664260842197e-06 5.6827757251438634e-06 0 -6.4548925294183607e-06 7.7043436477989881e-06 0 -5.2909201408406262e-06 6.2172427124474014e-06 0 -5.709990286004165e-06 9.3380201771960678e-06 0 -5.2909201408406262e-06 6.2172427124474014e-06 0 -6.4548925294183607e-06 7.7043436477989881e-06 0 -3.5087841446211651e-06 1.0988707095343731e-06 0 -4.2240879822639132e-06 1.322951160272501e-06 0 -3.2346170182222136e-06 1.236325393758615e-06 0 -1.8936022956137111e-06 7.2033049180044399e-07 0 -8.9390214031554271e-07 4.0418276787120704e-07 0 -1.4468169631645119e-06 5.9720406217840662e-07 0 -2.2456807036329891e-05 4.0905115613457453e-06 0 -3.0027603966234954e-05 7.1773147593811459e-06 0 -2.4087655753632833e-05 5.408505517415819e-06 0 -1.6127707346663193e-05 -4.3142866112556559e-06 0 -1.6811688562337226e-05 -5.2625227486641348e-06 0 -2.0518631779143289e-05 -6.4623848538365867e-06 0 -1.6127707346663193e-05 -4.3142866112556559e-06 0 -1.9660700543378462e-05 -5.777729744653868e-06 0 -1.6455808382387336e-05 -4.2325754946049604e-06 0 1.4674775899248053e-05 0.00018004318767157791 0 -3.1491548936845458e-06 0.0002029643256920002 0 -1.3004396858639102e-05 0.00018881847497822474 0 -7.7850151995299886e-05 -8.9769704657296218e-05 0 -7.1376712828640613e-05 -9.8244216916572422e-05 0 -6.540204891832502e-05 -8.9809018769797098e-05 0 -1.1320647371417644e-09 2.0830926130968727e-11 0 -7.4780050806440341e-07 -2.0361989909675865e-08 0 -1.1645349131205912e-06 -2.3380559655567761e-07 0 -5.2627742188698826e-06 2.3366464202426818e-06 0 -7.1911544418105013e-06 4.1962147768787399e-06 0 -7.6698871451556553e-06 2.2019589463022681e-06 0 -4.1115126070483746e-05 -5.4483728775200337e-05 0 -4.4318427664009557e-05 -4.6139574710983671e-05 0 -4.8388596498481297e-05 -5.4546390907382238e-05 0 -1.704306894411621e-05 4.6310028774428843e-06 0 -1.3654436564904922e-05 5.355441295886796e-06 0 -1.94039512817691e-05 8.1303216833507046e-06 0 -1.9536540996362821e-05 -1.3129099106285613e-05 0 -2.4064296420824561e-05 -1.5601770794610835e-05 0 -2.3051727833356162e-05 -1.8520796573571772e-05 0 -5.2727189043928305e-06 4.8687398740993096e-06 0 -5.2909201408406262e-06 6.2172427124474014e-06 0 -5.7690972332232669e-06 7.5059006279471127e-06 0 -5.436218736703321e-05 0.00010802359466569298 0 -7.3002361162990007e-05 0.00011225962452162003 0 -6.2982455571655678e-05 9.2682268956484069e-05 0 -3.7806356005892955e-05 -2.0847686642681141e-05 0 -4.5755500919066167e-05 -2.672023581080006e-05 0 -3.9784973954110555e-05 -2.6241397243395989e-05 0 -5.6100967000818966e-05 3.5455184846385342e-05 0 -6.0125931264972829e-05 4.6832212715115922e-05 0 -7.2150756590128973e-05 4.8407648809347643e-05 0 -3.1179759975706288e-05 -3.9776002132380752e-05 0 -2.9968824722887596e-05 -4.2608670484451633e-05 0 -2.9252680943726407e-05 -4.0175413250381222e-05 0 -2.8373646008952835e-05 -4.2408193252938931e-05 0 -2.9252680943726407e-05 -4.0175413250381222e-05 0 -2.9968824722887596e-05 -4.2608670484451633e-05 0 -2.058022647403664e-05 -6.3940242979962315e-06 0 -1.6710783432309234e-05 -4.5706502273777607e-06 0 -1.6455808382387336e-05 -4.2325754946049604e-06 0 -1.3183198980659695e-05 -2.7638692053212914e-06 0 -1.6455808382387336e-05 -4.2325754946049604e-06 0 -1.6710783432309234e-05 -4.5706502273777607e-06 0 -1.1353868054148991e-05 -3.0281947563386409e-06 0 -1.3982912212880375e-05 -5.5353655770857667e-06 0 -1.2412532781353051e-05 -4.1843134576362894e-06 0 -2.4380769647705797e-05 -8.1046580299673283e-06 0 -3.0389935115879383e-05 -1.1475031432070039e-05 0 -2.5796458304323937e-05 -9.2238506839432498e-06 0 -2.6308591032077906e-05 6.9853328811494717e-06 0 -2.6986369535042766e-05 5.984695315110601e-06 0 -2.050802578166163e-05 4.2425774658109033e-06 0 -3.3659377481557294e-05 -4.3597689758126276e-05 0 -3.0626813907825164e-05 -4.4527724425791329e-05 0 -3.1916693742177614e-05 -4.2049725978097608e-05 0 -5.436218736703321e-05 0.00010802359466569298 0 -6.6778106320450223e-05 0.00013699005097449931 0 -7.3002361162990007e-05 0.00011225962452162003 0 -1.1927438939974321e-09 1.9845610030301141e-10 0 -1.3502556856203968e-09 2.287815388953487e-10 0 -8.9390214031554292e-07 4.0418276787120704e-07 0 1.5456416631931594e-05 0.0001524529494531961 0 -1.170861941171688e-05 0.00015081852300244142 0 -9.8955951693921652e-07 0.00013460903340654874 0 -6.5925012086638944e-06 1.4607089629364986e-05 0 -5.0718890390403419e-06 1.8183200598268352e-05 0 -5.77169942442581e-06 1.302792445631795e-05 0 -5.6100967000818966e-05 3.5455184846385342e-05 0 -4.5695034242301616e-05 3.3662257203459523e-05 0 -6.0125931264972829e-05 4.6832212715115922e-05 0 -6.5925012086638944e-06 1.4607089629364986e-05 0 -6.7904673333857943e-06 1.0758722973835581e-05 0 -9.0519744497178298e-06 1.0619721045141622e-05 0 -6.5925012086638944e-06 1.4607089629364986e-05 0 -5.77169942442581e-06 1.3027924456317948e-05 0 -6.7904673333857943e-06 1.0758722973835581e-05 0 -1.531995846210571e-05 -4.1705408908805348e-06 0 -1.9247777450430027e-05 -6.3147885323815549e-06 0 -1.7849365114066522e-05 -6.4309808358676709e-06 0 -7.3254460315870701e-06 -2.5798065018492043e-07 0 -9.2467793046715612e-06 -1.117192764167904e-06 0 -9.6918061572950185e-06 -1.5386506775284265e-06 0 -7.6266441300801055e-05 9.1133615614306639e-05 0 -9.4225245846981458e-05 0.00011503200336699843 0 -9.2577576332555605e-05 9.1617719383480222e-05 0 -1.7640000711720071e-05 -9.4776404532836135e-06 0 -1.923544131193863e-05 -7.9010127665030048e-06 0 -1.6031309468862899e-05 -5.8990897521804613e-06 0 -1.3244129431731372e-05 6.4100583005056259e-06 0 -1.0657617526538798e-05 1.1428783162565772e-05 0 -9.0519744497178298e-06 1.0619721045141622e-05 0 -3.01309069744639e-05 -2.1974301191386935e-05 0 -2.7617912727026707e-05 -1.8230522841568231e-05 0 -2.8955290845443415e-05 -1.7723180004251057e-05 0 -3.7806356005892955e-05 -2.0847686642681141e-05 0 -4.2571340421721441e-05 -2.1802096609418808e-05 0 -4.5755500919066167e-05 -2.672023581080006e-05 0 -5.6100967000818966e-05 3.5455184846385342e-05 0 -7.2150756590128973e-05 4.8407648809347643e-05 0 -6.6977336206438008e-05 3.6788777044019943e-05 0 -9.5046548582764567e-05 0.00021392041291947865 0 -0.00011414444797702047 0.00022433811409259616 0 -0.00011027364626589649 0.00019956906230912739 0 -3.2579691554397705e-05 -9.916223443581589e-05 0 -2.562075367023821e-05 -0.00010270634421474567 0 -2.5084099412580716e-05 -9.092802205663009e-05 0 -3.4222306251956207e-05 -2.5640732296572124e-05 0 -3.1763905925747288e-05 -2.2083343123026121e-05 0 -3.4489467807465279e-05 -2.4324235993606187e-05 0 -5.709990286004165e-06 9.3380201771960678e-06 0 -5.7690972332232669e-06 7.5059006279471127e-06 0 -5.2909201408406262e-06 6.2172427124474014e-06 0 -1.4960907630746904e-05 2.46891293716691e-06 0 -2.050802578166163e-05 4.2425774658109033e-06 0 -1.7726834122806595e-05 2.3375301547412046e-06 0 -2.9724999202618356e-05 -1.2193947107727206e-05 0 -2.4000403533990308e-05 -8.9128649198984048e-06 0 -2.5796458304323937e-05 -9.2238506839432498e-06 0 -4.3782551521289882e-05 1.8315913223882166e-05 0 -3.5853353712741318e-05 1.6591179710231597e-05 0 -4.4233717263615636e-05 2.4566720763794475e-05 0 -1.6692279228945804e-05 -1.0617189536956658e-05 0 -1.9056208666035367e-05 -1.5550124575779293e-05 0 -1.8290251737122422e-05 -1.355284799189411e-05 0 -2.1467637783159933e-05 -8.4113002311218338e-06 0 -2.4000403533990308e-05 -8.9128649198984031e-06 0 -2.5503819587432396e-05 -1.1295495516367446e-05 0 -1.3244129431731372e-05 6.4100583005056259e-06 0 -1.1914222335798337e-05 4.7989125959004214e-06 0 -1.631427037491916e-05 1.1932159097655908e-06 0 -1.1320647371417644e-09 2.0830926130968727e-11 0 -1.1085238466255359e-09 -4.6232004773673024e-11 0 -7.4780050806440341e-07 -2.0361989909675838e-08 0 -3.4426657892543027e-05 -2.9584012498282801e-05 0 -3.5259458851143654e-05 -2.8175769970193361e-05 0 -3.7726258643234858e-05 -3.151138783249472e-05 0 -3.6780899834358891e-05 -1.5063649061386322e-05 0 -3.506935432890822e-05 -1.4610428186686988e-05 0 -3.0389935115879383e-05 -1.1475031432070039e-05 0 -5.7648379189823402e-05 2.2412448079311033e-05 0 -4.5428840333232252e-05 1.5810762584272045e-05 0 -5.3719889807591201e-05 2.1851403264068014e-05 0 -5.004611350010336e-05 -4.524322597226364e-05 0 -5.7200149131134025e-05 -4.5947848847042189e-05 0 -5.8951215530169773e-05 -5.5924119508549475e-05 0 -2.7942065239255056e-05 -2.1815188819711155e-05 0 -2.7561529002719646e-05 -2.6445423763083995e-05 0 -2.3051727833356162e-05 -1.8520796573571772e-05 0 -2.2306092085882671e-05 -2.2023261295647675e-05 0 -2.3051727833356162e-05 -1.8520796573571772e-05 0 -2.7561529002719646e-05 -2.6445423763083995e-05 0 -2.1467637783159933e-05 -8.4113002311218338e-06 0 -2.1151986203314587e-05 -9.5566929656592569e-06 0 -1.7849365114066522e-05 -6.4309808358676709e-06 0 -3.01309069744639e-05 -2.1974301191386935e-05 0 -2.8955290845443415e-05 -1.7723180004251057e-05 0 -3.1763905925747288e-05 -2.2083343123026121e-05 0 -5.6131668858238457e-05 -6.3750795184171823e-05 0 -4.8452565621956752e-05 -6.2630460996678468e-05 0 -4.8388596498481297e-05 -5.4546390907382238e-05 0 -2.1467637783159933e-05 -8.4113002311218338e-06 0 -1.7849365114066522e-05 -6.4309808358676709e-06 0 -1.9247777450430027e-05 -6.3147885323815549e-06 0 -2.6554209880418112e-05 -1.4668825765159067e-05 0 -2.8955290845443415e-05 -1.7723180004251057e-05 0 -2.7617912727026707e-05 -1.8230522841568231e-05 0 -2.1462449405376485e-06 -3.6507175610721313e-07 0 -2.1139572667570194e-06 6.4809447150332931e-08 0 -2.8855749379333947e-06 5.9167545495604762e-08 0 -4.9577040009903522e-05 -2.5609129659114694e-05 0 -4.5755500919066167e-05 -2.672023581080006e-05 0 -4.2571340421721441e-05 -2.1802096609418808e-05 0 -8.1624208499689617e-05 4.4908439701234981e-05 0 -6.6977336206438008e-05 3.6788777044019943e-05 0 -7.2150756590128973e-05 4.8407648809347643e-05 0 -7.7850151995299886e-05 -8.9769704657296218e-05 0 -6.540204891832502e-05 -8.9809018769797098e-05 0 -7.0168284171643664e-05 -8.3342518011399823e-05 0 1.4674775899248053e-05 0.00018004318767157791 0 -1.3004396858639102e-05 0.00018881847497822474 0 -5.6117914792266731e-06 0.00016919414684622215 0 1.5456416631931594e-05 0.0001524529494531961 0 -5.6117914792266731e-06 0.00016919414684622215 0 -1.170861941171688e-05 0.00015081852300244142 0 -7.7850151995299886e-05 -8.9769704657296218e-05 0 -7.9554957072578949e-05 -0.00010268103757396454 0 -7.1376712828640613e-05 -9.8244216916572408e-05 0 1.4674775899248053e-05 0.00018004318767157791 0 1.3155515865811631e-05 0.00020746863853071535 0 -3.1491548936845458e-06 0.0002029643256920002 0 -1.6184472460362062e-05 -1.5506649874602673e-05 0 -1.5707857703094065e-05 -9.9526923716837377e-06 0 -1.9297259872614867e-05 -1.4799271196941326e-05 0 -3.1738956947192494e-05 -2.0457168709959547e-05 0 -3.4489467807465279e-05 -2.4324235993606187e-05 0 -3.1763905925747288e-05 -2.2083343123026121e-05 0 -4.3051706991654116e-05 -4.1066232349130891e-05 0 -4.4074826687487879e-05 -4.3165802543512207e-05 0 -4.220113045485159e-05 -3.9675516082589019e-05 0 -2.1331328826328738e-05 -3.221193984905372e-05 0 -2.4309203052095741e-05 -3.7964034620141665e-05 0 -2.3632397913164959e-05 -3.5585669874622575e-05 0 -5.6100967000818966e-05 3.5455184846385342e-05 0 -4.4233717263615636e-05 2.4566720763794475e-05 0 -4.5695034242301616e-05 3.3662257203459523e-05 0 -1.3183198980659695e-05 -2.7638692053212914e-06 0 -1.0542820182168474e-05 -1.5746527216496064e-06 0 -1.2695403156386491e-05 -2.6017242486805667e-06 0 -3.6929331593720266e-06 1.7419540732374095e-06 0 -4.2240879822639132e-06 1.322951160272501e-06 0 -5.1121093821241938e-06 1.843377197255395e-06 0 -8.4479010895871271e-05 0.00013291081636561294 0 -7.3002361162990007e-05 0.00011225962452162003 0 -6.6778106320450223e-05 0.00013699005097449931 0 -2.8603955763044578e-05 -6.071999791549322e-05 0 -2.2712895634753972e-05 -6.6533328134207517e-05 0 -2.0756680278172921e-05 -5.2846498760182923e-05 0 -1.5404935642591312e-06 1.7483056103672826e-07 0 -7.4780050806440341e-07 -2.0361989909675838e-08 0 -9.2115766653404075e-07 1.8860327378195381e-07 0 -2.5437764314787781e-05 -1.3584583240441026e-05 0 -2.0347643391420466e-05 -1.1089552178855132e-05 0 -2.1151986203314587e-05 -9.5566929656592569e-06 0 1.5410348347814288e-05 0.00012500604800558176 0 1.5456416631931594e-05 0.00015245294945319607 0 -9.8955951693921652e-07 0.00013460903340654874 0 -4.7290586666972682e-06 -6.0700708162002794e-07 0 -5.1283303460449464e-06 4.611131685826554e-08 0 -6.589706745456206e-06 -2.667591284603649e-07 0 -1.6184472460362062e-05 -1.5506649874602673e-05 0 -1.9297259872614867e-05 -1.4799271196941326e-05 0 -1.8749461137310475e-05 -1.9643826517835836e-05 0 -2.1929658839245295e-05 -1.9850499665088437e-05 0 -1.8749461137310475e-05 -1.9643826517835836e-05 0 -1.9297259872614867e-05 -1.4799271196941326e-05 0 -3.9819830700334881e-05 -3.8176485475197425e-05 0 -4.081505691126944e-05 -3.7244036161889717e-05 0 -4.220113045485159e-05 -3.9675516082589019e-05 0 -4.3051706991654116e-05 -4.1066232349130891e-05 0 -4.220113045485159e-05 -3.9675516082589019e-05 0 -4.081505691126944e-05 -3.7244036161889717e-05 0 -2.1331328826328738e-05 -3.221193984905372e-05 0 -2.3348584812431799e-05 -3.5635941562904779e-05 0 -2.4309203052095741e-05 -3.7964034620141665e-05 0 -2.581330053044103e-05 -4.0466691639685359e-05 0 -2.4309203052095741e-05 -3.7964034620141665e-05 0 -2.3348584812431799e-05 -3.5635941562904786e-05 0 -6.2757664260842197e-06 5.6827757251438634e-06 0 -5.325814568592604e-06 4.2001633983331089e-06 0 -7.4841442555495916e-06 3.7319258025150083e-06 0 -1.0397403242098413e-05 -5.1488089315912883e-06 0 -1.5142330499684383e-05 -2.4786432024100517e-07 0 -1.5707857703094065e-05 -9.9526923716837377e-06 0 -1.9196385391061265e-05 -6.7777836899314704e-06 0 -1.5707857703094065e-05 -9.9526923716837377e-06 0 -1.5142330499684383e-05 -2.4786432024100517e-07 0 -5.6131668858238457e-05 -6.3750795184171823e-05 0 -6.4480666808413247e-05 -6.7014275979693477e-05 0 -6.2225230640998075e-05 -7.6146865699031909e-05 0 -2.058022647403664e-05 -6.3940242979962315e-06 0 -2.4000403533990308e-05 -8.9128649198984048e-06 0 -1.9247777450430027e-05 -6.3147885323815549e-06 0 -2.1467637783159933e-05 -8.4113002311218338e-06 0 -1.9247777450430027e-05 -6.3147885323815549e-06 0 -2.4000403533990308e-05 -8.9128649198984048e-06 0 -1.8982190467399179e-05 -1.8187989890770187e-05 0 -2.5762909508646708e-05 -1.4916056395944659e-05 0 -2.4202038268447381e-05 -1.3569328005755134e-05 0 -3.8410045356775376e-05 -3.4408438920017756e-05 0 -4.081505691126944e-05 -3.7244036161889717e-05 0 -3.8017874157379578e-05 -3.5812192848464223e-05 0 -2.3418337785186844e-05 -3.3816123382321012e-05 0 -2.5455891823910303e-05 -3.7367186962565136e-05 0 -2.3348584812431799e-05 -3.5635941562904786e-05 0 -5.4155951545263948e-06 1.0893006468081568e-06 0 -5.1121093821241929e-06 1.8433771972553952e-06 0 -4.2240879822639132e-06 1.322951160272501e-06 0 -3.0626813907825164e-05 -4.4527724425791329e-05 0 -2.9968824722887596e-05 -4.2608670484451633e-05 0 -3.1916693742177614e-05 -4.2049725978097608e-05 0 -4.7198739462616159e-06 7.5618338403915064e-07 0 -3.4279146717266998e-06 9.5985674735273292e-07 0 -3.1143597592985042e-06 8.6204054797668741e-07 0 -2.6554209880418112e-05 -1.4668825765159067e-05 0 -2.4586128064509431e-05 -1.131520285817501e-05 0 -2.6069275698651755e-05 -1.2394411616158989e-05 0 -1.5404935642591312e-06 1.7483056103672826e-07 0 -2.1570992937918114e-06 5.0753557079929192e-07 0 -2.113957266757019e-06 6.4809447150332892e-08 0 -5.2667743311936012e-05 0.00014953139477141453 0 -4.3762270310754309e-05 0.00012807365444988342 0 -3.2375118661306767e-05 0.00014509975855896652 0 -5.4723459205924253e-05 0.00019720117278492494 0 -3.3487811364591514e-05 0.00019752185345152403 0 -4.3055694999547855e-05 0.00021478496274237696 0 -4.7807160268852224e-05 -9.3762374479671245e-05 0 -5.6723893012227024e-05 -9.359528794601454e-05 0 -5.4053160187504732e-05 -0.00010192610983569388 0 6.1280930196117776e-08 2.7383750385156645e-05 0 -1.0299473245543911e-05 9.2679318179389118e-06 0 -1.6287887637559633e-06 1.7377665734629951e-06 0 -1.5404935642591312e-06 1.7483056103672826e-07 0 -9.2115766653404075e-07 1.8860327378195381e-07 0 -1.6753628263274374e-06 4.3882134670762299e-07 0 -7.5176980550692454e-05 -7.6986590223422191e-05 0 -7.0168284171643664e-05 -8.3342518011399823e-05 0 -6.2225230640998075e-05 -7.6146865699031909e-05 0 -8.0561730757341211e-05 -0.00014941883177869457 0 -7.3294488563413961e-05 -0.00014327434511807521 0 -8.0630236513986746e-05 -0.00013855401180782044 0 2.2047191953516064e-06 0.00031017537014691528 0 -1.0719497774251209e-05 0.00030230696168103679 0 5.0910717448802428e-06 0.00028763838307761358 0 2.2047191953516064e-06 0.00031017537014691528 0 -1.8542772716449694e-05 0.00031618551212522658 0 -1.0719497774251211e-05 0.00030230696168103679 0 -2.4779090640032776e-05 -0.00014423385967339599 0 -2.9606178651219165e-05 -0.00014155553081974208 0 -3.2710020380039822e-05 -0.00014733206594209818 0 -0.0001343115358201736 0.00032087127182444839 0 -0.00013441490767112375 0.00029593271846701819 0 -0.00011763680216756111 0.00030675340313095526 0 -8.0561730757341211e-05 -0.00014941883177869457 0 -6.9709113941312677e-05 -0.0001493385606490256 0 -7.3294488563413961e-05 -0.00014327434511807521 0 -2.4779090640032776e-05 -0.00014423385967339599 0 -2.308498762447992e-05 -0.00013463783595380174 0 -2.9606178651219165e-05 -0.00014155553081974208 0 -0.0001343115358201736 0.00032087127182444839 0 -0.00011763680216756111 0.00030675340313095526 0 -0.00010937569310591813 0.00032074968354945744 0 -1.1085238466256728e-09 -4.6232004773676747e-11 0 -9.2115766653404075e-07 1.8860327378195381e-07 0 -7.4780050806440341e-07 -2.0361989909675838e-08 0 -3.01309069744639e-05 -2.1974301191386935e-05 0 -2.7894588145882173e-05 -2.2201183570415999e-05 0 -2.7617912727026707e-05 -1.8230522841568231e-05 0 -2.1467637783159933e-05 -8.4113002311218338e-06 0 -2.5503819587432396e-05 -1.1295495516367446e-05 0 -2.1151986203314587e-05 -9.5566929656592569e-06 0 -5.6131668858238457e-05 -6.3750795184171823e-05 0 -5.255339497295391e-05 -7.074227485919562e-05 0 -4.8452565621956752e-05 -6.2630460996678468e-05 0 -4.0530579341795171e-06 5.6153070151807958e-07 0 -6.0800651811256796e-06 1.0630538819213492e-06 0 -5.1283303460449464e-06 4.611131685826554e-08 0 -5.9422013163151736e-05 0.00023045675786101172 0 -7.6652150221965737e-05 0.00024674117245057246 0 -7.6982281243051284e-05 0.00022195320153601316 0 -4.8114977673759428e-05 -0.00010864906851705388 0 -4.2121745360620059e-05 -0.00011587877221774629 0 -4.0442041218969647e-05 -0.00010438981815332633 0 -4.0827203492343406e-05 -3.5440442973115477e-05 0 -4.2073477328564162e-05 -3.8520675797808959e-05 0 -4.0088887348131469e-05 -3.5198340375642342e-05 0 -1.6860116644833621e-05 -2.4822963566744834e-05 0 -2.046558990976398e-05 -3.0246106188832898e-05 0 -1.9217850772462109e-05 -2.864386714085202e-05 0 -5.5359800014784142e-06 -7.5992207391244359e-06 0 -1.1484250226195443e-05 -1.2551670210715795e-05 0 -9.0501549376227493e-06 -1.317269552440787e-05 0 -2.5437764314787781e-05 -1.3584583240441026e-05 0 -2.1151986203314587e-05 -9.5566929656592569e-06 0 -2.5503819587432396e-05 -1.1295495516367446e-05 0 -3.7240921561910743e-05 -2.7197306842209675e-05 0 -3.9309000562670447e-05 -3.1576955412643027e-05 0 -3.640766742601044e-05 -2.8058333189021788e-05 0 -1.1857628603310238e-05 -1.7351768985090716e-05 0 -1.5925738272847171e-05 -2.1952104575018325e-05 0 -1.4514312791952436e-05 -2.1150627895091809e-05 0 -4.1115126070483746e-05 -5.4483728775200337e-05 0 -3.5106928042954793e-05 -5.7865808553836503e-05 0 -3.4148503675170235e-05 -4.653507126438939e-05 0 -3.6929331593720266e-06 1.7419540732374095e-06 0 -3.2346170182222136e-06 1.2363253937586148e-06 0 -4.2240879822639132e-06 1.322951160272501e-06 0 -3.2579691554397705e-05 -9.916223443581589e-05 0 -3.893084118978653e-05 -9.1547465228046296e-05 0 -4.0442041218969647e-05 -0.00010438981815332633 0 -9.5046548582764567e-05 0.00021392041291947865 0 -7.562409223079778e-05 0.00019756380712249622 0 -7.6982281243051284e-05 0.00022195320153601316 0 -1.8621346074426833e-05 -2.29097369854284e-05 0 -1.4608224595883149e-05 -1.8272539790653132e-05 0 -1.8749461137310475e-05 -1.9643826517835836e-05 0 -1.6184472460362062e-05 -1.5506649874602673e-05 0 -1.8749461137310475e-05 -1.9643826517835836e-05 0 -1.4608224595883149e-05 -1.8272539790653132e-05 0 -7.3254460315870701e-06 -2.5798065018492043e-07 0 -6.9933331062041248e-06 -1.3978919077667096e-07 0 -9.2467793046715612e-06 -1.117192764167904e-06 0 -2.7942065239255056e-05 -2.1815188819711155e-05 0 -2.3051727833356159e-05 -1.8520796573571772e-05 0 -2.4064296420824561e-05 -1.5601770794610835e-05 0 -2.6345557133966524e-05 -4.622656023951224e-05 0 -1.9537911143396208e-05 -4.0898677195320999e-05 0 -2.3243835502514857e-05 -3.1827313848730647e-05 0 -2.5901132115310348e-05 -1.8103535376723351e-05 0 -2.7617912727026707e-05 -1.8230522841568231e-05 0 -2.7894588145882173e-05 -2.2201183570415999e-05 0 -1.4943556766270428e-05 -3.3539437779854745e-05 0 -1.9537911143396208e-05 -4.0898677195320999e-05 0 -1.3497648897900468e-05 -4.5439979441779894e-05 0 -1.8513414114992085e-05 -2.6385863428111444e-05 0 -2.0394968911520187e-05 -2.6403076641177225e-05 0 -2.2203258888147547e-05 -3.0634553799895643e-05 0 -2.3577620222623919e-05 -2.9299396007716885e-05 0 -2.2203258888147547e-05 -3.0634553799895643e-05 0 -2.0394968911520187e-05 -2.6403076641177225e-05 0 -9.4742617179422954e-06 -1.4511058474777563e-06 0 -1.2261239130130226e-05 -2.7992145816994579e-06 0 -1.2695403156386491e-05 -2.6017242486805667e-06 0 -1.3744757155097211e-05 -4.5411862867107736e-06 0 -1.6031309468862899e-05 -5.8990897521804613e-06 0 -1.3321317500442519e-05 -2.6856427472137783e-06 0 -1.598255729894282e-05 -3.3818149640619385e-06 0 -1.3321317500442519e-05 -2.6856427472137783e-06 0 -1.6031309468862899e-05 -5.8990897521804613e-06 0 -6.5925012086638944e-06 1.4607089629364986e-05 0 -1.0657617526538798e-05 1.1428783162565772e-05 0 -6.8429631836319072e-06 1.8628446707282911e-05 0 -1.2463116396293356e-05 8.6452314280145875e-06 0 -6.8429631836319072e-06 1.8628446707282911e-05 0 -1.0657617526538798e-05 1.1428783162565772e-05 0 1.5456416631931594e-05 0.0001524529494531961 0 1.4674775899248053e-05 0.00018004318767157791 0 -5.6117914792266731e-06 0.00016919414684622215 0 -8.9589296770967937e-06 8.417276089066547e-06 0 -6.4548925294183607e-06 7.7043436477989881e-06 0 -8.1888670182967437e-06 6.0508938582319696e-06 0 -7.5176980550692454e-05 -7.6986590223422191e-05 0 -7.7850151995299886e-05 -8.9769704657296218e-05 0 -7.0168284171643664e-05 -8.3342518011399823e-05 0 -8.8251682085510403e-06 -8.4465678003462264e-07 0 -9.2467793046715612e-06 -1.117192764167904e-06 0 -6.9933331062041248e-06 -1.3978919077667096e-07 0 -1.2050911140832189e-05 4.4733973915709977e-07 0 -9.3506614037011628e-06 3.1909861292225253e-08 0 -8.0105876872397094e-06 -5.2927642699482176e-07 0 -9.4742617179422954e-06 -1.4511058474777563e-06 0 -6.5269286298434285e-06 -5.0033432863942974e-07 0 -7.2083466251923325e-06 -1.0241948289701125e-06 0 -5.2627742188698826e-06 2.3366464202426818e-06 0 -3.7846104440765518e-06 1.7444017464957988e-06 0 -4.5478632989496567e-06 3.3555870039512884e-06 0 -5.3215852360507587e-06 -2.8710942655021789e-06 0 -4.3776913575475851e-06 -1.473539295289041e-06 0 -2.2247467713901125e-06 -9.4794311632779686e-07 0 -3.2834209289462906e-09 2.7245994739474068e-10 0 -2.2247467713901125e-06 -9.4794311632779686e-07 0 -4.3776913575475851e-06 -1.473539295289041e-06 0 -7.1197248290345267e-06 3.2500753270525203e-06 0 -3.0012969961747282e-06 9.5423702502664581e-07 0 -6.0124450110748821e-06 1.2284889400424669e-06 0 -4.5921885192837105e-09 -6.2187111887020267e-10 0 -6.0124450110748821e-06 1.2284889400424669e-06 0 -3.0012969961747282e-06 9.5423702502664581e-07 0 -2.7942065239255056e-05 -2.1815188819711155e-05 0 -3.4025688932355337e-05 -2.5434107159899715e-05 0 -3.276865587785401e-05 -3.0002291332725531e-05 0 -1.5404935642591312e-06 1.7483056103672826e-07 0 -1.6753628263274374e-06 4.3882134670762299e-07 0 -2.1570992937918114e-06 5.0753557079929192e-07 0 -2.0927274105295222e-05 0.00012602342258200857 0 -2.4048656938328024e-06 0.00011674331578938241 0 -9.8955951693921652e-07 0.00013460903340654874 0 -2.1965283411088442e-05 3.3173207556498087e-05 0 -2.4429378717799274e-05 2.4765449886904447e-05 0 -1.5894022419984181e-05 2.208156227657222e-05 0 -8.9589296770967937e-06 8.417276089066547e-06 0 -6.7904673333857943e-06 1.0758722973835581e-05 0 -6.4548925294183607e-06 7.7043436477989881e-06 0 -3.003588996565146e-05 -3.6098015589578225e-05 0 -2.7561529002719646e-05 -2.6445423763083995e-05 0 -3.276865587785401e-05 -3.0002291332725531e-05 0 -8.4990957805162302e-05 0.00032030080352289024 0 -0.00010937569310591813 0.00032074968354945744 0 -9.7020860899771965e-05 0.00030799923223711836 0 -4.0792747057045584e-05 -0.00014848276672911154 0 -3.2710020380039822e-05 -0.00014733206594209818 0 -3.658338701568868e-05 -0.00014337185328025084 0 -1.8542772716449694e-05 0.00031618551212522658 0 -3.9584088701877833e-05 0.00031875197421546349 0 -2.8663840165433315e-05 0.00030628914538808564 0 -6.9709113941312677e-05 -0.0001493385606490256 0 -5.9255992692990432e-05 -0.00014907957716057385 0 -6.4372930934218276e-05 -0.00014380736519477587 0 -3.5446910642559487e-05 -3.54260069791413e-05 0 -3.8017874157379578e-05 -3.5812192848464223e-05 0 -3.6563266542260501e-05 -3.7503205138074913e-05 0 -2.7289559489987176e-05 -3.7687035430288376e-05 0 -2.7189785902383942e-05 -4.0829887500767123e-05 0 -2.5455891823910303e-05 -3.7367186962565136e-05 0 -6.2058811071351148e-09 -2.6529581246938945e-09 0 -2.2247467713901129e-06 -9.4794311632779707e-07 0 -3.2834209289462906e-09 2.7245994739474068e-10 0 -7.9480675606310297e-09 3.389310033302986e-09 0 -4.5921885192837105e-09 -6.2187111887020267e-10 0 -3.0012969961747282e-06 9.5423702502664581e-07 0 -7.9480675606310297e-09 3.389310033302986e-09 0 -3.0012969961747282e-06 9.5423702502664581e-07 0 -7.1197248290345267e-06 3.2500753270525203e-06 0 -6.2058811071351148e-09 -2.6529581246938945e-09 0 -5.3215852360507587e-06 -2.8710942655021789e-06 0 -2.2247467713901125e-06 -9.4794311632779686e-07 0 -2.8603955763044578e-05 -6.071999791549322e-05 0 -3.5106928042954793e-05 -5.7865808553836497e-05 0 -3.6383347713446029e-05 -7.0081208668623432e-05 0 -1.1578516390568701e-05 -2.5141112825200154e-06 0 -1.4271119706882752e-05 -4.1211204232365029e-06 0 -1.2825746758994137e-05 -3.7958441278310543e-06 0 -2.6554209880418112e-05 -1.4668825765159067e-05 0 -2.7617912727026707e-05 -1.8230522841568231e-05 0 -2.5236842912098519e-05 -1.4299027912134106e-05 0 -2.5901132115310348e-05 -1.8103535376723351e-05 0 -2.5236842912098519e-05 -1.4299027912134106e-05 0 -2.7617912727026707e-05 -1.8230522841568231e-05 0 -7.3254460315870701e-06 -2.5798065018492043e-07 0 -9.6918061572950185e-06 -1.5386506775284265e-06 0 -7.9717037278504769e-06 -5.9533985767512019e-07 0 -3.5087841446211651e-06 1.0988707095343731e-06 0 -3.4279146717266998e-06 9.5985674735273292e-07 0 -4.8880670517989171e-06 9.1553622178169437e-07 0 -4.7198739462616159e-06 7.5618338403915064e-07 0 -4.8880670517989171e-06 9.1553622178169437e-07 0 -3.4279146717266998e-06 9.5985674735273292e-07 0 -1.2463116396293356e-05 8.6452314280145875e-06 0 -1.0299473245543911e-05 9.2679318179389118e-06 0 -6.8429631836319072e-06 1.8628446707282911e-05 0 6.1280930196117776e-08 2.7383750385156645e-05 0 -6.8429631836319064e-06 1.8628446707282914e-05 0 -1.0299473245543911e-05 9.2679318179389118e-06 0 -3.8704006937692839e-05 -3.0609958700454138e-05 0 -3.276865587785401e-05 -3.0002291332725531e-05 0 -3.4025688932355337e-05 -2.5434107159899715e-05 0 -1.8621346074426833e-05 -2.29097369854284e-05 0 -2.0394968911520187e-05 -2.6403076641177225e-05 0 -1.5925738272847171e-05 -2.1952104575018325e-05 0 -3.4222306251956207e-05 -2.5640732296572124e-05 0 -3.640766742601044e-05 -2.8058333189021788e-05 0 -3.5259458851143654e-05 -2.8175769970193361e-05 0 -5.4155951545263948e-06 1.0893006468081568e-06 0 -6.3624415900519991e-06 1.2717408718292787e-06 0 -5.1121093821241938e-06 1.843377197255395e-06 0 -2.4059804414171393e-05 0.00021453955062652715 0 -3.1491548936845458e-06 0.0002029643256920002 0 -5.7883922250494621e-06 0.000221708470000928 0 -6.2450393068322167e-05 -0.00010253879495903816 0 -7.1376712828640613e-05 -9.8244216916572408e-05 0 -7.1439710554314218e-05 -0.00010712066997504616 0 -1.8982190467399179e-05 -1.8187989890770187e-05 0 -1.8290251737122422e-05 -1.355284799189411e-05 0 -1.9056208666035367e-05 -1.5550124575779293e-05 0 -1.6184472460362062e-05 -1.5506649874602673e-05 0 -1.1484250226195443e-05 -1.2551670210715795e-05 0 -1.5707857703094065e-05 -9.9526923716837377e-06 0 -9.5046548582764567e-05 0.00021392041291947865 0 -0.00011027364626589649 0.00019956906230912739 0 -9.1867806106473381e-05 0.00019130012724628159 0 -3.2579691554397705e-05 -9.916223443581589e-05 0 -2.5084099412580716e-05 -9.092802205663009e-05 0 -3.1745540324262107e-05 -8.8237190447382978e-05 0 -2.8603955763044578e-05 -6.071999791549322e-05 0 -2.9964064382451288e-05 -7.1342901396272411e-05 0 -2.2712895634753972e-05 -6.6533328134207517e-05 0 -3.3894297065944683e-05 -3.2709930787629014e-05 0 -3.3306507663590083e-05 -3.472835494518505e-05 0 -3.1527241116032161e-05 -3.2520095890245919e-05 0 -2.3418337785186844e-05 -3.3816123382321012e-05 0 -2.046558990976398e-05 -3.0246106188832898e-05 0 -2.2203258888147547e-05 -3.0634553799895643e-05 0 -9.8053952088088467e-06 3.8257311880843244e-06 0 -7.6698871451556553e-06 2.2019589463022681e-06 0 -7.1911544418105013e-06 4.1962147768787391e-06 0 -3.1179759975706288e-05 -3.9776002132380752e-05 0 -2.9252680943726407e-05 -4.0175413250381222e-05 0 -2.9740707044446662e-05 -3.7108441084500614e-05 0 -8.8251682085510403e-06 -8.4465678003462264e-07 0 -6.9933331062041248e-06 -1.3978919077667096e-07 0 -6.8024327992723841e-06 -1.4219787410166842e-07 0 -5.2933030856654078e-06 3.2422223897799413e-07 0 -6.8024327992723841e-06 -1.4219787410166842e-07 0 -6.9933331062041248e-06 -1.3978919077667096e-07 0 -1.026049721549303e-05 -2.2181258928070306e-07 0 -1.1740175275279219e-05 -2.3622338122471158e-06 0 -1.3321317500442519e-05 -2.6856427472137783e-06 0 -2.7942065239255056e-05 -2.1815188819711155e-05 0 -3.276865587785401e-05 -3.0002291332725531e-05 0 -2.7561529002719646e-05 -2.6445423763083995e-05 0 -7.3254460315870701e-06 -2.5798065018492043e-07 0 -7.9717037278504769e-06 -5.9533985767512019e-07 0 -6.0071825274235001e-06 2.7216252916584247e-07 0 -6.8921832891836813e-06 1.7063642669005198e-08 0 -6.0071825274235001e-06 2.7216252916584247e-07 0 -7.9717037278504769e-06 -5.9533985767512019e-07 0 -9.6918061572950185e-06 -1.5386506775284265e-06 0 -9.024098016289909e-06 -1.2368041942254805e-06 0 -7.9717037278504769e-06 -5.9533985767512019e-07 0 -3.4493641731642228e-05 -3.9664295124064853e-05 0 -3.6563266542260501e-05 -3.7503205138074913e-05 0 -3.7813369556950517e-05 -4.005324519346341e-05 0 -3.9819830700334881e-05 -3.8176485475197425e-05 0 -3.7813369556950517e-05 -4.005324519346341e-05 0 -3.6563266542260501e-05 -3.7503205138074913e-05 0 -2.581330053044103e-05 -4.0466691639685359e-05 0 -2.7189785902383942e-05 -4.0829887500767123e-05 0 -2.7227406505342007e-05 -4.3912594713720099e-05 0 -2.8373646008952835e-05 -4.2408193252938931e-05 0 -2.7227406505342007e-05 -4.3912594713720099e-05 0 -2.7189785902383942e-05 -4.0829887500767123e-05 0 -1.2463116396293356e-05 8.6452314280145875e-06 0 -1.5142330499684383e-05 -2.4786432024100522e-07 0 -1.0299473245543911e-05 9.2679318179389118e-06 0 -1.9892850530189337e-05 0.00029073922128301717 0 -2.8663840165433315e-05 0.00030628914538808564 0 -4.1062252002232145e-05 0.00029750069605992603 0 -6.831670696129105e-05 -0.00013719873654144049 0 -6.4372930934218276e-05 -0.00014380736519477587 0 -5.8334667732402005e-05 -0.00013948768378246231 0 -3.3089270983584809e-05 -0.00013655983754201013 0 -4.1381549042403402e-05 -0.00013958666619110169 0 -3.658338701568868e-05 -0.00014337185328025084 0 -0.00010626298171739549 0.00029287997976224493 0 -8.2842644215433146e-05 0.00029795787652356066 0 -9.7020860899771965e-05 0.00030799923223711836 0 -9.5046548582764567e-05 0.00021392041291947865 0 -9.1867806106473381e-05 0.00019130012724628159 0 -7.562409223079778e-05 0.00019756380712249622 0 -3.2579691554397705e-05 -9.916223443581589e-05 0 -3.1745540324262107e-05 -8.8237190447382978e-05 0 -3.893084118978653e-05 -9.1547465228046296e-05 0 -2.8603955763044578e-05 -6.071999791549322e-05 0 -3.6383347713446029e-05 -7.0081208668623432e-05 0 -2.9964064382451288e-05 -7.1342901396272411e-05 0 -1.3744757155097211e-05 -4.5411862867107736e-06 0 -1.3321317500442519e-05 -2.6856427472137783e-06 0 -1.1740175275279219e-05 -2.3622338122471158e-06 0 -3.9584088701877833e-05 0.00031875197421546349 0 -4.1062252002232145e-05 0.00029750069605992603 0 -2.8663840165433315e-05 0.00030628914538808564 0 -5.9255992692990432e-05 -0.00014907957716057385 0 -5.8334667732402005e-05 -0.00013948768378246231 0 -6.4372930934218276e-05 -0.00014380736519477587 0 -8.4990957805162302e-05 0.00032030080352289024 0 -9.7020860899771965e-05 0.00030799923223711836 0 -8.2842644215433146e-05 0.00029795787652356066 0 -4.0792747057045584e-05 -0.00014848276672911154 0 -3.658338701568868e-05 -0.00014337185328025084 0 -4.1381549042403402e-05 -0.00013958666619110169 0 -3.1393346565663533e-05 -3.5030573661202981e-05 0 -3.1527241116032161e-05 -3.2520095890245919e-05 0 -3.3306507663590083e-05 -3.472835494518505e-05 0 -1.4943556766270428e-05 -3.3539437779854745e-05 0 -2.3243835502514857e-05 -3.1827313848730647e-05 0 -1.9537911143396208e-05 -4.0898677195320999e-05 0 -4.4074826687487879e-05 -4.3165802543512207e-05 0 -4.2195326011452594e-05 -4.0662575071848991e-05 0 -4.220113045485159e-05 -3.9675516082589019e-05 0 -2.3632397913164959e-05 -3.5585669874622575e-05 0 -2.4309203052095741e-05 -3.7964034620141665e-05 0 -2.5938218749471002e-05 -4.149477322046701e-05 0 -3.5087841446211651e-06 1.0988707095343731e-06 0 -2.5118211982386929e-06 8.6741881259454672e-07 0 -3.4279146717266998e-06 9.5985674735273292e-07 0 -0.00010271247445621775 0.00017328387383761142 0 -0.00010390396937926419 0.00014798790779048374 0 -8.6615486806459831e-05 0.00015254479318226426 0 -8.4479010895871271e-05 0.00013291081636561294 0 -8.6615486806459831e-05 0.00015254479318226426 0 -0.00010390396937926419 0.00014798790779048374 0 -2.9328137069948756e-05 -2.9902366152695938e-05 0 -3.17761236180717e-05 -2.9828527624329254e-05 0 -3.1527241116032161e-05 -3.2520095890245919e-05 0 -8.7759137341911442e-06 -7.9648315063020457e-07 0 -9.024098016289909e-06 -1.2368041942254805e-06 0 -1.0436330460070837e-05 -2.3056843357250372e-06 0 -2.6554209880418112e-05 -1.4668825765159067e-05 0 -2.5236842912098519e-05 -1.4299027912134106e-05 0 -2.4586128064509431e-05 -1.1315202858175012e-05 0 -2.3071480145956638e-05 -9.7577887354872738e-06 0 -2.4586128064509431e-05 -1.1315202858175012e-05 0 -2.5236842912098519e-05 -1.4299027912134106e-05 0 -7.6094390955522683e-05 0.00017229542193669187 0 -7.562409223079778e-05 0.00019756380712249622 0 -9.1867806106473381e-05 0.00019130012724628159 0 -3.5977628807645423e-05 -8.0254615019750847e-05 0 -3.893084118978653e-05 -9.1547465228046296e-05 0 -3.1745540324262107e-05 -8.8237190447382978e-05 0 -3.5977628807645423e-05 -8.0254615019750847e-05 0 -2.9964064382451288e-05 -7.1342901396272411e-05 0 -3.6383347713446029e-05 -7.0081208668623432e-05 0 -6.2477227908653426e-06 -1.3362849710341115e-06 0 -9.4767657017197303e-06 -2.0909799830048174e-06 0 -7.2083466251923325e-06 -1.0241948289701125e-06 0 -8.427144685179662e-06 6.1619602494346469e-07 0 -9.3506614037011628e-06 3.1909861292225253e-08 0 -1.2838569323380352e-05 1.2455838880638409e-06 0 -1.7340114386858248e-05 3.0339137293672193e-06 0 -1.2838569323380352e-05 1.2455838880638409e-06 0 -1.6485469958133365e-05 2.0141321957469004e-06 0 -1.2435329964915094e-05 -3.5132055762146301e-06 0 -1.2261239130130226e-05 -2.7992145816994579e-06 0 -9.4767657017197303e-06 -2.090979983004817e-06 0 -1.1662053696918302e-05 -3.134822443603194e-06 0 -1.1740175275279219e-05 -2.3622338122471158e-06 0 -9.9950418670860852e-06 -1.2137018072415179e-06 0 -0.00010271247445621775 0.00017328387383761142 0 -9.1867806106473381e-05 0.00019130012724628159 0 -0.00011027364626589649 0.00019956906230912739 0 -2.5779702894303663e-05 -7.8949117549999851e-05 0 -3.1745540324262107e-05 -8.8237190447382978e-05 0 -2.5084099412580716e-05 -9.092802205663009e-05 0 -2.5779702894303663e-05 -7.8949117549999851e-05 0 -2.2712895634753972e-05 -6.6533328134207517e-05 0 -2.9964064382451288e-05 -7.1342901396272411e-05 0 -4.1115126070483746e-05 -5.4483728775200337e-05 0 -4.8388596498481297e-05 -5.4546390907382238e-05 0 -4.8452565621956752e-05 -6.2630460996678468e-05 0 -3.3894297065944683e-05 -3.2709930787629014e-05 0 -3.1527241116032161e-05 -3.2520095890245919e-05 0 -3.17761236180717e-05 -2.9828527624329254e-05 0 -9.8053952088088467e-06 3.8257311880843244e-06 0 -1.0447022310704926e-05 6.4861404411226234e-06 0 -1.3654436564904922e-05 5.3554412958867969e-06 0 -1.4333207798537932e-05 -6.612864847472286e-06 0 -1.2412532781353051e-05 -4.1843134576362894e-06 0 -1.3982912212880375e-05 -5.5353655770857667e-06 0 -9.4742617179422954e-06 -1.4511058474777563e-06 0 -1.2695403156386491e-05 -2.6017242486805671e-06 0 -1.0542820182168474e-05 -1.5746527216496064e-06 0 -7.6266441300801055e-05 9.1133615614306639e-05 0 -6.2982455571655678e-05 9.2682268956484069e-05 0 -7.3002361162990007e-05 0.00011225962452162003 0 -5.004611350010336e-05 -4.524322597226364e-05 0 -4.8388596498481297e-05 -5.4546390907382238e-05 0 -4.4318427664009557e-05 -4.6139574710983671e-05 0 -2.4059804414171393e-05 0.00021453955062652715 0 -4.3055694999547855e-05 0.00021478496274237696 0 -3.348781136459152e-05 0.00019752185345152403 0 -6.2450393068322167e-05 -0.00010253879495903816 0 -5.4053160187504732e-05 -0.00010192610983569388 0 -5.6723893012227024e-05 -9.359528794601454e-05 0 -2.0927274105295222e-05 0.00012602342258200857 0 -3.2375118661306767e-05 0.00014509975855896652 0 -4.3762270310754309e-05 0.00012807365444988342 0 -1.531995846210571e-05 -4.1705408908805348e-06 0 -1.6710783432309234e-05 -4.5706502273777599e-06 0 -1.9247777450430027e-05 -6.3147885323815549e-06 0 -1.1353868054148991e-05 -3.0281947563386409e-06 0 -1.0436330460070837e-05 -2.3056843357250372e-06 0 -9.024098016289909e-06 -1.2368041942254805e-06 0 -4.440580094896179e-05 -7.0106753622135233e-05 0 -4.8452565621956752e-05 -6.2630460996678468e-05 0 -5.255339497295391e-05 -7.074227485919562e-05 0 -3.9819830700334881e-05 -3.8176485475197425e-05 0 -4.220113045485159e-05 -3.9675516082589019e-05 0 -4.2195326011452594e-05 -4.0662575071848991e-05 0 -2.581330053044103e-05 -4.0466691639685359e-05 0 -2.5938218749471002e-05 -4.149477322046701e-05 0 -2.4309203052095741e-05 -3.7964034620141665e-05 0 -6.8921832891836813e-06 1.7063642669005198e-08 0 -7.9717037278504769e-06 -5.9533985767512019e-07 0 -9.024098016289909e-06 -1.2368041942254805e-06 0 -0.00010937569310591813 0.00032074968354945744 0 -0.00011763680216756111 0.00030675340313095526 0 -9.7020860899771965e-05 0.00030799923223711836 0 -0.00010626298171739549 0.00029287997976224493 0 -9.7020860899771965e-05 0.00030799923223711836 0 -0.00011763680216756111 0.00030675340313095526 0 -3.3089270983584809e-05 -0.00013655983754201013 0 -3.658338701568868e-05 -0.00014337185328025084 0 -2.9606178651219165e-05 -0.00014155553081974208 0 -3.2710020380039822e-05 -0.00014733206594209818 0 -2.9606178651219165e-05 -0.00014155553081974208 0 -3.658338701568868e-05 -0.00014337185328025084 0 -1.8542772716449694e-05 0.00031618551212522658 0 -2.8663840165433315e-05 0.00030628914538808564 0 -1.0719497774251211e-05 0.00030230696168103679 0 -6.9709113941312677e-05 -0.0001493385606490256 0 -6.4372930934218276e-05 -0.00014380736519477587 0 -7.3294488563413961e-05 -0.00014327434511807521 0 -1.9892850530189337e-05 0.00029073922128301717 0 -1.0719497774251211e-05 0.00030230696168103679 0 -2.8663840165433315e-05 0.00030628914538808564 0 -6.831670696129105e-05 -0.00013719873654144049 0 -7.3294488563413961e-05 -0.00014327434511807521 0 -6.4372930934218276e-05 -0.00014380736519477587 0 -2.9328137069948756e-05 -2.9902366152695938e-05 0 -3.1527241116032161e-05 -3.2520095890245919e-05 0 -2.938341203874818e-05 -3.2903394528505785e-05 0 -3.4426657892543027e-05 -2.9584012498282801e-05 0 -3.2855488550000019e-05 -2.5788570136128397e-05 0 -3.5259458851143654e-05 -2.8175769970193361e-05 0 -3.4222306251956207e-05 -2.5640732296572124e-05 0 -3.5259458851143654e-05 -2.8175769970193361e-05 0 -3.2855488550000019e-05 -2.5788570136128397e-05 0 -3.1393346565663533e-05 -3.5030573661202981e-05 0 -3.3306507663590083e-05 -3.472835494518505e-05 0 -3.3241375344756079e-05 -3.7096404693044306e-05 0 -3.5446910642559487e-05 -3.54260069791413e-05 0 -3.3241375344756079e-05 -3.7096404693044306e-05 0 -3.3306507663590083e-05 -3.472835494518505e-05 0 -6.5925012086638944e-06 1.4607089629364986e-05 0 -9.0519744497178298e-06 1.0619721045141622e-05 0 -1.0657617526538798e-05 1.1428783162565772e-05 0 -1.532694843748988e-05 9.620092238223762e-06 0 -2.1814757519173255e-05 1.3322729078666419e-05 0 -1.94039512817691e-05 8.1303216833507046e-06 0 -2.660508770078075e-05 1.1682284061526354e-05 0 -1.94039512817691e-05 8.1303216833507046e-06 0 -2.1814757519173255e-05 1.3322729078666419e-05 0 -1.531995846210571e-05 -4.1705408908805348e-06 0 -1.7849365114066522e-05 -6.4309808358676709e-06 0 -1.4271119706882752e-05 -4.1211204232365029e-06 0 -7.6266441300801055e-05 9.1133615614306639e-05 0 -6.2335171271492491e-05 7.5711566012691395e-05 0 -6.2982455571655678e-05 9.2682268956484069e-05 0 -4.870984549884729e-05 7.8424455544743251e-05 0 -6.2982455571655678e-05 9.2682268956484069e-05 0 -6.2335171271492491e-05 7.5711566012691395e-05 0 -8.9589296770967937e-06 8.417276089066547e-06 0 -9.0519744497178298e-06 1.0619721045141622e-05 0 -6.7904673333857943e-06 1.0758722973835581e-05 0 -2.3577620222623919e-05 -2.9299396007716885e-05 0 -2.4950173614306623e-05 -3.3256149644149592e-05 0 -2.2203258888147547e-05 -3.0634553799895643e-05 0 -2.3418337785186844e-05 -3.3816123382321012e-05 0 -2.2203258888147547e-05 -3.0634553799895643e-05 0 -2.4950173614306623e-05 -3.3256149644149592e-05 0 -5.709990286004165e-06 9.3380201771960678e-06 0 -6.7904673333857943e-06 1.0758722973835581e-05 0 -5.77169942442581e-06 1.302792445631795e-05 0 -3.7761023240126118e-05 -3.9835232353831854e-05 0 -4.3611056603696007e-05 -3.8804497170601512e-05 0 -4.4318427664009557e-05 -4.6139574710983671e-05 0 -5.004611350010336e-05 -4.524322597226364e-05 0 -4.4318427664009557e-05 -4.6139574710983671e-05 0 -4.3611056603696007e-05 -3.8804497170601512e-05 0 -6.2757664260842197e-06 5.6827757251438634e-06 0 -8.1888670182967437e-06 6.0508938582319696e-06 0 -6.4548925294183607e-06 7.7043436477989881e-06 0 -5.709990286004165e-06 9.3380201771960678e-06 0 -6.4548925294183607e-06 7.7043436477989881e-06 0 -6.7904673333857943e-06 1.0758722973835581e-05 0 -3.4222306251956207e-05 -2.5640732296572124e-05 0 -3.4489467807465279e-05 -2.4324235993606187e-05 0 -3.640766742601044e-05 -2.8058333189021788e-05 0 -1.1353868054148991e-05 -3.0281947563386409e-06 0 -1.2412532781353051e-05 -4.1843134576362894e-06 0 -1.0436330460070837e-05 -2.3056843357250372e-06 0 -1.1662053696918302e-05 -3.134822443603194e-06 0 -1.0436330460070837e-05 -2.3056843357250372e-06 0 -1.2412532781353051e-05 -4.1843134576362894e-06 0 -1.026049721549303e-05 -2.2181258928070306e-07 0 -9.9950418670860852e-06 -1.2137018072415179e-06 0 -1.1740175275279219e-05 -2.3622338122471158e-06 0 1.3155515865811631e-05 0.00020746863853071535 0 -5.7883922250494621e-06 0.000221708470000928 0 -3.1491548936845458e-06 0.0002029643256920002 0 -7.9554957072578949e-05 -0.00010268103757396454 0 -7.1439710554314204e-05 -0.00010712066997504616 0 -7.1376712828640613e-05 -9.8244216916572408e-05 0 -2.058022647403664e-05 -6.3940242979962315e-06 0 -1.9247777450430027e-05 -6.3147885323815549e-06 0 -1.6710783432309234e-05 -4.5706502273777607e-06 0 -1.1927438939974321e-09 1.9845610030301141e-10 0 -8.9390214031554302e-07 4.041827678712071e-07 0 -7.7144184032872881e-07 3.3377595531155852e-07 0 1.5410348347814288e-05 0.00012500604800558176 0 -9.8955951693921652e-07 0.00013460903340654874 0 -2.4048656938328024e-06 0.00011674331578938241 0 -3.1393346565663533e-05 -3.5030573661202981e-05 0 -2.938341203874818e-05 -3.2903394528505785e-05 0 -3.1527241116032161e-05 -3.2520095890245919e-05 0 -1.704306894411621e-05 4.6310028774428843e-06 0 -1.94039512817691e-05 8.1303216833507046e-06 0 -2.3565031273690427e-05 7.5821470654958757e-06 0 -2.660508770078075e-05 1.1682284061526354e-05 0 -2.3565031273690427e-05 7.5821470654958757e-06 0 -1.94039512817691e-05 8.1303216833507046e-06 0 -3.7240921561910743e-05 -2.7197306842209675e-05 0 -3.640766742601044e-05 -2.8058333189021788e-05 0 -3.4489467807465279e-05 -2.4324235993606187e-05 0 
</DataArray>
</PointData>
<CellData Scalars="region_id,cross_section_updated,displacement_divergence," Vectors="" Tensors="stress,">
<DataArray type="Float64" Name="region_id" format="ascii">
2 2 2 2 2 2 2 2 2 2 3 3 3 3 3 3 3 3 3 3 1 1 1 1 1 1 1 1 1 1 1 1 1 1 1 1 1 1 1 1 1 1 1 1 1 1 1 1 1 1 1 1 1 1 1 1 1 1 1 1 1 1 1 1 1 1 1 1 1 1 1 1 1 1 1 1 1 1 1 1 1 1 1 1 1 1 1 1 1 1 1 1 1 1 1 1 1 1 1 1 1 1 1 1 1 1 1 1 1 1 1 1 1 1 1 1 1 1 1 1 1 1 1 1 1 1 1 1 1 1 1 1 1 1 1 1 1 1 1 1 1 1 1 1 1 1 1 1 1 1 1 1 1 1 1 1 1 1 1 1 1 1 1 1 1 1 1 1 1 1 1 1 1 1 1 1 1 1 1 1 1 1 1 1 1 1 1 1 1 1 1 1 1 1 1 1 1 1 1 1 1 1 1 1 1 1 1 1 1 1 1 1 1 1 1 1 1 1 1 1 1 1 1 1 1 1 1 1 1 1 1 1 1 1 1 1 1 1 1 1 1 1 1 1 1 1 1 1 1 1 1 1 1 1 1 1 1 1 1 1 1 1 1 1 1 1 1 1 1 1 1 1 1 1 1 1 1 1 1 1 1 1 1 1 1 1 1 1 1 1 1 1 1 1 1 1 1 1 1 1 1 1 1 1 1 1 1 1 1 1 1 1 1 1 1 1 1 1 1 1 1 1 1 1 1 1 1 1 1 1 1 1 1 1 1 1 1 1 1 1 1 1 1 1 1 1 1 1 1 1 1 1 1 1 1 1 1 1 1 1 1 1 1 1 1 1 1 1 1 1 1 1 1 1 1 1 1 1 1 1 1 1 1 1 1 1 1 1 1 1 1 1 1 1 1 1 1 1 1 1 1 1 1 1 1 1 1 1 1 1 1 1 1 1 1 1 1 1 1 1 1 1 1 1 1 1 1 1 1 1 1 1 1 1 1 1 1 1 1 1 1 1 1 1 1 1 1 1 1 1 1 1 1 1 1 1 1 1 1 1 1 1 1 1 1 1 1 1 1 1 1 1 1 1 1 1 1 1 1 1 1 1 1 1 1 1 1 1 1 1 1 1 1 1 1 1 1 1 1 1 1 1 1 1 1 1 1 1 1 1 1 1 1 1 1 1 1 1 1 1 1 1 1 1 1 1 1 1 1 1 1 1 1 1 1 1 1 1 1 1 1 1 1 1 1 1 1 1 1 1 1 1 1 1 1 1 1 1 1 1 1 1 1 1 1 1 1 1 1 1 1 1 1 1 1 1 1 1 1 1 1 1 1 1 1 1 1 1 1 1 1 1 1 1 1 1 1 1 1 1 1 1 1 1 1 1 1 1 1 1 1 1 1 1 1 1 1 1 1 1 1 1 1 1 1 1 1 1 1 1 1 1 1 1 1 1 1 1 1 1 1 1 1 1 1 1 1 1 1 1 1 1 1 1 1 1 1 1 1 1 1 1 1 1 1 1 1 1 1 1 1 1 1 1 1 1 1 1 1 1 1 1 1 1 1 1 1 1 1 1 1 1 1 1 1 1 1 1 1 1 1 1 1 1 1 1 1 1 1 1 1 1 1 1 1 1 1 1 1 1 1 1 1 1 1 1 1 1 1 1 1 1 1 1 1 1 1 1 1 1 1 1 1 1 1 1 1 1 1 1 1 1 1 1 1 1 1 1 1 1 1 1 1 1 1 1 1 1 1 1 1 1 1 1 1 1 1 1 1 1 1 1 1 1 1 1 1 1 1 1 1 1 1 1 1 1 1 1 1 1 1 1 1 1 1 1 1 1 1 1 1 1 1 1 1 1 1 1 1 1 1 1 1 1 1 1 1 1 1 1 1 1 1 1 1 1 1 1 1 1 1 1 1 1 1 1 1 1 1 1 1 1 1 1 1 1 1 1 1 1 1 1 1 1 1 1 1 1 1 1 1 1 1 1 1 1 1 1 1 1 1 1 1 1 1 1 1 1 1 1 1 1 1 1 1 1 1 1 1 1 1 1 1 1 1 1 1 1 1 1 1 1 1 1 1 1 1 1 1 1 1 1 1 1 1 1 1 1 1 1 1 1 1 1 1 1 1 1 1 1 1 1 1 1 1 1 1 1 1 1 1 1 1 1 1 1 1 1 1 1 1 1 1 1 1 1 1 1 1 1 1 1 1 1 1 1 1 1 1 1 1 1 1 1 1 1 1 1 1 1 1 1 1 1 1 1 1 1 1 1 1 1 1 1 1 1 1 1 1 1 1 1 1 1 1 1 1 1 1 1 1 1 1 1 1 1 1 1 1 1 1 1 1 1 1 1 1 1 1 1 1 1 1 1 1 1 1 1 1 1 1 1 1 1 
</DataArray>
<DataArray type="Float64" Name="stress" NumberOfComponents="9" format="ascii">
-3.5232527427082048e-05 -5.1071209370574588e-05 0 -5.1071209370574588e-05 -1.1744175809027331e-05 0 0 0 -1.1744175809027331e-05 -4.1616760135179589e-05 -5.8380788282497023e-05 0 -5.8380788282497023e-05 -1.3872253378393196e-05 0 0 0 -1.3872253378393196e-05 -4.7352472169895593e-05 -6.717446552581953e-05 0 -6.717446552581953e-05 -1.578415738996518e-05 0 0 0 -1.578415738996518e-05 -4.3941920259398448e-05 -6.9455345852444941e-05 0 -6.9455345852444941e-05 -1.4647306753132834e-05 0 0 0 -1.4647306753132834e-05 -3.9327934653097239e-05 -6.9299978347429805e-05 0 -6.9299978347429805e-05 -1.3109311551032422e-05 0 0 0 -1.3109311551032422e-05 -3.8036410068077449e-05 -6.8325681057733911e-05 0 -6.8325681057733911e-05 -1.2678803356025789e-05 0 0 0 -1.2678803356025789e-05 -3.9943844685468998e-05 -6.4254534182924591e-05 0 -6.4254534182924591e-05 -1.3314614895156333e-05 0 0 0 -1.3314614895156333e-05 -4.1447854151005145e-05 -6.3332092960835572e-05 0 -6.3332092960835572e-05 -1.3815951383668382e-05 0 0 0 -1.3815951383668382e-05 -2.6895068178321908e-05 -5.1263257342731177e-05 0 -5.1263257342731177e-05 -8.9650227261073388e-06 0 0 0 -8.9650227261073388e-06 -8.4313782841206279e-05 -5.5938009203061767e-05 0 -5.5938009203061767e-05 -2.8104594280402057e-05 0 0 0 -2.8104594280402057e-05 9.4509117818515577e-05 0.00010509432873302121 0 0.00010509432873302121 3.1503039272838528e-05 0 0 0 3.1503039272838528e-05 -2.274381752915453e-05 5.1845367649807532e-05 0 5.1845367649807532e-05 -7.5812725097181745e-06 0 0 0 -7.5812725097181745e-06 -2.9162773322180966e-05 9.9110518668047223e-05 0 9.9110518668047223e-05 -9.7209244407269865e-06 0 0 0 -9.7209244407269865e-06 -3.8169040896681969e-05 8.733032539249739e-05 0 8.733032539249739e-05 -1.2723013632227324e-05 0 0 0 -1.2723013632227324e-05 -4.5804078418470316e-05 9.6687061081591639e-05 0 9.6687061081591639e-05 -1.5268026139490105e-05 0 0 0 -1.5268026139490105e-05 -5.3383504230534429e-05 9.7660535046550749e-05 0 9.7660535046550749e-05 -1.7794501410178144e-05 0 0 0 -1.7794501410178144e-05 -5.6851290929697991e-05 8.8045821543479325e-05 0 8.8045821543479325e-05 -1.8950430309899333e-05 0 0 0 -1.8950430309899333e-05 -9.0422648480273856e-05 0.00010438524014894383 0 0.00010438524014894383 -3.0140882826757945e-05 0 0 0 -3.0140882826757945e-05 2.2761736585185581e-05 7.0317099209889623e-05 0 7.0317099209889623e-05 7.5872455283951891e-06 0 0 0 7.5872455283951891e-06 -0.00042872056295706557 0.00010239613372212738 0 0.00010239613372212738 -0.00014290685431902187 0 0 0 -0.00014290685431902187 -0.0453291286035757 -0.013205226089788871 0 -0.013205226089788871 0.02231557355463884 0 0 0 -0.0057533887622342045 -0.041090544629410225 -0.01356430944431738 0 -0.01356430944431738 0.039225513562521575 0 0 0 -0.00046625776672215569 -0.061315112598864102 -0.0093691025771655001 0 -0.0093691025771655001 0.033900172056851086 0 0 0 -0.0068537351355032472 -0.062603683506541746 -3.0551931334610316e-05 0 -3.0551931334610316e-05 0.035353091780761313 0 0 0 -0.0068126479314450997 -0.13624777768986635 -0.0047741666588191449 0 -0.0047741666588191449 0.0018472164277163056 0 0 0 -0.03360014031553752 -0.097467447158864171 0.00030299441677899587 0 0.00030299441677899587 -7.1447654974824033e-06 0 0 0 -0.024368647981090417 -0.14342262949034204 -0.0022574344512440517 0 -0.0022574344512440517 -0.0012470610199397025 0 0 0 -0.036167422627570445 -0.10080810256225964 -0.00069171180376180366 0 -0.00069171180376180366 -0.0007736210529099008 0 0 0 -0.025395430903792378 -0.11810520533485688 0.0033320200319150728 0 0.0033320200319150728 -0.00042374884962254056 0 0 0 -0.029632238546119863 -0.20309040517119539 -0.0096612981250887853 0 -0.0096612981250887853 -0.00053751805008470099 0 0 0 -0.050906980805320072 -0.018795914723450283 0.0032874143862103083 0 0.0032874143862103083 -0.014618265857185828 0 0 0 -0.0083535451451590276 -0.022796143416707632 0.0041160460618573742 0 0.0041160460618573742 -0.010954999973227492 0 0 0 -0.0084377858474837791 -0.048248340047735212 0.0028773782299612704 0 0.0028773782299612704 -0.0077092673986280669 0 0 0 -0.013989401861590811 -0.047853371490361396 -0.0068065895288700658 0 -0.0068065895288700658 -0.01595498183136709 0 0 0 -0.015952088330432122 -0.048918088744047607 0.0042205674071414045 0 0.0042205674071414045 -0.016306136536998216 0 0 0 -0.016306056320261456 -0.059253100608216244 -0.016111963882745314 0 -0.016111963882745314 0.022492633614235785 0 0 0 -0.0091901167484951113 0.13335735876949606 0.10393664142557828 0 0.10393664142557828 0.21309824472267935 0 0 0 0.086613900873043881 -0.0014962400319451508 -0.011380637874718103 0 -0.011380637874718103 -0.0033576606278740151 0 0 0 -0.0012134751649546249 -0.00054008738635547004 0.0059416118128203799 0 0.0059416118128203799 0.0044966019018728431 0 0 0 0.00098912862887923225 -0.00027136332012966946 0.014062478166599291 0 0.014062478166599291 0.0053027741003681683 0 0 0 0.0012578526950592916 -0.00012475615384022198 -0.0053834655410079247 0 -0.0053834655410079247 0.00075679100615877459 0 0 0 0.00015800871307969366 -0.011348572178904393 0.021861075591622203 0 0.021861075591622203 -0.00070726170125645638 0 0 0 -0.0030139584700403788 -0.010001233619982453 -0.023553728062340795 0 -0.023553728062340795 -0.0027664537381504317 0 0 0 -0.0031919218395333737 -0.043832375247239236 0.0053610825326212645 0 0.0053610825326212645 -0.0084639675502597416 0 0 0 -0.013074085699374745 0.14541176453591742 -0.0057522033804169731 0 -0.0057522033804169731 0.13131594996846857 0 0 0 0.069181928626096484 -0.22287105123607479 0.014170306773327146 0 0.014170306773327146 0.0068641202572998772 0 0 0 -0.05400173274469372 -0.12231118286692257 -0.0055092696090775989 0 -0.0055092696090775989 0.002690896071849247 0 0 0 -0.029905071698768326 -0.095202142314822963 -0.020192523779604992 0 -0.020192523779604992 0.016324531622998351 0 0 0 -0.019719402672956188 -0.10706595153597148 0.023952143159746607 0 0.023952143159746607 0.062121283524609661 0 0 0 -0.011236167002840414 -0.11806767949494607 -0.019551905640442249 0 -0.019551905640442249 0.010285497982210651 0 0 0 -0.026945545378183847 -0.051117253284831056 -0.020237635245575491 0 -0.020237635245575491 0.046941869799698124 0 0 0 -0.0010438458712832208 -0.027618340333271874 -0.032176463719316817 0 -0.032176463719316817 0.002541567680985013 0 0 0 -0.0062691931630716735 -0.031308091897074064 0.041926152249431192 0 0.041926152249431192 -0.00056177983527438968 0 0 0 -0.0079674679330870024 -0.029131578180548345 -0.033017664224473497 0 -0.033017664224473497 0.0064994742645665404 0 0 0 -0.0056580259789954512 -0.03956806478095376 0.044511410601138168 0 0.044511410601138168 -0.0032496815544336144 0 0 0 -0.010704436583846899 -0.089275905224276586 -0.027014520716215434 0 -0.027014520716215434 0.0041374955657487167 0 0 0 -0.021284602414631988 -0.029790563826870103 -0.041613208646996101 0 -0.041613208646996101 0.063016604244771263 0 0 0 0.0083065101044752995 -0.12331472451301939 0.013108307833010813 0 0.013108307833010813 0.016054649953692213 0 0 0 -0.026815018639831878 0.25266815307047691 0.12014987394896924 0 0.12014987394896924 0.070910795607580068 0 0 0 0.08089473716951423 -0.0022859496211634078 0.0079226721624549024 0 0.0079226721624549024 0.011399865098429607 0 0 0 0.0022784788693165359 -0.0048740627821856619 -0.008683564893782289 0 -0.008683564893782289 0.042318095115572385 0 0 0 0.0093610080833466669 -0.044825529294214593 -0.020664144520439957 0 -0.020664144520439957 0.077692577550813643 0 0 0 0.0082167620641497713 -0.0033680091932002387 -0.021601358768523204 0 -0.021601358768523204 0.062367727006883644 0 0 0 0.014749929453420574 -0.0073262059084115982 0.0038207689903266839 0 0.0038207689903266839 -0.002808520317628016 0 0 0 -0.0025336815565100146 -0.034646234616593462 -0.0055734174238344656 0 -0.0055734174238344656 -0.017593926083885596 0 0 0 -0.013060040175119768 -0.038264473969741648 0.006616294835401498 0 0.006616294835401498 -0.012784039915047122 0 0 0 -0.01276212847119719 -0.070540945662685733 0.065241455200845233 0 0.065241455200845233 0.063756364264889981 0 0 0 -0.0016961453494489243 -0.064313413813972486 0.058222307297218945 0 0.058222307297218945 0.044254252785397186 0 0 0 -0.0050147902571439085 0.11521202033172165 0.14372542376689268 0 0.14372542376689268 0.24488375569271037 0 0 0 0.090023944006107998 -0.01170253936485581 0.0078969985435417556 0 0.0078969985435417556 0.00064096226804907785 0 0 0 -0.0027653942742012355 -0.019066329678048319 -0.022758753432317036 0 -0.022758753432317036 0.051877463868501159 0 0 0 0.0082027835476132932 -0.024306694330791023 -0.011456992086925161 0 -0.011456992086925161 -0.019364438576688459 0 0 0 -0.010917783226869815 -0.0474947265801475 -0.019061319041480368 0 -0.019061319041480368 0.058926455990336933 0 0 0 0.0028579323525473495 -0.037800471339368286 -0.02577015563726498 0 -0.02577015563726498 0.0035476764125730864 0 0 0 -0.0085631987316988206 -0.027652415658876633 -0.0063247910479398289 0 -0.0063247910479398289 0.01489527807974278 0 0 0 -0.0031892843947834704 -0.11067000904920821 0.018616516051069398 0 0.018616516051069398 -0.00079957144901365851 0 0 0 -0.027867395124555494 -0.0092185035713451269 -0.0055370966524559417 0 -0.0055370966524559417 0.00029960023972464001 0 0 0 -0.0022297258329052605 -0.0126325744272624 0.024614646657580064 0 0.024614646657580064 0.098564358385979212 0 0 0 0.021482945989678814 -0.019888618159156428 -0.019232166355160007 0 -0.019232166355160007 0.075466551513275554 0 0 0 0.013894483338529946 0.00079778101353067399 0.0010286300218702278 0 0.0010286300218702278 -0.0011281169891965703 0 0 0 -8.258399391669613e-05 -0.025123118001367295 0.0016467958990127596 0 0.0016467958990127596 -0.004894869404753921 0 0 0 -0.0075044968515302068 0.0080267369863348155 -0.060382585894567631 0 -0.060382585894567631 0.099001207591487395 0 0 0 0.026756986144455531 -0.022380354342539321 -0.00010223683008167561 0 -0.00010223683008167561 -0.0035225962061814498 0 0 0 -0.0064757376371802344 -0.030959300953137481 -0.0095836115085042098 0 -0.0095836115085042098 0.00075347570646433493 0 0 0 -0.0075514563116682587 -0.042372364459445366 -0.03475392361570296 0 -0.03475392361570296 0.0091810387471782384 0 0 0 -0.0082978314280667265 -0.092577642997802079 -0.0063297649141435949 0 -0.0063297649141435949 -0.015228991185680536 0 0 0 -0.026951658545870658 -0.12675243447921786 0.001802056414145368 0 0.001802056414145368 -0.019982011236467378 0 0 0 -0.036683611428921313 0.0024574328739333786 0.0042645089541615278 0 0.0042645089541615278 -0.0011264687960831099 0 0 0 0.00033274101946265052 0.0041867217250974309 -0.00560354801568691 0 -0.00560354801568691 0.029353279435633706 0 0 0 0.0083850002901828535 -0.092322683343914719 -0.008454588635314602 0 -0.008454588635314602 -0.023002228159441071 0 0 0 -0.028831227875838941 -0.07271089034980685 0.00099730125123061197 0 0.00099730125123061197 -0.017123560410127012 0 0 0 -0.022458612689983466 -0.027002494586788182 0.00024764928935911947 0 0.00024764928935911947 -0.016849903658589741 0 0 0 -0.010963099561344489 -0.098031195288819928 0.0030707117642022122 0 0.0030707117642022122 -6.7603500991274788e-05 0 0 0 -0.024524699697452801 -0.13955358662442519 -0.0094587000398991573 0 -0.0094587000398991573 0.001363199597499358 0 0 0 -0.034547596756731441 -0.032502766576942482 -0.018706537981244442 0 -0.018706537981244442 -0.0086274890925234216 0 0 0 -0.010282563917366483 -0.034911058767566658 -0.023809260840644955 0 -0.023809260840644955 0.0040407001449201951 0 0 0 -0.0077175896556615636 0.0043785361067703032 0.023137461797634984 0 0.023137461797634984 0.11855776268912543 0 0 0 0.030734074698974156 -0.0062734950405980427 -0.0031114502441618175 0 -0.0031114502441618175 -0.0022505743833445835 0 0 0 -0.0021310173559855317 -0.033747211182792808 -0.019841997325065669 0 -0.019841997325065669 -0.010017644612061116 0 0 0 -0.010941213948713474 -0.026901889821282728 -0.011609779712896146 0 -0.011609779712896146 -0.0060924786784410379 0 0 0 -0.0082485921249309327 -0.060847494431173432 0.057596217081360757 0 0.057596217081360757 -0.0016953326889428411 0 0 0 -0.015635706780029235 -0.11014926158776971 -0.00072484350137697984 0 -0.00072484350137697984 -0.036736700304237042 0 0 0 -0.036721490473001682 -0.082515078712883785 -0.0040989418488329215 0 -0.0040989418488329215 -0.027519687729708347 0 0 0 -0.02750869161064803 -0.034445302611344229 -0.0054913997161285212 0 -0.0054913997161285212 -0.019008846079956659 0 0 0 -0.013363537172825218 -0.011486027726584025 0.029333910402066898 0 0.029333910402066898 0.0023930431167760169 0 0 0 -0.0022732461524521685 -0.010591121531758674 -0.017424893710763167 0 -0.017424893710763167 -0.0016682778735157555 0 0 0 -0.0030648498513187183 -0.032117412993217589 -0.032750504869886898 0 -0.032750504869886898 0.0067626975889170798 0 0 0 -0.0063386788510751031 -0.023443820481516275 0.003751331216001891 0 0.003751331216001891 -0.012966676645519317 0 0 0 -0.0091026242817588959 -0.068346609323478844 -0.01559858921446737 0 -0.01559858921446737 -0.0080946267586489082 0 0 0 -0.01911030902053194 -0.033557274699954842 -0.011196816634327285 0 -0.011196816634327285 -0.0027905316403009639 0 0 0 -0.0090869515850639515 -0.020456068599124719 0.0056311511874640521 0 0.0056311511874640521 -0.011492638365795916 0 0 0 -0.0079871767412301575 -0.024631094056982532 0.0055616591266838995 0 0.0055616591266838995 -0.009977826518212659 0 0 0 -0.0086522301437987979 -0.026676140769343003 0.0043969064465041703 0 0.0043969064465041703 -0.011715931512260719 0 0 0 -0.009598018070400928 -0.027941155953847913 -0.0020097857969606503 0 -0.0020097857969606503 0.01136584794003509 0 0 0 -0.0041438270034530877 -0.031411347529116888 -0.032050903665465549 0 -0.032050903665465549 0.024230191194198114 0 0 0 -0.0017952890837297231 -0.023468647287468836 -0.011248948609358322 0 -0.011248948609358322 -0.0049030638698845941 0 0 0 -0.007092927789338288 -0.046954094346026307 -0.022435357178813738 0 -0.022435357178813738 0.07667103543001702 0 0 0 0.0074292352709976923 -0.017317763579141054 0.020444582942241496 0 0.020444582942241496 0.13758096846566836 0 0 0 0.03006580122163216 0.00016251080373685944 -0.00088000023770717895 0 -0.00088000023770717895 -0.00078693041988353585 0 0 0 -0.00015610490403683563 -0.0070758338188561254 -0.005474948271451209 0 -0.005474948271451209 -0.0032019669128078299 0 0 0 -0.0025694501829158778 -0.011686774116563381 0.016080470649082024 0 0.016080470649082024 0.13945582290626746 0 0 0 0.031942262197425908 -0.030590203067401803 0.02053183659045809 0 0.02053183659045809 0.10605655496827826 0 0 0 0.018866587975219104 -0.03450266703025727 0.005166124694154609 0 0.005166124694154609 -0.0075085312101355814 0 0 0 -0.010502799560098214 -0.038693859537228183 0.0043825951077061014 0 0.0043825951077061014 -0.008897841513171325 0 0 0 -0.011897925262599881 0.0054571412265438379 0.034305852765227851 0 0.034305852765227851 0.03732850414270672 0 0 0 0.010696411342312695 -0.01948800042684673 0.038336942984555922 0 0.038336942984555922 0.02901592148062937 0 0 0 0.0023819802634459375 -0.040125825252257136 -0.032661106176719676 0 -0.032661106176719676 0.023775033462075851 0 0 0 -0.0040876979475452935 0.00044436018812687994 -0.0088360271151122771 0 -0.0088360271151122771 -0.012434626640118407 0 0 0 -0.0029975666129978817 -0.00046959944086066852 0.0065109262193758996 0 0.0065109262193758996 -0.021427158637975507 0 0 0 -0.0054741895197090717 -0.047409478401997482 0.009563272262105689 0 0.009563272262105689 0.068823776403256265 0 0 0 0.0053535745003147096 -0.0086829460464104002 0.0075780285134605186 0 0.0075780285134605186 -0.0046691258142042003 0 0 0 -0.0033380179651536501 -0.017896554017899469 -0.017124472754538211 0 -0.017124472754538211 0.076005860209500842 0 0 0 0.014527326547900454 -0.1076756262894227 0.0028551944979355245 0 0.0028551944979355245 0.0008039423081128011 0 0 0 -0.026717920995327462 -0.17490119661577314 -0.0086182171278665343 0 -0.0086182171278665343 0.0012482443925385944 0 0 0 -0.043413238055808635 -0.017834864649267049 -0.030057585487303667 0 -0.030057585487303667 0.0069778582705049552 0 0 0 -0.0027142515946904783 0.10188198738789986 -0.058655568256090806 0 -0.058655568256090806 0.047173405291459414 0 0 0 0.037263848169839825 -0.026551514731297826 -0.019106608799372496 0 -0.019106608799372496 -0.0049813879762046209 0 0 0 -0.0078832256768756326 -0.027512231647020151 -0.02476286385722247 0 -0.02476286385722247 -0.0010918442691635888 0 0 0 -0.0071510189790459019 0.00015132844951085909 -0.0076566032504838955 0 -0.0076566032504838955 0.010013673601052092 0 0 0 0.0025412505126409047 -0.0020992390870735456 0.0063390755947496658 0 0.0063390755947496658 0.0076954933677217952 0 0 0 0.0013990635701621734 0.00022421339702782817 0.0091421258025570218 0 0.0091421258025570218 0.024721189960694723 0 0 0 0.0062363508394307487 -0.0019349285397348823 -0.0052628813522608286 0 -0.0052628813522608286 0.0021237489067170356 0 0 0 4.7205091745593808e-05 -0.064937175030258421 0.032855417114440122 0 0.032855417114440122 0.08523305779821555 0 0 0 0.0050739706919892824 -0.037352711414741918 -0.016593054895919501 0 -0.016593054895919501 -0.00062864282885666256 0 0 0 -0.0094953385608996521 -0.031007018709806038 -0.014938478661153304 0 -0.014938478661153304 -0.0057765034025247936 0 0 0 -0.0091958805280827009 -0.029177316668638154 -0.014673018375569974 0 -0.014673018375569974 -0.0078807327016329164 0 0 0 -0.0092645123425677805 -0.013909684919631626 -0.033318205383005353 0 -0.033318205383005353 0.014752238560675313 0 0 0 0.00021063841026092156 -0.1601930387251202 0.021593482019958143 0 0.021593482019958143 0.0029461615677623954 0 0 0 -0.039311719289339242 -0.065674999172728912 -0.0012716675387891424 0 -0.0012716675387891424 0.020672540906274683 0 0 0 -0.01125061456661354 -0.054618802602477673 -0.0090558528259169699 0 -0.0090558528259169699 0.018813879336333439 0 0 0 -0.0089512308165360377 -0.019287673962939095 0.0048676410704002748 0 0.0048676410704002748 -0.021013894287460699 0 0 0 -0.010075392062600025 -0.11759211504763878 0.039408674296235957 0 0.039408674296235957 -0.0019651971232068632 0 0 0 -0.029889328042711383 -0.094877081484527115 0.0058406567824761668 0 0.0058406567824761668 0.0046847188158756214 0 0 0 -0.022548090667162846 -0.095162921028082548 -0.0027625944490768523 0 -0.0027625944490768523 0.0055615146619266143 0 0 0 -0.022400351591538942 -0.15756588199272747 0.00018511709563368006 0 0.00018511709563368006 0.01244101006023357 0 0 0 -0.036281217983123448 -0.15215796116831751 -0.020052129649273914 0 -0.020052129649273914 0.01281256562741051 0 0 0 -0.03483634888522677 -0.032611132071542759 -0.011807393146651385 0 -0.011807393146651385 -0.005124135782633904 0 0 0 -0.0094338169635441171 -0.09494909977512106 -0.0094171456467634362 0 -0.0094171456467634362 0.0017880957130688158 0 0 0 -0.023290251015512908 0.019676320609309017 0.069465311876738545 0 0.069465311876738545 0.024877571554442035 0 0 0 0.011138473040937735 -0.051657521228990803 -0.015372990903408282 0 -0.015372990903408282 0.053788504011469403 0 0 0 0.00053274569561965156 -0.020976825342513192 0.016431103565063419 0 0.016431103565063419 0.021057332616087707 0 0 0 2.0126818393616415e-05 -0.034045152497095055 0.03083246172912224 0 0.03083246172912224 -0.0060004229453467506 0 0 0 -0.01001139386061034 -0.026777479247879321 -0.031363752205221584 0 -0.031363752205221584 0.015953979403917629 0 0 0 -0.0027058749609905064 -0.030507088746243638 -0.030689809766962381 0 -0.030689809766962381 0.027011112540903218 0 0 0 -0.0008739940513350907 -0.0066076836360630664 0.0062480961591800804 0 0.0062480961591800804 -0.017260847455168316 0 0 0 -0.0059671327728078594 -0.030644954881255959 -0.015035341959512449 0 -0.015035341959512449 -0.012077625347654608 0 0 0 -0.010680645057227628 -0.044173896192150133 -0.0096087649252520405 0 -0.0096087649252520405 -0.020066155004896759 0 0 0 -0.016060012799261721 -0.044808636066242191 0.006887285845000226 0 0.006887285845000226 -0.013656010153074194 0 0 0 -0.014616161554829098 -0.029244053348063147 -0.03581188376325839 0 -0.03581188376325839 0.016897999080405665 0 0 0 -0.0030865135669143826 -0.070545685421958326 -0.024043086119465984 0 -0.024043086119465984 -0.0052931432344454354 0 0 0 -0.018959707164100933 -0.090663459305317717 -0.0072266709602525157 0 -0.0072266709602525157 0.025936025736237101 0 0 0 -0.016181858392270154 -0.026477167830264332 -0.0016186083061048412 0 -0.0016186083061048412 -0.018524354180548659 0 0 0 -0.011250380502703251 -0.024585437524124031 0.0008094933516765337 0 0.0008094933516765337 -0.014738689692197887 0 0 0 -0.0098310318040804798 -0.033087944632098451 0.0043833662956332814 0 0.0043833662956332814 -0.0109659618866953 0 0 0 -0.011013476629698437 -0.03339329866080637 0.0053927383542964656 0 0.0053927383542964656 -0.011504623027383767 0 0 0 -0.011224480422047531 -0.077943171492121391 -0.01840057190263969 0 -0.01840057190263969 0.026385670408896306 0 0 0 -0.012889375270806275 -0.030648982259464868 0.01351144756848935 0 0.01351144756848935 0.019084608985770996 0 0 0 -0.002891093318423469 -0.021671516907236742 -0.0022261465799154295 0 -0.0022261465799154295 -0.014421541741933644 0 0 0 -0.0090232646622926023 -0.046904763118066725 -0.021382790238376456 0 -0.021382790238376456 -0.006223195043314006 0 0 0 -0.013281989540345193 -0.033912750500575038 0.016205890897678345 0 0.016205890897678345 0.056321901347445857 0 0 0 0.0056022877117177048 -0.046380370447328664 -0.00038507365559961593 0 -0.00038507365559961593 0.0020227524276590705 0 0 0 -0.011089404504917393 -0.044293064069569163 0.00085447716551219528 0 0.00085447716551219528 0.0069584428756619132 0 0 0 -0.0093336552984768159 -0.11013329902006003 -0.00073815647002252666 0 -0.00073815647002252666 -0.036685276963036348 0 0 0 -0.036704643995774097 -0.082504316301394778 -0.0040889543372764573 0 -0.0040889543372764573 -0.027484757917063517 0 0 0 -0.027497268554614571 0.090021754193286632 0.037792251837908575 0 0.037792251837908575 0.040310136226639079 0 0 0 0.032582972604981456 -0.035068291597641618 0.003791186602833823 0 0.003791186602833823 0.00023332465075088724 0 0 0 -0.0087087417367226871 -0.059681308322134363 -0.011107395631670607 0 -0.011107395631670607 0.063478457479908046 0 0 0 0.00094928728944343455 -0.014541575088095698 0.0011721898884640702 0 0.0011721898884640702 -0.03133167759047728 0 0 0 -0.011468313169643224 -0.10222897479696313 0.0042600643739964666 0 0.0042600643739964666 0.0012079861443176215 0 0 0 -0.025255247163161396 -0.1617046343432518 -0.010191993911954439 0 -0.010191993911954439 0.0014629899095034288 0 0 0 -0.040060411108437138 -0.031462295066489371 -0.012447177197533299 0 -0.012447177197533299 -0.016724132590260107 0 0 0 -0.012046606914187324 -0.092356157535972122 0.0080047817928282777 0 0.0080047817928282777 0.00051159218313592586 0 0 0 -0.022961141338209042 -0.11642676629592083 -0.029180904234711383 0 -0.029180904234711383 -0.00046615888595388788 0 0 0 -0.029223231295468707 -0.094090455212873153 0.0046781445812362835 0 0.0046781445812362835 -0.00010547745359523741 0 0 0 -0.023548983166617111 -0.05866035061950655 0.0035374058766316913 0 0.0035374058766316913 -0.0041187996137895429 0 0 0 -0.015694787558324017 -0.052461442950916148 -0.012112159298341531 0 -0.012112159298341531 -0.011270356060298119 0 0 0 -0.015932949752803582 -0.083752528433446743 -0.022365858198918342 0 -0.022365858198918342 0.010558870808849152 0 0 0 -0.018298414406149377 -0.037706787171689737 -0.012097997407807703 0 -0.012097997407807703 -0.003044712144069428 0 0 0 -0.010187874828939736 -0.021316881753317585 0.038883355789560148 0 0.038883355789560148 0.032453970954785305 0 0 0 0.0027842723003668191 -0.026941987431191139 -0.020441707071141457 0 -0.020441707071141457 -0.0063315455451546931 0 0 0 -0.0083183832440865135 -0.029287537708206572 -0.0015098341488500437 0 -0.0015098341488500437 -0.015185411195575571 0 0 0 -0.011118237225945536 -0.037977785526507782 0.0039233073025303628 0 0.0039233073025303628 -0.012176136318005425 0 0 0 -0.012538480461128303 -0.056221411341148129 -0.012132845502266065 0 -0.012132845502266065 -0.02177749034657394 0 0 0 -0.019499725421930521 -0.052241178283263967 0.0065357109391896446 0 0.0065357109391896446 -0.01504546076692697 0 0 0 -0.016821659762547733 -0.054451258662229385 -0.011688264651984401 0 -0.011688264651984401 0.011704705660389836 0 0 0 -0.010686638250459901 -0.054559982434883983 -0.020645562436390638 0 -0.020645562436390638 0.015131898457999865 0 0 0 -0.0098570209942210468 -0.056005288511186579 0.065530048696071388 0 0.065530048696071388 0.013197740928343471 0 0 0 -0.010701886895710833 -0.0084398929827953495 0.086153940635088716 0 0.086153940635088716 0.046358355463061773 0 0 0 0.009479615620066606 0.043459111639698109 0.0015282094010433539 0 0.0015282094010433539 0.054635901152889466 0 0 0 0.024523753198146883 -0.06365478998898097 -0.0074665931033559702 0 -0.0074665931033559702 0.049738189336455713 0 0 0 -0.0034791501631313212 -0.022866949015567541 0.0040359501163244726 0 0.0040359501163244726 -0.012519378213326339 0 0 0 -0.0088465818072234696 -0.037420684026366863 -0.017668540949755077 0 -0.017668540949755077 -0.0065031011482921119 0 0 0 -0.010980946293664751 -0.055303253267915631 0.049484396663327712 0 0.049484396663327712 0.00049087494020394473 0 0 0 -0.013703094581927755 -0.01944764267860033 -0.0042650991175871289 0 -0.0042650991175871289 0.038350984666941645 0 0 0 0.0047258354970852734 -0.020952210861096596 -0.0097789777059497651 0 -0.0097789777059497651 -0.016623970316239356 0 0 0 -0.0093940452943340608 -0.042571530371140046 0.0034636791044082181 0 0.0034636791044082181 -0.0062885097410867816 0 0 0 -0.012215010028056701 -0.086579203363828849 0.018466940561535916 0 0.018466940561535916 0.048385797468363689 0 0 0 -0.00954835147386629 -0.10277068842564402 0.0013306129522750326 0 0.0013306129522750326 -0.0019223931872102695 0 0 0 -0.026173270403213579 -0.15397008583982136 -0.0042447978211006664 0 -0.0042447978211006664 -0.0039188279732245979 0 0 0 -0.039472228453261489 -0.029348602604191601 -0.017685929280197125 0 -0.017685929280197125 -0.0028476668244759029 0 0 0 -0.0080490673571668864 -0.063082261593048958 0.0024020098992191589 0 0.0024020098992191589 -0.011529596567257452 0 0 0 -0.018652964540076606 -0.069149141334860692 -0.0082474881636533347 0 -0.0082474881636533347 -0.019872357438668071 0 0 0 -0.022255374693382193 -0.1885350032275187 0.0039905325296105687 0 0.0039905325296105687 0.0040122451920147073 0 0 0 -0.046130689508875999 -0.10778154607268144 -0.0017565137820622911 0 -0.0017565137820622911 0.0011104604007831087 0 0 0 -0.026667771417974565 0.0020259737098370506 0.02758454436177965 0 0.02758454436177965 0.12056171760772161 0 0 0 0.030646922829389703 0.068117778640603255 0.001186606469223056 0 0.001186606469223056 0.29675169496358839 0 0 0 0.091217368401047938 -0.034443956032579562 -0.038342554524190609 0 -0.038342554524190609 0.021528895990496455 0 0 0 -0.0032287650105207871 -0.048194367829721946 -0.03328311732348227 0 -0.03328311732348227 0.014421666895767404 0 0 0 -0.0084431752334886145 -0.030030701499802949 -0.037790928960008338 0 -0.037790928960008338 0.051542809834545428 0 0 0 0.0053780270836856162 -0.0029196198161827447 0.0021302586789779809 0 0.0021302586789779809 -0.028097576117354084 0 0 0 -0.0077542989833841725 -0.026780197559560095 0.00013057340519536363 0 0.00013057340519536363 -0.016045938118322889 0 0 0 -0.010706533919470747 -0.072766517251280083 -0.0068435141012316292 0 -0.0068435141012316292 0.012054247800423301 0 0 0 -0.015178067362714209 0.00094315454845878 -0.0025985542533499828 0 -0.0025985542533499828 -0.01859576016850184 0 0 0 -0.0044131514050107512 -0.16139111246910753 0.022108300384237722 0 0.022108300384237722 -0.00055731244896946308 0 0 0 -0.040487106229519218 -0.03042963468876092 0.030383456384861507 0 0.030383456384861507 -0.0064479841757032474 0 0 0 -0.009219404716116264 -0.022163017851138056 -0.030878526840367737 0 -0.030878526840367737 0.012613034987703831 0 0 0 -0.0023874957158585008 -0.035323574776158044 0.0036071763922885065 0 0.0036071763922885065 0.015511674086329858 0 0 0 -0.0049529751724570496 -0.062163242326138235 -0.017092311524164183 0 -0.017092311524164183 0.014285117123080004 0 0 0 -0.01196953130076453 -0.021449650837058798 0.0097625243496226553 0 0.0097625243496226553 -0.0011512181448186803 0 0 0 -0.0056502172454693661 -0.017444161975834885 0.013991436352832395 0 0.013991436352832395 0.0073871233241409179 0 0 0 -0.0025142596629234917 -0.086844134789040073 -0.021039675165282996 0 -0.021039675165282996 -0.0026092875465800053 0 0 0 -0.022363355583904981 -0.043497347200184777 -0.032031617713123406 0 -0.032031617713123406 0.0042045905535466055 0 0 0 -0.0098231891616594735 -0.12859600381987171 -0.016938840092266663 0 -0.016938840092266663 -0.0071205535792315854 0 0 0 -0.033929139349775782 -0.033454001930528943 0.050889743529813458 0 0.050889743529813458 0.0040376824174646053 0 0 0 -0.0073540798782660843 -0.036151944005144515 0.052206852050891817 0 0.052206852050891817 0.0029294807342429285 0 0 0 -0.0083056158177254591 -0.038209372542910458 0.054112660310118077 0 0.054112660310118077 -0.00017208664402534879 0 0 0 -0.0095953647967341738 -0.034347913413265485 -0.032291852674495025 0 -0.032291852674495025 0.003903103038916278 0 0 0 -0.007611202593587163 -0.040943235400650244 -0.030943436891389453 0 -0.030943436891389453 0.0016390042751873099 0 0 0 -0.0098260577813657872 0.046498208518238826 0.03936015072488161 0 0.03936015072488161 0.065696856789833613 0 0 0 0.02804876632701811 -0.027883291100695862 -0.0018700694004921445 0 -0.0018700694004921445 -0.0093012141909533975 0 0 0 -0.0092961263229123167 -0.034289572107850837 0.0047225748674005171 0 0.0047225748674005171 -0.0114314807969631 0 0 0 -0.011430263226203486 -0.033497394136922487 0.0051575014160195956 0 0.0051575014160195956 0.002388762850913142 0 0 0 -0.0077771578215023434 -0.0092413842130545099 -0.017412421782058721 0 -0.017412421782058721 0.086299798778245507 0 0 0 0.019264603641297756 -0.10329647008596946 -0.0264324735831486 0 -0.0264324735831486 -0.0034343053955416258 0 0 0 -0.026682693870377784 -0.026302849737644803 0.0028369010848392712 0 0.0028369010848392712 -0.012402953868837496 0 0 0 -0.0096764509016205747 -0.15453028345693653 -0.0065114236140589934 0 -0.0065114236140589934 -0.0040644485485700557 0 0 0 -0.03964868300137659 -0.10130773385607847 0.002174714961342198 0 0.002174714961342198 -0.0012958857572210949 0 0 0 -0.025650904903324907 -0.095792461315350852 -0.0099176123816558381 0 -0.0099176123816558381 0.00035414922849974495 0 0 0 -0.023859578021712791 -0.029428732600728987 0.0050887041440620248 0 0.0050887041440620248 -0.0096457446434885432 0 0 0 -0.0097686193110543829 -0.027560579234904209 -0.005178027501790583 0 -0.005178027501790583 0.017704787758032858 0 0 0 -0.002463947869217803 -0.042145954689477794 0.010956817602077264 0 0.010956817602077264 0.038439895277859126 0 0 0 -0.00092651485290466684 -0.0075533347417008831 0.057117226325821169 0 0.057117226325821169 0.0096547458818463106 0 0 0 0.00052535278503646615 -0.021425297701345266 0.0039668951894996267 0 0.0039668951894996267 -0.014034459577050516 0 0 0 -0.0088649393195989468 -0.023013446812547134 0.028491504463135864 0 0.028491504463135864 -0.010376200160558291 0 0 0 -0.0083474117432764672 -0.019361818221192539 -0.028851702871490303 0 -0.028851702871490303 0.0016197851632075988 0 0 0 -0.0044355082644962351 -0.029525058103788106 0.0051515027311559575 0 0.0051515027311559575 -0.010030716780821593 0 0 0 -0.009888943721152425 -0.054598259887535326 0.0026460546688082073 0 0.0026460546688082073 0.05005533231310854 0 0 0 -0.001135731893606693 -0.0095904193276461491 0.023544888341278603 0 0.023544888341278603 0.013285897360151289 0 0 0 0.00092386950812617386 -0.006475345675527544 0.017512261571071441 0 0.017512261571071441 -0.0088090740539339407 0 0 0 -0.0038211049323655377 -0.005608706136874142 -0.013707937922319446 0 -0.013707937922319446 -0.0090370037117262214 0 0 0 -0.0036614274621500353 -0.007826290758748744 -0.019748821168076303 0 -0.019748821168076303 0.0041091090537506147 0 0 0 -0.00092929542624964334 -0.11620370236337166 0.00021081455304902685 0 0.00021081455304902685 0.027545434147295156 0 0 0 -0.022164567054019063 -0.073429285809268108 -0.01995186217293865 0 -0.01995186217293865 0.008426838875483289 0 0 0 -0.01625061173344633 -0.083779264364648942 -0.020119439991615529 0 -0.020119439991615529 0.0084391493345468138 0 0 0 -0.01883502875752549 -0.1340175411108 0.045959889200550497 0 0.045959889200550497 0.019650183728725512 0 0 0 -0.028591839345518566 -0.11079956545702968 0.045702894430631247 0 0.045702894430631247 0.019905513700185784 0 0 0 -0.022723512939210988 -0.040198048705433712 0.0033232678731475685 0 0.0033232678731475685 -0.011334896874555706 0 0 0 -0.012883236394997352 0.079068657712459856 0.033223377651097702 0 0.033223377651097702 0.033562832500873441 0 0 0 0.028157872553333463 -0.090787978599363425 -0.0088113860987761132 0 -0.0088113860987761132 -0.021266694011065658 0 0 0 -0.028013668152607273 -0.073326645465219817 0.0012967248735522904 0 0.0012967248735522904 -0.013762221391368873 0 0 0 -0.021772216714147176 -0.057569134885677845 -0.013571870607475403 0 -0.013571870607475403 0.033439821993996761 0 0 0 -0.0060323282229202864 -0.055662549650846938 0.0049351188505863432 0 0.0049351188505863432 -0.0087376175196917788 0 0 0 -0.016100041792634676 -0.055501799479641754 -0.012723921286688269 0 -0.012723921286688269 -0.02060670575030752 0 0 0 -0.019027126307487319 -0.13037579170439917 -0.02154688154715842 0 -0.02154688154715842 0.002267415160095404 0 0 0 -0.032027094136075913 -0.13162757289367338 -0.022140630143929863 0 -0.022140630143929863 -0.0010261632188818259 0 0 0 -0.033163434028138788 -0.014891517705950985 0.035861316026666812 0 0.035861316026666812 0.033144070816919502 0 0 0 0.0045631382777417961 -0.0126143197493227 -0.015619686183412418 0 -0.015619686183412418 0.0001939235734567113 0 0 0 -0.0031050990439667192 -0.0037098050627342102 -0.0031453203573574284 0 -0.0031453203573574284 0.0056104608258608843 0 0 0 0.00047516394078162683 -0.0013964811506876895 0.0035942013940123974 0 0.0035942013940123974 -0.012679832758557108 0 0 0 -0.0035190784773112549 -0.055428212430681419 0.0019018920064047019 0 0.0019018920064047019 0.0017661458071425301 0 0 0 -0.013415516655884724 -0.0034822839937374839 -0.0038131900750734138 0 -0.0038131900750734138 0.06767875529545142 0 0 0 0.016049117825428477 -0.0021968023812540538 -0.0028462388703770769 0 -0.0028462388703770769 0.12027413126520714 0 0 0 0.029519332220988265 -0.0251981129697646 -0.013709586287824538 0 -0.013709586287824538 0.0039498201069125757 0 0 0 -0.0053120732157129792 -0.086540296825655769 -0.0090718194006515762 0 -0.0090718194006515762 0.010544639571529235 0 0 0 -0.018998914313531609 -0.00042095495250621395 0.00077563625706320027 0 0.00077563625706320027 -0.025642928158339684 0 0 0 -0.0065159707777115439 -0.12971621580545456 -0.029849082071029306 0 -0.029849082071029306 0.0081355518934735915 0 0 0 -0.03039516597799527 -0.03680733569048511 0.0042435859468561241 0 0.0042435859468561241 0.011273727380266116 0 0 0 -0.006383402077554742 -0.055007605261145287 -0.028871146460598768 0 -0.028871146460598768 0.024692711827758562 0 0 0 -0.0075787233583466951 -0.052168065696967303 -0.025881449134468659 0 -0.025881449134468659 0.021956503185545428 0 0 0 -0.0075528906278554686 -0.057693210076924364 0.005722159080269431 0 0.005722159080269431 -0.00047933296808844866 0 0 0 -0.01454313576125321 -0.072346198805609191 -0.016035782158073747 0 -0.016035782158073747 0.015159082668329993 0 0 0 -0.014296779034319806 -0.063782680096666669 0.0030692539836284852 0 0.0030692539836284852 -0.00089750233933352797 0 0 0 -0.016170045609000056 -0.050598881727622891 -0.014077424982079629 0 -0.014077424982079629 -0.016074843490608164 0 0 0 -0.016668431304557751 -0.090184705648201136 -0.0090189004170381226 0 -0.0090189004170381226 0.0098363206704045192 0 0 0 -0.020087096244449154 -0.15133680403741162 0.016811530107712191 0 0.016811530107712191 0.034616622855908163 0 0 0 -0.029180045295375823 -0.091214444824744625 -0.010134919640657811 0 -0.010134919640657811 -0.020692537171766525 0 0 0 -0.027976745499127785 -0.072019252817752205 0.0023388807783495192 0 0.0023388807783495192 -0.015868660965816697 0 0 0 -0.021971978445892229 -0.066711342110040553 0.0064552950892660492 0 0.0064552950892660492 -0.0031453990901456454 0 0 0 -0.017464185300046519 -0.07606424042710401 -0.020463598330902891 0 -0.020463598330902891 -0.012675243014447439 0 0 0 -0.02218487086038785 -0.035852794473781383 -0.0042572169810548097 0 -0.0042572169810548097 -0.019797070088471643 0 0 0 -0.013912466140563261 -0.010908511421784436 -0.040719822815138473 0 -0.040719822815138473 0.04847514375663517 0 0 0 0.0093916580837126867 -0.018468633164050809 0.0063706114455789296 0 0.0063706114455789296 -0.012005203042120063 0 0 0 -0.0076184590515427225 -0.014229246572433851 0.021902205539032993 0 0.021902205539032993 -0.0030670271743264976 0 0 0 -0.0043240684366896431 -0.016326391555772202 -0.029406280311674471 0 -0.029406280311674471 0.014854035216144368 0 0 0 -0.00036808908490693071 -0.064896416748788571 0.0054245307927271863 0 0.0054245307927271863 -0.0059847066618442524 0 0 0 -0.017720280852658199 -0.069370046577697603 -0.016422972581324444 0 -0.016422972581324444 -0.01775931929932896 0 0 0 -0.021782341469256637 -0.022928968094075186 0.0072071026922613367 0 0.0072071026922613367 -0.006113169158178007 0 0 0 -0.0072605343130632948 -0.031883143352183396 -0.03224140308864698 0 -0.03224140308864698 0.033575777920558769 0 0 0 0.00042315864209385712 -0.081856808129290748 0.015547479032476576 0 0.015547479032476576 -0.0016524114946436796 0 0 0 -0.020877304905983607 -0.010439825086353161 -0.016087352619275297 0 -0.016087352619275297 0.041919991804005297 0 0 0 0.0078700416794130201 -0.045755873970069638 -0.031551500960233847 0 -0.031551500960233847 0.0040722686170753253 0 0 0 -0.010420901338248689 -0.058768621322272001 -0.010574885992390863 0 -0.010574885992390863 0.054762870805670771 0 0 0 -0.001001437629150316 -0.13275720287705656 -0.01338648933796097 0 -0.01338648933796097 -0.0035493874081560378 0 0 0 -0.034076647571303152 -0.091745876888465222 0.0031878194016628017 0 0.0031878194016628017 -0.0019070013632907362 0 0 0 -0.023413219562938986 -0.0071801640630805574 0.0089459175864779802 0 0.0089459175864779802 0.0019077654810622097 0 0 0 -0.0013180996455045904 -0.027038096496812832 0.0050113666045541747 0 0.0050113666045541747 -0.010437966312491099 0 0 0 -0.0093690157023259817 -0.050802627944820239 -0.020979107902962327 0 -0.020979107902962327 0.0093653432708404316 0 0 0 -0.010359321168494917 -0.13565290736913987 -0.016384159472853151 0 -0.016384159472853151 -0.0016036923790454863 0 0 0 -0.034314149937046311 -0.094803905064134525 0.0056954823651758149 0 0.0056954823651758149 -0.00072784752544219344 0 0 0 -0.02388293814739418 -0.041387667006618598 0.0069289024165271312 0 0.0069289024165271312 0.056163672835361382 0 0 0 0.0036940014571856888 -0.029007028231122778 -0.028845460305514881 0 -0.028845460305514881 0.0013416442613114477 0 0 0 -0.0069163459924528325 -0.030967375353224025 0.045047157414794703 0 0.045047157414794703 0.0033678817059570321 0 0 0 -0.0068998734118173033 -0.083915658375762175 0.0017805503305866055 0 0.0017805503305866055 0.0085780993916665452 0 0 0 -0.018834389746023895 -0.071261893496962797 -0.0044938286350929002 0 -0.0044938286350929002 0.010914603825272174 0 0 0 -0.01508682241792267 -0.032169792905938049 -0.011649353626444772 0 -0.011649353626444772 0.0209475454207836 0 0 0 -0.0028055618712885984 -0.036062977148849019 -0.012013972673088458 0 -0.012013972673088458 0.029077561408194383 0 0 0 -0.0017463539351636557 -0.046844333376625524 -0.0090420842248101086 0 -0.0090420842248101086 -0.021580037109904051 0 0 0 -0.017106092621632395 -0.044728918199390864 -0.0049852056546595691 0 -0.0049852056546595691 -0.019004826864797271 0 0 0 -0.015933436266047027 -0.050342995827755511 0.0029342614879822649 0 0.0029342614879822649 -0.012132406318015543 0 0 0 -0.01561885053644276 -0.049276365689953049 0.0054923542352123397 0 0.0054923542352123397 -0.011610571702611235 0 0 0 -0.015221734348141072 -0.02898316074026433 -0.0062652635705672532 0 -0.0062652635705672532 -0.0057434595673969691 0 0 0 -0.0086816550769153733 -0.049896367939009346 -0.00011612001953555071 0 -0.00011612001953555071 0.059819898892865202 0 0 0 0.0024808827384639712 -0.015166348489087491 0.0096864565804281981 0 0.0096864565804281981 -0.00063083412159916502 0 0 0 -0.0039492956526716635 -0.024989905075343266 0.04743323605210676 0 0.04743323605210676 0.0097878621331606297 0 0 0 -0.0038005107355456591 -0.040782137555706144 -0.029340867201191681 0 -0.029340867201191681 -0.00085600591224599398 0 0 0 -0.010409535866988007 -0.018083352974933575 0.055822994684246785 0 0.055822994684246785 0.0062931416488529734 0 0 0 -0.0029475528315199284 -0.010713018038107444 -0.0066769528594012341 0 -0.0066769528594012341 -0.00052133367033609102 0 0 0 -0.0028085879271108737 -0.0044981143451505029 0.0027664043471518074 0 0.0027664043471518074 0.01053989169445782 0 0 0 0.0015104443373268189 -0.058119815074948566 0.059474762723016328 0 0.059474762723016328 0.00038728856122727251 0 0 0 -0.014433131628430407 -0.03718943549465803 0.061758904883839394 0 0.061758904883839394 0.0044234284177955274 0 0 0 -0.008191501769215459 -0.10083139698349311 -0.008050540308652045 0 -0.008050540308652045 -0.012786002499256944 0 0 0 -0.028404349870687504 -0.078640291685988559 0.00058719823247018518 0 0.00058719823247018518 -0.0095198668941558397 0 0 0 -0.022040039645036088 -0.028532518057197698 -0.032692771243461621 0 -0.032692771243461621 0.016506599577093661 0 0 0 -0.0030064796200259813 0.0013129966463564235 -0.0032656840831596394 0 -0.0032656840831596394 0.066545688376826284 0 0 0 0.016964671255795705 -0.0035859895683217069 -0.00072507910381891527 0 -0.00072507910381891527 0.12450462674249896 0 0 0 0.030229659293544264 -0.050070171832762411 0.0023458671086600182 0 0.0023458671086600182 0.036920911259932271 0 0 0 -0.0032873151432075351 -0.010680810241031784 0.014393647861016498 0 0.014393647861016498 0.0050161441617718738 0 0 0 -0.0014161665198149861 -0.010493274363415295 -0.0020941793788259444 0 -0.0020941793788259444 -0.02357780800681808 0 0 0 -0.0085177705925583158 -0.021619463456591825 -0.0036085705939102319 0 -0.0036085705939102319 -0.027637647463144899 0 0 0 -0.012314277729934209 -0.032656454378144323 -0.012498972596434996 0 -0.012498972596434996 -0.0093162419143206776 0 0 0 -0.010493174073116229 -0.023002535908489524 0.017024172206882238 0 0.017024172206882238 -0.0067101597713120631 0 0 0 -0.0074281739199508479 -0.017045931035229098 -0.029642283635603062 0 -0.029642283635603062 0.023969967799495839 0 0 0 0.0017310091910666264 -0.00375758076513244 0.0087590278677003586 0 0.0087590278677003586 0.010874592203618416 0 0 0 0.0017792528596214385 -0.0054830538240228655 -0.012673312483337362 0 -0.012673312483337362 0.041954119346460206 0 0 0 0.009117766380609349 -0.021232869766384721 0.036595501686818022 0 0.036595501686818022 0.0098076231225974198 0 0 0 -0.0028563116609466865 -0.018825630865599352 -0.021885603013255817 0 -0.021885603013255817 -0.0084404060516147794 0 0 0 -0.0068165092293037133 -0.02433109468236419 0.0051998353636305656 0 0.0051998353636305656 -0.010376621421829386 0 0 0 -0.0086769290260483942 -0.020682099013966646 0.0079257202010566581 0 0.0079257202010566581 -0.0067304093112991598 0 0 0 -0.0068531270813164472 -0.023514593735360467 0.041117799329252636 0 0.041117799329252636 0.019889011725235051 0 0 0 -0.00090639550253124312 -0.023433554595102879 -0.022649933933762245 0 -0.022649933933762245 0.00070956268336264117 0 0 0 -0.0056809979779351982 -0.077823445978887462 -0.011249398294464101 0 -0.011249398294464101 -0.020340364972816077 0 0 0 -0.024540952737925888 -0.065811656239432095 0.0036315296925371414 0 0.0036315296925371414 -0.014042989848029914 0 0 0 -0.019963661521865503 0.002115102442846295 0.06483930874874505 0 0.06483930874874505 0.020964430920738408 0 0 0 0.0057698833408961203 -0.11801291155544555 -0.0044228608025686893 0 -0.0044228608025686893 -0.020099994213105515 0 0 0 -0.034528226442137773 -0.087887630361925706 -0.0022240123540247262 0 -0.0022240123540247262 -0.014232360271662317 0 0 0 -0.025529997658397013 -0.033891242596242321 0.014470404565680495 0 0.014470404565680495 -0.0062751453275486924 0 0 0 -0.010041596980947753 -0.013584156079195386 -0.020059870310179195 0 -0.020059870310179195 0.053892811749046921 0 0 0 0.010077163917462828 -0.047011068571426659 -0.0088708879564023402 0 -0.0088708879564023402 0.073470493087745614 0 0 0 0.0066148561290797353 -0.076205266292083407 -0.00366228850303979 0 -0.00366228850303979 0.070272820490670851 0 0 0 -0.0014831114503531251 -0.049730338852869704 -0.031088792829237995 0 -0.031088792829237995 0.0092608847170969621 0 0 0 -0.010117363533943213 -0.024252958484211842 -0.022664106186159681 0 -0.022664106186159681 0.0016691599623786524 0 0 0 -0.0056459496304583218 -0.055533195621808362 0.06775177311523628 0 0.06775177311523628 0.017017132607710206 0 0 0 -0.0096290157535243726 -0.10756055341122617 0.042550707573542235 0 0.042550707573542235 0.022312855077791127 0 0 0 -0.021311924583358732 -0.072280223841849289 -0.019025807472441897 0 -0.019025807472441897 0.00941436116953831 0 0 0 -0.015716465668077717 -0.0019337496837665002 -0.0460034274186778 0 -0.0460034274186778 0.034484688834422239 0 0 0 0.0081377347876639694 -0.0168849724034974 0.0021911838095045044 0 0.0021911838095045044 0.033672890666397226 0 0 0 0.0041969795657249565 -0.021762402983569629 -0.0084108356478830304 0 -0.0084108356478830304 0.064318308999155027 0 0 0 0.010638976503896391 -0.053328377402996355 -0.017433937042152188 0 -0.017433937042152188 0.036871094079072603 0 0 0 -0.0041143208309809276 -0.049103695160096175 -0.012682040107642893 0 -0.012682040107642893 0.035274965202204744 0 0 0 -0.0034571824894728265 -0.030493347205540984 0.020510640062216551 0 0.020510640062216551 0.084766389747317886 0 0 0 0.013568260635444231 -0.014539518232726284 -0.024516401813855865 0 -0.024516401813855865 0.047408235010459043 0 0 0 0.0082171791944332107 -0.015231170587728382 0.034059923101648737 0 0.034059923101648737 0.051026107464902104 0 0 0 0.0089487342192930974 -0.017401768083453506 -0.012978232789573663 0 -0.012978232789573663 -0.0058681769050084043 0 0 0 -0.0058174862471154221 -0.04585698221319727 0.012265394896406275 0 0.012265394896406275 0.05055061652256114 0 0 0 0.0011734085773409536 -0.036864507352148475 -0.006589405683467886 0 -0.006589405683467886 0.011819877054992559 0 0 0 -0.0062611575742889461 -0.024098331713538423 -0.0062735804824322616 0 -0.0062735804824322616 -0.022033942409428353 0 0 0 -0.011533068530741653 -0.029381849864570295 0.018680912805360786 0 0.018680912805360786 0.033234772338256155 0 0 0 0.00096323061842147238 -0.028637466626072153 -0.0021502075040950308 0 -0.0021502075040950308 -0.020131735905498896 0 0 0 -0.012192300632892762 -0.094793961667394455 -0.0087566678555964384 0 -0.0087566678555964384 0.0013254330356935462 0 0 0 -0.023367132157925186 -0.049776589444188175 -0.0083562126215497926 0 -0.0083562126215497926 -0.018901970459706704 0 0 0 -0.017169639975973712 -0.016527492337521196 0.01067568564491175 0 0.01067568564491175 -0.0020480441498843781 0 0 0 -0.0046438841218513858 -0.042981733120043428 0.0095014518645722881 0 0.0095014518645722881 0.072030114866704936 0 0 0 0.0072620954366653875 -0.15913564368376609 0.018595007953118612 0 0.018595007953118612 0.0016989004984826472 0 0 0 -0.039359185796320695 -0.027562056106475601 0.0046143541725391021 0 0.0046143541725391021 -0.011884182468770909 0 0 0 -0.0098615596438116297 -0.017951274280132067 0.0013378898390531847 0 0.0013378898390531847 -0.0067274418452100138 0 0 0 -0.0061696790313355218 -0.041627658780508302 -0.018044628695303794 0 -0.018044628695303794 0.0030958478883466173 0 0 0 -0.0096329527230404263 -0.049791904994789582 -0.023501548591674082 0 -0.023501548591674082 -1.3531123579602067e-05 0 0 0 -0.012451359029592268 -0.035501433871182007 -0.0095580545790097029 0 -0.0095580545790097029 -0.017525106811779385 0 0 0 -0.013256635170740348 -0.023560328278916947 0.0037191271393859572 0 0.0037191271393859572 -0.012833447854446586 0 0 0 -0.0090984440333408828 -0.021794746155090382 -0.0031734955154258115 0 -0.0031734955154258115 -0.0042131288939806985 0 0 0 -0.0065019687622677666 -0.043336414802484263 -0.020234614864683836 0 -0.020234614864683836 0.01187228656690037 0 0 0 -0.0078660320588959942 -0.018973236973879481 0.0013098484111244701 0 0.0013098484111244701 0.017071013193523554 0 0 0 -0.00047555594508902344 -0.092058461656178481 -0.030367769998681848 0 -0.030367769998681848 -0.0049127513102214804 0 0 0 -0.024242803241600011 -0.0033602175587103267 0.019818964626262758 0 0.019818964626262758 0.10264805837606961 0 0 0 0.02482196020433966 -0.024262504205718294 -0.0094223977010756688 0 -0.0094223977010756688 -0.0037762531936593735 0 0 0 -0.0070096893498445834 -0.021336373591326806 0.0066063077248367744 0 0.0066063077248367744 -0.0091448611267023385 0 0 0 -0.0076203086795072813 -0.018506939800437879 0.0072704206750721923 0 0.0072704206750721923 -0.0091287579903476038 0 0 0 -0.0069089244476963647 -0.025955763720435954 0.01871998788922663 0 0.01871998788922663 0.002650233442582639 0 0 0 -0.0058263825694639948 -0.023861552948971188 -0.026710431993869466 0 -0.026710431993869466 0.03215430218704185 0 0 0 0.0020731873095174436 -0.021051631050000855 0.012323113747918593 0 0.012323113747918593 0.0083640285383756383 0 0 0 -0.0031719006279062947 -0.028438922622824606 0.010374872679175435 0 0.010374872679175435 0.0073647141933515237 0 0 0 -0.0052685521073682733 -0.021779654524435348 0.0069951074343969268 0 0.0069951074343969268 -0.0075957774538209667 0 0 0 -0.0073438579945640774 -0.080131655179313463 0.0053543332832214872 0 0.0053543332832214872 -0.001507360484436733 0 0 0 -0.020409753915937551 -0.047261188319345802 -0.0033879195983024871 0 -0.0033879195983024871 0.015846954661996926 0 0 0 -0.0078535584143372139 -0.031462127842843732 -0.0070986365413235261 0 -0.0070986365413235261 0.018745244145881079 0 0 0 -0.0031792209242406388 -0.088287131322189377 0.0058204142536167486 0 0.0058204142536167486 -0.0035538735722214464 0 0 0 -0.022960251223602707 0.0432503416358649 0.086848846509178679 0 0.086848846509178679 0.060865503541773724 0 0 0 0.026028961294409639 -0.022586365452765378 0.03405532133547759 0 0.03405532133547759 0.00087569255240005361 0 0 0 -0.0054276682250913311 -0.020094196862342928 -0.029491850501727306 0 -0.029491850501727306 0.00039954097130889821 0 0 0 -0.0049236639727585629 -0.03806639056436599 0.0020641697970520401 0 0.0020641697970520401 0.0082595398242138532 0 0 0 -0.0074517126850380359 -0.025560963041330455 0.0037208154209921419 0 0.0037208154209921419 -0.011283424017628069 0 0 0 -0.0092110967647396312 0.0046764955405802222 -0.0019551166482460296 0 -0.0019551166482460296 0.020238926911934074 0 0 0 0.006228855613128581 -0.032092553779395183 -0.011648279798939815 0 -0.011648279798939815 -0.0022690965464315926 0 0 0 -0.0085904125814567356 -0.034638809509533325 -0.015901741652551482 0 -0.015901741652551482 -0.013159465357984457 0 0 0 -0.011949568716879494 -0.027766003574239931 0.0068059562224829671 0 0.0068059562224829671 -0.0011587157668349196 0 0 0 -0.0072311798352687195 -0.077689905623016586 -0.01865260010340275 0 -0.01865260010340275 0.00053343927083426834 0 0 0 -0.019289116588045552 -0.063570413823107741 -0.023826402019348103 0 -0.023826402019348103 0.0052779847786053047 0 0 0 -0.014573107261125651 -0.024769569009611251 0.0016923928514812614 0 0.0016923928514812614 -0.0082612456221922894 0 0 0 -0.0082577036579508847 -0.090969480742041697 0.049828083541807899 0 0.049828083541807899 0.008131030153044172 0 0 0 -0.020709612647249354 -0.12078169136058281 0.039630353495599957 0 0.039630353495599957 -0.00078104862737227165 0 0 0 -0.030390684996988604 -0.010557189575162884 0.0081828528156899644 0 0.0081828528156899644 0.025067144932201746 0 0 0 0.0036274888392596738 -0.01247077487230086 -0.014133383341347505 0 -0.014133383341347505 0.049092303001929238 0 0 0 0.0091553820324070667 -0.009154243647723978 -0.017394657419432635 0 -0.017394657419432635 0.0083355071050852658 0 0 0 -0.00020468413565964683 -0.026392420049227483 -0.00033795415260629014 0 -0.00033795415260629014 -0.017482586698073455 0 0 0 -0.010968751686825207 0.017965372627974985 0.042396285274651564 0 0.042396285274651564 0.10433177328194848 0 0 0 0.030574286477480894 -0.029981998836476089 -0.0060337225774771998 0 -0.0060337225774771998 -0.014264284662159704 0 0 0 -0.011061570874658949 -0.043355693475906745 -0.01147921593354656 0 -0.01147921593354656 0.032803358496692497 0 0 0 -0.0026380837448036348 0.035369062461308998 0.030474218292950384 0 0.030474218292950384 0.021079413329051722 0 0 0 0.014112118947590124 -0.038090068022057999 0.0014876292563117321 0 0.0014876292563117321 0.0067628974505888834 0 0 0 -0.0078317926428672809 -0.021006420248656288 0.038480802311223083 0 0.038480802311223083 0.00390560679863583 0 0 0 -0.0042752033625049757 -0.019425073468016085 -0.024708158046482409 0 -0.024708158046482409 0.00053865004412045892 0 0 0 -0.004721605855973976 -0.036945023268307751 0.0028493764478050958 0 0.0028493764478050958 -0.0041322998807127934 0 0 0 -0.01026933078725514 -0.063458024631939697 -0.015648016608085083 0 -0.015648016608085083 0.055966168949500794 0 0 0 -0.0018729639206097187 -0.020575276601139114 0.030866504250302462 0 0.030866504250302462 0.057773927433177441 0 0 0 0.0092996627080093042 -0.018802702688295148 -0.012379923928746317 0 -0.012379923928746317 0.0016728444037525936 0 0 0 -0.0042824645711355136 -0.1273446643644533 0.002205192597487182 0 0.002205192597487182 0.0011874857966897578 0 0 0 -0.031539294641940871 -0.22528747392507203 -0.0077191141594977813 0 -0.0077191141594977813 0.0018813697681386299 0 0 0 -0.055851526039233351 -0.02814305930869998 0.020748205299416914 0 0.020748205299416914 0.097887516615482451 0 0 0 0.017436114326695673 -0.067253865372653404 0.007633072643175854 0 0.007633072643175854 -0.00025779957250240959 0 0 0 -0.016877916236288953 0.014989984761068024 -0.00087286901310157372 0 -0.00087286901310157372 0.053963132217663384 0 0 0 0.017238279244682769 0.0081767929305568421 0.0024760858937196151 0 0.0024760858937196151 0.074216126649415459 0 0 0 0.020598229894992992 0.0070243931332468756 -0.0047635774980832046 0 -0.0047635774980832046 0.14015568343354357 0 0 0 0.036795019141697693 0.02058244974778578 -0.0020208219501567926 0 -0.0020208219501567926 0.11549846483976833 0 0 0 0.034020228646888584 -0.016548911633290989 0.008947281463438872 0 0.008947281463438872 -0.0024728457473692789 0 0 0 -0.004755439345165105 -0.017562785008863935 -0.015902742922407287 0 -0.015902742922407287 0.014372473257898699 0 0 0 -0.00079757793774137831 -0.016423767563674724 0.0037844851557889692 0 0.0037844851557889692 0.10086014389337161 0 0 0 0.021109094082424257 -0.015982344406592103 -0.010111523442763726 0 -0.010111523442763726 0.049217954279293097 0 0 0 0.0083089024681752832 -0.067549041357675588 0.0050050499544134069 0 0.0050050499544134069 0.047413115141210826 0 0 0 -0.0050339815541161972 -0.0036399781086347005 0.027355480285754963 0 0.027355480285754963 0.038164092830135665 0 0 0 0.0086310286803756853 -0.008658878757755506 0.0088792218407478529 0 0.0088792218407478529 -0.0032783008675272285 0 0 0 -0.0029842949063207946 -0.0067119120489526063 -0.00736628813992668 0 -0.00736628813992668 -0.0033455529063890488 0 0 0 -0.002514366238835497 -0.006103767587906761 -0.023274511611955651 0 -0.023274511611955651 0.014849834536287077 0 0 0 0.0021865167370949123 -0.03059943427416318 0.0058996767783926207 0 0.0058996767783926207 -0.0018986554327605661 0 0 0 -0.0081245224267309391 -0.016867190944325039 0.026959723766299071 0 0.026959723766299071 0.051618122882498008 0 0 0 0.0086877329845435614 -0.0041166313743829369 -0.0064801374228919961 0 -0.0064801374228919961 -0.0025181246873015317 0 0 0 -0.0016586890154208084 -0.050999495065864354 -0.0054590418127717279 0 -0.0054590418127717279 0.07108186163872747 0 0 0 0.0050205916432157962 -0.005002383130602972 0.0079957646739809984 0 0.0079957646739809984 -0.0034009678276190058 0 0 0 -0.0021008377395554945 -0.015176560394015604 -0.023841823414873731 0 -0.023841823414873731 0.02619187455404326 0 0 0 0.0027538285400067197 -0.0095133493912335498 -0.025678285657080191 0 -0.025678285657080191 0.020129385338324535 0 0 0 0.0026540089867727601 -0.045221620700956061 -0.021659613362628893 0 -0.021659613362628893 0.0065430074503031732 0 0 0 -0.0096696533126632289 -0.044609957846518222 -0.020533467313319981 0 -0.020533467313319981 0.0077057280070397804 0 0 0 -0.0092260574598695966 -0.03032774191982299 -0.0094476450329523936 0 -0.0094476450329523936 -0.0094759626745501702 0 0 0 -0.0099509261485933066 -0.024079490816538318 0.074058147882377634 0 0.074058147882377634 0.017463571896638608 0 0 0 -0.001653979729974886 -0.074542871067228206 -0.0085849561171722488 0 -0.0085849561171722488 -0.00035402708350140699 0 0 0 -0.018724224537682382 0.012571910231363663 -0.017873659725908458 0 -0.017873659725908458 0.037023750187358734 0 0 0 0.012398915104680615 -0.022648308969327138 -0.0088579839266039323 0 -0.0088579839266039323 0.02365188964504944 0 0 0 0.00025089516893057884 -0.012468534300004719 0.020462289262540352 0 0.020462289262540352 0.018728228005406161 0 0 0 0.0015649234263503536 -0.028394519344133173 -0.010232289744695963 0 -0.010232289744695963 -0.014861964129817662 0 0 0 -0.010814120868487764 -0.030514511087549046 -0.011336176126351384 0 -0.011336176126351384 -0.017022609623693619 0 0 0 -0.01188428017781068 -0.25088527834049557 0.0054326921530680064 0 0.0054326921530680064 0.0070993585058862774 0 0 0 -0.060946479958652322 -0.13402610833228884 -0.0025141677622073453 0 -0.0025141677622073453 0.0031064751172316107 0 0 0 -0.032729908303764293 -0.035182396394392718 -0.0045803321411528528 0 -0.0045803321411528528 -0.011729400987572089 0 0 0 -0.011727949345491201 -0.041097732655842552 0.0047352030843768513 0 0.0047352030843768513 -0.013698895908864519 0 0 0 -0.013699157141176766 -0.0051071507763097296 0.006935816124937752 0 0.006935816124937752 0.0063749758749680474 0 0 0 0.00031695627466457599 -0.021855792051814718 0.017843590775502412 0 0.017843590775502412 0.02172989106914814 0 0 0 -3.1475245666642837e-05 -0.015866146160189616 0.012663106876260127 0 0.012663106876260127 0.0045378439837623769 0 0 0 -0.0028320755441068237 -0.11950374220284148 -0.014264882909931246 0 -0.014264882909931246 -0.011090375673554035 0 0 0 -0.03264852946909888 -0.088126949759643386 0.0032542702556938516 0 0.0032542702556938516 -0.0058422780703685437 0 0 0 -0.023492306957502998 0.045506331404338685 0.035520150736463696 0 0.035520150736463696 0.026785073104302448 0 0 0 0.018072851127160616 -0.099771756950396043 -0.01331654782134303 0 -0.01331654782134303 -0.0066492099075529769 0 0 0 -0.026605241714487242 -0.07852166355026266 0.0031411367063651496 0 0.0031411367063651496 -0.0039002140484782274 0 0 0 -0.020605469399685224 -0.034164404225951961 -0.0038633027883682794 0 -0.0038633027883682794 -0.0053210386653532726 0 0 0 -0.0098713607228262945 0.035340572175539653 0.10069410131021145 0 0.10069410131021145 0.062730618549158734 0 0 0 0.024517797681174569 -0.0087117693366081765 0.010119338477255359 0 0.010119338477255359 -0.0024273437807026399 0 0 0 -0.002784778279327698 -0.029693928291154068 -0.008106655695095305 0 -0.008106655695095305 0.013898780314402559 0 0 0 -0.0039487869941878667 -0.062477929822285366 -0.0079776570817763209 0 -0.0079776570817763209 -0.020821894261528518 0 0 0 -0.020824956020953467 -0.057436119039391359 0.0033100808468744217 0 0.0033100808468744217 -0.019141328353032224 0 0 0 -0.019144361848105893 -0.11464026002709118 0.0037424283321199534 0 0.0037424283321199534 -0.00057767480980738806 0 0 0 -0.028804483709224626 -0.18601267810873795 -0.010114017848132997 0 -0.010114017848132997 -0.0011656335410523133 0 0 0 -0.046794577912447552 -0.068273659596285258 -0.011084225789602137 0 -0.011084225789602137 0.024753900710210164 0 0 0 -0.010879939721518822 0.0095651460140765976 -0.01648938390088267 0 -0.01648938390088267 0.026022699671057969 0 0 0 0.0088969614212836556 -0.059076046071822354 -0.011275703813480059 0 -0.011275703813480059 0.052998874865655542 0 0 0 -0.0015192928015416995 -0.028778401544920177 0.013862707017769513 0 0.013862707017769513 0.031139190308265258 0 0 0 0.00059019719083627104 -0.039682809853270259 0.0084337876894712838 0 0.0084337876894712838 0.035519164774097133 0 0 0 -0.0010409112697932826 0.0019497977547978541 0.020467840005552768 0 0.020467840005552768 0.031026642030977471 0 0 0 0.0082441099464438412 0.013918965800120382 0.016410041217265192 0 0.016410041217265192 0.017401892274912276 0 0 0 0.007830214518758153 -0.019522518158440472 -0.012183284796683735 0 -0.012183284796683735 -0.016557546346692043 0 0 0 -0.0090200161262831702 -0.056923178107333536 -0.016900540501322558 0 -0.016900540501322558 0.026157910313485792 0 0 0 -0.0076913169484619619 -0.065247003488487165 -0.030387201295223293 0 -0.030387201295223293 0.062982175011281255 0 0 0 -0.00056620711930146367 -0.016336781363301588 -0.051696602214390319 0 -0.051696602214390319 0.10149243703388558 0 0 0 0.021288913917645997 -0.10852713874290591 0.0033701131970921561 0 0.0033701131970921561 -0.00068209197176252734 0 0 0 -0.027302307678667103 -0.16830168721297159 -0.0086378377459821291 0 -0.0086378377459821291 -0.0014333293512276135 0 0 0 -0.042433754141049787 -0.0012528199421742185 -0.0018409559933589281 0 -0.0018409559933589281 -0.016831096945472003 0 0 0 -0.0045209792219116666 -0.016697804631753743 -0.026907065913060468 0 -0.026907065913060468 0.077612889896378934 0 0 0 0.015228771316156298 -0.018169512082988247 0.011092092225653119 0 0.011092092225653119 -0.0026309835833731691 0 0 0 -0.0052001239165903523 -0.095498128156211629 -0.012996367544442181 0 -0.012996367544442181 -0.014612344428695219 0 0 0 -0.027527618146226712 -0.075457913812970068 0.003284664673913563 0 0.003284664673913563 -0.0088827138885360056 0 0 0 -0.021085156925376523 -0.039049853688044409 0.0024093745341657365 0 0.0024093745341657365 -0.004932105153359255 0 0 0 -0.010995489710350916 -0.059158789752409582 -0.0074647151231145804 0 -0.0074647151231145804 0.057624727428684977 0 0 0 -0.00038351558093116262 -0.021387642777961652 -0.012398581160555755 0 -0.012398581160555755 0.026500723135956306 0 0 0 0.0012782700894987398 -0.040985941547353938 0.0043034081040418393 0 0.0043034081040418393 -0.0027975205390998034 0 0 0 -0.010945865521613437 -0.059779014909450479 0.015419112185220296 0 0.015419112185220296 0.00058323655985592637 0 0 0 -0.014798944587398721 -0.016929028540489943 -0.019689644786557436 0 -0.019689644786557436 0.04653455951163199 0 0 0 0.0074013827427855672 -0.010417321849266692 -0.017762077782189301 0 -0.017762077782189301 0.039496652492908013 0 0 0 0.0072698326609103026 -0.042182691069804684 -0.025949138949417007 0 -0.025949138949417007 0.038218237624587981 0 0 0 -0.00099111336130416894 -0.044152083067618225 -0.015248552539492782 0 -0.015248552539492782 0.029956524363984105 0 0 0 -0.0035488896759085509 -0.039255332570352248 -0.0024584860165124279 0 -0.0024584860165124279 0.024646261833591657 0 0 0 -0.0036522676841901427 -0.057070347903406746 -0.0080821133029797352 0 -0.0080821133029797352 0.054568817887946083 0 0 0 -0.0006253825038651864 2.3124347333203232e-05 0.023147347983023536 0 0.023147347983023536 0.117153475376786 0 0 0 0.029294149931029301 0.00022096279501415683 0.00034987753564341695 0 0.00034987753564341695 0.00084110216107324831 0 0 0 0.00026551623902160149 -0.0030874537741130414 -0.019064660598771432 0 -0.019064660598771432 0.061730277790056576 0 0 0 0.014660706003986029 0.00049329733940006726 -0.00078744587956869339 0 -0.00078744587956869339 0.001040427839594793 0 0 0 0.000383431294748382 -0.039684639357453311 0.0016795929282624128 0 0.0016795929282624128 0.026653525933047643 0 0 0 -0.0032577783561014099 -0.041448880921777544 -0.0012594916807351646 0 -0.0012594916807351646 0.017225986783233716 0 0 0 -0.0060557235346359569 -0.038773963600433101 -0.011726337233755386 0 -0.011726337233755386 0.024419359898251267 0 0 0 -0.0035886509255454585 -0.14820411217045765 -0.014370056965165502 0 -0.014370056965165502 0.0020610518787414489 0 0 0 -0.036535765072929084 -0.17084096935213178 -0.021999382278752172 0 -0.021999382278752172 0.0027174083341808264 0 0 0 -0.042030890254487724 -0.035514795191522272 -0.022749399788925789 0 -0.022749399788925789 -0.00039894691108753599 0 0 0 -0.0089784355256524589 -0.049040275955458665 -0.0019392094682182288 0 -0.0019392094682182288 0.006717898084144483 0 0 0 -0.010580594467828545 -0.019776559895772171 -0.035138213015659489 0 -0.035138213015659489 0.056416328607352961 0 0 0 0.0091599421778951681 -0.073179815608705887 0.0042270596287538233 0 0.0042270596287538233 -0.0077929963818410674 0 0 0 -0.020243202997636742 -0.062822043599690652 0.0036913997922419658 0 0.0036913997922419658 -0.010154974575852498 0 0 0 -0.018244254543885782 -0.068967294908674343 -0.012206457240164935 0 -0.012206457240164935 -0.01733654570647615 0 0 0 -0.021575960153787616 -0.089462741590499897 -0.014647847377609833 0 -0.014647847377609833 -0.016365349786310077 0 0 0 -0.026457022844202493 -0.060859154459198428 -0.023350240142221979 0 -0.023350240142221979 0.00051564122488256814 0 0 0 -0.015085878308578882 -0.047857637536288911 -0.024449602244836444 0 -0.024449602244836444 0.001567235948233936 0 0 0 -0.011572600397013799 -0.037715059910968581 -0.003948132593952265 0 -0.003948132593952265 -0.018802431527830687 0 0 0 -0.014129372859699819 -0.036274659779730149 -0.0052576479351011084 0 -0.0052576479351011084 -0.01896693309964689 0 0 0 -0.013810398219844259 -0.041286823763146498 0.0057385823985075298 0 0.0057385823985075298 -0.010778615265353543 0 0 0 -0.013016359757125008 -0.044542683508261488 0.0035424446773892723 0 0.0035424446773892723 -0.014144212192201614 0 0 0 -0.014671723925115777 -0.026398984660559455 0.042372414376115941 0 0.042372414376115941 0.0087912915795937963 0 0 0 -0.0044019232702414701 -0.026809546461062927 -0.027179382299637345 0 -0.027179382299637345 -0.0037154307828775046 0 0 0 -0.0076312443109849415 -0.056927226243262533 0.0025008833664772875 0 0.0025008833664772875 -0.0081106652804817415 0 0 0 -0.016259472880936078 -0.049047184916656633 -0.0094754948209167279 0 -0.0094754948209167279 -0.017461235309724727 0 0 0 -0.016627105056595336 -0.038299280577387296 -0.0062167357550369576 0 -0.0062167357550369576 0.011981458841074072 0 0 0 -0.0065794554340783129 -0.066650443494536887 0.0035768120700236886 0 0.0035768120700236886 -0.0058599255998652237 0 0 0 -0.018127592273600522 -0.073326008187619432 -0.013888125386067717 0 -0.013888125386067717 -0.011385410363464807 0 0 0 -0.021177854637771037 -0.085883520337735345 -0.014776286704410627 0 -0.014776286704410627 0.097793793198890006 0 0 0 0.0029775682152886757 -0.04261754010180583 -0.0034800727978345491 0 -0.0034800727978345491 0.013521509467218015 0 0 0 -0.0072740076586469606 -0.078338332445888489 -0.0072299702314921124 0 -0.0072299702314921124 -0.02612353639208341 0 0 0 -0.026115467209492978 -0.065727716622248744 0.0015817391236983532 0 0.0015817391236983532 -0.021914852624637944 0 0 0 -0.021910642311721674 0.018074767437178133 0.012718720706551081 0 0.012718720706551081 0.034295971973290817 0 0 0 0.013092684852617234 -0.0070096740574440708 -0.0018720731270739366 0 -0.0018720731270739366 -0.029152619113181899 0 0 0 -0.0090405732926565618 -0.058328183712460062 0.0011736847212368284 0 0.0011736847212368284 0.0092324485083796481 0 0 0 -0.012273933801020119 0.0034163525070361467 -0.027993574802737231 0 -0.027993574802737231 0.019061938910180376 0 0 0 0.0056195728543042001 -0.040527687481773031 0.0032471013622663502 0 0.0032471013622663502 0.026898491158306167 0 0 0 -0.0034072990808667152 -0.047727942943307483 -0.0094623430588358683 0 -0.0094623430588358683 0.02914587791853978 0 0 0 -0.0046455162561919242 -0.14061937877909533 -0.0038659666069308981 0 -0.0038659666069308981 -0.010918353194218015 0 0 0 -0.037884432993328325 -0.10066255800712662 -0.0024394047052469815 0 -0.0024394047052469815 -0.008106368603546861 0 0 0 -0.027192231652668361 -0.013391066373349712 -0.017947268873152435 0 -0.017947268873152435 0.035182566321473929 0 0 0 0.0054478749870310317 -0.034735793168259983 0.0082580441448039908 0 0.0082580441448039908 0.017453895768222982 0 0 0 -0.0043204743500092442 -0.0421805303912006 -0.0045909745365942459 0 -0.0045909745365942459 0.008412810506374286 0 0 0 -0.0084419299712065847 -0.085150547000495513 0.00039635848336794233 0 0.00039635848336794233 0.0052666695116568851 0 0 0 -0.019970969372209629 -0.089301714553580602 0.017687467927425038 0 0.017687467927425038 0.00075563955734825328 0 0 0 -0.022136518749058309 -0.047062656935955322 -0.0037656029364908639 0 -0.0037656029364908639 0.025683541029792201 0 0 0 -0.0053447789765407872 -0.046812466003467147 -0.018784435727032686 0 -0.018784435727032686 0.01355419643580863 0 0 0 -0.0083145673919146346 -0.045745346886188983 -0.00081200433573445918 0 -0.00081200433573445918 0.0095289151557515356 0 0 0 -0.0090541079326093635 -0.032929675401122571 0.0075222222245976793 0 0.0075222222245976793 0.022203968350735806 0 0 0 -0.0026814267625966896 -0.050998724722705065 -0.021393330771599384 0 -0.021393330771599384 0.01412924936139423 0 0 0 -0.0092173688403277068 0.045977954756356326 0.016756978393602712 0 0.016756978393602712 0.088891471923144616 0 0 0 0.033717356669875242 -0.052064020903233713 0.0037692803872640297 0 0.0037692803872640297 0.0037870051699521734 0 0 0 -0.012069253933320395 -0.05058292435966405 0.012680305048736597 0 0.012680305048736597 -0.0027332774944746063 0 0 0 -0.013329050463534609 -0.015840632740047544 -0.016488584829671749 0 -0.016488584829671749 0.051376078694287619 0 0 0 0.0088838614885599076 -0.0029863105677500612 -0.014828582385872147 0 -0.014828582385872147 0.035788845485903664 0 0 0 0.0082006337295383314 -0.11419606052625611 -0.023413595489759881 0 -0.023413595489759881 0.030852954908844082 0 0 0 -0.020835776404352965 -0.0017054198510943995 -0.014598384202347083 0 -0.014598384202347083 -0.013949186618664233 0 0 0 -0.0039136516174396556 -0.10944519036860736 0.0058809392070390265 0 0.0058809392070390265 0.0019751071514379492 0 0 0 -0.026867520804292416 -0.18496165628575356 -0.020258996307928878 0 -0.020258996307928878 0.0055187957924153486 0 0 0 -0.044860715123334574 -0.10610468609700691 7.991045814376152e-05 0 7.991045814376152e-05 0.00030963303499660644 0 0 0 -0.02644876326550261 -0.18252474032053953 -0.0042991227943081634 0 -0.0042991227943081634 0.0022948046463783234 0 0 0 -0.045057483918540281 -0.087298401236308026 -0.0022519743966384572 0 -0.0022519743966384572 -0.011794186606043644 0 0 0 -0.024773146960587928 -0.11770903852870511 -0.0032255522273871634 0 -0.0032255522273871634 -0.014963697430709084 0 0 0 -0.033168183989853536 -0.050000077135261091 -0.013124122081083774 0 -0.013124122081083774 0.039117226919587703 0 0 0 -0.0027207125539183211 -0.045950756812752201 -0.021527534975385815 0 -0.021527534975385815 0.049909436719445643 0 0 0 0.00098966997667335882 -0.015562951955607973 -0.003427445388636402 0 -0.003427445388636402 0.056414817275526552 0 0 0 0.010212966329979645 -0.0092342445336252021 -0.0011355325627192547 0 -0.0011355325627192547 0.11078490640583177 0 0 0 0.025387665468051657 -0.021506832257747632 0.0054775900671847205 0 0.0054775900671847205 0.034751493639490177 0 0 0 0.0033111653454356432 -0.015530223536831783 0.0016935059202783376 0 0.0016935059202783376 0.095631398135184731 0 0 0 0.020025293649588188 -0.026202964444016513 -0.0091313286436191521 0 -0.0091313286436191521 0.048234818789741229 0 0 0 0.0055079635864311027 -0.046458580195302066 -0.00047393453243110839 0 -0.00047393453243110839 0.010374187175490964 0 0 0 -0.0090210982549527551 -0.030809355755215831 -0.021333065927125364 0 -0.021333065927125364 0.041442242267627161 0 0 0 0.002658221628102822 -0.048091747373567362 -0.023006626426372159 0 -0.023006626426372159 0.037094803757587169 0 0 0 -0.0027492359039950343 -0.044459758648116209 -0.00081356593378421535 0 -0.00081356593378421535 0.048835707478836692 0 0 0 0.001093987207680119 -0.1221818877870442 0.016994846101696333 0 0.016994846101696333 -0.0017002894535620428 0 0 0 -0.030970544310151116 -0.057296253722764021 -0.0074482931880922899 0 -0.0074482931880922899 0.050921392737860185 0 0 0 -0.001593715246225938 0.0035667877563327344 -0.013061870867763462 0 -0.013061870867763462 0.14464039212511826 0 0 0 0.037051794970362761 0.051584168846634748 -0.017471962819626749 0 -0.017471962819626749 0.076560074808814993 0 0 0 0.032036060913862435 0.0093778556078510378 -0.014945976628790658 0 -0.014945976628790658 0.029989423142003035 0 0 0 0.0098418196874635044 -0.20302488085835144 -0.015429562449206013 0 -0.015429562449206013 0.0048762657749326088 0 0 0 -0.049537153770854686 -0.11595283704134679 0.0052801789070796579 0 0.0052801789070796579 0.0015173142252569438 0 0 0 -0.028608880704022448 -0.05881995678695838 -0.0068925707427763497 0 -0.0068925707427763497 0.054749456210104158 0 0 0 -0.001017625144213552 -0.076300226834940643 0.040462539148346188 0 0.040462539148346188 -0.0066279764954870757 0 0 0 -0.020732050832606985 -0.053583542119266747 0.038972536972061489 0 0.038972536972061489 0.00094425174307044557 0 0 0 -0.01315982259404902 -0.027536544553256714 -0.030840276856394677 0 -0.030840276856394677 0.017572489541660907 0 0 0 -0.0024910137528990628 -0.019861997153166971 -0.027891642210788548 0 -0.027891642210788548 0.02013067200835841 0 0 0 6.7168713797942592e-05 -0.024073260176906974 -0.018742913837273889 0 -0.018742913837273889 0.057800892231320455 0 0 0 0.0084319080136034397 -0.021037467179894076 0.0096749445394094108 0 0.0096749445394094108 0.00058205481300532824 0 0 0 -0.0051138530917227421 -0.055675977933268082 0.0038540207937084667 0 0.0038540207937084667 -0.0085378432167926444 0 0 0 -0.016053455287515183 -0.054063960562056472 -0.0075149916296051739 0 -0.0075149916296051739 -0.016921279652611507 0 0 0 -0.017746310053666996 -0.030653428881403037 -0.034280854297462415 0 -0.034280854297462415 0.0081995371399948697 0 0 0 -0.0056134729353517973 -0.030819398468276749 -0.032827083026560316 0 -0.032827083026560316 0.0082869141486989761 0 0 0 -0.0056331210798946652 -0.034259155304538533 -0.03240304972917607 0 -0.03240304972917607 0.0050588891282650761 0 0 0 -0.0073000665440683815 -0.035518424962329487 -0.035108345975743693 0 -0.035108345975743693 0.0060179147894672269 0 0 0 -0.007375127543215565 -0.048862381297861551 0.051164501110926963 0 0.051164501110926963 -0.0043636267515421712 0 0 0 -0.013306502012350924 -0.037945069276012336 0.047253589284099506 0 0.047253589284099506 -0.0026916196892944264 0 0 0 -0.010159172241326526 -0.060741377617008527 0.0049786818964990646 0 0.0049786818964990646 -0.015732501242608277 0 0 0 -0.019118469714904197 -0.071309346435557003 -0.012712050896850723 0 -0.012712050896850723 -0.021822745994471367 0 0 0 -0.023283023107507093 -0.097791454719316301 -0.012247115509982032 0 -0.012247115509982032 0.0080962159898941843 0 0 0 -0.02242380968235555 -0.16813395377401941 0.026679453932321878 0 0.026679453932321878 0.012179904714285872 0 0 0 -0.038988512264933328 -0.082558518068039363 0.0083585499730643581 0 0.0083585499730643581 0.0018186652200553322 0 0 0 -0.02018496321199599 -0.031723719994767502 0.0074782189718833802 0 0.0074782189718833802 0.008551982221686261 0 0 0 -0.0057929344432703098 -0.006083448745565434 -0.012252984025774238 0 -0.012252984025774238 -0.012096108559107477 0 0 0 -0.0045448893261682555 -0.12889338345553505 -0.021466209850742969 0 -0.021466209850742969 0.0015535759319649234 0 0 0 -0.031834951880892554 -0.16584978357118546 -0.017915815273495866 0 -0.017915815273495866 -0.003306538063678921 0 0 0 -0.042289080408716095 -0.022412816524725869 0.00082533644896206032 0 0.00082533644896206032 -0.016509830189594527 0 0 0 -0.0097306616785800982 -0.037517628374308359 0.0079323026274186192 0 0.0079323026274186192 0.067125429481074139 0 0 0 0.007401950276691438 -0.11587122468143467 -0.0019439501968356865 0 -0.0019439501968356865 0.00016187629690822547 0 0 0 -0.028927337096131531 -0.20855515332544311 0.002847210279414869 0 0.002847210279414869 -5.067325849518467e-05 0 0 0 -0.052151456645984369 -0.067792177602935627 -0.006430477597471923 0 -0.006430477597471923 0.0088885410038297974 0 0 0 -0.014725909149776478 -0.099225037658785556 -0.019161938305588343 0 -0.019161938305588343 -0.012055943606983546 0 0 0 -0.027820245316442269 -0.074777886930937787 -0.018550871414133533 0 -0.018550871414133533 -0.0082458162028972385 0 0 0 -0.020755925783458758 -0.0045008903119838628 0.085826109974629167 0 0.085826109974629167 0.16718122749891129 0 0 0 0.040670084296731801 -0.15517156807228222 -0.0079432418116157921 0 -0.0079432418116157921 0.00012545640170161243 0 0 0 -0.038761527917645158 -0.10086749668374546 0.0031229158440460314 0 0.0031229158440460314 0.00042899982005212278 0 0 0 -0.025109624215923349 -0.030880490504763713 -0.012482698663165072 0 -0.012482698663165072 -0.014827281805313342 0 0 0 -0.011426943077519236 -0.034109489800993986 -0.012892244208505071 0 -0.012892244208505071 -0.011529988132083169 0 0 0 -0.011409869483269303 -0.037608924921359019 0.0067654105333489409 0 0.0067654105333489409 0.038537175416997145 0 0 0 0.00023206262390953504 -0.033973822199412217 -0.010801683914855045 0 -0.010801683914855045 0.0035589182785997764 0 0 0 -0.0076037259802031049 -0.020368042237776187 0.014609768504407185 0 0.014609768504407185 0.0061463826905487767 0 0 0 -0.0035554148868068534 -0.010847973459114368 0.024348027975564845 0 0.024348027975564845 0.15499314096381744 0 0 0 0.036036291876175852 -0.081785854530734961 0.0072062088491579579 0 0.0072062088491579579 0.0031881032692139266 0 0 0 -0.019649437815380266 -0.042272098303728703 -0.0019766564411332812 0 -0.0019766564411332812 0.0069488482172151561 0 0 0 -0.0088308125216283919 0.050526902417560526 0.016142888807882366 0 0.016142888807882366 0.059977196765474083 0 0 0 0.027626024795758708 -0.070469930582318985 -0.010393390488505405 0 -0.010393390488505405 -0.0027779974625219417 0 0 0 -0.018311982011210315 -0.24962823196021652 -0.0009827879521742966 0 -0.0009827879521742966 -0.00033874135801370553 0 0 0 -0.062491743329557536 -0.13507236279211193 -0.00059716460288793995 0 -0.00059716460288793995 -0.00042325903489603967 0 0 0 -0.033873905456751979 -0.056592258596321762 -0.0021796373848537616 0 -0.0021796373848537616 0.062333783104603954 0 0 0 0.001435381127070548 -0.10007277191786361 -0.015348235670085975 0 -0.015348235670085975 -0.0065131313419813375 0 0 0 -0.026646475814961223 -0.1191573760133489 -0.021539118975833382 0 -0.021539118975833382 -0.0035900451728617735 0 0 0 -0.030686855296552663 0.019910221881692572 0.024966519737543255 0 0.024966519737543255 0.034906860134101714 0 0 0 0.013704270503948582 -0.047708344934138447 -0.011374980932337783 0 -0.011374980932337783 -0.00077064162069895303 0 0 0 -0.012119746638709294 -0.041729758981019424 -0.016213327462263588 0 -0.016213327462263588 0.011471101480627161 0 0 0 -0.0075646643750980486 -0.013632714230875642 0.020654006365894744 0 0.020654006365894744 0.11117587658793404 0 0 0 0.024385790589264378 -0.016909647247684179 -0.006428955346855468 0 -0.006428955346855468 0.0013378707941993362 0 0 0 -0.0038929441133710441 -0.05640014128552101 -0.027813563617020545 0 -0.027813563617020545 0.035895647261868335 0 0 0 -0.0051261235059132104 -0.032701854807974315 -0.011109246877664555 0 -0.011109246877664555 0.044202025249315158 0 0 0 0.0028750426103351934 -0.048076519514993241 -0.003614044610836295 0 -0.003614044610836295 0.015612839479594826 0 0 0 -0.0081159200088496003 -0.042330288399984095 0.011315212678983055 0 0.011315212678983055 -0.0013796980047899865 0 0 0 -0.010927496601193187 -0.015238409882497361 -0.019598674021764628 0 -0.019598674021764628 0.058415279052856484 0 0 0 0.01079421729258967 -0.051180692577609141 0.0031851188350884296 0 0.0031851188350884296 -0.0024633230541983506 0 0 0 -0.013411003907951868 0.0021325101834462207 -0.0018474220612827719 0 -0.0018474220612827719 0.05070866974109367 0 0 0 0.013210294981134948 -0.095270829467491089 0.0052681234417149584 0 0.0052681234417149584 0.00033127005173011481 0 0 0 -0.023734889853940219 -0.073920565121660495 -0.019302075841836089 0 -0.019302075841836089 0.026100303456504936 0 0 0 -0.011955065416288879 -0.079468107918645545 0.0067552117544243326 0 0.0067552117544243326 -0.0029309458392630106 0 0 0 -0.020599763439477146 -0.075061496348344137 -0.010462679286941556 0 -0.010462679286941556 0.001523931894298336 0 0 0 -0.018384391113511311 -0.10285191269917993 0.004424602313461555 0 0.004424602313461555 -0.00073120210166355282 0 0 0 -0.025895778700210856 -0.091553332316868463 0.0058394946870860623 0 0.0058394946870860623 0.00026338560804256561 0 0 0 -0.022822486677206488 -0.082542754132268137 0.051428687119973837 0 0.051428687119973837 -0.0012956553884382327 0 0 0 -0.020959602380176634 -0.055065742048845484 -0.0060754375612496513 0 -0.0060754375612496513 -0.019509441139779916 0 0 0 -0.018643795797156353 -0.061803256801624441 -0.012891904126817769 0 -0.012891904126817769 -0.019898976987851601 0 0 0 -0.020425558447369013 -0.057166468261020939 0.0055426971598651394 0 0.0055426971598651394 -0.012253560798296974 0 0 0 -0.017355007264829476 -0.054748392789572331 0.0026271885320078439 0 0.0026271885320078439 -0.014626617432169054 0 0 0 -0.017343752555435341 -0.040505129771744877 -0.0094060234708716467 0 -0.0094060234708716467 0.020485866988843721 0 0 0 -0.0050048156957252649 -0.032255728185003392 -0.03406248806796882 0 -0.03406248806796882 0.052485943965009253 0 0 0 0.0050575539450014792 -0.046909786283234098 -0.023686212499823771 0 -0.023686212499823771 0.02004668143637427 0 0 0 -0.0067157762117149421 -0.049423764901370681 -0.015172217698752682 0 -0.015172217698752682 0.036528519315833341 0 0 0 -0.0032238113963843351 -0.045053965428020107 -0.019244089464931863 0 -0.019244089464931863 0.018635170734323636 0 0 0 -0.0066046986734241142 -0.031711559606108275 -0.0019985762152625423 0 -0.0019985762152625423 0.048703291720282094 0 0 0 0.0042479330285434269 -0.032403045883262788 -0.010000095340827075 0 -0.010000095340827075 0.024446296537797285 0 0 0 -0.0019891873363664103 -0.13782612067007771 0.001722329426959225 0 0.001722329426959225 0.00068077988557035951 0 0 0 -0.034286335196126783 -0.26056866850709326 -0.0048855930177638413 0 -0.0048855930177638413 0.0042011157811405742 0 0 0 -0.064091888181488199 -0.022023425463442325 -0.0096748261524173818 0 -0.0096748261524173818 0.02636723924369358 0 0 0 0.0010859534450628067 -0.026466497096685443 -0.003666107143533992 0 -0.003666107143533992 0.057787660098412963 0 0 0 0.0078302907504318731 -0.075091861998640749 0.0047912182880208293 0 0.0047912182880208293 0.0097378754995892103 0 0 0 -0.016338496624762902 -0.029009276537527159 0.0039128752428062193 0 0.0039128752428062193 -0.011335700790357202 0 0 0 -0.010086244331971091 -0.046778584071346919 -0.012309801748798227 0 -0.012309801748798227 -0.0081690360218311456 0 0 0 -0.013736905023294521 -0.03221584635088897 -0.0043286037845240849 0 -0.0043286037845240849 -0.014367068602105383 0 0 0 -0.011645728738248576 -0.026423401191217451 -0.048955962427899825 0 -0.048955962427899825 0.098971184338050855 0 0 0 0.018136945786708318 -0.097258017323785334 0.0017451186527099594 0 0.0017451186527099594 -0.0041382232413571113 0 0 0 -0.025349060141285611 -0.090271002175368223 0.001090202875062854 0 0.001090202875062854 -0.0021583981078625268 0 0 0 -0.023107350070807706 -0.12268933800169193 -0.0084640597774176523 0 -0.0084640597774176523 -0.0024606226737342446 0 0 0 -0.031287490168856555 -0.14146209356448072 -0.0097718134031322054 0 -0.0097718134031322054 -0.0071326502290224095 0 0 0 -0.037148685948375768 -0.11662547053668842 -0.0080915413447356418 0 -0.0080915413447356418 0.0012947992344294335 0 0 0 -0.028832667825564762 -0.024609805237288507 0.081497307917754391 0 0.081497307917754391 0.10362328891225414 0 0 0 0.019753370918741409 -0.0020052253686899668 -0.015777634999896484 0 -0.015777634999896484 0.033372319292755415 0 0 0 0.0078417734810162232 -0.012619622489662535 -0.0098503781437934146 0 -0.0098503781437934146 -0.015511174431756996 0 0 0 -0.0070326992303548826 -0.057521246108690013 0.004578379548056042 0 0.004578379548056042 -0.0028633403534184358 0 0 0 -0.015096146615527115 -0.057133977258139124 -0.0046627429844152239 0 -0.0046627429844152239 0.045512407652829517 0 0 0 -0.0029053924013274189 -0.083036943847318218 0.0053900325208682993 0 0.0053900325208682993 -0.00069937982939630161 0 0 0 -0.020934080919178637 0.0019215200746165451 0.033561520280616097 0 0.033561520280616097 0.026902020718661657 0 0 0 0.0072058851983194394 -0.033318492193054189 0.0059834443745304822 0 0.0059834443745304822 -0.011526832858246355 0 0 0 -0.011211331262825138 -0.033227280233776219 -0.016990453144150902 0 -0.016990453144150902 -0.010054486325649231 0 0 0 -0.010820441639856349 0.026921955684778179 -0.06561059014968508 0 -0.06561059014968508 0.079547878473984868 0 0 0 0.026617458539690761 -0.20767970206324371 0.018849694843960374 0 0.018849694843960374 0.0018957507210903835 0 0 0 -0.051445987835538221 -0.023541323847398272 0.0029573610208605272 0 0.0029573610208605272 -0.012026114894021681 0 0 0 -0.0088918596853549865 -0.064527273623799092 0.0019086423271285308 0 0.0019086423271285308 -0.015862765221187246 0 0 0 -0.020097509711246585 -0.074025765822817835 -0.0072627713589870375 0 -0.0072627713589870375 -0.020780373350259979 0 0 0 -0.02370153479326946 -0.027247700361841244 0.01099597775948653 0 0.01099597775948653 0.014229707418898181 0 0 0 -0.0032544982357357675 -0.10649005342339932 0.0038538640994575796 0 0.0038538640994575796 0.0020839509259076294 0 0 0 -0.026101525624372929 -0.18020107898361953 -0.013114140831779197 0 -0.013114140831779197 0.0074744933282036019 0 0 0 -0.043181646413853914 -0.0045313683486818412 0.028125511977448614 0 0.028125511977448614 0.062910285035387759 0 0 0 0.014594729171677034 -0.042675121006777061 -0.014951729578102813 0 -0.014951729578102813 -0.0032884615567554398 0 0 0 -0.011490895640883014 -0.026251319255341674 0.0037922347653837063 0 0.0037922347653837063 0.058249146753191955 0 0 0 0.0079994568744625738 -0.021248534025643639 -0.022394089823254075 0 -0.022394089823254075 0.015872167283888516 0 0 0 -0.0013440916854387808 -0.037122272771555942 0.0023589091902550124 0 0.0023589091902550124 0.025046218854555879 0 0 0 -0.0030190134792500156 -0.032150456007073773 0.0056984482589076992 0 0.0056984482589076992 0.0059337742290209473 0 0 0 -0.0065541704445132116 -0.02512406473665316 0.00025453754383102149 0 0.00025453754383102149 -0.015775455707969177 0 0 0 -0.010224880111155585 -0.050038207642100888 0.0027832764934477804 0 0.0027832764934477804 0.0024739590405323947 0 0 0 -0.011891062150392121 -0.041910128986427805 -0.020655701097714495 0 -0.020655701097714495 0.12468551373009337 0 0 0 0.020693846185916395 -0.044093179715145051 -0.02131391457116176 0 -0.02131391457116176 0.11506705292382943 0 0 0 0.017743468302171092 -0.038525504263917654 -0.023861024650091323 0 -0.023861024650091323 -0.00019881650732589407 0 0 0 -0.0096810801928108869 -0.033119104378480313 -0.022296344580800986 0 -0.022296344580800986 -0.00063935880258747524 0 0 0 -0.0084396157952669748 -0.017139237472199698 0.03967131483480002 0 0.03967131483480002 0.031741183836764719 0 0 0 0.0036504865911413109 -0.024830061728300601 0.040139649192997284 0 0.040139649192997284 0.029415299299245135 0 0 0 0.0011463093927361889 -0.017091283116581257 0.045488875999399755 0 0.045488875999399755 0.015752858496985489 0 0 0 -0.00033460615489921963 0.014549011057767736 0.04401913566361737 0 0.04401913566361737 0.023416419396871113 0 0 0 0.0094913576136597122 -0.02755049376208531 0.0039776436896808544 0 0.0039776436896808544 -0.0091839953146148953 0 0 0 -0.0091836222691750527 -0.024415108342518366 0.0029157911636949474 0 0.0029157911636949474 0.075869115130561049 0 0 0 0.012863501697010629 -0.032700656818469086 0.00032019334151983658 0 0.00032019334151983658 0.042872344408428298 0 0 0 0.0025429218974897874 -0.080053433879387237 -0.016615775063402616 0 -0.016615775063402616 -0.00078416881016929452 0 0 0 -0.020209400672389188 -0.091544758513704638 -0.0067197154290583039 0 -0.0067197154290583039 -0.00047065214319175208 0 0 0 -0.023003852664224056 -0.15290772917149548 0.015421293277293024 0 0.015421293277293024 -0.0012342043589503859 0 0 0 -0.03853548338261148 -0.012926705775071795 0.024893389639723706 0 0.024893389639723706 0.031765866158102202 0 0 0 0.0047097900957576017 -0.009049566332941919 0.026946357049797136 0 0.026946357049797136 0.040412986527585182 0 0 0 0.0078408550486608053 -0.027363806376345563 0.0059805893787657858 0 0.0059805893787657858 -0.0068863504174256143 0 0 0 -0.0085625391984427961 -0.029599844362648536 0.0049022209797753768 0 0.0049022209797753768 -0.01185613932232529 0 0 0 -0.010363995921243456 -0.15969633219612581 -0.014690710904594173 0 -0.014690710904594173 -0.0058766811880368308 0 0 0 -0.041393253346040645 -0.10195034518622223 0.0043447995021535374 0 0.0043447995021535374 -0.0012920257027295851 0 0 0 -0.025810592722237933 -0.092458639278099483 0.0066086638222209683 0 0.0066086638222209683 -0.0020390808097903723 0 0 0 -0.023624430021972447 -0.01059848416127851 0.027268237020797947 0 0.027268237020797947 0.074173632979436022 0 0 0 0.015893787204539489 -0.033627051174629385 -0.010277979754009903 0 -0.010277979754009903 0.0027352924253776223 0 0 0 -0.0077229396873129685 -0.029008740791483953 -0.0020448125429846468 0 -0.0020448125429846468 -0.013910452984004978 0 0 0 -0.010729798443872233 -0.016321717783950487 0.0010161199902388226 0 0.0010161199902388226 -0.0094096423473454052 0 0 0 -0.0064328400328239714 -0.060468644758712387 -0.026641192720584739 0 -0.026641192720584739 0.0047319301013342141 0 0 0 -0.013934178664344543 -0.061754996269351208 -0.017563459985885405 0 -0.017563459985885405 -0.0023488376771823166 0 0 0 -0.016025958486633379 -0.033777502417226039 -0.011424994033063157 0 -0.011424994033063157 0.027873031517189187 0 0 0 -0.0014761177250092253 -0.004983270631639794 0.019524793279785992 0 0.019524793279785992 0.017872646145753762 0 0 0 0.0032223438785284955 -0.085984009650412169 0.055835814591426169 0 0.055835814591426169 0.0023156942217638088 0 0 0 -0.020917078857162069 -0.094813400991824365 -0.0013616155956308329 0 -0.0013616155956308329 0.0040266230956751414 0 0 0 -0.022696694474037354 -0.15883198984896379 0.0020395955234232266 0 0.0020395955234232266 0.010897354179562724 0 0 0 -0.036983658917350282 -0.0042245904989603456 -0.0035486971475017781 0 -0.0035486971475017781 -0.02585552543258629 0 0 0 -0.0075200289828867284 -0.0098547172491418866 -0.008512030610029836 0 -0.008512030610029836 -0.027861765602500421 0 0 0 -0.009429120712910577 -0.081732894830047059 0.0070637551432368023 0 0.0070637551432368023 -0.00024840779139289476 0 0 0 -0.020495325655359997 -0.071178301965243398 0.0053778173430847412 0 0.0053778173430847412 -0.0013785534521279369 0 0 0 -0.018139213854342841 -0.041265028776014151 -0.0039386649100443573 0 -0.0039386649100443573 0.016850890921407513 0 0 0 -0.0061035344636516387 -0.10312407686849975 0.0082855694994728481 0 0.0082855694994728481 0.0023095529360898648 0 0 0 -0.025203630983102437 -0.1115846306125407 -0.020464108750651945 0 -0.020464108750651945 -0.0077706296534793551 0 0 0 -0.029838815066505018 -0.0010108103741280306 0.0015170668679023169 0 0.0015170668679023169 -0.020177676368282202 0 0 0 -0.0052971216856025861 -0.063906263363175508 0.064491772946495773 0 0.064491772946495773 0.0066680761530593102 0 0 0 -0.014309546802528939 -0.030205259303839754 0.0045577740773780871 0 0.0045577740773780871 -0.010069066710636551 0 0 0 -0.010068581503619077 0.027658348340294847 0.018274627827117973 0 0.018274627827117973 0.067645825497808176 0 0 0 0.023826043459525936 0.022406412467360075 0.038270095619256872 0 0.038270095619256872 0.10440561798009412 0 0 0 0.031703007611863558 -0.14827616766887555 0.016473699050957635 0 0.016473699050957635 0.026738154057505653 0 0 0 -0.030384503402842516 -0.0017676690877892476 0.04011063590246898 0 0.04011063590246898 0.11002976709102458 0 0 0 0.027065524500808805 0.010595811570398669 0.03381974169023759 0 0.03381974169023759 0.072650809924433957 0 0 0 0.020811655373708146 -0.062592425591030315 0.0059814072871797741 0 0.0059814072871797741 0.001353097779897186 0 0 0 -0.0153098319527833 -0.044552271009735564 0.0023673903634238089 0 0.0023673903634238089 -0.0024721338417451038 0 0 0 -0.011756101212870157 -0.13146314816506521 0.043056244947285327 0 0.043056244947285327 0.013868204757211622 0 0 0 -0.029398735851963398 -0.05733618718092183 -0.016395499000965437 0 -0.016395499000965437 0.05680320966126029 0 0 0 -0.00013324437991539539 -0.025042301893392439 0.025193128484232635 0 0.025193128484232635 0.11778653066356753 0 0 0 0.023186057192543762 -0.041696725186014583 -0.021914456743089353 0 -0.021914456743089353 0.00065844684934912578 0 0 0 -0.010259569584166406 -0.11027968192204349 -0.0047486227975020445 0 -0.0047486227975020445 0.003531791508382856 0 0 0 -0.026686972603415182 -0.19358130554596936 0.010372082653347048 0 0.010372082653347048 0.011718446934583238 0 0 0 -0.045465714652846601 -0.04740908336171934 0.02421292496889027 0 0.02421292496889027 -0.0073167071781212734 0 0 0 -0.013681447634960264 -0.02243822150148006 -0.026118760471600333 0 -0.026118760471600333 0.031448985660686546 0 0 0 0.0022526910398016908 -0.04052836593198178 -0.015437727392913908 0 -0.015437727392913908 0.020327703361471827 0 0 0 -0.0050501656426275021 0.0023115146399278197 0.02062484247587186 0 0.02062484247587186 0.019646217057080667 0 0 0 0.0054894329242521217 -0.1009543659575883 -0.019387340654049769 0 -0.019387340654049769 -0.013135646566083223 0 0 0 -0.028522503130917899 -0.094570791324653847 0.0048419619144306481 0 0.0048419619144306481 0.0024733913630650417 0 0 0 -0.023024349990397208 -0.13442131597528123 -0.0095001386879585703 0 -0.0095001386879585703 0.0081392087279355124 0 0 0 -0.03157052681183637 -0.030314146503889 -0.024870633872402029 0 -0.024870633872402029 0.046351081101167702 0 0 0 0.0040092336493196545 -0.075392588981677194 0.002329983453576448 0 0.002329983453576448 0.0041468883358768277 0 0 0 -0.017811425161450147 -0.042781095368125847 0.0046623874013838294 0 0.0046623874013838294 0.094811799275796874 0 0 0 0.013007675976917758 -0.026060209066114531 -0.00023691292685610465 0 -0.00023691292685610465 -0.0086853056795122025 0 0 0 -0.008686378686406683 -0.033156047832872931 -0.01115062977164169 0 -0.01115062977164169 0.013635759929389035 0 0 0 -0.0048800719758710087 -0.11208989788913892 0.0024021405584481459 0 0.0024021405584481459 0.0023437741649843385 0 0 0 -0.027436530931038705 -0.19310185854904463 -0.0090158212995638531 0 -0.0090158212995638531 0.0053095111272374318 0 0 0 -0.046948086855451848 -0.081568549244877941 -0.019647385823193253 0 -0.019647385823193253 0.0067395309549611315 0 0 0 -0.01870725457247923 -0.043243465303974438 -0.021696168757712242 0 -0.021696168757712242 0.032010686369926933 0 0 0 -0.0028081947335118762 -0.032830261126940263 -0.016206755424385086 0 -0.016206755424385086 0.058847096249976194 0 0 0 0.0065042087807589688 -0.058282222375244094 0.0032110220640719431 0 0.0032110220640719431 0.0044657445817260777 0 0 0 -0.013454119448379501 -0.043197236932077776 -0.020154705268455503 0 -0.020154705268455503 0.003468897852144992 0 0 0 -0.0099320847699832238 -0.061962869092448164 -0.024082888044643647 0 -0.024082888044643647 0.0012148022876330225 0 0 0 -0.015187016701203787 -0.069107501636673258 0.0035329169619429945 0 0.0035329169619429945 0.0040921211023441234 0 0 0 -0.016253845133582266 -0.040831558469517151 -0.022656676003433351 0 -0.022656676003433351 0.0014205695431393495 0 0 0 -0.0098527472315944192 -0.026768866244082066 0.00058736779662952872 0 0.00058736779662952872 -0.015951462662523459 0 0 0 -0.010680082226651379 -0.11332464773139671 0.00053091462699147995 0 0.00053091462699147995 0.0017339896928136866 0 0 0 -0.0278976645096458 -0.20304822980902543 -0.0016797513928067387 0 -0.0016797513928067387 0.0025325971786299695 0 0 0 -0.050128908157598906 -0.051272258250007835 -0.0098698553539777745 0 -0.0098698553539777745 -0.0031602413582616229 0 0 0 -0.013608124902067226 0.011928551707349522 0.019532682568467408 0 0.019532682568467408 0.084423294362313994 0 0 0 0.024087961517415657 0.0019240688108227433 0.026808327856334024 0 0.026808327856334024 0.063177227832664329 0 0 0 0.016275324160871851 -0.037303235150113467 -0.008024373696518719 0 -0.008024373696518719 -0.0028021805047679926 0 0 0 -0.010026353913720421 0.0035417759246882952 0.016084887973386884 0 0.016084887973386884 0.10785796991399543 0 0 0 0.027849936459670932 -0.016449154395179272 -0.017781433098005287 0 -0.017781433098005287 0.013136561438506777 0 0 0 -0.00082814823916813052 -0.051694951278954682 -0.019631725974685821 0 -0.019631725974685821 0.015124531121611828 0 0 0 -0.0091426050393357272 0.0040756884347818989 -0.00063101807844512161 0 -0.00063101807844512161 0.077706725837705992 0 0 0 0.020445603568121973 -0.0011772058297207511 -0.0018347818070783006 0 -0.0018347818070783006 0.14373680406835565 0 0 0 0.035639899559658739 -0.13063569668932526 -0.014122446100035518 0 -0.014122446100035518 0.025699860093308491 0 0 0 -0.026233959149004171 -0.067488857662741847 0.0045780035860341567 0 0.0045780035860341567 -0.0022257167723648413 0 0 0 -0.017428643608776672 -0.027062013070940874 0.0083954097079887227 0 0.0083954097079887227 -0.0016397214936725371 0 0 0 -0.0071754336411533519 -0.088869968576987368 0.048093022834880483 0 0.048093022834880483 -0.0050815280605980284 0 0 0 -0.023487874159396016 -0.0092853141624628099 -0.025648906051034481 0 -0.025648906051034481 0.020149532723364949 0 0 0 0.002716054640225507 -0.023739810405556585 0.0014857215217828814 0 0.0014857215217828814 -0.012538036596484062 0 0 0 -0.0090694617505101636 -0.06025720933507521 0.0014572364028248019 0 0.0014572364028248019 0.014454433972111949 0 0 0 -0.011450693840740832 0.022934471671863799 0.016491257980488418 0 0.016491257980488418 0.06585504483208382 0 0 0 0.022197379125986849 -0.043479361939387548 -0.0090155949255005252 0 -0.0090155949255005252 -0.017508892623254845 0 0 0 -0.015247063640660594 -0.029791760871359783 -0.0079769649239307683 0 -0.0079769649239307683 0.0022849724960185835 0 0 0 -0.0068766970938353086 -0.022661022592338154 -0.013490355767868611 0 -0.013490355767868611 0.0040312913743587551 0 0 0 -0.0046574328044948505 -0.0072283546715859459 0.0058823695023039746 0 0.0058823695023039746 0.035715198589968855 0 0 0 0.0071217109795957412 0.0016226624517536037 0.00096076801524724864 0 0.00096076801524724864 0.07476557720518251 0 0 0 0.019097059914233966 0.0034909230673349501 -0.0065625827352683852 0 -0.0065625827352683852 0.1340567180000185 0 0 0 0.034386910266838322 -0.010050067255696613 -0.011420065969458104 0 -0.011420065969458104 0.073999619653407664 0 0 0 0.015987388099427749 -0.019551428248110968 0.020502385101979437 0 0.020502385101979437 0.036577512074764465 0 0 0 0.0042565209566633906 -0.014275069434404 -0.023791661553553202 0 -0.023791661553553202 -0.0039649279391469339 0 0 0 -0.0045599993433877301 0.00079327359122566862 -0.046307162316923799 0 -0.046307162316923799 0.04036951449713852 0 0 0 0.01029069702209103 -0.055903984156300379 -0.019211852864603474 0 -0.019211852864603474 0.0040217984730959166 0 0 0 -0.01297054642080131 -0.081944786362945887 0.0051634993022609682 0 0.0051634993022609682 0.0016976766833206314 0 0 0 -0.020061777419906293 -0.070482340995742659 0.0070983636301767874 0 0.0070983636301767874 0.0028402655240911678 0 0 0 -0.016910518867912866 -0.12718870239469524 0.0074065894181689629 0 0.0074065894181689629 0.052399911455756842 0 0 0 -0.018697197734734577 -0.01814268738273217 0.00081133171444761065 0 0.00081133171444761065 0.020068262717398921 0 0 0 0.00048139383366668786 -0.017238305567440382 -0.010080369939086231 0 -0.010080369939086231 0.046212602397919134 0 0 0 0.0072435742076196186 -0.026376146961272558 0.0091185464826853448 0 0.0091185464826853448 0.0059435005486533129 0 0 0 -0.0051081616031548073 -0.00014976479866762871 0.00039487541229382694 0 0.00039487541229382694 -0.026027825050820574 0 0 0 -0.0065443974623721202 -0.034396655449301226 0.0043194963123351238 0 0.0043194963123351238 -0.00713960994553757 0 0 0 -0.010384066348709694 -0.042814658386040136 -0.022618457548278494 0 -0.022618457548278494 0.015388812123245055 0 0 0 -0.0068564615656988015 -0.023149587770924036 0.0016366115410916266 0 0.0016366115410916266 -0.016524344455388838 0 0 0 -0.0099184830565782166 -0.02695018483920486 0.054505304901686813 0 0.054505304901686813 0.0040289310573182746 0 0 0 -0.005730313445471813 -0.029041529236273914 0.046586147998004979 0 0.046586147998004979 0.0083498897786650206 0 0 0 -0.0051729098644019006 -0.029460932702886952 -0.028654663236223232 0 -0.028654663236223232 0.0027782009708588185 0 0 0 -0.0066706829330068634 0.017704959478112146 -0.091405879448908781 0 -0.091405879448908781 0.16127933884726992 0 0 0 0.044746074581345503 -0.024484721717762059 0.0022133550548634274 0 0.0022133550548634274 -0.014613901016333058 0 0 0 -0.0097746556835237794 -0.05292272909952539 -0.01118365079558048 0 -0.01118365079558048 0.0031041532118021298 0 0 0 -0.012454643971930635 0.0014935402750094751 0.00065487121240903612 0 0.00065487121240903612 9.6252399726104443e-05 0 0 0 0.00039744816868381161 -0.010500567936937433 0.0057750445566981945 0 0.0057750445566981945 0.15322485935902108 0 0 0 0.035681072855520801 0.0089857152085286371 0.00172498569410795 0 0.00172498569410795 0.13121160060698386 0 0 0 0.035049328953878016 0.0050418984378910459 -0.0035534531262646496 0 -0.0035534531262646496 0.067775699878109386 0 0 0 0.018204399579000219 0.0023045882349532754 -0.0010638234918862774 0 -0.0010638234918862774 0.0002979662440729669 0 0 0 0.00065063861975733772 -0.00037243737513027264 0.00083605125855124029 0 0.00083605125855124029 0.0015883049745649414 0 0 0 0.0003039668998586672 -0.0075795950095534081 -0.0074013215792633098 0 -0.0074013215792633098 0.08568380796672237 0 0 0 0.019526053239292462 -0.00038172327479202295 -0.0013315926496679786 0 -0.0013315926496679786 0.0024666421082093493 0 0 0 0.00052122970835410953 -0.027073035244518928 0.00064231944480198401 0 0.00064231944480198401 -0.014045462120023883 0 0 0 -0.010279624341135702 -0.037067511185820481 -0.021065513543104819 0 -0.021065513543104819 -0.0053906046388762022 0 0 0 -0.010614528956174218 -0.068878807401468109 0.0054832624830925131 0 0.0054832624830925131 0.007759389060047639 0 0 0 -0.015279854585355107 -0.049855068803292046 -0.027561942564034214 0 -0.027561942564034214 0.0049717740995192106 0 0 0 -0.011220823675943237 -0.033977933533546556 -0.0013003686575146158 0 -0.0013003686575146158 -0.015973543264392188 0 0 0 -0.012487869199484684 -0.028794642981396779 0.03724869300652589 0 0.03724869300652589 -0.0054005833034134199 0 0 0 -0.0085488065712027161 -0.024587071130427685 -0.030438391719572522 0 -0.030438391719572522 0.0049569071832631373 0 0 0 -0.0049075409867913589 -0.0062282489053612777 -0.0065507238447933824 0 -0.0065507238447933824 0.06107677880204454 0 0 0 0.013712132474170857 -0.011819883102238832 0.00032688788822857195 0 0.00032688788822857195 0.1154353348615067 0 0 0 0.025903862939817002 -0.056272847352962854 0.009004303844553016 0 0.009004303844553016 0.056088653854348636 0 0 0 -4.6048374653551161e-05 -0.062917363488384032 1.027986279077131e-05 0 1.027986279077131e-05 0.0080616373837971711 0 0 0 -0.013713931526146667 -0.029673952221220434 -0.012205921248790821 0 -0.012205921248790821 0.043335199384959 0 0 0 0.0034153117909346276 -0.02747374738024394 0.0064179053062807245 0 0.0064179053062807245 0.087606545932368718 0 0 0 0.015033199638031208 -0.032496123103043562 -0.032953229139093987 0 -0.032953229139093987 0.0086993127103601742 0 0 0 -0.005949202598170833 -0.023731917055561342 0.0084179369481588752 0 0.0084179369481588752 -0.00055432126330982878 0 0 0 -0.0060715595797177883 -0.026338715936081836 -0.032398023720760061 0 -0.032398023720760061 0.014809110224165867 0 0 0 -0.00288240142797902 -0.039220248852469997 0.035906566538046025 0 0.035906566538046025 -0.0015691516198073074 0 0 0 -0.010197350118069881 -0.032636426878187269 -0.001332188709541049 0 -0.001332188709541049 0.022400440317792425 0 0 0 -0.0025589966400987596 -0.021392950845069342 -0.0038189702261220426 0 -0.0038189702261220426 0.026142667462631719 0 0 0 0.0011874291543905735 -0.049497137294165897 0.0033862280150380661 0 0.0033862280150380661 -0.0028784975052877498 0 0 0 -0.013093908699863413 -0.048483314844254582 -0.0079077830098794599 0 -0.0079077830098794599 0.03888937026781436 0 0 0 -0.0023984861441100347 0.011275400304879335 -0.027549460828557248 0 -0.027549460828557248 0.020407985526659289 0 0 0 0.007920846457884656 -0.035101207850918324 -0.022200222083893439 0 -0.022200222083893439 -0.0022794675041348314 0 0 0 -0.0093451688387633149 0.03963152307384038 -0.019447013394067292 0 -0.019447013394067292 0.026356465645843485 0 0 0 0.016496997179920925 -0.022944644051756419 -0.0052493159605254136 0 -0.0052493159605254136 0.054348749498325799 0 0 0 0.0078510263616423381 -0.0353101290616957 -0.007178221338181634 0 -0.007178221338181634 0.016896943434554279 0 0 0 -0.0046032964067853344 -0.076654725500729839 0.0045579165457366976 0 0.0045579165457366976 -0.0024549784052627019 0 0 0 -0.019777425976498127 -0.050536795209170038 -0.010149900476358435 0 -0.010149900476358435 0.043957909378188831 0 0 0 -0.0016447214577453226 -0.051140447132408159 -0.00890822673830537 0 -0.00890822673830537 0.053632998252495498 0 0 0 0.0006231377800218138 0.024224872352638344 0.060501766186054295 0 0.060501766186054295 0.18359096916691692 0 0 0 0.051953960379888822 -0.029133719829063459 -0.0182514267172528 0 -0.0182514267172528 0.20997566895652003 0 0 0 0.045210487281864137 0.010146021436727048 0.017371503660414834 0 0.017371503660414834 0.08046307120192786 0 0 0 0.022652273159663894 -0.028252085725320383 0.022573718100149631 0 0.022573718100149631 0.048379259280418863 0 0 0 0.0050317933887746302 -0.056887130938925612 -0.0095434244630295748 0 -0.0095434244630295748 0.00042157963764877238 0 0 0 -0.01411638782531921 -0.0499159936551705 0.0036631824793621932 0 0.0036631824793621932 -0.0053219325708933956 0 0 0 -0.013809481556515972 -0.096946950723803202 -0.0097259189468418758 0 -0.0097259189468418758 -0.014652925119005868 0 0 0 -0.027899968960702261 -0.077284394518816024 0.0015755269832302349 0 0.0015755269832302349 -0.0092891438768330989 0 0 0 -0.021643384598912276 -0.015977265694651119 0.0048255089843125994 0 0.0048255089843125994 -0.011195178958590353 0 0 0 -0.0067931111633103645 -0.108870904545637 -0.0083481248091974661 0 -0.0083481248091974661 -0.0021302516902703696 0 0 0 -0.027750289058976845 -0.094966321496299994 -0.0093894163669119238 0 -0.0093894163669119238 -0.021553729341754257 0 0 0 -0.029130012709513559 -0.14728010840760464 0.0069106866193032572 0 0.0069106866193032572 -0.00096004940567264926 0 0 0 -0.037060039453319316 -0.12989219437456573 0.0077643798030654458 0 0.0077643798030654458 -0.02774677730379848 0 0 0 -0.03940974291959104 -0.054344214763319118 -0.020124831047499736 0 -0.020124831047499736 0.022599252462966901 0 0 0 -0.0079362405750880577 -0.021750837147215648 0.0034684230509877166 0 0.0034684230509877166 -0.013073034466799954 0 0 0 -0.0087059679035038987 0.022633473347370647 0.030949688628363115 0 0.030949688628363115 0.027540084483284488 0 0 0 0.012543389457663756 -0.028734893988635685 0.0044266324914104815 0 0.0044266324914104815 0.075166466044827351 0 0 0 0.011607893014047882 -0.014781316760210498 0.031959453754061701 0 0.031959453754061701 0.074017684053781646 0 0 0 0.014809091823392791 -0.032880388412399209 -0.033410800683099526 0 -0.033410800683099526 0.031556003571955205 0 0 0 -0.00033109621011101487 -0.0040114630976422266 0.0003063598454087213 0 0.0003063598454087213 0.0082389528675261645 0 0 0 0.0010568724424704294 0.0013442270339860856 -0.0060851729625315265 0 -0.0060851729625315265 0.024996359134218438 0 0 0 0.0065851465420510196 0.0018329201361284486 0.0060519781835886022 0 0.0060519781835886022 0.055362164637222183 0 0 0 0.014298771193338214 -0.0030578942437535961 -0.00063232158437953601 0 -0.00063232158437953601 0.004505683005736119 0 0 0 0.00036194719049563071 -0.011903055801781616 0.0067050888184031487 0 0.0067050888184031487 0.00088503632013688105 0 0 0 -0.0027545048704112132 -0.012831364335787909 -0.01385072990231126 0 -0.01385072990231126 0.0080642613463566271 0 0 0 -0.0011917757473577928 -0.10336659047996542 -0.014673776138126645 0 -0.014673776138126645 -0.034393121241117507 0 0 0 -0.034439927930270738 -0.13945263148535728 0.01476485573748372 0 0.01476485573748372 -0.046398638630539751 0 0 0 -0.046462817528974257 -0.15890662749866352 0.015024531423588261 0 0.015024531423588261 -0.021566169763554702 0 0 0 -0.045118199315554559 -0.11888055687843765 -0.014459263130419316 0 -0.014459263130419316 -0.016457391918238286 0 0 0 -0.033834487199168983 -0.030469612730661538 -0.033656499917414595 0 -0.033656499917414595 0.011524499346524109 0 0 0 -0.0047362783460342117 -0.049869906683427778 0.0035080686701253923 0 0.0035080686701253923 0.0025781920211199044 0 0 0 -0.011822928665576972 -0.039255855702431786 -0.023198668504090365 0 -0.023198668504090365 0.0059956277772583166 0 0 0 -0.008315056981293395 -0.037044005622632853 -0.023084166712508222 0 -0.023084166712508222 -0.0027859138039479925 0 0 0 -0.0099574798566452183 -0.043106138826719959 0.0025663236529641456 0 0.0025663236529641456 0.0026031390234947487 0 0 0 -0.010125749950806314 -0.030677493387702499 0.004984927349727955 0 0.004984927349727955 -0.0054741720031950269 0 0 0 -0.0090379163477243771 -0.030532221341798296 0.0056265635452527052 0 0.0056265635452527052 -0.0049922040782786579 0 0 0 -0.0088811063550192377 -0.051730140897681687 -0.042363676334508021 0 -0.042363676334508021 0.13270204028226465 0 0 0 0.020242974846145734 0.01280043221799515 -0.0083376152948112792 0 -0.0083376152948112792 0.37748079640616983 0 0 0 0.097570307156041231 -0.067405542711080568 -0.014292896497477392 0 -0.014292896497477392 0.015449682972978163 0 0 0 -0.012988964934525615 -0.024127216122512285 -0.0026519070556198926 0 -0.0026519070556198926 0.047448204454722198 0 0 0 0.0058302470830523812 -0.034510666762377878 -0.012749221379526721 0 -0.012749221379526721 0.028008878870235399 0 0 0 -0.0016254469730356547 -0.031555487981422027 0.0069526065950550296 0 0.0069526065950550296 0.0070633844578090743 0 0 0 -0.006123025880903233 -0.019495065296644132 0.030478771343410482 0 0.030478771343410482 0.057460820227352993 0 0 0 0.0094914387326774374 -0.028788878569052434 -0.014108010840264695 0 -0.014108010840264695 -0.0020038193034115359 0 0 0 -0.007698174468115937 0.011049530470633118 -0.030643427223823391 0 -0.030643427223823391 0.060748542533066718 0 0 0 0.017949518250924945 -0.01785205537270923 -0.0055667405539494286 0 -0.0055667405539494286 0.017653760741867655 0 0 0 -4.9573657710383356e-05 -0.043998804078504206 0.028375648818132593 0 0.028375648818132593 0.0026203521229186677 0 0 0 -0.01034461298889644 -0.024618763593066029 -0.027865596528533598 0 -0.027865596528533598 0.027568433645184909 0 0 0 0.00073741751302969227 -0.016996809109717792 -0.025878584165130961 0 -0.025878584165130961 0.023416127988892033 0 0 0 0.0016048297197935879 -0.022420924993189151 -0.002576452558429615 0 -0.002576452558429615 -0.012580451870119913 0 0 0 -0.0087503442158273215 -0.018132543434102505 -0.007945773913884846 0 -0.007945773913884846 0.065557409335137151 0 0 0 0.011856216475258669 -0.031592576529675107 -0.0086965815453949706 0 -0.0086965815453949706 -0.010069750809268668 0 0 0 -0.010415581834735951 -0.018541699036976805 -0.0073003821657907642 0 -0.0073003821657907642 -0.032180651936776689 0 0 0 -0.012680587743438415 -0.054913534524546899 0.0045860954804700232 0 0.0045860954804700232 -0.006118270466188019 0 0 0 -0.015257951247683739 -0.049210795052281209 0.0048274768949003082 0 0.0048274768949003082 -0.0074650116670471733 0 0 0 -0.014168951679832108 -0.050876031115221182 -0.0040723846947964375 0 -0.0040723846947964375 0.031747877482631706 0 0 0 -0.004782038408147382 -0.049522028231721027 -0.018070007255423459 0 -0.018070007255423459 0.037424350116463279 0 0 0 -0.0030244195288143816 -0.041470887501839609 0.002291312056396229 0 0.002291312056396229 -0.0047516818268342077 0 0 0 -0.01155564233216845 -0.037939840614459423 0.0041104316603194028 0 0.0041104316603194028 0.0034335625446610014 0 0 0 -0.0086265695174496063 -0.041020940381009417 0.0025579626908427107 0 0.0025579626908427107 0.0026989681745628186 0 0 0 -0.0095804930516116479 -0.011289330834328981 0.0082668029102405949 0 0.0082668029102405949 -0.020437852024366099 0 0 0 -0.0079317957146738394 -0.0041790514294816616 0.0099111427647905481 0 0.0099111427647905481 0.0015703759454717137 0 0 0 -0.00065216887100255638 -0.0046427470492854048 -0.014776155551721071 0 -0.014776155551721071 0.018022604722135821 0 0 0 0.003344964418212644 -0.013170057082433601 -0.012500871403857194 0 -0.012500871403857194 -0.0077682221691773856 0 0 0 -0.0052345698129027951 -0.013864219076865206 -0.040954630332814435 0 -0.040954630332814435 0.13145666705185483 0 0 0 0.029398111993747422 -0.0027196211834894513 0.020105789053942447 0 0.020105789053942447 0.042455911923420686 0 0 0 0.0099340726849832528 -0.0010949617607738382 -0.0033112290924249832 0 -0.0033112290924249832 -0.0039345930353720249 0 0 0 -0.0012573886990365768 -0.0024809565882528695 -0.016780162534127285 0 -0.016780162534127285 0.01953820004013096 0 0 0 0.0042643108629696336 -0.0011593324812645411 0.0038323077012094586 0 0.0038323077012094586 -0.0038782521219351551 0 0 0 -0.0012593961507997298 -0.048418248575972989 0.03818203730641978 0 0.03818203730641978 -0.0047231659870003995 0 0 0 -0.013285353640743125 -0.028389996692159469 -0.031940758171397181 0 -0.031940758171397181 0.014414403394805486 0 0 0 -0.0034938983243384403 -0.020952590193164311 -0.0311980099223369 0 -0.0311980099223369 0.013767725003580145 0 0 0 -0.0017962162973960139 -0.04518631355610269 -0.0072516534044313637 0 -0.0072516534044313637 0.044316243662118102 0 0 0 -0.00021751747349615068 0.0015706193207511987 0.013108157155129418 0 0.013108157155129418 0.025925499233080629 0 0 0 0.0068740296384577348 -0.00084774848871971287 -0.00062785736061743425 0 -0.00062785736061743425 0.0020399402330912864 0 0 0 0.00029804793609278235 -0.0015979642932566485 7.6906998758730083e-05 0 7.6906998758730083e-05 0.0046002127893283173 0 0 0 0.00075056212401847233 -0.0002987084436221199 -0.010985427740825893 0 -0.010985427740825893 0.0061709673999899017 0 0 0 0.0014680647390918899 -0.027062375737749722 -0.0052311567597595476 0 -0.0052311567597595476 -0.02347115180394832 0 0 0 -0.012633381885424566 0.014670558222558111 -0.030333725208291307 0 -0.030333725208291307 0.0080951048920901436 0 0 0 0.00569141577866214 0.010960347220399777 0.0004875750214615171 0 0.0004875750214615171 0.076051656910273963 0 0 0 0.021753001032668404 0.014632794813460692 -0.004696604276623495 0 -0.004696604276623495 0.14249066483374773 0 0 0 0.039280864911802049 -0.025970390860398086 0.006248731303283947 0 0.006248731303283947 -0.0076655729043968029 0 0 0 -0.0084089909411987247 -0.076710998370239203 0.039318616083824087 0 0.039318616083824087 0.0017264332875752686 0 0 0 -0.018746141270665984 -0.0841139320452573 0.037023721228353283 0 0.037023721228353283 -0.001897383673648001 0 0 0 -0.021502828929726325 -0.028690293326574579 -0.0081739490485600586 0 -0.0081739490485600586 -0.013763627362716808 0 0 0 -0.010613480172322888 -0.040309492204832612 -0.0028695025020766159 0 -0.0028695025020766159 0.014616686223483392 0 0 0 -0.0064232014953372989 -0.044782669074946491 -0.023028102961418939 0 -0.023028102961418939 0.0041511049934072064 0 0 0 -0.010157891020384835 -0.037222143290051531 -0.027578898448973377 0 -0.027578898448973377 0.019155459999046387 0 0 0 -0.0045166708227513171 -0.05257547787014083 0.039769420566220404 0 0.039769420566220404 -0.004240638132583463 0 0 0 -0.014204029000680851 -0.026468871944143268 -0.030887552506260407 0 -0.030887552506260407 0.015679300512782657 0 0 0 -0.0026973928578402084 -0.029886873227096822 -0.032630583039604533 0 -0.032630583039604533 0.011947736735368419 0 0 0 -0.0044847841229321839 -0.092085369832312372 0.00019068533649870033 0 0.00019068533649870033 -0.0091325659414106843 0 0 0 -0.025304483943430763 -0.12668895978994005 -0.0089617101576653455 0 -0.0089617101576653455 -0.014538260196730889 0 0 0 -0.035306804996667725 -0.11647539785200603 -0.014104389012732938 0 -0.014104389012732938 -0.0011615257208484539 0 0 0 -0.029409230893213616 -0.087093849552856484 0.0036773281390896154 0 0.0036773281390896154 -0.0014221028415402036 0 0 0 -0.022128988098599173 -0.045993433697445234 -0.003982324159803435 0 -0.003982324159803435 0.021682671190200724 0 0 0 -0.0060776906268110928 -0.070819023935979608 0.03169153522756285 0 0.03169153522756285 -0.006256532551852878 0 0 0 -0.019268889121957677 -0.019037723951978003 -0.026371600116754212 0 -0.026371600116754212 0.026863625366307708 0 0 0 0.0019564753535823431 -0.021332687031054509 -0.027467503036672558 0 -0.027467503036672558 0.020799534971485567 0 0 0 -0.00013328801489220776 -0.053351027027584721 -0.032316434647221781 0 -0.032316434647221781 0.0084586090388085733 0 0 0 -0.01122310449719395 -0.030866459422155629 -0.0068985782972320608 0 -0.0068985782972320608 -0.016954674582503437 0 0 0 -0.011955283501164843 -0.023722304539282396 -0.015736503141078995 0 -0.015736503141078995 -0.0044151243382128946 0 0 0 -0.0070343572193738158 -0.039411356988497417 -0.0087732854229755648 0 -0.0087732854229755648 0.015128844226727084 0 0 0 -0.0060706281904425868 -0.077284134707150343 0.0054610578451281203 0 0.0054610578451281203 -0.0051070570698494161 0 0 0 -0.020597797944249947 -0.091530454396679256 0.060432982705365124 0 0.060432982705365124 0.016867798722042027 0 0 0 -0.018665663918659176 -0.06071180401924825 -0.028119983067405541 0 -0.028119983067405541 0.010357100105285566 0 0 0 -0.012588675978490671 -0.020066600767224635 0.041479120234973355 0 0.041479120234973355 0.021068471789186471 0 0 0 0.00025046775549034117 -0.036949888646574565 -0.024309754399813199 0 -0.024309754399813199 -0.0039055970994235356 0 0 0 -0.01021387143649944 -0.016349153361209234 0.058148195357382915 0 0.058148195357382915 0.0066097536321692019 0 0 0 -0.0024348499322599526 -0.071613091488600719 0.0042958581456727235 0 0.0042958581456727235 0.00082408909521930473 0 0 0 -0.017697250598345322 -0.042261568354799606 -0.0013064038333697858 0 -0.0013064038333697858 0.010425541435762221 0 0 0 -0.00795900672975936 -0.052326609280260228 -0.029120673190769608 0 -0.029120673190769608 0.0017930248820150485 0 0 0 -0.012633396099561489 -0.0063239487941394411 0.0095210862513447347 0 0.0095210862513447347 0.036672030445905238 0 0 0 0.0075870204129414621 -0.0098201012953447742 -0.013145953004034205 0 -0.013145953004034205 0.074451973732047705 0 0 0 0.016157968109175747 -0.04004687266143768 0.00068361877411076029 0 0.00068361877411076029 0.0012508838709758881 0 0 0 -0.0096989971976154388 0.0019760439235585459 4.9429709469972494e-06 0 4.9429709469972494e-06 0.0028798020177145389 0 0 0 0.0012139614853179381 -0.0058471420913877026 0.0015438877571991583 0 0.0015438877571991583 0.00056682029037524728 0 0 0 -0.0013200804502533359 -0.0006448737014248529 -0.015383592092428233 0 -0.015383592092428233 0.032164315221271167 0 0 0 0.0078798603799616895 -0.0012824869443470721 -0.0073745786701880922 0 -0.0073745786701880922 0.033336646983719298 0 0 0 0.008013540009843112 -0.0022391454200865191 0.0085060613767020676 0 0.0085060613767020676 0.070209340491439676 0 0 0 0.0169925487678384 0.0013798918238963065 -0.00015520847017613804 0 -0.00015520847017613804 0.0016024794180333757 0 0 0 0.00074559281048247605 0.0020594143747900695 0.016648281516732144 0 0.016648281516732144 0.07022071379004835 0 0 0 0.018070032041209938 -0.0047073607399339412 -0.0015598947221300286 0 -0.0015598947221300286 -0.00016148990486986037 0 0 0 -0.0012172126612011169 -0.030289734575347338 -0.0094113769504243494 0 -0.0094113769504243494 -0.019917514914222778 0 0 0 -0.012551812372392557 -0.032818933246945292 -0.010589083132223901 0 -0.010589083132223901 0.011929355625031279 0 0 0 -0.0052223944054784477 -0.040437879176535241 -0.012635700679850703 0 -0.012635700679850703 0.00878056164335006 0 0 0 -0.0079143293832962258 -0.018321399877098209 -0.0016011868682226371 0 -0.0016011868682226371 -0.019990275578301422 0 0 0 -0.0095779188638499199 -0.018402291057789233 0.0011567692688891351 0 0.0011567692688891351 -0.014582064163794262 0 0 0 -0.0082460888053958459 -0.030778562622345365 0.027708201239638852 0 0.027708201239638852 0.1031771327897819 0 0 0 0.018099642541859154 -0.053240024256292505 -0.017355500435352805 0 -0.017355500435352805 0.012449403209768367 0 0 0 -0.010197655261630988 -0.055801704450901123 -0.02688817752815896 0 -0.02688817752815896 0.0064707912714667692 0 0 0 -0.012332728294858597 -0.06052424620187432 0.0017047510218857172 0 0.0017047510218857172 0.0040487801429264503 0 0 0 -0.014118866514736962 -0.11000035685408871 0.043446257553042766 0 0.043446257553042766 0.0036578348815088368 0 0 0 -0.026585630493145107 -0.089269926718950954 0.060249805867200856 0 0.060249805867200856 0.039858731545236559 0 0 0 -0.012352798793428654 -0.024617998556013695 0.026307805470093093 0 0.026307805470093093 0.066741155845219613 0 0 0 0.01053078932230149 -0.025316816291358901 -0.010364304732278271 0 -0.010364304732278271 0.021890536858288678 0 0 0 -0.00085656985826759735 -0.031808533132998418 -0.0099766797718964309 0 -0.0099766797718964309 0.022138676728353124 0 0 0 -0.0024174641011612819 0.0062257883351284071 0.036519598659275156 0 0.036519598659275156 0.07112399653124063 0 0 0 0.019337446216592252 -0.062301913711250989 -0.027659592715279069 0 -0.027659592715279069 0.018546830982164864 0 0 0 -0.010938770682271504 -0.073294724812051459 -0.019455829287597204 0 -0.019455829287597204 0.0014889972635794835 0 0 0 -0.017951431887118008 -0.021011092165090214 0.023388848026030064 0 0.023388848026030064 0.05063879398980653 0 0 0 0.0074069254561790754 -0.0080320906293331398 0.028819545021120802 0 0.028819545021120802 0.040624693572397806 0 0 0 0.0081481507357661562 -0.041980166307681782 -0.01590123529112375 0 -0.01590123529112375 0.022633518463827329 0 0 0 -0.0048366619609635786 -0.040766646618175216 -0.0054199373770964458 0 -0.0054199373770964458 0.011828507564364252 0 0 0 -0.0072345347634527254 -0.0404149678022502 -0.0042555867611935791 0 -0.0042555867611935791 0.021146762920191145 0 0 0 -0.004817051220514762 -0.041315202835697319 -0.002633396589703442 0 -0.002633396589703442 0.035374379738244567 0 0 0 -0.0014852057743631741 0.00095406824172683535 0.020337519869199294 0 0.020337519869199294 0.11267283968902841 0 0 0 0.028406726982688868 -0.030362253817048601 -0.0063435136295986183 0 -0.0063435136295986183 0.0002716464761352011 0 0 0 -0.0075226518352283778 -0.071667411585135926 0.0069271476858146983 0 0.0069271476858146983 0.00075666961172290992 0 0 0 -0.017727685493353233 -0.029075170688620977 0.0050485600036207145 0 0.0050485600036207145 -0.011195271262440049 0 0 0 -0.010067610487765256 0.03249326390644125 0.019407926116905783 0 0.019407926116905783 0.063593450271291152 0 0 0 0.024021678544433156 -0.025037612962542588 -0.0061669621477233871 0 -0.0061669621477233871 -0.018261057119386859 0 0 0 -0.010824667520482389 -0.062774280419581524 -0.026823420489029418 0 -0.026823420489029418 -0.00070738343358961453 0 0 0 -0.015870415963292792 -0.088533199126570622 -0.021357344763762151 0 -0.021357344763762151 0.0029653559961275722 0 0 0 -0.021391960782610728 -0.035290848529905633 -0.011277154682218349 0 -0.011277154682218349 0.043307387342963799 0 0 0 0.0020041347032645762 
</DataArray>
<DataArray type="Float64" Name="cross_section_updated" format="ascii">
0.0010093116906919552 0.0010230106603876209 0.0010313642151626918 0.0010392350823914696 0.0010474260405622766 0.0010563693926970942 0.0010661634618794411 0.0010761655876502037 0.0010862513315351686 0.0010952383238853993 0.0020333152052673014 0.0020860422615923192 0.0021218164280900126 0.0021539917309841383 0.0021854992670024783 0.0022167427088320649 0.0022480712023122624 0.0022786063114977979 0.0023082929367103837 0.0023359863333093436 1 1 1 1 1 1 1 1 1 1 1 1 1 1 1 1 1 1 1 1 1 1 1 1 1 1 1 1 1 1 1 1 1 1 1 1 1 1 1 1 1 1 1 1 1 1 1 1 1 1 1 1 1 1 1 1 1 1 1 1 1 1 1 1 1 1 1 1 1 1 1 1 1 1 1 1 1 1 1 1 1 1 1 1 1 1 1 1 1 1 1 1 1 1 1 1 1 1 1 1 1 1 1 1 1 1 1 1 1 1 1 1 1 1 1 1 1 1 1 1 1 1 1 1 1 1 1 1 1 1 1 1 1 1 1 1 1 1 1 1 1 1 1 1 1 1 1 1 1 1 1 1 1 1 1 1 1 1 1 1 1 1 1 1 1 1 1 1 1 1 1 1 1 1 1 1 1 1 1 1 1 1 1 1 1 1 1 1 1 1 1 1 1 1 1 1 1 1 1 1 1 1 1 1 1 1 1 1 1 1 1 1 1 1 1 1 1 1 1 1 1 1 1 1 1 1 1 1 1 1 1 1 1 1 1 1 1 1 1 1 1 1 1 1 1 1 1 1 1 1 1 1 1 1 1 1 1 1 1 1 1 1 1 1 1 1 1 1 1 1 1 1 1 1 1 1 1 1 1 1 1 1 1 1 1 1 1 1 1 1 1 1 1 1 1 1 1 1 1 1 1 1 1 1 1 1 1 1 1 1 1 1 1 1 1 1 1 1 1 1 1 1 1 1 1 1 1 1 1 1 1 1 1 1 1 1 1 1 1 1 1 1 1 1 1 1 1 1 1 1 1 1 1 1 1 1 1 1 1 1 1 1 1 1 1 1 1 1 1 1 1 1 1 1 1 1 1 1 1 1 1 1 1 1 1 1 1 1 1 1 1 1 1 1 1 1 1 1 1 1 1 1 1 1 1 1 1 1 1 1 1 1 1 1 1 1 1 1 1 1 1 1 1 1 1 1 1 1 1 1 1 1 1 1 1 1 1 1 1 1 1 1 1 1 1 1 1 1 1 1 1 1 1 1 1 1 1 1 1 1 1 1 1 1 1 1 1 1 1 1 1 1 1 1 1 1 1 1 1 1 1 1 1 1 1 1 1 1 1 1 1 1 1 1 1 1 1 1 1 1 1 1 1 1 1 1 1 1 1 1 1 1 1 1 1 1 1 1 1 1 1 1 1 1 1 1 1 1 1 1 1 1 1 1 1 1 1 1 1 1 1 1 1 1 1 1 1 1 1 1 1 1 1 1 1 1 1 1 1 1 1 1 1 1 1 1 1 1 1 1 1 1 1 1 1 1 1 1 1 1 1 1 1 1 1 1 1 1 1 1 1 1 1 1 1 1 1 1 1 1 1 1 1 1 1 1 1 1 1 1 1 1 1 1 1 1 1 1 1 1 1 1 1 1 1 1 1 1 1 1 1 1 1 1 1 1 1 1 1 1 1 1 1 1 1 1 1 1 1 1 1 1 1 1 1 1 1 1 1 1 1 1 1 1 1 1 1 1 1 1 1 1 1 1 1 1 1 1 1 1 1 1 1 1 1 1 1 1 1 1 1 1 1 1 1 1 1 1 1 1 1 1 1 1 1 1 1 1 1 1 1 1 1 1 1 1 1 1 1 1 1 1 1 1 1 1 1 1 1 1 1 1 1 1 1 1 1 1 1 1 1 1 1 1 1 1 1 1 1 1 1 1 1 1 1 1 1 1 1 1 1 1 1 1 1 1 1 1 1 1 1 1 1 1 1 1 1 1 1 1 1 1 1 1 1 1 1 1 1 1 1 1 1 1 1 1 1 1 1 1 1 1 1 1 1 1 1 1 1 1 1 1 1 1 1 1 1 1 1 1 1 1 1 1 1 1 1 1 1 1 1 1 1 1 1 1 1 1 1 1 1 1 1 1 1 1 1 1 1 1 1 1 1 1 1 1 1 1 1 1 1 1 1 1 1 1 1 1 1 1 1 1 1 1 1 1 1 1 1 1 1 1 1 1 1 1 1 1 1 1 1 1 1 1 1 1 1 1 1 1 1 1 1 1 1 1 1 1 1 1 1 1 1 1 1 1 1 1 1 1 1 1 1 1 1 1 1 1 1 1 1 1 1 1 1 1 1 1 1 1 1 1 1 1 1 1 1 1 1 1 1 1 1 1 1 1 1 1 1 1 1 1 1 1 1 1 1 1 1 1 1 1 1 1 1 1 1 1 1 1 1 1 1 1 1 1 1 1 1 1 1 1 1 1 1 1 1 1 1 1 1 1 1 1 1 1 1 1 1 1 1 1 1 1 1 1 1 1 1 1 1 1 1 1 1 1 1 1 1 1 1 1 1 1 
</DataArray>
<DataArray type="Float64" Name="displacement_divergence" format="ascii">
0.0092823302524324726 0.022975979754174921 0.03132475476921693 0.039198464124586815 0.047393267283398967 0.056337695688703983 0.066130175342203223 0.076131047771744578 0.086228918978353275 0.095168062399698189 0.016736360231832666 0.043002177614885166 0.060883911733904485 0.076964057957988538 0.092711463435890401 0.10832686816250703 0.12398822508035641 0.13922780354183192 0.15416543646901273 0.16763589951887412 -1.4383471905585492e-05 -1.1656444168054196e-06 -1.7134337838758165e-05 -1.7031619828612854e-05 -8.4000350788843769e-05 -6.0921619952726059e-05 -9.0418556568926093e-05 -6.3488577259480938e-05 -7.4080596365299736e-05 -0.00012726745201330008 -2.0883862862897571e-05 -2.1094464618709451e-05 -3.497350465397706e-05 -3.9880220826080306e-05 -4.0765140800653634e-05 -2.297529187123778e-05 0.0002165347521826096 -3.0336879123871521e-06 2.4728215721990521e-06 3.1446317376483679e-06 3.9502178269959845e-07 -7.534896175099854e-06 -7.9798045988328445e-06 -3.2685214248436818e-05 0.0001729548215652412 -0.00013500433186173447 -7.4762679246920889e-05 -4.9298506682390382e-05 -2.8090417507100869e-05 -6.7363863445459742e-05 -2.609614678208047e-06 -1.5672982907678854e-05 -1.9918669832718e-05 -1.4145064947488489e-05 -2.6761091459616936e-05 -5.3211506036579897e-05 2.076627526118821e-05 -6.7037546599579389e-05 0.00020223684292378541 5.696197173291279e-06 2.3402520208366676e-05 2.054190516037441e-05 3.6874823633552094e-05 -6.3342038912747242e-06 -3.2650100437799408e-05 -3.1905321177992988e-05 -4.2403633736225736e-06 -1.2536975642859528e-05 0.00022505986001527005 -6.9134856855028763e-06 2.0506958869033311e-05 -2.7294458067174659e-05 7.1448308813684257e-06 -2.1407996829247056e-05 -7.9732109869586304e-06 -6.9668487811388666e-05 -5.5743145822633941e-06 5.3707364974197626e-05 3.4736208346324921e-05 -2.0645998479156685e-07 -1.8761242128825621e-05 6.6892465361138821e-05 -1.6189344092950534e-05 -1.8878640779170668e-05 -2.0744578570167094e-05 -6.7379146364676638e-05 -9.1709028572303282e-05 8.3185254865645716e-07 2.0962500725457103e-05 -7.2078069689597351e-05 -5.6146531724958674e-05 -2.7407748903361224e-05 -6.1311749243632031e-05 -8.6368991891828571e-05 -2.5706409793416283e-05 -1.9293974139153924e-05 7.6835186747434715e-05 -5.3275433899642216e-06 -2.7353034871783664e-05 -2.0621480312327337e-05 -3.9089266950073122e-05 -9.1803726182504214e-05 -6.8771729026620088e-05 -3.3408842932063054e-05 -5.6831153811311153e-06 -7.6621246282964749e-06 -1.5846697127687903e-05 -2.2756560704397236e-05 -4.7775772551329782e-05 -2.2717378962659762e-05 -1.9967941853075417e-05 -2.1630575359496996e-05 -2.3995045176002319e-05 -1.0359567508632902e-05 -4.4882227093241559e-06 -1.7732319473345794e-05 1.8573088177494203e-05 7.5164503054078388e-05 -3.9026226009196766e-07 -6.4236254572898853e-06 7.9855655493564145e-05 4.7166469938047733e-05 -2.6256998900245533e-05 -2.9744813156499711e-05 2.6741028355781529e-05 5.9549506586146182e-06 -1.021924486886331e-05 -7.4939165324946653e-06 -1.3685473799272645e-05 1.3383936250786802e-05 -8.3450449128831886e-06 3.631831636975117e-05 -6.6794802488318687e-05 -0.00010853309513952159 -6.785628986726212e-06 9.315962042459971e-05 -1.9708064192189116e-05 -1.7877547447614766e-05 6.353126281602227e-06 3.4976589254045662e-06 1.5590877098577149e-05 1.1801272936329064e-07 1.2684926729973145e-05 -2.3738346402249206e-05 -2.2989701320206668e-05 -2.316128085641938e-05 5.2659602565248605e-07 -9.8279298223347871e-05 -2.8126536416533813e-05 -2.2378077041340031e-05 -2.5188480156499999e-05 -7.4723320106778388e-05 -5.6370226667907023e-05 -5.6000878978847504e-05 -9.0703044957808447e-05 -8.7090872213067025e-05 -2.3584542408860268e-05 -5.8225627538782514e-05 2.7846182602344477e-05 1.3318642390491181e-06 5.0317045984053302e-08 -2.5028484651526449e-05 -6.764687402476227e-06 -2.1849851283377574e-06 -1.4917831932019726e-05 -2.6701612643069102e-05 -4.0150031998154303e-05 -3.6540403887072738e-05 -7.7162839172858594e-06 -4.7399267910252303e-05 -4.0454645980675516e-05 -2.8125951256758127e-05 -2.4577579510201198e-05 -2.7533691574246094e-05 -2.806120105511883e-05 -3.2223438177015593e-05 -7.2277332960586443e-06 -2.2558161655731498e-05 -3.3204973850862923e-05 1.4005719279294277e-05 -2.7723511262293452e-05 -2.3334138246192072e-05 -9.1761609989435242e-05 -6.8743171386536435e-05 8.1457431512453769e-05 -2.1771854341806724e-05 2.3732182236086297e-06 -2.8670782924108094e-05 -6.3138117907903429e-05 -0.00010015102777109263 -3.011651728546813e-05 -5.740285334552272e-05 -7.3058078238671703e-05 -5.887245791654278e-05 -3.9236968895810054e-05 -3.9832374382008936e-05 -4.5746036015373537e-05 -2.5469687072349504e-05 6.9606807509186089e-06 -2.0795958110216266e-05 -2.7795593064863834e-05 -3.134620115282076e-05 -4.8749313554826299e-05 -4.2054149406369344e-05 -2.6716595626149673e-05 -2.4642552485552464e-05 -2.6754717239277446e-05 2.3699039050166168e-05 6.1309382995367278e-05 -8.6978754078283004e-06 -2.2116454518058678e-05 -2.745236573416189e-05 -3.425773645481878e-05 1.1814588742713183e-05 -2.3485113235835106e-05 -3.053752507014176e-05 -2.3870878684665773e-05 -6.5433176008033948e-05 -9.8680571133153694e-05 -2.0122668392917099e-05 -4.6632411350191516e-05 -5.5638436733455456e-05 -0.00011532672377218976 -6.6669428544936213e-05 7.6617307073474275e-05 0.00022804342100261985 -8.0719125263019559e-06 -2.1107938083721515e-05 1.3445067709214033e-05 -1.9385747458460542e-05 -2.6766334798676851e-05 -3.794516840678559e-05 -1.1032878512526843e-05 -0.00010121776557379815 -2.3048511790290174e-05 -5.9687392896462868e-06 -1.2382437931142626e-05 -2.9923828251911396e-05 -1.4125543113673417e-05 -6.2856491573087367e-06 -5.590838895976245e-05 -2.4557972904148875e-05 -8.4822848374439502e-05 -1.8385199695665922e-05 -2.0764039544313346e-05 -2.3988411991835573e-05 -1.902800648396802e-05 -2.456514445341406e-05 7.0121915817545255e-05 -2.3240315807280789e-05 -2.8575658065508715e-05 -1.9442894553755829e-05 4.8161509103244386e-05 -6.6706734675944424e-05 -2.4191127254051436e-05 -9.9121707503441509e-05 -6.4127262258312267e-05 -5.9648945054282263e-05 -2.4421548277635948e-05 -6.1598696730443469e-06 -2.316287132261682e-06 1.3133819625910786e-06 -2.2162348298997366e-05 -2.086852935819037e-05 -1.1088770661240362e-05 -2.4722359302881059e-05 -2.8393297340167218e-06 2.3096737703162673e-06 -9.5527623309140178e-06 -9.1535686553758516e-06 -2.3232385656243252e-06 -5.5411417635047695e-05 -4.0626529333615636e-05 -4.70875718938139e-05 -7.1479598363796606e-05 -5.6808782348027279e-05 -3.2208090987493379e-05 7.0394681383333536e-05 -7.0034170381518194e-05 -5.4430541785367951e-05 -1.5080820557300684e-05 -4.0250104481586661e-05 -4.756781576871827e-05 -8.006773534018988e-05 -8.2908585070347015e-05 1.140784569435456e-05 -7.7627476099163817e-06 1.1879098519541756e-06 -8.7976961932782153e-06 -3.3538791639711774e-05 4.0122794563571262e-05 7.3798330552470677e-05 -1.3280183039282588e-05 -4.7497285783829079e-05 -1.6289926944278881e-05 -7.5987914944988225e-05 -1.5958505193886879e-05 -1.8946808395866569e-05 -1.8882226569638606e-05 -3.6357839403133011e-05 -3.574194758579959e-05 -4.0425114022500121e-05 -4.1671078261394423e-05 -5.0217740611122746e-05 -7.2950113238439633e-05 -6.9941863747819471e-05 -5.4929946114730555e-05 -4.3660463250116271e-05 -5.54621771509697e-05 -3.4781165351408155e-05 2.3479145209281797e-05 -1.9046147628856802e-05 -1.0810171091724975e-05 -9.2022271226720534e-07 -4.4300702131645488e-05 -5.4455853673141609e-05 -1.8151335782658236e-05 1.0578966052346645e-06 -5.2193262264958306e-05 1.967510419853232e-05 -2.6052253345621541e-05 -2.5035940728757852e-06 -8.5191618928257852e-05 -5.8533048907347509e-05 -3.2952491137614809e-06 -2.342253925581497e-05 -2.5898302921237412e-05 -8.578537484261591e-05 -5.9707345368485427e-05 9.2350036429641979e-06 -1.7290864981132827e-05 -1.7249683529543293e-05 -4.7085974365059692e-05 -3.7717056044806706e-05 -7.0139046782215052e-06 -4.3658848379092619e-06 -4.2765231554080985e-05 -3.9833590665117555e-05 -3.9047126341106895e-05 -3.8054335870352681e-05 -2.1704137692288229e-05 6.2022068461599217e-06 -9.8732391316791717e-06 -9.5012768388646335e-06 -2.6023839667469253e-05 -7.3688820787999772e-06 -7.0214698177772041e-06 3.776110843317095e-06 -3.6082829071075462e-05 -2.0478754423039003e-05 -7.1010874676718803e-05 -5.510009911259021e-05 -7.5161990500647886e-06 4.2411678139489344e-05 7.5574148233860752e-05 -8.2182878580188968e-06 -3.5404162995374551e-06 -2.1294426481395924e-05 -3.0785694324835119e-05 -2.6232935182790638e-05 -1.8570434799877072e-05 4.327522977666938e-06 4.4481321490537394e-06 2.2794415951523468e-05 -7.1407791523677225e-06 -1.7041273073259292e-05 -2.1692322565120985e-05 -1.7132817703291124e-05 -2.2659887563272404e-06 -1.4202494944838204e-05 -6.1352381844814724e-05 -4.9909153804663761e-05 1.4424708352240006e-05 -8.6320566105344419e-05 -6.3824994145992556e-05 -2.5103992452369696e-05 2.5192909793657348e-05 1.6537140322699255e-05 -3.7077786258828821e-06 -2.5293408834858129e-05 -1.4114874076145766e-05 -2.4072539383811035e-05 -5.3279811458397264e-05 -3.9291164170194366e-05 2.0344336969159655e-05 1.0492448914312401e-05 2.6597441259740935e-05 -1.0285802077452375e-05 -8.6429562236820803e-06 3.3920651588610542e-05 2.05429479860831e-05 2.2371835548233229e-05 -1.4543715617788226e-05 2.9335214433524258e-06 -1.5652893935722448e-05 -2.8832671326854198e-05 2.4080765460536414e-06 -3.0480751582231899e-05 -5.8417830394812652e-05 -4.2924099939934276e-05 -1.1609710304628493e-05 1.815523859166348e-05 -9.8397964490802396e-05 -2.465389910952907e-05 -1.5424197578338788e-05 -2.4082381807601219e-05 -3.1128397573980848e-05 -3.3141587926850914e-05 -2.2746110083352219e-05 -1.6254921905669426e-05 -1.9665080147239982e-05 -1.1888898627223027e-06 -6.0607008103999931e-05 6.2054900510849346e-05 -1.7524223374611062e-05 -1.905077169876819e-05 -1.7272311119240918e-05 -1.4565956423659258e-05 5.1829682737938865e-06 -7.9297515697657507e-06 -1.3171380268420641e-05 -1.8359644986410193e-05 -5.1024384789843832e-05 -1.9633896035843037e-05 -7.9480523106016502e-06 -5.7400628059006792e-05 6.5072403236024002e-05 -1.3569170562727738e-05 -1.2309159931896563e-05 -1.8629281712595065e-05 -2.3027741911849076e-05 1.5572139032821489e-05 -2.1476031453641757e-05 -2.9873921792198809e-05 -1.8077949588171797e-05 -4.822279147011384e-05 -3.6432768152814014e-05 -2.0644259144877209e-05 -5.1774031618123141e-05 -7.597671249247144e-05 9.0687220981492756e-06 2.2888455081017563e-05 -5.1171033914915068e-07 -2.7421879217063162e-05 7.643571619370224e-05 -2.7653927186647342e-05 -6.5952093620090394e-06 3.5280297368975311e-05 -1.9579481607168222e-05 -1.0688008406263549e-05 -1.1804014639934472e-05 -2.5673326968137833e-05 -4.6824098015243868e-06 2.3249156770023104e-05 -1.0706161427839062e-05 -7.8848236604852181e-05 -0.00013962881509808325 4.3590285816739018e-05 -4.2194790590722374e-05 4.309569811170687e-05 5.1495574737482359e-05 9.1987547854244255e-05 8.5050571617221148e-05 -1.1888598362912867e-05 -1.9939448443534111e-06 5.277273520606072e-05 2.0772256170438009e-05 -1.2584953885290512e-05 2.1577571700938381e-05 -7.4607372658004253e-06 -6.2859155970890028e-06 5.466291842737888e-06 -2.0311306066827345e-05 2.1719332461358587e-05 -4.1467225385524644e-06 1.2551479108039445e-05 -5.2520943488879382e-06 6.884571350017181e-06 6.6350224669314796e-06 -2.4174133281658133e-05 -2.3065143649674035e-05 -2.4877315371483213e-05 -4.1349493249371672e-06 -4.6810561344205867e-05 3.0997287761701432e-05 6.272379223263506e-07 3.9123085658759069e-06 -2.7035302171219268e-05 -2.9710700444526774e-05 -0.00015236619989663063 -8.182477075941092e-05 -2.9319873363728009e-05 -3.4247892852941916e-05 7.9239068666140961e-07 -7.8688114166614411e-08 -7.0801888602670519e-06 -8.1621323672747252e-05 -5.8730767393757448e-05 4.5182127817900743e-05 -6.6513104286218094e-05 -5.1513673499213024e-05 -2.4678401807065684e-05 6.1294494202936752e-05 -6.9619456983192456e-06 -9.8719674854696148e-06 -5.2062390052383666e-05 -4.7860904620264743e-05 -7.2011209273061498e-05 -0.00011698644478111883 -2.7199849303797207e-05 2.2242403553209195e-05 -3.7982320038542315e-06 1.4754929770906731e-06 -2.6022781744832106e-06 2.0610274866109563e-05 1.9575536296895383e-05 -2.2550040315707891e-05 -1.9228292371154901e-05 -1.415517798253709e-06 5.3222284794115116e-05 -6.8255769196667843e-05 -0.00010608438535262445 -1.1302448054779045e-05 3.8071928290390827e-05 -1.3000309791475869e-05 -6.8819045365566778e-05 -5.2712892313441336e-05 -2.7488724275877308e-05 -9.5878895232785742e-07 3.1956752237465437e-06 -2.7364663804033589e-05 -3.6997361468497046e-05 1.8503456856963944e-05 1.8174581652275856e-05 -2.4777834032603909e-06 -8.8722241897712319e-06 -9.1306692104753739e-06 -1.5634562596629432e-06 7.323537482757398e-05 6.6379059755370881e-07 3.6651765009964731e-05 9.5857823687213461e-07 -8.1444458902535209e-06 -1.5139308836589947e-05 -8.9716273138636891e-06 -9.1339412682322465e-05 -0.00010507722563621923 -2.244608881413112e-05 -2.6451486169571419e-05 2.2899855444737913e-05 -5.0608007494091855e-05 -4.5610636359714454e-05 -5.3939900384469043e-05 -6.614255711050621e-05 -3.7714695771447074e-05 -2.8931500992534836e-05 -3.5323432149249552e-05 -3.4525995549610658e-05 -3.2540899392812521e-05 -3.6679309812789442e-05 -1.1004808175603051e-05 -1.9078110777462787e-05 -4.0648682202340186e-05 -4.1567762641488349e-05 -1.6448638585195765e-05 -4.53189806840013e-05 -5.2944636594427597e-05 7.4439205382216208e-06 -1.8185019146617332e-05 -6.5288668023732457e-05 -5.477660577930418e-05 3.273171213154317e-05 -2.2601433231641231e-05 -3.0684834502550239e-05 1.4048932135760409e-05 -8.5182477021668109e-06 -1.1613790640479789e-05 -9.4711082483320773e-05 -6.7980579131670906e-05 1.3619687467577554e-05 -1.080118587502313e-05 -2.1104824928016423e-05 -4.9927423430524216e-05 -5.5341296872646242e-05 -1.3361947441351918e-05 -2.0786418479786645e-05 -2.2635269831523434e-05 -6.7035669064917379e-06 -2.304342210081932e-05 8.4293391674688167e-05 -3.0173134833300921e-05 -3.3322626158837146e-05 2.2209653721400394e-05 2.0501584323846063e-05 -5.2089441010882336e-05 -9.784129043599184e-06 -6.7168802010730903e-05 -0.00011215178780833688 -6.6121908163756422e-05 -0.00011264370979635065 -6.193286740146984e-05 -8.2920459974633861e-05 -6.8017813847957799e-06 2.4741749416833222e-06 2.5532415824949274e-05 6.3469163670129233e-05 8.2779133635891091e-06 5.0063234123970467e-05 1.3769908966077655e-05 -2.255274563738192e-05 6.6455540702571516e-06 -6.8730897599876778e-06 2.7349680192003006e-06 -7.7426360775378119e-05 -3.984288115564956e-06 9.2629487425906925e-05 8.0090152284656132e-05 2.4604549218658952e-05 -0.00012384288442713676 -7.1522201760055871e-05 -2.5440628605339114e-06 -5.1830127081516856e-05 -3.2899556485121734e-05 -6.2275343822473621e-06 1.6792178449505597e-07 2.1079770034008582e-05 -1.2784632729306508e-05 -4.0133638218787935e-05 -4.4365775134167477e-05 -1.4033682338380004e-05 -1.4082802699736871e-05 -1.82501663601712e-05 -1.8437818858038938e-05 -3.3266255030877604e-05 -2.5397930603316799e-05 -4.7796174287260501e-05 -5.820755776876773e-05 -5.6059524205888996e-05 -9.7471280662333234e-05 -5.0462408029990091e-05 -1.4482336108175793e-05 -1.1362223315420847e-05 -7.9587379702231349e-05 -0.00010572270102179029 -2.432665419645025e-05 1.8504875691728628e-05 -7.2318342740328937e-05 -0.0001303786416149609 -3.6814772874441235e-05 -6.9550613291105654e-05 -5.1889814458646885e-05 0.00010167521074182966 -9.6903819794112833e-05 -6.2774060539808347e-05 -2.8567357693798151e-05 -2.8524673708173165e-05 5.8015655977382605e-07 -1.9009314950507738e-05 -8.8885372170171417e-06 9.0090729690439717e-05 -4.9123594538450729e-05 -2.2077031304070988e-05 6.9065061989396787e-05 -4.577995502802551e-05 -0.00015622935832389386 -8.468476364188e-05 3.5884528176763608e-06 -6.6616189537403026e-05 -7.6717138241381657e-05 3.4260676259871412e-05 -3.0299366596773462e-05 -1.8911660937744864e-05 6.0964476473162298e-05 -9.7323602834282347e-06 -1.2815308764782952e-05 7.187606525838042e-06 -2.0289800022123955e-05 -2.7318741502984148e-05 2.6985543231473896e-05 -3.3527509769879642e-05 3.3025737452837433e-05 -5.9337224634850453e-05 -2.9887663540722077e-05 -5.1499408598692847e-05 -4.5960977783778478e-05 -6.4739446750527107e-05 -5.7056216693016155e-05 -5.2399005950441052e-05 -4.6609489492890869e-05 -5.1063896118422517e-05 -4.338751816207371e-05 -4.3359381388588364e-05 -1.2512039239313192e-05 1.264388486250363e-05 -1.6789440529287451e-05 -8.0595284909607771e-06 -1.6511746683560175e-05 1.061983257135855e-05 -4.9729683409159217e-06 -8.5715837990316991e-05 -0.00016022972045372046 2.7148836126570167e-06 1.9575726876079646e-05 -4.0846241561907231e-05 -2.521561082992773e-05 -3.4342262558236326e-05 -2.9114321845621419e-05 4.534236446677081e-05 -6.337265035321402e-05 -5.7768375177019192e-05 -7.8218725422141372e-05 -9.287171487093938e-05 -7.2081669563912225e-05 4.9383427296853565e-05 1.9604433702540892e-05 -1.7581748075887416e-05 -3.7740366538817786e-05 -7.2634810033185774e-06 -5.2335202297946548e-05 1.8014712995798477e-05 -2.8028328157062847e-05 -2.7051104099640775e-05 6.6543646349226924e-05 -0.0001286149695888454 -2.2229649213387473e-05 -5.0243774278116476e-05 -5.9253836983173629e-05 -8.1362455893394207e-06 -6.5253814060932305e-05 -0.00010795411603463504 3.6486822929190574e-05 -2.8727239102208178e-05 1.9998642186156432e-05 -3.3602292135969367e-06 -7.5475336981250282e-06 -1.6385426111283024e-05 -2.5562200277888966e-05 -2.9727655375980307e-05 5.1734615464790951e-05 4.435867075542768e-05 -2.4202700482027278e-05 -2.1099039488167411e-05 9.126216477853364e-06 2.865773481840108e-06 -8.3651538724735519e-07 2.3728394034148829e-05 -2.2959055672937629e-05 3.2158754242526629e-05 6.3573047437246062e-06 -5.052350168097304e-05 -5.7509631660560359e-05 -9.6338708456528968e-05 1.1774475239393966e-05 1.960213762165205e-05 -2.1406347996106989e-05 -2.5909989803108642e-05 -0.00010348313336510158 -6.4526481805594823e-05 -5.9061075054931165e-05 3.9734468011348029e-05 -1.9307349218282205e-05 -2.6824496109680581e-05 -1.6082100082059949e-05 -3.4835446660861713e-05 -4.006489621658345e-05 -3.6902943125230561e-06 8.0558596963212149e-06 -5.2292697142905097e-05 -5.6741736185093373e-05 -9.2459147293375444e-05 -1.8800072457216682e-05 -2.3572801782276555e-05 -5.1238314138400073e-05 -4.5348034635857123e-05 -1.52588361591291e-05 -6.3009077457756158e-05 -7.4597037666262393e-05 -1.3242804214006444e-05 -3.5773867006322867e-05 -2.5171453759047694e-05 5.9565108648814802e-05 7.9257519029658991e-05 -7.5961258507106332e-05 6.7663811252022027e-05 5.2029138434270326e-05 -3.82745798819582e-05 -2.9390253032175387e-05 -7.3496839629908287e-05 -3.3311094978841747e-07 5.7965142981359328e-05 -2.5648923960415796e-05 -6.6717431508538108e-05 -0.00011366428663211635 -3.4203619087400713e-05 5.6317275995043832e-06 -1.2625414106568638e-05 1.3723582310630329e-05 -7.130625782729479e-05 -5.7560874975993146e-05 -7.8926317029591174e-05 1.002308412329921e-05 -4.4528562903625206e-05 3.2519189942294449e-05 -2.1715946716016706e-05 -1.2200179939677496e-05 -6.8591327327596513e-05 -0.00011737021713862961 -4.6768136431198109e-05 -7.0204868337797751e-06 1.6260521951897539e-05 -3.3635298620948647e-05 -2.4830211924958042e-05 -3.7967541753009516e-05 -4.0634612833955611e-05 -2.4631868078986083e-05 -2.6700205566628439e-05 -6.9744161274114399e-05 -0.00012532227039399737 -3.4020312255168285e-05 6.021990379353906e-05 4.068831040217975e-05 -2.5065884784300843e-05 6.9624841149177122e-05 -2.0703705979204195e-06 -2.2856512598339019e-05 5.1114008920304923e-05 8.9099748899146508e-05 -6.5584897872510432e-05 -4.3571609021941636e-05 -1.7938584102883391e-05 -5.8719685398490179e-05 6.7901366005637676e-06 -2.2673654376275407e-05 -2.8626734601852133e-05 5.5493447814966741e-05 -3.8117659101651472e-05 -1.7191742734588166e-05 -1.1643582011237124e-05 1.7804277448989192e-05 4.7742649785585342e-05 8.5967275667095866e-05 3.9968470248569475e-05 1.0641302391658502e-05 -1.1399998358469372e-05 2.5726742555227651e-05 -3.2426366052003329e-05 -5.0154443549765745e-05 -4.2276297169782081e-05 -4.6742994336836509e-05 1.2034845841669235e-06 1.8108935519049242e-05 -1.2770404007887025e-05 -1.6360993655930309e-05 -2.5960165871774251e-05 -1.7141153914246993e-05 -2.4796207641445536e-05 -1.4325783613679949e-05 -1.2932274661004123e-05 -1.6676707332517212e-05 0.00011186518645336374 -2.4436639208809447e-05 -3.1136609929827315e-05 9.9362042170958106e-07 8.920268213880294e-05 8.7623322384695218e-05 4.5510998947500582e-05 1.626596549392581e-06 7.5991724964706701e-07 4.8815133098231017e-05 1.3030742708856902e-06 -2.5699060852839256e-05 -2.6536322390435465e-05 -3.8199636463387735e-05 -2.8052059189857858e-05 -3.1219672998711691e-05 -2.137201642800823e-05 -1.2268852466978258e-05 3.4280331185426987e-05 6.475965734954232e-05 -1.151209366338573e-07 -3.4284828815366584e-05 8.5382794773365559e-06 3.7582999095077971e-05 -1.4873006495427017e-05 -1.5178898949294465e-05 -7.2060035699477755e-06 -2.5493375295173541e-05 -6.3974916002467841e-06 2.9685728859764533e-06 -3.2734771749658539e-05 -5.9962153602750114e-06 1.9802116144711766e-05 -2.3362922096908307e-05 4.1242492949802433e-05 1.9627565904106054e-05 -1.1508241016963303e-05 -4.9443564941245281e-05 -4.1118036443633113e-06 1.5578444500545725e-06 0.00012988490094972209 0.0001130262182046603 5.6630682899159318e-05 1.2579483471936587e-05 -3.5290969563298458e-05 -3.4523703891289942e-05 -6.9749922401755684e-05 -5.4108461497280669e-05 -1.6982777908275923e-05 -6.9375722647442096e-05 -7.2825031773783889e-05 -9.2650098633298336e-05 -9.852435729897763e-05 -1.984060143772021e-05 -2.1764919758759745e-05 3.1358473644159694e-05 2.9019732535119505e-05 3.7022729558481944e-05 -8.2774052527750247e-07 2.6421811061777733e-06 1.6462866355127828e-05 3.5746927983345467e-05 9.0486797623862569e-07 -6.8862621760279864e-06 -2.9794393683943822e-06 -8.6099819825676831e-05 -0.00011615704382243562 -0.00011279549828888641 -8.4586217997922468e-05 -1.1840695865086089e-05 -2.9557321663942459e-05 -2.0787642453233383e-05 -2.4893699641613044e-05 -2.5314374877015774e-05 -2.2594790869310949e-05 -2.2202765887548093e-05 5.0607437115364262e-05 0.00024392576789010315 -3.2472412336313907e-05 1.45756177076311e-05 -4.0636174325891106e-06 -1.5307564702258073e-05 2.3728596831692345e-05 -1.9245436170289973e-05 4.4873795627312367e-05 -1.2393414427590147e-07 -2.5861532472242366e-05 1.8435437825743781e-06 4.0120742994839524e-06 -2.1875860539568182e-05 2.9640541188146754e-05 -2.6038954586839855e-05 -3.1701469358596043e-05 -3.8144878119209338e-05 -3.5422379199580286e-05 -1.1955096020368448e-05 -7.5610488220359366e-06 -2.8889105830421145e-05 -2.1566423793624044e-05 -2.3951232629029119e-05 -1.982948928668459e-05 -1.6304221775062478e-06 8.3624110455317443e-06 -1.3086424532256723e-05 7.3495279984368399e-05 2.4835181712457542e-05 -3.1434717475916675e-06 1.0660777157423928e-05 -3.1484903769986826e-06 -3.3213384101858645e-05 -8.734745810846066e-06 -4.4905407434901387e-06 -5.4379368374037439e-07 1.7185074096145309e-05 7.4511984023226813e-07 1.8764053100455563e-06 3.6701618477299851e-06 -3.1583454713561467e-05 1.422853944665507e-05 5.4382502581671005e-05 9.8202162279505405e-05 -2.1022477352996794e-05 -4.6865353176665098e-05 -5.375707232431557e-05 -2.6533700430807154e-05 -1.6058003738343329e-05 -2.5394727550962064e-05 -1.1291677056878238e-05 -3.551007250170244e-05 -6.7434821446003129e-06 -1.1211960307330954e-05 -6.3261209858576903e-05 -8.826701249166928e-05 -7.3523077233034022e-05 -5.5322470246498021e-05 -1.5194226567027804e-05 -4.8172222804894298e-05 4.8911883839550599e-06 -3.332200372305541e-07 -2.8057761242984968e-05 -2.9888208752912006e-05 -1.7585893048434548e-05 -1.5176570476106477e-05 -5.1494494860624875e-05 -4.6664159796647837e-05 -3.1471689946226599e-05 6.2616938872612615e-07 -2.553467859124868e-05 -6.0871248306498295e-06 -4.42431264958633e-05 -1.9897516824398452e-05 -3.1583490248903931e-05 1.8967551032353925e-05 4.039492027293947e-05 -2.4247492994038591e-05 3.0349037132950188e-06 -3.3002011256338601e-06 1.9699650949903981e-05 2.0033850024608023e-05 4.2481371919598013e-05 1.8639820262059646e-06 4.5175080103023769e-05 -3.0430316530030178e-06 -3.1379530930981145e-05 -1.3055986013696137e-05 -1.9785823458240859e-05 -2.3944797159624714e-05 -2.061522201348971e-05 4.5249106354647833e-05 -2.549413815407749e-05 -3.0831820737146475e-05 -3.5297166286842475e-05 -6.646407623286249e-05 -3.0881996983570751e-05 2.6326973305753693e-05 -2.141424645668989e-06 -6.043660252903196e-06 4.8343615541480642e-05 -2.7346926705679132e-05 -4.4878579717794642e-05 1.8517313640447638e-05 2.0370376839415416e-05 -1.2091654902408877e-05 -1.8086336908631801e-05 -1.2042628051286885e-05 -3.7130144359078963e-06 7.1016817456721806e-05 -1.8806629588070814e-05 -4.4319213733383165e-05 -2.5169026219413138e-05 6.0054196361082482e-05 -2.7061668801205705e-05 -3.967603990823201e-05 -5.3479901956526822e-05 5.0103367581613495e-06 
</DataArray>
</CellData>
</Piece>
</UnstructuredGrid>
</VTKFile>
