<?xml version="1.0"?>
<VTKFile type="UnstructuredGrid" version="0.1" byte_order="LittleEndian">
<UnstructuredGrid>
<Piece NumberOfPoints="3142" NumberOfCells="1054">
<Points>
<DataArray type="Float64" NumberOfComponents="3" format="ascii">
0.5 0.29999999999999999 0 0.54999999999999993 0.29999999999999999 0 0.54999999999999993 0.29999999999999999 0 0.59999999999999976 0.29999999999999999 0 0.59999999999999976 0.29999999999999999 0 0.6499999999999998 0.29999999999999999 0 0.6499999999999998 0.29999999999999999 0 0.69999999999999984 0.29999999999999999 0 0.69999999999999984 0.29999999999999999 0 0.74999999999999989 0.29999999999999999 0 0.74999999999999989 0.29999999999999999 0 0.79999999999999982 0.29999999999999999 0 0.79999999999999982 0.29999999999999999 0 0.84999999999999987 0.29999999999999999 0 0.84999999999999987 0.29999999999999999 0 0.89999999999999991 0.29999999999999999 0 0.89999999999999991 0.29999999999999999 0 0.94999999999999996 0.29999999999999999 0 0.94999999999999996 0.29999999999999999 0 1 0.29999999999999999 0 0.5 0.69999999999999996 0 0.54999999999999993 0.69999999999999996 0 0.54999999999999993 0.69999999999999996 0 0.59999999999999976 0.69999999999999996 0 0.59999999999999976 0.69999999999999996 0 0.6499999999999998 0.69999999999999996 0 0.6499999999999998 0.69999999999999996 0 0.69999999999999984 0.69999999999999996 0 0.69999999999999984 0.69999999999999996 0 0.74999999999999989 0.69999999999999996 0 0.74999999999999989 0.69999999999999996 0 0.79999999999999982 0.69999999999999996 0 0.79999999999999982 0.69999999999999996 0 0.84999999999999987 0.69999999999999996 0 0.84999999999999987 0.69999999999999996 0 0.89999999999999991 0.69999999999999996 0 0.89999999999999991 0.69999999999999996 0 0.94999999999999996 0.69999999999999996 0 0.94999999999999996 0.69999999999999996 0 1 0.69999999999999996 0 0.40076539126862748 0.34589349467022118 0 0.33277555741076909 0.36432196682010132 0 0.36575549820117997 0.31677992835137742 0 0.38083244760691543 0.38531983672244652 0 0.33277555741076909 0.36432196682010132 0 0.40076539126862748 0.34589349467022118 0 0.56836770495988642 0.3523062350852913 0 0.52289427570932567 0.3932284363388488 0 0.52752007115234678 0.33170632466418198 0 0.52752007115234678 0.33170632466418198 0 0.52289427570932567 0.3932284363388488 0 0.49077833859261139 0.35229981449445641 0 0.10000000000041601 1 0 0.053064897599294662 0.95186845269532028 0 0.10266856499240549 0.95548163909968886 0 0.099999999999814668 0 0 0.10266856499169109 0.044518360900210059 0 0.053064897599215843 0.048131547304697528 0 0.050000000000207989 1 0 0.053064897599294662 0.95186845269532028 0 0.10000000000041601 1 0 0.049999999999899652 0 0 0.099999999999814668 0 0 0.053064897599215843 0.048131547304697528 0 0.24999999999941211 0 0 0.29999999999926641 0 0 0.27499999999933927 0.060310814194988557 0 0.30000000000124832 1 0 0.25000000000104028 1 0 0.27609987656793722 0.94991445621608572 0 0.15720202157091859 0.60665697304410315 0 0.19914261668318661 0.62286739485272158 0 0.16500388252850301 0.66612077714085194 0 0.2236846579037573 0.67380363126050236 0 0.16500388252850301 0.66612077714085194 0 0.19914261668318661 0.62286739485272158 0 0.1247745017231483 0.27198077544791172 0 0.168349569971391 0.28054490850913671 0 0.14223753364722069 0.3341983344262433 0 0 0.75000000000034661 0 0 0.7000000000006934 0 0.049706944316475897 0.72477277076253799 0 0 0.30000000000124832 0 0 0.25000000000104028 0 0.049706944316556423 0.27522722923869108 0 0.59999999999999976 0.29999999999999999 0 0.61959173890754571 0.33832250091341232 0 0.56836770495988642 0.3523062350852913 0 0.5 0.69999999999999996 0 0.43323420005758778 0.6913544522562407 0 0.47913475093885149 0.66010775372412711 0 1 0.14999999999961891 0 0.95391631417672862 0.19584263333809451 0 0.93677536231883773 0.14999999999999089 0 1 0.84999999999982645 0 0.95391631417670719 0.89584263333814784 0 0.93677536231884972 0.85000000000000286 0 1 0.84999999999982645 0 0.93677536231884972 0.85000000000000286 0 0.95386563387742829 0.80414874155775029 0 1 0.14999999999961891 0 0.93677536231883773 0.14999999999999089 0 0.95386563387744361 0.1041487415577465 0 0.90416666666660628 0.9041666666666166 0 0.88088768115933802 0.84674609810493673 0 0.93677536231884972 0.85000000000000286 0 0.90416666666668166 0.20416666666667119 0 0.88088768115941807 0.14674609810479519 0 0.93677536231883773 0.14999999999999089 0 0.1247745017231483 0.27198077544791172 0 0.14223753364722069 0.3341983344262433 0 0.093851963071650835 0.30582068233324772 0 0.5 0.69999999999999996 0 0.45582236402875981 0.73896743678908217 0 0.43323420005758778 0.6913544522562407 0 0.55000000000173355 1 0 0.50000000000205869 1 0 0.52122150208832174 0.94089974453840242 0 0.49999999999869432 0 0 0.5499999999988151 0 0 0.52375890611712683 0.059318771819432882 0 0.54999999999999993 0.29999999999999999 0 0.59999999999999976 0.29999999999999999 0 0.56836770495988642 0.3523062350852913 0 0.50202631463681879 0.87892870825713787 0 0.44003836461056539 0.88093474584252718 0 0.45677673713123867 0.84253684404072415 0 0.33403534827021109 0.84402799729020661 0 0.35864759629805099 0.87963482415279515 0 0.30864387279288652 0.89906554525974958 0 0.53245488764484505 0.55078124999999989 0 0.47793794143994173 0.52940715638744962 0 0.53330375813596242 0.50827942741749099 0 0.82709327591102189 0.14937141670914489 0 0.81283102246527783 0.1881007222486438 0 0.77144070960558853 0.14311854477243749 0 0.82709327591091286 0.84937141670920724 0 0.81159157511211755 0.88795995483179491 0 0.76901770135486491 0.84293557325473656 0 0.77144070960558853 0.14311854477243749 0 0.81283102246527783 0.1881007222486438 0 0.76587607630038135 0.18880039518954719 0 0.76901770135486491 0.84293557325473656 0 0.81159157511211755 0.88795995483179491 0 0.76891166905518427 0.88835469571185499 0 0.33403534827021109 0.84402799729020661 0 0.30864387279288652 0.89906554525974958 0 0.29209212897034281 0.84715728365233667 0 0.57412547362576272 0.58273804879550706 0 0.5166924242153631 0.59825134841919447 0 0.53245488764484505 0.55078124999999989 0 0.50202631463681879 0.87892870825713787 0 0.47401147028110507 0.91529957330468115 0 0.44003836461056539 0.88093474584252718 0 0.5 0.69999999999999996 0 0.54999999999999993 0.69999999999999996 0 0.55363780716230748 0.74348740161571747 0 1 0.34999999999993492 0 0.95871855522754235 0.40006508612975411 0 0.95780851984364423 0.34215720972155339 0 1 0.64999999999986979 0 0.9578014258160763 0.65787212321113708 0 0.95867599106212187 0.60011091146651041 0 0.46666084890304671 0.57634471035397938 0 0.47793794143994173 0.52940715638744962 0 0.53245488764484505 0.55078124999999989 0 0.94999999999999996 0.29999999999999999 0 0.89898474358614167 0.25391965591104898 0 0.94399509803921056 0.24399509803922639 0 0.94999999999979179 1 0 0.89898474358632463 0.95391965591118966 0 0.94399509803919068 0.9439950980391687 0 0 0.65000000000104008 0 0.050069554451969707 0.61308520079857043 0 0.046634677244967337 0.671418230738282 0 0 0.35000000000145642 0 0.046389130980076937 0.32668781832131749 0 0.050583896093752537 0.38543522283434112 0 0.50202631463681879 0.87892870825713787 0 0.50627822638148745 0.8263979829520941 0 0.55899371797446828 0.85003102233514438 0 0.54782696902220018 0.79245182748204157 0 0.55899371797446828 0.85003102233514438 0 0.50627822638148745 0.8263979829520941 0 0.50945740445113552 0.75476055527778108 0 0.5 0.69999999999999996 0 0.55363780716230748 0.74348740161571747 0 0.84999999999965292 1 0 0.85170973911348691 0.93569607295217616 0 0.89898474358632463 0.95391965591118966 0 0.84999999999999987 0.29999999999999999 0 0.8517097391133297 0.2356960729520409 0 0.89898474358614167 0.25391965591104898 0 0.86956835336234861 0.571283299838105 0 0.82862096804812391 0.55037090955459045 0 0.86907294890112186 0.52008116128001669 0 0.49102375406324739 0.49123754822244059 0 0.53330375813596242 0.50827942741749099 0 0.47793794143994173 0.52940715638744962 0 0.57611405284611883 0.50165903596042916 0 0.61547661924074692 0.48539576058873962 0 0.62042975506801734 0.54295974692364424 0 0.71406021706547751 0.63292083137662503 0 0.67529834988829951 0.61613270668143583 0 0.71809016091162536 0.58185040402320831 0 0.65000000000104008 1 0 0.62065498684670595 0.95224934003983619 0 0.68015064798562208 0.95924320340003011 0 0.84999999999960507 0 0 0.899991664607802 0.045289349238254978 0 0.85491058998398861 0.060047533455626502 0 0.84999999999999987 0.69999999999999996 0 0.89999166460796554 0.74528934923809909 0 0.85491058998424563 0.76004753345552634 0 0.89999999999999991 0.29999999999999999 0 0.89898474358614167 0.25391965591104898 0 0.94999999999999996 0.29999999999999999 0 0.94999999999979179 1 0 0.89999999999958358 1 0 0.89898474358632463 0.95391965591118966 0 0.86411095495256451 0.42388805655111889 0 0.81308179852519835 0.39754945808726527 0 0.86844634540301924 0.38530937474099819 0 0.5 0.29999999999999999 0 0.49695729691142171 0.25014895411178018 0 0.54248833945060504 0.2520322959927106 0 0.86411095495256451 0.42388805655111889 0 0.81973119833356312 0.43505687159469048 0 0.81308179852519835 0.39754945808726527 0 0.67323294229744413 0.57556450033612505 0 0.71809016091162536 0.58185040402320831 0 0.67529834988829951 0.61613270668143583 0 0.6236733212988993 0.14864538214901801 0 0.68391457121233579 0.14440470121196541 0 0.64011864159029941 0.18789607982138171 0 0 0.050000000000207989 0 0.053064897599215843 0.048131547304697528 0 0.044310582753132287 0.101412518374475 0 0 0.94999999999979179 0 0.0443105827531413 0.89858748162559932 0 0.053064897599294662 0.95186845269532028 0 1 0.34999999999993492 0 1 0.39999999999978308 0 0.95871855522754235 0.40006508612975411 0 1 0.59999999999973963 0 1 0.64999999999986979 0 0.95867599106212187 0.60011091146651041 0 0 0.84999999999965292 0 0.065374659239661639 0.8551091961254178 0 0.0443105827531413 0.89858748162559932 0 0 0.15000000000062411 0 0.044310582753132287 0.101412518374475 0 0.065374659239632718 0.1448908038746782 0 0.16500388252850301 0.66612077714085194 0 0.1020579365089687 0.69352219419301997 0 0.1241190223511371 0.64391885572885044 0 0.14999999999970359 0 0 0.14618258501891079 0.062070108745602003 0 0.10266856499169109 0.044518360900210059 0 0.15000000000062411 1 0 0.10266856499240549 0.95548163909968886 0 0.14617343800780541 0.93808063414349496 0 0.7152569930854884 0.5237994455134295 0 0.67569444444444449 0.53500863336860327 0 0.69385896817107129 0.48377516041410151 0 0.6541250972820879 0.49999999999999989 0 0.62042975506801734 0.54295974692364424 0 0.61547661924074692 0.48539576058873962 0 0.94999999999999996 0.69999999999999996 0 0.94399509803918602 0.75600490196082126 0 0.89999166460796554 0.74528934923809909 0 0.94999999999986839 0 0 0.94399509803922566 0.056004901960802607 0 0.899991664607802 0.045289349238254978 0 0.6541250972820879 0.49999999999999989 0 0.69385896817107129 0.48377516041410151 0 0.67569444444444449 0.53500863336860327 0 0.82862096804812391 0.55037090955459045 0 0.81723410853263523 0.59419663659258926 0 0.77151014687832564 0.54436834383023036 0 0.7250000000005199 0.89375000000045834 0 0.66412543161245952 0.88015090885499059 0 0.68697391633157634 0.84450604838764298 0 0 0.94999999999979179 0 0 0.89999999999958358 0 0.0443105827531413 0.89858748162559932 0 0 0.10000000000041601 0 0 0.050000000000207989 0 0.044310582753132287 0.101412518374475 0 0.16500388252850301 0.66612077714085194 0 0.15332765547575641 0.71200081858233666 0 0.1020579365089687 0.69352219419301997 0 0.90299850604011456 0.79563452813489832 0 0.93677536231884972 0.85000000000000286 0 0.88088768115933802 0.84674609810493673 0 0.90299850604006393 0.09563452813493091 0 0.93677536231883773 0.14999999999999089 0 0.88088768115941807 0.14674609810479519 0 0.68391457121233579 0.14440470121196541 0 0.6865991819015953 0.189116534044597 0 0.64011864159029941 0.18789607982138171 0 0.085622222639554768 0.53333248912060549 0 0.1216098864341134 0.50637075089503902 0 0.1154888278694548 0.56733818459978413 0 0.21858834311891909 0.81980263716112767 0 0.22556077506376701 0.77837424984191617 0 0.26104540868854792 0.81401944968719064 0 0.81723410853263523 0.59419663659258926 0 0.77293540622714185 0.59448302402785813 0 0.77151014687832564 0.54436834383023036 0 0.1154888278694548 0.56733818459978413 0 0.1216098864341134 0.50637075089503902 0 0.14934928745814749 0.55042914607228977 0 0.1216098864341134 0.50637075089503902 0 0.068743045408989428 0.48853989837882689 0 0.113541300460994 0.46208784312094731 0 0.078358742472063481 0.43365249433908948 0 0.113541300460994 0.46208784312094731 0 0.068743045408989428 0.48853989837882689 0 0.83573492347052902 0.36590755630746369 0 0.81308179852519835 0.39754945808726527 0 0.78145581580700685 0.34881365920033602 0 0.57611405284611883 0.50165903596042916 0 0.62042975506801734 0.54295974692364424 0 0.57435499076887508 0.54267261987897775 0 0.86956835336234861 0.571283299838105 0 0.81723410853263523 0.59419663659258926 0 0.82862096804812391 0.55037090955459045 0 0.46666084890304671 0.57634471035397938 0 0.53245488764484505 0.55078124999999989 0 0.5166924242153631 0.59825134841919447 0 0.89999999999999991 0.69999999999999996 0 0.94999999999999996 0.69999999999999996 0 0.89999166460796554 0.74528934923809909 0 0.89999999999973679 0 0 0.94999999999986839 0 0 0.899991664607802 0.045289349238254978 0 0.84999999999960507 0 0 0.89999999999973679 0 0 0.899991664607802 0.045289349238254978 0 0.84999999999999987 0.69999999999999996 0 0.89999999999999991 0.69999999999999996 0 0.89999166460796554 0.74528934923809909 0 0.43545892161006339 0.61093128915313821 0 0.4089290844030305 0.58728915500154233 0 0.46666084890304671 0.57634471035397938 0 0.1650278706801647 0.38791388161335733 0 0.1117088112799664 0.38831403004970022 0 0.14223753364722069 0.3341983344262433 0 0.087545339447545459 0.35122518864182262 0 0.14223753364722069 0.3341983344262433 0 0.1117088112799664 0.38831403004970022 0 0.6916490518212759 0.75387992374886192 0 0.72501250972655151 0.74067302935308721 0 0.72500000000000064 0.7952620967744265 0 0.72501250972655151 0.74067302935308721 0 0.75841349681148107 0.75422312624214749 0 0.72500000000000064 0.7952620967744265 0 0.57412547362576272 0.58273804879550706 0 0.53245488764484505 0.55078124999999989 0 0.57435499076887508 0.54267261987897775 0 1 0.54999999999963112 0 0.95867599106212187 0.60011091146651041 0 0.93732437411268477 0.55911392101136159 0 1 0.44999999999963131 0 0.93814194660195893 0.44426664081746747 0 0.95871855522754235 0.40006508612975411 0 0.4089290844030305 0.58728915500154233 0 0.42644501560315817 0.54603747078095544 0 0.46666084890304671 0.57634471035397938 0 0.89999999999958358 1 0 0.84999999999965292 1 0 0.89898474358632463 0.95391965591118966 0 0.84999999999999987 0.29999999999999999 0 0.89898474358614167 0.25391965591104898 0 0.89999999999999991 0.29999999999999999 0 0.29999999999926641 0 0 0.32541448401678508 0.046215317981507749 0 0.27499999999933927 0.060310814194988557 0 0.30000000000124832 1 0 0.27609987656793722 0.94991445621608572 0 0.32544832635163229 0.95485394099568932 0 0.57412547362576272 0.58273804879550706 0 0.62042975506801734 0.54295974692364424 0 0.63065402604362242 0.59661356661633302 0 0.5 0.29999999999999999 0 0.54248833945060504 0.2520322959927106 0 0.54999999999999993 0.29999999999999999 0 0.67323294229744413 0.57556450033612505 0 0.62042975506801734 0.54295974692364424 0 0.67569444444444449 0.53500863336860327 0 0.6541250972820879 0.49999999999999989 0 0.67569444444444449 0.53500863336860327 0 0.62042975506801734 0.54295974692364424 0 1 0.14999999999961891 0 1 0.19999999999974799 0 0.95391631417672862 0.19584263333809451 0 1 0.84999999999982645 0 1 0.8999999999998336 0 0.95391631417670719 0.89584263333814784 0 1 0.7999999999998193 0 1 0.84999999999982645 0 0.95386563387742829 0.80414874155775029 0 1 0.099999999999753911 0 1 0.14999999999961891 0 0.95386563387744361 0.1041487415577465 0 0.4656888918609538 0.78493261229743638 0 0.50627822638148745 0.8263979829520941 0 0.45677673713123867 0.84253684404072415 0 0.6879972333610942 0.43038561374960838 0 0.72622533758026719 0.40265885511101601 0 0.73483647259922602 0.44789725365921768 0 0.67323294229744413 0.57556450033612505 0 0.67569444444444449 0.53500863336860327 0 0.71809016091162536 0.58185040402320831 0 0.7152569930854884 0.5237994455134295 0 0.71809016091162536 0.58185040402320831 0 0.67569444444444449 0.53500863336860327 0 0.65394964615507722 0.22666784374016369 0 0.59814117807200873 0.23398510860739519 0 0.64011864159029941 0.18789607982138171 0 0.55000000000173355 1 0 0.52122150208832174 0.94089974453840242 0 0.57382506491224949 0.9629411906298494 0 0.39801143831225599 0.16651381068160659 0 0.44288491854585582 0.14116182884956319 0 0.42905200079338551 0.19982395548231649 0 0.47357141910802508 0.1873585799078378 0 0.42905200079338551 0.19982395548231649 0 0.44288491854585582 0.14116182884956319 0 0.90594285160987287 0.4141265964174129 0 0.88594198078881503 0.46167788676578442 0 0.86411095495256451 0.42388805655111889 0 0.65507451745379841 0.92229208810758578 0 0.68015064798562208 0.95924320340003011 0 0.62065498684670595 0.95224934003983619 0 0.35312867752657662 0.084946736076730367 0 0.39591832466117061 0.056982757562006353 0 0.39823268594401579 0.1116623613130045 0 0.43698630808430822 0.080423614171545449 0 0.39823268594401579 0.1116623613130045 0 0.39591832466117061 0.056982757562006353 0 0.4367309254023824 0.92065556789053882 0 0.39641108128798319 0.94356127926187128 0 0.39767323751400468 0.89584229130535065 0 0.35752321586431363 0.9185439911803448 0 0.39767323751400468 0.89584229130535065 0 0.39641108128798319 0.94356127926187128 0 0.77354604466818633 0.40378688774472771 0 0.77972660463949339 0.45529290596363098 0 0.73483647259922602 0.44789725365921768 0 0.5499999999988151 0 0 0.57396793757665954 0.037011367187645222 0 0.52375890611712683 0.059318771819432882 0 0.64753070846764316 0.77332939069435502 0 0.60294066490120068 0.80851322453934582 0 0.59636844454254345 0.75937156204589151 0 0.49102375406324739 0.49123754822244059 0 0.48858720058566618 0.43964267759203868 0 0.53823865529665704 0.45873898050322898 0 0.28307294598219601 0.50789252727458634 0 0.29110487519241501 0.56588143995431495 0 0.25115337790845271 0.54719303014923271 0 0.79680861578988083 0.92656778056766709 0 0.81159157511211755 0.88795995483179491 0 0.85170973911348691 0.93569607295217616 0 0.79680861578956375 0.22656778056752541 0 0.81283102246527783 0.1881007222486438 0 0.8517097391133297 0.2356960729520409 0 0.57412547362576272 0.58273804879550706 0 0.57435499076887508 0.54267261987897775 0 0.62042975506801734 0.54295974692364424 0 0.93814194660195893 0.44426664081746747 0 0.88594198078881503 0.46167788676578442 0 0.90594285160987287 0.4141265964174129 0 0.7152569930854884 0.5237994455134295 0 0.73947346780852752 0.49062440112282169 0 0.77151014687832564 0.54436834383023036 0 0 0.7000000000006934 0 0.046634677244967337 0.671418230738282 0 0.049706944316475897 0.72477277076253799 0 0 0.30000000000124832 0 0.049706944316556423 0.27522722923869108 0 0.046389130980076937 0.32668781832131749 0 0.59814117807200873 0.23398510860739519 0 0.59443395090188023 0.18455690917515069 0 0.64011864159029941 0.18789607982138171 0 0.21858834311891909 0.81980263716112767 0 0.26104540868854792 0.81401944968719064 0 0.2401283238295133 0.85648409884788523 0 0.39536230704883951 0.84069429572832477 0 0.45677673713123867 0.84253684404072415 0 0.44003836461056539 0.88093474584252718 0 0.086179601630648681 0.64647209519980475 0 0.050069554451969707 0.61308520079857043 0 0.1024350934457823 0.60772393977513839 0 0.077693244765132896 0.56932317963405099 0 0.1024350934457823 0.60772393977513839 0 0.050069554451969707 0.61308520079857043 0 0.078358742472063481 0.43365249433908948 0 0.050583896093752537 0.38543522283434112 0 0.1117088112799664 0.38831403004970022 0 0.087545339447545459 0.35122518864182262 0 0.1117088112799664 0.38831403004970022 0 0.050583896093752537 0.38543522283434112 0 0.33403534827021109 0.84402799729020661 0 0.35642984951668422 0.80994399665655703 0 0.39536230704883951 0.84069429572832477 0 0.28307294598219601 0.50789252727458634 0 0.33190227185843768 0.52715113583864037 0 0.29110487519241501 0.56588143995431495 0 0.2236846579037573 0.67380363126050236 0 0.19068556247388771 0.71028988922845504 0 0.16500388252850301 0.66612077714085194 0 0.26104540868854792 0.81401944968719064 0 0.22556077506376701 0.77837424984191617 0 0.2792923945214143 0.77665808831789485 0 0.38244435121258652 0.51653317813019495 0 0.37272913873093971 0.56192925302619479 0 0.33190227185843768 0.52715113583864037 0 0.25195515620380449 0.25883339815888678 0 0.29132859388405002 0.27203693976649962 0 0.24432083401701241 0.3006253385567515 0 0.29348325746214782 0.31350119524708198 0 0.24432083401701241 0.3006253385567515 0 0.29132859388405002 0.27203693976649962 0 0 0.89999999999958358 0 0 0.84999999999965292 0 0.0443105827531413 0.89858748162559932 0 0 0.15000000000062411 0 0 0.10000000000041601 0 0.044310582753132287 0.101412518374475 0 0.59999999999999976 0.69999999999999996 0 0.59636844454254345 0.75937156204589151 0 0.55363780716230748 0.74348740161571747 0 0.1650278706801647 0.38791388161335733 0 0.22033343844674469 0.36963382230740238 0 0.191953871957803 0.42546416763755879 0 0.52289427570932567 0.3932284363388488 0 0.46655310992796922 0.39650496622958609 0 0.49077833859261139 0.35229981449445641 0 0.91696753777131557 0.497780560203536 0 0.88594198078881503 0.46167788676578442 0 0.93814194660195893 0.44426664081746747 0 0.24999999999941211 0 0 0.27499999999933927 0.060310814194988557 0 0.22668068146512929 0.045875643423131329 0 0.25000000000104028 1 0 0.22850979588452081 0.95594428570238643 0 0.27609987656793722 0.94991445621608572 0 0.77846603114747959 0.49850927265137401 0 0.77151014687832564 0.54436834383023036 0 0.73947346780852752 0.49062440112282169 0 0.27499999999933927 0.060310814194988557 0 0.27474541102162192 0.11822029332053539 0 0.24218496799700481 0.089025544070598317 0 0.27270076654418179 0.87751467830216623 0 0.29209212897034281 0.84715728365233667 0 0.30864387279288652 0.89906554525974958 0 0.3096713403101819 0.085471541595262421 0 0.27474541102162192 0.11822029332053539 0 0.27499999999933927 0.060310814194988557 0 0.17933913398461551 0.2350063570234002 0 0.18124454140915969 0.18790916706335251 0 0.224700362040408 0.22206622194729711 0 0.18269480424590959 0.75905448272264375 0 0.22556077506376701 0.77837424984191617 0 0.17777405986036951 0.81832336108265358 0 0.35864759629805099 0.87963482415279515 0 0.33403534827021109 0.84402799729020661 0 0.39536230704883951 0.84069429572832477 0 0.77354604466818633 0.40378688774472771 0 0.73483647259922602 0.44789725365921768 0 0.72622533758026719 0.40265885511101601 0 0.80185942888539485 0.77452061303608133 0 0.85491058998424563 0.76004753345552634 0 0.84725310900444062 0.80779732082917555 0 0.80185942888501827 0.074520613036224564 0 0.85491058998398861 0.060047533455626502 0 0.84725310900442086 0.10779732082922661 0 0.086179601630648681 0.64647209519980475 0 0.046634677244967337 0.671418230738282 0 0.050069554451969707 0.61308520079857043 0 0.087545339447545459 0.35122518864182262 0 0.050583896093752537 0.38543522283434112 0 0.046389130980076937 0.32668781832131749 0 0 0.75000000000034661 0 0.049706944316475897 0.72477277076253799 0 0.04408157711937423 0.7728941757575627 0 0 0.25000000000104028 0 0.044081577119474857 0.2271058242433576 0 0.049706944316556423 0.27522722923869108 0 0.52289427570932567 0.3932284363388488 0 0.56836770495988642 0.3523062350852913 0 0.57744073070774993 0.41535148636609359 0 0.6084546825910605 0.37989672713932537 0 0.57744073070774993 0.41535148636609359 0 0.56836770495988642 0.3523062350852913 0 0.61343887413683884 0.856862479058357 0 0.55899371797446828 0.85003102233514438 0 0.60294066490120068 0.80851322453934582 0 0.54782696902220018 0.79245182748204157 0 0.60294066490120068 0.80851322453934582 0 0.55899371797446828 0.85003102233514438 0 0.40326160981139969 0.73346192995102844 0 0.36622285152418499 0.69092437780804039 0 0.43323420005758778 0.6913544522562407 0 0.52289427570932567 0.3932284363388488 0 0.48858720058566618 0.43964267759203868 0 0.46655310992796922 0.39650496622958609 0 0.15720202157091859 0.60665697304410315 0 0.1154888278694548 0.56733818459978413 0 0.14934928745814749 0.55042914607228977 0 0.6879972333610942 0.43038561374960838 0 0.73483647259922602 0.44789725365921768 0 0.69385896817107129 0.48377516041410151 0 0.7250000000005199 0.89375000000045834 0 0.68987011941058407 0.92105047536677087 0 0.66412543161245952 0.88015090885499059 0 0.83573492347052902 0.36590755630746369 0 0.78145581580700685 0.34881365920033602 0 0.82500000000000062 0.33010209762754811 0 0.82862096804812391 0.55037090955459045 0 0.81441713509985358 0.51161854125224959 0 0.86907294890112186 0.52008116128001669 0 0.19670163708476801 0.31472518408333222 0 0.14223753364722069 0.3341983344262433 0 0.168349569971391 0.28054490850913671 0 0.50202631463681879 0.87892870825713787 0 0.45677673713123867 0.84253684404072415 0 0.50627822638148745 0.8263979829520941 0 0.099999999999814668 0 0 0.14999999999970359 0 0 0.10266856499169109 0.044518360900210059 0 0.15000000000062411 1 0 0.10000000000041601 1 0 0.10266856499240549 0.95548163909968886 0 0.67323294229744413 0.57556450033612505 0 0.63065402604362242 0.59661356661633302 0 0.62042975506801734 0.54295974692364424 0 0.083105206071467416 0.20007701332709979 0 0.13737030665753211 0.20313708640667491 0 0.095326043202144745 0.24554465089224409 0 0.083105206071452636 0.79992298667296435 0 0.090953281884486245 0.7564451946902494 0 0.1382744753146134 0.79650574229207483 0 0.50000000000205869 1 0 0.47135117303824892 0.95556877749289892 0 0.52122150208832174 0.94089974453840242 0 0.49999999999869432 0 0 0.52375890611712683 0.059318771819432882 0 0.47040171442036788 0.044141676406503738 0 0.4656888918609538 0.78493261229743638 0 0.45582236402875981 0.73896743678908217 0 0.50945740445113552 0.75476055527778108 0 0.5 0.69999999999999996 0 0.50945740445113552 0.75476055527778108 0 0.45582236402875981 0.73896743678908217 0 0.55306006949600994 0.20198184231352201 0 0.56202748619534593 0.15054058349222879 0 0.59443395090188023 0.18455690917515069 0 0.6236733212988993 0.14864538214901801 0 0.59443395090188023 0.18455690917515069 0 0.56202748619534593 0.15054058349222879 0 0.57412547362576272 0.58273804879550706 0 0.5498280205245758 0.6290146943450976 0 0.5166924242153631 0.59825134841919447 0 0.91696753777131557 0.497780560203536 0 0.93814194660195893 0.44426664081746747 0 0.96228564064454991 0.48206450662049471 0 0.15720202157091859 0.60665697304410315 0 0.16500388252850301 0.66612077714085194 0 0.1241190223511371 0.64391885572885044 0 0.44288491854585582 0.14116182884956319 0 0.47881186583059909 0.093591717165689425 0 0.48466639505193998 0.1421439844745814 0 1 0.54999999999963112 0 0.93732437411268477 0.55911392101136159 0 0.95631871884947484 0.51827533208233789 0 0.57724883562309992 0.92155686857100794 0 0.57382506491224949 0.9629411906298494 0 0.52122150208832174 0.94089974453840242 0 0.85170973911348691 0.93569607295217616 0 0.81159157511211755 0.88795995483179491 0 0.85600844944837662 0.88483418979512773 0 0.8517097391133297 0.2356960729520409 0 0.81283102246527783 0.1881007222486438 0 0.85600844944842547 0.1848341897950983 0 0.27866744612395528 0.38416094670951489 0 0.29124338931648802 0.43334555462578611 0 0.24049127783545701 0.41270748208749802 0 0.6084546825910605 0.37989672713932537 0 0.56836770495988642 0.3523062350852913 0 0.61959173890754571 0.33832250091341232 0 0.20050006573841939 0.53248514016039872 0 0.25115337790845271 0.54719303014923271 0 0.22549374774072969 0.58452645269293457 0 0.26573297623774761 0.59828298563722948 0 0.22549374774072969 0.58452645269293457 0 0.25115337790845271 0.54719303014923271 0 0.26104540868854792 0.81401944968719064 0 0.29209212897034281 0.84715728365233667 0 0.2401283238295133 0.85648409884788523 0 0.6236733212988993 0.14864538214901801 0 0.65290632656860115 0.11434202593454081 0 0.68391457121233579 0.14440470121196541 0 0.19901705110390991 0.9175543425573498 0 0.19741632902693801 0.86755867406447229 0 0.24536017905392571 0.90704567837671446 0 0.72500000000000064 0.7952620967744265 0 0.76901770135486491 0.84293557325473656 0 0.72863726579783861 0.85390518901155588 0 0.72500000000000064 0.7952620967744265 0 0.72863726579783861 0.85390518901155588 0 0.68697391633157634 0.84450604838764298 0 0.7250000000005199 0.89375000000045834 0 0.68697391633157634 0.84450604838764298 0 0.72863726579783861 0.85390518901155588 0 0.72525833953073282 0.1032114801687094 0 0.77144070960558853 0.14311854477243749 0 0.72634814642510737 0.16106886917518889 0 0.72525833953073282 0.1032114801687094 0 0.72634814642510737 0.16106886917518889 0 0.68391457121233579 0.14440470121196541 0 0.36622285152418499 0.69092437780804039 0 0.3977710372045391 0.65868194622830212 0 0.43323420005758778 0.6913544522562407 0 0 0.65000000000104008 0 0 0.60000000000138687 0 0.050069554451969707 0.61308520079857043 0 0 0.40000000000166441 0 0 0.35000000000145642 0 0.050583896093752537 0.38543522283434112 0 0.22033343844674469 0.36963382230740238 0 0.24049127783545701 0.41270748208749802 0 0.191953871957803 0.42546416763755879 0 0.5 0.29999999999999999 0 0.4604742573284204 0.27846934318264788 0 0.49695729691142171 0.25014895411178018 0 0.19741632902693801 0.86755867406447229 0 0.2401283238295133 0.85648409884788523 0 0.24536017905392571 0.90704567837671446 0 0 0.50000000000205869 0 0.068743045408989428 0.48853989837882689 0 0.044576108720083309 0.53509043209532614 0 0.15000000000062411 1 0 0.14617343800780541 0.93808063414349496 0 0.18474005699953849 0.96231585248064622 0 0.14999999999970359 0 0 0.184418230509967 0.038773194583122873 0 0.14618258501891079 0.062070108745602003 0 0.57667858002728545 0.078486105337742612 0 0.52375890611712683 0.059318771819432882 0 0.57396793757665954 0.037011367187645222 0 0.113541300460994 0.46208784312094731 0 0.078358742472063481 0.43365249433908948 0 0.13773355295499351 0.42497777642586831 0 0.77354604466818633 0.40378688774472771 0 0.78145581580700685 0.34881365920033602 0 0.81308179852519835 0.39754945808726527 0 0.38244435121258652 0.51653317813019495 0 0.33190227185843768 0.52715113583864037 0 0.35024835142131061 0.48654922671676981 0 0.64753070846764316 0.77332939069435502 0 0.65005442820240822 0.82644988530054031 0 0.60294066490120068 0.80851322453934582 0 0.15720202157091859 0.60665697304410315 0 0.1024350934457823 0.60772393977513839 0 0.1154888278694548 0.56733818459978413 0 0.90416666666660628 0.9041666666666166 0 0.85600844944837662 0.88483418979512773 0 0.88088768115933802 0.84674609810493673 0 0.90416666666668166 0.20416666666667119 0 0.85600844944842547 0.1848341897950983 0 0.88088768115941807 0.14674609810479519 0 0.078358742472063481 0.43365249433908948 0 0.1117088112799664 0.38831403004970022 0 0.13773355295499351 0.42497777642586831 0 0.38244435121258652 0.51653317813019495 0 0.3908716102680424 0.47010282357248828 0 0.43507373378304309 0.49699695397193322 0 0.90299850604011456 0.79563452813489832 0 0.95386563387742829 0.80414874155775029 0 0.93677536231884972 0.85000000000000286 0 0.90416666666660628 0.9041666666666166 0 0.93677536231884972 0.85000000000000286 0 0.95391631417670719 0.89584263333814784 0 0.90299850604006393 0.09563452813493091 0 0.95386563387744361 0.1041487415577465 0 0.93677536231883773 0.14999999999999089 0 0.90416666666668166 0.20416666666667119 0 0.93677536231883773 0.14999999999999089 0 0.95391631417672862 0.19584263333809451 0 0.39536230704883951 0.84069429572832477 0 0.44003836461056539 0.88093474584252718 0 0.39767323751400468 0.89584229130535065 0 0.51076801031701946 0.1202837388510348 0 0.52375890611712683 0.059318771819432882 0 0.54979595918804436 0.1060565713905809 0 0.57667858002728545 0.078486105337742612 0 0.54979595918804436 0.1060565713905809 0 0.52375890611712683 0.059318771819432882 0 0.57724883562309992 0.92155686857100794 0 0.52122150208832174 0.94089974453840242 0 0.54783390826260769 0.89287767010860219 0 0.50202631463681879 0.87892870825713787 0 0.54783390826260769 0.89287767010860219 0 0.52122150208832174 0.94089974453840242 0 0.087545339447545459 0.35122518864182262 0 0.093851963071650835 0.30582068233324772 0 0.14223753364722069 0.3341983344262433 0 0.54999999999999993 0.69999999999999996 0 0.59999999999999976 0.69999999999999996 0 0.55363780716230748 0.74348740161571747 0 0.083105206071452636 0.79992298667296435 0 0.1074251789111534 0.83564394292147814 0 0.065374659239661639 0.8551091961254178 0 0.083105206071467416 0.20007701332709979 0 0.065374659239632718 0.1448908038746782 0 0.106902708054812 0.16453234188234539 0 0.52289427570932567 0.3932284363388488 0 0.53823865529665704 0.45873898050322898 0 0.48858720058566618 0.43964267759203868 0 0.13737030665753211 0.20313708640667491 0 0.14377654328998779 0.2442024734791064 0 0.095326043202144745 0.24554465089224409 0 0.1382744753146134 0.79650574229207483 0 0.090953281884486245 0.7564451946902494 0 0.14335651144331049 0.75565258250209677 0 0.27270076654418179 0.87751467830216623 0 0.30864387279288652 0.89906554525974958 0 0.24536017905392571 0.90704567837671446 0 0.27609987656793722 0.94991445621608572 0 0.24536017905392571 0.90704567837671446 0 0.30864387279288652 0.89906554525974958 0 0.90299850604011456 0.79563452813489832 0 0.84725310900444062 0.80779732082917555 0 0.85491058998424563 0.76004753345552634 0 0.90299850604006393 0.09563452813493091 0 0.84725310900442086 0.10779732082922661 0 0.85491058998398861 0.060047533455626502 0 1 0.54999999999963112 0 1 0.59999999999973963 0 0.95867599106212187 0.60011091146651041 0 1 0.39999999999978308 0 1 0.44999999999963131 0 0.95871855522754235 0.40006508612975411 0 0.28040350263641872 0.23054717217092141 0 0.25195515620380449 0.25883339815888678 0 0.224700362040408 0.22206622194729711 0 0.84999999999999987 0.29999999999999999 0 0.87430060258887643 0.34056085888204451 0 0.82500000000000062 0.33010209762754811 0 0.84999999999999987 0.69999999999999996 0 0.82457059160610424 0.66831947184359608 0 0.87712158428786946 0.65709029563313581 0 0.86956835336234861 0.571283299838105 0 0.87159648282691515 0.61285406320581504 0 0.81723410853263523 0.59419663659258926 0 0.43698630808430822 0.080423614171545449 0 0.47881186583059909 0.093591717165689425 0 0.44288491854585582 0.14116182884956319 0 1 0.44999999999963131 0 0.96228564064454991 0.48206450662049471 0 0.93814194660195893 0.44426664081746747 0 0.35752321586431363 0.9185439911803448 0 0.30864387279288652 0.89906554525974958 0 0.35864759629805099 0.87963482415279515 0 0.29124338931648802 0.43334555462578611 0 0.25982634974572738 0.46097799597715272 0 0.24049127783545701 0.41270748208749802 0 0.51076801031701946 0.1202837388510348 0 0.56202748619534593 0.15054058349222879 0 0.51729576145820033 0.1683240575987815 0 0.55306006949600994 0.20198184231352201 0 0.51729576145820033 0.1683240575987815 0 0.56202748619534593 0.15054058349222879 0 0.26429849586623999 0.19346700179430079 0 0.28040350263641872 0.23054717217092141 0 0.224700362040408 0.22206622194729711 0 0.51076801031701946 0.1202837388510348 0 0.48466639505193998 0.1421439844745814 0 0.47881186583059909 0.093591717165689425 0 0.2185883431182947 0.18019736283949719 0 0.26429849586623999 0.19346700179430079 0 0.224700362040408 0.22206622194729711 0 0.18269480424590959 0.75905448272264375 0 0.2248999640082178 0.72584299459689172 0 0.22556077506376701 0.77837424984191617 0 0.51076801031701946 0.1202837388510348 0 0.47881186583059909 0.093591717165689425 0 0.52375890611712683 0.059318771819432882 0 0.50202631463681879 0.87892870825713787 0 0.52122150208832174 0.94089974453840242 0 0.47401147028110507 0.91529957330468115 0 0 0.84999999999965292 0 0.038512288486097702 0.8155852717111195 0 0.065374659239661639 0.8551091961254178 0 0 0.15000000000062411 0 0.065374659239632718 0.1448908038746782 0 0.038512288486115001 0.1844147282893184 0 0.2185883431182947 0.18019736283949719 0 0.224700362040408 0.22206622194729711 0 0.18124454140915969 0.18790916706335251 0 0.21858834311891909 0.81980263716112767 0 0.17777405986036951 0.81832336108265358 0 0.22556077506376701 0.77837424984191617 0 0.1215415378367805 0.72939333680004137 0 0.1020579365089687 0.69352219419301997 0 0.15332765547575641 0.71200081858233666 0 0.49695729691142171 0.25014895411178018 0 0.50760557329222289 0.20700468884612061 0 0.54248833945060504 0.2520322959927106 0 0.15720202157091859 0.60665697304410315 0 0.14934928745814749 0.55042914607228977 0 0.18381867841758909 0.57774125163628387 0 0.90416666666660628 0.9041666666666166 0 0.85170973911348691 0.93569607295217616 0 0.85600844944837662 0.88483418979512773 0 0.90416666666668166 0.20416666666667119 0 0.8517097391133297 0.2356960729520409 0 0.85600844944842547 0.1848341897950983 0 0.17933913398461551 0.2350063570234002 0 0.13737030665753211 0.20313708640667491 0 0.18124454140915969 0.18790916706335251 0 0.18269480424590959 0.75905448272264375 0 0.17777405986036951 0.81832336108265358 0 0.1382744753146134 0.79650574229207483 0 0.1216098864341134 0.50637075089503902 0 0.15801167086041079 0.46008690540259539 0 0.16618607197337229 0.50652878253548905 0 0.50760557329222289 0.20700468884612061 0 0.55306006949600994 0.20198184231352201 0 0.54248833945060504 0.2520322959927106 0 0.75000000000034661 1 0 0.7000000000006934 1 0 0.7250000000005199 0.94981617647078953 0 0.69999999999999984 0.29999999999999999 0 0.72500000000000064 0.2498161764706 0 0.74999999999999989 0.29999999999999999 0 0.72525833953073282 0.1032114801687094 0 0.68391457121233579 0.14440470121196541 0 0.68330259535470161 0.10038702501083881 0 0.43249999999999988 0.43937499999999979 0 0.46655310992796922 0.39650496622958609 0 0.48858720058566618 0.43964267759203868 0 0.19901705110390991 0.9175543425573498 0 0.14617343800780541 0.93808063414349496 0 0.16206583317966519 0.89685560785156404 0 0.19922788606653311 0.085920220746880993 0 0.16141998738593399 0.10404039647458049 0 0.14618258501891079 0.062070108745602003 0 0.31378396441836959 0.70157213313026345 0 0.26439878998046262 0.7048065392091396 0 0.27820712747429932 0.65530134213254643 0 0.1216098864341134 0.50637075089503902 0 0.113541300460994 0.46208784312094731 0 0.15801167086041079 0.46008690540259539 0 0.6084546825910605 0.37989672713932537 0 0.65481233915350323 0.35652751921065562 0 0.63912439215427275 0.41063340167983359 0 0.19901705110390991 0.9175543425573498 0 0.18474005699953849 0.96231585248064622 0 0.14617343800780541 0.93808063414349496 0 0.19922788606653311 0.085920220746880993 0 0.14618258501891079 0.062070108745602003 0 0.184418230509967 0.038773194583122873 0 0.38244435121258652 0.51653317813019495 0 0.35024835142131061 0.48654922671676981 0 0.3908716102680424 0.47010282357248828 0 0.82709327591102189 0.14937141670914489 0 0.77144070960558853 0.14311854477243749 0 0.80076557130237269 0.1154587552654202 0 0.82709327591091286 0.84937141670920724 0 0.76901770135486491 0.84293557325473656 0 0.80041942726660109 0.81543261647703358 0 0.43698630808430822 0.080423614171545449 0 0.44288491854585582 0.14116182884956319 0 0.39823268594401579 0.1116623613130045 0 0.39801143831225599 0.16651381068160659 0 0.39823268594401579 0.1116623613130045 0 0.44288491854585582 0.14116182884956319 0 0.36575549820117997 0.31677992835137742 0 0.3786248352540974 0.27082301512024259 0 0.41914690343363781 0.30688979866601612 0 0.42377727103934271 0.25099357235810238 0 0.41914690343363781 0.30688979866601612 0 0.3786248352540974 0.27082301512024259 0 0.049706944316475897 0.72477277076253799 0 0.1020579365089687 0.69352219419301997 0 0.090953281884486245 0.7564451946902494 0 0.1215415378367805 0.72939333680004137 0 0.090953281884486245 0.7564451946902494 0 0.1020579365089687 0.69352219419301997 0 0.1247745017231483 0.27198077544791172 0 0.093851963071650835 0.30582068233324772 0 0.095326043202144745 0.24554465089224409 0 0.049706944316556423 0.27522722923869108 0 0.095326043202144745 0.24554465089224409 0 0.093851963071650835 0.30582068233324772 0 0.77354604466818633 0.40378688774472771 0 0.81973119833356312 0.43505687159469048 0 0.77972660463949339 0.45529290596363098 0 0.43249999999999988 0.43937499999999979 0 0.43507373378304309 0.49699695397193322 0 0.3908716102680424 0.47010282357248828 0 0.26573297623774761 0.59828298563722948 0 0.2459498854893499 0.63248470766216769 0 0.22549374774072969 0.58452645269293457 0 0.72500000000000064 0.7952620967744265 0 0.77094201086366854 0.79647480515688507 0 0.76901770135486491 0.84293557325473656 0 0.72525833953073282 0.1032114801687094 0 0.76878382444651716 0.097147941686331368 0 0.77144070960558853 0.14311854477243749 0 0.72500000000000064 0.7952620967744265 0 0.68697391633157634 0.84450604838764298 0 0.68024162096458085 0.79868546898116533 0 0.31378396441836959 0.70157213313026345 0 0.29904318922293632 0.74132814928635593 0 0.26439878998046262 0.7048065392091396 0 0.31378396441836959 0.70157213313026345 0 0.35415581127540569 0.73730480045900215 0 0.29904318922293632 0.74132814928635593 0 0.61343887413683884 0.856862479058357 0 0.65005442820240822 0.82644988530054031 0 0.66412543161245952 0.88015090885499059 0 0.68697391633157634 0.84450604838764298 0 0.66412543161245952 0.88015090885499059 0 0.65005442820240822 0.82644988530054031 0 0.083411279318375747 0.91030024466934134 0 0.065374659239661639 0.8551091961254178 0 0.10562472963403439 0.87143394428979881 0 0.083411279318303222 0.089699755330707398 0 0.1053400320299198 0.12877248826361379 0 0.065374659239632718 0.1448908038746782 0 0.55306006949600994 0.20198184231352201 0 0.59443395090188023 0.18455690917515069 0 0.59814117807200873 0.23398510860739519 0 0.84999999999999987 0.29999999999999999 0 0.89999999999999991 0.29999999999999999 0 0.87430060258887643 0.34056085888204451 0 0.84999999999999987 0.69999999999999996 0 0.87712158428786946 0.65709029563313581 0 0.89999999999999991 0.69999999999999996 0 0.34258405725730701 0.4444034294386992 0 0.3908716102680424 0.47010282357248828 0 0.35024835142131061 0.48654922671676981 0 0.26573297623774761 0.59828298563722948 0 0.31502927232353312 0.6134992213375432 0 0.27820712747429932 0.65530134213254643 0 0.91696753777131557 0.497780560203536 0 0.86907294890112186 0.52008116128001669 0 0.88594198078881503 0.46167788676578442 0 0.84723782639812573 0.48638347960178252 0 0.88594198078881503 0.46167788676578442 0 0.86907294890112186 0.52008116128001669 0 0.7152569930854884 0.5237994455134295 0 0.77151014687832564 0.54436834383023036 0 0.71809016091162536 0.58185040402320831 0 0.90416666666660628 0.9041666666666166 0 0.89898474358632463 0.95391965591118966 0 0.85170973911348691 0.93569607295217616 0 0.90416666666668166 0.20416666666667119 0 0.89898474358614167 0.25391965591104898 0 0.8517097391133297 0.2356960729520409 0 0.91750694127107502 0.36982372220068471 0 0.95780851984364423 0.34215720972155339 0 0.95871855522754235 0.40006508612975411 0 0.91750694127105259 0.63017627779935648 0 0.95867599106212187 0.60011091146651041 0 0.9578014258160763 0.65787212321113708 0 0.90299850604011456 0.79563452813489832 0 0.88088768115933802 0.84674609810493673 0 0.84725310900444062 0.80779732082917555 0 0.90299850604006393 0.09563452813493091 0 0.88088768115941807 0.14674609810479519 0 0.84725310900442086 0.10779732082922661 0 0.1216098864341134 0.50637075089503902 0 0.16618607197337229 0.50652878253548905 0 0.14934928745814749 0.55042914607228977 0 0.20050006573841939 0.53248514016039872 0 0.14934928745814749 0.55042914607228977 0 0.16618607197337229 0.50652878253548905 0 0.80185942888539485 0.77452061303608133 0 0.84725310900444062 0.80779732082917555 0 0.80041942726660109 0.81543261647703358 0 0.80185942888501827 0.074520613036224564 0 0.84725310900442086 0.10779732082922661 0 0.80076557130237269 0.1154587552654202 0 0.083105206071452636 0.79992298667296435 0 0.065374659239661639 0.8551091961254178 0 0.038512288486097702 0.8155852717111195 0 0.083105206071467416 0.20007701332709979 0 0.038512288486115001 0.1844147282893184 0 0.065374659239632718 0.1448908038746782 0 0.54782696902220018 0.79245182748204157 0 0.59636844454254345 0.75937156204589151 0 0.60294066490120068 0.80851322453934582 0 0.083411279318375747 0.91030024466934134 0 0.0443105827531413 0.89858748162559932 0 0.065374659239661639 0.8551091961254178 0 0.083411279318303222 0.089699755330707398 0 0.065374659239632718 0.1448908038746782 0 0.044310582753132287 0.101412518374475 0 0.84999999999965292 1 0 0.81486180804382891 0.96321394949790495 0 0.85170973911348691 0.93569607295217616 0 0.84999999999999987 0.29999999999999999 0 0.81486180804364938 0.26321394949780091 0 0.8517097391133297 0.2356960729520409 0 0.4656888918609538 0.78493261229743638 0 0.45677673713123867 0.84253684404072415 0 0.42609163930740518 0.80361684430568059 0 0.39536230704883951 0.84069429572832477 0 0.42609163930740518 0.80361684430568059 0 0.45677673713123867 0.84253684404072415 0 0.6236733212988993 0.14864538214901801 0 0.56202748619534593 0.15054058349222879 0 0.58516465772821369 0.11653801664834119 0 0.57412547362576272 0.58273804879550706 0 0.63065402604362242 0.59661356661633302 0 0.5991018319127801 0.62925360607495295 0 0.61343887413683884 0.856862479058357 0 0.5832743223239254 0.88483152652961872 0 0.55899371797446828 0.85003102233514438 0 0.50202631463681879 0.87892870825713787 0 0.55899371797446828 0.85003102233514438 0 0.54783390826260769 0.89287767010860219 0 0.51076801031701946 0.1202837388510348 0 0.54979595918804436 0.1060565713905809 0 0.56202748619534593 0.15054058349222879 0 0.55306006949600994 0.20198184231352201 0 0.59814117807200873 0.23398510860739519 0 0.54248833945060504 0.2520322959927106 0 0.83573492347052902 0.36590755630746369 0 0.82500000000000062 0.33010209762754811 0 0.87430060258887643 0.34056085888204451 0 0.83758014339878906 0.63222013025741819 0 0.87712158428786946 0.65709029563313581 0 0.82457059160610424 0.66831947184359608 0 0.49102375406324739 0.49123754822244059 0 0.53823865529665704 0.45873898050322898 0 0.53330375813596242 0.50827942741749099 0 0.52289427570932567 0.3932284363388488 0 0.57744073070774993 0.41535148636609359 0 0.53823865529665704 0.45873898050322898 0 0.4089290844030305 0.58728915500154233 0 0.37272913873093971 0.56192925302619479 0 0.42644501560315817 0.54603747078095544 0 0.49695729691142171 0.25014895411178018 0 0.4604742573284204 0.27846934318264788 0 0.46429753744194407 0.22870891180733599 0 0.90299850604011456 0.79563452813489832 0 0.85491058998424563 0.76004753345552634 0 0.89999166460796554 0.74528934923809909 0 0.90299850604006393 0.09563452813493091 0 0.85491058998398861 0.060047533455626502 0 0.899991664607802 0.045289349238254978 0 0.38244435121258652 0.51653317813019495 0 0.42644501560315817 0.54603747078095544 0 0.37272913873093971 0.56192925302619479 0 0.71406021706547751 0.63292083137662503 0 0.71809016091162536 0.58185040402320831 0 0.74994237037456724 0.62775548192980357 0 0.84723782639812573 0.48638347960178252 0 0.86907294890112186 0.52008116128001669 0 0.81441713509985358 0.51161854125224959 0 0.33122374654748771 0.57588941099433744 0 0.33190227185843768 0.52715113583864037 0 0.37272913873093971 0.56192925302619479 0 0.086179601630648681 0.64647209519980475 0 0.1241190223511371 0.64391885572885044 0 0.1020579365089687 0.69352219419301997 0 0.59999999999894682 0 0 0.64999999999907843 0 0 0.61940220174112337 0.047251958781050582 0 0.18269480424590959 0.75905448272264375 0 0.14335651144331049 0.75565258250209677 0 0.15332765547575641 0.71200081858233666 0 0.22549374774072969 0.58452645269293457 0 0.2459498854893499 0.63248470766216769 0 0.19914261668318661 0.62286739485272158 0 0.38244435121258652 0.51653317813019495 0 0.43507373378304309 0.49699695397193322 0 0.42644501560315817 0.54603747078095544 0 0.65000000000104008 1 0 0.60000000000138687 1 0 0.62065498684670595 0.95224934003983619 0 0.078358742472063481 0.43365249433908948 0 0.068743045408989428 0.48853989837882689 0 0.033550201249889847 0.46247875832467239 0 0.2236846579037573 0.67380363126050236 0 0.27820712747429932 0.65530134213254643 0 0.26439878998046262 0.7048065392091396 0 0.6879972333610942 0.43038561374960838 0 0.68128176404677243 0.38629093627004979 0 0.72622533758026719 0.40265885511101601 0 0.72525833953073282 0.1032114801687094 0 0.7010294155333181 0.056779085686491267 0 0.7527966693318906 0.053051678021508272 0 0.18269480424590959 0.75905448272264375 0 0.15332765547575641 0.71200081858233666 0 0.19068556247388771 0.71028988922845504 0 0.1216098864341134 0.50637075089503902 0 0.085622222639554768 0.53333248912060549 0 0.068743045408989428 0.48853989837882689 0 0.25676291524611189 0.7436741304886243 0 0.26439878998046262 0.7048065392091396 0 0.29904318922293632 0.74132814928635593 0 0.65481233915350323 0.35652751921065562 0 0.68128176404677243 0.38629093627004979 0 0.63912439215427275 0.41063340167983359 0 0.83573492347052902 0.36590755630746369 0 0.86844634540301924 0.38530937474099819 0 0.81308179852519835 0.39754945808726527 0 0.27270076654418179 0.87751467830216623 0 0.2401283238295133 0.85648409884788523 0 0.29209212897034281 0.84715728365233667 0 0.84999999999999987 0.69999999999999996 0 0.85491058998424563 0.76004753345552634 0 0.81864958914779962 0.73589050177899629 0 0.84999999999960507 0 0 0.85491058998398861 0.060047533455626502 0 0.81864958914740749 0.035890501779055867 0 0.18381867841758909 0.57774125163628387 0 0.19914261668318661 0.62286739485272158 0 0.15720202157091859 0.60665697304410315 0 0.22549374774072969 0.58452645269293457 0 0.19914261668318661 0.62286739485272158 0 0.18381867841758909 0.57774125163628387 0 0.79680861578988083 0.92656778056766709 0 0.85170973911348691 0.93569607295217616 0 0.81486180804382891 0.96321394949790495 0 0.79680861578956375 0.22656778056752541 0 0.8517097391133297 0.2356960729520409 0 0.81486180804364938 0.26321394949780091 0 0.20050006573841939 0.53248514016039872 0 0.23975172658309729 0.49475499200540818 0 0.25115337790845271 0.54719303014923271 0 0.28307294598219601 0.50789252727458634 0 0.25115337790845271 0.54719303014923271 0 0.23975172658309729 0.49475499200540818 0 0.20050006573841939 0.53248514016039872 0 0.18381867841758909 0.57774125163628387 0 0.14934928745814749 0.55042914607228977 0 0.19922788606653311 0.085920220746880993 0 0.22985637510995899 0.1298347970200906 0 0.18652628422869419 0.14162325200928061 0 0.33758650185219202 0.23837101504325639 0 0.38831533174504851 0.2189834941785925 0 0.3786248352540974 0.27082301512024259 0 0.42377727103934271 0.25099357235810238 0 0.3786248352540974 0.27082301512024259 0 0.38831533174504851 0.2189834941785925 0 0.19922788606653311 0.085920220746880993 0 0.18652628422869419 0.14162325200928061 0 0.16141998738593399 0.10404039647458049 0 0.54782696902220018 0.79245182748204157 0 0.55363780716230748 0.74348740161571747 0 0.59636844454254345 0.75937156204589151 0 0.82709327591091286 0.84937141670920724 0 0.88088768115933802 0.84674609810493673 0 0.85600844944837662 0.88483418979512773 0 0.82709327591102189 0.14937141670914489 0 0.88088768115941807 0.14674609810479519 0 0.85600844944842547 0.1848341897950983 0 0.27866744612395528 0.38416094670951489 0 0.22033343844674469 0.36963382230740238 0 0.25966125648670141 0.34351016742083729 0 0 0.50000000000205869 0 0.033550201249889847 0.46247875832467239 0 0.068743045408989428 0.48853989837882689 0 0.31378396441836959 0.70157213313026345 0 0.36622285152418499 0.69092437780804039 0 0.35415581127540569 0.73730480045900215 0 0.77293540622714185 0.59448302402785813 0 0.71809016091162536 0.58185040402320831 0 0.77151014687832564 0.54436834383023036 0 0.7152569930854884 0.5237994455134295 0 0.69385896817107129 0.48377516041410151 0 0.73947346780852752 0.49062440112282169 0 0.15801167086041079 0.46008690540259539 0 0.191953871957803 0.42546416763755879 0 0.19604738184454831 0.47787523520405789 0 0.57667858002728545 0.078486105337742612 0 0.61940220174112337 0.047251958781050582 0 0.61956000905586006 0.1043312481793135 0 0.65408113592120842 0.073941773121567966 0 0.61956000905586006 0.1043312481793135 0 0.61940220174112337 0.047251958781050582 0 0 0.55000000000173355 0 0 0.50000000000205869 0 0.044576108720083309 0.53509043209532614 0 0.65507451745379841 0.92229208810758578 0 0.62065498684670595 0.95224934003983619 0 0.61885627562261258 0.90282959257498208 0 0.57724883562309992 0.92155686857100794 0 0.61885627562261258 0.90282959257498208 0 0.62065498684670595 0.95224934003983619 0 0.91750694127107502 0.36982372220068471 0 0.86844634540301924 0.38530937474099819 0 0.87430060258887643 0.34056085888204451 0 0.91750694127105259 0.63017627779935648 0 0.87712158428786946 0.65709029563313581 0 0.87159648282691515 0.61285406320581504 0 0.33123028043633618 0.77629643437932982 0 0.29904318922293632 0.74132814928635593 0 0.35415581127540569 0.73730480045900215 0 0.86411095495256451 0.42388805655111889 0 0.84925632466077294 0.45359738909549091 0 0.81973119833356312 0.43505687159469048 0 0.43846182030517877 0.64845797726506715 0 0.47913475093885149 0.66010775372412711 0 0.43323420005758778 0.6913544522562407 0 0.18269480424590959 0.75905448272264375 0 0.19068556247388771 0.71028988922845504 0 0.2248999640082178 0.72584299459689172 0 0.39536230704883951 0.84069429572832477 0 0.38586766253264881 0.78219501014812498 0 0.42609163930740518 0.80361684430568059 0 0.59999999999999976 0.69999999999999996 0 0.63221990677827677 0.73442891067859706 0 0.59636844454254345 0.75937156204589151 0 0.27866744612395528 0.38416094670951489 0 0.24049127783545701 0.41270748208749802 0 0.22033343844674469 0.36963382230740238 0 0.82709327591091286 0.84937141670920724 0 0.84725310900444062 0.80779732082917555 0 0.88088768115933802 0.84674609810493673 0 0.82709327591102189 0.14937141670914489 0 0.84725310900442086 0.10779732082922661 0 0.88088768115941807 0.14674609810479519 0 0.1650278706801647 0.38791388161335733 0 0.18434624290945251 0.35208838264196463 0 0.22033343844674469 0.36963382230740238 0 0.4409427642593301 0.35743108089689513 0 0.49077833859261139 0.35229981449445641 0 0.46655310992796922 0.39650496622958609 0 0.80185942888539485 0.77452061303608133 0 0.81864958914779962 0.73589050177899629 0 0.85491058998424563 0.76004753345552634 0 0.80185942888501827 0.074520613036224564 0 0.81864958914740749 0.035890501779055867 0 0.85491058998398861 0.060047533455626502 0 0.29999999999926641 0 0 0.34999999999912063 0 0 0.32541448401678508 0.046215317981507749 0 0.35000000000145642 1 0 0.30000000000124832 1 0 0.32544832635163229 0.95485394099568932 0 0.4656888918609538 0.78493261229743638 0 0.50731287292894423 0.78963574450233831 0 0.50627822638148745 0.8263979829520941 0 0.2185883431182947 0.18019736283949719 0 0.25557216766470708 0.15874861286892261 0 0.26429849586623999 0.19346700179430079 0 1 0.29999999999999999 0 1 0.34999999999993492 0 0.95780851984364423 0.34215720972155339 0 1 0.29999999999999999 0 0.95780851984364423 0.34215720972155339 0 0.94999999999999996 0.29999999999999999 0 1 0.69999999999999996 0 0.94999999999999996 0.69999999999999996 0 0.9578014258160763 0.65787212321113708 0 1 0.69999999999999996 0 0.9578014258160763 0.65787212321113708 0 1 0.64999999999986979 0 0.91750694127107502 0.36982372220068471 0 0.90594285160987287 0.4141265964174129 0 0.86844634540301924 0.38530937474099819 0 0.91750694127105259 0.63017627779935648 0 0.87159648282691515 0.61285406320581504 0 0.91143117093204207 0.58709913730335972 0 0.74999999999999989 0.69999999999999996 0 0.7750489929959945 0.66593931409600093 0 0.79999999999999982 0.69999999999999996 0 0.74999999999999989 0.29999999999999999 0 0.79999999999999982 0.29999999999999999 0 0.78145581580700685 0.34881365920033602 0 0.54999999999999993 0.69999999999999996 0 0.57484956128872922 0.66573805030881994 0 0.59999999999999976 0.69999999999999996 0 0.90299850604011456 0.79563452813489832 0 0.94399509803918602 0.75600490196082126 0 0.95386563387742829 0.80414874155775029 0 0.90416666666660628 0.9041666666666166 0 0.95391631417670719 0.89584263333814784 0 0.94399509803919068 0.9439950980391687 0 0.90299850604006393 0.09563452813493091 0 0.94399509803922566 0.056004901960802607 0 0.95386563387744361 0.1041487415577465 0 0.90416666666668166 0.20416666666667119 0 0.95391631417672862 0.19584263333809451 0 0.94399509803921056 0.24399509803922639 0 0.22278230690790279 0.44824268025881547 0 0.19604738184454831 0.47787523520405789 0 0.191953871957803 0.42546416763755879 0 0.90299850604011456 0.79563452813489832 0 0.89999166460796554 0.74528934923809909 0 0.94399509803918602 0.75600490196082126 0 0.90299850604006393 0.09563452813493091 0 0.899991664607802 0.045289349238254978 0 0.94399509803922566 0.056004901960802607 0 0.49102375406324739 0.49123754822244059 0 0.47793794143994173 0.52940715638744962 0 0.43507373378304309 0.49699695397193322 0 0.90416666666660628 0.9041666666666166 0 0.94399509803919068 0.9439950980391687 0 0.89898474358632463 0.95391965591118966 0 0.90416666666668166 0.20416666666667119 0 0.94399509803921056 0.24399509803922639 0 0.89898474358614167 0.25391965591104898 0 0.65394964615507722 0.22666784374016369 0 0.62657463266645097 0.26524202571255862 0 0.59814117807200873 0.23398510860739519 0 0.6084546825910605 0.37989672713932537 0 0.63912439215427275 0.41063340167983359 0 0.57744073070774993 0.41535148636609359 0 0.61209567303293111 0.44669033081290321 0 0.57744073070774993 0.41535148636609359 0 0.63912439215427275 0.41063340167983359 0 0.25676291524611189 0.7436741304886243 0 0.22556077506376701 0.77837424984191617 0 0.2248999640082178 0.72584299459689172 0 0.61343887413683884 0.856862479058357 0 0.60294066490120068 0.80851322453934582 0 0.65005442820240822 0.82644988530054031 0 0.64999999999907843 0 0 0.66369801598854572 0.036327466368102787 0 0.61940220174112337 0.047251958781050582 0 0.40326160981139969 0.73346192995102844 0 0.38586766253264881 0.78219501014812498 0 0.35415581127540569 0.73730480045900215 0 0.33123028043633618 0.77629643437932982 0 0.35415581127540569 0.73730480045900215 0 0.38586766253264881 0.78219501014812498 0 0.26573297623774761 0.59828298563722948 0 0.29110487519241501 0.56588143995431495 0 0.31502927232353312 0.6134992213375432 0 0.77846603114747959 0.49850927265137401 0 0.81441713509985358 0.51161854125224959 0 0.77151014687832564 0.54436834383023036 0 0.82862096804812391 0.55037090955459045 0 0.77151014687832564 0.54436834383023036 0 0.81441713509985358 0.51161854125224959 0 0.50000000000205869 1 0 0.45000000000187229 1 0 0.47135117303824892 0.95556877749289892 0 0.44999999999882923 0 0 0.49999999999869432 0 0 0.47040171442036788 0.044141676406503738 0 0 0.7000000000006934 0 0 0.65000000000104008 0 0.046634677244967337 0.671418230738282 0 0 0.35000000000145642 0 0 0.30000000000124832 0 0.046389130980076937 0.32668781832131749 0 0.31378396441836959 0.70157213313026345 0 0.27820712747429932 0.65530134213254643 0 0.32263089806001177 0.66003674931826484 0 0.33122374654748771 0.57588941099433744 0 0.31502927232353312 0.6134992213375432 0 0.29110487519241501 0.56588143995431495 0 0.26573297623774761 0.59828298563722948 0 0.27820712747429932 0.65530134213254643 0 0.2459498854893499 0.63248470766216769 0 0.14474682429600511 0.85524784522713515 0 0.16206583317966519 0.89685560785156404 0 0.1241151115713819 0.9045666525468371 0 0.14332333627550789 0.14578431753966009 0 0.12372429750337779 0.095814237875728972 0 0.16141998738593399 0.10404039647458049 0 0.64753070846764316 0.77332939069435502 0 0.59636844454254345 0.75937156204589151 0 0.63221990677827677 0.73442891067859706 0 0.14474682429600511 0.85524784522713515 0 0.1241151115713819 0.9045666525468371 0 0.10562472963403439 0.87143394428979881 0 0.14332333627550789 0.14578431753966009 0 0.1053400320299198 0.12877248826361379 0 0.12372429750337779 0.095814237875728972 0 0.77354604466818633 0.40378688774472771 0 0.81308179852519835 0.39754945808726527 0 0.81973119833356312 0.43505687159469048 0 0.54782696902220018 0.79245182748204157 0 0.50945740445113552 0.75476055527778108 0 0.55363780716230748 0.74348740161571747 0 0.2236846579037573 0.67380363126050236 0 0.2459498854893499 0.63248470766216769 0 0.27820712747429932 0.65530134213254643 0 0.77293540622714185 0.59448302402785813 0 0.74994237037456724 0.62775548192980357 0 0.71809016091162536 0.58185040402320831 0 0 0.79999999999999982 0 0 0.75000000000034661 0 0.04408157711937423 0.7728941757575627 0 0 0.25000000000104028 0 0 0.20000000000083221 0 0.044081577119474857 0.2271058242433576 0 0.19999999999955789 0 0 0.24999999999941211 0 0 0.22668068146512929 0.045875643423131329 0 0.25000000000104028 1 0 0.20000000000083221 1 0 0.22850979588452081 0.95594428570238643 0 0.47357141910802508 0.1873585799078378 0 0.44288491854585582 0.14116182884956319 0 0.48466639505193998 0.1421439844745814 0 0.59999999999999976 0.29999999999999999 0 0.5794309697024993 0.27124795968204829 0 0.62657463266645097 0.26524202571255862 0 0.43249999999999988 0.43937499999999979 0 0.42161023666869668 0.39493916313643851 0 0.46655310992796922 0.39650496622958609 0 0.31068898841644388 0.47541502461811092 0 0.33190227185843768 0.52715113583864037 0 0.28307294598219601 0.50789252727458634 0 0.35024835142131061 0.48654922671676981 0 0.33190227185843768 0.52715113583864037 0 0.31068898841644388 0.47541502461811092 0 0.35864735590330371 0.63903383440414463 0 0.36622285152418499 0.69092437780804039 0 0.32263089806001177 0.66003674931826484 0 0.31378396441836959 0.70157213313026345 0 0.32263089806001177 0.66003674931826484 0 0.36622285152418499 0.69092437780804039 0 0.86956835336234861 0.571283299838105 0 0.90900154012161016 0.53607784105648792 0 0.91143117093204207 0.58709913730335972 0 0.6499999999999998 0.29999999999999999 0 0.65481233915350323 0.35652751921065562 0 0.61959173890754571 0.33832250091341232 0 0.4409427642593301 0.35743108089689513 0 0.46226845272279993 0.31901800744800313 0 0.49077833859261139 0.35229981449445641 0 0.5 0.29999999999999999 0 0.49077833859261139 0.35229981449445641 0 0.46226845272279993 0.31901800744800313 0 0.14999999999970359 0 0 0.19999999999955789 0 0 0.184418230509967 0.038773194583122873 0 0.20000000000083221 1 0 0.15000000000062411 1 0 0.18474005699953849 0.96231585248064622 0 1 0.49999999999950101 0 1 0.54999999999963112 0 0.95631871884947484 0.51827533208233789 0 0.38586766253264881 0.78219501014812498 0 0.42676259796334498 0.76772545931379299 0 0.42609163930740518 0.80361684430568059 0 0.20050006573841939 0.53248514016039872 0 0.22549374774072969 0.58452645269293457 0 0.18381867841758909 0.57774125163628387 0 0.065374659239661639 0.8551091961254178 0 0.1074251789111534 0.83564394292147814 0 0.10562472963403439 0.87143394428979881 0 0.065374659239632718 0.1448908038746782 0 0.1053400320299198 0.12877248826361379 0 0.106902708054812 0.16453234188234539 0 0.1650278706801647 0.38791388161335733 0 0.14223753364722069 0.3341983344262433 0 0.18434624290945251 0.35208838264196463 0 0.43249999999999988 0.43937499999999979 0 0.46111841286828259 0.46690301029591341 0 0.43507373378304309 0.49699695397193322 0 0.83758014339878906 0.63222013025741819 0 0.81723410853263523 0.59419663659258926 0 0.87159648282691515 0.61285406320581504 0 0.19670163708476801 0.31472518408333222 0 0.18434624290945251 0.35208838264196463 0 0.14223753364722069 0.3341983344262433 0 0.75000000000034661 1 0 0.7250000000005199 0.94981617647078953 0 0.770759834363826 0.95919399014344442 0 0.74999999999999989 0.29999999999999999 0 0.72500000000000064 0.2498161764706 0 0.77075983436335049 0.25919399014334171 0 0.69999999999999984 0.29999999999999999 0 0.67933712972090698 0.25920070958121938 0 0.72500000000000064 0.2498161764706 0 0.57611405284611883 0.50165903596042916 0 0.53330375813596242 0.50827942741749099 0 0.53823865529665704 0.45873898050322898 0 0.6499999999999998 0.29999999999999999 0 0.68887083591306764 0.33632058575757479 0 0.65481233915350323 0.35652751921065562 0 0.27866744612395528 0.38416094670951489 0 0.33277555741076909 0.36432196682010132 0 0.31778888742534622 0.40581751814196781 0 0.49102375406324739 0.49123754822244059 0 0.43507373378304309 0.49699695397193322 0 0.46111841286828259 0.46690301029591341 0 0.94999999999999996 0.69999999999999996 0 0.97166519676947294 0.73337114490064459 0 0.94399509803918602 0.75600490196082126 0 0.94999999999986839 0 0 0.97166519676946894 0.033371144900598393 0 0.94399509803922566 0.056004901960802607 0 0.94999999999999996 0.29999999999999999 0 0.94399509803921056 0.24399509803922639 0 0.97166519676951801 0.26662885509932011 0 0.94999999999979179 1 0 0.94399509803919068 0.9439950980391687 0 0.97166519676946206 0.96662885509935492 0 0.34258405725730701 0.4444034294386992 0 0.29124338931648802 0.43334555462578611 0 0.31778888742534622 0.40581751814196781 0 0.27866744612395528 0.38416094670951489 0 0.31778888742534622 0.40581751814196781 0 0.29124338931648802 0.43334555462578611 0 0.36575549820117997 0.31677992835137742 0 0.33277555741076909 0.36432196682010132 0 0.32752639306529541 0.32610012995269699 0 0.35752321586431363 0.9185439911803448 0 0.32544832635163229 0.95485394099568932 0 0.30864387279288652 0.89906554525974958 0 0.27609987656793722 0.94991445621608572 0 0.30864387279288652 0.89906554525974958 0 0.32544832635163229 0.95485394099568932 0 0.33123028043633618 0.77629643437932982 0 0.30857225866488791 0.81101973481716805 0 0.2792923945214143 0.77665808831789485 0 0.33758650185219202 0.23837101504325639 0 0.29132859388405002 0.27203693976649962 0 0.28040350263641872 0.23054717217092141 0 0.4409427642593301 0.35743108089689513 0 0.41914690343363781 0.30688979866601612 0 0.46226845272279993 0.31901800744800313 0 0.14332333627550789 0.14578431753966009 0 0.13737030665753211 0.20313708640667491 0 0.106902708054812 0.16453234188234539 0 0.083105206071467416 0.20007701332709979 0 0.106902708054812 0.16453234188234539 0 0.13737030665753211 0.20313708640667491 0 0.083105206071452636 0.79992298667296435 0 0.1382744753146134 0.79650574229207483 0 0.1074251789111534 0.83564394292147814 0 0.14474682429600511 0.85524784522713515 0 0.1074251789111534 0.83564394292147814 0 0.1382744753146134 0.79650574229207483 0 0.65408113592120842 0.073941773121567966 0 0.7010294155333181 0.056779085686491267 0 0.68330259535470161 0.10038702501083881 0 0.72525833953073282 0.1032114801687094 0 0.68330259535470161 0.10038702501083881 0 0.7010294155333181 0.056779085686491267 0 0.049706944316475897 0.72477277076253799 0 0.046634677244967337 0.671418230738282 0 0.1020579365089687 0.69352219419301997 0 0.086179601630648681 0.64647209519980475 0 0.1020579365089687 0.69352219419301997 0 0.046634677244967337 0.671418230738282 0 0.087545339447545459 0.35122518864182262 0 0.046389130980076937 0.32668781832131749 0 0.093851963071650835 0.30582068233324772 0 0.049706944316556423 0.27522722923869108 0 0.093851963071650835 0.30582068233324772 0 0.046389130980076937 0.32668781832131749 0 0.82709327591091286 0.84937141670920724 0 0.80041942726660109 0.81543261647703358 0 0.84725310900444062 0.80779732082917555 0 0.82709327591102189 0.14937141670914489 0 0.80076557130237269 0.1154587552654202 0 0.84725310900442086 0.10779732082922661 0 0.17933913398461551 0.2350063570234002 0 0.14377654328998779 0.2442024734791064 0 0.13737030665753211 0.20313708640667491 0 0.18269480424590959 0.75905448272264375 0 0.1382744753146134 0.79650574229207483 0 0.14335651144331049 0.75565258250209677 0 0.33758650185219202 0.23837101504325639 0 0.3786248352540974 0.27082301512024259 0 0.33402499257867951 0.28911035184473982 0 0.14332333627550789 0.14578431753966009 0 0.18124454140915969 0.18790916706335251 0 0.13737030665753211 0.20313708640667491 0 0.14474682429600511 0.85524784522713515 0 0.1382744753146134 0.79650574229207483 0 0.17777405986036951 0.81832336108265358 0 0.5 0.29999999999999999 0 0.52752007115234678 0.33170632466418198 0 0.49077833859261139 0.35229981449445641 0 0.27866744612395528 0.38416094670951489 0 0.29644548887253103 0.34914008784168082 0 0.33277555741076909 0.36432196682010132 0 0 0.84999999999965292 0 0 0.79999999999999982 0 0.038512288486097702 0.8155852717111195 0 0 0.20000000000083221 0 0 0.15000000000062411 0 0.038512288486115001 0.1844147282893184 0 0.40326160981139969 0.73346192995102844 0 0.35415581127540569 0.73730480045900215 0 0.36622285152418499 0.69092437780804039 0 0.91696753777131557 0.497780560203536 0 0.96228564064454991 0.48206450662049471 0 0.95631871884947484 0.51827533208233789 0 0.33758650185219202 0.23837101504325639 0 0.31255190597181792 0.19850845631528771 0 0.3572130504031617 0.1874703368446563 0 0.59814117807200873 0.23398510860739519 0 0.62657463266645097 0.26524202571255862 0 0.5794309697024993 0.27124795968204829 0 0.34258405725730701 0.4444034294386992 0 0.31068898841644388 0.47541502461811092 0 0.29124338931648802 0.43334555462578611 0 0.38083244760691543 0.38531983672244652 0 0.35221190152536241 0.40457127605439203 0 0.33277555741076909 0.36432196682010132 0 0.083411279318375747 0.91030024466934134 0 0.10266856499240549 0.95548163909968886 0 0.053064897599294662 0.95186845269532028 0 0.083411279318303222 0.089699755330707398 0 0.053064897599215843 0.048131547304697528 0 0.10266856499169109 0.044518360900210059 0 0.42377727103934271 0.25099357235810238 0 0.4604742573284204 0.27846934318264788 0 0.41914690343363781 0.30688979866601612 0 0.28307294598219601 0.50789252727458634 0 0.25982634974572738 0.46097799597715272 0 0.31068898841644388 0.47541502461811092 0 0.29348325746214782 0.31350119524708198 0 0.29132859388405002 0.27203693976649962 0 0.33402499257867951 0.28911035184473982 0 0.35312867752657662 0.084946736076730367 0 0.39823268594401579 0.1116623613130045 0 0.36246644853392812 0.1399454205365751 0 0.7000000000006934 1 0 0.68015064798562208 0.95924320340003011 0 0.7250000000005199 0.94981617647078953 0 0.42377727103934271 0.25099357235810238 0 0.38831533174504851 0.2189834941785925 0 0.42905200079338551 0.19982395548231649 0 0.53823865529665704 0.45873898050322898 0 0.57744073070774993 0.41535148636609359 0 0.57975577671020095 0.46172033326338591 0 0.33758650185219202 0.23837101504325639 0 0.3572130504031617 0.1874703368446563 0 0.38831533174504851 0.2189834941785925 0 0.29124338931648802 0.43334555462578611 0 0.31068898841644388 0.47541502461811092 0 0.25982634974572738 0.46097799597715272 0 0.6084546825910605 0.37989672713932537 0 0.61959173890754571 0.33832250091341232 0 0.65481233915350323 0.35652751921065562 0 0.40326160981139969 0.73346192995102844 0 0.43323420005758778 0.6913544522562407 0 0.45582236402875981 0.73896743678908217 0 0.33758650185219202 0.23837101504325639 0 0.28040350263641872 0.23054717217092141 0 0.31255190597181792 0.19850845631528771 0 0.79999999999999982 1 0 0.75000000000034661 1 0 0.770759834363826 0.95919399014344442 0 0.74999999999999989 0.29999999999999999 0 0.77075983436335049 0.25919399014334171 0 0.79999999999999982 0.29999999999999999 0 0.6499999999999998 0.29999999999999999 0 0.67933712972090698 0.25920070958121938 0 0.69999999999999984 0.29999999999999999 0 0.39536230704883951 0.84069429572832477 0 0.39767323751400468 0.89584229130535065 0 0.35864759629805099 0.87963482415279515 0 0.54999999999999993 0.69999999999999996 0 0.52584555706968406 0.66664215091846768 0 0.57484956128872922 0.66573805030881994 0 0.35312867752657662 0.084946736076730367 0 0.32541448401678508 0.046215317981507749 0 0.3615861437013822 0.03582617922508851 0 0.35752321586431363 0.9185439911803448 0 0.36184234618600131 0.96443954459096326 0 0.32544832635163229 0.95485394099568932 0 0.35312867752657662 0.084946736076730367 0 0.3615861437013822 0.03582617922508851 0 0.39591832466117061 0.056982757562006353 0 0.35752321586431363 0.9185439911803448 0 0.39641108128798319 0.94356127926187128 0 0.36184234618600131 0.96443954459096326 0 0.083411279318303222 0.089699755330707398 0 0.044310582753132287 0.101412518374475 0 0.053064897599215843 0.048131547304697528 0 0.083411279318375747 0.91030024466934134 0 0.053064897599294662 0.95186845269532028 0 0.0443105827531413 0.89858748162559932 0 0.38083244760691543 0.38531983672244652 0 0.40076539126862748 0.34589349467022118 0 0.42161023666869668 0.39493916313643851 0 0.4409427642593301 0.35743108089689513 0 0.42161023666869668 0.39493916313643851 0 0.40076539126862748 0.34589349467022118 0 0.79999999999999982 0.29999999999999999 0 0.82500000000000062 0.33010209762754811 0 0.78145581580700685 0.34881365920033602 0 0.79999999999999982 0.69999999999999996 0 0.7750489929959945 0.66593931409600093 0 0.82457059160610424 0.66831947184359608 0 0.59999999999999976 0.69999999999999996 0 0.57484956128872922 0.66573805030881994 0 0.62460753523532009 0.66851202781000296 0 0.74999999999999989 0.69999999999999996 0 0.72500000000000064 0.67022701834392062 0 0.7750489929959945 0.66593931409600093 0 0.74999999999999989 0.29999999999999999 0 0.78145581580700685 0.34881365920033602 0 0.73090396928863699 0.33699297293167962 0 0.33758650185219202 0.23837101504325639 0 0.33402499257867951 0.28911035184473982 0 0.29132859388405002 0.27203693976649962 0 0.36575549820117997 0.31677992835137742 0 0.41914690343363781 0.30688979866601612 0 0.40076539126862748 0.34589349467022118 0 0.4409427642593301 0.35743108089689513 0 0.40076539126862748 0.34589349467022118 0 0.41914690343363781 0.30688979866601612 0 0.34258405725730701 0.4444034294386992 0 0.38707855792647411 0.42299362914874578 0 0.3908716102680424 0.47010282357248828 0 0.7000000000006934 1 0 0.65000000000104008 1 0 0.68015064798562208 0.95924320340003011 0 0.49102375406324739 0.49123754822244059 0 0.46111841286828259 0.46690301029591341 0 0.48858720058566618 0.43964267759203868 0 0.4656888918609538 0.78493261229743638 0 0.42676259796334498 0.76772545931379299 0 0.45582236402875981 0.73896743678908217 0 0.40326160981139969 0.73346192995102844 0 0.45582236402875981 0.73896743678908217 0 0.42676259796334498 0.76772545931379299 0 0.59999999999999976 0.29999999999999999 0 0.62657463266645097 0.26524202571255862 0 0.6499999999999998 0.29999999999999999 0 0.40000000000166441 1 0 0.36184234618600131 0.96443954459096326 0 0.39641108128798319 0.94356127926187128 0 0.3999999999989749 0 0 0.39591832466117061 0.056982757562006353 0 0.3615861437013822 0.03582617922508851 0 0.43249999999999988 0.43937499999999979 0 0.48858720058566618 0.43964267759203868 0 0.46111841286828259 0.46690301029591341 0 0.7250000000005199 0.89375000000045834 0 0.7250000000005199 0.94981617647078953 0 0.68987011941058407 0.92105047536677087 0 0.7250000000005199 0.89375000000045834 0 0.75729602384198635 0.92353652857884294 0 0.7250000000005199 0.94981617647078953 0 0.72500000000001008 0.19776155966387679 0 0.75668890529066124 0.2244279804069782 0 0.72500000000000064 0.2498161764706 0 0.72500000000001008 0.19776155966387679 0 0.72500000000000064 0.2498161764706 0 0.69397719155551807 0.2245125647000914 0 0.79999999999999982 0.29999999999999999 0 0.81486180804364938 0.26321394949780091 0 0.84999999999999987 0.29999999999999999 0 0.84999999999965292 1 0 0.79999999999999982 1 0 0.81486180804382891 0.96321394949790495 0 0.1247745017231483 0.27198077544791172 0 0.095326043202144745 0.24554465089224409 0 0.14377654328998779 0.2442024734791064 0 0.1215415378367805 0.72939333680004137 0 0.14335651144331049 0.75565258250209677 0 0.090953281884486245 0.7564451946902494 0 0.72500000000001008 0.19776155966387679 0 0.72634814642510737 0.16106886917518889 0 0.76587607630038135 0.18880039518954719 0 0.72500000000001008 0.19776155966387679 0 0.6865991819015953 0.189116534044597 0 0.72634814642510737 0.16106886917518889 0 0.77144070960558853 0.14311854477243749 0 0.76587607630038135 0.18880039518954719 0 0.72634814642510737 0.16106886917518889 0 0.68391457121233579 0.14440470121196541 0 0.72634814642510737 0.16106886917518889 0 0.6865991819015953 0.189116534044597 0 0.7250000000005199 0.89375000000045834 0 0.72863726579783861 0.85390518901155588 0 0.76891166905518427 0.88835469571185499 0 0.76901770135486491 0.84293557325473656 0 0.76891166905518427 0.88835469571185499 0 0.72863726579783861 0.85390518901155588 0 0 0.20000000000083221 0 0.038512288486115001 0.1844147282893184 0 0.044081577119474857 0.2271058242433576 0 0 0.79999999999999982 0 0.04408157711937423 0.7728941757575627 0 0.038512288486097702 0.8155852717111195 0 0.52375890611712683 0.059318771819432882 0 0.47881186583059909 0.093591717165689425 0 0.47040171442036788 0.044141676406503738 0 0.52122150208832174 0.94089974453840242 0 0.47135117303824892 0.95556877749289892 0 0.47401147028110507 0.91529957330468115 0 0.27474541102162192 0.11822029332053539 0 0.3096713403101819 0.085471541595262421 0 0.32215584939770009 0.1218492143506909 0 0.22278230690790279 0.44824268025881547 0 0.24049127783545701 0.41270748208749802 0 0.25982634974572738 0.46097799597715272 0 0.93732437411268477 0.55911392101136159 0 0.91143117093204207 0.58709913730335972 0 0.90900154012161016 0.53607784105648792 0 0.19901705110390991 0.9175543425573498 0 0.24536017905392571 0.90704567837671446 0 0.22850979588452081 0.95594428570238643 0 0.27609987656793722 0.94991445621608572 0 0.22850979588452081 0.95594428570238643 0 0.24536017905392571 0.90704567837671446 0 0.15720202157091859 0.60665697304410315 0 0.1241190223511371 0.64391885572885044 0 0.1024350934457823 0.60772393977513839 0 0.6499999999999998 0.69999999999999996 0 0.675261390228442 0.65996937624687813 0 0.69999999999999984 0.69999999999999996 0 0.3999999999989749 0 0 0.4320097814748517 0.037406712692169303 0 0.39591832466117061 0.056982757562006353 0 0.40000000000166441 1 0 0.39641108128798319 0.94356127926187128 0 0.4308986359464303 0.96395712492906194 0 0.54999999999999993 0.29999999999999999 0 0.56836770495988642 0.3523062350852913 0 0.52752007115234678 0.33170632466418198 0 0.14474682429600511 0.85524784522713515 0 0.17777405986036951 0.81832336108265358 0 0.19741632902693801 0.86755867406447229 0 0.21858834311891909 0.81980263716112767 0 0.19741632902693801 0.86755867406447229 0 0.17777405986036951 0.81832336108265358 0 0.54782696902220018 0.79245182748204157 0 0.50731287292894423 0.78963574450233831 0 0.50945740445113552 0.75476055527778108 0 0.20000000000083221 1 0 0.18474005699953849 0.96231585248064622 0 0.22850979588452081 0.95594428570238643 0 0.19999999999955789 0 0 0.22668068146512929 0.045875643423131329 0 0.184418230509967 0.038773194583122873 0 0.77846603114747959 0.49850927265137401 0 0.73947346780852752 0.49062440112282169 0 0.77972660463949339 0.45529290596363098 0 0.73483647259922602 0.44789725365921768 0 0.77972660463949339 0.45529290596363098 0 0.73947346780852752 0.49062440112282169 0 0.34258405725730701 0.4444034294386992 0 0.35024835142131061 0.48654922671676981 0 0.31068898841644388 0.47541502461811092 0 0.33123028043633618 0.77629643437932982 0 0.2792923945214143 0.77665808831789485 0 0.29904318922293632 0.74132814928635593 0 0.26573297623774761 0.59828298563722948 0 0.25115337790845271 0.54719303014923271 0 0.29110487519241501 0.56588143995431495 0 0.4656888918609538 0.78493261229743638 0 0.50945740445113552 0.75476055527778108 0 0.50731287292894423 0.78963574450233831 0 0.35312867752657662 0.084946736076730367 0 0.36246644853392812 0.1399454205365751 0 0.32215584939770009 0.1218492143506909 0 0.29348325746214782 0.31350119524708198 0 0.25966125648670141 0.34351016742083729 0 0.24432083401701241 0.3006253385567515 0 0.59999999999999976 0.69999999999999996 0 0.6499999999999998 0.69999999999999996 0 0.63221990677827677 0.73442891067859706 0 0.69999999999921003 0 0 0.7010294155333181 0.056779085686491267 0 0.66369801598854572 0.036327466368102787 0 0.40000000000166441 1 0 0.35000000000145642 1 0 0.36184234618600131 0.96443954459096326 0 0.34999999999912063 0 0 0.3999999999989749 0 0 0.3615861437013822 0.03582617922508851 0 0.43507373378304309 0.49699695397193322 0 0.47793794143994173 0.52940715638744962 0 0.42644501560315817 0.54603747078095544 0 0.14474682429600511 0.85524784522713515 0 0.19741632902693801 0.86755867406447229 0 0.16206583317966519 0.89685560785156404 0 0.19901705110390991 0.9175543425573498 0 0.16206583317966519 0.89685560785156404 0 0.19741632902693801 0.86755867406447229 0 0.35864735590330371 0.63903383440414463 0 0.3977710372045391 0.65868194622830212 0 0.36622285152418499 0.69092437780804039 0 0.7527966693318906 0.053051678021508272 0 0.7010294155333181 0.056779085686491267 0 0.72683645290270404 0.027797073151180601 0 0.71508799138962864 0.36622814920737751 0 0.72622533758026719 0.40265885511101601 0 0.68128176404677243 0.38629093627004979 0 0.79999999999999982 0.69999999999999996 0 0.84999999999999987 0.69999999999999996 0 0.81864958914779962 0.73589050177899629 0 0.79999999999947335 0 0 0.84999999999960507 0 0 0.81864958914740749 0.035890501779055867 0 0.39536230704883951 0.84069429572832477 0 0.35642984951668422 0.80994399665655703 0 0.38586766253264881 0.78219501014812498 0 0.42377727103934271 0.25099357235810238 0 0.46429753744194407 0.22870891180733599 0 0.4604742573284204 0.27846934318264788 0 0.39801143831225599 0.16651381068160659 0 0.42905200079338551 0.19982395548231649 0 0.38831533174504851 0.2189834941785925 0 0.79999999999999982 1 0 0.770759834363826 0.95919399014344442 0 0.81486180804382891 0.96321394949790495 0 0.79999999999999982 0.29999999999999999 0 0.77075983436335049 0.25919399014334171 0 0.81486180804364938 0.26321394949780091 0 0.25195515620380449 0.25883339815888678 0 0.21049769590865089 0.26857363548218488 0 0.224700362040408 0.22206622194729711 0 0.40326160981139969 0.73346192995102844 0 0.42676259796334498 0.76772545931379299 0 0.38586766253264881 0.78219501014812498 0 0.35312867752657662 0.084946736076730367 0 0.3096713403101819 0.085471541595262421 0 0.32541448401678508 0.046215317981507749 0 0.59999999999999976 0.29999999999999999 0 0.6499999999999998 0.29999999999999999 0 0.61959173890754571 0.33832250091341232 0 0.2185883431182947 0.18019736283949719 0 0.18652628422869419 0.14162325200928061 0 0.22985637510995899 0.1298347970200906 0 0.64999999999907843 0 0 0.69999999999921003 0 0 0.66369801598854572 0.036327466368102787 0 0.27499999999933927 0.060310814194988557 0 0.24218496799700481 0.089025544070598317 0 0.22668068146512929 0.045875643423131329 0 0.19922788606653311 0.085920220746880993 0 0.22668068146512929 0.045875643423131329 0 0.24218496799700481 0.089025544070598317 0 0.65507451745379841 0.92229208810758578 0 0.66412543161245952 0.88015090885499059 0 0.68987011941058407 0.92105047536677087 0 0.049706944316475897 0.72477277076253799 0 0.090953281884486245 0.7564451946902494 0 0.04408157711937423 0.7728941757575627 0 0.083105206071452636 0.79992298667296435 0 0.04408157711937423 0.7728941757575627 0 0.090953281884486245 0.7564451946902494 0 0.083105206071467416 0.20007701332709979 0 0.095326043202144745 0.24554465089224409 0 0.044081577119474857 0.2271058242433576 0 0.049706944316556423 0.27522722923869108 0 0.044081577119474857 0.2271058242433576 0 0.095326043202144745 0.24554465089224409 0 0.36575549820117997 0.31677992835137742 0 0.33402499257867951 0.28911035184473982 0 0.3786248352540974 0.27082301512024259 0 0.53245488764484505 0.55078124999999989 0 0.53330375813596242 0.50827942741749099 0 0.57435499076887508 0.54267261987897775 0 0.57611405284611883 0.50165903596042916 0 0.57435499076887508 0.54267261987897775 0 0.53330375813596242 0.50827942741749099 0 0.6499999999999998 0.29999999999999999 0 0.69999999999999984 0.29999999999999999 0 0.68887083591306764 0.33632058575757479 0 0.57611405284611883 0.50165903596042916 0 0.53823865529665704 0.45873898050322898 0 0.57975577671020095 0.46172033326338591 0 0.7750489929959945 0.66593931409600093 0 0.72500000000000064 0.67022701834392062 0 0.74994237037456724 0.62775548192980357 0 0.78145581580700685 0.34881365920033602 0 0.74764719760526988 0.3719647154012321 0 0.73090396928863699 0.33699297293167962 0 0.3999999999989749 0 0 0.44999999999882923 0 0 0.4320097814748517 0.037406712692169303 0 0.45000000000187229 1 0 0.40000000000166441 1 0 0.4308986359464303 0.96395712492906194 0 0.57484956128872922 0.66573805030881994 0 0.5991018319127801 0.62925360607495295 0 0.62460753523532009 0.66851202781000296 0 0.7750489929959945 0.66593931409600093 0 0.79884539758237771 0.62875045078114233 0 0.82457059160610424 0.66831947184359608 0 0.39801143831225599 0.16651381068160659 0 0.36246644853392812 0.1399454205365751 0 0.39823268594401579 0.1116623613130045 0 0.078358742472063481 0.43365249433908948 0 0.033550201249889847 0.46247875832467239 0 0.035463093262830522 0.42673416072819947 0 0.25676291524611189 0.7436741304886243 0 0.2792923945214143 0.77665808831789485 0 0.22556077506376701 0.77837424984191617 0 0.2236846579037573 0.67380363126050236 0 0.2248999640082178 0.72584299459689172 0 0.19068556247388771 0.71028988922845504 0 0.50715858906372158 0.63295939104129484 0 0.5166924242153631 0.59825134841919447 0 0.5498280205245758 0.6290146943450976 0 0.14618258501891079 0.062070108745602003 0 0.12372429750337779 0.095814237875728972 0 0.10266856499169109 0.044518360900210059 0 0.083411279318303222 0.089699755330707398 0 0.10266856499169109 0.044518360900210059 0 0.12372429750337779 0.095814237875728972 0 0.083411279318375747 0.91030024466934134 0 0.1241151115713819 0.9045666525468371 0 0.10266856499240549 0.95548163909968886 0 0.14617343800780541 0.93808063414349496 0 0.10266856499240549 0.95548163909968886 0 0.1241151115713819 0.9045666525468371 0 0.5499999999988151 0 0 0.59999999999894682 0 0 0.57396793757665954 0.037011367187645222 0 0.54782696902220018 0.79245182748204157 0 0.50627822638148745 0.8263979829520941 0 0.50731287292894423 0.78963574450233831 0 0.6499999999999998 0.29999999999999999 0 0.62657463266645097 0.26524202571255862 0 0.67933712972090698 0.25920070958121938 0 0.86956835336234861 0.571283299838105 0 0.86907294890112186 0.52008116128001669 0 0.90900154012161016 0.53607784105648792 0 0.17933913398461551 0.2350063570234002 0 0.224700362040408 0.22206622194729711 0 0.21049769590865089 0.26857363548218488 0 0.43249999999999988 0.43937499999999979 0 0.3908716102680424 0.47010282357248828 0 0.38707855792647411 0.42299362914874578 0 0.27474541102162192 0.11822029332053539 0 0.22985637510995899 0.1298347970200906 0 0.24218496799700481 0.089025544070598317 0 0.64753070846764316 0.77332939069435502 0 0.66427993341343905 0.73232764502436276 0 0.6916490518212759 0.75387992374886192 0 0 0.40000000000166441 0 0.050583896093752537 0.38543522283434112 0 0.035463093262830522 0.42673416072819947 0 0.73483647259922602 0.44789725365921768 0 0.73947346780852752 0.49062440112282169 0 0.69385896817107129 0.48377516041410151 0 0.57484956128872922 0.66573805030881994 0 0.52584555706968406 0.66664215091846768 0 0.5498280205245758 0.6290146943450976 0 0.60000000000138687 1 0 0.55000000000173355 1 0 0.57382506491224949 0.9629411906298494 0 0.068743045408989428 0.48853989837882689 0 0.085622222639554768 0.53333248912060549 0 0.044576108720083309 0.53509043209532614 0 0.083105206071467416 0.20007701332709979 0 0.044081577119474857 0.2271058242433576 0 0.038512288486115001 0.1844147282893184 0 0.083105206071452636 0.79992298667296435 0 0.038512288486097702 0.8155852717111195 0 0.04408157711937423 0.7728941757575627 0 0.28307294598219601 0.50789252727458634 0 0.23975172658309729 0.49475499200540818 0 0.25982634974572738 0.46097799597715272 0 0.43698630808430822 0.080423614171545449 0 0.39591832466117061 0.056982757562006353 0 0.4320097814748517 0.037406712692169303 0 0.4367309254023824 0.92065556789053882 0 0.4308986359464303 0.96395712492906194 0 0.39641108128798319 0.94356127926187128 0 0.80185942888539485 0.77452061303608133 0 0.75841349681148107 0.75422312624214749 0 0.78578450296893509 0.73292684821144505 0 0.80185942888501827 0.074520613036224564 0 0.7527966693318906 0.053051678021508272 0 0.78393852574753176 0.032039079577822822 0 0.6499999999999998 0.69999999999999996 0 0.62460753523532009 0.66851202781000296 0 0.675261390228442 0.65996937624687813 0 0.33123028043633618 0.77629643437932982 0 0.38586766253264881 0.78219501014812498 0 0.35642984951668422 0.80994399665655703 0 0.6405463747586706 0.63290524857395714 0 0.675261390228442 0.65996937624687813 0 0.62460753523532009 0.66851202781000296 0 0.22278230690790279 0.44824268025881547 0 0.191953871957803 0.42546416763755879 0 0.24049127783545701 0.41270748208749802 0 0.077693244765132896 0.56932317963405099 0 0.050069554451969707 0.61308520079857043 0 0.034381862692950467 0.57372682250960894 0 0.25195515620380449 0.25883339815888678 0 0.24432083401701241 0.3006253385567515 0 0.21049769590865089 0.26857363548218488 0 0.46666084890304671 0.57634471035397938 0 0.5166924242153631 0.59825134841919447 0 0.47095389620662098 0.61892551373708504 0 0.50715858906372158 0.63295939104129484 0 0.47095389620662098 0.61892551373708504 0 0.5166924242153631 0.59825134841919447 0 0.72525833953073282 0.1032114801687094 0 0.7527966693318906 0.053051678021508272 0 0.76878382444651716 0.097147941686331368 0 0.80185942888501827 0.074520613036224564 0 0.76878382444651716 0.097147941686331368 0 0.7527966693318906 0.053051678021508272 0 0.72500000000000064 0.7952620967744265 0 0.75841349681148107 0.75422312624214749 0 0.77094201086366854 0.79647480515688507 0 0.80185942888539485 0.77452061303608133 0 0.77094201086366854 0.79647480515688507 0 0.75841349681148107 0.75422312624214749 0 0.72500000000000064 0.7952620967744265 0 0.68024162096458085 0.79868546898116533 0 0.6916490518212759 0.75387992374886192 0 0.64753070846764316 0.77332939069435502 0 0.6916490518212759 0.75387992374886192 0 0.68024162096458085 0.79868546898116533 0 0 0.50000000000205869 0 0 0.45000000000187229 0 0.033550201249889847 0.46247875832467239 0 0.69999999999999984 0.69999999999999996 0 0.675261390228442 0.65996937624687813 0 0.72500000000000064 0.67022701834392062 0 0.71406021706547751 0.63292083137662503 0 0.72500000000000064 0.67022701834392062 0 0.675261390228442 0.65996937624687813 0 0.65408113592120842 0.073941773121567966 0 0.61940220174112337 0.047251958781050582 0 0.66369801598854572 0.036327466368102787 0 0.59999999999894682 0 0 0.61940220174112337 0.047251958781050582 0 0.57396793757665954 0.037011367187645222 0 0.60000000000138687 1 0 0.57382506491224949 0.9629411906298494 0 0.62065498684670595 0.95224934003983619 0 0.33122374654748771 0.57588941099433744 0 0.35765792684946668 0.6000687869219653 0 0.31502927232353312 0.6134992213375432 0 0.35864735590330371 0.63903383440414463 0 0.31502927232353312 0.6134992213375432 0 0.35765792684946668 0.6000687869219653 0 0.15801167086041079 0.46008690540259539 0 0.19604738184454831 0.47787523520405789 0 0.16618607197337229 0.50652878253548905 0 0.078358742472063481 0.43365249433908948 0 0.035463093262830522 0.42673416072819947 0 0.050583896093752537 0.38543522283434112 0 0.19901705110390991 0.9175543425573498 0 0.22850979588452081 0.95594428570238643 0 0.18474005699953849 0.96231585248064622 0 0.19922788606653311 0.085920220746880993 0 0.184418230509967 0.038773194583122873 0 0.22668068146512929 0.045875643423131329 0 0.19922788606653311 0.085920220746880993 0 0.24218496799700481 0.089025544070598317 0 0.22985637510995899 0.1298347970200906 0 0.74999999999999989 0.69999999999999996 0 0.78578450296893509 0.73292684821144505 0 0.75841349681148107 0.75422312624214749 0 0.74999999999934175 0 0 0.78393852574753176 0.032039079577822822 0 0.7527966693318906 0.053051678021508272 0 0 0.60000000000138687 0 0.034381862692950467 0.57372682250960894 0 0.050069554451969707 0.61308520079857043 0 0.2236846579037573 0.67380363126050236 0 0.26439878998046262 0.7048065392091396 0 0.2248999640082178 0.72584299459689172 0 0.6236733212988993 0.14864538214901801 0 0.58516465772821369 0.11653801664834119 0 0.61956000905586006 0.1043312481793135 0 0.26104540868854792 0.81401944968719064 0 0.2792923945214143 0.77665808831789485 0 0.30857225866488791 0.81101973481716805 0 0.42377727103934271 0.25099357235810238 0 0.42905200079338551 0.19982395548231649 0 0.46429753744194407 0.22870891180733599 0 0.27820712747429932 0.65530134213254643 0 0.31502927232353312 0.6134992213375432 0 0.32263089806001177 0.66003674931826484 0 0.61343887413683884 0.856862479058357 0 0.61885627562261258 0.90282959257498208 0 0.5832743223239254 0.88483152652961872 0 0.43698630808430822 0.080423614171545449 0 0.47040171442036788 0.044141676406503738 0 0.47881186583059909 0.093591717165689425 0 0.4367309254023824 0.92065556789053882 0 0.47401147028110507 0.91529957330468115 0 0.47135117303824892 0.95556877749289892 0 0.91696753777131557 0.497780560203536 0 0.95631871884947484 0.51827533208233789 0 0.90900154012161016 0.53607784105648792 0 0.93732437411268477 0.55911392101136159 0 0.90900154012161016 0.53607784105648792 0 0.95631871884947484 0.51827533208233789 0 0.27474541102162192 0.11822029332053539 0 0.25557216766470708 0.15874861286892261 0 0.22985637510995899 0.1298347970200906 0 0.2185883431182947 0.18019736283949719 0 0.22985637510995899 0.1298347970200906 0 0.25557216766470708 0.15874861286892261 0 0.29348325746214782 0.31350119524708198 0 0.33402499257867951 0.28911035184473982 0 0.32752639306529541 0.32610012995269699 0 0.27499999999933927 0.060310814194988557 0 0.32541448401678508 0.046215317981507749 0 0.3096713403101819 0.085471541595262421 0 0.27270076654418179 0.87751467830216623 0 0.24536017905392571 0.90704567837671446 0 0.2401283238295133 0.85648409884788523 0 1 0.44999999999963131 0 1 0.49999999999950101 0 0.96228564064454991 0.48206450662049471 0 0.61343887413683884 0.856862479058357 0 0.66412543161245952 0.88015090885499059 0 0.61885627562261258 0.90282959257498208 0 0 0.45000000000187229 0 0 0.40000000000166441 0 0.035463093262830522 0.42673416072819947 0 0.69999999999999984 0.69999999999999996 0 0.6916490518212759 0.75387992374886192 0 0.66427993341343905 0.73232764502436276 0 0.43846182030517877 0.64845797726506715 0 0.43323420005758778 0.6913544522562407 0 0.3977710372045391 0.65868194622830212 0 0.4367309254023824 0.92065556789053882 0 0.44003836461056539 0.88093474584252718 0 0.47401147028110507 0.91529957330468115 0 0.43846182030517877 0.64845797726506715 0 0.39743091024207589 0.6239520004230239 0 0.43545892161006339 0.61093128915313821 0 0.43846182030517877 0.64845797726506715 0 0.3977710372045391 0.65868194622830212 0 0.39743091024207589 0.6239520004230239 0 0.26429849586623999 0.19346700179430079 0 0.29336099386129338 0.15892013001050981 0 0.31255190597181792 0.19850845631528771 0 0.19670163708476801 0.31472518408333222 0 0.21049769590865089 0.26857363548218488 0 0.24432083401701241 0.3006253385567515 0 0.57724883562309992 0.92155686857100794 0 0.62065498684670595 0.95224934003983619 0 0.57382506491224949 0.9629411906298494 0 0.4409427642593301 0.35743108089689513 0 0.46655310992796922 0.39650496622958609 0 0.42161023666869668 0.39493916313643851 0 0.46666084890304671 0.57634471035397938 0 0.47095389620662098 0.61892551373708504 0 0.43545892161006339 0.61093128915313821 0 0.6879972333610942 0.43038561374960838 0 0.65178832218679827 0.45929119821019959 0 0.63912439215427275 0.41063340167983359 0 0.43698630808430822 0.080423614171545449 0 0.4320097814748517 0.037406712692169303 0 0.47040171442036788 0.044141676406503738 0 0.4367309254023824 0.92065556789053882 0 0.47135117303824892 0.95556877749289892 0 0.4308986359464303 0.96395712492906194 0 0.79680861578988083 0.92656778056766709 0 0.81486180804382891 0.96321394949790495 0 0.770759834363826 0.95919399014344442 0 0.79680861578956375 0.22656778056752541 0 0.81486180804364938 0.26321394949780091 0 0.77075983436335049 0.25919399014334171 0 0.71508799138962864 0.36622814920737751 0 0.68128176404677243 0.38629093627004979 0 0.68887083591306764 0.33632058575757479 0 0.35864735590330371 0.63903383440414463 0 0.32263089806001177 0.66003674931826484 0 0.31502927232353312 0.6134992213375432 0 0.21858834311891909 0.81980263716112767 0 0.2401283238295133 0.85648409884788523 0 0.19741632902693801 0.86755867406447229 0 0.35312867752657662 0.084946736076730367 0 0.32215584939770009 0.1218492143506909 0 0.3096713403101819 0.085471541595262421 0 0.35752321586431363 0.9185439911803448 0 0.35864759629805099 0.87963482415279515 0 0.39767323751400468 0.89584229130535065 0 0.41914690343363781 0.30688979866601612 0 0.4604742573284204 0.27846934318264788 0 0.46226845272279993 0.31901800744800313 0 0.33084213324567391 0.16272720141332131 0 0.32215584939770009 0.1218492143506909 0 0.36246644853392812 0.1399454205365751 0 0.46666084890304671 0.57634471035397938 0 0.42644501560315817 0.54603747078095544 0 0.47793794143994173 0.52940715638744962 0 0 0.60000000000138687 0 0 0.55000000000173355 0 0.034381862692950467 0.57372682250960894 0 0.77354604466818633 0.40378688774472771 0 0.74764719760526988 0.3719647154012321 0 0.78145581580700685 0.34881365920033602 0 0.34999999999912063 0 0 0.3615861437013822 0.03582617922508851 0 0.32541448401678508 0.046215317981507749 0 0.35000000000145642 1 0 0.32544832635163229 0.95485394099568932 0 0.36184234618600131 0.96443954459096326 0 0.57667858002728545 0.078486105337742612 0 0.57396793757665954 0.037011367187645222 0 0.61940220174112337 0.047251958781050582 0 0.47357141910802508 0.1873585799078378 0 0.50760557329222289 0.20700468884612061 0 0.46429753744194407 0.22870891180733599 0 0.49695729691142171 0.25014895411178018 0 0.46429753744194407 0.22870891180733599 0 0.50760557329222289 0.20700468884612061 0 0.33084213324567391 0.16272720141332131 0 0.3572130504031617 0.1874703368446563 0 0.31255190597181792 0.19850845631528771 0 0.6879972333610942 0.43038561374960838 0 0.63912439215427275 0.41063340167983359 0 0.68128176404677243 0.38629093627004979 0 0.65408113592120842 0.073941773121567966 0 0.65290632656860115 0.11434202593454081 0 0.61956000905586006 0.1043312481793135 0 0.33084213324567391 0.16272720141332131 0 0.31255190597181792 0.19850845631528771 0 0.29336099386129338 0.15892013001050981 0 0.61209567303293111 0.44669033081290321 0 0.63912439215427275 0.41063340167983359 0 0.65178832218679827 0.45929119821019959 0 0.086179601630648681 0.64647209519980475 0 0.1024350934457823 0.60772393977513839 0 0.1241190223511371 0.64391885572885044 0 0.44999999999882923 0 0 0.47040171442036788 0.044141676406503738 0 0.4320097814748517 0.037406712692169303 0 0.45000000000187229 1 0 0.4308986359464303 0.96395712492906194 0 0.47135117303824892 0.95556877749289892 0 0.74999999999934175 0 0 0.7527966693318906 0.053051678021508272 0 0.72683645290270404 0.027797073151180601 0 0.74999999999999989 0.69999999999999996 0 0.75841349681148107 0.75422312624214749 0 0.72501250972655151 0.74067302935308721 0 0.69999999999999984 0.69999999999999996 0 0.72501250972655151 0.74067302935308721 0 0.6916490518212759 0.75387992374886192 0 0.74999999999934175 0 0 0.79999999999947335 0 0 0.78393852574753176 0.032039079577822822 0 0.74999999999999989 0.69999999999999996 0 0.79999999999999982 0.69999999999999996 0 0.78578450296893509 0.73292684821144505 0 0.6405463747586706 0.63290524857395714 0 0.5991018319127801 0.62925360607495295 0 0.63065402604362242 0.59661356661633302 0 0.65481233915350323 0.35652751921065562 0 0.68887083591306764 0.33632058575757479 0 0.68128176404677243 0.38629093627004979 0 0.89999999999999991 0.29999999999999999 0 0.94999999999999996 0.29999999999999999 0 0.92012390126144183 0.33123581297173937 0 0.89999999999999991 0.69999999999999996 0 0.92057473616084773 0.66770436535372446 0 0.94999999999999996 0.69999999999999996 0 0.4367309254023824 0.92065556789053882 0 0.39767323751400468 0.89584229130535065 0 0.44003836461056539 0.88093474584252718 0 0.2185883431182947 0.18019736283949719 0 0.18124454140915969 0.18790916706335251 0 0.18652628422869419 0.14162325200928061 0 0.20050006573841939 0.53248514016039872 0 0.19604738184454831 0.47787523520405789 0 0.23975172658309729 0.49475499200540818 0 0.65507451745379841 0.92229208810758578 0 0.61885627562261258 0.90282959257498208 0 0.66412543161245952 0.88015090885499059 0 0.65394964615507722 0.22666784374016369 0 0.67933712972090698 0.25920070958121938 0 0.62657463266645097 0.26524202571255862 0 0.077693244765132896 0.56932317963405099 0 0.034381862692950467 0.57372682250960894 0 0.044576108720083309 0.53509043209532614 0 0.39801143831225599 0.16651381068160659 0 0.38831533174504851 0.2189834941785925 0 0.3572130504031617 0.1874703368446563 0 0.6499999999999998 0.69999999999999996 0 0.69999999999999984 0.69999999999999996 0 0.66427993341343905 0.73232764502436276 0 0.1215415378367805 0.72939333680004137 0 0.15332765547575641 0.71200081858233666 0 0.14335651144331049 0.75565258250209677 0 0.6405463747586706 0.63290524857395714 0 0.63065402604362242 0.59661356661633302 0 0.67529834988829951 0.61613270668143583 0 0.67323294229744413 0.57556450033612505 0 0.67529834988829951 0.61613270668143583 0 0.63065402604362242 0.59661356661633302 0 0.91750694127107502 0.36982372220068471 0 0.87430060258887643 0.34056085888204451 0 0.92012390126144183 0.33123581297173937 0 0.89999999999999991 0.29999999999999999 0 0.92012390126144183 0.33123581297173937 0 0.87430060258887643 0.34056085888204451 0 0.89999999999999991 0.69999999999999996 0 0.87712158428786946 0.65709029563313581 0 0.92057473616084773 0.66770436535372446 0 0.91750694127105259 0.63017627779935648 0 0.92057473616084773 0.66770436535372446 0 0.87712158428786946 0.65709029563313581 0 0.33122374654748771 0.57588941099433744 0 0.29110487519241501 0.56588143995431495 0 0.33190227185843768 0.52715113583864037 0 0.57484956128872922 0.66573805030881994 0 0.5498280205245758 0.6290146943450976 0 0.5991018319127801 0.62925360607495295 0 0.57412547362576272 0.58273804879550706 0 0.5991018319127801 0.62925360607495295 0 0.5498280205245758 0.6290146943450976 0 0.65408113592120842 0.073941773121567966 0 0.66369801598854572 0.036327466368102787 0 0.7010294155333181 0.056779085686491267 0 0.27474541102162192 0.11822029332053539 0 0.32215584939770009 0.1218492143506909 0 0.29336099386129338 0.15892013001050981 0 0.33084213324567391 0.16272720141332131 0 0.29336099386129338 0.15892013001050981 0 0.32215584939770009 0.1218492143506909 0 0.5 0.29999999999999999 0 0.54999999999999993 0.29999999999999999 0 0.52752007115234678 0.33170632466418198 0 0.83573492347052902 0.36590755630746369 0 0.87430060258887643 0.34056085888204451 0 0.86844634540301924 0.38530937474099819 0 0.83758014339878906 0.63222013025741819 0 0.87159648282691515 0.61285406320581504 0 0.87712158428786946 0.65709029563313581 0 0.22278230690790279 0.44824268025881547 0 0.23975172658309729 0.49475499200540818 0 0.19604738184454831 0.47787523520405789 0 1 0.49999999999950101 0 0.95631871884947484 0.51827533208233789 0 0.96228564064454991 0.48206450662049471 0 0.1650278706801647 0.38791388161335733 0 0.13773355295499351 0.42497777642586831 0 0.1117088112799664 0.38831403004970022 0 0.61209567303293111 0.44669033081290321 0 0.57975577671020095 0.46172033326338591 0 0.57744073070774993 0.41535148636609359 0 0.077693244765132896 0.56932317963405099 0 0.1154888278694548 0.56733818459978413 0 0.1024350934457823 0.60772393977513839 0 0.68697391633157634 0.84450604838764298 0 0.65005442820240822 0.82644988530054031 0 0.68024162096458085 0.79868546898116533 0 0.76901770135486491 0.84293557325473656 0 0.77094201086366854 0.79647480515688507 0 0.80041942726660109 0.81543261647703358 0 0.77144070960558853 0.14311854477243749 0 0.76878382444651716 0.097147941686331368 0 0.80076557130237269 0.1154587552654202 0 0.5 0.69999999999999996 0 0.52584555706968406 0.66664215091846768 0 0.54999999999999993 0.69999999999999996 0 0.077693244765132896 0.56932317963405099 0 0.044576108720083309 0.53509043209532614 0 0.085622222639554768 0.53333248912060549 0 0.69999999999921003 0 0 0.72683645290270404 0.027797073151180601 0 0.7010294155333181 0.056779085686491267 0 1 0 0 0.97166519676946894 0.033371144900598393 0 0.94999999999986839 0 0 1 0.69999999999999996 0 0.97166519676947294 0.73337114490064459 0 0.94999999999999996 0.69999999999999996 0 1 0.69999999999999996 0 1 0.74999999999993494 0 0.97166519676947294 0.73337114490064459 0 1 0.29999999999999999 0 0.97166519676951801 0.26662885509932011 0 1 0.24999999999987299 0 1 1 0 0.94999999999979179 1 0 0.97166519676946206 0.96662885509935492 0 1 0 0 1 0.049999999999896842 0 0.97166519676946894 0.033371144900598393 0 1 0.29999999999999999 0 0.94999999999999996 0.29999999999999999 0 0.97166519676951801 0.26662885509932011 0 1 1 0 0.97166519676946206 0.96662885509935492 0 1 0.94999999999997109 0 0 0.55000000000173355 0 0.044576108720083309 0.53509043209532614 0 0.034381862692950467 0.57372682250960894 0 0.6879972333610942 0.43038561374960838 0 0.69385896817107129 0.48377516041410151 0 0.65178832218679827 0.45929119821019959 0 0.33084213324567391 0.16272720141332131 0 0.36246644853392812 0.1399454205365751 0 0.3572130504031617 0.1874703368446563 0 0.65408113592120842 0.073941773121567966 0 0.68330259535470161 0.10038702501083881 0 0.65290632656860115 0.11434202593454081 0 0.16500388252850301 0.66612077714085194 0 0.19068556247388771 0.71028988922845504 0 0.15332765547575641 0.71200081858233666 0 0.82709327591091286 0.84937141670920724 0 0.85600844944837662 0.88483418979512773 0 0.81159157511211755 0.88795995483179491 0 0.82709327591102189 0.14937141670914489 0 0.85600844944842547 0.1848341897950983 0 0.81283102246527783 0.1881007222486438 0 0.79999999999999982 0.29999999999999999 0 0.84999999999999987 0.29999999999999999 0 0.82500000000000062 0.33010209762754811 0 0.79999999999999982 0.69999999999999996 0 0.82457059160610424 0.66831947184359608 0 0.84999999999999987 0.69999999999999996 0 0.59999999999999976 0.69999999999999996 0 0.62460753523532009 0.66851202781000296 0 0.6499999999999998 0.69999999999999996 0 0.39801143831225599 0.16651381068160659 0 0.3572130504031617 0.1874703368446563 0 0.36246644853392812 0.1399454205365751 0 0.69999999999999984 0.29999999999999999 0 0.74999999999999989 0.29999999999999999 0 0.73090396928863699 0.33699297293167962 0 0.69999999999999984 0.69999999999999996 0 0.72500000000000064 0.67022701834392062 0 0.74999999999999989 0.69999999999999996 0 0.6236733212988993 0.14864538214901801 0 0.64011864159029941 0.18789607982138171 0 0.59443395090188023 0.18455690917515069 0 0.20050006573841939 0.53248514016039872 0 0.16618607197337229 0.50652878253548905 0 0.19604738184454831 0.47787523520405789 0 0.79680861578956375 0.22656778056752541 0 0.76587607630038135 0.18880039518954719 0 0.81283102246527783 0.1881007222486438 0 0.79680861578988083 0.92656778056766709 0 0.76891166905518427 0.88835469571185499 0 0.81159157511211755 0.88795995483179491 0 0.71406021706547751 0.63292083137662503 0 0.675261390228442 0.65996937624687813 0 0.67529834988829951 0.61613270668143583 0 0.6405463747586706 0.63290524857395714 0 0.67529834988829951 0.61613270668143583 0 0.675261390228442 0.65996937624687813 0 0.19670163708476801 0.31472518408333222 0 0.168349569971391 0.28054490850913671 0 0.21049769590865089 0.26857363548218488 0 0.47357141910802508 0.1873585799078378 0 0.46429753744194407 0.22870891180733599 0 0.42905200079338551 0.19982395548231649 0 0.59814117807200873 0.23398510860739519 0 0.5794309697024993 0.27124795968204829 0 0.54248833945060504 0.2520322959927106 0 0.6541250972820879 0.49999999999999989 0 0.65178832218679827 0.45929119821019959 0 0.69385896817107129 0.48377516041410151 0 0.54999999999999993 0.29999999999999999 0 0.5794309697024993 0.27124795968204829 0 0.59999999999999976 0.29999999999999999 0 0.7750489929959945 0.66593931409600093 0 0.74994237037456724 0.62775548192980357 0 0.79884539758237771 0.62875045078114233 0 0.77293540622714185 0.59448302402785813 0 0.79884539758237771 0.62875045078114233 0 0.74994237037456724 0.62775548192980357 0 0.14332333627550789 0.14578431753966009 0 0.16141998738593399 0.10404039647458049 0 0.18652628422869419 0.14162325200928061 0 0.38083244760691543 0.38531983672244652 0 0.42161023666869668 0.39493916313643851 0 0.38707855792647411 0.42299362914874578 0 0.43249999999999988 0.43937499999999979 0 0.38707855792647411 0.42299362914874578 0 0.42161023666869668 0.39493916313643851 0 0.43846182030517877 0.64845797726506715 0 0.47095389620662098 0.61892551373708504 0 0.47913475093885149 0.66010775372412711 0 0.50715858906372158 0.63295939104129484 0 0.47913475093885149 0.66010775372412711 0 0.47095389620662098 0.61892551373708504 0 0.69999999999999984 0.69999999999999996 0 0.74999999999999989 0.69999999999999996 0 0.72501250972655151 0.74067302935308721 0 0.4089290844030305 0.58728915500154233 0 0.35765792684946668 0.6000687869219653 0 0.37272913873093971 0.56192925302619479 0 0.69999999999921003 0 0 0.74999999999934175 0 0 0.72683645290270404 0.027797073151180601 0 0.17933913398461551 0.2350063570234002 0 0.21049769590865089 0.26857363548218488 0 0.168349569971391 0.28054490850913671 0 0.14474682429600511 0.85524784522713515 0 0.10562472963403439 0.87143394428979881 0 0.1074251789111534 0.83564394292147814 0 0.14332333627550789 0.14578431753966009 0 0.106902708054812 0.16453234188234539 0 0.1053400320299198 0.12877248826361379 0 0.2236846579037573 0.67380363126050236 0 0.19914261668318661 0.62286739485272158 0 0.2459498854893499 0.63248470766216769 0 0.049999999999899652 0 0 0.053064897599215843 0.048131547304697528 0 0.02576622439977887 0.024532886826226379 0 0 0.050000000000207989 0 0.02576622439977887 0.024532886826226379 0 0.053064897599215843 0.048131547304697528 0 0.050000000000207989 1 0 0.025766224399875661 0.97546711317377799 0 0.053064897599294662 0.95186845269532028 0 0 0.94999999999979179 0 0.053064897599294662 0.95186845269532028 0 0.025766224399875661 0.97546711317377799 0 0.47357141910802508 0.1873585799078378 0 0.48466639505193998 0.1421439844745814 0 0.51729576145820033 0.1683240575987815 0 0.077693244765132896 0.56932317963405099 0 0.085622222639554768 0.53333248912060549 0 0.1154888278694548 0.56733818459978413 0 0.64753070846764316 0.77332939069435502 0 0.63221990677827677 0.73442891067859706 0 0.66427993341343905 0.73232764502436276 0 0.4656888918609538 0.78493261229743638 0 0.42609163930740518 0.80361684430568059 0 0.42676259796334498 0.76772545931379299 0 0.4089290844030305 0.58728915500154233 0 0.39743091024207589 0.6239520004230239 0 0.35765792684946668 0.6000687869219653 0 0.55306006949600994 0.20198184231352201 0 0.50760557329222289 0.20700468884612061 0 0.51729576145820033 0.1683240575987815 0 1 0.8999999999998336 0 1 0.94999999999997109 0 0.97435614836744289 0.92499999999990257 0 1 0.19999999999974799 0 1 0.24999999999987299 0 0.97435614836740092 0.22499999999981049 0 1 0.74999999999993494 0 1 0.7999999999998193 0 0.97435614836745565 0.77499999999987745 0 1 0.049999999999896842 0 1 0.099999999999753911 0 0.97435614836748241 0.074999999999825387 0 0.86411095495256451 0.42388805655111889 0 0.86844634540301924 0.38530937474099819 0 0.90594285160987287 0.4141265964174129 0 0.86956835336234861 0.571283299838105 0 0.91143117093204207 0.58709913730335972 0 0.87159648282691515 0.61285406320581504 0 0 0 0 0.02576622439977887 0.024532886826226379 0 0 0.050000000000207989 0 0 1 0 0 0.94999999999979179 0 0.025766224399875661 0.97546711317377799 0 0 1 0 0.025766224399875661 0.97546711317377799 0 0.050000000000207989 1 0 0 0 0 0.049999999999899652 0 0 0.02576622439977887 0.024532886826226379 0 0.65394964615507722 0.22666784374016369 0 0.64011864159029941 0.18789607982138171 0 0.6865991819015953 0.189116534044597 0 0.25195515620380449 0.25883339815888678 0 0.28040350263641872 0.23054717217092141 0 0.29132859388405002 0.27203693976649962 0 0.61209567303293111 0.44669033081290321 0 0.65178832218679827 0.45929119821019959 0 0.61547661924074692 0.48539576058873962 0 0.6541250972820879 0.49999999999999989 0 0.61547661924074692 0.48539576058873962 0 0.65178832218679827 0.45929119821019959 0 0.19670163708476801 0.31472518408333222 0 0.24432083401701241 0.3006253385567515 0 0.22615676742807109 0.33458786033114157 0 0.15801167086041079 0.46008690540259539 0 0.13773355295499351 0.42497777642586831 0 0.191953871957803 0.42546416763755879 0 0.1650278706801647 0.38791388161335733 0 0.191953871957803 0.42546416763755879 0 0.13773355295499351 0.42497777642586831 0 0.50715858906372158 0.63295939104129484 0 0.52584555706968406 0.66664215091846768 0 0.47913475093885149 0.66010775372412711 0 0.5 0.69999999999999996 0 0.47913475093885149 0.66010775372412711 0 0.52584555706968406 0.66664215091846768 0 0.51076801031701946 0.1202837388510348 0 0.51729576145820033 0.1683240575987815 0 0.48466639505193998 0.1421439844745814 0 0.71406021706547751 0.63292083137662503 0 0.74994237037456724 0.62775548192980357 0 0.72500000000000064 0.67022701834392062 0 0.71508799138962864 0.36622814920737751 0 0.73090396928863699 0.33699297293167962 0 0.74764719760526988 0.3719647154012321 0 0.22278230690790279 0.44824268025881547 0 0.25982634974572738 0.46097799597715272 0 0.23975172658309729 0.49475499200540818 0 0.80185942888539485 0.77452061303608133 0 0.78578450296893509 0.73292684821144505 0 0.81864958914779962 0.73589050177899629 0 0.80185942888501827 0.074520613036224564 0 0.78393852574753176 0.032039079577822822 0 0.81864958914740749 0.035890501779055867 0 0.5 0.29999999999999999 0 0.46226845272279993 0.31901800744800313 0 0.4604742573284204 0.27846934318264788 0 0.6405463747586706 0.63290524857395714 0 0.62460753523532009 0.66851202781000296 0 0.5991018319127801 0.62925360607495295 0 0.79680861578988083 0.92656778056766709 0 0.770759834363826 0.95919399014344442 0 0.75729602384198635 0.92353652857884294 0 0.79680861578956375 0.22656778056752541 0 0.77075983436335049 0.25919399014334171 0 0.75668890529066124 0.2244279804069782 0 0.65394964615507722 0.22666784374016369 0 0.69397719155551807 0.2245125647000914 0 0.67933712972090698 0.25920070958121938 0 0.81973119833356312 0.43505687159469048 0 0.84925632466077294 0.45359738909549091 0 0.81400510706333218 0.47357325943904899 0 0.83758014339878906 0.63222013025741819 0 0.82457059160610424 0.66831947184359608 0 0.79884539758237771 0.62875045078114233 0 0.25676291524611189 0.7436741304886243 0 0.2248999640082178 0.72584299459689172 0 0.26439878998046262 0.7048065392091396 0 0.91696753777131557 0.497780560203536 0 0.90900154012161016 0.53607784105648792 0 0.86907294890112186 0.52008116128001669 0 0.17933913398461551 0.2350063570234002 0 0.168349569971391 0.28054490850913671 0 0.14377654328998779 0.2442024734791064 0 0.1247745017231483 0.27198077544791172 0 0.14377654328998779 0.2442024734791064 0 0.168349569971391 0.28054490850913671 0 0.34258405725730701 0.4444034294386992 0 0.35221190152536241 0.40457127605439203 0 0.38707855792647411 0.42299362914874578 0 0.47357141910802508 0.1873585799078378 0 0.51729576145820033 0.1683240575987815 0 0.50760557329222289 0.20700468884612061 0 0.19670163708476801 0.31472518408333222 0 0.22615676742807109 0.33458786033114157 0 0.18434624290945251 0.35208838264196463 0 0.22033343844674469 0.36963382230740238 0 0.18434624290945251 0.35208838264196463 0 0.22615676742807109 0.33458786033114157 0 0.24432083401701241 0.3006253385567515 0 0.25966125648670141 0.34351016742083729 0 0.22615676742807109 0.33458786033114157 0 0.93814194660195893 0.44426664081746747 0 0.90594285160987287 0.4141265964174129 0 0.95871855522754235 0.40006508612975411 0 0.91750694127107502 0.36982372220068471 0 0.95871855522754235 0.40006508612975411 0 0.90594285160987287 0.4141265964174129 0 0.91750694127105259 0.63017627779935648 0 0.91143117093204207 0.58709913730335972 0 0.95867599106212187 0.60011091146651041 0 0.93732437411268477 0.55911392101136159 0 0.95867599106212187 0.60011091146651041 0 0.91143117093204207 0.58709913730335972 0 0.50715858906372158 0.63295939104129484 0 0.5498280205245758 0.6290146943450976 0 0.52584555706968406 0.66664215091846768 0 0.94399509803918602 0.75600490196082126 0 0.97435614836745565 0.77499999999987745 0 0.95386563387742829 0.80414874155775029 0 0.94399509803922566 0.056004901960802607 0 0.97435614836748241 0.074999999999825387 0 0.95386563387744361 0.1041487415577465 0 0.94399509803921056 0.24399509803922639 0 0.95391631417672862 0.19584263333809451 0 0.97435614836740092 0.22499999999981049 0 0.94399509803919068 0.9439950980391687 0 0.95391631417670719 0.89584263333814784 0 0.97435614836744289 0.92499999999990257 0 0.79680861578988083 0.92656778056766709 0 0.75729602384198635 0.92353652857884294 0 0.76891166905518427 0.88835469571185499 0 0.79680861578956375 0.22656778056752541 0 0.75668890529066124 0.2244279804069782 0 0.76587607630038135 0.18880039518954719 0 0.65394964615507722 0.22666784374016369 0 0.6865991819015953 0.189116534044597 0 0.69397719155551807 0.2245125647000914 0 0.38083244760691543 0.38531983672244652 0 0.38707855792647411 0.42299362914874578 0 0.35221190152536241 0.40457127605439203 0 1 0.7999999999998193 0 0.95386563387742829 0.80414874155775029 0 0.97435614836745565 0.77499999999987745 0 1 0.099999999999753911 0 0.95386563387744361 0.1041487415577465 0 0.97435614836748241 0.074999999999825387 0 1 0.8999999999998336 0 0.97435614836744289 0.92499999999990257 0 0.95391631417670719 0.89584263333814784 0 1 0.19999999999974799 0 0.97435614836740092 0.22499999999981049 0 0.95391631417672862 0.19584263333809451 0 0.84723782639812573 0.48638347960178252 0 0.81400510706333218 0.47357325943904899 0 0.84925632466077294 0.45359738909549091 0 0.54999999999999993 0.29999999999999999 0 0.54248833945060504 0.2520322959927106 0 0.5794309697024993 0.27124795968204829 0 0.94999999999999996 0.29999999999999999 0 0.95780851984364423 0.34215720972155339 0 0.92012390126144183 0.33123581297173937 0 0.94999999999999996 0.69999999999999996 0 0.92057473616084773 0.66770436535372446 0 0.9578014258160763 0.65787212321113708 0 0.15801167086041079 0.46008690540259539 0 0.113541300460994 0.46208784312094731 0 0.13773355295499351 0.42497777642586831 0 0.7250000000005199 0.94981617647078953 0 0.68015064798562208 0.95924320340003011 0 0.68987011941058407 0.92105047536677087 0 0.65507451745379841 0.92229208810758578 0 0.68987011941058407 0.92105047536677087 0 0.68015064798562208 0.95924320340003011 0 0.77846603114747959 0.49850927265137401 0 0.77972660463949339 0.45529290596363098 0 0.81400510706333218 0.47357325943904899 0 0.27866744612395528 0.38416094670951489 0 0.25966125648670141 0.34351016742083729 0 0.29644548887253103 0.34914008784168082 0 0.61209567303293111 0.44669033081290321 0 0.61547661924074692 0.48539576058873962 0 0.57975577671020095 0.46172033326338591 0 0.57611405284611883 0.50165903596042916 0 0.57975577671020095 0.46172033326338591 0 0.61547661924074692 0.48539576058873962 0 0.7250000000005199 0.89375000000045834 0 0.76891166905518427 0.88835469571185499 0 0.75729602384198635 0.92353652857884294 0 0.72500000000001008 0.19776155966387679 0 0.76587607630038135 0.18880039518954719 0 0.75668890529066124 0.2244279804069782 0 0.72500000000001008 0.19776155966387679 0 0.69397719155551807 0.2245125647000914 0 0.6865991819015953 0.189116534044597 0 0.083411279318303222 0.089699755330707398 0 0.12372429750337779 0.095814237875728972 0 0.1053400320299198 0.12877248826361379 0 0.083411279318375747 0.91030024466934134 0 0.10562472963403439 0.87143394428979881 0 0.1241151115713819 0.9045666525468371 0 0.14617343800780541 0.93808063414349496 0 0.1241151115713819 0.9045666525468371 0 0.16206583317966519 0.89685560785156404 0 0.14618258501891079 0.062070108745602003 0 0.16141998738593399 0.10404039647458049 0 0.12372429750337779 0.095814237875728972 0 0.33277555741076909 0.36432196682010132 0 0.35221190152536241 0.40457127605439203 0 0.31778888742534622 0.40581751814196781 0 0.7250000000005199 0.94981617647078953 0 0.75729602384198635 0.92353652857884294 0 0.770759834363826 0.95919399014344442 0 0.72500000000000064 0.2498161764706 0 0.75668890529066124 0.2244279804069782 0 0.77075983436335049 0.25919399014334171 0 0.72500000000000064 0.2498161764706 0 0.67933712972090698 0.25920070958121938 0 0.69397719155551807 0.2245125647000914 0 0.6236733212988993 0.14864538214901801 0 0.61956000905586006 0.1043312481793135 0 0.65290632656860115 0.11434202593454081 0 0.81973119833356312 0.43505687159469048 0 0.81400510706333218 0.47357325943904899 0 0.77972660463949339 0.45529290596363098 0 0.25676291524611189 0.7436741304886243 0 0.29904318922293632 0.74132814928635593 0 0.2792923945214143 0.77665808831789485 0 0.36575549820117997 0.31677992835137742 0 0.32752639306529541 0.32610012995269699 0 0.33402499257867951 0.28911035184473982 0 0.14332333627550789 0.14578431753966009 0 0.18652628422869419 0.14162325200928061 0 0.18124454140915969 0.18790916706335251 0 0.57724883562309992 0.92155686857100794 0 0.5832743223239254 0.88483152652961872 0 0.61885627562261258 0.90282959257498208 0 0.57667858002728545 0.078486105337742612 0 0.61956000905586006 0.1043312481793135 0 0.58516465772821369 0.11653801664834119 0 0.80185942888539485 0.77452061303608133 0 0.80041942726660109 0.81543261647703358 0 0.77094201086366854 0.79647480515688507 0 0.80185942888501827 0.074520613036224564 0 0.80076557130237269 0.1154587552654202 0 0.76878382444651716 0.097147941686331368 0 0.64753070846764316 0.77332939069435502 0 0.68024162096458085 0.79868546898116533 0 0.65005442820240822 0.82644988530054031 0 0.26429849586623999 0.19346700179430079 0 0.25557216766470708 0.15874861286892261 0 0.29336099386129338 0.15892013001050981 0 0.29348325746214782 0.31350119524708198 0 0.29644548887253103 0.34914008784168082 0 0.25966125648670141 0.34351016742083729 0 0.68391457121233579 0.14440470121196541 0 0.65290632656860115 0.11434202593454081 0 0.68330259535470161 0.10038702501083881 0 0.91750694127107502 0.36982372220068471 0 0.92012390126144183 0.33123581297173937 0 0.95780851984364423 0.34215720972155339 0 0.91750694127105259 0.63017627779935648 0 0.9578014258160763 0.65787212321113708 0 0.92057473616084773 0.66770436535372446 0 0.22033343844674469 0.36963382230740238 0 0.22615676742807109 0.33458786033114157 0 0.25966125648670141 0.34351016742083729 0 1 0.94999999999997109 0 0.97166519676946206 0.96662885509935492 0 0.97435614836744289 0.92499999999990257 0 0.94399509803919068 0.9439950980391687 0 0.97435614836744289 0.92499999999990257 0 0.97166519676946206 0.96662885509935492 0 0.94399509803921056 0.24399509803922639 0 0.97435614836740092 0.22499999999981049 0 0.97166519676951801 0.26662885509932011 0 1 0.24999999999987299 0 0.97166519676951801 0.26662885509932011 0 0.97435614836740092 0.22499999999981049 0 1 0.74999999999993494 0 0.97435614836745565 0.77499999999987745 0 0.97166519676947294 0.73337114490064459 0 1 0.049999999999896842 0 0.97435614836748241 0.074999999999825387 0 0.97166519676946894 0.033371144900598393 0 0.94399509803918602 0.75600490196082126 0 0.97166519676947294 0.73337114490064459 0 0.97435614836745565 0.77499999999987745 0 0.94399509803922566 0.056004901960802607 0 0.97166519676946894 0.033371144900598393 0 0.97435614836748241 0.074999999999825387 0 0.77846603114747959 0.49850927265137401 0 0.81400510706333218 0.47357325943904899 0 0.81441713509985358 0.51161854125224959 0 0.77354604466818633 0.40378688774472771 0 0.72622533758026719 0.40265885511101601 0 0.74764719760526988 0.3719647154012321 0 0.71508799138962864 0.36622814920737751 0 0.74764719760526988 0.3719647154012321 0 0.72622533758026719 0.40265885511101601 0 0.84723782639812573 0.48638347960178252 0 0.84925632466077294 0.45359738909549091 0 0.88594198078881503 0.46167788676578442 0 0.86411095495256451 0.42388805655111889 0 0.88594198078881503 0.46167788676578442 0 0.84925632466077294 0.45359738909549091 0 0.43846182030517877 0.64845797726506715 0 0.43545892161006339 0.61093128915313821 0 0.47095389620662098 0.61892551373708504 0 0.33123028043633618 0.77629643437932982 0 0.35642984951668422 0.80994399665655703 0 0.30857225866488791 0.81101973481716805 0 0.33403534827021109 0.84402799729020661 0 0.30857225866488791 0.81101973481716805 0 0.35642984951668422 0.80994399665655703 0 0.26429849586623999 0.19346700179430079 0 0.31255190597181792 0.19850845631528771 0 0.28040350263641872 0.23054717217092141 0 0.57724883562309992 0.92155686857100794 0 0.54783390826260769 0.89287767010860219 0 0.5832743223239254 0.88483152652961872 0 0.55899371797446828 0.85003102233514438 0 0.5832743223239254 0.88483152652961872 0 0.54783390826260769 0.89287767010860219 0 0.4089290844030305 0.58728915500154233 0 0.43545892161006339 0.61093128915313821 0 0.39743091024207589 0.6239520004230239 0 0.77293540622714185 0.59448302402785813 0 0.81723410853263523 0.59419663659258926 0 0.79884539758237771 0.62875045078114233 0 0.83758014339878906 0.63222013025741819 0 0.79884539758237771 0.62875045078114233 0 0.81723410853263523 0.59419663659258926 0 0.35864735590330371 0.63903383440414463 0 0.39743091024207589 0.6239520004230239 0 0.3977710372045391 0.65868194622830212 0 0.56202748619534593 0.15054058349222879 0 0.54979595918804436 0.1060565713905809 0 0.58516465772821369 0.11653801664834119 0 0.57667858002728545 0.078486105337742612 0 0.58516465772821369 0.11653801664834119 0 0.54979595918804436 0.1060565713905809 0 0.33122374654748771 0.57588941099433744 0 0.37272913873093971 0.56192925302619479 0 0.35765792684946668 0.6000687869219653 0 0.35864735590330371 0.63903383440414463 0 0.35765792684946668 0.6000687869219653 0 0.39743091024207589 0.6239520004230239 0 0.71508799138962864 0.36622814920737751 0 0.68887083591306764 0.33632058575757479 0 0.73090396928863699 0.33699297293167962 0 0.29348325746214782 0.31350119524708198 0 0.32752639306529541 0.32610012995269699 0 0.29644548887253103 0.34914008784168082 0 0.33277555741076909 0.36432196682010132 0 0.29644548887253103 0.34914008784168082 0 0.32752639306529541 0.32610012995269699 0 0.34258405725730701 0.4444034294386992 0 0.31778888742534622 0.40581751814196781 0 0.35221190152536241 0.40457127605439203 0 0.79999999999999982 0.69999999999999996 0 0.81864958914779962 0.73589050177899629 0 0.78578450296893509 0.73292684821144505 0 0.79999999999947335 0 0 0.81864958914740749 0.035890501779055867 0 0.78393852574753176 0.032039079577822822 0 0.27474541102162192 0.11822029332053539 0 0.29336099386129338 0.15892013001050981 0 0.25557216766470708 0.15874861286892261 0 0 0.45000000000187229 0 0.035463093262830522 0.42673416072819947 0 0.033550201249889847 0.46247875832467239 0 0.6499999999999998 0.69999999999999996 0 0.66427993341343905 0.73232764502436276 0 0.63221990677827677 0.73442891067859706 0 0.84723782639812573 0.48638347960178252 0 0.81441713509985358 0.51161854125224959 0 0.81400510706333218 0.47357325943904899 0 0.26104540868854792 0.81401944968719064 0 0.30857225866488791 0.81101973481716805 0 0.29209212897034281 0.84715728365233667 0 0.33403534827021109 0.84402799729020661 0 0.29209212897034281 0.84715728365233667 0 0.30857225866488791 0.81101973481716805 0 0.69999999999999984 0.29999999999999999 0 0.73090396928863699 0.33699297293167962 0 0.68887083591306764 0.33632058575757479 0 
</DataArray>
</Points>
<Cells>
<DataArray type="UInt32" Name="connectivity" format="ascii">
0 1 2 3 4 5 6 7 8 9 10 11 12 13 14 15 16 17 18 19 20 21 22 23 24 25 26 27 28 29 30 31 32 33 34 35 36 37 38 39 40 41 42 43 44 45 46 47 48 49 50 51 52 53 54 55 56 57 58 59 60 61 62 63 64 65 66 67 68 69 70 71 72 73 74 75 76 77 78 79 80 81 82 83 84 85 86 87 88 89 90 91 92 93 94 95 96 97 98 99 100 101 102 103 104 105 106 107 108 109 110 111 112 113 114 115 116 117 118 119 120 121 122 123 124 125 126 127 128 129 130 131 132 133 134 135 136 137 138 139 140 141 142 143 144 145 146 147 148 149 150 151 152 153 154 155 156 157 158 159 160 161 162 163 164 165 166 167 168 169 170 171 172 173 174 175 176 177 178 179 180 181 182 183 184 185 186 187 188 189 190 191 192 193 194 195 196 197 198 199 200 201 202 203 204 205 206 207 208 209 210 211 212 213 214 215 216 217 218 219 220 221 222 223 224 225 226 227 228 229 230 231 232 233 234 235 236 237 238 239 240 241 242 243 244 245 246 247 248 249 250 251 252 253 254 255 256 257 258 259 260 261 262 263 264 265 266 267 268 269 270 271 272 273 274 275 276 277 278 279 280 281 282 283 284 285 286 287 288 289 290 291 292 293 294 295 296 297 298 299 300 301 302 303 304 305 306 307 308 309 310 311 312 313 314 315 316 317 318 319 320 321 322 323 324 325 326 327 328 329 330 331 332 333 334 335 336 337 338 339 340 341 342 343 344 345 346 347 348 349 350 351 352 353 354 355 356 357 358 359 360 361 362 363 364 365 366 367 368 369 370 371 372 373 374 375 376 377 378 379 380 381 382 383 384 385 386 387 388 389 390 391 392 393 394 395 396 397 398 399 400 401 402 403 404 405 406 407 408 409 410 411 412 413 414 415 416 417 418 419 420 421 422 423 424 425 426 427 428 429 430 431 432 433 434 435 436 437 438 439 440 441 442 443 444 445 446 447 448 449 450 451 452 453 454 455 456 457 458 459 460 461 462 463 464 465 466 467 468 469 470 471 472 473 474 475 476 477 478 479 480 481 482 483 484 485 486 487 488 489 490 491 492 493 494 495 496 497 498 499 500 501 502 503 504 505 506 507 508 509 510 511 512 513 514 515 516 517 518 519 520 521 522 523 524 525 526 527 528 529 530 531 532 533 534 535 536 537 538 539 540 541 542 543 544 545 546 547 548 549 550 551 552 553 554 555 556 557 558 559 560 561 562 563 564 565 566 567 568 569 570 571 572 573 574 575 576 577 578 579 580 581 582 583 584 585 586 587 588 589 590 591 592 593 594 595 596 597 598 599 600 601 602 603 604 605 606 607 608 609 610 611 612 613 614 615 616 617 618 619 620 621 622 623 624 625 626 627 628 629 630 631 632 633 634 635 636 637 638 639 640 641 642 643 644 645 646 647 648 649 650 651 652 653 654 655 656 657 658 659 660 661 662 663 664 665 666 667 668 669 670 671 672 673 674 675 676 677 678 679 680 681 682 683 684 685 686 687 688 689 690 691 692 693 694 695 696 697 698 699 700 701 702 703 704 705 706 707 708 709 710 711 712 713 714 715 716 717 718 719 720 721 722 723 724 725 726 727 728 729 730 731 732 733 734 735 736 737 738 739 740 741 742 743 744 745 746 747 748 749 750 751 752 753 754 755 756 757 758 759 760 761 762 763 764 765 766 767 768 769 770 771 772 773 774 775 776 777 778 779 780 781 782 783 784 785 786 787 788 789 790 791 792 793 794 795 796 797 798 799 800 801 802 803 804 805 806 807 808 809 810 811 812 813 814 815 816 817 818 819 820 821 822 823 824 825 826 827 828 829 830 831 832 833 834 835 836 837 838 839 840 841 842 843 844 845 846 847 848 849 850 851 852 853 854 855 856 857 858 859 860 861 862 863 864 865 866 867 868 869 870 871 872 873 874 875 876 877 878 879 880 881 882 883 884 885 886 887 888 889 890 891 892 893 894 895 896 897 898 899 900 901 902 903 904 905 906 907 908 909 910 911 912 913 914 915 916 917 918 919 920 921 922 923 924 925 926 927 928 929 930 931 932 933 934 935 936 937 938 939 940 941 942 943 944 945 946 947 948 949 950 951 952 953 954 955 956 957 958 959 960 961 962 963 964 965 966 967 968 969 970 971 972 973 974 975 976 977 978 979 980 981 982 983 984 985 986 987 988 989 990 991 992 993 994 995 996 997 998 999 1000 1001 1002 1003 1004 1005 1006 1007 1008 1009 1010 1011 1012 1013 1014 1015 1016 1017 1018 1019 1020 1021 1022 1023 1024 1025 1026 1027 1028 1029 1030 1031 1032 1033 1034 1035 1036 1037 1038 1039 1040 1041 1042 1043 1044 1045 1046 1047 1048 1049 1050 1051 1052 1053 1054 1055 1056 1057 1058 1059 1060 1061 1062 1063 1064 1065 1066 1067 1068 1069 1070 1071 1072 1073 1074 1075 1076 1077 1078 1079 1080 1081 1082 1083 1084 1085 1086 1087 1088 1089 1090 1091 1092 1093 1094 1095 1096 1097 1098 1099 1100 1101 1102 1103 1104 1105 1106 1107 1108 1109 1110 1111 1112 1113 1114 1115 1116 1117 1118 1119 1120 1121 1122 1123 1124 1125 1126 1127 1128 1129 1130 1131 1132 1133 1134 1135 1136 1137 1138 1139 1140 1141 1142 1143 1144 1145 1146 1147 1148 1149 1150 1151 1152 1153 1154 1155 1156 1157 1158 1159 1160 1161 1162 1163 1164 1165 1166 1167 1168 1169 1170 1171 1172 1173 1174 1175 1176 1177 1178 1179 1180 1181 1182 1183 1184 1185 1186 1187 1188 1189 1190 1191 1192 1193 1194 1195 1196 1197 1198 1199 1200 1201 1202 1203 1204 1205 1206 1207 1208 1209 1210 1211 1212 1213 1214 1215 1216 1217 1218 1219 1220 1221 1222 1223 1224 1225 1226 1227 1228 1229 1230 1231 1232 1233 1234 1235 1236 1237 1238 1239 1240 1241 1242 1243 1244 1245 1246 1247 1248 1249 1250 1251 1252 1253 1254 1255 1256 1257 1258 1259 1260 1261 1262 1263 1264 1265 1266 1267 1268 1269 1270 1271 1272 1273 1274 1275 1276 1277 1278 1279 1280 1281 1282 1283 1284 1285 1286 1287 1288 1289 1290 1291 1292 1293 1294 1295 1296 1297 1298 1299 1300 1301 1302 1303 1304 1305 1306 1307 1308 1309 1310 1311 1312 1313 1314 1315 1316 1317 1318 1319 1320 1321 1322 1323 1324 1325 1326 1327 1328 1329 1330 1331 1332 1333 1334 1335 1336 1337 1338 1339 1340 1341 1342 1343 1344 1345 1346 1347 1348 1349 1350 1351 1352 1353 1354 1355 1356 1357 1358 1359 1360 1361 1362 1363 1364 1365 1366 1367 1368 1369 1370 1371 1372 1373 1374 1375 1376 1377 1378 1379 1380 1381 1382 1383 1384 1385 1386 1387 1388 1389 1390 1391 1392 1393 1394 1395 1396 1397 1398 1399 1400 1401 1402 1403 1404 1405 1406 1407 1408 1409 1410 1411 1412 1413 1414 1415 1416 1417 1418 1419 1420 1421 1422 1423 1424 1425 1426 1427 1428 1429 1430 1431 1432 1433 1434 1435 1436 1437 1438 1439 1440 1441 1442 1443 1444 1445 1446 1447 1448 1449 1450 1451 1452 1453 1454 1455 1456 1457 1458 1459 1460 1461 1462 1463 1464 1465 1466 1467 1468 1469 1470 1471 1472 1473 1474 1475 1476 1477 1478 1479 1480 1481 1482 1483 1484 1485 1486 1487 1488 1489 1490 1491 1492 1493 1494 1495 1496 1497 1498 1499 1500 1501 1502 1503 1504 1505 1506 1507 1508 1509 1510 1511 1512 1513 1514 1515 1516 1517 1518 1519 1520 1521 1522 1523 1524 1525 1526 1527 1528 1529 1530 1531 1532 1533 1534 1535 1536 1537 1538 1539 1540 1541 1542 1543 1544 1545 1546 1547 1548 1549 1550 1551 1552 1553 1554 1555 1556 1557 1558 1559 1560 1561 1562 1563 1564 1565 1566 1567 1568 1569 1570 1571 1572 1573 1574 1575 1576 1577 1578 1579 1580 1581 1582 1583 1584 1585 1586 1587 1588 1589 1590 1591 1592 1593 1594 1595 1596 1597 1598 1599 1600 1601 1602 1603 1604 1605 1606 1607 1608 1609 1610 1611 1612 1613 1614 1615 1616 1617 1618 1619 1620 1621 1622 1623 1624 1625 1626 1627 1628 1629 1630 1631 1632 1633 1634 1635 1636 1637 1638 1639 1640 1641 1642 1643 1644 1645 1646 1647 1648 1649 1650 1651 1652 1653 1654 1655 1656 1657 1658 1659 1660 1661 1662 1663 1664 1665 1666 1667 1668 1669 1670 1671 1672 1673 1674 1675 1676 1677 1678 1679 1680 1681 1682 1683 1684 1685 1686 1687 1688 1689 1690 1691 1692 1693 1694 1695 1696 1697 1698 1699 1700 1701 1702 1703 1704 1705 1706 1707 1708 1709 1710 1711 1712 1713 1714 1715 1716 1717 1718 1719 1720 1721 1722 1723 1724 1725 1726 1727 1728 1729 1730 1731 1732 1733 1734 1735 1736 1737 1738 1739 1740 1741 1742 1743 1744 1745 1746 1747 1748 1749 1750 1751 1752 1753 1754 1755 1756 1757 1758 1759 1760 1761 1762 1763 1764 1765 1766 1767 1768 1769 1770 1771 1772 1773 1774 1775 1776 1777 1778 1779 1780 1781 1782 1783 1784 1785 1786 1787 1788 1789 1790 1791 1792 1793 1794 1795 1796 1797 1798 1799 1800 1801 1802 1803 1804 1805 1806 1807 1808 1809 1810 1811 1812 1813 1814 1815 1816 1817 1818 1819 1820 1821 1822 1823 1824 1825 1826 1827 1828 1829 1830 1831 1832 1833 1834 1835 1836 1837 1838 1839 1840 1841 1842 1843 1844 1845 1846 1847 1848 1849 1850 1851 1852 1853 1854 1855 1856 1857 1858 1859 1860 1861 1862 1863 1864 1865 1866 1867 1868 1869 1870 1871 1872 1873 1874 1875 1876 1877 1878 1879 1880 1881 1882 1883 1884 1885 1886 1887 1888 1889 1890 1891 1892 1893 1894 1895 1896 1897 1898 1899 1900 1901 1902 1903 1904 1905 1906 1907 1908 1909 1910 1911 1912 1913 1914 1915 1916 1917 1918 1919 1920 1921 1922 1923 1924 1925 1926 1927 1928 1929 1930 1931 1932 1933 1934 1935 1936 1937 1938 1939 1940 1941 1942 1943 1944 1945 1946 1947 1948 1949 1950 1951 1952 1953 1954 1955 1956 1957 1958 1959 1960 1961 1962 1963 1964 1965 1966 1967 1968 1969 1970 1971 1972 1973 1974 1975 1976 1977 1978 1979 1980 1981 1982 1983 1984 1985 1986 1987 1988 1989 1990 1991 1992 1993 1994 1995 1996 1997 1998 1999 2000 2001 2002 2003 2004 2005 2006 2007 2008 2009 2010 2011 2012 2013 2014 2015 2016 2017 2018 2019 2020 2021 2022 2023 2024 2025 2026 2027 2028 2029 2030 2031 2032 2033 2034 2035 2036 2037 2038 2039 2040 2041 2042 2043 2044 2045 2046 2047 2048 2049 2050 2051 2052 2053 2054 2055 2056 2057 2058 2059 2060 2061 2062 2063 2064 2065 2066 2067 2068 2069 2070 2071 2072 2073 2074 2075 2076 2077 2078 2079 2080 2081 2082 2083 2084 2085 2086 2087 2088 2089 2090 2091 2092 2093 2094 2095 2096 2097 2098 2099 2100 2101 2102 2103 2104 2105 2106 2107 2108 2109 2110 2111 2112 2113 2114 2115 2116 2117 2118 2119 2120 2121 2122 2123 2124 2125 2126 2127 2128 2129 2130 2131 2132 2133 2134 2135 2136 2137 2138 2139 2140 2141 2142 2143 2144 2145 2146 2147 2148 2149 2150 2151 2152 2153 2154 2155 2156 2157 2158 2159 2160 2161 2162 2163 2164 2165 2166 2167 2168 2169 2170 2171 2172 2173 2174 2175 2176 2177 2178 2179 2180 2181 2182 2183 2184 2185 2186 2187 2188 2189 2190 2191 2192 2193 2194 2195 2196 2197 2198 2199 2200 2201 2202 2203 2204 2205 2206 2207 2208 2209 2210 2211 2212 2213 2214 2215 2216 2217 2218 2219 2220 2221 2222 2223 2224 2225 2226 2227 2228 2229 2230 2231 2232 2233 2234 2235 2236 2237 2238 2239 2240 2241 2242 2243 2244 2245 2246 2247 2248 2249 2250 2251 2252 2253 2254 2255 2256 2257 2258 2259 2260 2261 2262 2263 2264 2265 2266 2267 2268 2269 2270 2271 2272 2273 2274 2275 2276 2277 2278 2279 2280 2281 2282 2283 2284 2285 2286 2287 2288 2289 2290 2291 2292 2293 2294 2295 2296 2297 2298 2299 2300 2301 2302 2303 2304 2305 2306 2307 2308 2309 2310 2311 2312 2313 2314 2315 2316 2317 2318 2319 2320 2321 2322 2323 2324 2325 2326 2327 2328 2329 2330 2331 2332 2333 2334 2335 2336 2337 2338 2339 2340 2341 2342 2343 2344 2345 2346 2347 2348 2349 2350 2351 2352 2353 2354 2355 2356 2357 2358 2359 2360 2361 2362 2363 2364 2365 2366 2367 2368 2369 2370 2371 2372 2373 2374 2375 2376 2377 2378 2379 2380 2381 2382 2383 2384 2385 2386 2387 2388 2389 2390 2391 2392 2393 2394 2395 2396 2397 2398 2399 2400 2401 2402 2403 2404 2405 2406 2407 2408 2409 2410 2411 2412 2413 2414 2415 2416 2417 2418 2419 2420 2421 2422 2423 2424 2425 2426 2427 2428 2429 2430 2431 2432 2433 2434 2435 2436 2437 2438 2439 2440 2441 2442 2443 2444 2445 2446 2447 2448 2449 2450 2451 2452 2453 2454 2455 2456 2457 2458 2459 2460 2461 2462 2463 2464 2465 2466 2467 2468 2469 2470 2471 2472 2473 2474 2475 2476 2477 2478 2479 2480 2481 2482 2483 2484 2485 2486 2487 2488 2489 2490 2491 2492 2493 2494 2495 2496 2497 2498 2499 2500 2501 2502 2503 2504 2505 2506 2507 2508 2509 2510 2511 2512 2513 2514 2515 2516 2517 2518 2519 2520 2521 2522 2523 2524 2525 2526 2527 2528 2529 2530 2531 2532 2533 2534 2535 2536 2537 2538 2539 2540 2541 2542 2543 2544 2545 2546 2547 2548 2549 2550 2551 2552 2553 2554 2555 2556 2557 2558 2559 2560 2561 2562 2563 2564 2565 2566 2567 2568 2569 2570 2571 2572 2573 2574 2575 2576 2577 2578 2579 2580 2581 2582 2583 2584 2585 2586 2587 2588 2589 2590 2591 2592 2593 2594 2595 2596 2597 2598 2599 2600 2601 2602 2603 2604 2605 2606 2607 2608 2609 2610 2611 2612 2613 2614 2615 2616 2617 2618 2619 2620 2621 2622 2623 2624 2625 2626 2627 2628 2629 2630 2631 2632 2633 2634 2635 2636 2637 2638 2639 2640 2641 2642 2643 2644 2645 2646 2647 2648 2649 2650 2651 2652 2653 2654 2655 2656 2657 2658 2659 2660 2661 2662 2663 2664 2665 2666 2667 2668 2669 2670 2671 2672 2673 2674 2675 2676 2677 2678 2679 2680 2681 2682 2683 2684 2685 2686 2687 2688 2689 2690 2691 2692 2693 2694 2695 2696 2697 2698 2699 2700 2701 2702 2703 2704 2705 2706 2707 2708 2709 2710 2711 2712 2713 2714 2715 2716 2717 2718 2719 2720 2721 2722 2723 2724 2725 2726 2727 2728 2729 2730 2731 2732 2733 2734 2735 2736 2737 2738 2739 2740 2741 2742 2743 2744 2745 2746 2747 2748 2749 2750 2751 2752 2753 2754 2755 2756 2757 2758 2759 2760 2761 2762 2763 2764 2765 2766 2767 2768 2769 2770 2771 2772 2773 2774 2775 2776 2777 2778 2779 2780 2781 2782 2783 2784 2785 2786 2787 2788 2789 2790 2791 2792 2793 2794 2795 2796 2797 2798 2799 2800 2801 2802 2803 2804 2805 2806 2807 2808 2809 2810 2811 2812 2813 2814 2815 2816 2817 2818 2819 2820 2821 2822 2823 2824 2825 2826 2827 2828 2829 2830 2831 2832 2833 2834 2835 2836 2837 2838 2839 2840 2841 2842 2843 2844 2845 2846 2847 2848 2849 2850 2851 2852 2853 2854 2855 2856 2857 2858 2859 2860 2861 2862 2863 2864 2865 2866 2867 2868 2869 2870 2871 2872 2873 2874 2875 2876 2877 2878 2879 2880 2881 2882 2883 2884 2885 2886 2887 2888 2889 2890 2891 2892 2893 2894 2895 2896 2897 2898 2899 2900 2901 2902 2903 2904 2905 2906 2907 2908 2909 2910 2911 2912 2913 2914 2915 2916 2917 2918 2919 2920 2921 2922 2923 2924 2925 2926 2927 2928 2929 2930 2931 2932 2933 2934 2935 2936 2937 2938 2939 2940 2941 2942 2943 2944 2945 2946 2947 2948 2949 2950 2951 2952 2953 2954 2955 2956 2957 2958 2959 2960 2961 2962 2963 2964 2965 2966 2967 2968 2969 2970 2971 2972 2973 2974 2975 2976 2977 2978 2979 2980 2981 2982 2983 2984 2985 2986 2987 2988 2989 2990 2991 2992 2993 2994 2995 2996 2997 2998 2999 3000 3001 3002 3003 3004 3005 3006 3007 3008 3009 3010 3011 3012 3013 3014 3015 3016 3017 3018 3019 3020 3021 3022 3023 3024 3025 3026 3027 3028 3029 3030 3031 3032 3033 3034 3035 3036 3037 3038 3039 3040 3041 3042 3043 3044 3045 3046 3047 3048 3049 3050 3051 3052 3053 3054 3055 3056 3057 3058 3059 3060 3061 3062 3063 3064 3065 3066 3067 3068 3069 3070 3071 3072 3073 3074 3075 3076 3077 3078 3079 3080 3081 3082 3083 3084 3085 3086 3087 3088 3089 3090 3091 3092 3093 3094 3095 3096 3097 3098 3099 3100 3101 3102 3103 3104 3105 3106 3107 3108 3109 3110 3111 3112 3113 3114 3115 3116 3117 3118 3119 3120 3121 3122 3123 3124 3125 3126 3127 3128 3129 3130 3131 3132 3133 3134 3135 3136 3137 3138 3139 3140 3141 
</DataArray>
<DataArray type="UInt32" Name="offsets" format="ascii">
2 4 6 8 10 12 14 16 18 20 22 24 26 28 30 32 34 36 38 40 43 46 49 52 55 58 61 64 67 70 73 76 79 82 85 88 91 94 97 100 103 106 109 112 115 118 121 124 127 130 133 136 139 142 145 148 151 154 157 160 163 166 169 172 175 178 181 184 187 190 193 196 199 202 205 208 211 214 217 220 223 226 229 232 235 238 241 244 247 250 253 256 259 262 265 268 271 274 277 280 283 286 289 292 295 298 301 304 307 310 313 316 319 322 325 328 331 334 337 340 343 346 349 352 355 358 361 364 367 370 373 376 379 382 385 388 391 394 397 400 403 406 409 412 415 418 421 424 427 430 433 436 439 442 445 448 451 454 457 460 463 466 469 472 475 478 481 484 487 490 493 496 499 502 505 508 511 514 517 520 523 526 529 532 535 538 541 544 547 550 553 556 559 562 565 568 571 574 577 580 583 586 589 592 595 598 601 604 607 610 613 616 619 622 625 628 631 634 637 640 643 646 649 652 655 658 661 664 667 670 673 676 679 682 685 688 691 694 697 700 703 706 709 712 715 718 721 724 727 730 733 736 739 742 745 748 751 754 757 760 763 766 769 772 775 778 781 784 787 790 793 796 799 802 805 808 811 814 817 820 823 826 829 832 835 838 841 844 847 850 853 856 859 862 865 868 871 874 877 880 883 886 889 892 895 898 901 904 907 910 913 916 919 922 925 928 931 934 937 940 943 946 949 952 955 958 961 964 967 970 973 976 979 982 985 988 991 994 997 1000 1003 1006 1009 1012 1015 1018 1021 1024 1027 1030 1033 1036 1039 1042 1045 1048 1051 1054 1057 1060 1063 1066 1069 1072 1075 1078 1081 1084 1087 1090 1093 1096 1099 1102 1105 1108 1111 1114 1117 1120 1123 1126 1129 1132 1135 1138 1141 1144 1147 1150 1153 1156 1159 1162 1165 1168 1171 1174 1177 1180 1183 1186 1189 1192 1195 1198 1201 1204 1207 1210 1213 1216 1219 1222 1225 1228 1231 1234 1237 1240 1243 1246 1249 1252 1255 1258 1261 1264 1267 1270 1273 1276 1279 1282 1285 1288 1291 1294 1297 1300 1303 1306 1309 1312 1315 1318 1321 1324 1327 1330 1333 1336 1339 1342 1345 1348 1351 1354 1357 1360 1363 1366 1369 1372 1375 1378 1381 1384 1387 1390 1393 1396 1399 1402 1405 1408 1411 1414 1417 1420 1423 1426 1429 1432 1435 1438 1441 1444 1447 1450 1453 1456 1459 1462 1465 1468 1471 1474 1477 1480 1483 1486 1489 1492 1495 1498 1501 1504 1507 1510 1513 1516 1519 1522 1525 1528 1531 1534 1537 1540 1543 1546 1549 1552 1555 1558 1561 1564 1567 1570 1573 1576 1579 1582 1585 1588 1591 1594 1597 1600 1603 1606 1609 1612 1615 1618 1621 1624 1627 1630 1633 1636 1639 1642 1645 1648 1651 1654 1657 1660 1663 1666 1669 1672 1675 1678 1681 1684 1687 1690 1693 1696 1699 1702 1705 1708 1711 1714 1717 1720 1723 1726 1729 1732 1735 1738 1741 1744 1747 1750 1753 1756 1759 1762 1765 1768 1771 1774 1777 1780 1783 1786 1789 1792 1795 1798 1801 1804 1807 1810 1813 1816 1819 1822 1825 1828 1831 1834 1837 1840 1843 1846 1849 1852 1855 1858 1861 1864 1867 1870 1873 1876 1879 1882 1885 1888 1891 1894 1897 1900 1903 1906 1909 1912 1915 1918 1921 1924 1927 1930 1933 1936 1939 1942 1945 1948 1951 1954 1957 1960 1963 1966 1969 1972 1975 1978 1981 1984 1987 1990 1993 1996 1999 2002 2005 2008 2011 2014 2017 2020 2023 2026 2029 2032 2035 2038 2041 2044 2047 2050 2053 2056 2059 2062 2065 2068 2071 2074 2077 2080 2083 2086 2089 2092 2095 2098 2101 2104 2107 2110 2113 2116 2119 2122 2125 2128 2131 2134 2137 2140 2143 2146 2149 2152 2155 2158 2161 2164 2167 2170 2173 2176 2179 2182 2185 2188 2191 2194 2197 2200 2203 2206 2209 2212 2215 2218 2221 2224 2227 2230 2233 2236 2239 2242 2245 2248 2251 2254 2257 2260 2263 2266 2269 2272 2275 2278 2281 2284 2287 2290 2293 2296 2299 2302 2305 2308 2311 2314 2317 2320 2323 2326 2329 2332 2335 2338 2341 2344 2347 2350 2353 2356 2359 2362 2365 2368 2371 2374 2377 2380 2383 2386 2389 2392 2395 2398 2401 2404 2407 2410 2413 2416 2419 2422 2425 2428 2431 2434 2437 2440 2443 2446 2449 2452 2455 2458 2461 2464 2467 2470 2473 2476 2479 2482 2485 2488 2491 2494 2497 2500 2503 2506 2509 2512 2515 2518 2521 2524 2527 2530 2533 2536 2539 2542 2545 2548 2551 2554 2557 2560 2563 2566 2569 2572 2575 2578 2581 2584 2587 2590 2593 2596 2599 2602 2605 2608 2611 2614 2617 2620 2623 2626 2629 2632 2635 2638 2641 2644 2647 2650 2653 2656 2659 2662 2665 2668 2671 2674 2677 2680 2683 2686 2689 2692 2695 2698 2701 2704 2707 2710 2713 2716 2719 2722 2725 2728 2731 2734 2737 2740 2743 2746 2749 2752 2755 2758 2761 2764 2767 2770 2773 2776 2779 2782 2785 2788 2791 2794 2797 2800 2803 2806 2809 2812 2815 2818 2821 2824 2827 2830 2833 2836 2839 2842 2845 2848 2851 2854 2857 2860 2863 2866 2869 2872 2875 2878 2881 2884 2887 2890 2893 2896 2899 2902 2905 2908 2911 2914 2917 2920 2923 2926 2929 2932 2935 2938 2941 2944 2947 2950 2953 2956 2959 2962 2965 2968 2971 2974 2977 2980 2983 2986 2989 2992 2995 2998 3001 3004 3007 3010 3013 3016 3019 3022 3025 3028 3031 3034 3037 3040 3043 3046 3049 3052 3055 3058 3061 3064 3067 3070 3073 3076 3079 3082 3085 3088 3091 3094 3097 3100 3103 3106 3109 3112 3115 3118 3121 3124 3127 3130 3133 3136 3139 3142 
</DataArray>
<DataArray type="UInt32" Name="types" format="ascii">
3 3 3 3 3 3 3 3 3 3 3 3 3 3 3 3 3 3 3 3 5 5 5 5 5 5 5 5 5 5 5 5 5 5 5 5 5 5 5 5 5 5 5 5 5 5 5 5 5 5 5 5 5 5 5 5 5 5 5 5 5 5 5 5 5 5 5 5 5 5 5 5 5 5 5 5 5 5 5 5 5 5 5 5 5 5 5 5 5 5 5 5 5 5 5 5 5 5 5 5 5 5 5 5 5 5 5 5 5 5 5 5 5 5 5 5 5 5 5 5 5 5 5 5 5 5 5 5 5 5 5 5 5 5 5 5 5 5 5 5 5 5 5 5 5 5 5 5 5 5 5 5 5 5 5 5 5 5 5 5 5 5 5 5 5 5 5 5 5 5 5 5 5 5 5 5 5 5 5 5 5 5 5 5 5 5 5 5 5 5 5 5 5 5 5 5 5 5 5 5 5 5 5 5 5 5 5 5 5 5 5 5 5 5 5 5 5 5 5 5 5 5 5 5 5 5 5 5 5 5 5 5 5 5 5 5 5 5 5 5 5 5 5 5 5 5 5 5 5 5 5 5 5 5 5 5 5 5 5 5 5 5 5 5 5 5 5 5 5 5 5 5 5 5 5 5 5 5 5 5 5 5 5 5 5 5 5 5 5 5 5 5 5 5 5 5 5 5 5 5 5 5 5 5 5 5 5 5 5 5 5 5 5 5 5 5 5 5 5 5 5 5 5 5 5 5 5 5 5 5 5 5 5 5 5 5 5 5 5 5 5 5 5 5 5 5 5 5 5 5 5 5 5 5 5 5 5 5 5 5 5 5 5 5 5 5 5 5 5 5 5 5 5 5 5 5 5 5 5 5 5 5 5 5 5 5 5 5 5 5 5 5 5 5 5 5 5 5 5 5 5 5 5 5 5 5 5 5 5 5 5 5 5 5 5 5 5 5 5 5 5 5 5 5 5 5 5 5 5 5 5 5 5 5 5 5 5 5 5 5 5 5 5 5 5 5 5 5 5 5 5 5 5 5 5 5 5 5 5 5 5 5 5 5 5 5 5 5 5 5 5 5 5 5 5 5 5 5 5 5 5 5 5 5 5 5 5 5 5 5 5 5 5 5 5 5 5 5 5 5 5 5 5 5 5 5 5 5 5 5 5 5 5 5 5 5 5 5 5 5 5 5 5 5 5 5 5 5 5 5 5 5 5 5 5 5 5 5 5 5 5 5 5 5 5 5 5 5 5 5 5 5 5 5 5 5 5 5 5 5 5 5 5 5 5 5 5 5 5 5 5 5 5 5 5 5 5 5 5 5 5 5 5 5 5 5 5 5 5 5 5 5 5 5 5 5 5 5 5 5 5 5 5 5 5 5 5 5 5 5 5 5 5 5 5 5 5 5 5 5 5 5 5 5 5 5 5 5 5 5 5 5 5 5 5 5 5 5 5 5 5 5 5 5 5 5 5 5 5 5 5 5 5 5 5 5 5 5 5 5 5 5 5 5 5 5 5 5 5 5 5 5 5 5 5 5 5 5 5 5 5 5 5 5 5 5 5 5 5 5 5 5 5 5 5 5 5 5 5 5 5 5 5 5 5 5 5 5 5 5 5 5 5 5 5 5 5 5 5 5 5 5 5 5 5 5 5 5 5 5 5 5 5 5 5 5 5 5 5 5 5 5 5 5 5 5 5 5 5 5 5 5 5 5 5 5 5 5 5 5 5 5 5 5 5 5 5 5 5 5 5 5 5 5 5 5 5 5 5 5 5 5 5 5 5 5 5 5 5 5 5 5 5 5 5 5 5 5 5 5 5 5 5 5 5 5 5 5 5 5 5 5 5 5 5 5 5 5 5 5 5 5 5 5 5 5 5 5 5 5 5 5 5 5 5 5 5 5 5 5 5 5 5 5 5 5 5 5 5 5 5 5 5 5 5 5 5 5 5 5 5 5 5 5 5 5 5 5 5 5 5 5 5 5 5 5 5 5 5 5 5 5 5 5 5 5 5 5 5 5 5 5 5 5 5 5 5 5 5 5 5 5 5 5 5 5 5 5 5 5 5 5 5 5 5 5 5 5 5 5 5 5 5 5 5 5 5 5 5 5 5 5 5 5 5 5 5 5 5 5 5 5 5 5 5 5 5 5 5 5 5 5 5 5 5 5 5 5 5 5 5 5 5 5 5 5 5 5 5 5 5 5 5 5 5 5 5 5 5 5 5 5 5 5 5 5 5 5 5 5 5 5 5 5 5 5 5 5 5 5 5 5 5 5 5 5 5 5 5 5 5 5 5 5 5 5 5 5 5 5 5 5 5 5 5 5 5 5 5 5 5 5 5 5 5 5 5 5 5 5 5 5 5 5 5 5 5 5 5 5 5 5 5 5 
</DataArray>
</Cells>
<PointData Scalars="" Vectors="displacement," Tensors="">
<DataArray type="Float64" Name="displacement" NumberOfComponents="3" format="ascii">
4.4323397932098039e-06 -1.0085466073831965e-05 0 6.61213133253794e-06 -1.3940455347498633e-05 0 6.61213133253794e-06 -1.3940455347498633e-05 0 7.2167612126121681e-06 -1.938248279011374e-05 0 7.2167612126121681e-06 -1.938248279011374e-05 0 8.0893364828607123e-06 -2.6370100081428283e-05 0 8.0893364828607123e-06 -2.6370100081428283e-05 0 9.0073936324568016e-06 -3.3993173634834407e-05 0 9.0073936324568016e-06 -3.3993173634834407e-05 0 1.0155437059924e-05 -4.1039400469086215e-05 0 1.0155437059924e-05 -4.1039400469086215e-05 0 1.1640034592912845e-05 -4.9182022142290576e-05 0 1.1640034592912845e-05 -4.9182022142290576e-05 0 1.3225113782971878e-05 -5.6808914994291261e-05 0 1.3225113782971878e-05 -5.6808914994291261e-05 0 1.6135775081054738e-05 -6.5952008477251177e-05 0 1.6135775081054738e-05 -6.5952008477251177e-05 0 1.7089784623054485e-05 -7.2989312726030186e-05 0 1.7089784623054485e-05 -7.2989312726030186e-05 0 2.9743170586515748e-05 -7.6121868177836993e-05 0 1.1807892936484828e-05 1.4072029962613145e-05 0 3.2600667049895476e-05 2.030282217955286e-05 0 3.2600667049895476e-05 2.030282217955286e-05 0 3.1344764993496809e-05 2.6879634286577805e-05 0 3.1344764993496809e-05 2.6879634286577805e-05 0 3.5083756816179417e-05 3.1718024416484138e-05 0 3.5083756816179417e-05 3.1718024416484138e-05 0 3.7452600522086966e-05 4.1989017874209139e-05 0 3.7452600522086966e-05 4.1989017874209139e-05 0 4.0093434874980431e-05 5.0566970101846656e-05 0 4.0093434874980431e-05 5.0566970101846656e-05 0 4.3122450558627928e-05 5.9611353647722843e-05 0 4.3122450558627928e-05 5.9611353647722843e-05 0 4.5450362292569073e-05 6.8428875099743784e-05 0 4.5450362292569073e-05 6.8428875099743784e-05 0 5.2512746032498264e-05 8.1671696355933675e-05 0 5.2512746032498264e-05 8.1671696355933675e-05 0 4.5246284264516189e-05 8.9260657846710776e-05 0 4.5246284264516189e-05 8.9260657846710776e-05 0 9.7848535490784678e-05 8.7601871788737409e-05 0 4.5447400146266303e-06 -2.597372443063879e-06 0 4.4953707092113802e-06 1.0217508388107652e-07 0 3.4312625616042306e-06 -1.5320559460070013e-06 0 5.398675497795502e-06 -1.1886552331552792e-06 0 4.4953707092113802e-06 1.0217508388107652e-07 0 4.5447400146266303e-06 -2.597372443063879e-06 0 4.0977439896495065e-06 -8.3102999247277301e-06 0 5.2329221632570672e-06 -6.0123775856029161e-06 0 3.7689775448087277e-06 -7.4645416218900118e-06 0 3.7689775448087277e-06 -7.4645416218900118e-06 0 5.2329221632570672e-06 -6.0123775856029169e-06 0 4.4172923645633352e-06 -6.399217599264362e-06 0 -3.4783629429349292e-06 -9.4614886673611287e-07 0 -1.5686274319892332e-06 -9.6424845576432836e-07 0 -3.4299038594902856e-06 -1.653435941036996e-06 0 -2.612222732425275e-06 4.1973982000452269e-07 0 -2.5871454022646499e-06 9.1978150405267295e-07 0 -1.2047003064621544e-06 5.4160636753027782e-07 0 -1.4613537464055215e-06 -2.9321690246351952e-07 0 -1.5686274319892332e-06 -9.6424845576432836e-07 0 -3.4783629429349292e-06 -9.4614886673611287e-07 0 -1.1474835364112305e-06 5.6777026149512771e-08 0 -2.612222732425275e-06 4.1973982000452269e-07 0 -1.2047003064621544e-06 5.4160636753027782e-07 0 -9.0496811684855382e-06 -4.8360556971519936e-07 0 -1.1685440177406884e-05 -1.8743079762682154e-06 0 -8.1988992315082713e-06 -1.3603644010431094e-07 0 -1.7746212026788483e-05 2.5459117902919979e-06 0 -1.3215196823409706e-05 2.2764986014465681e-07 0 -1.2308021484968848e-05 -5.6067084811431645e-08 0 4.1427293100901302e-06 -2.2001314346717545e-07 0 5.4368166286081908e-06 -8.030276481350183e-08 0 3.8116306737815576e-06 -1.1033284062238149e-06 0 5.6165242314681668e-06 -5.814300945967982e-07 0 3.8116306737815576e-06 -1.1033284062238149e-06 0 5.4368166286081908e-06 -8.030276481350183e-08 0 3.428107312656805e-07 2.050318774644962e-06 0 7.130448073482666e-07 2.1808131974793409e-06 0 1.4665352975312289e-06 2.0221421085922945e-06 0 2.4902424351804392e-10 -6.2003812269605444e-10 0 5.8188908730333126e-10 -4.1985217305869424e-10 0 5.2152137376455209e-07 -1.1825130950164008e-06 0 2.6607454446913738e-10 4.4748516297691758e-10 0 -2.4723780132232909e-11 5.0780094647751427e-10 0 1.3862179685900669e-07 1.1428251239491392e-06 0 1.9841580146368345e-06 -1.1039652258045195e-05 0 3.4669325142007669e-06 -1.1656267903614284e-05 0 4.0977439896495065e-06 -8.3102999247277301e-06 0 2.2884706109086996e-05 1.3451650060093156e-05 0 1.6010464395910095e-05 7.8629851749927274e-06 0 1.7401715718338164e-05 8.6697698434717444e-06 0 -8.0684830597885821e-06 -0.000121803600321176 0 2.2899766508930017e-06 -0.00011053249556610453 0 -8.7708327531070866e-06 -0.00010598739314344517 0 -3.5094497346969214e-06 0.00023989759431089172 0 -2.5256936904683931e-05 0.00021729132410429843 0 -4.5941439156285568e-06 0.00020924052546102706 0 -3.5094497346969214e-06 0.00023989759431089172 0 -4.5941439156285568e-06 0.00020924052546102706 0 1.7282168612294227e-05 0.000217683042209646 0 -8.0684830597885821e-06 -0.000121803600321176 0 -8.7708327531070866e-06 -0.00010598739314344517 0 -1.9154879596335865e-05 -0.00011004852074867477 0 -2.9245187176824064e-05 0.00019334734232450226 0 -4.1169879949696511e-06 0.00018223149493222111 0 -4.5941439156285568e-06 0.00020924052546102706 0 3.044580835808604e-06 -9.7708351220564927e-05 0 -1.0018272991194355e-05 -9.1840830874381587e-05 0 -8.7708327531070866e-06 -0.00010598739314344517 0 3.428107312656805e-07 2.050318774644962e-06 0 1.4665352975312289e-06 2.0221421085922945e-06 0 6.2375807759298165e-07 1.7365169247440869e-06 0 2.2884706109086996e-05 1.3451650060093156e-05 0 1.3918542662457872e-05 1.1027846474727844e-05 0 1.6010464395910095e-05 7.8629851749927274e-06 0 -4.9495527842220426e-05 4.5470145848879459e-05 0 -4.3239667120783797e-05 3.1561296480065662e-05 0 -3.0395762338404622e-05 3.476863591394153e-05 0 -2.5438553256395744e-05 -1.6561568237261121e-05 0 -2.8833947904384478e-05 -2.3249450719028174e-05 0 -1.9414980698637076e-05 -1.8309046110347193e-05 0 3.0655694391045384e-06 -8.3093253460483567e-06 0 1.9841580146368345e-06 -1.1039652258045195e-05 0 4.0977439896495065e-06 -8.3102999247277301e-06 0 -1.4450777275427304e-05 2.7518772016229969e-05 0 -1.220716798365339e-05 1.4289003099397187e-05 0 -5.3795235549706104e-06 1.612831891489192e-05 0 -3.6522412509031233e-06 1.5392277472056833e-06 0 -8.8341593804409472e-06 3.9142813846468835e-06 0 -9.3810650042540823e-06 5.483703329479751e-07 0 1.1463323600655549e-05 -3.1404894509959599e-06 0 1.0141127248501504e-05 -1.472400307056939e-07 0 9.6747427535023416e-06 -4.2307322615597922e-06 0 -9.7650492258497492e-06 -7.844739047475251e-05 0 -2.0464493398506357e-06 -7.4878633504095181e-05 0 -1.1199715171234458e-05 -6.5049967705904091e-05 0 -6.1763445424174082e-06 0.00015671811652743638 0 -2.2225017231450257e-05 0.00014947394727497185 0 -4.4344441139720521e-06 0.00012991677905426611 0 -1.1199715171234458e-05 -6.5049967705904091e-05 0 -2.0464493398506357e-06 -7.4878633504095181e-05 0 -2.4260938190402485e-06 -6.3632055846391642e-05 0 -4.4344441139720521e-06 0.00012991677905426611 0 -2.2225017231450257e-05 0.00014947394727497185 0 -2.2347562001267187e-05 0.0001298585412598579 0 -3.6522412509031233e-06 1.5392277472056833e-06 0 -9.3810650042540823e-06 5.483703329479751e-07 0 -3.4202722624209488e-06 -6.2588728389318835e-07 0 1.383786018744346e-05 -6.6805428037050619e-06 0 1.3366690593822363e-05 -1.4066159447627271e-07 0 1.1463323600655549e-05 -3.1404894509959599e-06 0 -1.4450777275427304e-05 2.7518772016229969e-05 0 -2.1013942876749259e-05 2.2304326292230206e-05 0 -1.2207167983653394e-05 1.4289003099397187e-05 0 2.2884706109086996e-05 1.3451650060093156e-05 0 3.2970201363628176e-05 3.9705637644970604e-05 0 1.8484793130402383e-05 4.0628446336803486e-05 0 1.3813897893660254e-05 -3.5996302247408714e-05 0 1.2154660150892897e-05 -3.6035447615964066e-05 0 1.1294158676551833e-05 -3.5564489884469823e-05 0 4.0423361411504737e-05 -4.8842771149528732e-05 0 3.8218180468846456e-05 -4.1551206020896939e-05 0 2.8974890700345166e-05 -4.2065724144417374e-05 0 1.2121133479434186e-05 2.4781596181040501e-06 0 1.0141127248501504e-05 -1.472400307056939e-07 0 1.1463323600655549e-05 -3.1404894509959599e-06 0 2.7862021531835947e-05 -0.00010739593244163185 0 1.4224905837639029e-05 -9.5978626817619316e-05 0 1.3831465184115353e-05 -0.00010775966480043845 0 -7.3063508442568594e-05 0.0002153678436683607 0 -5.1492881326550823e-05 0.0001910281383784746 0 -4.7169205493546592e-05 0.0002124099884409248 0 7.9253957707156435e-10 -3.3224825405971024e-10 0 1.0504868569538642e-06 -3.9178075000340502e-07 0 8.1143289433144841e-07 -7.5289094961256641e-07 0 4.5698866884895627e-10 4.5035980203325376e-10 0 3.9150657285188152e-07 9.9095337848026725e-07 0 6.8486934129708077e-07 9.3186915812874642e-07 0 -1.4450777275427304e-05 2.7518772016229969e-05 0 -2.8483483556486113e-06 2.678491028752928e-05 0 -9.0299158684422546e-06 4.390818508381744e-05 0 5.3015124996786205e-06 3.8926034004863473e-05 0 -9.0299158684422546e-06 4.390818508381744e-05 0 -2.8483483556486113e-06 2.678491028752928e-05 0 1.2719170158697228e-05 2.3135570702464363e-05 0 2.2884706109086996e-05 1.3451650060093156e-05 0 1.8484793130402383e-05 4.0628446336803486e-05 0 -7.1754065979358049e-05 0.00016808128432396275 0 -4.2813578033102433e-05 0.00016847277444074211 0 -5.1492881326550823e-05 0.0001910281383784746 0 2.2679021086171489e-05 -8.2194886742660765e-05 0 8.5947675210665062e-06 -8.4239640368028723e-05 0 1.4224905837639029e-05 -9.5978626817619329e-05 0 2.2465023541729993e-05 -3.2266851611397604e-05 0 1.9458575222762772e-05 -2.865487536797893e-05 0 1.7625058958933176e-05 -3.1841400814294869e-05 0 8.7172479280698603e-06 -2.0969524560761092e-06 0 9.6747427535023416e-06 -4.2307322615597922e-06 0 1.0141127248501504e-05 -1.472400307056939e-07 0 9.9492548544696007e-06 -7.5530666868353729e-06 0 9.9727633012017745e-06 -1.0781369802502597e-05 0 1.3018405254752036e-05 -1.1254858675987469e-05 0 2.2879137113911468e-05 -1.9656284061918572e-05 0 2.0126053575631575e-05 -1.6664823471584275e-05 0 1.8910713221934044e-05 -1.9930388330812081e-05 0 -6.0627187655872606e-05 8.0667758020485836e-05 0 -4.1134375270097843e-05 6.8109987694892041e-05 0 -4.7296211582683647e-05 9.1826657572398481e-05 0 -4.2651048754322203e-05 -8.4587097359111694e-05 0 -3.2588754323544336e-05 -9.6695623649417205e-05 0 -2.8848646074688126e-05 -8.552379376568125e-05 0 5.9049444855813472e-05 0.00016399971529817509 0 4.2223839223495166e-05 0.00019028408545671837 0 3.2825850719202797e-05 0.00016929698549358473 0 2.4959803976849667e-05 -9.4454362286419452e-05 0 1.4224905837639029e-05 -9.5978626817619329e-05 0 2.7862021531835947e-05 -0.00010739593244163185 0 -7.3063508442568594e-05 0.0002153678436683607 0 -7.2660273800582235e-05 0.0001917605204486508 0 -5.1492881326550823e-05 0.0001910281383784746 0 1.0994002921838439e-05 -3.0647312807877873e-05 0 8.6041181659815478e-06 -2.6771073092127977e-05 0 9.1045296267314548e-06 -3.0915578522124281e-05 0 5.2211407001967239e-06 -9.5650668857452799e-06 0 1.8237420027086971e-06 -1.1338012305320319e-05 0 2.8824948996047249e-06 -1.8183910789953577e-05 0 1.0994002921838439e-05 -3.0647312807877873e-05 0 1.0883574533934866e-05 -2.7293031398440652e-05 0 8.6041181659815461e-06 -2.6771073092127977e-05 0 1.6968628976670752e-05 -1.6212891693173387e-05 0 1.8910713221934044e-05 -1.9930388330812081e-05 0 2.0126053575631575e-05 -1.6664823471584275e-05 0 -9.8032764051995665e-06 -3.3420157923723891e-05 0 -1.07338872119533e-05 -4.5473520365667829e-05 0 -3.7826052705766908e-06 -3.6414542552725336e-05 0 -9.4686221860137773e-10 3.0515359977079289e-10 0 -1.2047003064621544e-06 5.4160636753027782e-07 0 -7.7628523221108568e-07 7.5537176407114681e-07 0 -1.2804231430689984e-09 -4.9921924702623227e-10 0 -9.465459783192287e-07 -1.1955062089165376e-06 0 -1.5686274319892332e-06 -9.6424845576432836e-07 0 1.3813897893660254e-05 -3.5996302247408714e-05 0 1.3856466268465482e-05 -3.7220977067415473e-05 0 1.2154660150892897e-05 -3.6035447615964066e-05 0 3.1201257916179247e-05 -4.8195418777294297e-05 0 4.0423361411504737e-05 -4.8842771149528732e-05 0 2.8974890700345166e-05 -4.2065724144417374e-05 0 -5.0957237964260274e-10 -8.5236552819590778e-10 0 -9.3772361438292871e-07 -1.8418229185644414e-06 0 -9.4654597831922849e-07 -1.1955062089165376e-06 0 -5.040454735174739e-10 5.6956194690489224e-10 0 -7.7628523221108568e-07 7.5537176407114681e-07 0 -9.0765812828463785e-07 1.2562261262849218e-06 0 3.8116306737815576e-06 -1.1033284062238149e-06 0 1.7470206425723726e-06 -1.5230133842682561e-06 0 2.8442708065128558e-06 -8.5309178062658148e-07 0 -4.4255110107728051e-06 5.9551011622929681e-07 0 -3.7250802013438884e-06 1.2677375106809402e-06 0 -2.5871454022646499e-06 9.1978150405267295e-07 0 -6.0995848422286632e-06 -1.2839473770737271e-06 0 -3.4299038594902861e-06 -1.6534359410369962e-06 0 -4.9384815678134853e-06 -2.2238313854538623e-06 0 1.4596669047974207e-05 -1.9256889446392064e-05 0 1.4251062170025812e-05 -1.6050532237046913e-05 0 1.1561788556366428e-05 -1.7185805237110652e-05 0 1.1583387005332531e-05 -1.3951028441922397e-05 0 1.3018405254752036e-05 -1.1254858675987469e-05 0 9.9727633012017745e-06 -1.0781369802502597e-05 0 6.8121509963955471e-05 0.00021139201306620748 0 4.0276584191617992e-05 0.00021210835161586644 0 4.2223839223495166e-05 0.00019028408545671837 0 -4.3509227563522909e-05 -0.00010903458276379756 0 -3.0257867759775543e-05 -0.00010749330699823441 0 -3.2588754323544336e-05 -9.6695623649417205e-05 0 1.1583387005332531e-05 -1.3951028441922397e-05 0 1.1561788556366428e-05 -1.7185805237110652e-05 0 1.4251062170025812e-05 -1.6050532237046913e-05 0 1.9458575222762772e-05 -2.865487536797893e-05 0 2.3074214141594298e-05 -2.7813361907171026e-05 0 1.7542687221174372e-05 -2.3960742577526095e-05 0 -2.411705615204571e-05 0.00011029510857048077 0 -1.8672981987201213e-05 8.429162529206812e-05 0 -6.4321778970426436e-06 9.381554169294699e-05 0 -1.2804231430689984e-09 -4.9921924702623227e-10 0 -1.1527477613639411e-09 -3.3706557945356269e-10 0 -9.4654597831922849e-07 -1.1955062089165376e-06 0 -9.496527745694837e-10 2.0780107026281266e-10 0 -9.4686221860137773e-10 3.0515359977079289e-10 0 -7.7628523221108568e-07 7.5537176407114681e-07 0 3.8116306737815576e-06 -1.1033284062238149e-06 0 2.6305140992766914e-06 -1.7870526940334999e-06 0 1.7470206425723726e-06 -1.5230133842682561e-06 0 1.9309127082129739e-05 0.00019270102494228032 0 -4.5941439156285568e-06 0.00020924052546102706 0 -4.1169879949696511e-06 0.00018223149493222111 0 -2.1224572258285818e-05 -9.734527522546427e-05 0 -8.7708327531070866e-06 -0.00010598739314344517 0 -1.0018272991194355e-05 -9.1840830874381587e-05 0 -1.07338872119533e-05 -4.5473520365667829e-05 0 -3.1895689174910323e-06 -4.5940811503827038e-05 0 -3.7826052705766908e-06 -3.6414542552725336e-05 0 1.9971035103665905e-06 3.3170788330810902e-07 0 2.8982746607675845e-06 8.0037421499605267e-07 0 2.9007010673256628e-06 1.0637806747751754e-07 0 -9.4957312240038919e-07 -2.4640335133110135e-06 0 1.5393563758739649e-06 -2.1390386874617397e-06 0 -4.7911561369463582e-07 -1.6131792869437886e-06 0 2.3074214141594298e-05 -2.7813361907171026e-05 0 2.1691704275001442e-05 -2.4320531235988556e-05 0 1.7542687221174372e-05 -2.3960742577526095e-05 0 2.9007010673256628e-06 1.0637806747751754e-07 0 2.8982746607675845e-06 8.0037421499605267e-07 0 3.8800970168388249e-06 4.7195508916247524e-07 0 2.8982746607675845e-06 8.0037421499605267e-07 0 1.4770427758889901e-06 5.9862084754109735e-07 0 2.3845452163782387e-06 1.1124948760752644e-06 0 1.4328377724813037e-06 1.0289945870795855e-06 0 2.3845452163782387e-06 1.1124948760752644e-06 0 1.4770427758889901e-06 5.9862084754109735e-07 0 7.3739461286279473e-06 -2.8679707912591856e-05 0 8.6041181659815461e-06 -2.6771073092127977e-05 0 5.2943950140326493e-06 -2.4689302804964144e-05 0 9.9492548544696007e-06 -7.5530666868353729e-06 0 1.3018405254752036e-05 -1.1254858675987469e-05 0 1.1885502720670792e-05 -7.0641546817778578e-06 0 2.2465023541729993e-05 -3.2266851611397604e-05 0 2.3074214141594298e-05 -2.7813361907171026e-05 0 1.9458575222762772e-05 -2.865487536797893e-05 0 1.2121133479434186e-05 2.4781596181040501e-06 0 1.1463323600655548e-05 -3.140489450995959e-06 0 1.3366690593822363e-05 -1.4066159447627271e-07 0 6.3153207305005407e-05 0.00018701770767640724 0 6.8121509963955471e-05 0.00021139201306620748 0 4.2223839223495166e-05 0.00019028408545671837 0 -4.324934584127154e-05 -9.6852581905890837e-05 0 -4.3509227563522909e-05 -0.00010903458276379756 0 -3.2588754323544336e-05 -9.6695623649417205e-05 0 -4.2651048754322203e-05 -8.4587097359111694e-05 0 -4.324934584127154e-05 -9.6852581905890837e-05 0 -3.2588754323544336e-05 -9.6695623649417205e-05 0 5.9049444855813472e-05 0.00016399971529817509 0 6.3153207305005407e-05 0.00018701770767640724 0 4.2223839223495166e-05 0.00019028408545671837 0 1.3480829753586049e-05 4.6444153177113471e-06 0 1.2033333304728145e-05 3.7671984064134326e-06 0 1.2121133479434186e-05 2.4781596181040501e-06 0 2.6065935776718463e-06 1.8581272976146154e-06 0 1.7167643323243779e-06 1.5907145401458808e-06 0 1.4665352975312289e-06 2.0221421085922945e-06 0 9.8807639797467864e-07 1.5204295355115518e-06 0 1.4665352975312289e-06 2.0221421085922945e-06 0 1.7167643323243779e-06 1.5907145401458808e-06 0 2.6290243569671465e-05 9.6331828768171613e-05 0 3.3445137370434658e-05 0.0001104003783488747 0 1.2552306436981941e-05 0.00011046646847497768 0 3.3445137370434658e-05 0.0001104003783488747 0 3.0095714062937782e-05 0.0001250870124761189 0 1.2552306436981941e-05 0.00011046646847497768 0 1.383786018744346e-05 -6.6805428037050619e-06 0 1.1463323600655548e-05 -3.1404894509959603e-06 0 1.1885502720670792e-05 -7.0641546817778578e-06 0 2.3705764259383834e-05 -4.5698971040170095e-05 0 2.8974890700345166e-05 -4.2065724144417374e-05 0 2.3034773868328038e-05 -3.8733645304369425e-05 0 1.5190444468034799e-05 -3.9742456757625551e-05 0 1.347209479193578e-05 -3.6015308274410671e-05 0 1.2154660150892897e-05 -3.6035447615964066e-05 0 1.2033333304728145e-05 3.7671984064134326e-06 0 1.065726032387893e-05 2.1253533293606188e-06 0 1.2121133479434186e-05 2.4781596181040501e-06 0 -7.2660273800582235e-05 0.0001917605204486508 0 -7.1754065979358049e-05 0.00016808128432396275 0 -5.1492881326550823e-05 0.0001910281383784746 0 2.2679021086171489e-05 -8.2194886742660765e-05 0 1.4224905837639029e-05 -9.5978626817619329e-05 0 2.4959803976849667e-05 -9.4454362286419452e-05 0 -1.1685440177406884e-05 -1.8743079762682154e-06 0 -1.1017940533013288e-05 -1.9665800211249062e-06 0 -8.1988992315082713e-06 -1.3603644010431094e-07 0 -1.7746212026788483e-05 2.5459117902919979e-06 0 -1.2308021484968848e-05 -5.6067084811431605e-08 0 -1.6254504579224717e-05 2.8571827876228545e-06 0 1.383786018744346e-05 -6.6805428037050619e-06 0 1.3018405254752036e-05 -1.1254858675987469e-05 0 1.6934898908688893e-05 -1.2644523732443384e-05 0 5.2211407001967239e-06 -9.5650668857452799e-06 0 2.8824948996047249e-06 -1.8183910789953577e-05 0 9.5519064414420241e-06 -1.9884436568610396e-05 0 1.6968628976670752e-05 -1.6212891693173387e-05 0 1.3018405254752036e-05 -1.1254858675987469e-05 0 1.4251062170025812e-05 -1.6050532237046913e-05 0 1.1583387005332531e-05 -1.3951028441922397e-05 0 1.4251062170025812e-05 -1.6050532237046913e-05 0 1.3018405254752036e-05 -1.1254858675987469e-05 0 -8.0684830597885821e-06 -0.000121803600321176 0 4.4328854785379028e-06 -0.00012248512533808627 0 2.2899766508930017e-06 -0.00011053249556610453 0 -3.5094497346969214e-06 0.00023989759431089172 0 -2.6701533622046867e-05 0.00023919311407145927 0 -2.5256936904683924e-05 0.00021729132410429843 0 2.0993341980206208e-05 0.00024076025746781019 0 -3.5094497346969214e-06 0.00023989759431089172 0 1.7282168612294227e-05 0.000217683042209646 0 -1.9825309571372003e-05 -0.00012130432053996182 0 -8.0684830597885821e-06 -0.000121803600321176 0 -1.9154879596335865e-05 -0.00011004852074867477 0 5.8912623112761471e-06 1.54567124038033e-05 0 -2.8483483556486113e-06 2.678491028752928e-05 0 -5.3795235549706104e-06 1.612831891489192e-05 0 8.5113781996162442e-06 -1.6516202048486353e-05 0 7.5593783145614828e-06 -1.9702004086336093e-05 0 1.0270209543311994e-05 -2.0414363637540342e-05 0 1.6968628976670752e-05 -1.6212891693173387e-05 0 1.4251062170025812e-05 -1.6050532237046913e-05 0 1.8910713221934044e-05 -1.9930388330812081e-05 0 1.4596669047974207e-05 -1.9256889446392064e-05 0 1.8910713221934044e-05 -1.9930388330812081e-05 0 1.4251062170025812e-05 -1.6050532237046913e-05 0 2.5105382787565517e-06 -3.9095408671718825e-05 0 2.2809456772179878e-06 -2.8253363132091158e-05 0 -3.7826052705766908e-06 -3.6414542552725336e-05 0 -4.9495527842220426e-05 4.5470145848879459e-05 0 -3.0395762338404622e-05 3.476863591394153e-05 0 -4.1002260704586559e-05 5.1784893935597899e-05 0 -4.9930766085482272e-06 -4.2861322672357019e-06 0 -7.917217470003584e-06 -7.9806248738204999e-06 0 -2.6152818723005286e-06 -6.05417968046261e-06 0 -4.0540841760025869e-06 -1.0205145830300179e-05 0 -2.6152818723005286e-06 -6.05417968046261e-06 0 -7.917217470003584e-06 -7.9806248738204999e-06 0 1.1291447022267841e-05 -3.3475316734855107e-05 0 1.3555341379266523e-05 -3.2595272202521417e-05 0 1.0994002921838439e-05 -3.0647312807877873e-05 0 -3.2854187868659412e-05 8.1072675681610813e-05 0 -4.7296211582683647e-05 9.1826657572398481e-05 0 -4.1134375270097843e-05 6.8109987694892041e-05 0 -9.8249713854876612e-06 -2.6458621198959049e-06 0 -1.3614468826005235e-05 -5.629207479332651e-06 0 -9.344374268237005e-06 -4.95420909925999e-06 0 -1.3373103245877963e-05 -8.3951053967965049e-06 0 -9.344374268237005e-06 -4.95420909925999e-06 0 -1.3614468826005235e-05 -5.629207479332651e-06 0 -1.9586643807313185e-05 1.4995288794993365e-05 0 -2.0573985530988091e-05 9.6522237037088164e-06 0 -1.2949492591004237e-05 8.5104937994921102e-06 0 -1.4166541207126159e-05 4.5290198242420982e-06 0 -1.2949492591004237e-05 8.5104937994921102e-06 0 -2.0573985530988091e-05 9.6522237037088164e-06 0 8.317185882414582e-06 -2.358681434678027e-05 0 1.1470940826531411e-05 -2.4135693128506869e-05 0 1.0270209543311994e-05 -2.0414363637540342e-05 0 -2.8833947904384478e-05 -2.3249450719028174e-05 0 -2.4935774887665797e-05 -2.6172498316928641e-05 0 -1.9414980698637076e-05 -1.8309046110347193e-05 0 1.6505197391946584e-05 7.7978408497177129e-05 0 3.0109517485045694e-06 5.9831627767636841e-05 0 1.7436106967079922e-05 5.7512383543393281e-05 0 8.7172479280698603e-06 -2.0969524560761092e-06 0 6.8652726911136001e-06 -3.4564802000609212e-06 0 7.6752563628970603e-06 -5.5077591792121346e-06 0 7.2617193517596834e-06 1.7058455705100955e-06 0 8.4925287279236201e-06 1.8810991541458529e-06 0 7.0321388413154695e-06 1.3993499311676611e-06 0 -3.8246401494811951e-05 0.00014277223484015274 0 -2.2225017231450257e-05 0.00014947394727497185 0 -4.2813578033102433e-05 0.00016847277444074211 0 5.4460666456996402e-06 -7.0779477146059122e-05 0 -2.0464493398506357e-06 -7.4878633504095181e-05 0 8.5947675210665078e-06 -8.4239640368028723e-05 0 1.383786018744346e-05 -6.6805428037050619e-06 0 1.1885502720670792e-05 -7.0641546817778578e-06 0 1.3018405254752036e-05 -1.1254858675987469e-05 0 1.3472094791935778e-05 -3.6015308274410671e-05 0 1.3555341379266523e-05 -3.2595272202521417e-05 0 1.1291447022267841e-05 -3.3475316734855107e-05 0 1.4596669047974207e-05 -1.9256889446392064e-05 0 1.2956171783826638e-05 -2.0985343531714776e-05 0 1.7542687221174372e-05 -2.3960742577526095e-05 0 5.8188908730333126e-10 -4.1985217305869424e-10 0 8.1143289433144841e-07 -7.5289094961256641e-07 0 5.2152137376455209e-07 -1.1825130950164008e-06 0 2.6607454446913738e-10 4.4748516297691758e-10 0 1.3862179685900669e-07 1.1428251239491392e-06 0 3.9150657285188152e-07 9.9095337848026725e-07 0 2.2809456772179878e-06 -2.8253363132091158e-05 0 -4.6455224280878918e-06 -2.7895168632391298e-05 0 -3.7826052705766908e-06 -3.6414542552725336e-05 0 -9.4957312240038919e-07 -2.4640335133110135e-06 0 -4.7911561369463582e-07 -1.6131792869437886e-06 0 -3.6149352393698285e-06 -2.1602036768480781e-06 0 -3.8742400489217596e-06 6.7317174019921231e-06 0 -5.3795235549706079e-06 1.612831891489192e-05 0 -1.2207167983653394e-05 1.4289003099397187e-05 0 1.8060463991998977e-06 -8.7459429258877515e-07 0 1.0504868569538642e-06 -3.9178075000340502e-07 0 2.4615134878456209e-06 -4.3849446903079321e-07 0 1.8245350813288753e-06 -2.682268655856747e-08 0 2.4615134878456209e-06 -4.3849446903079321e-07 0 1.0504868569538642e-06 -3.9178075000340502e-07 0 1.4328377724813037e-06 1.0289945870795855e-06 0 6.8486934129708077e-07 9.3186915812874642e-07 0 1.7167643323243779e-06 1.5907145401458808e-06 0 9.8807639797467864e-07 1.5204295355115518e-06 0 1.7167643323243779e-06 1.5907145401458808e-06 0 6.8486934129708077e-07 9.3186915812874642e-07 0 -3.6522412509031233e-06 1.5392277472056833e-06 0 6.1874856424336557e-07 2.9160354851845185e-06 0 -3.8742400489217596e-06 6.7317174019921231e-06 0 7.2617193517596834e-06 1.7058455705100955e-06 0 8.7836705613472044e-06 2.0838418124729602e-06 0 8.4925287279236201e-06 1.8810991541458529e-06 0 5.6165242314681668e-06 -5.814300945967982e-07 0 3.6179457421365746e-06 -1.559383522133561e-06 0 3.8116306737815576e-06 -1.1033284062238149e-06 0 -4.7911561369463582e-07 -1.6131792869437886e-06 0 1.5393563758739649e-06 -2.1390386874617397e-06 0 2.5930076774294912e-06 -8.1094349744931356e-07 0 9.2248532649560718e-06 1.7607182790429279e-06 0 1.0545893127075028e-05 2.8422813212517075e-06 0 8.7836705613472044e-06 2.0838418124729602e-06 0 4.2774641517182817e-07 1.5203368775308871e-06 0 1.1083271747554582e-06 7.5161697036718409e-07 0 1.7269944450501262e-06 1.6783505978092597e-06 0 2.577184364657833e-06 7.6974914362079541e-07 0 1.7269944450501262e-06 1.6783505978092597e-06 0 1.1083271747554582e-06 7.5161697036718409e-07 0 -1.1527477613639234e-09 -3.3706557945354031e-10 0 -5.0957237964260274e-10 -8.5236552819590778e-10 0 -9.4654597831922849e-07 -1.1955062089165376e-06 0 -5.040454735174739e-10 5.6956194690489224e-10 0 -9.496527745694837e-10 2.0780107026281266e-10 0 -7.7628523221108568e-07 7.5537176407114681e-07 0 3.8618272197985128e-05 5.9517347994512993e-05 0 1.7436106967079922e-05 5.7512383543393281e-05 0 1.8484793130402383e-05 4.0628446336803486e-05 0 2.6065935776718463e-06 1.8581272976146154e-06 0 3.1926925659846631e-06 1.8343780179770306e-06 0 3.7351011491415865e-06 1.7153422256789353e-06 0 5.2329221632570672e-06 -6.0123775856029161e-06 0 5.6805084089859227e-06 -3.9727507971152901e-06 0 4.4172923645633352e-06 -6.399217599264362e-06 0 1.6610771306035343e-05 -3.5578434208416629e-05 0 1.3555341379266523e-05 -3.2595272202521417e-05 0 1.3472094791935778e-05 -3.6015308274410671e-05 0 -9.0496811684855382e-06 -4.8360556971519936e-07 0 -8.1988992315082713e-06 -1.3603644010431094e-07 0 -6.7458323636061593e-06 6.243137348831922e-07 0 -1.3215196823409706e-05 2.2764986014465681e-07 0 -9.6640009632499428e-06 -1.3799533139250314e-06 0 -1.2308021484968848e-05 -5.6067084811431645e-08 0 1.4313368077835823e-05 -2.4268195050156879e-05 0 1.7542687221174372e-05 -2.3960742577526095e-05 0 1.2956171783826638e-05 -2.0985343531714776e-05 0 -8.1988992315082713e-06 -1.3603644010431094e-07 0 -5.6423892218523152e-06 5.0389410584820488e-07 0 -5.9378424649826472e-06 8.7914071596695415e-07 0 -6.007357844202918e-06 -1.1771996375632652e-06 0 -3.4202722624209488e-06 -6.2588728389318835e-07 0 -9.3810650042540823e-06 5.483703329479751e-07 0 -8.2594003232284919e-06 -8.644055903293121e-07 0 -5.6423892218523152e-06 5.0389410584820488e-07 0 -8.1988992315082713e-06 -1.3603644010431094e-07 0 -3.4413893318794465e-07 2.190864056324299e-06 0 -1.5975047374819089e-06 2.1026655937113999e-06 0 -8.2670833401737817e-07 1.8888805189066688e-06 0 1.791731872442566e-06 -2.3673415099350167e-06 0 1.5393563758739649e-06 -2.1390386874617397e-06 0 -8.2402955987741331e-07 -2.8946645355218797e-06 0 -8.8341593804409472e-06 3.9142813846468835e-06 0 -3.6522412509031233e-06 1.5392277472056831e-06 0 -3.8742400489217596e-06 6.7317174019921231e-06 0 8.317185882414582e-06 -2.358681434678027e-05 0 1.0270209543311994e-05 -2.0414363637540342e-05 0 7.5593783145614828e-06 -1.9702004086336093e-05 0 2.4060136689404285e-05 0.00014483825792720146 0 3.2825850719202797e-05 0.00016929698549358473 0 1.1910968983276587e-05 0.00016618070376608497 0 -2.516214830905278e-05 -7.25349833005022e-05 0 -2.8848646074688126e-05 -8.552379376568125e-05 0 -1.8476282867038865e-05 -8.3490031757468659e-05 0 1.8060463991998977e-06 -8.7459429258877515e-07 0 8.1143289433144852e-07 -7.5289094961256641e-07 0 1.0504868569538642e-06 -3.9178075000340502e-07 0 9.8807639797467864e-07 1.5204295355115518e-06 0 6.8486934129708077e-07 9.3186915812874632e-07 0 3.9150657285188152e-07 9.9095337848026725e-07 0 2.4902424351804392e-10 -6.2003812269605444e-10 0 5.2152137376455209e-07 -1.1825130950164008e-06 0 1.1383757496158058e-07 -1.2790200568429308e-06 0 -2.4723780132232909e-11 5.0780094647751427e-10 0 -1.3439249988611694e-07 1.0453746901178588e-06 0 1.3862179685900669e-07 1.1428251239491392e-06 0 5.2329221632570672e-06 -6.0123775856029161e-06 0 4.0977439896495065e-06 -8.3102999247277301e-06 0 6.3049822823575331e-06 -8.2730187456737503e-06 0 5.2083186788268583e-06 -1.051122952835314e-05 0 6.3049822823575331e-06 -8.2730187456737503e-06 0 4.0977439896495065e-06 -8.3102999247277301e-06 0 -1.0956782935627637e-05 6.4066230355760609e-05 0 -9.0299158684422546e-06 4.390818508381744e-05 0 3.0109517485045694e-06 5.9831627767636841e-05 0 5.3015124996786205e-06 3.8926034004863473e-05 0 3.0109517485045681e-06 5.9831627767636848e-05 0 -9.0299158684422546e-06 4.390818508381744e-05 0 1.1110270529229125e-05 6.1839036659978296e-06 0 1.1562745366782703e-05 3.7922673050406986e-06 0 1.6010464395910095e-05 7.8629851749927274e-06 0 5.2329221632570672e-06 -6.0123775856029161e-06 0 6.8652726911136001e-06 -3.4564802000609212e-06 0 5.6805084089859227e-06 -3.9727507971152901e-06 0 4.1427293100901302e-06 -2.2001314346717545e-07 0 2.9007010673256628e-06 1.0637806747751754e-07 0 3.8800970168388249e-06 4.7195508916247524e-07 0 8.5113781996162442e-06 -1.6516202048486353e-05 0 1.0270209543311994e-05 -2.0414363637540342e-05 0 1.1561788556366428e-05 -1.7185805237110652e-05 0 -2.411705615204571e-05 0.00011029510857048077 0 -3.3590517757092911e-05 9.5382483898202516e-05 0 -1.8672981987201213e-05 8.429162529206812e-05 0 7.3739461286279473e-06 -2.8679707912591856e-05 0 5.2943950140326493e-06 -2.4689302804964144e-05 0 5.1883542712456878e-06 -2.8493785749709187e-05 0 1.9458575222762772e-05 -2.865487536797893e-05 0 1.5970598809533207e-05 -2.7247361904899242e-05 0 1.7625058958933176e-05 -3.1841400814294869e-05 0 1.6672200816053774e-06 2.061753229232657e-06 0 1.4665352975312289e-06 2.0221421085922945e-06 0 7.130448073482666e-07 2.1808131974793409e-06 0 -1.4450777275427304e-05 2.7518772016229969e-05 0 -5.3795235549706104e-06 1.612831891489192e-05 0 -2.8483483556486113e-06 2.678491028752928e-05 0 -2.612222732425275e-06 4.1973982000452269e-07 0 -4.4255110107728051e-06 5.9551011622929681e-07 0 -2.5871454022646499e-06 9.1978150405267295e-07 0 -6.0995848422286632e-06 -1.2839473770737271e-06 0 -3.4783629429349292e-06 -9.4614886673611287e-07 0 -3.4299038594902856e-06 -1.653435941036996e-06 0 1.6968628976670752e-05 -1.6212891693173387e-05 0 1.6934898908688893e-05 -1.2644523732443384e-05 0 1.3018405254752036e-05 -1.1254858675987469e-05 0 -5.7446885056180354e-07 1.641482967117798e-06 0 -8.7678739044862794e-07 2.1276175894052883e-06 0 -5.7408817775662526e-08 1.8332393446119996e-06 0 -2.0278503685278184e-07 -2.1349130565940141e-06 0 6.5657296748439366e-07 -2.01977495356626e-06 0 -2.1762108856690908e-08 -2.73514451104637e-06 0 -4.3239667120783797e-05 3.1561296480065662e-05 0 -2.9438546757036983e-05 2.2975592992281834e-05 0 -3.0395762338404622e-05 3.476863591394153e-05 0 -2.5438553256395744e-05 -1.6561568237261121e-05 0 -1.9414980698637076e-05 -1.8309046110347193e-05 0 -1.8507894823659036e-05 -1.2221930420644216e-05 0 5.8912623112761471e-06 1.54567124038033e-05 0 1.3918542662457872e-05 1.1027846474727844e-05 0 1.2719170158697228e-05 2.3135570702464363e-05 0 2.2884706109086996e-05 1.3451650060093156e-05 0 1.2719170158697228e-05 2.3135570702464363e-05 0 1.3918542662457872e-05 1.1027846474727844e-05 0 -2.6175727806666048e-06 -2.0527876570815603e-05 0 -9.0248862914031683e-06 -2.2585321195739363e-05 0 -4.6455224280878918e-06 -2.7895168632391298e-05 0 -9.8032764051995665e-06 -3.3420157923723891e-05 0 -4.6455224280878918e-06 -2.7895168632391298e-05 0 -9.0248862914031683e-06 -2.2585321195739363e-05 0 1.383786018744346e-05 -6.6805428037050619e-06 0 1.5786557181418318e-05 -3.0392623071284776e-06 0 1.3366690593822363e-05 -1.4066159447627271e-07 0 1.6610771306035343e-05 -3.5578434208416629e-05 0 1.3472094791935776e-05 -3.6015308274410671e-05 0 1.6292204970995999e-05 -3.8777302479055256e-05 0 4.1427293100901302e-06 -2.2001314346717545e-07 0 3.8116306737815576e-06 -1.1033284062238149e-06 0 2.8442708065128558e-06 -8.5309178062658148e-07 0 -7.917217470003584e-06 -7.9806248738204999e-06 0 -1.3615466792212013e-05 -1.226102848548672e-05 0 -8.7276988296500514e-06 -1.2203427449412991e-05 0 2.3705764259383834e-05 -4.5698971040170095e-05 0 2.3034773868328038e-05 -3.8733645304369425e-05 0 1.9118462562050355e-05 -3.9567987220824853e-05 0 -2.8994690949349758e-05 5.1743606233212694e-05 0 -4.1002260704586559e-05 5.1784893935597899e-05 0 -3.0395762338404622e-05 3.476863591394153e-05 0 -4.2813578033102433e-05 0.00016847277444074211 0 -2.2225017231450257e-05 0.00014947394727497185 0 -2.0907502920597018e-05 0.00017040449004115851 0 8.5947675210665078e-06 -8.4239640368028723e-05 0 -2.0464493398506357e-06 -7.4878633504095181e-05 0 -2.0719548100811026e-06 -8.5580160160825958e-05 0 4.3821188314147219e-06 1.301853268397785e-06 0 5.744338531348667e-06 1.3613359839025765e-06 0 4.4163920756349146e-06 1.6633911907732014e-06 0 5.2083186788268583e-06 -1.051122952835314e-05 0 4.0977439896495065e-06 -8.3102999247277301e-06 0 3.4669325142007669e-06 -1.1656267903614284e-05 0 5.3457348017323835e-06 1.0433700436151438e-06 0 7.0321388413154695e-06 1.3993499311676611e-06 0 6.4608994497487046e-06 7.840895216398753e-07 0 7.9119066372225637e-06 1.2457735555078296e-06 0 6.4608994497487046e-06 7.840895216398753e-07 0 7.0321388413154695e-06 1.3993499311676611e-06 0 -4.7911561369463582e-07 -1.6131792869437886e-06 0 -3.4202722624209488e-06 -6.2588728389318835e-07 0 -3.6149352393698285e-06 -2.1602036768480781e-06 0 -9.8032764051995665e-06 -3.3420157923723891e-05 0 -1.5457337323742799e-05 -3.9384631655709882e-05 0 -1.07338872119533e-05 -4.5473520365667829e-05 0 -6.2789593881395622e-06 -2.3645207386797571e-06 0 -3.5584292252783614e-06 -2.8293894134415951e-06 0 -7.4386192342121719e-06 -1.8073074975003223e-06 0 1.2552306436981941e-05 0.00011046646847497768 0 -4.4344441139720521e-06 0.00012991677905426611 0 -9.2972823477987609e-06 0.00011196046198850274 0 1.2552306436981941e-05 0.00011046646847497768 0 -9.2972823477987609e-06 0.00011196046198850274 0 -6.4321778970426436e-06 9.381554169294699e-05 0 -2.411705615204571e-05 0.00011029510857048077 0 -6.4321778970426445e-06 9.3815541692947004e-05 0 -9.2972823477987609e-06 0.00011196046198850274 0 -1.8442421733479326e-05 -5.4644808120158431e-05 0 -1.1199715171234458e-05 -6.5049967705904091e-05 0 -7.8467487343558764e-06 -5.4672626127784387e-05 0 -1.8442421733479326e-05 -5.4644808120158431e-05 0 -7.8467487343558764e-06 -5.4672626127784387e-05 0 -1.07338872119533e-05 -4.5473520365667829e-05 0 1.1562745366782703e-05 3.7922673050406986e-06 0 1.3749314679596361e-05 5.3801219886111733e-06 0 1.6010464395910095e-05 7.8629851749927274e-06 0 7.9253957707156435e-10 -3.3224825405971024e-10 0 1.0237347165300394e-09 1.0073099448822091e-11 0 1.0504868569538642e-06 -3.9178075000340502e-07 0 7.2928445120669652e-10 2.9980622483056674e-10 0 4.5698866884895627e-10 4.5035980203325376e-10 0 6.8486934129708077e-07 9.3186915812874642e-07 0 3.1926925659846631e-06 1.8343780179770306e-06 0 4.4163920756349146e-06 1.6633911907732014e-06 0 3.7351011491415865e-06 1.7153422256789353e-06 0 5.2211407001967239e-06 -9.5650668857452799e-06 0 3.2416653245819148e-06 -7.1901270150166665e-06 0 1.8237420027086971e-06 -1.1338012305320319e-05 0 -3.5584292252783614e-06 -2.8293894134415951e-06 0 -3.6149352393698281e-06 -2.1602036768480781e-06 0 -7.4386192342121719e-06 -1.8073074975003223e-06 0 9.287866818209964e-10 2.0849849570567152e-10 0 1.4770427758889901e-06 5.9862084754109735e-07 0 9.601596685475068e-07 1.7174192843176746e-07 0 -6.0995848422286632e-06 -1.2839473770737271e-06 0 -4.9384815678134853e-06 -2.2238313854538623e-06 0 -7.3927447028391108e-06 -1.8214316993095083e-06 0 -4.4255110107728051e-06 5.9551011622929681e-07 0 -5.3178606882390497e-06 9.4979638126925229e-07 0 -3.725080201343888e-06 1.2677375106809402e-06 0 -1.9035782243564536e-05 -2.5908232920893175e-05 0 -1.9414980698637073e-05 -1.8309046110347193e-05 0 -2.4935774887665797e-05 -2.6172498316928641e-05 0 2.3845452163782387e-06 1.1124948760752644e-06 0 1.4328377724813037e-06 1.0289945870795855e-06 0 2.5885237010081711e-06 1.546001399098687e-06 0 8.317185882414582e-06 -2.358681434678027e-05 0 5.2943950140326493e-06 -2.4689302804964144e-05 0 8.6041181659815461e-06 -2.6771073092127977e-05 0 9.2248532649560718e-06 1.7607182790429279e-06 0 8.7836705613472044e-06 2.0838418124729602e-06 0 7.9659109420695206e-06 1.4030539240864229e-06 0 1.6505197391946584e-05 7.7978408497177129e-05 0 -1.0273219724872385e-06 7.8589171241234709e-05 0 3.0109517485045694e-06 5.9831627767636841e-05 0 4.1427293100901302e-06 -2.2001314346717545e-07 0 2.4615134878456209e-06 -4.3849446903079321e-07 0 2.9007010673256628e-06 1.0637806747751754e-07 0 -2.9245187176824064e-05 0.00019334734232450226 0 -2.0907502920597018e-05 0.00017040449004115851 0 -4.1169879949696511e-06 0.00018223149493222111 0 3.044580835808604e-06 -9.7708351220564927e-05 0 -2.0719548100811026e-06 -8.5580160160825958e-05 0 -1.0018272991194355e-05 -9.1840830874381587e-05 0 1.4328377724813037e-06 1.0289945870795855e-06 0 1.7167643323243779e-06 1.5907145401458808e-06 0 2.5885237010081711e-06 1.546001399098687e-06 0 9.2248532649560718e-06 1.7607182790429279e-06 0 7.8279245817954107e-06 4.4391521994275549e-07 0 8.8440414250440493e-06 2.4810757109225194e-07 0 1.9309127082129739e-05 0.00019270102494228032 0 1.7282168612294227e-05 0.000217683042209646 0 -4.5941439156285568e-06 0.00020924052546102706 0 -2.9245187176824064e-05 0.00019334734232450226 0 -4.5941439156285526e-06 0.00020924052546102709 0 -2.5256936904683924e-05 0.00021729132410429843 0 -2.1224572258285818e-05 -9.734527522546427e-05 0 -1.9154879596335865e-05 -0.00011004852074867477 0 -8.7708327531070866e-06 -0.00010598739314344517 0 3.044580835808604e-06 -9.7708351220564927e-05 0 -8.7708327531070866e-06 -0.00010598739314344517 0 2.2899766508930017e-06 -0.00011053249556610453 0 -3.8742400489217596e-06 6.7317174019921231e-06 0 -1.2207167983653394e-05 1.4289003099397187e-05 0 -1.2949492591004237e-05 8.5104937994921102e-06 0 -1.1675970750796665e-05 -1.5632743373097022e-05 0 -1.9414980698637076e-05 -1.8309046110347193e-05 0 -1.4475594062138424e-05 -2.1401604033774456e-05 0 -1.9035782243564536e-05 -2.5908232920893175e-05 0 -1.4475594062138424e-05 -2.1401604033774456e-05 0 -1.9414980698637076e-05 -1.8309046110347193e-05 0 -2.8994690949349758e-05 5.1743606233212694e-05 0 -3.0395762338404622e-05 3.476863591394153e-05 0 -1.9743454161461992e-05 4.158596312628279e-05 0 -1.4450777275427304e-05 2.7518772016229969e-05 0 -1.9743454161461992e-05 4.158596312628279e-05 0 -3.0395762338404622e-05 3.476863591394153e-05 0 9.8807639797467864e-07 1.5204295355115518e-06 0 6.2375807759298165e-07 1.7365169247440869e-06 0 1.4665352975312289e-06 2.0221421085922945e-06 0 3.2970201363628176e-05 3.9705637644970604e-05 0 3.8618272197985128e-05 5.9517347994512993e-05 0 1.8484793130402383e-05 4.0628446336803486e-05 0 -2.0278503685278184e-07 -2.1349130565940141e-06 0 -1.0791973567365586e-06 -2.5747471422808797e-06 0 -9.3772361438292871e-07 -1.8418229185644412e-06 0 -5.7446885056180354e-07 1.641482967117798e-06 0 -9.0765812828463785e-07 1.2562261262849218e-06 0 -1.2584103065488538e-06 1.8091557228299721e-06 0 5.2329221632570672e-06 -6.0123775856029161e-06 0 7.6752563628970603e-06 -5.5077591792121346e-06 0 6.8652726911136001e-06 -3.4564802000609212e-06 0 -8.7678739044862794e-07 2.1276175894052883e-06 0 -1.241895197922696e-07 2.1539891806943609e-06 0 -5.7408817775662526e-08 1.8332393446119996e-06 0 -2.1762108856690908e-08 -2.73514451104637e-06 0 6.5657296748439366e-07 -2.01977495356626e-06 0 1.2730227975600803e-06 -2.3174702176257521e-06 0 -6.007357844202918e-06 -1.1771996375632652e-06 0 -9.3810650042540823e-06 5.483703329479751e-07 0 -7.4386192342121719e-06 -1.8073074975003223e-06 0 -1.2308021484968848e-05 -5.6067084811431645e-08 0 -7.4386192342121719e-06 -1.8073074975003223e-06 0 -9.3810650042540823e-06 5.483703329479751e-07 0 1.9309127082129739e-05 0.00019270102494228032 0 1.1910968983276587e-05 0.00016618070376608497 0 3.2825850719202797e-05 0.00016929698549358473 0 -2.1224572258285818e-05 -9.734527522546427e-05 0 -1.8476282867038865e-05 -8.3490031757468659e-05 0 -2.8848646074688126e-05 -8.552379376568125e-05 0 2.3705764259383834e-05 -4.5698971040170095e-05 0 3.1201257916179247e-05 -4.8195418777294297e-05 0 2.8974890700345166e-05 -4.2065724144417374e-05 0 1.3856466268465482e-05 -3.7220977067415473e-05 0 1.5190444468034799e-05 -3.9742456757625551e-05 0 1.2154660150892897e-05 -3.6035447615964066e-05 0 -6.1268060049238354e-07 9.4673690683914698e-07 0 4.2774641517182817e-07 1.5203368775308871e-06 0 -8.2670833401737817e-07 1.8888805189066688e-06 0 4.396063026133182e-06 -3.1407217290070878e-05 0 7.3298355809086999e-06 -3.1697749686263452e-05 0 5.1883542712456878e-06 -2.8493785749709187e-05 0 3.4859559273018792e-05 -2.6920657585062089e-05 0 3.0428021673748876e-05 -2.7053810418618979e-05 0 3.2286957835166402e-05 -3.2040310001228346e-05 0 2.2465023541729993e-05 -3.2266851611397604e-05 0 2.6926105856952082e-05 -3.2415263907912024e-05 0 2.3074214141594298e-05 -2.7813361907171026e-05 0 -1.3373103245877963e-05 -8.3951053967965049e-06 0 -1.3615466792212013e-05 -1.226102848548672e-05 0 -7.917217470003584e-06 -7.9806248738204999e-06 0 1.5190444468034799e-05 -3.9742456757625551e-05 0 1.6292204970995999e-05 -3.8777302479055256e-05 0 1.3472094791935778e-05 -3.6015308274410671e-05 0 -1.4166541207126159e-05 4.5290198242420982e-06 0 -9.3810650042540823e-06 5.483703329479751e-07 0 -8.8341593804409472e-06 3.9142813846468835e-06 0 5.744338531348667e-06 1.3613359839025765e-06 0 5.7910514997927321e-06 1.6078303628244162e-06 0 4.4163920756349146e-06 1.6633911907732014e-06 0 -1.1675970750796665e-05 -1.5632743373097022e-05 0 -9.0248862914031683e-06 -2.2585321195739363e-05 0 -6.4154472929784989e-06 -1.5739196326419321e-05 0 -2.6175727806666048e-06 -2.0527876570815603e-05 0 -6.4154472929784997e-06 -1.5739196326419321e-05 0 -9.0248862914031683e-06 -2.2585321195739363e-05 0 -2.1072517477159958e-06 1.1808398065417843e-06 0 -6.1268060049238354e-07 9.4673690683914698e-07 0 -8.2670833401737817e-07 1.8888805189066688e-06 0 -1.1675970750796665e-05 -1.5632743373097022e-05 0 -8.7276988296500514e-06 -1.2203427449412991e-05 0 -1.3615466792212013e-05 -1.226102848548672e-05 0 -2.1996294686962639e-06 1.8156156397577272e-06 0 -2.1072517477159958e-06 1.1808398065417843e-06 0 -8.2670833401737817e-07 1.8888805189066688e-06 0 1.791731872442566e-06 -2.3673415099350167e-06 0 4.1001494545657621e-06 -1.4328426630253667e-06 0 1.5393563758739649e-06 -2.1390386874617397e-06 0 -1.1675970750796665e-05 -1.5632743373097022e-05 0 -1.3615466792212013e-05 -1.226102848548672e-05 0 -1.9414980698637076e-05 -1.8309046110347193e-05 0 -1.4450777275427304e-05 2.7518772016229969e-05 0 -3.0395762338404622e-05 3.476863591394153e-05 0 -2.1013942876749259e-05 2.2304326292230206e-05 0 -5.0957237964260274e-10 -8.5236552819590778e-10 0 -2.2414227784138929e-07 -1.1923632924749808e-06 0 -9.3772361438292871e-07 -1.8418229185644412e-06 0 -5.040454735174739e-10 5.6956194690489224e-10 0 -9.0765812828463785e-07 1.2562261262849218e-06 0 -3.2187403977949874e-07 8.7372125091535145e-07 0 -2.1996294686962639e-06 1.8156156397577272e-06 0 -8.2670833401737817e-07 1.8888805189066688e-06 0 -1.5975047374819089e-06 2.1026655937113999e-06 0 -9.4957312240038919e-07 -2.4640335133110135e-06 0 -8.2402955987741331e-07 -2.8946645355218797e-06 0 1.5393563758739649e-06 -2.1390386874617397e-06 0 1.5609398588234936e-06 -1.9975712531046936e-06 0 1.7470206425723726e-06 -1.5230133842682561e-06 0 2.6305140992766914e-06 -1.7870526940334999e-06 0 1.8237420027086971e-06 -1.1338012305320319e-05 0 -2.291520446649013e-06 -1.375100381003422e-05 0 2.8824948996047249e-06 -1.8183910789953577e-05 0 4.1427293100901302e-06 -2.2001314346717545e-07 0 3.880097016838824e-06 4.7195508916247534e-07 0 5.039066470937493e-06 3.9130312082577333e-07 0 -2.9245187176824064e-05 0.00019334734232450226 0 -4.2813578033102433e-05 0.00016847277444074211 0 -2.0907502920597018e-05 0.00017040449004115851 0 3.044580835808604e-06 -9.7708351220564927e-05 0 8.5947675210665078e-06 -8.4239640368028723e-05 0 -2.0719548100811026e-06 -8.5580160160825958e-05 0 -3.4413893318794465e-07 2.190864056324299e-06 0 -8.7678739044862794e-07 2.1276175894052883e-06 0 -1.5975047374819089e-06 2.1026655937113999e-06 0 1.791731872442566e-06 -2.3673415099350167e-06 0 -8.2402955987741331e-07 -2.8946645355218797e-06 0 -2.1762108856690908e-08 -2.73514451104637e-06 0 2.8982746607675845e-06 8.0037421499605267e-07 0 3.444323411885925e-06 1.4023309154645033e-06 0 4.1202083489114483e-06 1.0497361895253539e-06 0 -2.291520446649013e-06 -1.375100381003422e-05 0 -2.6175727806666048e-06 -2.0527876570815603e-05 0 2.8824948996047249e-06 -1.8183910789953577e-05 0 -6.7797690819038612e-05 0.00012254997007549355 0 -6.4762396586218388e-05 0.000101043391704246 0 -4.5717172323147677e-05 0.00011077600911263595 0 1.6925784641553585e-05 -4.7892876799757875e-05 0 8.2641379117003745e-06 -5.4007085425454084e-05 0 1.8806714884210723e-05 -5.8604338007561214e-05 0 -1.8442421733479326e-05 -5.4644808120158431e-05 0 -1.07338872119533e-05 -4.5473520365667822e-05 0 -1.8313362156234884e-05 -4.5680124370590246e-05 0 6.9818625073108878e-06 -1.457579716623485e-06 0 5.6805084089859227e-06 -3.9727507971152901e-06 0 6.8652726911136001e-06 -3.4564802000609212e-06 0 -6.2789593881395622e-06 -2.3645207386797571e-06 0 -4.9384815678134845e-06 -2.2238313854538619e-06 0 -4.0727367130580409e-06 -2.7122019137080328e-06 0 -4.781358817954699e-06 1.3748478071374663e-06 0 -3.362606382588174e-06 1.6535421100424656e-06 0 -3.725080201343888e-06 1.2677375106809402e-06 0 8.4269472240689671e-06 1.379246775487498e-06 0 6.2298561648635205e-06 -2.3240345344133876e-07 0 8.1361708595297543e-06 8.9344121796896356e-07 0 2.8982746607675845e-06 8.0037421499605267e-07 0 2.3845452163782387e-06 1.1124948760752644e-06 0 3.4443234118859246e-06 1.4023309154645033e-06 0 5.2083186788268583e-06 -1.051122952835314e-05 0 4.4344959060499189e-06 -1.4132606571504418e-05 0 6.854364914734771e-06 -1.260970972179093e-05 0 -6.2789593881395622e-06 -2.3645207386797571e-06 0 -7.3927447028391108e-06 -1.8214316993095083e-06 0 -4.9384815678134853e-06 -2.2238313854538623e-06 0 -4.781358817954699e-06 1.3748478071374663e-06 0 -3.7250802013438875e-06 1.2677375106809402e-06 0 -5.3178606882390505e-06 9.4979638126925218e-07 0 9.2248532649560718e-06 1.7607182790429279e-06 0 7.9659109420695206e-06 1.4030539240864229e-06 0 7.8279245817954107e-06 4.4391521994275549e-07 0 -9.7650492258497492e-06 -7.844739047475251e-05 0 -1.1199715171234458e-05 -6.5049967705904077e-05 0 -1.6718855421835673e-05 -7.2141182502114779e-05 0 -6.1763445424174082e-06 0.00015671811652743638 0 -4.4344441139720547e-06 0.00012991677905426611 0 7.2367876307828043e-06 0.00014434603567702362 0 -1.3373103245877963e-05 -8.3951053967965049e-06 0 -7.917217470003584e-06 -7.9806248738204982e-06 0 -9.344374268237005e-06 -4.95420909925999e-06 0 -4.9930766085482272e-06 -4.2861322672357019e-06 0 -9.3443742682370033e-06 -4.95420909925999e-06 0 -7.917217470003584e-06 -7.9806248738204999e-06 0 3.4312625616042306e-06 -1.5320559460070013e-06 0 1.7006727013732824e-06 -2.4061850937167575e-06 0 3.7788551337251671e-06 -4.1320042959007183e-06 0 1.0918880710418402e-06 -5.0455946435033465e-06 0 3.7788551337251671e-06 -4.1320042959007183e-06 0 1.7006727013732824e-06 -2.4061850937167575e-06 0 5.2152137376455209e-07 -1.1825130950164008e-06 0 1.7470206425723726e-06 -1.5230133842682561e-06 0 6.5657296748439366e-07 -2.01977495356626e-06 0 1.5609398588234936e-06 -1.9975712531046936e-06 0 6.5657296748439366e-07 -2.01977495356626e-06 0 1.7470206425723726e-06 -1.5230133842682561e-06 0 3.428107312656805e-07 2.050318774644962e-06 0 6.2375807759298165e-07 1.7365169247440869e-06 0 -5.7408817775662526e-08 1.8332393446119996e-06 0 1.3862179685900669e-07 1.1428251239491392e-06 0 -5.7408817775662526e-08 1.8332393446119996e-06 0 6.2375807759298165e-07 1.7365169247440869e-06 0 8.317185882414582e-06 -2.358681434678027e-05 0 1.0883574533934866e-05 -2.7293031398440652e-05 0 1.1470940826531411e-05 -2.4135693128506869e-05 0 6.9818625073108878e-06 -1.457579716623485e-06 0 8.8440414250440493e-06 2.4810757109225194e-07 0 7.8279245817954107e-06 4.4391521994275549e-07 0 7.9119066372225637e-06 1.2457735555078296e-06 0 7.0686301093052294e-06 5.2261032460180881e-07 0 6.4608994497487046e-06 7.840895216398753e-07 0 1.2552306436981941e-05 0.00011046646847497768 0 1.3833225251302854e-05 0.00013096443225398609 0 -4.4344441139720521e-06 0.00012991677905426611 0 -1.8442421733479326e-05 -5.4644808120158431e-05 0 -2.013862048110054e-05 -6.4677682071083374e-05 0 -1.1199715171234458e-05 -6.5049967705904091e-05 0 1.2552306436981941e-05 0.00011046646847497768 0 -6.4321778970426436e-06 9.381554169294699e-05 0 9.4753660576233747e-06 9.1320040548547267e-05 0 8.4269472240689671e-06 1.379246775487498e-06 0 5.6741657011224825e-06 2.8630373938788924e-07 0 6.2298561648635205e-06 -2.3240345344133881e-07 0 8.4269472240689671e-06 1.379246775487498e-06 0 8.2594684049317596e-06 2.8765108415560675e-06 0 5.6741657011224833e-06 2.8630373938788929e-07 0 -1.0956782935627637e-05 6.4066230355760609e-05 0 -1.027321972487237e-06 7.8589171241234723e-05 0 -1.8672981987201213e-05 8.429162529206812e-05 0 -6.4321778970426436e-06 9.381554169294699e-05 0 -1.8672981987201213e-05 8.429162529206812e-05 0 -1.027321972487237e-06 7.8589171241234723e-05 0 -2.1017892222198228e-06 -1.8788323964209202e-06 0 -9.3772361438292881e-07 -1.8418229185644412e-06 0 -1.9219588689057521e-06 -2.4742590467371622e-06 0 -1.6953587197583587e-06 1.1563432328659793e-06 0 -1.7431805377830482e-06 1.6230979002212289e-06 0 -9.0765812828463785e-07 1.2562261262849218e-06 0 -2.6175727806666048e-06 -2.0527876570815603e-05 0 -4.6455224280878918e-06 -2.7895168632391298e-05 0 2.2809456772179878e-06 -2.8253363132091158e-05 0 4.396063026133182e-06 -3.1407217290070878e-05 0 6.8981779352107397e-06 -3.4724338118269828e-05 0 7.3298355809086999e-06 -3.1697749686263452e-05 0 3.4859559273018792e-05 -2.6920657585062089e-05 0 3.2286957835166402e-05 -3.2040310001228346e-05 0 3.8946998604535796e-05 -3.1273438731003123e-05 0 6.7297697297575889e-06 8.2037994566945408e-07 0 7.8279245817954107e-06 4.4391521994275549e-07 0 7.9659109420695206e-06 1.4030539240864229e-06 0 7.9119066372225637e-06 1.2457735555078296e-06 0 9.832535525962959e-06 2.2664313589964225e-06 0 8.1361708595297543e-06 8.9344121796896356e-07 0 1.6610771306035343e-05 -3.5578434208416629e-05 0 1.7625058958933176e-05 -3.1841400814294869e-05 0 1.3555341379266523e-05 -3.2595272202521417e-05 0 1.4705053654738651e-05 -2.9744470927076261e-05 0 1.3555341379266523e-05 -3.2595272202521417e-05 0 1.7625058958933176e-05 -3.1841400814294869e-05 0 1.4596669047974207e-05 -1.9256889446392064e-05 0 1.7542687221174372e-05 -2.3960742577526095e-05 0 1.8910713221934044e-05 -1.9930388330812081e-05 0 -2.9245187176824064e-05 0.00019334734232450226 0 -5.1492881326550823e-05 0.0001910281383784746 0 -4.2813578033102433e-05 0.00016847277444074211 0 3.044580835808604e-06 -9.7708351220564927e-05 0 1.4224905837639029e-05 -9.5978626817619329e-05 0 8.5947675210665078e-06 -8.4239640368028723e-05 0 9.9716958778022418e-06 -3.3901262972334832e-05 0 1.1294158676551833e-05 -3.5564489884469823e-05 0 1.2154660150892897e-05 -3.6035447615964066e-05 0 3.1261481432500112e-05 -3.6886549215630615e-05 0 2.8974890700345166e-05 -4.2065724144417374e-05 0 3.8218180468846456e-05 -4.1551206020896939e-05 0 1.9309127082129739e-05 0.00019270102494228032 0 -4.1169879949696511e-06 0.00018223149493222111 0 1.1910968983276587e-05 0.00016618070376608497 0 -2.1224572258285818e-05 -9.734527522546427e-05 0 -1.0018272991194355e-05 -9.1840830874381587e-05 0 -1.8476282867038865e-05 -8.3490031757468659e-05 0 2.8982746607675845e-06 8.0037421499605267e-07 0 4.1202083489114483e-06 1.0497361895253539e-06 0 3.8800970168388249e-06 4.7195508916247524e-07 0 5.3457348017323835e-06 1.0433700436151438e-06 0 3.8800970168388249e-06 4.7195508916247524e-07 0 4.1202083489114483e-06 1.0497361895253539e-06 0 2.4060136689404285e-05 0.00014483825792720146 0 1.1910968983276587e-05 0.00016618070376608497 0 7.2367876307828043e-06 0.00014434603567702362 0 -2.516214830905278e-05 -7.25349833005022e-05 0 -1.8476282867038865e-05 -8.3490031757468659e-05 0 -1.6718855421835673e-05 -7.2141182502114779e-05 0 -2.0278503685278184e-07 -2.1349130565940141e-06 0 -9.3772361438292892e-07 -1.8418229185644412e-06 0 -2.2414227784138929e-07 -1.1923632924749808e-06 0 -5.7446885056180354e-07 1.641482967117798e-06 0 -3.2187403977949874e-07 8.7372125091535145e-07 0 -9.0765812828463785e-07 1.2562261262849218e-06 0 5.3015124996786205e-06 3.8926034004863473e-05 0 1.7436106967079922e-05 5.7512383543393281e-05 0 3.0109517485045694e-06 5.9831627767636841e-05 0 -2.1017892222198228e-06 -1.8788323964209202e-06 0 -9.4654597831922849e-07 -1.1955062089165376e-06 0 -9.3772361438292871e-07 -1.8418229185644412e-06 0 -1.6953587197583587e-06 1.1563432328659793e-06 0 -9.0765812828463785e-07 1.2562261262849218e-06 0 -7.7628523221108568e-07 7.5537176407114681e-07 0 -7.1754065979358049e-05 0.00016808128432396275 0 -5.4345528553877175e-05 0.00015138772348439707 0 -4.2813578033102433e-05 0.00016847277444074211 0 2.2679021086171489e-05 -8.2194886742660765e-05 0 1.3421824953582172e-05 -7.4680396428732909e-05 0 8.5947675210665078e-06 -8.4239640368028723e-05 0 5.8912623112761471e-06 1.54567124038033e-05 0 -5.3795235549706104e-06 1.612831891489192e-05 0 2.1392843979179457e-06 9.8529373434272855e-06 0 -3.8742400489217596e-06 6.7317174019921231e-06 0 2.1392843979179457e-06 9.8529373434272872e-06 0 -5.3795235549706104e-06 1.612831891489192e-05 0 -9.8032764051995665e-06 -3.3420157923723891e-05 0 -9.0248862914031683e-06 -2.2585321195739363e-05 0 -1.3926376666996884e-05 -2.6893166515284324e-05 0 1.383786018744346e-05 -6.6805428037050619e-06 0 1.6934898908688893e-05 -1.2644523732443384e-05 0 1.8084617272142592e-05 -9.6567502315587656e-06 0 -1.0956782935627637e-05 6.4066230355760609e-05 0 -1.880792211100647e-05 5.3175727376956713e-05 0 -9.0299158684422546e-06 4.390818508381744e-05 0 -1.4450777275427304e-05 2.7518772016229969e-05 0 -9.0299158684422546e-06 4.390818508381744e-05 0 -1.9743454161461992e-05 4.158596312628279e-05 0 -1.1675970750796665e-05 -1.5632743373097022e-05 0 -1.4475594062138424e-05 -2.1401604033774456e-05 0 -9.0248862914031683e-06 -2.2585321195739363e-05 0 -2.6175727806666048e-06 -2.0527876570815603e-05 0 2.2809456772179878e-06 -2.8253363132091158e-05 0 2.8824948996047249e-06 -1.8183910789953577e-05 0 7.3739461286279473e-06 -2.8679707912591856e-05 0 5.1883542712456878e-06 -2.8493785749709187e-05 0 7.3298355809086999e-06 -3.1697749686263452e-05 0 2.7524851296056583e-05 -2.9199215990091954e-05 0 3.2286957835166402e-05 -3.2040310001228346e-05 0 3.0428021673748876e-05 -2.7053810418618979e-05 0 8.7172479280698603e-06 -2.0969524560761092e-06 0 7.6752563628970603e-06 -5.5077591792121346e-06 0 9.6747427535023416e-06 -4.2307322615597922e-06 0 5.2329221632570672e-06 -6.0123775856029161e-06 0 6.3049822823575331e-06 -8.2730187456737503e-06 0 7.6752563628970603e-06 -5.5077591792121346e-06 0 1.2033333304728145e-05 3.7671984064134326e-06 0 1.0545893127075028e-05 2.8422813212517075e-06 0 1.065726032387893e-05 2.1253533293606188e-06 0 1.8237420027086971e-06 -1.1338012305320319e-05 0 3.2416653245819148e-06 -7.1901270150166665e-06 0 -2.5948764823876275e-07 -8.4914957623138126e-06 0 1.9309127082129739e-05 0.00019270102494228032 0 3.2825850719202797e-05 0.00016929698549358473 0 4.2223839223495166e-05 0.00019028408545671837 0 -2.1224572258285818e-05 -9.734527522546427e-05 0 -2.8848646074688126e-05 -8.552379376568125e-05 0 -3.2588754323544336e-05 -9.6695623649417205e-05 0 9.2248532649560718e-06 1.7607182790429279e-06 0 1.065726032387893e-05 2.1253533293606188e-06 0 1.0545893127075028e-05 2.8422813212517075e-06 0 2.2879137113911468e-05 -1.9656284061918572e-05 0 1.8910713221934044e-05 -1.9930388330812081e-05 0 2.3723934037540867e-05 -2.2431707802024727e-05 0 1.4705053654738651e-05 -2.9744470927076261e-05 0 1.7625058958933176e-05 -3.1841400814294869e-05 0 1.5970598809533207e-05 -2.7247361904899242e-05 0 9.8440718071223304e-06 2.510572686132124e-06 0 8.7836705613472044e-06 2.0838418124729602e-06 0 1.0545893127075028e-05 2.8422813212517075e-06 0 1.8060463991998977e-06 -8.7459429258877515e-07 0 2.8442708065128558e-06 -8.5309178062658148e-07 0 1.7470206425723726e-06 -1.5230133842682561e-06 0 -3.2302944378033873e-05 -3.1214936174869102e-05 0 -3.5221178870714586e-05 -4.0258750004439772e-05 0 -2.5415731964273409e-05 -3.3759419985427735e-05 0 1.791731872442566e-06 -2.3673415099350167e-06 0 1.2730227975600803e-06 -2.3174702176257521e-06 0 2.6305140992766914e-06 -1.7870526940334999e-06 0 6.4608994497487046e-06 7.840895216398753e-07 0 7.0686301093052294e-06 5.2261032460180881e-07 0 5.4368166286081908e-06 -8.030276481350183e-08 0 9.2248532649560718e-06 1.7607182790429279e-06 0 8.8440414250440493e-06 2.4810757109225194e-07 0 1.065726032387893e-05 2.1253533293606188e-06 0 -6.0627187655872606e-05 8.0667758020485836e-05 0 -5.5694228788095083e-05 6.2074361334248305e-05 0 -4.1134375270097843e-05 6.8109987694892041e-05 0 1.4328377724813037e-06 1.0289945870795855e-06 0 1.4770427758889901e-06 5.9862084754109735e-07 0 6.2431931531202827e-07 4.2447954102091221e-07 0 5.6165242314681668e-06 -5.814300945967982e-07 0 8.1361708595297543e-06 8.9344121796896356e-07 0 6.2298561648635205e-06 -2.3240345344133881e-07 0 8.5113781996162442e-06 -1.6516202048486353e-05 0 6.1444560846144112e-06 -1.6046409113700601e-05 0 7.5593783145614828e-06 -1.9702004086336093e-05 0 -1.8442421733479326e-05 -5.4644808120158431e-05 0 -2.6668065663132147e-05 -4.9768201900599038e-05 0 -2.8696761808599484e-05 -6.12066374053355e-05 0 1.791731872442566e-06 -2.3673415099350167e-06 0 2.6305140992766914e-06 -1.7870526940334999e-06 0 3.6179457421365746e-06 -1.559383522133561e-06 0 2.8982746607675845e-06 8.0037421499605267e-07 0 1.9971035103665905e-06 3.3170788330810902e-07 0 1.4770427758889901e-06 5.9862084754109735e-07 0 4.1316856702613119e-06 -1.0079642357690685e-06 0 6.2298561648635205e-06 -2.3240345344133881e-07 0 5.6741657011224833e-06 2.8630373938788929e-07 0 4.4344959060499197e-06 -1.4132606571504418e-05 0 6.1444560846144112e-06 -1.6046409113700601e-05 0 6.854364914734771e-06 -1.260970972179093e-05 0 7.3739461286279473e-06 -2.8679707912591856e-05 0 9.1045296267314548e-06 -3.0915578522124281e-05 0 8.6041181659815461e-06 -2.6771073092127977e-05 0 -6.007357844202918e-06 -1.1771996375632652e-06 0 -3.6149352393698285e-06 -2.1602036768480781e-06 0 -3.4202722624209488e-06 -6.2588728389318835e-07 0 5.9049444855813472e-05 0.00016399971529817509 0 3.2825850719202797e-05 0.00016929698549358473 0 4.1220703885698766e-05 0.00015173919350244716 0 -4.2651048754322203e-05 -8.4587097359111694e-05 0 -2.8848646074688126e-05 -8.552379376568125e-05 0 -3.3817978753079531e-05 -7.6795152891979729e-05 0 5.039066470937493e-06 3.9130312082577333e-07 0 5.4368166286081908e-06 -8.030276481350183e-08 0 4.1427293100901302e-06 -2.2001314346717545e-07 0 6.4608994497487046e-06 7.840895216398753e-07 0 5.4368166286081908e-06 -8.030276481350183e-08 0 5.039066470937493e-06 3.9130312082577333e-07 0 -3.8246401494811951e-05 0.00014277223484015274 0 -4.2813578033102426e-05 0.00016847277444074211 0 -5.4345528553877182e-05 0.00015138772348439707 0 5.4460666456996402e-06 -7.0779477146059122e-05 0 8.5947675210665062e-06 -8.4239640368028723e-05 0 1.3421824953582172e-05 -7.4680396428732909e-05 0 5.3457348017323835e-06 1.0433700436151438e-06 0 5.9506297967380489e-06 1.5360225585821449e-06 0 7.0321388413154695e-06 1.3993499311676611e-06 0 7.2617193517596834e-06 1.7058455705100955e-06 0 7.0321388413154704e-06 1.3993499311676611e-06 0 5.9506297967380489e-06 1.5360225585821449e-06 0 5.3457348017323835e-06 1.0433700436151438e-06 0 5.039066470937493e-06 3.9130312082577333e-07 0 3.8800970168388249e-06 4.7195508916247524e-07 0 -4.781358817954699e-06 1.3748478071374663e-06 0 -4.1599846809354313e-06 1.4179385598850357e-06 0 -2.9459570239336517e-06 1.860063900830439e-06 0 -1.6606520925255146e-07 -7.6452151347468611e-07 0 -1.1644333047471031e-06 -3.2283003155352423e-06 0 1.7006727013732824e-06 -2.4061850937167575e-06 0 1.0918880710418402e-06 -5.0455946435033465e-06 0 1.7006727013732824e-06 -2.406185093716758e-06 0 -1.1644333047471031e-06 -3.2283003155352423e-06 0 -4.781358817954699e-06 1.3748478071374663e-06 0 -2.9459570239336517e-06 1.860063900830439e-06 0 -3.362606382588174e-06 1.6535421100424656e-06 0 5.3015124996786205e-06 3.8926034004863473e-05 0 1.8484793130402383e-05 4.0628446336803486e-05 0 1.7436106967079922e-05 5.7512383543393281e-05 0 -6.1763445424174082e-06 0.00015671811652743638 0 -4.1169879949696486e-06 0.00018223149493222111 0 -2.0907502920597018e-05 0.00017040449004115851 0 -9.7650492258497492e-06 -7.844739047475251e-05 0 -1.0018272991194355e-05 -9.1840830874381587e-05 0 -2.0719548100811026e-06 -8.5580160160825958e-05 0 4.3821188314147219e-06 1.301853268397785e-06 0 3.1926925659846626e-06 1.8343780179770306e-06 0 3.1053303132732146e-06 1.4552727801197004e-06 0 9.287866818209964e-10 2.0849849570567152e-10 0 6.2431931531202827e-07 4.2447954102091221e-07 0 1.4770427758889901e-06 5.9862084754109735e-07 0 8.4269472240689671e-06 1.379246775487498e-06 0 1.1562745366782703e-05 3.7922673050406986e-06 0 8.2594684049317596e-06 2.8765108415560675e-06 0 2.1691704275001442e-05 -2.4320531235988556e-05 0 1.8910713221934044e-05 -1.9930388330812081e-05 0 1.7542687221174372e-05 -2.3960742577526095e-05 0 1.4596669047974207e-05 -1.9256889446392064e-05 0 1.1561788556366428e-05 -1.7185805237110652e-05 0 1.2956171783826638e-05 -2.0985343531714776e-05 0 3.4443234118859246e-06 1.4023309154645033e-06 0 3.7351011491415865e-06 1.7153422256789353e-06 0 4.5956220420953503e-06 1.4203225912212027e-06 0 -1.9035782243564536e-05 -2.5908232920893175e-05 0 -2.5415731964273409e-05 -3.3759419985427735e-05 0 -1.6415551743438651e-05 -3.3094229415368171e-05 0 -2.2232109341577649e-05 -3.9955466946186083e-05 0 -1.6415551743438651e-05 -3.3094229415368171e-05 0 -2.5415731964273409e-05 -3.3759419985427735e-05 0 1.0046026509867304e-09 -6.6207732980575886e-11 0 9.2878668182104872e-10 2.0849849570568091e-10 0 9.601596685475068e-07 1.7174192843176746e-07 0 -3.2854187868659412e-05 8.1072675681610813e-05 0 -4.1134375270097843e-05 6.8109987694892041e-05 0 -2.5158946383086574e-05 6.6562553665901785e-05 0 -2.8994690949349758e-05 5.1743606233212694e-05 0 -2.5158946383086574e-05 6.6562553665901785e-05 0 -4.1134375270097843e-05 6.8109987694892041e-05 0 9.9716958778022418e-06 -3.3901262972334832e-05 0 9.1045296267314548e-06 -3.0915578522124281e-05 0 7.3298355809086999e-06 -3.1697749686263452e-05 0 3.1261481432500112e-05 -3.6886549215630615e-05 0 3.2286957835166402e-05 -3.2040310001228346e-05 0 2.6926105856952082e-05 -3.2415263907912024e-05 0 3.8779298458455103e-06 1.3688795522401661e-06 0 5.6741657011224833e-06 2.8630373938788929e-07 0 8.2594684049317596e-06 2.8765108415560675e-06 0 1.0994002921838439e-05 -3.0647312807877873e-05 0 1.2506158246247463e-05 -2.9678126103127529e-05 0 1.0883574533934866e-05 -2.7293031398440652e-05 0 1.5356355914331478e-05 6.4487924809259415e-06 0 1.7401715718338164e-05 8.6697698434717444e-06 0 1.6010464395910095e-05 7.8629851749927274e-06 0 1.791731872442566e-06 -2.3673415099350167e-06 0 3.6179457421365746e-06 -1.559383522133561e-06 0 4.1001494545657621e-06 -1.4328426630253667e-06 0 -3.8742400489217596e-06 6.7317174019921231e-06 0 4.851732303560655e-06 5.0174308426114692e-06 0 2.1392843979179457e-06 9.8529373434272855e-06 0 3.8618272197985128e-05 5.9517347994512993e-05 0 2.923420622725638e-05 7.2151426645799372e-05 0 1.7436106967079922e-05 5.7512383543393281e-05 0 4.3821188314147219e-06 1.301853268397785e-06 0 4.4163920756349155e-06 1.6633911907732014e-06 0 3.1926925659846631e-06 1.8343780179770306e-06 0 -6.1763445424174082e-06 0.00015671811652743638 0 1.1910968983276587e-05 0.00016618070376608497 0 -4.1169879949696511e-06 0.00018223149493222111 0 -9.7650492258497492e-06 -7.844739047475251e-05 0 -1.8476282867038865e-05 -8.3490031757468659e-05 0 -1.0018272991194355e-05 -9.1840830874381587e-05 0 2.6065935776718463e-06 1.8581272976146154e-06 0 2.3055555368862972e-06 1.9844406035555825e-06 0 3.1926925659846631e-06 1.8343780179770306e-06 0 4.9492894831941927e-06 -4.2340726007145692e-06 0 4.4172923645633352e-06 -6.399217599264362e-06 0 5.6805084089859227e-06 -3.9727507971152901e-06 0 2.4060136689404285e-05 0.00014483825792720146 0 4.1220703885698766e-05 0.00015173919350244716 0 3.2825850719202797e-05 0.00016929698549358473 0 -2.516214830905278e-05 -7.25349833005022e-05 0 -3.3817978753079531e-05 -7.6795152891979715e-05 0 -2.8848646074688126e-05 -8.552379376568125e-05 0 -1.1685440177406884e-05 -1.8743079762682154e-06 0 -1.4753176278196942e-05 -3.9960330699714451e-06 0 -1.1017940533013288e-05 -1.9665800211249062e-06 0 -2.3129023774548927e-05 6.4330352262846663e-06 0 -1.7746212026788483e-05 2.5459117902919979e-06 0 -1.6254504579224717e-05 2.8571827876228545e-06 0 5.8912623112761471e-06 1.54567124038033e-05 0 5.3544970337610378e-06 2.5343869371297057e-05 0 -2.8483483556486113e-06 2.678491028752928e-05 0 -2.1996294686962639e-06 1.8156156397577272e-06 0 -3.4786161663268802e-06 1.173295089465507e-06 0 -2.1072517477159958e-06 1.1808398065417843e-06 0 1.5016526143571445e-05 -3.7418916881973164e-05 0 1.3813897893660254e-05 -3.5996302247408714e-05 0 1.1294158676551833e-05 -3.5564489884469823e-05 0 1.5016526143571445e-05 -3.7418916881973164e-05 0 1.1294158676551833e-05 -3.5564489884469823e-05 0 1.0503893453932743e-05 -3.702376057719667e-05 0 5.1136822355160185e-05 -4.5682960779566285e-05 0 4.4451720104565555e-05 -3.7158629887197955e-05 0 3.8218180468846456e-05 -4.1551206020896939e-05 0 5.1136822355160185e-05 -4.5682960779566285e-05 0 3.8218180468846456e-05 -4.1551206020896939e-05 0 4.0423361411504737e-05 -4.8842771149528732e-05 0 9.9716958778022418e-06 -3.3901262972334832e-05 0 1.1291447022267841e-05 -3.3475316734855107e-05 0 9.1045296267314548e-06 -3.0915578522124281e-05 0 3.1261481432500112e-05 -3.6886549215630615e-05 0 2.6926105856952082e-05 -3.2415263907912024e-05 0 2.5450280760707572e-05 -3.6348090952384308e-05 0 2.9528765540709477e-05 -1.9972154372479848e-05 0 2.7883381302915156e-05 -2.3476587845607986e-05 0 3.1839773739267675e-05 -2.3304817044679898e-05 0 1.6939073583713869e-06 -2.3405479580023853e-05 0 2.7545985954492306e-06 -2.7557465886418942e-05 0 5.2943950140326493e-06 -2.4689302804964144e-05 0 2.4885216012602838e-05 -2.6318077829063918e-06 0 2.0542345345415538e-05 -6.8610786330263031e-06 0 2.5502638204101807e-05 -9.1047540595956852e-06 0 1.9309127082129739e-05 0.00019270102494228032 0 4.0276584191617992e-05 0.00021210835161586644 0 1.7282168612294227e-05 0.000217683042209646 0 -2.9245187176824064e-05 0.00019334734232450226 0 -2.5256936904683924e-05 0.00021729132410429843 0 -4.7169205493546592e-05 0.0002124099884409248 0 -2.1224572258285818e-05 -9.734527522546427e-05 0 -3.0257867759775543e-05 -0.00010749330699823441 0 -1.9154879596335865e-05 -0.00011004852074867477 0 3.044580835808604e-06 -9.7708351220564927e-05 0 2.2899766508930009e-06 -0.00011053249556610453 0 1.3831465184115353e-05 -0.00010775966480043845 0 4.7650422301716777e-06 1.6352180048567219e-06 0 4.5956220420953503e-06 1.4203225912212027e-06 0 3.7351011491415865e-06 1.7153422256789353e-06 0 1.9309127082129739e-05 0.00019270102494228032 0 4.2223839223495173e-05 0.00019028408545671837 0 4.0276584191617998e-05 0.00021210835161586644 0 -2.1224572258285818e-05 -9.734527522546427e-05 0 -3.2588754323544342e-05 -9.6695623649417205e-05 0 -3.0257867759775543e-05 -0.00010749330699823441 0 8.7172479280698603e-06 -2.0969524560761092e-06 0 1.0141127248501504e-05 -1.472400307056939e-07 0 8.8440414250440493e-06 2.4810757109225194e-07 0 -2.9245187176824064e-05 0.00019334734232450226 0 -4.7169205493546592e-05 0.0002124099884409248 0 -5.1492881326550823e-05 0.0001910281383784746 0 3.044580835808604e-06 -9.7708351220564927e-05 0 1.3831465184115353e-05 -0.00010775966480043845 0 1.4224905837639029e-05 -9.5978626817619329e-05 0 2.5105382787565517e-06 -3.9095408671718825e-05 0 8.0073917521147682e-06 -3.3618188784522149e-05 0 2.2809456772179878e-06 -2.8253363132091158e-05 0 5.2083186788268583e-06 -1.051122952835314e-05 0 6.854364914734771e-06 -1.260970972179093e-05 0 6.3049822823575331e-06 -8.2730187456737503e-06 0 8.1157152005373307e-06 -1.0576253549442267e-05 0 6.3049822823575331e-06 -8.2730187456737503e-06 0 6.854364914734771e-06 -1.260970972179093e-05 0 4.1316856702613119e-06 -1.0079642357690685e-06 0 1.5393563758739649e-06 -2.1390386874617397e-06 0 4.1001494545657621e-06 -1.4328426630253667e-06 0 -1.0956782935627637e-05 6.4066230355760609e-05 0 3.0109517485045694e-06 5.9831627767636841e-05 0 -1.027321972487237e-06 7.8589171241234723e-05 0 -3.5221178870714586e-05 -4.0258750004439772e-05 0 -2.9202692739421452e-05 -4.2354819234909953e-05 0 -2.5415731964273409e-05 -3.3759419985427735e-05 0 1.1110270529229125e-05 6.1839036659978296e-06 0 4.8517323035606558e-06 5.0174308426114683e-06 0 8.2594684049317596e-06 2.8765108415560675e-06 0 3.8779298458455103e-06 1.3688795522401661e-06 0 8.2594684049317596e-06 2.8765108415560675e-06 0 4.8517323035606558e-06 5.0174308426114683e-06 0 7.9119066372225637e-06 1.2457735555078296e-06 0 8.4925287279236201e-06 1.8810991541458529e-06 0 9.832535525962959e-06 2.2664313589964225e-06 0 1.4313368077835823e-05 -2.4268195050156879e-05 0 1.5970598809533207e-05 -2.7247361904899242e-05 0 1.7542687221174372e-05 -2.3960742577526095e-05 0 1.9458575222762772e-05 -2.865487536797893e-05 0 1.7542687221174372e-05 -2.3960742577526095e-05 0 1.5970598809533207e-05 -2.7247361904899242e-05 0 -4.3239667120783797e-05 3.1561296480065662e-05 0 -3.6339284531037571e-05 2.0414547320943065e-05 0 -2.9438546757036983e-05 2.2975592992281834e-05 0 -2.177728066263004e-05 -1.1158699413874084e-05 0 -2.5438553256395744e-05 -1.6561568237261121e-05 0 -1.8507894823659036e-05 -1.2221930420644216e-05 0 5.8188908730333126e-10 -4.1985217305869424e-10 0 7.9253957707156435e-10 -3.3224825405971024e-10 0 8.1143289433144841e-07 -7.5289094961256641e-07 0 4.5698866884895627e-10 4.5035980203325376e-10 0 2.6607454446913738e-10 4.4748516297691758e-10 0 3.9150657285188152e-07 9.9095337848026725e-07 0 8.4269472240689671e-06 1.379246775487498e-06 0 8.1361708595297543e-06 8.9344121796896377e-07 0 9.966187417873241e-06 2.2110710382062238e-06 0 9.8440718071223304e-06 2.510572686132124e-06 0 9.832535525962959e-06 2.2664313589964225e-06 0 8.4925287279236201e-06 1.8810991541458529e-06 0 7.9119066372225637e-06 1.2457735555078296e-06 0 8.1361708595297526e-06 8.9344121796896345e-07 0 7.0686301093052294e-06 5.2261032460180881e-07 0 -2.1147263539105012e-06 -2.8977223938021127e-06 0 -4.0727367130580409e-06 -2.7122019137080328e-06 0 -3.2530176396487084e-06 -2.4737098854519254e-06 0 -2.1209229035981726e-06 1.9359309323989978e-06 0 -2.6224659626967226e-06 1.515385939831502e-06 0 -3.362606382588174e-06 1.6535421100424656e-06 0 1.6505197391946584e-05 7.7978408497177129e-05 0 1.7436106967079922e-05 5.7512383543393281e-05 0 2.923420622725638e-05 7.2151426645799372e-05 0 -2.1147263539105012e-06 -2.8977223938021127e-06 0 -3.253017639648708e-06 -2.473709885451925e-06 0 -1.9219588689057521e-06 -2.4742590467371622e-06 0 -2.1209229035981726e-06 1.9359309323989978e-06 0 -1.7431805377830482e-06 1.6230979002212289e-06 0 -2.6224659626967226e-06 1.515385939831502e-06 0 8.317185882414582e-06 -2.358681434678027e-05 0 8.6041181659815461e-06 -2.6771073092127977e-05 0 1.0883574533934866e-05 -2.7293031398440652e-05 0 5.3015124996786205e-06 3.8926034004863473e-05 0 1.2719170158697228e-05 2.3135570702464363e-05 0 1.8484793130402383e-05 4.0628446336803486e-05 0 5.6165242314681668e-06 -5.814300945967982e-07 0 7.0686301093052294e-06 5.2261032460180881e-07 0 8.1361708595297543e-06 8.9344121796896356e-07 0 2.1691704275001442e-05 -2.4320531235988556e-05 0 2.3723934037540867e-05 -2.2431707802024727e-05 0 1.8910713221934044e-05 -1.9930388330812081e-05 0 -1.7226223593735201e-10 -5.7027481339850046e-10 0 2.4902424351804392e-10 -6.2003812269605444e-10 0 1.1383757496158058e-07 -1.2790200568429308e-06 0 -2.4723780132232909e-11 5.0780094647751427e-10 0 -3.2122179650355321e-10 4.148867443794725e-10 0 -1.3439249988611694e-07 1.0453746901178588e-06 0 -6.5838050179483494e-06 3.0780966901457428e-07 0 -9.0496811684855382e-06 -4.8360556971519946e-07 0 -6.7458323636061593e-06 6.243137348831922e-07 0 -1.3215196823409706e-05 2.2764986014465681e-07 0 -9.322340122026021e-06 -9.1943876504653753e-07 0 -9.6640009632499428e-06 -1.3799533139250314e-06 0 -4.0540841760025869e-06 -1.0205145830300179e-05 0 -7.917217470003584e-06 -7.9806248738204999e-06 0 -8.7276988296500514e-06 -1.2203427449412991e-05 0 1.2583919684707767e-05 -2.8551506903183939e-05 0 7.0904533567975517e-06 -2.4859319736740543e-05 0 8.0073917521147699e-06 -3.3618188784522143e-05 0 6.9818625073108878e-06 -1.457579716623485e-06 0 5.7921906965324283e-06 -2.3654228390587572e-06 0 5.6805084089859227e-06 -3.9727507971152901e-06 0 7.0946229708629215e-06 1.5328849810675287e-06 0 8.7836705613472044e-06 2.0838418124729602e-06 0 7.2617193517596834e-06 1.7058455705100955e-06 0 7.9659109420695206e-06 1.4030539240864229e-06 0 8.7836705613472044e-06 2.0838418124729602e-06 0 7.0946229708629215e-06 1.5328849810675287e-06 0 1.1782080453777273e-05 3.5747941872224087e-06 0 1.1562745366782703e-05 3.7922673050406986e-06 0 9.966187417873241e-06 2.2110710382062238e-06 0 8.4269472240689671e-06 1.379246775487498e-06 0 9.966187417873241e-06 2.2110710382062238e-06 0 1.1562745366782703e-05 3.7922673050406986e-06 0 2.2465023541729993e-05 -3.2266851611397604e-05 0 1.9896855561707916e-05 -3.5547372048520495e-05 0 2.5450280760707572e-05 -3.6348090952384308e-05 0 1.3020437858929306e-06 -1.4743724501780703e-05 0 4.4344959060499189e-06 -1.4132606571504418e-05 0 3.4669325142007669e-06 -1.1656267903614284e-05 0 4.9492894831941927e-06 -4.2340726007145692e-06 0 4.6389299909289176e-06 -6.4745464079060566e-06 0 4.4172923645633352e-06 -6.399217599264362e-06 0 5.2211407001967239e-06 -9.5650668857452799e-06 0 4.4172923645633352e-06 -6.3992175992643629e-06 0 4.6389299909289176e-06 -6.4745464079060566e-06 0 -4.4255110107728051e-06 5.9551011622929681e-07 0 -6.5838050179483502e-06 3.0780966901457412e-07 0 -5.3178606882390505e-06 9.4979638126925218e-07 0 -9.322340122026021e-06 -9.1943876504653753e-07 0 -6.0995848422286632e-06 -1.2839473770737271e-06 0 -7.3927447028391108e-06 -1.8214316993095083e-06 0 1.8651142418423437e-05 -4.2757080405510684e-05 0 2.3705764259383834e-05 -4.5698971040170095e-05 0 1.9118462562050355e-05 -3.9567987220824853e-05 0 4.8517323035606558e-06 5.0174308426114683e-06 0 8.1221095449207092e-06 8.8180144910420377e-06 0 2.1392843979179457e-06 9.8529373434272855e-06 0 5.3457348017323835e-06 1.0433700436151438e-06 0 6.4608994497487046e-06 7.840895216398752e-07 0 5.039066470937493e-06 3.9130312082577333e-07 0 -9.3772361438292871e-07 -1.8418229185644412e-06 0 -1.0791973567365584e-06 -2.5747471422808797e-06 0 -1.9219588689057521e-06 -2.4742590467371622e-06 0 -9.0765812828463785e-07 1.2562261262849218e-06 0 -1.7431805377830484e-06 1.6230979002212289e-06 0 -1.2584103065488538e-06 1.8091557228299721e-06 0 2.6065935776718463e-06 1.8581272976146154e-06 0 1.4665352975312289e-06 2.0221421085922945e-06 0 2.3055555368862972e-06 1.9844406035555825e-06 0 6.9818625073108878e-06 -1.457579716623485e-06 0 7.8335531605488953e-06 -1.6369418854775463e-06 0 8.8440414250440493e-06 2.4810757109225194e-07 0 2.7524851296056583e-05 -2.9199215990091954e-05 0 2.3074214141594298e-05 -2.7813361907171026e-05 0 2.6926105856952082e-05 -3.2415263907912024e-05 0 1.6672200816053774e-06 2.061753229232657e-06 0 2.3055555368862968e-06 1.9844406035555821e-06 0 1.4665352975312289e-06 2.0221421085922945e-06 0 -6.7797690819038612e-05 0.00012254997007549355 0 -4.5717172323147677e-05 0.00011077600911263595 0 -5.1316533984920546e-05 0.00013119449675492358 0 1.8806714884210723e-05 -5.8604338007561214e-05 0 8.2641379117003745e-06 -5.4007085425454084e-05 0 1.1317028528558241e-05 -6.4243758262696421e-05 0 1.6925784641553585e-05 -4.7892876799757875e-05 0 8.7096297279436484e-06 -4.413276322688856e-05 0 8.2641379117003745e-06 -5.4007085425454084e-05 0 9.9492548544696007e-06 -7.5530666868353729e-06 0 9.6747427535023416e-06 -4.2307322615597922e-06 0 7.6752563628970603e-06 -5.5077591792121346e-06 0 1.3020437858929306e-06 -1.4743724501780703e-05 0 3.4888871432124628e-06 -1.7195035121718844e-05 0 4.4344959060499197e-06 -1.4132606571504418e-05 0 4.3821188314147219e-06 1.301853268397785e-06 0 4.4953707092113802e-06 1.0217508388107652e-07 0 5.4212164412026396e-06 7.6655029533322679e-07 0 8.7172479280698603e-06 -2.0969524560761092e-06 0 8.8440414250440493e-06 2.4810757109225194e-07 0 7.8335531605488953e-06 -1.6369418854775461e-06 0 6.8121509963955471e-05 0.00021139201306620748 0 5.386983265983573e-05 0.00022506725431657734 0 4.0276584191617998e-05 0.00021210835161586644 0 -4.3509227563522909e-05 -0.00010903458276379756 0 -3.5615690228272578e-05 -0.00011423718933489333 0 -3.0257867759775543e-05 -0.00010749330699823441 0 2.7862021531835947e-05 -0.00010739593244163185 0 1.3831465184115351e-05 -0.00010775966480043845 0 2.1031520851252396e-05 -0.00011459623697977078 0 -7.3063508442568594e-05 0.0002153678436683607 0 -4.7169205493546592e-05 0.0002124099884409248 0 -5.7633982562830302e-05 0.0002255087116961129 0 6.7297697297575889e-06 8.2037994566945408e-07 0 5.744338531348667e-06 1.3613359839025765e-06 0 5.4212164412026396e-06 7.6655029533322679e-07 0 4.3821188314147219e-06 1.301853268397785e-06 0 5.4212164412026396e-06 7.6655029533322679e-07 0 5.744338531348667e-06 1.3613359839025765e-06 0 3.4312625616042306e-06 -1.5320559460070013e-06 0 4.4953707092113793e-06 1.021750838810768e-07 0 3.324798239064607e-06 -8.0820541412121083e-08 0 -1.4166541207126159e-05 4.5290198242420982e-06 0 -1.6254504579224717e-05 2.8571827876228545e-06 0 -9.3810650042540823e-06 5.483703329479751e-07 0 -1.2308021484968848e-05 -5.6067084811431645e-08 0 -9.3810650042540823e-06 5.4837033294797478e-07 0 -1.6254504579224717e-05 2.8571827876228545e-06 0 3.8779298458455103e-06 1.3688795522401661e-06 0 6.5644991327898402e-08 7.078325813607476e-08 0 2.5930076774294912e-06 -8.1094349744931356e-07 0 -1.6606520925255146e-07 -7.6452151347468611e-07 0 1.1083271747554582e-06 7.5161697036718409e-07 0 -6.1268060049238354e-07 9.4673690683914698e-07 0 4.9492894831941927e-06 -4.2340726007145692e-06 0 3.7788551337251671e-06 -4.1320042959007183e-06 0 4.6389299909289176e-06 -6.4745464079060566e-06 0 -2.1209229035981726e-06 1.9359309323989978e-06 0 -8.7678739044862794e-07 2.1276175894052883e-06 0 -1.2584103065488538e-06 1.8091557228299721e-06 0 -5.7446885056180354e-07 1.641482967117798e-06 0 -1.2584103065488538e-06 1.8091557228299721e-06 0 -8.7678739044862794e-07 2.1276175894052883e-06 0 -2.0278503685278184e-07 -2.1349130565940141e-06 0 -2.1762108856690908e-08 -2.73514451104637e-06 0 -1.0791973567365586e-06 -2.5747471422808797e-06 0 -2.1147263539105012e-06 -2.8977223938021127e-06 0 -1.0791973567365586e-06 -2.5747471422808793e-06 0 -2.1762108856690908e-08 -2.73514451104637e-06 0 -2.2232109341577649e-05 -3.9955466946186083e-05 0 -2.6668065663132147e-05 -4.9768201900599038e-05 0 -1.8313362156234884e-05 -4.5680124370590246e-05 0 -1.8442421733479326e-05 -5.4644808120158431e-05 0 -1.8313362156234884e-05 -4.5680124370590246e-05 0 -2.6668065663132147e-05 -4.9768201900599038e-05 0 5.2152137376455209e-07 -1.1825130950164008e-06 0 8.1143289433144841e-07 -7.5289094961256641e-07 0 1.7470206425723726e-06 -1.5230133842682561e-06 0 1.8060463991998977e-06 -8.7459429258877515e-07 0 1.7470206425723726e-06 -1.5230133842682561e-06 0 8.1143289433144841e-07 -7.5289094961256641e-07 0 9.8807639797467864e-07 1.5204295355115518e-06 0 3.9150657285188152e-07 9.9095337848026725e-07 0 6.2375807759298165e-07 1.7365169247440869e-06 0 1.3862179685900669e-07 1.1428251239491392e-06 0 6.2375807759298165e-07 1.7365169247440869e-06 0 3.9150657285188152e-07 9.9095337848026725e-07 0 -6.1763445424174082e-06 0.00015671811652743638 0 7.2367876307828034e-06 0.00014434603567702362 0 1.1910968983276587e-05 0.00016618070376608497 0 -9.7650492258497492e-06 -7.844739047475251e-05 0 -1.6718855421835673e-05 -7.2141182502114779e-05 0 -1.8476282867038865e-05 -8.3490031757468659e-05 0 -3.4413893318794465e-07 2.190864056324299e-06 0 -1.2418951979226949e-07 2.1539891806943609e-06 0 -8.7678739044862794e-07 2.1276175894052883e-06 0 1.791731872442566e-06 -2.3673415099350167e-06 0 -2.1762108856690908e-08 -2.73514451104637e-06 0 1.2730227975600803e-06 -2.3174702176257521e-06 0 -1.6606520925255146e-07 -7.6452151347468611e-07 0 1.7006727013732824e-06 -2.4061850937167575e-06 0 2.0843345968069224e-06 -4.7281235910491106e-07 0 -2.1209229035981726e-06 1.9359309323989978e-06 0 -1.5975047374819089e-06 2.1026655937113999e-06 0 -8.7678739044862794e-07 2.1276175894052883e-06 0 -2.1147263539105012e-06 -2.8977223938021127e-06 0 -2.1762108856690908e-08 -2.73514451104637e-06 0 -8.2402955987741331e-07 -2.8946645355218797e-06 0 5.2211407001967239e-06 -9.5650668857452799e-06 0 3.7689775448087277e-06 -7.4645416218900118e-06 0 4.4172923645633352e-06 -6.399217599264362e-06 0 4.3821188314147219e-06 1.301853268397785e-06 0 3.6687683692846897e-06 8.0242960692610863e-07 0 4.4953707092113802e-06 1.0217508388107652e-07 0 -5.0957237964260274e-10 -8.5236552819590778e-10 0 -1.7226223593735201e-10 -5.7027481339850046e-10 0 -2.2414227784138929e-07 -1.1923632924749808e-06 0 -3.2122179650355321e-10 4.148867443794725e-10 0 -5.040454735174739e-10 5.6956194690489224e-10 0 -3.2187403977949874e-07 8.7372125091535145e-07 0 1.1110270529229125e-05 6.1839036659978296e-06 0 8.2594684049317596e-06 2.8765108415560675e-06 0 1.1562745366782703e-05 3.7922673050406986e-06 0 1.6610771306035343e-05 -3.5578434208416629e-05 0 1.6292204970995999e-05 -3.8777302479055256e-05 0 1.9118462562050355e-05 -3.9567987220824853e-05 0 -1.6606520925255146e-07 -7.6452151347468611e-07 0 -2.2151128997425066e-06 -6.8869258339638125e-08 0 -3.1093079339635575e-06 -1.8743155921909939e-06 0 2.2809456772179878e-06 -2.8253363132091158e-05 0 8.0073917521147699e-06 -3.3618188784522143e-05 0 7.0904533567975517e-06 -2.4859319736740543e-05 0 6.7297697297575889e-06 8.2037994566945408e-07 0 7.0946229708629215e-06 1.5328849810675287e-06 0 5.744338531348667e-06 1.3613359839025765e-06 0 5.398675497795502e-06 -1.1886552331552792e-06 0 5.7374446167555987e-06 2.7106765252917087e-09 0 4.4953707092113802e-06 1.0217508388107652e-07 0 -2.1017892222198228e-06 -1.8788323964209202e-06 0 -3.4299038594902856e-06 -1.653435941036996e-06 0 -1.5686274319892332e-06 -9.6424845576432836e-07 0 -1.6953587197583587e-06 1.1563432328659793e-06 0 -1.2047003064621544e-06 5.4160636753027782e-07 0 -2.5871454022646499e-06 9.1978150405267295e-07 0 1.0918880710418402e-06 -5.0455946435033465e-06 0 3.2416653245819144e-06 -7.1901270150166673e-06 0 3.7788551337251671e-06 -4.1320042959007183e-06 0 7.2617193517596834e-06 1.7058455705100955e-06 0 5.7910514997927321e-06 1.6078303628244162e-06 0 7.0946229708629215e-06 1.5328849810675287e-06 0 2.577184364657833e-06 7.6974914362079541e-07 0 1.1083271747554582e-06 7.5161697036718409e-07 0 2.0843345968069224e-06 -4.7281235910491106e-07 0 -9.8249713854876612e-06 -2.6458621198959049e-06 0 -9.344374268237005e-06 -4.95420909925999e-06 0 -6.3527719303400126e-06 -2.5253514137192007e-06 0 -6.4762396586218388e-05 0.000101043391704246 0 -4.7296211582683647e-05 9.1826657572398481e-05 0 -4.5717172323147677e-05 0.00011077600911263595 0 1.0918880710418402e-06 -5.0455946435033465e-06 0 -1.1644333047471031e-06 -3.2283003155352423e-06 0 -2.6152818723005286e-06 -6.05417968046261e-06 0 7.6752563628970603e-06 -5.5077591792121346e-06 0 6.3049822823575331e-06 -8.2730187456737503e-06 0 8.322007118633705e-06 -8.1415192898500279e-06 0 -1.6606520925255146e-07 -7.6452151347468611e-07 0 -3.1093079339635575e-06 -1.8743155921909939e-06 0 -1.1644333047471031e-06 -3.2283003155352423e-06 0 5.744338531348667e-06 1.3613359839025765e-06 0 7.0946229708629215e-06 1.5328849810675287e-06 0 5.7910514997927321e-06 1.6078303628244162e-06 0 5.2083186788268583e-06 -1.051122952835314e-05 0 3.4669325142007665e-06 -1.1656267903614286e-05 0 4.4344959060499197e-06 -1.4132606571504418e-05 0 1.1110270529229125e-05 6.1839036659978296e-06 0 1.6010464395910095e-05 7.8629851749927274e-06 0 1.3918542662457872e-05 1.1027846474727844e-05 0 -1.6606520925255146e-07 -7.6452151347468611e-07 0 -6.1268060049238376e-07 9.4673690683914688e-07 0 -2.2151128997425066e-06 -6.8869258339638125e-08 0 -7.0169744986431864e-05 0.00014496490027211841 0 -6.7797690819038612e-05 0.00012254997007549355 0 -5.1316533984920546e-05 0.00013119449675492358 0 1.8806714884210723e-05 -5.8604338007561214e-05 0 1.1317028528558241e-05 -6.4243758262696421e-05 0 2.0716229092533463e-05 -7.0044930228819831e-05 0 1.4889571608563382e-05 -3.7892635969588985e-05 0 8.7096297279436484e-06 -4.413276322688856e-05 0 1.6925784641553585e-05 -4.7892876799757875e-05 0 -3.8742400489217596e-06 6.7317174019921231e-06 0 -1.2949492591004237e-05 8.5104937994921102e-06 0 -8.8341593804409472e-06 3.9142813846468835e-06 0 2.4885216012602838e-05 -2.6318077829063918e-06 0 1.7855098020891511e-05 2.5486019398181305e-06 0 2.0542345345415538e-05 -6.8610786330263031e-06 0 -9.8249713854876612e-06 -2.6458621198959049e-06 0 -1.1017940533013288e-05 -1.9665800211249062e-06 0 -1.3397002631946357e-05 -3.8882313011463997e-06 0 -1.4166541207126159e-05 4.5290198242420982e-06 0 -2.0450615611547696e-05 6.2853220090371452e-06 0 -1.6254504579224717e-05 2.8571827876228545e-06 0 -9.8249713854876612e-06 -2.6458621198959049e-06 0 -1.3397002631946357e-05 -3.8882313011463997e-06 0 -1.3614468826005235e-05 -5.629207479332651e-06 0 -1.4166541207126159e-05 4.5290198242420982e-06 0 -2.0573985530988091e-05 9.6522237037088164e-06 0 -2.0450615611547696e-05 6.2853220090371452e-06 0 -1.6953587197583587e-06 1.1563432328659793e-06 0 -7.7628523221108568e-07 7.5537176407114681e-07 0 -1.2047003064621544e-06 5.4160636753027782e-07 0 -2.1017892222198228e-06 -1.8788323964209202e-06 0 -1.5686274319892332e-06 -9.6424845576432836e-07 0 -9.4654597831922849e-07 -1.1955062089165376e-06 0 5.398675497795502e-06 -1.1886552331552792e-06 0 4.5447400146266303e-06 -2.597372443063879e-06 0 5.7921906965324283e-06 -2.3654228390587572e-06 0 4.9492894831941927e-06 -4.2340726007145692e-06 0 5.7921906965324283e-06 -2.3654228390587572e-06 0 4.5447400146266303e-06 -2.597372443063879e-06 0 2.7545985954492306e-06 -2.7557465886418942e-05 0 5.1883542712456878e-06 -2.8493785749709187e-05 0 5.2943950140326493e-06 -2.4689302804964144e-05 0 3.1839773739267675e-05 -2.3304817044679898e-05 0 2.7883381302915156e-05 -2.3476587845607986e-05 0 3.0428021673748876e-05 -2.7053810418618979e-05 0 2.5502638204101807e-05 -9.1047540595956852e-06 0 2.0542345345415538e-05 -6.8610786330263022e-06 0 2.2802733255944261e-05 -1.2222941610988567e-05 0 2.9528765540709477e-05 -1.9972154372479848e-05 0 2.6260084163443961e-05 -1.9767764704455214e-05 0 2.7883381302915156e-05 -2.3476587845607986e-05 0 1.6939073583713869e-06 -2.3405479580023853e-05 0 5.2943950140326493e-06 -2.4689302804964144e-05 0 3.8580893423046117e-06 -2.0760950827032239e-05 0 -1.6606520925255146e-07 -7.6452151347468611e-07 0 2.0843345968069224e-06 -4.7281235910491084e-07 0 1.1083271747554582e-06 7.5161697036718409e-07 0 3.4312625616042306e-06 -1.5320559460070013e-06 0 3.7788551337251671e-06 -4.1320042959007183e-06 0 4.5447400146266303e-06 -2.597372443063879e-06 0 4.9492894831941927e-06 -4.2340726007145692e-06 0 4.5447400146266303e-06 -2.597372443063879e-06 0 3.7788551337251671e-06 -4.1320042959007183e-06 0 6.7297697297575889e-06 8.2037994566945408e-07 0 6.456524755577325e-06 -5.6678323146578825e-07 0 7.8279245817954107e-06 4.4391521994275549e-07 0 -6.4762396586218388e-05 0.000101043391704246 0 -6.0627187655872606e-05 8.0667758020485836e-05 0 -4.7296211582683647e-05 9.1826657572398481e-05 0 8.7172479280698603e-06 -2.0969524560761092e-06 0 7.8335531605488953e-06 -1.6369418854775459e-06 0 6.8652726911136001e-06 -3.4564802000609212e-06 0 5.8912623112761471e-06 1.54567124038033e-05 0 8.1221095449207092e-06 8.8180144910420377e-06 0 1.3918542662457872e-05 1.1027846474727844e-05 0 1.1110270529229125e-05 6.1839036659978296e-06 0 1.3918542662457872e-05 1.1027846474727844e-05 0 8.1221095449207092e-06 8.8180144910420377e-06 0 1.2583919684707767e-05 -2.8551506903183939e-05 0 8.0073917521147699e-06 -3.3618188784522143e-05 0 1.4889571608563382e-05 -3.7892635969588985e-05 0 -2.9441061681830201e-05 1.2044433568546329e-05 0 -2.0450615611547696e-05 6.2853220090371452e-06 0 -2.0573985530988091e-05 9.6522237037088164e-06 0 -1.8165075877041737e-05 -6.9668705731982964e-06 0 -1.3614468826005235e-05 -5.6292074793326501e-06 0 -1.3397002631946357e-05 -3.8882313011463997e-06 0 6.9818625073108878e-06 -1.457579716623485e-06 0 6.865272691113601e-06 -3.4564802000609208e-06 0 7.8335531605488953e-06 -1.6369418854775461e-06 0 -2.411705615204571e-05 0.00011029510857048077 0 -4.5717172323147677e-05 0.00011077600911263595 0 -3.3590517757092911e-05 9.5382483898202516e-05 0 -2.411705615204571e-05 0.00011029510857048077 0 -3.6286486960593822e-05 0.0001247801119730419 0 -4.5717172323147677e-05 0.00011077600911263595 0 -1.2478203567456154e-06 -5.4292255096380219e-05 0 4.2357393160552162e-06 -6.1343216874996083e-05 0 8.2641379117003745e-06 -5.4007085425454084e-05 0 -1.2478203567456154e-06 -5.4292255096380219e-05 0 8.2641379117003728e-06 -5.4007085425454084e-05 0 2.9852751899198097e-06 -4.7426103670989602e-05 0 2.0716229092533463e-05 -7.0044930228819831e-05 0 1.3421824953582172e-05 -7.4680396428732909e-05 0 2.2679021086171489e-05 -8.2194886742660765e-05 0 -7.1754065979358049e-05 0.00016808128432396275 0 -7.0169744986431864e-05 0.00014496490027211841 0 -5.4345528553877182e-05 0.00015138772348439707 0 3.428107312656805e-07 2.050318774644962e-06 0 -5.7408817775662533e-08 1.8332393446119996e-06 0 -1.241895197922696e-07 2.1539891806943609e-06 0 1.5609398588234936e-06 -1.9975712531046936e-06 0 1.2730227975600803e-06 -2.3174702176257521e-06 0 6.5657296748439366e-07 -2.01977495356626e-06 0 -1.2478203567456154e-06 -5.4292255096380219e-05 0 -7.8467487343558764e-06 -5.4672626127784387e-05 0 -2.4260938190402485e-06 -6.3632055846391642e-05 0 -1.2478203567456154e-06 -5.4292255096380219e-05 0 -3.1895689174910323e-06 -4.5940811503827038e-05 0 -7.8467487343558764e-06 -5.4672626127784387e-05 0 -1.1199715171234458e-05 -6.5049967705904091e-05 0 -2.4260938190402485e-06 -6.3632055846391642e-05 0 -7.8467487343558764e-06 -5.4672626127784387e-05 0 -1.07338872119533e-05 -4.5473520365667829e-05 0 -7.8467487343558764e-06 -5.4672626127784387e-05 0 -3.1895689174910323e-06 -4.5940811503827038e-05 0 -2.411705615204571e-05 0.00011029510857048077 0 -9.2972823477987609e-06 0.00011196046198850274 0 -2.2347562001267187e-05 0.0001298585412598579 0 -4.4344441139720521e-06 0.00012991677905426611 0 -2.2347562001267187e-05 0.0001298585412598579 0 -9.2972823477987609e-06 0.00011196046198850274 0 -3.2122179650355321e-10 4.148867443794725e-10 0 -3.2187403977949874e-07 8.7372125091535145e-07 0 -1.3439249988611694e-07 1.0453746901178588e-06 0 -1.7226223593735201e-10 -5.7027481339850046e-10 0 1.1383757496158058e-07 -1.2790200568429308e-06 0 -2.2414227784138929e-07 -1.1923632924749808e-06 0 -1.9414980698637076e-05 -1.8309046110347193e-05 0 -1.3615466792212013e-05 -1.226102848548672e-05 0 -1.8507894823659036e-05 -1.2221930420644216e-05 0 -3.0395762338404622e-05 3.476863591394153e-05 0 -2.9438546757036983e-05 2.2975592992281834e-05 0 -2.1013942876749259e-05 2.2304326292230206e-05 0 -5.6423892218523152e-06 5.0389410584820488e-07 0 -8.2594003232284919e-06 -8.644055903293121e-07 0 -6.5850010065868398e-06 -9.0832784027035982e-07 0 4.7650422301716777e-06 1.6352180048567219e-06 0 4.4163920756349146e-06 1.6633911907732014e-06 0 5.7910514997927321e-06 1.6078303628244162e-06 0 2.3034773868328038e-05 -3.8733645304369425e-05 0 2.5450280760707572e-05 -3.6348090952384308e-05 0 1.9896855561707916e-05 -3.5547372048520495e-05 0 -6.2789593881395622e-06 -2.3645207386797571e-06 0 -7.4386192342121711e-06 -1.8073074975003225e-06 0 -9.6640009632499428e-06 -1.3799533139250314e-06 0 -1.2308021484968848e-05 -5.6067084811431645e-08 0 -9.6640009632499428e-06 -1.3799533139250314e-06 0 -7.4386192342121719e-06 -1.8073074975003223e-06 0 4.1427293100901302e-06 -2.2001314346717545e-07 0 2.8442708065128558e-06 -8.5309178062658148e-07 0 2.4615134878456209e-06 -4.3849446903079321e-07 0 2.6370921986647215e-05 -1.333110857149807e-05 0 2.3739949174241826e-05 -1.6472854500207145e-05 0 2.7797759987700378e-05 -1.6703545842115182e-05 0 -1.8165075877041737e-05 -6.9668705731982964e-06 0 -1.7093357437180969e-05 -8.7380482377718092e-06 0 -1.3614468826005235e-05 -5.629207479332651e-06 0 -2.9441061681830201e-05 1.2044433568546329e-05 0 -2.0573985530988091e-05 9.6522237037088164e-06 0 -2.7139373233113007e-05 1.5477610026189096e-05 0 3.0655694391045384e-06 -8.3093253460483567e-06 0 4.0977439896495065e-06 -8.3102999247277284e-06 0 3.7689775448087277e-06 -7.4645416218900118e-06 0 -2.1147263539105012e-06 -2.8977223938021127e-06 0 -8.2402955987741331e-07 -2.8946645355218797e-06 0 -3.5584292252783614e-06 -2.8293894134415951e-06 0 -9.4957312240038919e-07 -2.4640335133110135e-06 0 -3.5584292252783614e-06 -2.8293894134415947e-06 0 -8.2402955987741331e-07 -2.8946645355218797e-06 0 5.3015124996786205e-06 3.8926034004863473e-05 0 5.3544970337610378e-06 2.534386937129706e-05 0 1.2719170158697228e-05 2.3135570702464363e-05 0 -9.322340122026021e-06 -9.1943876504653753e-07 0 -7.3927447028391108e-06 -1.8214316993095083e-06 0 -9.6640009632499428e-06 -1.3799533139250314e-06 0 -6.5838050179483494e-06 3.0780966901457428e-07 0 -6.7458323636061593e-06 6.243137348831922e-07 0 -5.3178606882390505e-06 9.4979638126925218e-07 0 1.4313368077835823e-05 -2.4268195050156879e-05 0 1.2956171783826638e-05 -2.0985343531714776e-05 0 1.1470940826531411e-05 -2.4135693128506869e-05 0 1.0270209543311994e-05 -2.0414363637540342e-05 0 1.1470940826531411e-05 -2.4135693128506869e-05 0 1.2956171783826638e-05 -2.0985343531714776e-05 0 6.7297697297575889e-06 8.2037994566945408e-07 0 7.9659109420695206e-06 1.4030539240864229e-06 0 7.0946229708629215e-06 1.5328849810675287e-06 0 3.8779298458455103e-06 1.3688795522401661e-06 0 2.5930076774294908e-06 -8.1094349744931388e-07 0 5.6741657011224833e-06 2.8630373938788929e-07 0 7.9119066372225637e-06 1.2457735555078296e-06 0 7.0321388413154695e-06 1.3993499311676611e-06 0 8.4925287279236201e-06 1.8810991541458529e-06 0 5.8912623112761471e-06 1.54567124038033e-05 0 1.2719170158697228e-05 2.3135570702464363e-05 0 5.3544970337610395e-06 2.5343869371297057e-05 0 -9.8249713854876612e-06 -2.6458621198959049e-06 0 -6.3527719303400126e-06 -2.5253514137192007e-06 0 -6.5850010065868398e-06 -9.0832784027035982e-07 0 2.577184364657833e-06 7.6974914362079541e-07 0 3.1053303132732146e-06 1.4552727801197004e-06 0 1.7269944450501262e-06 1.6783505978092597e-06 0 3.8618272197985128e-05 5.9517347994512993e-05 0 4.3412218205767695e-05 7.8701519738036575e-05 0 2.923420622725638e-05 7.2151426645799372e-05 0 -3.7775475501853756e-05 -5.0281300964695374e-05 0 -2.6668065663132147e-05 -4.9768201900599038e-05 0 -2.9202692739421452e-05 -4.2354819234909953e-05 0 -2.9441061681830201e-05 1.2044433568546329e-05 0 -2.3129023774548927e-05 6.4330352262846663e-06 0 -2.0450615611547696e-05 6.2853220090371452e-06 0 -1.4753176278196942e-05 -3.9960330699714451e-06 0 -1.8165075877041737e-05 -6.9668705731982964e-06 0 -1.3397002631946357e-05 -3.8882313011463997e-06 0 8.8440414250440493e-06 2.4810757109225194e-07 0 1.0141127248501504e-05 -1.472400307056939e-07 0 1.065726032387893e-05 2.1253533293606188e-06 0 -2.1147263539105012e-06 -2.8977223938021127e-06 0 -3.5584292252783614e-06 -2.8293894134415951e-06 0 -4.0727367130580409e-06 -2.7122019137080328e-06 0 -6.2789593881395622e-06 -2.3645207386797571e-06 0 -4.0727367130580409e-06 -2.7122019137080328e-06 0 -3.5584292252783614e-06 -2.8293894134415951e-06 0 1.1782080453777273e-05 3.5747941872224087e-06 0 1.3749314679596361e-05 5.3801219886111733e-06 0 1.1562745366782703e-05 3.7922673050406986e-06 0 -2.8696761808599484e-05 -6.12066374053355e-05 0 -2.6668065663132147e-05 -4.9768201900599038e-05 0 -3.3244613995225325e-05 -5.5656407766254854e-05 0 5.3887580312409104e-06 -1.9005524051290571e-05 0 7.5593783145614828e-06 -1.9702004086336093e-05 0 6.1444560846144112e-06 -1.6046409113700601e-05 0 5.522440053944042e-05 0.00014136075918610969 0 5.9049444855813472e-05 0.00016399971529817509 0 4.1220703885698766e-05 0.00015173919350244716 0 -4.1571833992871933e-05 -7.2670895024348439e-05 0 -4.265104875432221e-05 -8.4587097359111694e-05 0 -3.3817978753079531e-05 -7.6795152891979729e-05 0 -3.8742400489217596e-06 6.7317174019921231e-06 0 6.1874856424336557e-07 2.9160354851845185e-06 0 4.8517323035606558e-06 5.0174308426114683e-06 0 1.0918880710418402e-06 -5.0455946435033465e-06 0 -2.5948764823876275e-07 -8.4914957623138126e-06 0 3.2416653245819148e-06 -7.1901270150166665e-06 0 -4.9930766085482272e-06 -4.2861322672357019e-06 0 -2.6152818723005286e-06 -6.05417968046261e-06 0 -1.1644333047471031e-06 -3.2283003155352423e-06 0 -7.0169744986431864e-05 0.00014496490027211841 0 -5.1316533984920546e-05 0.00013119449675492358 0 -5.4345528553877182e-05 0.00015138772348439707 0 2.0716229092533463e-05 -7.0044930228819831e-05 0 1.1317028528558241e-05 -6.4243758262696421e-05 0 1.3421824953582172e-05 -7.4680396428732909e-05 0 4.2774641517182817e-07 1.5203368775308871e-06 0 6.0124316791577354e-07 2.0335200007091629e-06 0 -8.2670833401737817e-07 1.8888805189066688e-06 0 1.1110270529229125e-05 6.1839036659978296e-06 0 8.1221095449207092e-06 8.8180144910420377e-06 0 4.8517323035606558e-06 5.0174308426114683e-06 0 -9.8249713854876612e-06 -2.6458621198959049e-06 0 -8.2594003232284919e-06 -8.644055903293121e-07 0 -1.1017940533013288e-05 -1.9665800211249062e-06 0 1.9841580146368345e-06 -1.1039652258045195e-05 0 1.3020437858929306e-06 -1.4743724501780703e-05 0 3.4669325142007669e-06 -1.1656267903614284e-05 0 -2.1996294686962639e-06 1.8156156397577272e-06 0 -2.9459570239336517e-06 1.860063900830439e-06 0 -4.1599846809354313e-06 1.4179385598850357e-06 0 -3.5221178870714586e-05 -4.0258750004439772e-05 0 -3.7775475501853756e-05 -5.0281300964695381e-05 0 -2.9202692739421452e-05 -4.2354819234909953e-05 0 -8.1988992315082713e-06 -1.3603644010431094e-07 0 -5.9378424649826472e-06 8.7914071596695415e-07 0 -6.7458323636061593e-06 6.243137348831922e-07 0 -4.781358817954699e-06 1.3748478071374663e-06 0 -6.7458323636061593e-06 6.243137348831922e-07 0 -5.9378424649826472e-06 8.7914071596695415e-07 0 -3.2854187868659412e-05 8.1072675681610813e-05 0 -1.8672981987201213e-05 8.429162529206812e-05 0 -3.3590517757092911e-05 9.5382483898202516e-05 0 5.2152137376455209e-07 -1.1825130950164008e-06 0 6.5657296748439366e-07 -2.01977495356626e-06 0 1.1383757496158058e-07 -1.2790200568429308e-06 0 -2.0278503685278184e-07 -2.1349130565940141e-06 0 1.1383757496158058e-07 -1.2790200568429308e-06 0 6.5657296748439366e-07 -2.01977495356626e-06 0 -5.7446885056180354e-07 1.641482967117798e-06 0 -5.7408817775662526e-08 1.8332393446119996e-06 0 -1.3439249988611694e-07 1.0453746901178588e-06 0 1.3862179685900669e-07 1.1428251239491392e-06 0 -1.3439249988611694e-07 1.0453746901178588e-06 0 -5.7408817775662526e-08 1.8332393446119996e-06 0 3.4312625616042306e-06 -1.5320559460070013e-06 0 2.0843345968069224e-06 -4.72812359104911e-07 0 1.7006727013732824e-06 -2.4061850937167575e-06 0 1.1463323600655549e-05 -3.1404894509959599e-06 0 9.6747427535023416e-06 -4.2307322615597922e-06 0 1.1885502720670792e-05 -7.0641546817778578e-06 0 9.9492548544696007e-06 -7.5530666868353729e-06 0 1.1885502720670792e-05 -7.0641546817778578e-06 0 9.6747427535023416e-06 -4.2307322615597922e-06 0 1.3020437858929306e-06 -1.4743724501780703e-05 0 1.2036358846538063e-06 -1.9067678444316943e-05 0 3.4888871432124628e-06 -1.7195035121718844e-05 0 9.9492548544696007e-06 -7.5530666868353729e-06 0 7.6752563628970603e-06 -5.5077591792121346e-06 0 8.322007118633705e-06 -8.1415192898500279e-06 0 2.7883381302915156e-05 -2.3476587845607986e-05 0 2.6260084163443961e-05 -1.9767764704455214e-05 0 2.3723934037540867e-05 -2.2431707802024727e-05 0 5.2943950140326493e-06 -2.4689302804964144e-05 0 6.1047386911682614e-06 -2.1650308698956277e-05 0 3.8580893423046117e-06 -2.0760950827032239e-05 0 -1.8165075877041737e-05 -6.9668705731982964e-06 0 -2.177728066263004e-05 -1.1158699413874084e-05 0 -1.7093357437180969e-05 -8.7380482377718092e-06 0 -3.6339284531037571e-05 2.0414547320943065e-05 0 -2.9441061681830201e-05 1.2044433568546329e-05 0 -2.7139373233113007e-05 1.5477610026189096e-05 0 2.0542345345415538e-05 -6.8610786330263031e-06 0 1.8084617272142592e-05 -9.6567502315587656e-06 0 2.2802733255944261e-05 -1.2222941610988567e-05 0 2.7883381302915156e-05 -2.3476587845607986e-05 0 2.5613681388944417e-05 -2.6138677541908289e-05 0 3.0428021673748876e-05 -2.7053810418618979e-05 0 -4.9930766085482272e-06 -4.2861322672357019e-06 0 -6.3527719303400126e-06 -2.5253514137192007e-06 0 -9.344374268237005e-06 -4.95420909925999e-06 0 1.4328377724813037e-06 1.0289945870795855e-06 0 6.2431931531202827e-07 4.2447954102091221e-07 0 5.9001774859523946e-07 5.6933701433621195e-07 0 4.1316856702613119e-06 -1.0079642357690685e-06 0 2.5930076774294912e-06 -8.1094349744931367e-07 0 1.5393563758739649e-06 -2.1390386874617397e-06 0 5.6165242314681668e-06 -5.814300945967982e-07 0 4.1001494545657621e-06 -1.4328426630253667e-06 0 3.6179457421365746e-06 -1.559383522133561e-06 0 1.5231824542994414e-05 2.7600688314929009e-06 0 1.3366690593822363e-05 -1.4066159447627271e-07 0 1.5786557181418318e-05 -3.0392623071284788e-06 0 -3.725080201343888e-06 1.2677375106809402e-06 0 -2.6224659626967226e-06 1.515385939831502e-06 0 -2.5871454022646499e-06 9.1978150405267295e-07 0 -1.6953587197583587e-06 1.1563432328659793e-06 0 -2.5871454022646499e-06 9.1978150405267295e-07 0 -2.6224659626967226e-06 1.515385939831502e-06 0 -2.1017892222198228e-06 -1.8788323964209202e-06 0 -3.2530176396487084e-06 -2.4737098854519254e-06 0 -3.4299038594902856e-06 -1.653435941036996e-06 0 -4.9384815678134853e-06 -2.2238313854538623e-06 0 -3.4299038594902856e-06 -1.653435941036996e-06 0 -3.2530176396487084e-06 -2.4737098854519254e-06 0 -2.8833947904384478e-05 -2.3249450719028174e-05 0 -3.2302944378033873e-05 -3.1214936174869102e-05 0 -2.4935774887665797e-05 -2.6172498316928641e-05 0 5.3015124996786205e-06 3.8926034004863473e-05 0 -2.848348355648613e-06 2.6784910287529283e-05 0 5.3544970337610395e-06 2.5343869371297057e-05 0 1.4889571608563382e-05 -3.7892635969588985e-05 0 8.0073917521147699e-06 -3.3618188784522143e-05 0 8.7096297279436484e-06 -4.413276322688856e-05 0 2.2465023541729993e-05 -3.2266851611397604e-05 0 1.7625058958933176e-05 -3.1841400814294869e-05 0 1.9896855561707916e-05 -3.5547372048520495e-05 0 -3.4413893318794465e-07 2.190864056324299e-06 0 -8.2670833401737817e-07 1.8888805189066688e-06 0 6.0124316791577354e-07 2.0335200007091629e-06 0 6.9818625073108878e-06 -1.457579716623485e-06 0 7.8279245817954107e-06 4.4391521994275549e-07 0 6.456524755577325e-06 -5.6678323146578825e-07 0 -5.6423892218523152e-06 5.0389410584820488e-07 0 -4.1599846809354313e-06 1.4179385598850357e-06 0 -5.9378424649826472e-06 8.7914071596695415e-07 0 1.6505197391946584e-05 7.7978408497177129e-05 0 3.2463947316427394e-05 8.4980041768835572e-05 0 2.6290243569671465e-05 9.6331828768171613e-05 0 7.2928445120669652e-10 2.9980622483056674e-10 0 6.8486934129708077e-07 9.3186915812874642e-07 0 5.9001774859523946e-07 5.6933701433621195e-07 0 1.0270209543311994e-05 -2.0414363637540342e-05 0 1.2956171783826638e-05 -2.0985343531714776e-05 0 1.1561788556366428e-05 -1.7185805237110652e-05 0 2.0542345345415538e-05 -6.8610786330263031e-06 0 1.7855098020891511e-05 2.5486019398181305e-06 0 1.5786557181418318e-05 -3.0392623071284788e-06 0 -5.5694228788095083e-05 6.2074361334248305e-05 0 -4.9495527842220426e-05 4.5470145848879459e-05 0 -4.1002260704586559e-05 5.1784893935597899e-05 0 1.4770427758889901e-06 5.9862084754109735e-07 0 1.9971035103665909e-06 3.3170788330810902e-07 0 9.601596685475068e-07 1.7174192843176746e-07 0 -5.7446885056180354e-07 1.641482967117798e-06 0 -1.3439249988611694e-07 1.0453746901178588e-06 0 -3.2187403977949874e-07 8.7372125091535145e-07 0 -2.0278503685278184e-07 -2.1349130565940141e-06 0 -2.2414227784138929e-07 -1.1923632924749808e-06 0 1.1383757496158058e-07 -1.2790200568429308e-06 0 7.2617193517596834e-06 1.7058455705100955e-06 0 5.9506297967380489e-06 1.5360225585821449e-06 0 5.7910514997927321e-06 1.6078303628244162e-06 0 -1.3373103245877963e-05 -8.3951053967965049e-06 0 -1.3614468826005235e-05 -5.629207479332651e-06 0 -1.7093357437180969e-05 -8.7380482377718092e-06 0 -1.9586643807313185e-05 1.4995288794993365e-05 0 -2.7139373233113007e-05 1.5477610026189096e-05 0 -2.0573985530988091e-05 9.6522237037088164e-06 0 2.4060136689404285e-05 0.00014483825792720146 0 3.0095714062937782e-05 0.0001250870124761189 0 4.0454780862998369e-05 0.00013678762212456858 0 -2.516214830905278e-05 -7.25349833005022e-05 0 -2.8696761808599484e-05 -6.12066374053355e-05 0 -3.3948097566771842e-05 -6.8619042538422141e-05 0 2.6370921986647215e-05 -1.333110857149807e-05 0 2.2802733255944261e-05 -1.2222941610988565e-05 0 2.3739949174241826e-05 -1.6472854500207145e-05 0 3.8779298458455103e-06 1.3688795522401661e-06 0 4.8517323035606541e-06 5.0174308426114683e-06 0 6.1874856424336557e-07 2.9160354851845185e-06 0 2.0155173085689704e-05 -1.3784459818756812e-05 0 2.3739949174241826e-05 -1.6472854500207145e-05 0 2.2802733255944261e-05 -1.2222941610988567e-05 0 4.7650422301716777e-06 1.6352180048567219e-06 0 3.7351011491415865e-06 1.7153422256789353e-06 0 4.4163920756349146e-06 1.6633911907732014e-06 0 1.8245350813288753e-06 -2.682268655856747e-08 0 1.0504868569538642e-06 -3.9178075000340502e-07 0 7.3254955854061239e-07 -7.4834522860049244e-08 0 4.2774641517182817e-07 1.5203368775308871e-06 0 1.7269944450501262e-06 1.6783505978092597e-06 0 6.0124316791577354e-07 2.0335200007091629e-06 0 1.2121133479434186e-05 2.4781596181040501e-06 0 1.3366690593822363e-05 -1.4066159447627271e-07 0 1.4360564864674767e-05 4.8961711993985866e-06 0 1.5231824542994414e-05 2.7600688314929009e-06 0 1.4360564864674767e-05 4.8961711993985866e-06 0 1.3366690593822363e-05 -1.4066159447627271e-07 0 -1.8442421733479326e-05 -5.4644808120158431e-05 0 -2.8696761808599484e-05 -6.12066374053355e-05 0 -2.013862048110054e-05 -6.4677682071083374e-05 0 -2.516214830905278e-05 -7.25349833005022e-05 0 -2.013862048110054e-05 -6.4677682071083374e-05 0 -2.8696761808599484e-05 -6.12066374053355e-05 0 1.2552306436981941e-05 0.00011046646847497768 0 3.0095714062937782e-05 0.0001250870124761189 0 1.3833225251302854e-05 0.00013096443225398609 0 2.4060136689404285e-05 0.00014483825792720146 0 1.3833225251302854e-05 0.00013096443225398609 0 3.0095714062937782e-05 0.0001250870124761189 0 1.2552306436981941e-05 0.00011046646847497768 0 9.4753660576233747e-06 9.1320040548547267e-05 0 2.6290243569671465e-05 9.6331828768171613e-05 0 1.6505197391946584e-05 7.7978408497177129e-05 0 2.6290243569671465e-05 9.6331828768171613e-05 0 9.4753660576233747e-06 9.1320040548547267e-05 0 9.287866818209964e-10 2.0849849570567152e-10 0 8.6255204451508325e-10 2.522948776142968e-10 0 6.2431931531202827e-07 4.2447954102091221e-07 0 2.7797759987700378e-05 -1.6703545842115182e-05 0 2.3739949174241826e-05 -1.6472854500207145e-05 0 2.6260084163443961e-05 -1.9767764704455214e-05 0 2.2879137113911468e-05 -1.9656284061918572e-05 0 2.6260084163443961e-05 -1.9767764704455214e-05 0 2.3739949174241826e-05 -1.6472854500207145e-05 0 -2.2232109341577649e-05 -3.9955466946186083e-05 0 -2.5415731964273409e-05 -3.3759419985427735e-05 0 -2.9202692739421452e-05 -4.2354819234909953e-05 0 -3.2302944378033873e-05 -3.1214936174869102e-05 0 -2.5415731964273409e-05 -3.3759419985427735e-05 0 -2.4935774887665797e-05 -2.6172498316928641e-05 0 -5.5694228788095083e-05 6.2074361334248305e-05 0 -4.1002260704586559e-05 5.1784893935597899e-05 0 -4.1134375270097843e-05 6.8109987694892041e-05 0 9.8440718071223304e-06 2.510572686132124e-06 0 1.1138143073379533e-05 3.2643449891696072e-06 0 9.832535525962959e-06 2.2664313589964225e-06 0 1.1782080453777273e-05 3.5747941872224087e-06 0 9.832535525962959e-06 2.2664313589964225e-06 0 1.1138143073379533e-05 3.2643449891696072e-06 0 3.4443234118859246e-06 1.4023309154645033e-06 0 4.5956220420953503e-06 1.4203225912212027e-06 0 4.1202083489114483e-06 1.0497361895253539e-06 0 1.4328377724813037e-06 1.0289945870795855e-06 0 5.9001774859523935e-07 5.6933701433621184e-07 0 6.8486934129708077e-07 9.3186915812874642e-07 0 -6.2789593881395622e-06 -2.3645207386797571e-06 0 -9.6640009632499428e-06 -1.3799533139250314e-06 0 -7.3927447028391108e-06 -1.8214316993095083e-06 0 -4.781358817954699e-06 1.3748478071374663e-06 0 -5.3178606882390505e-06 9.4979638126925218e-07 0 -6.7458323636061593e-06 6.243137348831922e-07 0 -4.781358817954699e-06 1.3748478071374663e-06 0 -5.9378424649826472e-06 8.7914071596695425e-07 0 -4.1599846809354313e-06 1.4179385598850357e-06 0 5.147872827748292e-05 0.00011972101620694342 0 4.0454780862998369e-05 0.00013678762212456858 0 3.0095714062937782e-05 0.0001250870124761189 0 -3.994548078124353e-05 -6.1114524377164206e-05 0 -3.3948097566771842e-05 -6.8619042538422141e-05 0 -2.8696761808599484e-05 -6.12066374053355e-05 0 1.0237347165300394e-09 1.0073099448822091e-11 0 7.3254955854061239e-07 -7.4834522860049284e-08 0 1.0504868569538642e-06 -3.9178075000340502e-07 0 5.6165242314681668e-06 -5.814300945967982e-07 0 6.2298561648635205e-06 -2.3240345344133862e-07 0 4.1001494545657621e-06 -1.4328426630253667e-06 0 -9.8032764051995665e-06 -3.3420157923723891e-05 0 -1.3926376666996884e-05 -2.6893166515284324e-05 0 -1.6415551743438651e-05 -3.3094229415368171e-05 0 -4.7911561369463582e-07 -1.6131792869437886e-06 0 2.5930076774294916e-06 -8.1094349744931367e-07 0 6.5644991327898402e-08 7.078325813607476e-08 0 1.0918880710418402e-06 -5.0455946435033465e-06 0 -2.6152818723005286e-06 -6.05417968046261e-06 0 -2.5948764823876275e-07 -8.4914957623138126e-06 0 8.1361708595297543e-06 8.9344121796896356e-07 0 9.832535525962959e-06 2.2664313589964225e-06 0 9.966187417873241e-06 2.2110710382062238e-06 0 -1.0956782935627637e-05 6.4066230355760609e-05 0 -2.5158946383086574e-05 6.6562553665901785e-05 0 -1.880792211100647e-05 5.3175727376956713e-05 0 -1.3373103245877963e-05 -8.3951053967965049e-06 0 -1.8507894823659036e-05 -1.2221930420644216e-05 0 -1.3615466792212013e-05 -1.226102848548672e-05 0 -1.9586643807313185e-05 1.4995288794993365e-05 0 -2.1013942876749259e-05 2.2304326292230206e-05 0 -2.9438546757036983e-05 2.2975592992281834e-05 0 1.6610771306035343e-05 -3.5578434208416629e-05 0 1.9118462562050355e-05 -3.9567987220824853e-05 0 1.9896855561707916e-05 -3.5547372048520495e-05 0 2.3034773868328038e-05 -3.8733645304369425e-05 0 1.9896855561707916e-05 -3.5547372048520495e-05 0 1.9118462562050355e-05 -3.9567987220824853e-05 0 -5.6423892218523152e-06 5.0389410584820488e-07 0 -3.4786161663268802e-06 1.1732950894655072e-06 0 -4.1599846809354313e-06 1.4179385598850357e-06 0 -2.1996294686962639e-06 1.8156156397577272e-06 0 -4.1599846809354313e-06 1.4179385598850357e-06 0 -3.4786161663268802e-06 1.1732950894655072e-06 0 2.577184364657833e-06 7.6974914362079541e-07 0 2.0843345968069224e-06 -4.7281235910491106e-07 0 3.324798239064607e-06 -8.0820541412121083e-08 0 -8.1988992315082713e-06 -1.3603644010431094e-07 0 -1.1017940533013288e-05 -1.9665800211249062e-06 0 -8.2594003232284919e-06 -8.644055903293121e-07 0 -6.007357844202918e-06 -1.1771996375632652e-06 0 -7.4386192342121719e-06 -1.8073074975003223e-06 0 -3.6149352393698285e-06 -2.1602036768480781e-06 0 1.5190444468034799e-05 -3.9742456757625551e-05 0 1.8651142418423437e-05 -4.2757080405510684e-05 0 1.6292204970995999e-05 -3.8777302479055256e-05 0 -1.0956782935627637e-05 6.4066230355760609e-05 0 -1.8672981987201213e-05 8.429162529206812e-05 0 -2.5158946383086574e-05 6.6562553665901785e-05 0 8.6255204451508325e-10 2.522948776142968e-10 0 7.2928445120669652e-10 2.9980622483056674e-10 0 5.9001774859523946e-07 5.6933701433621195e-07 0 4.7594363576740267e-05 9.8736108544249948e-05 0 2.6290243569671465e-05 9.6331828768171613e-05 0 3.2463947316427394e-05 8.4980041768835572e-05 0 1.5356355914331478e-05 6.4487924809259415e-06 0 1.6010464395910095e-05 7.8629851749927274e-06 0 1.3749314679596361e-05 5.3801219886111733e-06 0 -1.9586643807313185e-05 1.4995288794993365e-05 0 -1.2207167983653394e-05 1.4289003099397185e-05 0 -2.1013942876749259e-05 2.2304326292230206e-05 0 1.5356355914331478e-05 6.4487924809259415e-06 0 1.3023009331508955e-05 4.6167403594229504e-06 0 1.3480829753586049e-05 4.6444153177113471e-06 0 1.5356355914331478e-05 6.4487924809259415e-06 0 1.3749314679596359e-05 5.3801219886111725e-06 0 1.3023009331508955e-05 4.6167403594229504e-06 0 -2.1072517477159958e-06 1.1808398065417843e-06 0 -4.0317816056386283e-06 3.0302602212047657e-07 0 -2.2151128997425066e-06 -6.8869258339638125e-08 0 1.6672200816053774e-06 2.061753229232657e-06 0 6.0124316791577354e-07 2.0335200007091629e-06 0 1.7269944450501262e-06 1.6783505978092597e-06 0 -2.8994690949349758e-05 5.1743606233212694e-05 0 -4.1134375270097843e-05 6.8109987694892041e-05 0 -4.1002260704586559e-05 5.1784893935597899e-05 0 4.9492894831941927e-06 -4.2340726007145692e-06 0 5.6805084089859236e-06 -3.9727507971152901e-06 0 5.7921906965324283e-06 -2.3654228390587572e-06 0 1.2121133479434186e-05 2.4781596181040501e-06 0 1.4360564864674767e-05 4.8961711993985866e-06 0 1.3480829753586049e-05 4.6444153177113471e-06 0 8.5113781996162442e-06 -1.6516202048486353e-05 0 9.3869472658187815e-06 -1.3621768787696442e-05 0 6.854364914734771e-06 -1.260970972179093e-05 0 -1.3373103245877963e-05 -8.3951053967965049e-06 0 -1.7093357437180969e-05 -8.7380482377718092e-06 0 -1.8507894823659036e-05 -1.2221930420644216e-05 0 -1.9586643807313185e-05 1.4995288794993365e-05 0 -2.9438546757036983e-05 2.2975592992281834e-05 0 -2.7139373233113007e-05 1.5477610026189096e-05 0 -3.8246401494811951e-05 0.00014277223484015274 0 -5.4345528553877182e-05 0.00015138772348439707 0 -5.1316533984920546e-05 0.00013119449675492358 0 5.4460666456996402e-06 -7.0779477146059122e-05 0 1.3421824953582172e-05 -7.4680396428732909e-05 0 1.1317028528558241e-05 -6.4243758262696421e-05 0 5.3887580312409104e-06 -1.9005524051290571e-05 0 6.1444560846144112e-06 -1.6046409113700601e-05 0 3.4888871432124628e-06 -1.7195035121718844e-05 0 1.1782080453777273e-05 3.5747941872224087e-06 0 9.966187417873241e-06 2.2110710382062238e-06 0 9.832535525962959e-06 2.2664313589964225e-06 0 -9.4957312240038919e-07 -2.4640335133110135e-06 0 -3.6149352393698285e-06 -2.1602036768480781e-06 0 -3.5584292252783614e-06 -2.8293894134415951e-06 0 -9.8249713854876612e-06 -2.6458621198959049e-06 0 -6.5850010065868398e-06 -9.0832784027035982e-07 0 -8.2594003232284919e-06 -8.644055903293121e-07 0 -1.4166541207126159e-05 4.5290198242420982e-06 0 -8.8341593804409472e-06 3.9142813846468826e-06 0 -1.2949492591004237e-05 8.5104937994921102e-06 0 3.7788551337251671e-06 -4.1320042959007183e-06 0 3.2416653245819148e-06 -7.1901270150166665e-06 0 4.6389299909289176e-06 -6.4745464079060566e-06 0 -4.3656431262900759e-06 -9.3459729452245982e-07 0 -6.5850010065868389e-06 -9.0832784027035972e-07 0 -6.3527719303400126e-06 -2.5253514137192007e-06 0 1.2121133479434186e-05 2.4781596181040501e-06 0 1.065726032387893e-05 2.1253533293606188e-06 0 1.0141127248501504e-05 -1.472400307056939e-07 0 1.0237347165300394e-09 1.0073099448822091e-11 0 1.0046026509865961e-09 -6.6207732980562173e-11 0 7.3254955854061239e-07 -7.4834522860049244e-08 0 8.317185882414582e-06 -2.358681434678027e-05 0 6.1047386911682614e-06 -2.1650308698956277e-05 0 5.2943950140326493e-06 -2.4689302804964144e-05 0 -1.4753176278196942e-05 -3.9960330699714451e-06 0 -1.3397002631946357e-05 -3.8882313011463997e-06 0 -1.1017940533013288e-05 -1.9665800211249062e-06 0 -2.3129023774548927e-05 6.4330352262846663e-06 0 -1.6254504579224717e-05 2.8571827876228545e-06 0 -2.0450615611547696e-05 6.2853220090371452e-06 0 -1.9035782243564536e-05 -2.5908232920893175e-05 0 -2.4935774887665797e-05 -2.6172498316928641e-05 0 -2.5415731964273409e-05 -3.3759419985427735e-05 0 -4.0540841760025869e-06 -1.0205145830300179e-05 0 -2.291520446649013e-06 -1.375100381003422e-05 0 -2.5948764823876275e-07 -8.4914957623138126e-06 0 1.8237420027086971e-06 -1.1338012305320319e-05 0 -2.5948764823876275e-07 -8.4914957623138126e-06 0 -2.291520446649013e-06 -1.375100381003422e-05 0 -4.3656431262900759e-06 -9.3459729452245982e-07 0 -3.1093079339635575e-06 -1.8743155921909939e-06 0 -2.2151128997425066e-06 -6.8869258339638125e-08 0 8.5113781996162442e-06 -1.6516202048486353e-05 0 6.854364914734771e-06 -1.260970972179093e-05 0 6.1444560846144112e-06 -1.6046409113700601e-05 0 -2.2232109341577649e-05 -3.9955466946186083e-05 0 -1.5457337323742799e-05 -3.9384631655709882e-05 0 -1.6415551743438651e-05 -3.3094229415368171e-05 0 -4.3656431262900759e-06 -9.3459729452245982e-07 0 -2.2151128997425066e-06 -6.8869258339638125e-08 0 -4.0317816056386283e-06 3.0302602212047657e-07 0 8.1157152005373307e-06 -1.0576253549442267e-05 0 6.854364914734771e-06 -1.260970972179093e-05 0 9.3869472658187815e-06 -1.3621768787696442e-05 0 1.8060463991998977e-06 -8.7459429258877515e-07 0 2.4615134878456213e-06 -4.3849446903079321e-07 0 2.8442708065128558e-06 -8.5309178062658148e-07 0 -2.177728066263004e-05 -1.1158699413874084e-05 0 -1.8507894823659036e-05 -1.2221930420644216e-05 0 -1.7093357437180969e-05 -8.7380482377718092e-06 0 -3.6339284531037571e-05 2.0414547320943065e-05 0 -2.7139373233113007e-05 1.5477610026189096e-05 0 -2.9438546757036983e-05 2.2975592992281834e-05 0 -3.994548078124353e-05 -6.1114524377164206e-05 0 -2.8696761808599484e-05 -6.12066374053355e-05 0 -3.3244613995225325e-05 -5.5656407766254854e-05 0 5.147872827748292e-05 0.00011972101620694342 0 3.0095714062937782e-05 0.0001250870124761189 0 3.3445137370434658e-05 0.0001104003783488747 0 4.7594363576740267e-05 9.8736108544249948e-05 0 3.3445137370434658e-05 0.0001104003783488747 0 2.6290243569671465e-05 9.6331828768171613e-05 0 -3.994548078124353e-05 -6.1114524377164206e-05 0 -4.1571833992871933e-05 -7.2670895024348439e-05 0 -3.3948097566771842e-05 -6.8619042538422141e-05 0 5.147872827748292e-05 0.00011972101620694342 0 5.522440053944042e-05 0.00014136075918610969 0 4.0454780862998369e-05 0.00013678762212456858 0 2.0155173085689704e-05 -1.3784459818756812e-05 0 1.8084617272142592e-05 -9.6567502315587656e-06 0 1.6934898908688893e-05 -1.2644523732443384e-05 0 4.4344959060499197e-06 -1.4132606571504418e-05 0 3.4888871432124628e-06 -1.7195035121718844e-05 0 6.1444560846144112e-06 -1.6046409113700601e-05 0 6.8981779352107397e-06 -3.4724338118269828e-05 0 1.0503893453932743e-05 -3.702376057719667e-05 0 9.0616533639953801e-06 -3.4490698529154655e-05 0 3.8946998604535796e-05 -3.1273438731003123e-05 0 3.6675118002832539e-05 -3.6079125131411219e-05 0 4.4451720104565555e-05 -3.7158629887197955e-05 0 -1.9586643807313185e-05 1.4995288794993365e-05 0 -1.2949492591004237e-05 8.5104937994921102e-06 0 -1.2207167983653394e-05 1.4289003099397187e-05 0 -2.1996294686962639e-06 1.8156156397577272e-06 0 -1.5975047374819089e-06 2.1026655937113999e-06 0 -2.9459570239336517e-06 1.860063900830439e-06 0 5.3457348017323835e-06 1.0433700436151438e-06 0 4.5956220420953503e-06 1.4203225912212027e-06 0 5.9506297967380489e-06 1.5360225585821449e-06 0 -3.2854187868659412e-05 8.1072675681610813e-05 0 -2.5158946383086574e-05 6.6562553665901785e-05 0 -1.8672981987201213e-05 8.429162529206812e-05 0 2.5105382787565517e-06 -3.9095408671718825e-05 0 8.7096297279436484e-06 -4.413276322688856e-05 0 8.0073917521147699e-06 -3.3618188784522143e-05 0 1.8245350813288753e-06 -2.682268655856747e-08 0 7.3254955854061239e-07 -7.4834522860049244e-08 0 9.601596685475068e-07 1.7174192843176746e-07 0 -4.9930766085482272e-06 -4.2861322672357019e-06 0 -1.1644333047471031e-06 -3.2283003155352419e-06 0 -3.1093079339635575e-06 -1.8743155921909939e-06 0 4.3412218205767695e-05 7.8701519738036575e-05 0 4.7594363576740273e-05 9.8736108544249948e-05 0 3.2463947316427394e-05 8.4980041768835572e-05 0 1.5609398588234936e-06 -1.9975712531046936e-06 0 2.6305140992766914e-06 -1.7870526940334999e-06 0 1.2730227975600803e-06 -2.3174702176257521e-06 0 2.0155173085689704e-05 -1.3784459818756812e-05 0 1.6934898908688893e-05 -1.2644523732443384e-05 0 2.0126053575631575e-05 -1.6664823471584275e-05 0 1.6968628976670752e-05 -1.6212891693173387e-05 0 2.0126053575631575e-05 -1.6664823471584275e-05 0 1.6934898908688893e-05 -1.2644523732443384e-05 0 9.9716958778022418e-06 -3.3901262972334832e-05 0 7.3298355809086999e-06 -3.1697749686263452e-05 0 9.0616533639953801e-06 -3.4490698529154655e-05 0 6.8981779352107397e-06 -3.4724338118269828e-05 0 9.0616533639953801e-06 -3.4490698529154655e-05 0 7.3298355809086999e-06 -3.1697749686263452e-05 0 3.8946998604535796e-05 -3.1273438731003123e-05 0 3.2286957835166402e-05 -3.204031000122834e-05 0 3.6675118002832539e-05 -3.6079125131411219e-05 0 3.1261481432500112e-05 -3.6886549215630615e-05 0 3.6675118002832539e-05 -3.6079125131411219e-05 0 3.2286957835166402e-05 -3.2040310001228346e-05 0 9.8440718071223304e-06 2.510572686132124e-06 0 8.4925287279236201e-06 1.8810991541458529e-06 0 8.7836705613472044e-06 2.0838418124729602e-06 0 2.0542345345415538e-05 -6.8610786330263031e-06 0 1.5786557181418318e-05 -3.0392623071284788e-06 0 1.8084617272142592e-05 -9.6567502315587656e-06 0 1.383786018744346e-05 -6.6805428037050619e-06 0 1.8084617272142588e-05 -9.6567502315587656e-06 0 1.5786557181418318e-05 -3.0392623071284788e-06 0 -2.2232109341577649e-05 -3.9955466946186083e-05 0 -2.9202692739421452e-05 -4.2354819234909953e-05 0 -2.6668065663132147e-05 -4.9768201900599038e-05 0 -5.6423892218523152e-06 5.0389410584820488e-07 0 -6.5850010065868398e-06 -9.0832784027035982e-07 0 -4.0317816056386283e-06 3.0302602212047657e-07 0 -4.3656431262900759e-06 -9.3459729452245982e-07 0 -4.0317816056386283e-06 3.0302602212047657e-07 0 -6.5850010065868398e-06 -9.0832784027035982e-07 0 5.2211407001967239e-06 -9.5650668857452799e-06 0 3.0655694391045384e-06 -8.3093253460483567e-06 0 3.7689775448087277e-06 -7.4645416218900118e-06 0 7.3739461286279473e-06 -2.8679707912591856e-05 0 7.3298355809086999e-06 -3.1697749686263452e-05 0 9.1045296267314548e-06 -3.0915578522124281e-05 0 2.7524851296056583e-05 -2.9199215990091954e-05 0 2.6926105856952082e-05 -3.2415263907912024e-05 0 3.2286957835166402e-05 -3.2040310001228346e-05 0 4.7650422301716777e-06 1.6352180048567219e-06 0 5.9506297967380489e-06 1.5360225585821449e-06 0 4.5956220420953503e-06 1.4203225912212027e-06 0 1.8651142418423437e-05 -4.2757080405510684e-05 0 1.9118462562050355e-05 -3.9567987220824853e-05 0 1.6292204970995999e-05 -3.8777302479055256e-05 0 2.6065935776718463e-06 1.8581272976146154e-06 0 2.5885237010081711e-06 1.546001399098687e-06 0 1.7167643323243779e-06 1.5907145401458808e-06 0 8.1157152005373307e-06 -1.0576253549442267e-05 0 8.322007118633705e-06 -8.1415192898500279e-06 0 6.3049822823575331e-06 -8.2730187456737503e-06 0 1.8245350813288753e-06 -2.682268655856747e-08 0 2.9007010673256628e-06 1.0637806747751754e-07 0 2.4615134878456209e-06 -4.3849446903079321e-07 0 -6.4321778970426436e-06 9.381554169294699e-05 0 -1.027321972487237e-06 7.8589171241234723e-05 0 9.4753660576233747e-06 9.1320040548547267e-05 0 -4.4344441139720521e-06 0.00012991677905426611 0 1.3833225251302856e-05 0.00013096443225398609 0 7.2367876307828043e-06 0.00014434603567702362 0 -1.1199715171234458e-05 -6.5049967705904091e-05 0 -2.013862048110054e-05 -6.4677682071083374e-05 0 -1.6718855421835673e-05 -7.2141182502114779e-05 0 2.2884706109086996e-05 1.3451650060093156e-05 0 1.7855098020891511e-05 2.5486019398181305e-06 0 2.4885216012602838e-05 -2.6318077829063918e-06 0 1.8245350813288753e-06 -2.682268655856747e-08 0 9.601596685475068e-07 1.7174192843176746e-07 0 1.9971035103665905e-06 3.3170788330810902e-07 0 -3.7775475501853756e-05 -5.0281300964695374e-05 0 -3.3244613995225325e-05 -5.5656407766254848e-05 0 -2.6668065663132147e-05 -4.9768201900599038e-05 0 -4.3523132241670952e-05 -0.00012103346629059998 0 -3.5615690228272585e-05 -0.00011423718933489331 0 -4.3509227563522909e-05 -0.00010903458276379756 0 7.5111797567073738e-05 0.00023710881103333636 0 5.3869832659835737e-05 0.00022506725431657734 0 6.8121509963955471e-05 0.00021139201306620748 0 7.5111797567073738e-05 0.00023710881103333636 0 4.7603786274615218e-05 0.0002407754844007002 0 5.386983265983573e-05 0.00022506725431657734 0 3.235927615025874e-05 -0.00012071708539297602 0 2.1031520851252396e-05 -0.00011459623697977078 0 1.8231731725232288e-05 -0.00012271514198389016 0 -7.3089558445564671e-05 0.00023876719157112168 0 -7.3063508442568594e-05 0.0002153678436683607 0 -5.7633982562830302e-05 0.0002255087116961129 0 -4.3523132241670952e-05 -0.00012103346629059998 0 -3.1652190479277155e-05 -0.00012104023956617742 0 -3.5615690228272585e-05 -0.00011423718933489331 0 3.235927615025874e-05 -0.00012071708539297602 0 2.7862021531835947e-05 -0.00010739593244163185 0 2.1031520851252396e-05 -0.00011459623697977078 0 -7.3089558445564671e-05 0.00023876719157112168 0 -5.7633982562830302e-05 0.0002255087116961129 0 -4.9888141857358848e-05 0.00023878210586384226 0 1.0046026509867304e-09 -6.6207732980575886e-11 0 9.601596685475068e-07 1.7174192843176746e-07 0 7.3254955854061239e-07 -7.4834522860049244e-08 0 8.5113781996162442e-06 -1.6516202048486353e-05 0 1.1561788556366428e-05 -1.7185805237110652e-05 0 9.3869472658187815e-06 -1.3621768787696442e-05 0 -4.3656431262900759e-06 -9.3459729452245982e-07 0 -6.3527719303400126e-06 -2.5253514137192007e-06 0 -3.1093079339635575e-06 -1.8743155921909939e-06 0 -2.2232109341577649e-05 -3.9955466946186083e-05 0 -1.8313362156234884e-05 -4.5680124370590246e-05 0 -1.5457337323742799e-05 -3.9384631655709882e-05 0 3.8116306737815576e-06 -1.1033284062238149e-06 0 3.6179457421365746e-06 -1.559383522133561e-06 0 2.6305140992766914e-06 -1.7870526940334999e-06 0 -6.1763445424174082e-06 0.00015671811652743638 0 -2.0907502920597018e-05 0.00017040449004115851 0 -2.2225017231450257e-05 0.00014947394727497185 0 -9.7650492258497492e-06 -7.844739047475251e-05 0 -2.0719548100811026e-06 -8.5580160160825958e-05 0 -2.0464493398506357e-06 -7.4878633504095181e-05 0 2.7545985954492306e-06 -2.7557465886418942e-05 0 4.396063026133182e-06 -3.1407217290070878e-05 0 5.1883542712456878e-06 -2.8493785749709187e-05 0 3.1839773739267675e-05 -2.3304817044679898e-05 0 3.0428021673748876e-05 -2.7053810418618979e-05 0 3.4859559273018792e-05 -2.6920657585062089e-05 0 2.5502638204101807e-05 -9.1047540595956852e-06 0 2.2802733255944261e-05 -1.2222941610988567e-05 0 2.6370921986647215e-05 -1.333110857149807e-05 0 -4.9930766085482272e-06 -4.2861322672357019e-06 0 -3.1093079339635575e-06 -1.8743155921909939e-06 0 -6.3527719303400126e-06 -2.5253514137192007e-06 0 1.2036358846538063e-06 -1.9067678444316943e-05 0 1.6939073583713867e-06 -2.3405479580023857e-05 0 3.8580893423046117e-06 -2.0760950827032239e-05 0 2.7797759987700378e-05 -1.6703545842115182e-05 0 2.6260084163443961e-05 -1.9767764704455214e-05 0 2.9528765540709477e-05 -1.9972154372479848e-05 0 -9.8032764051995665e-06 -3.3420157923723891e-05 0 -3.7826052705766912e-06 -3.6414542552725336e-05 0 -4.6455224280878918e-06 -2.7895168632391298e-05 0 5.3457348017323835e-06 1.0433700436151438e-06 0 4.1202083489114474e-06 1.0497361895253539e-06 0 4.5956220420953503e-06 1.4203225912212027e-06 0 5.4460666456996402e-06 -7.0779477146059122e-05 0 -2.4260938190402485e-06 -6.3632055846391642e-05 0 -2.0464493398506357e-06 -7.4878633504095181e-05 0 -3.8246401494811951e-05 0.00014277223484015274 0 -2.2347562001267187e-05 0.0001298585412598579 0 -2.2225017231450257e-05 0.00014947394727497185 0 2.2879137113911468e-05 -1.9656284061918572e-05 0 2.3739949174241826e-05 -1.6472854500207145e-05 0 2.0126053575631575e-05 -1.6664823471584275e-05 0 2.0155173085689704e-05 -1.3784459818756812e-05 0 2.0126053575631575e-05 -1.6664823471584275e-05 0 2.3739949174241826e-05 -1.6472854500207145e-05 0 1.6672200816053774e-06 2.061753229232657e-06 0 7.130448073482666e-07 2.1808131974793409e-06 0 6.0124316791577354e-07 2.0335200007091629e-06 0 -4.0540841760025869e-06 -1.0205145830300179e-05 0 -2.5948764823876265e-07 -8.4914957623138126e-06 0 -2.6152818723005286e-06 -6.05417968046261e-06 0 2.2809456772179878e-06 -2.8253363132091158e-05 0 7.0904533567975517e-06 -2.4859319736740543e-05 0 2.8824948996047249e-06 -1.8183910789953577e-05 0 1.1583387005332531e-05 -1.3951028441922397e-05 0 9.3869472658187815e-06 -1.3621768787696442e-05 0 1.1561788556366428e-05 -1.7185805237110652e-05 0 9.5519064414420241e-06 -1.9884436568610396e-05 0 7.0904533567975517e-06 -2.4859319736740543e-05 0 1.2583919684707767e-05 -2.8551506903183939e-05 0 2.7883381302915156e-05 -2.3476587845607986e-05 0 2.3723934037540867e-05 -2.2431707802024727e-05 0 2.5613681388944417e-05 -2.6138677541908289e-05 0 2.1691704275001442e-05 -2.4320531235988556e-05 0 2.5613681388944417e-05 -2.6138677541908289e-05 0 2.3723934037540867e-05 -2.2431707802024727e-05 0 -2.1209229035981726e-06 1.9359309323989978e-06 0 -3.362606382588174e-06 1.6535421100424656e-06 0 -2.9459570239336517e-06 1.860063900830439e-06 0 5.398675497795502e-06 -1.1886552331552792e-06 0 5.7921906965324283e-06 -2.3654228390587572e-06 0 6.456524755577325e-06 -5.6678323146578825e-07 0 6.9818625073108878e-06 -1.457579716623485e-06 0 6.456524755577325e-06 -5.6678323146578825e-07 0 5.7921906965324283e-06 -2.3654228390587572e-06 0 1.5356355914331478e-05 6.4487924809259415e-06 0 1.4360564864674767e-05 4.8961711993985866e-06 0 1.7401715718338164e-05 8.6697698434717444e-06 0 1.5231824542994414e-05 2.7600688314929009e-06 0 1.7401715718338164e-05 8.6697698434717444e-06 0 1.4360564864674767e-05 4.8961711993985866e-06 0 4.7594363576740267e-05 9.8736108544249948e-05 0 5.147872827748292e-05 0.00011972101620694342 0 3.3445137370434658e-05 0.0001104003783488747 0 1.2033333304728145e-05 3.7671984064134326e-06 0 1.1138143073379533e-05 3.2643449891696072e-06 0 1.0545893127075028e-05 2.8422813212517075e-06 0 -3.7775475501853756e-05 -5.0281300964695374e-05 0 -3.994548078124353e-05 -6.1114524377164206e-05 0 -3.3244613995225325e-05 -5.5656407766254854e-05 0 -3.4413893318794465e-07 2.190864056324299e-06 0 6.0124316791577354e-07 2.0335200007091629e-06 0 7.130448073482666e-07 2.1808131974793409e-06 0 -2.1147263539105012e-06 -2.8977223938021127e-06 0 -1.9219588689057521e-06 -2.4742590467371622e-06 0 -1.0791973567365586e-06 -2.5747471422808797e-06 0 -2.1209229035981726e-06 1.9359309323989978e-06 0 -1.2584103065488538e-06 1.8091557228299721e-06 0 -1.7431805377830482e-06 1.6230979002212289e-06 0 5.6165242314681668e-06 -5.814300945967982e-07 0 5.4368166286081908e-06 -8.030276481350183e-08 0 7.0686301093052294e-06 5.2261032460180881e-07 0 -1.1474835364112305e-06 5.6777026149512771e-08 0 -1.2047003064621544e-06 5.4160636753027782e-07 0 -5.2786426900826539e-07 1.4702134245179488e-07 0 -9.4686221860137773e-10 3.0515359977079289e-10 0 -5.2786426900826539e-07 1.4702134245179493e-07 0 -1.2047003064621544e-06 5.4160636753027782e-07 0 -1.4613537464055215e-06 -2.9321690246351952e-07 0 -6.7590785514795873e-07 -3.0667991371469542e-07 0 -1.5686274319892332e-06 -9.6424845576432836e-07 0 -1.2804231430689984e-09 -4.9921924702623227e-10 0 -1.5686274319892332e-06 -9.6424845576432836e-07 0 -6.7590785514795873e-07 -3.0667991371469542e-07 0 -4.0540841760025869e-06 -1.0205145830300179e-05 0 -8.7276988296500514e-06 -1.2203427449412991e-05 0 -6.4154472929784989e-06 -1.5739196326419321e-05 0 1.8245350813288753e-06 -2.682268655856747e-08 0 1.9971035103665905e-06 3.3170788330810902e-07 0 2.9007010673256628e-06 1.0637806747751754e-07 0 1.6505197391946584e-05 7.7978408497177129e-05 0 2.923420622725638e-05 7.2151426645799372e-05 0 3.2463947316427394e-05 8.4980041768835572e-05 0 5.8912623112761471e-06 1.54567124038033e-05 0 2.1392843979179466e-06 9.8529373434272838e-06 0 8.1221095449207092e-06 8.8180144910420377e-06 0 1.2033333304728145e-05 3.7671984064134326e-06 0 1.3023009331508955e-05 4.6167403594229504e-06 0 1.1138143073379533e-05 3.2643449891696072e-06 0 -2.6175727806666048e-06 -2.0527876570815603e-05 0 -2.291520446649013e-06 -1.375100381003422e-05 0 -6.4154472929784989e-06 -1.5739196326419321e-05 0 -2.6701533622046867e-05 0.00023919311407145927 0 -4.9888141857358848e-05 0.00023878210586384226 0 -3.8436458472822413e-05 0.00022684800108955928 0 4.4328854785379028e-06 -0.00012248512533808627 0 1.8231731725232288e-05 -0.00012271514198389016 0 1.0246223443463105e-05 -0.00011582773376182567 0 4.7603786274615218e-05 0.0002407754844007002 0 2.0993341980206208e-05 0.00024076025746781019 0 3.2659271766526872e-05 0.0002276970693813266 0 -3.1652190479277155e-05 -0.00012104023956617742 0 -1.9825309571372003e-05 -0.00012130432053996182 0 -2.5820217068860113e-05 -0.00011493730254252821 0 1.0994002921838439e-05 -3.0647312807877873e-05 0 9.1045296267314548e-06 -3.0915578522124281e-05 0 1.1291447022267841e-05 -3.3475316734855107e-05 0 2.2465023541729993e-05 -3.2266851611397604e-05 0 2.5450280760707576e-05 -3.6348090952384308e-05 0 2.6926105856952082e-05 -3.2415263907912024e-05 0 -9.7368854736660737e-10 -4.0012091597517238e-10 0 -5.278642690082655e-07 1.4702134245179491e-07 0 -9.4686221860137773e-10 3.0515359977079289e-10 0 -1.0942413834185732e-09 4.4722281862897826e-10 0 -1.2804231430689984e-09 -4.9921924702623227e-10 0 -6.7590785514795873e-07 -3.0667991371469542e-07 0 -1.0942413834185732e-09 4.4722281862897826e-10 0 -6.7590785514795873e-07 -3.0667991371469542e-07 0 -1.4613537464055215e-06 -2.9321690246351952e-07 0 -9.7368854736660737e-10 -4.0012091597517238e-10 0 -1.1474835364112305e-06 5.6777026149512771e-08 0 -5.2786426900826539e-07 1.4702134245179488e-07 0 2.5105382787565517e-06 -3.9095408671718825e-05 0 -3.7826052705766916e-06 -3.6414542552725329e-05 0 -3.1895689174910323e-06 -4.5940811503827038e-05 0 4.2774641517182817e-07 1.5203368775308871e-06 0 -6.1268060049238354e-07 9.4673690683914698e-07 0 1.1083271747554582e-06 7.5161697036718409e-07 0 8.1157152005373307e-06 -1.0576253549442267e-05 0 9.3869472658187815e-06 -1.3621768787696442e-05 0 9.9727633012017745e-06 -1.0781369802502597e-05 0 1.1583387005332531e-05 -1.3951028441922397e-05 0 9.9727633012017745e-06 -1.0781369802502597e-05 0 9.3869472658187815e-06 -1.3621768787696442e-05 0 1.6672200816053774e-06 2.061753229232657e-06 0 1.7269944450501262e-06 1.6783505978092597e-06 0 2.4554516076692483e-06 1.8311992091879025e-06 0 3.4443234118859246e-06 1.4023309154645033e-06 0 2.5885237010081711e-06 1.546001399098687e-06 0 3.7351011491415865e-06 1.7153422256789353e-06 0 2.6065935776718463e-06 1.8581272976146154e-06 0 3.7351011491415865e-06 1.7153422256789353e-06 0 2.5885237010081711e-06 1.546001399098687e-06 0 1.5231824542994414e-05 2.7600688314929009e-06 0 1.7855098020891511e-05 2.5486019398181309e-06 0 1.7401715718338164e-05 8.6697698434717444e-06 0 2.2884706109086996e-05 1.3451650060093156e-05 0 1.7401715718338164e-05 8.6697698434717461e-06 0 1.7855098020891511e-05 2.5486019398181305e-06 0 -1.1675970750796665e-05 -1.5632743373097022e-05 0 -6.4154472929784989e-06 -1.5739196326419321e-05 0 -8.7276988296500514e-06 -1.2203427449412991e-05 0 2.2879137113911468e-05 -1.9656284061918572e-05 0 2.3723934037540867e-05 -2.2431707802024727e-05 0 2.6260084163443961e-05 -1.9767764704455214e-05 0 5.3887580312409104e-06 -1.9005524051290571e-05 0 3.8580893423046117e-06 -2.0760950827032239e-05 0 6.1047386911682614e-06 -2.1650308698956277e-05 0 4.7650422301716777e-06 1.6352180048567219e-06 0 5.7910514997927321e-06 1.6078303628244162e-06 0 5.9506297967380489e-06 1.5360225585821449e-06 0 2.4060136689404285e-05 0.00014483825792720146 0 4.0454780862998369e-05 0.00013678762212456858 0 4.1220703885698766e-05 0.00015173919350244716 0 -2.516214830905278e-05 -7.25349833005022e-05 0 -3.3948097566771842e-05 -6.8619042538422141e-05 0 -3.3817978753079531e-05 -7.6795152891979729e-05 0 5.2211407001967239e-06 -9.5650668857452799e-06 0 4.6389299909289176e-06 -6.4745464079060566e-06 0 3.2416653245819148e-06 -7.1901270150166665e-06 0 2.0155173085689704e-05 -1.3784459818756812e-05 0 2.2802733255944261e-05 -1.2222941610988567e-05 0 1.8084617272142592e-05 -9.6567502315587656e-06 0 -3.8246401494811951e-05 0.00014277223484015274 0 -5.1316533984920546e-05 0.00013119449675492358 0 -3.6286486960593822e-05 0.0001247801119730419 0 5.4460666456996402e-06 -7.0779477146059122e-05 0 1.1317028528558241e-05 -6.4243758262696435e-05 0 4.2357393160552162e-06 -6.1343216874996083e-05 0 2.5105382787565517e-06 -3.9095408671718825e-05 0 2.9852751899198101e-06 -4.7426103670989602e-05 0 8.7096297279436484e-06 -4.413276322688856e-05 0 1.0883574533934866e-05 -2.7293031398440652e-05 0 1.2506158246247463e-05 -2.9678126103127529e-05 0 1.3250389918650053e-05 -2.6988682714694707e-05 0 2.7524851296056583e-05 -2.9199215990091954e-05 0 3.0428021673748876e-05 -2.7053810418618979e-05 0 2.5613681388944417e-05 -2.6138677541908289e-05 0 4.1316856702613119e-06 -1.0079642357690685e-06 0 4.1001494545657621e-06 -1.4328426630253667e-06 0 6.2298561648635205e-06 -2.3240345344133881e-07 0 1.6610771306035343e-05 -3.5578434208416629e-05 0 1.9896855561707916e-05 -3.5547372048520495e-05 0 1.7625058958933176e-05 -3.1841400814294869e-05 0 -3.4413893318794465e-07 2.190864056324299e-06 0 7.130448073482666e-07 2.1808131974793409e-06 0 -1.241895197922696e-07 2.1539891806943609e-06 0 3.428107312656805e-07 2.050318774644962e-06 0 -1.241895197922696e-07 2.1539891806943609e-06 0 7.130448073482666e-07 2.1808131974793409e-06 0 6.7297697297575889e-06 8.2037994566945408e-07 0 5.7374446167555987e-06 2.7106765252917802e-09 0 6.456524755577325e-06 -5.6678323146578825e-07 0 -4.0540841760025869e-06 -1.0205145830300179e-05 0 -6.4154472929784989e-06 -1.5739196326419321e-05 0 -2.291520446649013e-06 -1.375100381003422e-05 0 1.6672200816053774e-06 2.061753229232657e-06 0 2.4554516076692483e-06 1.8311992091879025e-06 0 2.3055555368862972e-06 1.9844406035555825e-06 0 3.1926925659846631e-06 1.8343780179770306e-06 0 2.3055555368862972e-06 1.9844406035555825e-06 0 2.4554516076692483e-06 1.8311992091879025e-06 0 1.7269944450501262e-06 1.6783505978092597e-06 0 3.1053303132732146e-06 1.4552727801197004e-06 0 2.4554516076692483e-06 1.8311992091879025e-06 0 1.3472094791935778e-05 -3.6015308274410671e-05 0 1.1291447022267841e-05 -3.3475316734855107e-05 0 1.2154660150892897e-05 -3.6035447615964066e-05 0 9.9716958778022418e-06 -3.3901262972334832e-05 0 1.2154660150892897e-05 -3.6035447615964066e-05 0 1.1291447022267841e-05 -3.3475316734855107e-05 0 3.1261481432500112e-05 -3.6886549215630615e-05 0 2.5450280760707572e-05 -3.6348090952384308e-05 0 2.8974890700345166e-05 -4.2065724144417374e-05 0 2.3034773868328038e-05 -3.8733645304369425e-05 0 2.8974890700345166e-05 -4.2065724144417374e-05 0 2.5450280760707572e-05 -3.6348090952384308e-05 0 1.5231824542994414e-05 2.7600688314929009e-06 0 1.5786557181418318e-05 -3.0392623071284788e-06 0 1.7855098020891511e-05 2.5486019398181305e-06 0 4.0276584191617998e-05 0.00021210835161586644 0 3.2659271766526872e-05 0.0002276970693813266 0 1.7282168612294227e-05 0.000217683042209646 0 -3.0257867759775543e-05 -0.00010749330699823441 0 -2.5820217068860113e-05 -0.00011493730254252821 0 -1.9154879596335865e-05 -0.00011004852074867477 0 1.3831465184115353e-05 -0.00010775966480043845 0 2.2899766508930017e-06 -0.00011053249556610453 0 1.0246223443463105e-05 -0.00011582773376182567 0 -4.7169205493546592e-05 0.0002124099884409248 0 -2.5256936904683924e-05 0.00021729132410429843 0 -3.8436458472822413e-05 0.00022684800108955928 0 -3.8246401494811951e-05 0.00014277223484015274 0 -3.6286486960593822e-05 0.0001247801119730419 0 -2.2347562001267187e-05 0.0001298585412598579 0 5.4460666456996402e-06 -7.0779477146059122e-05 0 4.2357393160552162e-06 -6.1343216874996083e-05 0 -2.4260938190402485e-06 -6.3632055846391642e-05 0 2.5105382787565517e-06 -3.9095408671718825e-05 0 -3.1895689174910323e-06 -4.5940811503827038e-05 0 2.9852751899198097e-06 -4.7426103670989602e-05 0 5.398675497795502e-06 -1.1886552331552792e-06 0 6.456524755577325e-06 -5.6678323146578825e-07 0 5.7374446167555987e-06 2.7106765252917802e-09 0 2.0993341980206208e-05 0.00024076025746781019 0 1.7282168612294227e-05 0.000217683042209646 0 3.2659271766526872e-05 0.0002276970693813266 0 -1.9825309571372003e-05 -0.00012130432053996182 0 -1.9154879596335865e-05 -0.00011004852074867477 0 -2.5820217068860113e-05 -0.00011493730254252821 0 -2.6701533622046867e-05 0.00023919311407145927 0 -3.8436458472822413e-05 0.00022684800108955928 0 -2.5256936904683924e-05 0.00021729132410429843 0 4.4328854785379028e-06 -0.00012248512533808627 0 1.0246223443463107e-05 -0.00011582773376182569 0 2.2899766508930017e-06 -0.00011053249556610453 0 1.4705053654738651e-05 -2.9744470927076261e-05 0 1.3250389918650053e-05 -2.6988682714694707e-05 0 1.2506158246247463e-05 -2.9678126103127529e-05 0 9.5519064414420241e-06 -1.9884436568610396e-05 0 2.8824948996047249e-06 -1.8183910789953577e-05 0 7.0904533567975517e-06 -2.4859319736740543e-05 0 1.0503893453932743e-05 -3.702376057719667e-05 0 1.1294158676551833e-05 -3.5564489884469823e-05 0 9.0616533639953801e-06 -3.4490698529154655e-05 0 4.4451720104565555e-05 -3.7158629887197955e-05 0 3.6675118002832539e-05 -3.6079125131411219e-05 0 3.8218180468846456e-05 -4.1551206020896939e-05 0 3.4443234118859246e-06 1.4023309154645033e-06 0 2.3845452163782387e-06 1.1124948760752644e-06 0 2.5885237010081711e-06 1.546001399098687e-06 0 -4.5717172323147677e-05 0.00011077600911263595 0 -4.7296211582683647e-05 9.1826657572398481e-05 0 -3.3590517757092911e-05 9.5382483898202516e-05 0 -3.2854187868659412e-05 8.1072675681610813e-05 0 -3.3590517757092911e-05 9.5382483898202516e-05 0 -4.7296211582683647e-05 9.1826657572398481e-05 0 1.4313368077835823e-05 -2.4268195050156879e-05 0 1.1470940826531411e-05 -2.4135693128506869e-05 0 1.3250389918650053e-05 -2.6988682714694707e-05 0 4.3821188314147219e-06 1.301853268397785e-06 0 3.1053303132732146e-06 1.4552727801197004e-06 0 3.6687683692846893e-06 8.0242960692610873e-07 0 8.1157152005373307e-06 -1.0576253549442267e-05 0 9.9727633012017745e-06 -1.0781369802502597e-05 0 8.322007118633705e-06 -8.1415192898500279e-06 0 9.9492548544696007e-06 -7.5530666868353729e-06 0 8.322007118633705e-06 -8.1415192898500279e-06 0 9.9727633012017745e-06 -1.0781369802502597e-05 0 -2.411705615204571e-05 0.00011029510857048077 0 -2.2347562001267187e-05 0.0001298585412598579 0 -3.6286486960593822e-05 0.0001247801119730419 0 -1.2478203567456154e-06 -5.4292255096380219e-05 0 -2.4260938190402485e-06 -6.3632055846391642e-05 0 4.2357393160552162e-06 -6.1343216874996083e-05 0 -1.2478203567456154e-06 -5.4292255096380219e-05 0 2.9852751899198097e-06 -4.7426103670989602e-05 0 -3.1895689174910323e-06 -4.5940811503827038e-05 0 -1.6953587197583587e-06 1.1563432328659793e-06 0 -2.6224659626967226e-06 1.5153859398315022e-06 0 -1.7431805377830482e-06 1.6230979002212289e-06 0 -2.1017892222198228e-06 -1.8788323964209202e-06 0 -1.9219588689057521e-06 -2.4742590467371622e-06 0 -3.2530176396487084e-06 -2.4737098854519254e-06 0 -4.9384815678134853e-06 -2.2238313854538623e-06 0 -3.2530176396487084e-06 -2.4737098854519254e-06 0 -4.0727367130580409e-06 -2.7122019137080328e-06 0 -3.725080201343888e-06 1.2677375106809402e-06 0 -3.362606382588174e-06 1.6535421100424656e-06 0 -2.6224659626967226e-06 1.515385939831502e-06 0 4.4953707092113802e-06 1.0217508388107652e-07 0 5.7374446167555987e-06 2.7106765252917802e-09 0 5.4212164412026396e-06 7.6655029533322679e-07 0 -4.5717172323147677e-05 0.00011077600911263595 0 -3.6286486960593822e-05 0.0001247801119730419 0 -5.1316533984920546e-05 0.00013119449675492358 0 8.2641379117003745e-06 -5.4007085425454084e-05 0 4.2357393160552162e-06 -6.1343216874996083e-05 0 1.1317028528558241e-05 -6.4243758262696421e-05 0 8.2641379117003745e-06 -5.4007085425454084e-05 0 8.7096297279436484e-06 -4.413276322688856e-05 0 2.9852751899198097e-06 -4.7426103670989602e-05 0 -9.8032764051995665e-06 -3.3420157923723891e-05 0 -1.6415551743438651e-05 -3.3094229415368171e-05 0 -1.5457337323742799e-05 -3.9384631655709882e-05 0 1.0883574533934866e-05 -2.7293031398440652e-05 0 1.3250389918650053e-05 -2.6988682714694707e-05 0 1.1470940826531411e-05 -2.4135693128506869e-05 0 4.1316856702613119e-06 -1.0079642357690685e-06 0 5.6741657011224833e-06 2.8630373938788929e-07 0 2.5930076774294912e-06 -8.1094349744931356e-07 0 3.4312625616042306e-06 -1.5320559460070013e-06 0 3.3247982390646066e-06 -8.0820541412120978e-08 0 2.0843345968069224e-06 -4.7281235910491106e-07 0 -2.1209229035981726e-06 1.9359309323989978e-06 0 -2.9459570239336521e-06 1.860063900830439e-06 0 -1.5975047374819089e-06 2.1026655937113999e-06 0 -2.8994690949349758e-05 5.1743606233212694e-05 0 -1.880792211100647e-05 5.3175727376956713e-05 0 -2.5158946383086574e-05 6.6562553665901785e-05 0 -1.9035782243564536e-05 -2.5908232920893175e-05 0 -1.6415551743438651e-05 -3.3094229415368171e-05 0 -1.3926376666996884e-05 -2.6893166515284324e-05 0 2.4060136689404285e-05 0.00014483825792720146 0 7.2367876307828043e-06 0.00014434603567702362 0 1.3833225251302854e-05 0.00013096443225398609 0 -2.516214830905278e-05 -7.25349833005022e-05 0 -1.6718855421835673e-05 -7.2141182502114779e-05 0 -2.013862048110054e-05 -6.4677682071083374e-05 0 1.6505197391946584e-05 7.7978408497177129e-05 0 9.4753660576233747e-06 9.1320040548547267e-05 0 -1.027321972487237e-06 7.8589171241234723e-05 0 -2.1072517477159958e-06 1.1808398065417843e-06 0 -3.4786161663268798e-06 1.1732950894655072e-06 0 -4.0317816056386283e-06 3.0302602212047657e-07 0 2.577184364657833e-06 7.6974914362079541e-07 0 3.6687683692846893e-06 8.0242960692610873e-07 0 3.1053303132732146e-06 1.4552727801197004e-06 0 -1.07338872119533e-05 -4.5473520365667829e-05 0 -1.5457337323742799e-05 -3.9384631655709882e-05 0 -1.8313362156234884e-05 -4.5680124370590246e-05 0 9.9716958778022418e-06 -3.3901262972334832e-05 0 9.0616533639953801e-06 -3.4490698529154655e-05 0 1.1294158676551833e-05 -3.5564489884469823e-05 0 3.1261481432500112e-05 -3.6886549215630615e-05 0 3.8218180468846456e-05 -4.1551206020896939e-05 0 3.6675118002832539e-05 -3.6079125131411219e-05 0 3.1926925659846631e-06 1.8343780179770306e-06 0 2.4554516076692483e-06 1.8311992091879025e-06 0 3.1053303132732146e-06 1.4552727801197004e-06 0 -4.9888141857358848e-05 0.00023878210586384226 0 -5.7633982562830302e-05 0.0002255087116961129 0 -3.8436458472822413e-05 0.00022684800108955928 0 -4.7169205493546592e-05 0.0002124099884409248 0 -3.8436458472822413e-05 0.00022684800108955928 0 -5.7633982562830302e-05 0.0002255087116961129 0 1.3831465184115353e-05 -0.00010775966480043845 0 1.0246223443463105e-05 -0.00011582773376182567 0 2.1031520851252396e-05 -0.00011459623697977078 0 1.8231731725232288e-05 -0.00012271514198389016 0 2.1031520851252396e-05 -0.00011459623697977078 0 1.0246223443463105e-05 -0.00011582773376182567 0 4.7603786274615218e-05 0.0002407754844007002 0 3.2659271766526872e-05 0.0002276970693813266 0 5.386983265983573e-05 0.00022506725431657734 0 -3.1652190479277155e-05 -0.00012104023956617742 0 -2.5820217068860113e-05 -0.00011493730254252821 0 -3.5615690228272585e-05 -0.00011423718933489331 0 4.0276584191617998e-05 0.00021210835161586644 0 5.386983265983573e-05 0.00022506725431657734 0 3.2659271766526872e-05 0.0002276970693813266 0 -3.0257867759775543e-05 -0.00010749330699823441 0 -3.5615690228272585e-05 -0.00011423718933489331 0 -2.5820217068860113e-05 -0.00011493730254252821 0 1.4313368077835823e-05 -2.4268195050156879e-05 0 1.3250389918650053e-05 -2.6988682714694707e-05 0 1.5970598809533207e-05 -2.7247361904899242e-05 0 8.317185882414582e-06 -2.358681434678027e-05 0 7.5593783145614828e-06 -1.9702004086336093e-05 0 6.1047386911682614e-06 -2.1650308698956277e-05 0 5.3887580312409104e-06 -1.9005524051290571e-05 0 6.1047386911682614e-06 -2.1650308698956277e-05 0 7.5593783145614828e-06 -1.9702004086336093e-05 0 1.4705053654738651e-05 -2.9744470927076261e-05 0 1.2506158246247463e-05 -2.9678126103127529e-05 0 1.3555341379266523e-05 -3.2595272202521417e-05 0 1.0994002921838439e-05 -3.0647312807877873e-05 0 1.3555341379266523e-05 -3.2595272202521417e-05 0 1.2506158246247463e-05 -2.9678126103127529e-05 0 1.5356355914331478e-05 6.4487924809259415e-06 0 1.3480829753586049e-05 4.6444153177113471e-06 0 1.4360564864674767e-05 4.8961711993985866e-06 0 3.8779298458455103e-06 1.3688795522401661e-06 0 6.1874856424336557e-07 2.9160354851845185e-06 0 6.5644991327898402e-08 7.078325813607476e-08 0 -3.6522412509031233e-06 1.5392277472056833e-06 0 6.5644991327898402e-08 7.078325813607476e-08 0 6.1874856424336557e-07 2.9160354851845185e-06 0 -2.1072517477159958e-06 1.1808398065417843e-06 0 -2.2151128997425066e-06 -6.8869258339638152e-08 0 -6.1268060049238354e-07 9.4673690683914698e-07 0 -2.8994690949349758e-05 5.1743606233212694e-05 0 -1.9743454161461992e-05 4.158596312628279e-05 0 -1.880792211100647e-05 5.3175727376956713e-05 0 -9.0299158684422546e-06 4.390818508381744e-05 0 -1.880792211100647e-05 5.3175727376956713e-05 0 -1.9743454161461992e-05 4.158596312628279e-05 0 1.2033333304728145e-05 3.7671984064134326e-06 0 1.3480829753586049e-05 4.6444153177113471e-06 0 1.3023009331508955e-05 4.6167403594229504e-06 0 2.1691704275001442e-05 -2.4320531235988556e-05 0 2.3074214141594298e-05 -2.7813361907171026e-05 0 2.5613681388944417e-05 -2.6138677541908289e-05 0 2.7524851296056583e-05 -2.9199215990091954e-05 0 2.5613681388944417e-05 -2.6138677541908289e-05 0 2.3074214141594298e-05 -2.7813361907171026e-05 0 1.1782080453777273e-05 3.5747941872224087e-06 0 1.3023009331508955e-05 4.6167403594229504e-06 0 1.3749314679596361e-05 5.3801219886111733e-06 0 -9.0248862914031683e-06 -2.2585321195739363e-05 0 -1.4475594062138424e-05 -2.1401604033774456e-05 0 -1.3926376666996884e-05 -2.6893166515284324e-05 0 -1.9035782243564536e-05 -2.5908232920893175e-05 0 -1.3926376666996884e-05 -2.6893166515284324e-05 0 -1.4475594062138424e-05 -2.1401604033774456e-05 0 9.8440718071223304e-06 2.510572686132124e-06 0 1.0545893127075028e-05 2.8422813212517075e-06 0 1.1138143073379533e-05 3.2643449891696072e-06 0 1.1782080453777273e-05 3.5747941872224087e-06 0 1.1138143073379533e-05 3.2643449891696072e-06 0 1.3023009331508955e-05 4.6167403594229504e-06 0 5.3887580312409104e-06 -1.9005524051290571e-05 0 3.4888871432124628e-06 -1.7195035121718844e-05 0 3.8580893423046117e-06 -2.0760950827032239e-05 0 2.577184364657833e-06 7.6974914362079541e-07 0 3.324798239064607e-06 -8.0820541412121083e-08 0 3.6687683692846893e-06 8.0242960692610873e-07 0 4.4953707092113802e-06 1.0217508388107652e-07 0 3.6687683692846893e-06 8.0242960692610873e-07 0 3.324798239064607e-06 -8.0820541412121083e-08 0 6.7297697297575889e-06 8.2037994566945408e-07 0 5.4212164412026396e-06 7.6655029533322679e-07 0 5.7374446167555987e-06 2.7106765252917802e-09 0 5.522440053944042e-05 0.00014136075918610969 0 4.1220703885698766e-05 0.00015173919350244716 0 4.0454780862998369e-05 0.00013678762212456858 0 -4.1571833992871933e-05 -7.2670895024348439e-05 0 -3.3817978753079524e-05 -7.6795152891979715e-05 0 -3.3948097566771842e-05 -6.8619042538422141e-05 0 -5.6423892218523152e-06 5.0389410584820488e-07 0 -4.0317816056386283e-06 3.0302602212047657e-07 0 -3.4786161663268802e-06 1.1732950894655072e-06 0 8.6255204451508325e-10 2.522948776142968e-10 0 5.9001774859523946e-07 5.6933701433621195e-07 0 6.2431931531202827e-07 4.2447954102091221e-07 0 4.3412218205767695e-05 7.8701519738036575e-05 0 3.2463947316427394e-05 8.4980041768835572e-05 0 2.923420622725638e-05 7.2151426645799372e-05 0 1.4705053654738651e-05 -2.9744470927076261e-05 0 1.5970598809533207e-05 -2.7247361904899242e-05 0 1.3250389918650053e-05 -2.6988682714694707e-05 0 -4.7911561369463582e-07 -1.6131792869437886e-06 0 6.5644991327897753e-08 7.0783258136074561e-08 0 -3.4202722624209488e-06 -6.2588728389318835e-07 0 -3.6522412509031233e-06 1.5392277472056833e-06 0 -3.4202722624209483e-06 -6.2588728389318845e-07 0 6.5644991327898402e-08 7.078325813607476e-08 0 1.2036358846538063e-06 -1.9067678444316943e-05 0 3.8580893423046117e-06 -2.0760950827032239e-05 0 3.4888871432124628e-06 -1.7195035121718844e-05 0 
</DataArray>
</PointData>
<CellData Scalars="region_id," Vectors="" Tensors="stress,">
<DataArray type="Float64" Name="region_id" format="ascii">
2 2 2 2 2 2 2 2 2 2 3 3 3 3 3 3 3 3 3 3 1 1 1 1 1 1 1 1 1 1 1 1 1 1 1 1 1 1 1 1 1 1 1 1 1 1 1 1 1 1 1 1 1 1 1 1 1 1 1 1 1 1 1 1 1 1 1 1 1 1 1 1 1 1 1 1 1 1 1 1 1 1 1 1 1 1 1 1 1 1 1 1 1 1 1 1 1 1 1 1 1 1 1 1 1 1 1 1 1 1 1 1 1 1 1 1 1 1 1 1 1 1 1 1 1 1 1 1 1 1 1 1 1 1 1 1 1 1 1 1 1 1 1 1 1 1 1 1 1 1 1 1 1 1 1 1 1 1 1 1 1 1 1 1 1 1 1 1 1 1 1 1 1 1 1 1 1 1 1 1 1 1 1 1 1 1 1 1 1 1 1 1 1 1 1 1 1 1 1 1 1 1 1 1 1 1 1 1 1 1 1 1 1 1 1 1 1 1 1 1 1 1 1 1 1 1 1 1 1 1 1 1 1 1 1 1 1 1 1 1 1 1 1 1 1 1 1 1 1 1 1 1 1 1 1 1 1 1 1 1 1 1 1 1 1 1 1 1 1 1 1 1 1 1 1 1 1 1 1 1 1 1 1 1 1 1 1 1 1 1 1 1 1 1 1 1 1 1 1 1 1 1 1 1 1 1 1 1 1 1 1 1 1 1 1 1 1 1 1 1 1 1 1 1 1 1 1 1 1 1 1 1 1 1 1 1 1 1 1 1 1 1 1 1 1 1 1 1 1 1 1 1 1 1 1 1 1 1 1 1 1 1 1 1 1 1 1 1 1 1 1 1 1 1 1 1 1 1 1 1 1 1 1 1 1 1 1 1 1 1 1 1 1 1 1 1 1 1 1 1 1 1 1 1 1 1 1 1 1 1 1 1 1 1 1 1 1 1 1 1 1 1 1 1 1 1 1 1 1 1 1 1 1 1 1 1 1 1 1 1 1 1 1 1 1 1 1 1 1 1 1 1 1 1 1 1 1 1 1 1 1 1 1 1 1 1 1 1 1 1 1 1 1 1 1 1 1 1 1 1 1 1 1 1 1 1 1 1 1 1 1 1 1 1 1 1 1 1 1 1 1 1 1 1 1 1 1 1 1 1 1 1 1 1 1 1 1 1 1 1 1 1 1 1 1 1 1 1 1 1 1 1 1 1 1 1 1 1 1 1 1 1 1 1 1 1 1 1 1 1 1 1 1 1 1 1 1 1 1 1 1 1 1 1 1 1 1 1 1 1 1 1 1 1 1 1 1 1 1 1 1 1 1 1 1 1 1 1 1 1 1 1 1 1 1 1 1 1 1 1 1 1 1 1 1 1 1 1 1 1 1 1 1 1 1 1 1 1 1 1 1 1 1 1 1 1 1 1 1 1 1 1 1 1 1 1 1 1 1 1 1 1 1 1 1 1 1 1 1 1 1 1 1 1 1 1 1 1 1 1 1 1 1 1 1 1 1 1 1 1 1 1 1 1 1 1 1 1 1 1 1 1 1 1 1 1 1 1 1 1 1 1 1 1 1 1 1 1 1 1 1 1 1 1 1 1 1 1 1 1 1 1 1 1 1 1 1 1 1 1 1 1 1 1 1 1 1 1 1 1 1 1 1 1 1 1 1 1 1 1 1 1 1 1 1 1 1 1 1 1 1 1 1 1 1 1 1 1 1 1 1 1 1 1 1 1 1 1 1 1 1 1 1 1 1 1 1 1 1 1 1 1 1 1 1 1 1 1 1 1 1 1 1 1 1 1 1 1 1 1 1 1 1 1 1 1 1 1 1 1 1 1 1 1 1 1 1 1 1 1 1 1 1 1 1 1 1 1 1 1 1 1 1 1 1 1 1 1 1 1 1 1 1 1 1 1 1 1 1 1 1 1 1 1 1 1 1 1 1 1 1 1 1 1 1 1 1 1 1 1 1 1 1 1 1 1 1 1 1 1 1 1 1 1 1 1 1 1 1 1 1 1 1 1 1 1 1 1 1 1 1 1 1 1 1 1 1 1 1 1 1 1 1 1 1 1 1 1 1 1 1 1 1 1 1 1 1 1 1 1 1 1 1 1 1 1 1 1 1 1 1 1 1 1 1 1 1 1 1 1 1 1 1 1 1 1 1 1 1 1 1 1 1 1 1 1 1 1 1 1 1 1 1 1 1 1 1 1 1 1 1 1 1 1 1 1 1 1 1 1 1 1 1 1 1 1 1 1 1 1 1 1 1 1 1 1 1 1 1 1 1 1 1 1 1 1 1 1 1 1 1 1 1 1 1 1 1 1 1 1 1 1 1 1 1 1 1 1 1 1 1 1 1 1 1 1 1 1 1 1 1 1 1 1 
</DataArray>
<DataArray type="Float64" Name="stress" NumberOfComponents="9" format="ascii">
5.2314996943875341e-05 -3.08399141893334e-05 0 -3.08399141893334e-05 1.7438332314625116e-05 0 0 0 1.7438332314625116e-05 1.4511117121781522e-05 -4.3536219540921004e-05 0 -4.3536219540921004e-05 4.8370390405938385e-06 0 0 0 4.8370390405938385e-06 2.0941806485965048e-05 -5.5900938330516291e-05 0 -5.5900938330516291e-05 6.9806021619883539e-06 0 0 0 6.9806021619883539e-06 2.2033371590306103e-05 -6.0984588427248968e-05 0 -6.0984588427248968e-05 7.3444571967687009e-06 0 0 0 7.3444571967687009e-06 2.755304225921277e-05 -5.6369814674014408e-05 0 -5.6369814674014408e-05 9.18434741973759e-06 0 0 0 9.18434741973759e-06 3.56303407917323e-05 -6.5140973385634997e-05 0 -6.5140973385634997e-05 1.187678026391078e-05 0 0 0 1.187678026391078e-05 3.8041900561416777e-05 -6.1015142816005425e-05 0 -6.1015142816005425e-05 1.2680633520472255e-05 0 0 0 1.2680633520472255e-05 6.9855871153988588e-05 -7.3144747863679272e-05 0 -7.3144747863679272e-05 2.3285290384662867e-05 0 0 0 2.3285290384662867e-05 2.2896229007993889e-05 -5.6298433990231971e-05 0 -5.6298433990231971e-05 7.6320763359979721e-06 0 0 0 7.6320763359979721e-06 0.00030368126312307008 -2.506044361445445e-05 0 -2.506044361445445e-05 0.00010122708770769 0 0 0 0.00010122708770769 0.00049902657872185631 4.9846337735517785e-05 0 4.9846337735517785e-05 0.0001663421929072854 0 0 0 0.0001663421929072854 -3.0141649353568117e-05 5.2614496856199746e-05 0 5.2614496856199746e-05 -1.004721645118939e-05 0 0 0 -1.004721645118939e-05 8.9735803744382539e-05 3.8707121039250638e-05 0 3.8707121039250638e-05 2.991193458146081e-05 0 0 0 2.991193458146081e-05 5.6852248941781174e-05 8.2167947661799905e-05 0 8.2167947661799905e-05 1.8950749647260391e-05 0 0 0 1.8950749647260391e-05 6.3380024469443107e-05 6.8623617821100076e-05 0 6.8623617821100076e-05 2.112667482314772e-05 0 0 0 2.112667482314772e-05 7.2696376407539926e-05 7.2355068367009612e-05 0 7.2355068367009612e-05 2.423212546918003e-05 0 0 0 2.423212546918003e-05 5.5869881614587381e-05 7.0540171616167524e-05 0 7.0540171616167524e-05 1.8623293871529163e-05 0 0 0 1.8623293871529163e-05 0.00016949720975830058 0.00010594257004951902 0 0.00010594257004951902 5.6499069919433472e-05 0 0 0 5.6499069919433472e-05 -0.00017439508243156975 6.0711691926216703e-05 0 6.0711691926216703e-05 -5.8131694143856547e-05 0 0 0 -5.8131694143856547e-05 0.0012624540294304426 -1.3270288463786942e-05 0 -1.3270288463786942e-05 0.00042081800981014759 0 0 0 0.00042081800981014759 0.013404101620551157 -0.0036956227613430398 0 -0.0036956227613430398 0.01344164595514577 0 0 0 0.0067114368939242327 0.016430178365471254 -0.0037055586012345546 0 -0.0037055586012345546 0.024828845884112563 0 0 0 0.010314756062395954 0.003927885801293815 -0.0031633813122669274 0 -0.0031633813122669274 0.023967080456766737 0 0 0 0.0069737415645151485 0.0035494982189924196 0.0027994195040290382 0 0.0027994195040290382 0.025040681452038846 0 0 0 0.0071475449177578129 -0.038741370170044566 -0.0073235853473924955 0 -0.0073235853473924955 0.0030747403621249267 0 0 0 -0.0089166574519799081 -0.028957999525980167 0.0042518388009969753 0 0.0042518388009969753 0.0017909729238041409 0 0 0 -0.0067917566505440062 -0.043164190998421295 -0.0053594567214630753 0 -0.0053594567214630753 -0.00040398441791889678 0 0 0 -0.010892043854085048 -0.031309439065458786 0.0031743667668697683 0 0.0031743667668697683 -0.00018500865131816646 0 0 0 -0.0078736119291942415 -0.056341245539581038 0.0032576151335129474 0 0.0032576151335129474 -0.00033516004728533855 0 0 0 -0.014169101396716592 -0.096814024613772823 -0.0075880250401888748 0 -0.0075880250401888748 -0.00045710082628354983 0 0 0 -0.024317781360014105 0.035281295755655154 -0.00022912834762334232 0 -0.00022912834762334232 -0.0054220958650900708 0 0 0 0.0074647999726412725 0.032773092508649911 -0.00047375191296690825 0 -0.00047375191296690825 -0.0051550966405889184 0 0 0 0.0069044989670152502 0.0057351153908134795 0.0079421833641742864 0 0.0079421833641742864 0.00045151039977546492 0 0 0 0.0015466564476472339 0.012578638433381166 -0.0095143645603155379 0 -0.0095143645603155379 0.0041886088442014309 0 0 0 0.0041918118193956496 0.0033431098467536103 0.0091949876592722028 0 0.0091949876592722028 0.0011130832122031983 0 0 0 0.0011140482647392024 0.0042287271708736709 -0.008678782682130147 0 -0.008678782682130147 0.017606415135733577 0 0 0 0.0054587855766518242 0.14226616130194486 0.065120961804488758 0 0.065120961804488758 0.13447949514289348 0 0 0 0.069186414111209613 0.011086877868516809 -0.0052139210298117744 0 -0.0052139210298117744 -0.0022875182120309923 0 0 0 0.0021998399141216485 0.01831271552781466 0.011097284390218176 0 0.011097284390218176 3.8324203631923126e-05 0 0 0 0.0045877599328614238 0.019230045194470691 0.005668433932990739 0 0.005668433932990739 0.0027903132037199185 0 0 0 0.0055050895995476523 0.011462287190213472 -0.007818342927705715 0 -0.007818342927705715 -0.0011612902468174369 0 0 0 0.0025752492358490642 0.019862990564620042 0.015504778526644669 0 0.015504778526644669 0.0040664968594739115 0 0 0 0.0059823718560231276 0.01133174676411719 -0.011769856881937102 0 -0.011769856881937102 0.0042523134773763127 0 0 0 0.0038960150603734034 0.0087939900883297478 0.009260923411085184 0 0.009260923411085184 0.00023749902940056397 0 0 0 0.0022578722794325779 0.15031796912743395 -0.0075363547012168713 0 -0.0075363547012168713 0.080517897167521446 0 0 0 0.057708966573738821 -0.13189373731105469 0.0063705376621988608 0 0.0063705376621988608 0.0046938742413834555 0 0 0 -0.031799965767417837 -0.07184357010523279 -0.0020050967165793337 0 -0.0020050967165793337 0.0017745471550555392 0 0 0 -0.017517255737544313 -0.018291137972633084 -0.010911333639693632 0 -0.010911333639693632 0.014336917248034042 0 0 0 -0.00098855518114976393 -0.032746511584525323 0.0074182282145890633 0 0.0074182282145890633 0.037916809363460424 0 0 0 0.0012925744447337961 -0.036786630330132776 -0.018874042635737165 0 -0.018874042635737165 0.0047003570577779218 0 0 0 -0.0080215683180887114 0.018978172684359081 -0.0088884670024187255 0 -0.0088884670024187255 0.032314638471715049 0 0 0 0.012823202789018519 0.0052453171969049639 -0.016246602289977929 0 -0.016246602289977929 0.0053283072570164403 0 0 0 0.0026434061134804065 0.017594718274458077 0.020814683301499826 0 0.020814683301499826 0.0034757802814533445 0 0 0 0.0052676246389778414 0.013906802581404643 -0.01843820746258118 0 -0.01843820746258118 0.0066258067681763677 0 0 0 0.0051331523373952526 -0.0010154977990446401 0.026077508123839577 0 0.026077508123839577 -0.0005617531882786686 0 0 0 -0.00039431274683066064 -0.014116980375069726 -0.023349252002659714 0 -0.023349252002659714 0.0017143175114852065 0 0 0 -0.0031006657158961282 0.036245353241235304 -0.023719421090753097 0 -0.023719421090753097 0.041825329535900964 0 0 0 0.019517670694284062 -0.043106162832696041 0.00018672482759780895 0 0.00018672482759780895 0.0086288788838130848 0 0 0 -0.0086193209872207216 0.23297035763874507 0.070044783442997749 0 0.070044783442997749 0.053439376625598722 0 0 0 0.071602433566085921 0.065353241286097541 0.0020854906921403682 0 0.0020854906921403682 0.013255991116713606 0 0 0 0.019652308100702787 0.10133478529078388 -0.0041368415626306526 0 -0.0041368415626306526 0.040508126552557311 0 0 0 0.035460727960835214 0.024085331977604093 -0.010536967313105957 0 -0.010536967313105957 0.049695630826077725 0 0 0 0.018445240700920445 0.068013282861004387 -0.0034573148070754511 0 -0.0034573148070754511 0.058682387268743863 0 0 0 0.031673917532436979 -0.0061679207030040928 0.0054826951654738387 0 0.0054826951654738387 -9.7329305996929349e-05 0 0 0 -0.0015663125022498114 0.019728109863011059 -0.0063750694608154298 0 -0.0063750694608154298 -0.00084016877667883461 0 0 0 0.004721985271583057 0.011695295437733257 0.0097456389831263521 0 0.0097456389831263521 0.001292893703958322 0 0 0 0.0032470472854228948 -0.0055856151502915695 0.034044828356966816 0 0.034044828356966816 0.039580324927606311 0 0 0 0.0084986774443286707 0.0028464666038846356 0.026230783043286382 0 0.026230783043286382 0.028439116899460826 0 0 0 0.0078213958758363358 0.13710369839488251 0.089224377099522856 0 0.089224377099522856 0.15650900709580939 0 0 0 0.073403176372673004 -0.0093888192588948566 0.0097074217217436587 0 0.0097074217217436587 0.0038362958515839596 0 0 0 -0.0013881308518277208 0.051149767479958405 -0.015195266776010463 0 -0.015195266776010463 0.043653023234000055 0 0 0 0.023700697678489629 0.027328168106654671 0.0039594361343109619 0 0.0039594361343109619 0.0011170809133825843 0 0 0 0.0071113122550093277 0.019894507581917093 -0.0091334211134861815 0 -0.0091334211134861815 0.038287177087944373 0 0 0 0.014545421167465373 0.025572321943232848 -0.012575177379826642 0 -0.012575177379826642 0.0073205658544366892 0 0 0 0.0082232219494173808 0.043083490655721229 0.0014734810334147141 0 0.0014734810334147141 0.01361576990517277 0 0 0 0.014174815140223451 -0.064124848150805935 0.0099768813933422962 0 0.0099768813933422962 -0.00066791699309565189 0 0 0 -0.016198191285975383 -0.0071991378236926362 -0.0063424099034998793 0 -0.0063424099034998793 0.0024483889017037352 0 0 0 -0.0011876872304971142 0.096088201194688416 0.015839546177950581 0 0.015839546177950581 0.084124574925314999 0 0 0 0.045053194030000521 0.085165646920137172 -0.010859917835564059 0 -0.010859917835564059 0.069755017241289741 0 0 0 0.038730166040356728 -0.0074811864877175616 0.0051863049933206472 0 0.0051863049933206472 0.0033634576238661396 0 0 0 -0.0010294322159625224 0.02384874279487037 -0.0095690483793077485 0 -0.0095690483793077485 0.0063539846899570707 0 0 0 0.0075506818712067769 0.042525495300809901 -0.034124601791513609 0 -0.034124601791513609 0.062020777200672131 0 0 0 0.026136568125370494 0.020230019403313926 -0.0071801234607714176 0 -0.0071801234607714176 0.0062155233920997421 0 0 0 0.0066113856988534447 0.036357121038140039 -0.0022911923330201887 0 -0.0022911923330201887 0.0046838405842075659 0 0 0 0.010260240405586873 -0.0024895057477329341 -0.017714556523504271 0 -0.017714556523504271 0.006985710366353981 0 0 0 0.0011240511546552479 -0.024749677234810308 0.0058963136933070067 0 0.0058963136933070067 -0.0021473127492500493 0 0 0 -0.0067242474960150875 -0.032206946042839545 -0.010113329738900364 0 -0.010113329738900364 -0.002877495111301847 0 0 0 -0.008771110288535347 0.03967358887755193 -0.011162186444002797 0 -0.011162186444002797 -0.01290186653437294 0 0 0 0.0066929305857947059 0.060066272602266713 0.014429917858736152 0 0.014429917858736152 0.0062119069264570115 0 0 0 0.016569544882180931 -0.016086212858015536 -0.014055967286500663 0 -0.014055967286500663 -0.0041057937031943811 0 0 0 -0.0050480016403024776 -0.015463628364379936 0.0091759585925738404 0 0.0091759585925738404 -0.0028787677499248973 0 0 0 -0.0045855990285762075 0.029251588025474527 -0.0033455770170224054 0 -0.0033455770170224054 -0.0041917285650176217 0 0 0 0.0062649648651142325 -0.031532237647367928 0.0051928470513000046 0 0.0051928470513000046 0.0012736347092283178 0 0 0 -0.0075646507345349069 -0.043149335962377786 -0.0092312766089926931 0 -0.0092312766089926931 0.0022608516264698356 0 0 0 -0.010222121083976988 0.028569024077126678 -0.008528417196578271 0 -0.008528417196578271 0.0017261371253107227 0 0 0 0.0075737903006093676 0.026408190295754037 -0.012230204331697692 0 -0.012230204331697692 0.0075143222638771046 0 0 0 0.0084806281399077768 0.11555537877425393 -0.0035393702462034327 0 -0.0035393702462034327 0.10709460778569824 0 0 0 0.055662496639988235 -0.0049639182018258871 -0.0038179667160482822 0 -0.0038179667160482822 -0.00039661974290722268 0 0 0 -0.0013401344861833503 0.026175950173053297 -0.0093846273014104656 0 -0.0093846273014104656 0.00036262227562366967 0 0 0 0.006634643112169214 0.028218594071727852 0.0027275250365199899 0 0.0027275250365199899 0.0071694208180455299 0 0 0 0.0088470037224433959 -0.011028446035756145 0.030132359157677424 0 0.030132359157677424 0.0025055738420696194 0 0 0 -0.002130718048421576 -0.025604124690253471 -0.010790080358980388 0 -0.010790080358980388 -0.0085381675083260247 0 0 0 -0.0085355730496448727 -0.020998078853645616 0.0068170102336919738 0 0.0068170102336919738 -0.0070014364718446968 0 0 0 -0.0069998788313725795 0.023199693307358969 -0.0077444169882574625 0 -0.0077444169882574625 -0.00810771425434317 0 0 0 0.0037729947632539457 0.022891052980267945 0.012943243029366114 0 0.012943243029366114 0.012028281408052788 0 0 0 0.0087298335970800167 0.010479491581865452 -0.011895413558766443 0 -0.011895413558766443 0.0016131162524057885 0 0 0 0.0030231519585678379 0.010752841423411954 -0.014707743772585713 0 -0.014707743772585713 0.0055656921340083362 0 0 0 0.0040796333893550439 0.02817409062601128 0.0030488259556806811 0 0.0030488259556806811 -0.0022300554171163947 0 0 0 0.006486008802223716 0.0017277378022141519 -0.016064750771043679 0 -0.016064750771043679 -0.0043060649014810791 0 0 0 -0.00064458177481673071 0.036111457054995855 0.0012034650628172936 0 0.0012034650628172936 0.006772099697591738 0 0 0 0.010720889188146898 0.032229451299638771 0.0033924665629851609 0 0.0033924665629851609 -0.00082241364475245556 0 0 0 0.0078517594137215742 0.026069113036524302 0.005496294215531326 0 0.005496294215531326 -0.00011105754039796717 0 0 0 0.0064895138740315838 0.025148605228642377 0.0049947752203392893 0 0.0049947752203392893 0.001444961060497043 0 0 0 0.0066483915722848523 0.028036241600508174 -0.0085539070947385498 0 -0.0085539070947385498 0.016037076767928427 0 0 0 0.011018329592109175 0.032352222909106609 -0.01710111493494347 0 -0.01710111493494347 0.019336157932653725 0 0 0 0.01292209521044009 0.031834518164777059 0.0012573422866657968 0 0.0012573422866657968 0.007110680065357089 0 0 0 0.0097362995575335787 0.023688225935200834 -0.011053217635211422 0 -0.011053217635211422 0.050560696842276293 0 0 0 0.018562230694369276 0.14812412282160481 0.010151514892829727 0 0.010151514892829727 0.12640099829201112 0 0 0 0.068631280278403928 -0.0048688270651834342 -0.0033009936184947852 0 -0.0033009936184947852 0.0020259490284941784 0 0 0 -0.00071071950917245275 -0.012990918737633472 -0.0039693614055128076 0 -0.0039693614055128076 -0.00068174264824394371 0 0 0 -0.0034181653464693262 0.12737316077913086 -0.00070026213151019867 0 -0.00070026213151019867 0.11947868558910901 0 0 0 0.061712961592059967 0.033492031681645926 0.014586796749611428 0 0.014586796749611428 0.065836719218014927 0 0 0 0.024832187724915213 0.018087546302651657 0.0076299962439386783 0 0.0076299962439386783 0.00052001306419609955 0 0 0 0.0046518898417119373 0.013472558431744469 0.0078850810783227844 0 0.0078850810783227844 0.00087143313280878265 0 0 0 0.0035859978911383164 0.076069819760800073 0.01579126494994687 0 0.01579126494994687 0.026751203668241352 0 0 0 0.025705255857260356 0.066501883020441355 0.022583198366104007 0 0.022583198366104007 0.023566042405195553 0 0 0 0.022516981356409338 0.027052554375269836 -0.017220478948461938 0 -0.017220478948461938 0.018668958288375032 0 0 0 0.01143037816591122 0.026745670003990529 0.0060848706945629827 0 0.0060848706945629827 -0.01428469535951038 0 0 0 0.0031152436611200651 0.018197198784248025 -0.0067329854762124101 0 -0.0067329854762124101 -0.022149743930621857 0 0 0 -0.00098813628659344399 0.023427326386023122 0.0083613936571819061 0 0.0083613936571819061 0.042981585733619404 0 0 0 0.016602228029910619 -0.019565218048685162 0.0058502615211477255 0 0.0058502615211477255 -0.00069835358762748712 0 0 0 -0.0050658929090781069 0.070130990018734907 -0.0052936278158803862 0 -0.0052936278158803862 0.064422865052800926 0 0 0 0.033638463767884041 -0.047728265359175202 0.0028862002280202895 0 0.0028862002280202895 0.00070491090876420321 0 0 0 -0.011755838612602751 -0.077094677159964042 -0.0069656273107985729 0 -0.0069656273107985729 0.00093982135715748455 0 0 0 -0.019038713950701606 0.043982527725202933 -0.015354579565685519 0 -0.015354579565685519 0.0081753342892457725 0 0 0 0.01303946550361218 0.10268575385103049 -0.032364631925730497 0 -0.032364631925730497 0.030888254113391911 0 0 0 0.033393501991105606 0.034931274701125281 -0.0076631913008948227 0 -0.0076631913008948227 0.0016684676010979005 0 0 0 0.0091499355755557676 0.0342800163709161 -0.012105493848835691 0 -0.012105493848835691 0.0050512706552391373 0 0 0 0.0098328217565388232 0.023281266440829049 -0.0032443583973209567 0 -0.0032443583973209567 -0.0067787782137720817 0 0 0 0.0041256220567643526 0.0069611507432671971 0.0050762560407109358 0 0.0050762560407109358 -0.01270852819346846 0 0 0 -0.0014368443625500937 0.0367466345384726 0.0034440325661859728 0 0.0034440325661859728 -0.0061546025014331818 0 0 0 0.007648008009259577 0.0039414698667889717 -0.0038960342155053285 0 -0.0038960342155053285 -0.0093374787103355106 0 0 0 -0.0013490022108865512 0.0029464490845086122 0.013198282830122449 0 0.013198282830122449 0.051493094469028278 0 0 0 0.013609885888384216 0.019610027448682232 -0.010577365968885713 0 -0.010577365968885713 0.0066457285600416971 0 0 0 0.0065639390021809962 0.036759878983118596 -0.0050281438099449849 0 -0.0050281438099449849 0.0026990165804161304 0 0 0 0.0098647238908837025 0.032244963191780718 -0.0041206065007918513 0 -0.0041206065007918513 0.0027033464863326154 0 0 0 0.0087370774195283142 0.029173056118410035 -0.016237831218759324 0 -0.016237831218759324 0.0098851057390016983 0 0 0 0.0097645404643528777 -0.087990557640169137 0.011365527016315768 0 0.011365527016315768 0.0022380184468597797 0 0 0 -0.021438134798327318 -0.013327809055870311 0.0051855278540932845 0 0.0051855278540932845 0.012078864674959361 0 0 0 -0.00031223609522772894 -0.0043610726158577612 -0.00055008589709931721 0 -0.00055008589709931721 0.010941446456807946 0 0 0 0.0016450934602375497 0.019840246999022287 -0.0056262350077515011 0 -0.0056262350077515011 -0.0051291082379421593 0 0 0 0.0036777846902700528 -0.06622678943707605 0.019064816038949994 0 0.019064816038949994 0.0016999414755907161 0 0 0 -0.016131711990371222 -0.037865067120315385 0.0078577314497182693 0 0.0078577314497182693 0.0032544893502032268 0 0 0 -0.0086526444425280291 -0.041357265964573613 0.0014137206883301223 0 0.0014137206883301223 0.0028237508504223297 0 0 0 -0.0096333787785378017 -0.069612852588918722 -0.0052882148574771859 0 -0.0052882148574771859 0.006501987021831579 0 0 0 -0.015777716391771779 -0.062348869077392469 -0.018794672367359641 0 -0.018794672367359641 0.0079659272696902816 0 0 0 -0.013595735451925564 0.020106417415095213 -0.0094352630451851327 0 -0.0094352630451851327 0.0059305947444535378 0 0 0 0.0065092530398871591 -0.051887829958637624 -0.0047133413672050956 0 -0.0047133413672050956 0.0012951301335619725 0 0 0 -0.012648174956268896 0.074460155574121833 0.039869710177414364 0 0.039869710177414364 0.017841180473183949 0 0 0 0.023075334011826487 0.014595230591654346 -0.006650319983565349 0 -0.006650319983565349 0.035611336939634981 0 0 0 0.012551641882822333 0.034742445566037491 0.011465464475858663 0 0.011465464475858663 0.013122873579592843 0 0 0 0.011966329786407583 -0.013881958319128973 0.018861143074446973 0 0.018861143074446973 0.0010493587981059704 0 0 0 -0.0032081498802558617 0.029682143278661616 -0.016543490078979706 0 -0.016543490078979706 0.014326756293262521 0 0 0 0.011002224892981055 0.032761889369837323 -0.016857003591379233 0 -0.016857003591379233 0.020577455976196847 0 0 0 0.013334836336508553 0.015728836295888393 -0.0057722926490392512 0 -0.0057722926490392512 -0.0059865866578228122 0 0 0 0.002435562409516423 0.029656628152814196 -0.004733329857059293 0 -0.004733329857059293 0.0023604076603546686 0 0 0 0.0080042589532922231 0.013541348822535828 -0.010627120202529369 0 -0.010627120202529369 -0.0028251892136768528 0 0 0 0.0026790399022147433 0.0058801704698161301 0.0109953124746181 0 0.0109953124746181 0.00034056161281346281 0 0 0 0.0015551830206573993 0.013143254109452215 -0.018999003091842548 0 -0.018999003091842548 0.011609845480995321 0 0 0 0.0061882748976118916 2.3943652403948801e-05 -0.021481980762997302 0 -0.021481980762997302 -0.0034341427239136593 0 0 0 -0.00085254976787742243 -0.015292439157511439 -0.013446996344069585 0 -0.013446996344069585 0.014692241865446487 0 0 0 -0.00015004932301626583 0.026754102500682449 -0.0031999435813075275 0 -0.0031999435813075275 -0.0040428731240560924 0 0 0 0.0056778073441565895 0.028438566826765148 -0.0010369115480473963 0 -0.0010369115480473963 -0.00067279681534721143 0 0 0 0.0069414425028544828 0.018197236188851652 0.0067724472701145514 0 0.0067724472701145514 0.0014667736594126297 0 0 0 0.0049160024620660695 0.017637991032677085 0.0079800666015198626 0 0.0079800666015198626 0.00023709900957943897 0 0 0 0.004468772510564132 -0.0066613338562728358 -0.018755085148271386 0 -0.018755085148271386 0.014633482833032577 0 0 0 0.0019930372441899387 0.029762955700237913 0.0099249790055151825 0 0.0099249790055151825 0.012121152229384025 0 0 0 0.010471026982405479 0.033987058432074349 -0.0052055612215776417 0 -0.0052055612215776417 -0.0065625301850661087 0 0 0 0.0068561320617520592 0.016882959853833663 -0.019755676546190103 0 -0.019755676546190103 -0.0045586110035207537 0 0 0 0.0030810872125782282 0.028055021465810917 0.012389191648188923 0 0.012389191648188923 0.034433288706150686 0 0 0 0.015622077542990401 0.0078376868102042942 0.0050710857364442774 0 0.0050710857364442774 0.0028281125272400162 0 0 0 0.0026664498343610763 0.010318239123686788 0.0064598612336260819 0 0.0064598612336260819 0.0049508442993630442 0 0 0 0.0038172708557624585 -0.025599099451923058 -0.010794031593808666 0 -0.010794031593808666 -0.0085220400850678345 0 0 0 -0.0085302848842477227 -0.020994748999548569 0.0068204803328030363 0 0.0068204803328030363 -0.006990532101147859 0 0 0 -0.0069963202751741078 0.12305814765470048 0.019322252510351579 0 0.019322252510351579 0.031005637981034936 0 0 0 0.038515946408933757 0.018786637421124457 0.0067155154242293765 0 0.0067155154242293765 0.0032488558840227597 0 0 0 0.0055088733262868058 0.0066953660851948107 -0.0036303051988616228 0 -0.0036303051988616228 0.040851439461731032 0 0 0 0.011886701386731459 0.016656190036912849 -0.0022001266608071002 0 -0.0022001266608071002 -0.016272819266140326 0 0 0 9.5842692693165477e-05 -0.041350035846834117 0.0041610991662599925 0 0.0041610991662599925 0.0011737516957053881 0 0 0 -0.01004407103778219 -0.065697066653345362 -0.007935115368156432 0 -0.007935115368156432 0.0011263728151360358 0 0 0 -0.016142673459552337 0.02159169268996336 -0.0038226212012086591 0 -0.0038226212012086591 0.00091951134984882832 0 0 0 0.005627801009953054 -0.032084778180339786 0.0090657316516503904 0 0.0090657316516503904 0.00099219491828460662 0 0 0 -0.0077731458155137993 -0.033489852009029826 -0.024954572198129625 0 -0.024954572198129625 -0.0015181044811562391 0 0 0 -0.0087519891225465198 -0.036040007514149992 0.006025529873626363 0 0.006025529873626363 -0.00036178905639538007 0 0 0 -0.0091004491426363403 -0.0030499031198817717 0.0081172198747025918 0 0.0081172198747025918 0.00071358109532697117 0 0 0 -0.00058408050613869839 0.012938246085122174 -0.01360557066592636 0 -0.01360557066592636 -0.0043805666620392522 0 0 0 0.0021394198557707321 -0.010183650014500844 -0.021100967017528248 0 -0.021100967017528248 0.0050118152502159341 0 0 0 -0.0012929586910712214 0.017534599697093589 -0.0099833277533324105 0 -0.0099833277533324105 0.0057163599793508824 0 0 0 0.005812739919111104 0.061022381810180271 0.013269962100498578 0 0.013269962100498578 0.030015074596366986 0 0 0 0.022759364101636814 -0.011442830014788186 -0.011351190483917889 0 -0.011351190483917889 -0.00010136349754708007 0 0 0 -0.0028860483780838164 0.025477226803148588 -0.0039880672722811938 0 -0.0039880672722811938 0.0014337137176361628 0 0 0 0.0067277351301961857 0.013632260321745134 0.0072791908658856753 0 0.0072791908658856753 0.0024001891424669519 0 0 0 0.0040081123660530224 0.0058582067757013551 -0.013624787975738975 0 -0.013624787975738975 -0.0034732156646474083 0 0 0 0.0005962477777634867 -0.00039618181403824546 0.011609007316372837 0 0.011609007316372837 -0.00088202305241954701 0 0 0 -0.00031955121661444812 0.0097359599024286481 -0.0040365080856612778 0 -0.0040365080856612778 0.010671538427579452 0 0 0 0.0051018745825020251 0.0085757320573198667 -0.010783045791098893 0 -0.010783045791098893 0.012913405970118044 0 0 0 0.0053722845068594829 0.0040149557928271795 0.03209340428421685 0 0.03209340428421685 0.0092238638427604158 0 0 0 0.0033097049088968156 0.044891668073298641 0.048018870093455207 0 0.048018870093455207 0.029619537995806966 0 0 0 0.018627801517276443 0.081516648706244588 -0.0032356445905378992 0 -0.0032356445905378992 0.030744283419490745 0 0 0 0.028065233031433851 0.004435474671234646 -0.0015471917033548326 0 -0.0015471917033548326 0.033030910083537306 0 0 0 0.0093665961886929897 0.029897516980164903 0.0019751727499571752 0 0.0019751727499571752 -0.0038087942409395659 0 0 0 0.0065221806848063356 0.0188389011820293 -0.010646218337091326 0 -0.010646218337091326 0.0024927266245579616 0 0 0 0.005332906951646843 -0.01003652668226851 0.027063075253542124 0 0.027063075253542124 -0.00050407168035571104 0 0 0 -0.0026351495906561384 0.032737066568027273 -0.0098618922434026562 0 -0.0098618922434026562 0.030757963019904855 0 0 0 0.015873757396983046 0.018442844369636308 0.00020419599450921533 0 0.00020419599450921533 -8.6226619871010435e-05 0 0 0 0.0045891544374413173 0.011387192636749432 0.007509446698630684 0 0.007509446698630684 0.00043379090234562517 0 0 0 0.0029552458847737668 -0.01283209258281709 0.0012745428110725598 0 0.0012745428110725598 0.030118381568219998 0 0 0 0.0043215722463507689 -0.039110305380719343 0.0025010354072839444 0 0.0025010354072839444 -0.0012804663276583042 0 0 0 -0.010097692927094414 -0.056716300369988641 -0.0043947873495869729 0 -0.0043947873495869729 -0.0023906995558651903 0 0 0 -0.01477674998146346 0.036813273567507396 -0.0086877336571256417 0 -0.0086877336571256417 0.0025904957339057955 0 0 0 0.0098509423253532735 -0.0068346826419211082 0.0087689701410947653 0 0.0087689701410947653 -0.00031833782438623476 0 0 0 -0.001788255116576834 0.0006305330005071815 -0.01222347204665122 0 -0.01222347204665122 -0.0047650174642972117 0 0 0 -0.0010336211159475057 -0.097816500423190969 -0.0016570289063894961 0 -0.0016570289063894961 0.0039400899782145449 0 0 0 -0.023469102611244047 -0.054812063302445257 0.0011971787976359366 0 0.0011971787976359366 0.0012723216744144478 0 0 0 -0.013384935407007692 0.057677847432035904 0.011756239774376426 0 0.011756239774376426 0.073762494219270419 0 0 0 0.03286008541282661 0.098932574863270034 -0.003414914281180001 0 -0.003414914281180001 0.18790056930294166 0 0 0 0.071708286041552882 0.0083240688478765854 -0.019516971534628558 0 -0.019516971534628558 0.013083404035048318 0 0 0 0.0053518682207312415 -0.005697938085143725 -0.015461612780048872 0 -0.015461612780048872 0.0098570389464778807 0 0 0 0.0010397752153335632 0.03618470515884728 -0.021533428472619978 0 -0.021533428472619978 0.035550743980314471 0 0 0 0.017933862284790436 0.0093489693508887473 -0.0055104241057953862 0 -0.0055104241057953862 -0.021320815178569485 0 0 0 -0.0029929614569201846 0.028425721899696235 -0.00289693437880492 0 -0.00289693437880492 -0.0066629916933216874 0 0 0 0.0054406825515936315 -0.020827120997909288 0.00076722733965879641 0 0.00076722733965879641 0.0073631846862245443 0 0 0 -0.0033659840779211858 0.018316058156023052 -0.0031255626879864509 0 -0.0031255626879864509 -0.029655742630433357 0 0 0 -0.0028349211186025625 -0.082116552591293371 0.0062760893947450547 0 0.0062760893947450547 0.0012460147833997792 0 0 0 -0.020217634451973342 -3.7829420757695686e-05 0.016243202647564736 0 0.016243202647564736 0.0019697703425376467 0 0 0 0.00048298523044487673 0.020625666578800383 -0.014567806331889366 0 -0.014567806331889366 0.012681367581902414 0 0 0 0.0083267585401757271 0.021177878032258998 0.0065009352930874183 0 0.0065009352930874183 0.010310542030307193 0 0 0 0.0078721050156415531 0.0031949544513370509 -0.0082921050386049605 0 -0.0082921050386049605 0.012623645722281585 0 0 0 0.003954650043404645 0.033864766837408203 0.0064671994651419682 0 0.0064671994651419682 0.00092908202329320885 0 0 0 0.0086984622151753399 0.037337614259982027 0.0086125424751900791 0 0.0086125424751900791 0.0050228009932977435 0 0 0 0.010590103813319951 -0.011786976384911114 -0.019651684418570577 0 -0.019651684418570577 -0.0019839660960863439 0 0 0 -0.0034427356202493611 -0.0034772905018590761 -0.015397447574497347 0 -0.015397447574497347 0.0026580114078599282 0 0 0 -0.00020481977349973146 -0.040972172548201888 -0.015678992914704148 0 -0.015678992914704148 -0.004218488930559372 0 0 0 -0.011297665369690301 0.02184230924208419 0.028143498110182574 0 0.028143498110182574 0.0050730498076205777 0 0 0 0.0067288397624261087 0.017980834769065472 0.024926701167650278 0 0.024926701167650278 0.0043318437648901809 0 0 0 0.0055781696334889427 0.017002034568944557 0.026152195320114702 0 0.026152195320114702 0.0035354012927446554 0 0 0 0.0051343589654222477 -0.00020383249471234155 -0.018179961879912776 0 -0.018179961879912776 0.0040124207648992716 0 0 0 0.00095214706754676026 -0.0032389060948798468 -0.014002311578582172 0 -0.014002311578582172 0.002791820473533331 0 0 0 -0.00011177140533661506 0.083720229789329859 0.023130637852708542 0 0.023130637852708542 0.038709656779785995 0 0 0 0.030607471642278977 0.02515083761145432 -0.0031311063760980813 0 -0.0031311063760980813 0.0083763096816098712 0 0 0 0.0083817868232660461 0.016230507912217727 0.0073683606357411897 0 0.0073683606357411897 0.0054069574944256007 0 0 0 0.0054093663516608329 0.021741956369357267 0.0070265537189334645 0 0.0070265537189334645 0.0039525732341444582 0 0 0 0.0064236324008754347 0.03231586968900281 -0.0059434805252236156 0 -0.0059434805252236156 0.054058889996973336 0 0 0 0.021593689921494047 -0.022373813582969054 -0.022597840741750658 0 -0.022597840741750658 -0.0018917038764162536 0 0 0 -0.006066379364846327 0.023740509186119186 0.0031617954560784526 0 0.0031617954560784526 0.0024824408568549384 0 0 0 0.0065557375107435307 -0.058689430785452669 -0.0057945617956967344 0 -0.0057945617956967344 -0.0034334419012597077 0 0 0 -0.015530718171678089 -0.039074319901323193 0.002911507396476172 0 0.002911507396476172 -0.0015896250016628026 0 0 0 -0.010165986225746503 -0.048065619131224646 -0.0016877765936270522 0 -0.0016877765936270522 0.0011928991065197625 0 0 0 -0.011718180006176249 0.022095859179608102 0.0062748753896156671 0 0.0062748753896156671 0.00028546195478729164 0 0 0 0.0055953302835988501 0.023028429858498699 -0.0087368824430168468 0 -0.0087368824430168468 0.016916738853197499 0 0 0 0.0099862921779240929 0.023317152366260398 0.0093758089208900025 0 0.0093758089208900025 0.024128903279991974 0 0 0 0.011861513911563098 0.045790072997761763 0.02760978814442272 0 0.02760978814442272 0.0072057772954548099 0 0 0 0.013248962573304251 0.031902933603976905 0.0011165985935690109 0 0.0011165985935690109 -0.0024639101375401166 0 0 0 0.0073597558666091993 0.0038597163184754812 0.014937306527881833 0 0.014937306527881833 0.0018546672756061255 0 0 0 0.0014285958985205127 0.021342807321440005 -0.012611770978882553 0 -0.012611770978882553 0.0070049246248458097 0 0 0 0.0070869329865713704 0.022257382778932831 0.0067011807775421948 0 0.0067011807775421948 0.00026714278116733367 0 0 0 0.0056311313900250445 0.014986426541955086 0.0045291810694552646 0 0.0045291810694552646 0.031466155078021453 0 0 0 0.011613145404994137 0.044791715799680665 0.011285972843591952 0 0.011285972843591952 0.013855602311072523 0 0 0 0.014661829527688131 0.0037310717616454436 0.011280515795917712 0 0.011280515795917712 -0.0031131646655904177 0 0 0 0.00015447677401358995 0.0014422362133417188 -0.0086299397013822055 0 -0.0086299397013822055 -0.0040496745951861257 0 0 0 -0.0006518595954609907 0.027422240848290702 -0.010319676670724531 0 -0.010319676670724531 0.0063680619130590532 0 0 0 0.0084475756903373833 -0.037295684549948097 -0.0069173706001598029 0 -0.0069173706001598029 0.01546498336069832 0 0 0 -0.0054576752973124476 -0.027744880331708827 -0.0087407277727960808 0 -0.0087407277727960808 0.0050943514697312786 0 0 0 -0.0056626322154944286 -0.039842740745399924 -0.0089907158154597377 0 -0.0089907158154597377 0.0051984001541821034 0 0 0 -0.008661085147804462 -0.063701716393798291 0.02275442525907595 0 0.02275442525907595 0.012979295194523788 0 0 0 -0.012680605299818626 -0.039619522448003985 0.022065088289644263 0 0.022065088289644263 0.012548104695893958 0 0 0 -0.0067678544380275207 0.0126483920407596 0.0070783663719756022 0 0.0070783663719756022 0.0003307967433941756 0 0 0 0.0032447971960384409 0.13078344542170553 0.021476160199351543 0 0.021476160199351543 0.030873802866270283 0 0 0 0.04041431207199403 -0.013568363524895816 -0.01380023476006635 0 -0.01380023476006635 -0.0048848560936967343 0 0 0 -0.004613304904648138 -0.014717186127577615 0.0088504922031445374 0 0.0088504922031445374 -0.0015055917528818928 0 0 0 -0.004055694470114877 0.010244293360314067 -0.0047545793541616636 0 -0.0047545793541616636 0.023788418157889953 0 0 0 0.0085081778795510019 -0.0011958240321256119 0.01002857450111753 0 0.01002857450111753 -0.0008134177313746712 0 0 0 -0.00050231044087507056 0.0091861450542371284 -0.014453499751026017 0 -0.014453499751026017 -0.0086191081350185036 0 0 0 0.00014175922980465619 -0.044060724893214304 -0.019179347527820099 0 -0.019179347527820099 0.0011646729710249812 0 0 0 -0.010724012980547327 -0.044347773686049093 -0.018049264699426738 0 -0.018049264699426738 -0.0009319636137790242 0 0 0 -0.01131993432495703 0.050763811543202531 0.018558824669350216 0 0.018558824669350216 0.029113401176893206 0 0 0 0.019969303180024101 -0.0012369527913648204 -0.012408197609594579 0 -0.012408197609594579 0.0026093396876576413 0 0 0 0.00034309672407317748 0.045162290563066816 0.00057733615283006579 0 0.00057733615283006579 -0.038203454870845019 0 0 0 0.0017397089230554207 0.029348016151945822 -0.00084726463972473187 0 -0.00084726463972473187 -0.044008894673996379 0 0 0 -0.0036652196305126394 -0.00069578416635385568 0.0071615204321389611 0 0.0071615204321389611 0.0027908852513661014 0 0 0 0.00052377527125306057 0.053179531134104813 -0.0078645767678483525 0 -0.0078645767678483525 0.056551883300996142 0 0 0 0.027432853608775259 0.094291659102960057 0.0059742393978164665 0 0.0059742393978164665 0.10460606546242407 0 0 0 0.049724431141346059 0.04175368586271528 0.0083107747910912133 0 0.0083107747910912133 0.014525243475793165 0 0 0 0.01406973233462711 -0.035660129863265534 -0.0017285026304335836 0 -0.0017285026304335836 0.0054985938655491839 0 0 0 -0.0075403839994290858 0.01190706772370223 0.0014395678080081353 0 0.0014395678080081353 -0.035243725178996654 0 0 0 -0.0058341643638236129 -0.04417886725339714 -0.025598761746311066 0 -0.025598761746311066 0.0044161417262058855 0 0 0 -0.0099406813817978154 0.021496367595358969 0.0059795899688898178 0 0.0059795899688898178 0.0087364547664781529 0 0 0 0.0075582055904592771 -0.0098005150343167535 -0.013851945055330411 0 -0.013851945055330411 0.015536520122128195 0 0 0 0.0014340012719528672 -0.0056452795812538814 -0.0097823855130167725 0 -0.0097823855130167725 0.013379709567168219 0 0 0 0.0019336074964786121 -0.0025060205176394186 0.0097166365808337273 0 0.0097166365808337273 0.00034417380842467066 0 0 0 -0.00054046167730368612 -0.025030759898203886 -0.0058490323567327168 0 -0.0058490323567327168 0.0081543988959981162 0 0 0 -0.0042190902505514494 -0.0078184105589778896 0.0075608139100479385 0 0.0075608139100479385 0.0016010483899524183 0 0 0 -0.0015543405422563661 0.013974998321750687 -0.015000654226168066 0 -0.015000654226168066 -0.0098348739503393567 0 0 0 0.0010350310928528318 -0.038913610094657311 -0.00078218520755279908 0 -0.00078218520755279908 0.0064209702012101855 0 0 0 -0.0081231599733617571 -0.068457695272052005 0.0023253045646258741 0 0.0023253045646258741 0.022319426325096786 0 0 0 -0.011534567236738791 -0.015236545994749979 -0.014864357435089681 0 -0.014864357435089681 -0.0020293572138529586 0 0 0 -0.0043164758021507332 -0.014691369987457879 0.010071259075637181 0 0.010071259075637181 -0.0010937620554841397 0 0 0 -0.0039462830107355046 -0.0097790641125410464 0.010802126290745964 0 0.010802126290745964 -0.00028590335024596299 0 0 0 -0.0025162418656967532 -0.0034845484146620066 -0.019783423158410127 0 -0.019783423158410127 -0.0075958645202851491 0 0 0 -0.0027701032337367863 0.023313327625952791 -0.0074252330378292031 0 -0.0074252330378292031 -0.0060653112571775122 0 0 0 0.0043120040921938215 0.030387144492913819 -0.020410546202647983 0 -0.020410546202647983 0.030000270036119187 0 0 0 0.015096853632258246 0.034986278601833509 0.0033222063385851082 0 0.0033222063385851082 -0.0027062955538164875 0 0 0 0.0080699957620042496 0.00061311218945392376 0.017920901160249691 0 0.017920901160249691 0.0025616292486647652 0 0 0 0.00079368535952961672 0.027559699981243857 -0.016914894260231184 0 -0.016914894260231184 0.014418331240872551 0 0 0 0.010494507805529074 -0.008000780112719234 0.010559881846042497 0 0.010559881846042497 -0.000665833511834725 0 0 0 -0.0021666534061384867 0.0011348517729052403 -0.017189433044363121 0 -0.017189433044363121 -0.0090378298723806615 0 0 0 -0.0019757445248688534 0.029420427631630185 0.0061435938389037322 0 0.0061435938389037322 0.00065250686800789187 0 0 0 0.00751823362490952 0.012389530282049477 -0.014556128233222051 0 -0.014556128233222051 0.020884384149427504 0 0 0 0.0083184786078692452 -0.064711597165957757 0.0081522309201489864 0 0.0081522309201489864 0.00012403940396943369 0 0 0 -0.016146889440497247 0.051187923535950475 -0.0091561754200218393 0 -0.0091561754200218393 0.03318423507779511 0 0 0 0.021093039653436396 -0.014549502187399643 -0.016716280693975738 0 -0.016716280693975738 0.0033330831009532602 0 0 0 -0.0028041047716116374 0.0094400146844601136 -0.0028749254534291453 0 -0.0028749254534291453 0.035408684556645337 0 0 0 0.011212174810276362 -0.042223692214971187 -0.013567798199982956 0 -0.013567798199982956 -0.00050049952359533523 0 0 0 -0.010681047934641631 -0.030081716735607163 0.0065738862872211515 0 0.0065738862872211515 0.0007561828285391585 0 0 0 -0.0073313834767670047 0.045740108660754626 0.0020562144552095586 0 0.0020562144552095586 0.00042733040107523559 0 0 0 0.011541859765457468 0.025718524440552667 0.0053399378343488195 0 0.0053399378343488195 -0.00014063800966181324 0 0 0 0.0063944716077227147 0.010801632887720791 -0.011264277924210524 0 -0.011264277924210524 0.01046689360188624 0 0 0 0.0053171316224017717 -0.042831685315309384 -0.014118434661776431 0 -0.014118434661776431 -0.00053914723866298198 0 0 0 -0.010842708138493092 -0.031070652159559353 0.0072662174985147375 0 0.0072662174985147375 5.3287761333793704e-05 0 0 0 -0.0077543410995563906 0.021770543201156185 0.0074866856389807987 0 0.0074866856389807987 0.034974013212573006 0 0 0 0.0141861391034323 0.0040129902199181888 -0.015251533743785614 0 -0.015251533743785614 0.0024315920192359286 0 0 0 0.0016111455597884738 0.018949391717227648 0.021667486016512694 0 0.021667486016512694 0.0084629524730779337 0 0 0 0.0068530860475766175 -0.029381007685502468 0.0061704946914036135 0 0.0061704946914036135 0.0054867403527574382 0 0 0 -0.0059735668331862479 -0.019721175862165784 0.0014496017163408981 0 0.0014496017163408981 0.0060926413355197623 0 0 0 -0.0034071336316615136 0.019339802959677438 -0.002401700637256525 0 -0.002401700637256525 0.012504020188252085 0 0 0 0.0079609557869823825 0.014273864810499023 -0.0017948496864017248 0 -0.0017948496864017248 0.01748997126351599 0 0 0 0.0079409590185037481 0.013480281883566867 -0.010916208422675436 0 -0.010916208422675436 -0.0062878134868238761 0 0 0 0.0017981170991857465 0.016566369739374899 -0.0087061105903851778 0 -0.0087061105903851778 -0.0042944378529992597 0 0 0 0.0030679829715939081 0.0034884941226263778 0.0080023858113423257 0 0.0080023858113423257 -0.00032387291301982923 0 0 0 0.0007911553024016367 0.0032245371870404816 0.0102779203833025 0 0.0102779203833025 -0.00026329042291064336 0 0 0 0.00074031169103245913 0.017982905571204549 -0.0080408442280229531 0 -0.0080408442280229531 0.0048017137739394533 0 0 0 0.0056961548362860215 0.016354193575041427 0.0036389222066636456 0 0.0036389222066636456 0.038125169163436265 0 0 0 0.013619840684619432 0.039727434551878514 0.0049772499513751692 0 0.0049772499513751692 0.00032262258368895638 0 0 0 0.01001251428389186 0.044235637108410275 0.021870303233636337 0 0.021870303233636337 0.01040889546062207 0 0 0 0.013661133142258253 -0.012071250371487929 -0.013861723332426482 0 -0.013861723332426482 0.0015038075063029677 0 0 0 -0.0026418607162962404 0.046749444840940235 0.029535184614683407 0 0.029535184614683407 0.0067342200631901328 0 0 0 0.013370916226032481 0.042828384555147141 -0.0089831279192049765 0 -0.0089831279192049765 -0.0025496222884958627 0 0 0 0.010069690566662811 0.047484815991349079 -0.002819206801158664 0 -0.002819206801158664 0.0047934393822040141 0 0 0 0.013069563843388279 -0.00097535451023189612 0.027983981603868113 0 0.027983981603868113 0.001655718212881796 0 0 0 0.00017009092566255823 0.018832298269570613 0.03223292897371044 0 0.03223292897371044 0.0039827096907119053 0 0 0 0.0057037519900707268 -0.019934883652213936 -0.013160784182627184 0 -0.013160784182627184 -0.0011553230282130116 0 0 0 -0.0052725516701067343 -0.018724043760938471 0.0079934228066736879 0 0.0079934228066736879 -0.00033211288799307043 0 0 0 -0.0047640391622328837 0.014004009780918758 -0.014467065494778719 0 -0.014467065494778719 0.010984334134243379 0 0 0 0.0062470859787905342 0.073084291524411482 -0.0095973395922796072 0 -0.0095973395922796072 0.059117520392271028 0 0 0 0.033050452979170586 0.12381362209216581 0.0098273993495283651 0 0.0098273993495283651 0.10984474905941005 0 0 0 0.05841459278789396 0.016226062878210858 0.0044464013387136882 0 0.0044464013387136882 0.023410115595401758 0 0 0 0.0099090446184031469 0.043982778946348097 0.0077306201946777129 0 0.0077306201946777129 0.0024108636070548708 0 0 0 0.011598410638350744 0.011172935797827521 -0.0039051123540860128 0 -0.0039051123540860128 -0.0081423657057382304 0 0 0 0.00075764252302229496 0.017634455254917081 -0.0021155065840722798 0 -0.0021155065840722798 -0.0050635597578911895 0 0 0 0.0031427238742564589 0.027723540019952336 -0.0031027001294129733 0 -0.0031027001294129733 0.0010732040872580839 0 0 0 0.007199186026802612 -0.01175978581600548 0.011073042547231626 0 0.011073042547231626 -0.00076341219395198445 0 0 0 -0.0031307995024894286 0.040883463590994013 -0.0094578283802770891 0 -0.0094578283802770891 0.022758537022326469 0 0 0 0.015910500153330148 0.048105598598607024 -0.012864607184837284 0 -0.012864607184837284 0.008137132901917421 0 0 0 0.014060682875131125 0.077243945689422777 0.016133391776568473 0 0.016133391776568473 0.033301252318199137 0 0 0 0.027636299501905548 0.043773353980127716 0.01330661418609802 0 0.01330661418609802 0.015731270427791211 0 0 0 0.014876156101979787 -0.0018620893882729805 -0.011980159321860473 0 -0.011980159321860473 -0.00041541892596030916 0 0 0 -0.00056937707855836406 0.028472961891192368 0.0042679894035769494 0 0.0042679894035769494 -0.0022431828206457526 0 0 0 0.0065574447676366556 0.03296608793126491 0.0055803449820093966 0 0.0055803449820093966 4.8159449532327037e-05 0 0 0 0.0082535618451993111 0.041305892581608772 0.022754753633489111 0 0.022754753633489111 0.018465934846781273 0 0 0 0.014942956857097567 -0.0033527543080569266 -0.014988541004839484 0 -0.014988541004839484 0.0021998528772839698 0 0 0 -0.00028822535769312818 -0.0063463806680180267 -0.014624255084351752 0 -0.014624255084351752 -0.0038949429749985005 0 0 0 -0.002560330910754131 -0.0098767953485814197 0.01020008165102497 0 0.01020008165102497 -0.0015495657622064223 0 0 0 -0.00285659027769696 0.053450419453514919 0.032290487248535504 0 0.032290487248535504 0.013893246833003525 0 0 0 0.016835916571629583 -0.028662375937814434 -0.012730777964300433 0 -0.012730777964300433 -0.0035939422816949826 0 0 0 -0.0080640795548773524 -0.023291699299138345 0.0077097947030120104 0 0.0077097947030120104 -0.0016613325231745035 0 0 0 -0.0062382579555782126 -0.025784817586280484 0.0070930229629970754 0 0.0070930229629970754 -0.001804142246295104 0 0 0 -0.0068972399581441746 0.050035970735641144 -0.0082167888215487483 0 -0.0082167888215487483 0.043777365347868802 0 0 0 0.02345333402087757 0.017624791770964019 -0.014661825876911644 0 -0.014661825876911644 0.044484379992315179 0 0 0 0.015527292940819785 -0.0063644996105391288 -0.010527525227653003 0 -0.010527525227653003 0.042243138051416024 0 0 0 0.0089696596102192133 -0.0071453870945070719 -0.014832631983539143 0 -0.014832631983539143 0.0053485804347638277 0 0 0 -0.00044920166493578328 0.041372237136304432 -0.012862812242574229 0 -0.012862812242574229 0.0047812943953517983 0 0 0 0.011538382882914047 0.0033200182278273482 0.035311336651321301 0 0.035311336651321301 0.010437448405893668 0 0 0 0.0034393666584303095 -0.034249056594131244 0.016106328799847525 0 0.016106328799847525 0.014068291706868852 0 0 0 -0.0050451912218156258 -0.024418551372338809 -0.0055471119614712572 0 -0.0055471119614712572 0.0054658663580031686 0 0 0 -0.0047381712535839171 0.035681847251954696 -0.024965693544925449 0 -0.024965693544925449 0.021759059346704746 0 0 0 0.014360226649664881 0.045175447311227496 -0.0067787681155094259 0 -0.0067787681155094259 0.031338470536101642 0 0 0 0.019128479461832298 0.079268263826071134 0.0047585511417369275 0 0.0047585511417369275 0.055585151214654016 0 0 0 0.033713353760181392 0.015338139166145598 -0.0070149051620324622 0 -0.0070149051620324622 0.026391855536864531 0 0 0 0.010432498675752536 0.013706205212366991 -0.0052554389542838267 0 -0.0052554389542838267 0.025089085763607688 0 0 0 0.009698822743993675 0.032004462291807145 0.014943919969532553 0 0.014943919969532553 0.052308099014568281 0 0 0 0.021078140326593851 0.027510882122785393 -0.01106736314098155 0 -0.01106736314098155 0.028926972557352576 0 0 0 0.014109463670034489 0.077916481941893156 0.0053571238012113387 0 0.0053571238012113387 0.047108912051965213 0 0 0 0.031256348498464259 -0.0099292118886704639 -0.008380328967079409 0 -0.008380328967079409 -0.0013253188069577426 0 0 0 -0.0028136326739069961 0.022639998420943077 0.0099268980352504223 0 0.0099268980352504223 0.031425151696507815 0 0 0 0.013516287529362726 0.041856349362590181 0.0012085541681040035 0 0.0012085541681040035 0.013157665687647112 0 0 0 0.013753503762559339 0.019028149165276093 -0.0032813712614705171 0 -0.0032813712614705171 -0.002861437142017309 0 0 0 0.0040416780058147583 0.032772648319525165 0.013233685104195673 0 0.013233685104195673 0.020426655087506539 0 0 0 0.013299825851757907 0.026545102146153701 -0.0042437791519369418 0 -0.0042437791519369418 -0.0057248966135354448 0 0 0 0.0052050513831545641 -0.061869380639281185 -0.0044623967228160401 0 -0.0044623967228160401 0.0011588656132304198 0 0 0 -0.015177628756512684 0.013801295870103893 -0.01110196416624698 0 -0.01110196416624698 -0.0084125918476083208 0 0 0 0.0013471760056238923 0.037629756636992071 0.0051746479862457475 0 0.0051746479862457475 -0.00025448639549801439 0 0 0 0.0093438175603735227 0.022548689008794892 0.0090594870479121705 0 0.0090594870479121705 0.045429858029991041 0 0 0 0.016994636759696487 -0.1046085778197744 0.0097111263049293947 0 0.0097111263049293947 0.0018836340806285268 0 0 0 -0.02568123593478655 0.022634293868090027 0.0055959796244899563 0 0.0055959796244899563 0.0009599286822296973 0 0 0 0.0058985556375799305 0.037218756146850197 -0.0027764524204538475 0 -0.0027764524204538475 -0.0054983949000743859 0 0 0 0.0079300903116939544 0.01589476713173937 -0.012100660341610892 0 -0.012100660341610892 0.0072555948782803831 0 0 0 0.0057875905025049322 -0.026610899506239599 -0.011919689855424964 0 -0.011919689855424964 0.001690549244552253 0 0 0 -0.0062300875654218435 0.023609059193968544 -0.011197204109783363 0 -0.011197204109783363 -0.0088637932410214545 0 0 0 0.0036863164882367768 0.028184073618933724 0.0033479394132726729 0 0.0033479394132726729 0.00035580822524569275 0 0 0 0.0071349704610448551 0.034989774021326456 -0.007000635553450295 0 -0.007000635553450295 -0.0033699494372777783 0 0 0 0.0079049561460121705 0.015117347200530873 -0.012215668560185106 0 -0.012215668560185106 0.010816834938303932 0 0 0 0.0064835455347087012 0.028336207752639231 -0.0076861756803795755 0 -0.0076861756803795755 0.017970196666392657 0 0 0 0.011576601104757972 -0.01533845827176817 -0.025554204310946509 0 -0.025554204310946509 -0.0042694937014934563 0 0 0 -0.0049019879933154065 0.095989332043769776 0.0032380081464351562 0 0.0032380081464351562 0.086846436377984892 0 0 0 0.045708942105438272 -0.018688836724570015 -0.0049386990715437618 0 -0.0049386990715437618 -0.0016198552966916746 0 0 0 -0.005077173005315419 0.032581747394144212 0.0026276172392266811 0 0.0026276172392266811 -0.0033600486583791498 0 0 0 0.0073054246839412695 0.035733546181129533 0.0035376646735633707 0 0.0035376646735633707 -0.0035024622048047574 0 0 0 0.0080577709940811964 -0.011306834654175146 0.013377265853898646 0 0.013377265853898646 0.0014417425229318326 0 0 0 -0.002466273032811106 0.033908417045626971 -0.016592458066995247 0 -0.016592458066995247 0.027953763767702977 0 0 0 0.015465545203332431 0.033208140800192867 0.0090387050379501753 0 0.0090387050379501753 0.0063621464050989673 0 0 0 0.0098925718013229587 0.029364519994379286 0.0080314113341977255 0 0.0080314113341977255 0.0058384432027858355 0 0 0 0.0088007407992912821 0.031486500906714482 0.0045489963059937005 0 0.0045489963059937005 -0.0021113794896683961 0 0 0 0.0073437803542615171 -0.021654216891970526 0.0079863162851498606 0 0.0079863162851498606 4.2016810963219076e-05 0 0 0 -0.0054030500202518327 0.0047843132570943615 0.0039127919961575034 0 0.0039127919961575034 0.0093831647630075107 0 0 0 0.0035418695050254655 0.01625420841324806 0.00054799488995979813 0 0.00054799488995979813 0.011148921470217246 0 0 0 0.0068507824708663248 -0.026123043985577458 0.0095189100434083934 0 0.0095189100434083934 -0.00028906170159539654 0 0 0 -0.0066030264217932164 0.091465714305415863 0.052061223467467777 0 0.052061223467467777 0.042873387852822437 0 0 0 0.033584775539559554 0.0204871061490004 0.017887723851651785 0 0.017887723851651785 0.0060367072254914333 0 0 0 0.0066309533436228474 0.0075057022477974522 -0.014625227923184436 0 -0.014625227923184436 0.0044219285981017542 0 0 0 0.0029819077114746628 0.017292869001373584 0.00619600150134666 0 0.00619600150134666 0.0063607929461327317 0 0 0 0.005913415486876579 0.024719062785975347 0.0044214959772173852 0 0.0044214959772173852 0.0038226140527464758 0 0 0 0.0071354192096804584 0.054157207095617596 -0.005767228820673943 0 -0.005767228820673943 0.0092995787745397546 0 0 0 0.015864196467539334 0.036240495972099329 0.0011901922688727848 0 0.0011901922688727848 0.0068160267496230054 0 0 0 0.010764130680430528 0.02189204544375993 -0.0069776574727900276 0 -0.0069776574727900276 -0.0010681737039291428 0 0 0 0.0052059679349577143 0.025783793456783853 0.0071242728690816236 0 0.0071242728690816236 0.0023218432906780308 0 0 0 0.0070264091868654736 -0.035929800072116991 -0.0068484294326404127 0 -0.0068484294326404127 0.00096988321175739411 0 0 0 -0.0087399792150898714 -0.030667060057596784 -0.012111054962937351 0 -0.012111054962937351 0.002762893157537194 0 0 0 -0.0069760417250149254 0.025819105315483457 0.0015415774744969115 0 0.0015415774744969115 0.0086005080389491371 0 0 0 0.008604903338608149 -0.040613330325686092 0.027855713119419256 0 0.027855713119419256 0.0046640635628070193 0 0 0 -0.0089873166907197266 -0.05571797376492682 0.017174249717741535 0 0.017174249717741535 0.00068415178016922873 0 0 0 -0.01375845549618937 0.041763973311275182 -0.0055775951379707506 0 -0.0055775951379707506 0.024510705003706668 0 0 0 0.016568669578745476 0.070003182088702542 0.0036953174324516891 0 0.0036953174324516891 0.046439610245298413 0 0 0 0.029110698083500225 0.043919521270448736 -0.01697442025649188 0 -0.01697442025649188 0.0023443055629213255 0 0 0 0.011565956708342505 0.018634600168543652 -0.0069684572789600052 0 -0.0069684572789600052 -9.4842044569498629e-05 0 0 0 0.0046349395309935038 0.068560226507360211 0.025718271001651818 0 0.025718271001651818 0.063691567876565824 0 0 0 0.03306294859598153 0.028809798136461472 -0.0089009759918855982 0 -0.0089009759918855982 -0.0062430195828909549 0 0 0 0.0056416946383926365 0.020057711085144203 -0.014716427181786354 0 -0.014716427181786354 0.018120285027577579 0 0 0 0.0095444990281804594 0.097680851872249841 0.020131257007373504 0 0.020131257007373504 0.022763162856106023 0 0 0 0.03011100368208891 0.018222802217302873 0.004856816199052174 0 0.004856816199052174 0.0064395583784932625 0 0 0 0.006165590148949034 0.021928546367452673 0.01912013127278045 0 0.01912013127278045 0.0099040679884767613 0 0 0 0.0079581535889822197 0.0070130565824000901 -0.014668180978016587 0 -0.014668180978016587 0.0029514278431015395 0 0 0 0.002491121106375449 0.017701962900643742 0.006095463224562234 0 0.006095463224562234 0.0010235549520031494 0 0 0 0.0046813794631617184 0.0033420945661148463 -0.0063875771353828891 0 -0.0063875771353828891 0.036250757734254679 0 0 0 0.0098982130750923797 0.06982547479468082 0.018103809248869673 0 0.018103809248869673 0.049589965800891145 0 0 0 0.029853860148893019 -0.0096275354140176739 -0.0094768016609128036 0 -0.0094768016609128036 0.0014692266209274107 0 0 0 -0.0020395771982725797 -0.065090150768621985 0.0022994475474285526 0 0.0022994475474285526 0.001064658145270285 0 0 0 -0.016006373155837906 -0.11441636123487486 -0.0063935801645460142 0 -0.0063935801645460142 0.0012508681506105679 0 0 0 -0.028291373271066053 0.033028274263778135 0.003832085584064282 0 0.003832085584064282 0.059797420289204872 0 0 0 0.023206423638245766 -0.010627273314854985 0.010805052414974755 0 0.010805052414974755 0.00072379406787508732 0 0 0 -0.0024758698117449754 0.088411969696917253 -0.015830409742454921 0 -0.015830409742454921 0.059819768769720096 0 0 0 0.037057934616659377 0.12273471282102827 -0.0023497585477234573 0 -0.0023497585477234573 0.079395646326207991 0 0 0 0.050532589786809134 0.18952094232525682 0.00089600518902221982 0 0.00089600518902221982 0.14071628293771421 0 0 0 0.082559306315742764 0.13595334937692732 0.021306679421217611 0 0.021306679421217611 0.11272707101799906 0 0 0 0.06217010509873161 0.03267790466580868 -0.010208856403927991 0 -0.010208856403927991 0.0036033080267927897 0 0 0 0.0090703031731503431 0.055696957595363195 0.012213171640033993 0 0.012213171640033993 0.019958846316975087 0 0 0 0.018913950978084515 0.077012049320341169 0.0062582095128437265 0 0.0062582095128437265 0.083131623253298481 0 0 0 0.040035918143409954 0.036340912861396929 -0.0091800812938048204 0 -0.0091800812938048204 0.041138499411208618 0 0 0 0.019369853068151394 0.026636179786157656 0.0025008370764509069 0 0.0025008370764509069 0.0403935191025388 0 0 0 0.016757424722174098 0.056080872476156118 0.00094945552601788386 0 0.00094945552601788386 0.03537429815377191 0 0 0 0.022863792657481952 0.0040891892037429045 0.010682305037709172 0 0.010682305037709172 -0.0010771030386482749 0 0 0 0.00075302154127410148 0.0018166827013790243 -0.0076923770576774464 0 -0.0076923770576774464 -0.0014640612107514883 0 0 0 8.815537265682849e-05 0.032844728496620124 -0.0047963378588224692 0 -0.0047963378588224692 0.015890198177387127 0 0 0 0.012183731668501729 0.024793256099113922 0.0065242784233399548 0 0.0065242784233399548 0.0021222659646518843 0 0 0 0.0067288805159414662 0.088543669974618475 0.012894600232804754 0 0.012894600232804754 0.049415684446371344 0 0 0 0.034489838605247666 -0.0017211444117189029 -0.0079876666181737388 0 -0.0079876666181737388 0.0013220355662927896 0 0 0 -9.9777211356469331e-05 0.017179212002237796 -5.3189656438708006e-05 0 -5.3189656438708006e-05 0.046317169264789161 0 0 0 0.01587409531675674 -0.001944683932618263 0.011302202390642169 0 0.011302202390642169 0.0024771806859975598 0 0 0 0.00013312418834465767 0.053192995024831213 -0.012392025696029041 0 -0.012392025696029041 0.025924682998016646 0 0 0 0.019779419505711937 0.031982070748613728 -0.013334734124863495 0 -0.013334734124863495 0.015508797793507612 0 0 0 0.01187271713553037 0.015195186308270901 -0.011469174994019699 0 -0.011469174994019699 0.0069275305315338598 0 0 0 0.0055306792099511989 0.016311448911237564 -0.01032527666309907 0 -0.01032527666309907 0.0096170326307114251 0 0 0 0.0064821203854872472 0.028681571126802443 -0.011240214090167075 0 -0.011240214090167075 -0.0050609024828929192 0 0 0 0.0059051671609773801 0.032244912520471541 0.041209690042598668 0 0.041209690042598668 0.012069096609354402 0 0 0 0.01107850228245652 -0.043341524627157263 -0.0037934933164637252 0 -0.0037934933164637252 0.00064969011055593384 0 0 0 -0.010672958629150381 0.059302867595226863 -0.017375203688629454 0 -0.017375203688629454 0.019881356892796256 0 0 0 0.019796056122005776 0.034024445348169285 -0.011637388266354132 0 -0.011637388266354132 0.011940319895828874 0 0 0 0.011491191310999547 0.041904142812134434 0.012674701646798391 0 0.012674701646798391 0.011051394834445505 0 0 0 0.013238884411644985 0.020995965116606619 -0.002994982976610952 0 -0.002994982976610952 0.0010705617668110845 0 0 0 0.0055166317208544258 0.02748516643713711 -0.0002766695240183116 0 -0.0002766695240183116 0.002289498467975104 0 0 0 0.0074436662262780673 -0.14581339345913855 0.00052135242997771792 0 0.00052135242997771792 0.0041843053646964945 0 0 0 -0.03540727202361052 -0.077528164507088146 -5.9111020653109997e-05 0 -5.9111020653109997e-05 0.0017369524803727554 0 0 0 -0.018947803006678851 0.020860957604792035 -0.006456291255861649 0 -0.006456291255861649 0.0069517836513253543 0 0 0 0.0069531853140293474 0.010118046467206966 0.0085423586502821388 0 0.0085423586502821388 0.0033727434813688529 0 0 0 0.0033726974871439545 0.047609138022002645 0.0013732463200339697 0 0.0013732463200339697 0.0015711296880030895 0 0 0 0.012295066927501451 0.036683494808444461 0.011381026876401357 0 0.011381026876401357 0.01248274224632704 0 0 0 0.012291559263692884 0.03892004235810765 0.0059436872046695222 0 0.0059436872046695222 0.0020015617950702317 0 0 0 0.010230401038294482 -0.031868382680681942 -0.01602336958115139 0 -0.01602336958115139 -0.0036650257900209052 0 0 0 -0.0088833521176757205 -0.025588691148901034 0.0085591213289362977 0 0.0085591213289362977 -0.00038913169476311946 0 0 0 -0.006494455710916041 0.092121060728970194 0.017520491204222804 0 0.017520491204222804 0.021562808056627247 0 0 0 0.028420967196399305 -0.01903924910297123 -0.01567677693706223 0 -0.01567677693706223 -0.0010973577297507808 0 0 0 -0.0050341517081804992 -0.018504632228760278 0.0089304374948563463 0 0.0089304374948563463 0.00054183461200833782 0 0 0 -0.0044906994041879859 0.019805702587430141 -0.0090469209829998273 0 -0.0090469209829998273 0.0069779413151577208 0 0 0 0.0066959109756469792 0.081518285190150586 0.054991475368323328 0 0.054991475368323328 0.04061439423939972 0 0 0 0.030533169857387632 0.044407423948127328 0.0037897509164255289 0 0.0037897509164255289 -0.0010491207889333238 0 0 0 0.010839575789798498 0.038429440590053279 0.0010343567901783812 0 0.0010343567901783812 0.014146247261777156 0 0 0 0.013143921962957619 0.0030977859484030718 -0.011603888132267867 0 -0.011603888132267867 0.0010336569333993769 0 0 0 0.0010328607204506124 -0.0036533550192500959 0.0094839695251700586 0 0.0094839695251700586 -0.0012158028367719505 0 0 0 -0.0012172894640055116 -0.052739142825650495 0.0037288990734192242 0 0.0037288990734192242 -0.00040135484211126574 0 0 0 -0.013285124416940439 -0.083308831141089862 -0.0078747013585629549 0 -0.0078747013585629549 -0.00078366453575054451 0 0 0 -0.021023123919210102 -0.018329851257021301 -0.0013929644244545791 0 -0.0013929644244545791 0.01445914078324223 0 0 0 -0.00096767761844476774 0.049808888908597665 -0.0091652481597541136 0 -0.0091652481597541136 0.021001007001543837 0 0 0 0.01770247397753541 0.0076419389260975225 -0.0036688470350188448 0 -0.0036688470350188448 0.033956780118311686 0 0 0 0.010399679761102298 0.029752584123937862 0.011169634117942175 0 0.011169634117942175 0.019429381757263584 0 0 0 0.012295491470300363 0.022836740712125912 0.0078396550750791452 0 0.0078396550750791452 0.022076176008171435 0 0 0 0.01122822918007434 0.052536877197285593 0.010586860871577765 0 0.010586860871577765 0.016198292966323524 0 0 0 0.017183792540902298 0.061289692306189032 0.0073699108907524132 0 0.0073699108907524132 0.0090295121166829168 0 0 0 0.017579801105717989 0.032388456382456743 0.0056568898442903859 0 0.0056568898442903859 -0.0012078771746694139 0 0 0 0.0077951448019468184 0.0055573819250686416 -0.0095487859403160791 0 -0.0095487859403160791 0.020593520229172074 0 0 0 0.0065377255385601716 0.0019840924633589586 -0.014970646750985299 0 -0.014970646750985299 0.039360009614126515 0 0 0 0.010336025519371361 0.030353790542157637 -0.028117626304294277 0 -0.028117626304294277 0.064076496405431532 0 0 0 0.023607571736897294 -0.046101005473350463 0.0038195689681571323 0 0.0038195689681571323 -0.00017219996041411417 0 0 0 -0.011568301358441146 -0.06895272658817507 -0.0071254392065705106 0 -0.0071254392065705106 -0.00060184185835282511 0 0 0 -0.017388642111631981 0.014380732899929888 0.0013870784025702965 0 0.0013870784025702965 -0.057966755905927453 0 0 0 -0.010896505751499391 0.037666809013940816 -0.024989209780928952 0 -0.024989209780928952 0.045383084223919901 0 0 0 0.020762473309465165 0.035745536787814738 0.0066301481884266621 0 0.0066301481884266621 0.00091220782251792351 0 0 0 0.0091644361525831681 -0.01673474275398313 -0.016318633089883454 0 -0.016318633089883454 -0.0034695139792479263 0 0 0 -0.0050510641833077623 -0.016318253944243691 0.010120825322447393 0 0.010120825322447393 -0.00040616919954720304 0 0 0 -0.0041811057859477245 0.014663358995182736 0.0064274301255508072 0 0.0064274301255508072 0.001408945285551147 0 0 0 0.0040180760701834742 0.010826946010146112 -0.0015685716116688136 0 -0.0015685716116688136 0.036913233516996415 0 0 0 0.011935044881785624 0.049439774732293662 0.0034259079999738318 0 0.0034259079999738318 0.028042756471846897 0 0 0 0.019370632801035181 0.012497982145135245 0.0082972193695990092 0 0.0082972193695990092 0.0019538104498480653 0 0 0 0.0036129481487458268 -0.037533033165006002 0.0085058839488951765 0 0.0085058839488951765 0.002135164221443997 0 0 0 -0.0088494672358906401 0.040459698507194441 -0.012512163876768012 0 -0.012512163876768012 0.037048534255255006 0 0 0 0.019377058190612417 0.040666808128902054 -0.010457146935046957 0 -0.010457146935046957 0.030323298606939164 0 0 0 0.017747526683960291 0.022753897241134524 -0.013252219403627941 0 -0.013252219403627941 0.027135794959115001 0 0 0 0.012472423050062374 0.012872126451142413 -0.0097949740438678795 0 -0.0097949740438678795 0.02304055568949448 0 0 0 0.00897817053515923 0.017900222852771399 0.0031196778152797573 0 0.0031196778152797573 0.015806353575963068 0 0 0 0.0084266441071836201 0.013145387618728613 -0.0016901779571274729 0 -0.0016901779571274729 0.035254852094458625 0 0 0 0.012100059928296811 0.13886435182017709 0.015032325233246269 0 0.015032325233246269 0.1199556515059208 0 0 0 0.064705000831524417 0.00049290540335911182 -0.0023518687458696785 0 -0.0023518687458696785 0.0017871470479651208 0 0 0 0.00057001311283100264 0.087183897211369238 -0.013049834659633497 0 -0.013049834659633497 0.067629204323986558 0 0 0 0.038703275383839025 0.00090744407250026304 0.0036745952635937051 0 0.0036745952635937051 0.0027075100334150726 0 0 0 0.00090373852647890329 0.020350669390523241 0.0049868729741991335 0 0.0049868729741991335 0.01689296952744691 0 0 0 0.009310909729492535 0.017890266053969095 0.0030529960465718858 0 0.0030529960465718858 0.011813282456991737 0 0 0 0.0074258871277402081 0.015774012917002148 -0.0025355075228541352 0 -0.0025355075228541352 0.015580278015977306 0 0 0 0.0078385727332448609 -0.05889537739531344 -0.013077301058247118 0 -0.013077301058247118 0.00079875303243826141 0 0 0 -0.01452415609071879 -0.07395614640316546 -0.018239837624091829 0 -0.018239837624091829 0.001307161851498248 0 0 0 -0.018162246137916824 0.024884218359762719 -0.020869848084696791 0 -0.020869848084696791 -0.0024178523292760924 0 0 0 0.0056165915076216563 0.0039760393197065319 0.0042080624714380685 0 0.0042080624714380685 0.0048411030705362498 0 0 0 0.0022042855975606965 0.028088407104098764 -0.017844181826761396 0 -0.017844181826761396 0.035349690050177962 0 0 0 0.015859524288569186 -0.014301148975705832 0.010326091004240392 0 0.010326091004240392 -0.00059361589408619183 0 0 0 -0.0037236912174480061 -0.0072032634055756491 0.0095345617783507072 0 0.0095345617783507072 -0.0010848394575974085 0 0 0 -0.0020720257157932648 0.00014538442205308186 -0.014742843162303471 0 -0.014742843162303471 -0.0049725701439253117 0 0 0 -0.0012067964304680601 -0.01227303430379487 -0.01688636607725371 0 -0.01688636607725371 -0.0061449843230367146 0 0 0 -0.0046045046567078952 -0.030332925938739319 -0.010130860703368549 0 -0.010130860703368549 0.00089155114851391382 0 0 0 -0.007360343697556393 -0.015975876313121917 -0.011542010546847756 0 -0.011542010546847756 0.0018265923774076764 0 0 0 -0.0035373209839285602 0.020425650325930897 -0.0069965196151814176 0 -0.0069965196151814176 -0.0011088384141639716 0 0 0 0.0048292029779417323 0.01989871482464424 -0.0070950957633966845 0 -0.0070950957633966845 -0.0045736805710485879 0 0 0 0.0038312585633989127 0.0096645038631639896 0.0095084552363531877 0 0.0095084552363531877 0.00029359175497896406 0 0 0 0.0024895239045357384 0.0079135487083196714 0.0080853797655730513 0 0.0080853797655730513 0.00050983852893852349 0 0 0 0.0021058468093145483 0.036959510467836187 0.018435166556008964 0 0.018435166556008964 0.010544459098182024 0 0 0 0.011875992391504386 -0.0030006713082665892 -0.014317638091943197 0 -0.014317638091943197 0.0023763704710544342 0 0 0 -0.00015607520930299712 -0.0014828835544157919 0.0078799698535952749 0 0.0078799698535952749 -1.7090327296478969e-06 0 0 0 -0.00037114814678636254 0.014800177480544061 -0.012045205831194065 0 -0.012045205831194065 -0.0060223489719424678 0 0 0 0.0021944571271503947 0.012955592089720906 0.0011352248892852546 0 0.0011352248892852546 0.0072908884486175794 0 0 0 0.0050616201345846179 -0.009713997496918229 0.0085392078955018672 0 0.0085392078955018672 0.00039497034987414498 0 0 0 -0.0023297567867610215 -0.0017951510890546907 -0.015291268120979355 0 -0.015291268120979355 -0.0032364613887146138 0 0 0 -0.0012579031194423305 -0.010368576598356286 -0.0060135105579208967 0 -0.0060135105579208967 0.062141611595934607 0 0 0 0.012943258749394587 0.015574985045377765 0.0022061106619139666 0 0.0022061106619139666 0.0091305460204348099 0 0 0 0.0061763827664531399 -0.0069776367823395921 -0.012380099412626602 0 -0.012380099412626602 -0.0023318968626955885 0 0 0 -0.002327383411258795 -0.010018689289952653 0.0090713795992520049 0 0.0090713795992520049 -0.0033428628343047432 0 0 0 -0.0033403880310643491 0.063378877492823268 0.0039566288494742108 0 0.0039566288494742108 0.018707951227163164 0 0 0 0.020521707179996622 0.011304455990156392 -0.00053782134033858453 0 -0.00053782134033858453 -0.034093746591062013 0 0 0 -0.0056973226502263774 -0.0048529221474982523 0.0066613862943139448 0 0.0066613862943139448 0.0057108056018598564 0 0 0 0.00021447086359040538 0.045072894365215055 -0.0151069251149204 0 -0.0151069251149204 0.012512156650583695 0 0 0 0.014396262753949729 0.020341444881075886 0.0052461699708591554 0 0.0052461699708591554 0.01738033378566544 0 0 0 0.0094304446666853368 0.013403412115195497 -0.0020268776225779812 0 -0.0020268776225779812 0.018662493880778574 0 0 0 0.0080164764989935199 -0.039314486159622825 -0.011418229827044239 0 -0.011418229827044239 -0.0010939901838568303 0 0 0 -0.010102119085869912 -0.029231925827143814 0.0065491351527590946 0 0.0065491351527590946 -0.00040297572436389338 0 0 0 -0.0074087253878769264 0.029857958462282657 -0.006686420297110144 0 -0.006686420297110144 0.021506351590932407 0 0 0 0.012841077513303756 0.024676010862571034 0.0077182600243216413 0 0.0077182600243216413 0.011724845301168619 0 0 0 0.0091002140409349157 0.011441125245011452 0.0021994434374327512 0 0.0021994434374327512 0.0059133469424483796 0 0 0 0.0043386180468649579 -0.030835286978035063 0.0039345417218780397 0 0.0039345417218780397 0.0026248199079700538 0 0 0 -0.0070526167675162496 -0.052338638239756929 0.0088358272727565579 0 0.0088358272727565579 0.0022627877349727932 0 0 0 -0.012518962626196006 0.0033367739536529981 0.0036482027102346937 0 0.0036482027102346937 0.015192001215312667 0 0 0 0.004632193792241425 0.017408751425857683 -0.0083980143247877476 0 -0.0083980143247877476 0.012229364294911171 0 0 0 0.0074095289301922135 0.0048467509541151674 0.0046912479487249449 0 0.0046912479487249449 0.0054639375143605007 0 0 0 0.0025776721171189201 0.025007093175305514 0.0081119250630980362 0 0.0081119250630980362 0.014178346567360011 0 0 0 0.0097963599356663891 0.0091950963628813359 -0.012402694531242014 0 -0.012402694531242014 0.011223186993176648 0 0 0 0.0051045708390144717 0.082854346766568485 0.0066980843298626996 0 0.0066980843298626996 0.05315288365489923 0 0 0 0.034001807605366932 0.0016081052724981823 0.0082967013659641688 0 0.0082967013659641688 0.0021031635594199998 0 0 0 0.00092781720797954672 -0.050439294393861633 0.0081091132147825991 0 0.0081091132147825991 0.00049358353263651011 0 0 0 -0.012486427715306281 0.054545922234665423 -0.01033561530176752 0 -0.01033561530176752 0.041428857371340611 0 0 0 0.023993694901501605 0.052521725412973896 -0.0076999358695727382 0 -0.0076999358695727382 0.027247542127548874 0 0 0 0.019942316885130706 -0.034198231474938549 -0.022700726875236783 0 -0.022700726875236783 0.018257365279595403 0 0 0 -0.0039852165488357856 0.063124410331644537 -0.0094114578982511937 0 -0.0094114578982511937 0.0039290023465146651 0 0 0 0.016763353169539814 -0.049870221667442011 0.0065367810276354479 0 0.0065367810276354479 0.0014940406924149607 0 0 0 -0.012094045243756752 -0.0854371698698142 -0.017208445558366196 0 -0.017208445558366196 0.0036811475912942836 0 0 0 -0.020439005569630016 -0.049499224588348059 0.0019287372144086781 0 0.0019287372144086781 -0.00052902336013255571 0 0 0 -0.012507061987120163 -0.086935324403698805 -0.0060845421887155762 0 -0.0060845421887155762 0.00039373605657874733 0 0 0 -0.021635397086780021 -0.024229778000866065 0.0065778744390268514 0 0.0065778744390268514 -0.0016852673729853638 0 0 0 -0.0064787613434628567 -0.029841524663618398 -0.010768938946102175 0 -0.010768938946102175 -0.0018564376657847527 0 0 0 -0.0079244905823507884 0.012423650597552066 -0.0038413813541742677 0 -0.0038413813541742677 0.024288250861551272 0 0 0 0.0091779753647758412 0.013822299510841119 -0.0095403536948972245 0 -0.0095403536948972245 0.031388295916930424 0 0 0 0.011302648856942887 0.040793162390540233 -0.005266281834494152 0 -0.005266281834494152 0.04618784863598685 0 0 0 0.021745252756631778 0.080997273535279468 0.0025032176491656677 0 0.0025032176491656677 0.091078096006945997 0 0 0 0.043018842385556366 0.052419349813561222 0.0030532372573265909 0 0.0030532372573265909 0.032616467099040813 0 0 0 0.021258954228150523 0.06749580573321684 0.0029331232606106539 0 0.0029331232606106539 0.077585603259528957 0 0 0 0.036270352248186422 0.026972759135830957 -0.0075867154929640801 0 -0.0075867154929640801 0.038851339363327408 0 0 0 0.016456024624789553 0.0074342892265364382 0.0058284681232924013 0 0.0058284681232924013 0.006354598085398018 0 0 0 0.0034472218279836112 0.020527841413803358 -0.0081969010021288764 0 -0.0081969010021288764 0.026005108433429874 0 0 0 0.011633237461808305 0.011780907642759506 -0.0097430722483971798 0 -0.0097430722483971798 0.022855890386894784 0 0 0 0.0086591995074135758 0.018316052012253434 0.0033705640745990344 0 0.0033705640745990344 0.030714132853758385 0 0 0 0.012257546216502949 -0.088175728070014503 0.0076978621403090324 0 0.0076978621403090324 0.00012618733392066872 0 0 0 -0.022012385184023375 0.011689783775006499 -0.00096703013642674904 0 -0.00096703013642674904 0.033932374756712645 0 0 0 0.011405539632929784 0.05277116854269906 -0.01519521124496577 0 -0.01519521124496577 0.087998833365916129 0 0 0 0.035192500477153804 0.086778202244500335 -0.017131278286746696 0 -0.017131278286746696 0.044632797262495028 0 0 0 0.032852749876748841 0.05650879174083151 -0.0079591460784209644 0 -0.0079591460784209644 0.021964652095735393 0 0 0 0.019618360959141712 -0.099837606382059935 -0.013053070274556086 0 -0.013053070274556086 0.0038983058649781077 0 0 0 -0.023984825129270464 -0.056235957521623477 0.0054513510132772544 0 0.0054513510132772544 0.0015252930929454799 0 0 0 -0.013677666107169478 0.0095900124820744691 -0.0010081781842426983 0 -0.0010081781842426983 0.035929982944588199 0 0 0 0.011379998856665675 -0.032242929263672337 0.018361747771138859 0 0.018361747771138859 -0.0015984445765515609 0 0 0 -0.0084603434600558636 -0.022349576035056273 0.022134141715961841 0 0.022134141715961841 0.0016993398329869791 0 0 0 -0.0051625590505173236 0.025320995771634935 -0.01775413988000174 0 -0.01775413988000174 0.01428382863903721 0 0 0 0.0099012061026679254 0.027532340980669347 -0.013548655761886463 0 -0.013548655761886463 0.015020943708716861 0 0 0 0.010638321172346565 0.058242313290379821 -0.011538736756288248 0 -0.011538736756288248 0.04910825227830562 0 0 0 0.026837641392171485 -0.033150095160136894 0.0077428861369648258 0 0.0077428861369648258 0.0019462580675693175 0 0 0 -0.0078009592731420607 -0.00079152243637773886 0.0091271997186825604 0 0.0091271997186825604 0.00060219514998365031 0 0 0 -4.7331821598523005e-05 0.010796456289934002 -0.010508820992750146 0 -0.010508820992750146 -0.0042628672128075251 0 0 0 0.0016333972692816178 0.013619512910004041 -0.019127668461967451 0 -0.019127668461967451 0.0066596289700318334 0 0 0 0.0050697854700089938 0.012936813289706639 -0.015120389615996405 0 -0.015120389615996405 0.0068256818146887888 0 0 0 0.0049406237760988292 0.0039081331439160122 -0.014619640143307744 0 -0.014619640143307744 0.0046720179083728774 0 0 0 0.0021450377630721634 0.0032335132933484778 -0.019678928408616708 0 -0.019678928408616708 0.0038802851024555274 0 0 0 0.0017784495989509597 -0.0070119399509259994 0.02917670865691524 0 0.02917670865691524 -0.0035525806178484665 0 0 0 -0.0026411301421934985 0.015854769506554858 0.020098946360977088 0 0.020098946360977088 0.0050243684350225635 0 0 0 0.0052197844853944112 -0.0070873786445259518 0.011316186247609439 0 0.011316186247609439 -0.0012858462429223699 0 0 0 -0.0020933062218620822 -0.0037395239339468849 -0.015365895659748982 0 -0.015365895659748982 -0.0032801509032981818 0 0 0 -0.0017549187093112671 -0.049101226881384408 -0.0050563713898717083 0 -0.0050563713898717083 0.0044946785182410909 0 0 0 -0.011151637090785871 -0.085624398844864391 0.012605847037975362 0 0.012605847037975362 0.0065855235374482346 0 0 0 -0.019759718826854039 -0.025140367847563322 0.009512602500497536 0 0.009512602500497536 0.0014956239518112494 0 0 0 -0.0059111859739380199 0.024522825873938305 0.0079046924335533404 0 0.0079046924335533404 0.0071167686511959226 0 0 0 0.0079098986312835552 0.023490738756817203 0.0015959674104355503 0 0.0015959674104355503 -0.0036397619958541405 0 0 0 0.0049627441902407865 -0.040416745823928318 -0.017411637133305829 0 -0.017411637133305829 0.0014343469041671886 0 0 0 -0.009745599729940279 -0.069284167795734347 -0.014944308614187734 0 -0.014944308614187734 -0.0026547329889987509 0 0 0 -0.017984725196183295 0.03118265080348594 -0.0016011346369554868 0 -0.0016011346369554868 -0.0042028912177346171 0 0 0 0.0067449398964378304 0.048612080501579225 0.0065133703331861637 0 0.0065133703331861637 0.054518609437335719 0 0 0 0.02578267248472875 -0.059062927986152688 -0.0001873482577129798 0 -0.0001873482577129798 -0.00048302726609673885 0 0 0 -0.014886488813062343 -0.108363813813277 -0.00048150342435851479 0 -0.00048150342435851479 -0.0010477439094548208 0 0 0 -0.02735288943068296 0.00074992620784880559 -0.001841677662263827 0 -0.001841677662263827 0.0096503266161536566 0 0 0 0.002600063206000619 -0.018739496107993463 -0.019239891002116819 0 -0.019239891002116819 -0.0052957776222620975 0 0 0 -0.0060088184325638935 -0.0024647249290665769 -0.01778000198149399 0 -0.01778000198149399 -0.0039424387209466005 0 0 0 -0.0016017909125032939 0.049407365950512705 0.047632973101553899 0 0.047632973101553899 0.10561856245262435 0 0 0 0.038756482100784251 -0.059751156238971016 -0.0062782406571342542 0 -0.0062782406571342542 7.8842950932292086e-05 0 0 0 -0.014918078322009686 -0.039104280788676969 0.0032176876288198958 0 0.0032176876288198958 0.00041677491585830062 0 0 0 -0.0096718764682046654 0.023460669103107845 -0.0066744173182790786 0 -0.0066744173182790786 0.0019648487447953 0 0 0 0.006356379461975814 0.018249408412080226 -0.008445697181246957 0 -0.008445697181246957 0.0013404553631181093 0 0 0 0.0048974659437995838 0.023494997480060332 0.0076523745690837905 0 0.0076523745690837905 0.024045008206893703 0 0 0 0.011885001421738511 0.026022322158022436 -0.012700250061552473 0 -0.012700250061552473 0.00054174195709810052 0 0 0 0.0066410160287801393 0.036491108708760003 0.0093492258562378923 0 0.0093492258562378923 0.0042273681588454251 0 0 0 0.010179619216901348 0.044022685037653275 0.0073152827225187733 0 0.0073152827225187733 0.097222247558699126 0 0 0 0.035311233149088184 -0.025434275230862259 0.009117539897883024 0 0.009117539897883024 0.0019160493447412056 0 0 0 -0.0058795564715302586 0.012373923864981262 0.003899340404681869 0 0.003899340404681869 0.0057833014909103031 0 0 0 0.0045393063389728948 0.11821291212345786 0.0085570743116765678 0 0.0085570743116765678 0.047826191872289314 0 0 0 0.041509775998936904 -0.042498253156393828 -0.0036925422618143133 0 -0.0036925422618143133 -0.0005512726196928372 0 0 0 -0.010762381444021694 -0.13487769785093914 -0.0020530368447234035 0 -0.0020530368447234035 -0.00066266748849630464 0 0 0 -0.033885091334858855 -0.072995859001566285 0.00020223971243571586 0 0.00020223971243571586 -0.00062600267799559073 0 0 0 -0.018405465419890452 0.015381050484847638 0.0014584981755440384 0 0.0014584981755440384 0.0396363592792136 0 0 0 0.013754352441015302 -0.020079523018095957 -0.01568349899979157 0 -0.01568349899979157 -0.0020626482475931129 0 0 0 -0.005535542816422271 -0.032045810161979771 -0.019674049943356531 0 -0.019674049943356531 -0.00090995977272918804 0 0 0 -0.0082389424836772397 0.066762855162983525 0.014016342439336523 0 0.014016342439336523 0.019324174770606495 0 0 0 0.021521757483397502 -0.026556749581023831 -0.0061151009001445406 0 -0.0061151009001445406 -0.0015411369614199977 0 0 0 -0.0070244716356108183 0.015797756832839044 -0.010990563073073834 0 -0.010990563073073834 0.012165254573694384 0 0 0 0.0069907528516333917 0.11335874170786497 0.0091396118577828853 0 0.0091396118577828853 0.095273388875718901 0 0 0 0.052158032645895913 -0.022330430306942262 -0.0044265320832873037 0 -0.0044265320832873037 0.0020784538118090445 0 0 0 -0.0050629941237831932 0.0094646959298479508 -0.025496991736230958 0 -0.025496991736230958 0.019546783625658468 0 0 0 0.0072528698888766063 0.014890551731790394 -0.0011947565356884085 0 -0.0011947565356884085 0.026813337831583406 0 0 0 0.01042597239084346 0.0015127468088855962 0.0028474463601719201 0 0.0028474463601719201 0.0090808601590715091 0 0 0 0.0026484017419892668 -0.030102574019719386 0.0061240878504433827 0 0.0061240878504433827 0.00065014627715420659 0 0 0 -0.0073631069356414613 0.046047171237497242 -0.011789771329225762 0 -0.011789771329225762 0.046628334998856769 0 0 0 0.023168876559088503 0.0036266504735628508 0.0076607982803324577 0 0.0076607982803324577 0.0004387565176229638 0 0 0 0.0010163517477964519 0.051653885138785161 -0.0070574298960367904 0 -0.0070574298960367904 0.028492181588877286 0 0 0 0.020036516681915622 -0.03774034426511487 0.0060969165857445145 0 0.0060969165857445145 -0.00010724837788897434 0 0 0 -0.0094618981607509575 -0.0076576495943523337 -0.011366018770862482 0 -0.011366018770862482 0.020682361856552811 0 0 0 0.0032561780655501193 -0.019878474766010235 0.01047810555772149 0 0.01047810555772149 -0.00025051144303839951 0 0 0 -0.0050322465522621576 -0.054149170901894972 -0.0062059445566654547 0 -0.0062059445566654547 0.0010274716867915146 0 0 0 -0.013280424803775892 -0.042766234511271643 0.0053907648162878664 0 0.0053907648162878664 -0.00044228256005608181 0 0 0 -0.01080212926783194 -0.030707384573217478 0.0067480891817162502 0 0.0067480891817162502 0.00077219626563612698 0 0 0 -0.0074837970768953386 -0.035296943411400217 0.02719486840228047 0 0.02719486840228047 0.0010713546669208762 0 0 0 -0.0085563971861198906 0.0091619304296734726 -0.0098547089022914258 0 -0.0098547089022914258 -0.0012316566939528373 0 0 0 0.0019825684339301597 0.0035989167330555093 -0.014694252944543565 0 -0.014694252944543565 -0.0050648515210158576 0 0 0 -0.00036648369699008448 -0.0034026087548881352 0.010993348389253504 0 0.010993348389253504 -0.0010338082141608685 0 0 0 -0.0011091042422622507 -0.00058025387730748011 0.0084113200817898335 0 0.0084113200817898335 6.0248490296797678e-05 0 0 0 -0.00013000134675267175 0.012379850382371774 -0.00013664313054948321 0 -0.00013664313054948321 0.012419020439740414 0 0 0 0.0061997177055280461 0.031498015500380297 -0.018630189926499972 0 -0.018630189926499972 0.03596456462634285 0 0 0 0.016865645031680768 0.020025389796525905 -0.011386543909719965 0 -0.011386543909719965 0.015901373633841379 0 0 0 0.0089816908575918314 0.007662315929096164 -0.0096653011109431308 0 -0.0096653011109431308 0.029285053466592492 0 0 0 0.0092368423489221363 0.018640268414259573 -0.0088746503891326961 0 -0.0088746503891326961 0.015697396905053035 0 0 0 0.0085844163298281345 0.055535483593742357 0.0042251534903783271 0 0.0042251534903783271 0.040081132935707808 0 0 0 0.023904154132362548 0.023397683604605868 -0.0095147349249503355 0 -0.0095147349249503355 0.021941062625738916 0 0 0 0.01133468655758621 -0.076936239934241757 0.0026539131262193561 0 0.0026539131262193561 0.00037238647559978411 0 0 0 -0.019140963364660493 -0.14625449873864174 -0.005892345615676242 0 -0.005892345615676242 0.0027227661315104568 0 0 0 -0.035882933151782787 0.050146629329477097 -0.005581148079006823 0 -0.005581148079006823 0.021854126466153895 0 0 0 0.018000188948907772 0.066248218592547231 0.0070765593601155585 0 0.0070765593601155585 0.048327200671670956 0 0 0 0.028643854816054554 -0.020397082446171604 0.0083119504936660892 0 0.0083119504936660892 0.0059411621777764739 0 0 0 -0.0036139800670987737 0.021812141725303984 0.005306374522430349 0 0.005306374522430349 0.0035914173938269255 0 0 0 0.0063508897797827282 0.017008541082484445 -0.01375412206660798 0 -0.01375412206660798 -0.0057190404106128336 0 0 0 0.0028223751679679037 0.026509941025552011 -0.0074116209602963952 0 -0.0074116209602963952 -0.0088953899009560234 0 0 0 0.0044036377811489894 0.041102820805898173 -0.029089812370061092 0 -0.029089812370061092 0.06431058758809996 0 0 0 0.026353352098499545 -0.033215900000834686 0.0064037631159828724 0 0.0064037631159828724 -0.00042510070972969632 0 0 0 -0.0084102501776410973 -0.02590247149908494 0.0067808466704645104 0 0.0067808466704645104 0.00041488426183712568 0 0 0 -0.0063718968093119483 -0.032471748388518212 -0.011792929162542985 0 -0.011792929162542985 0.00046406535748984984 0 0 0 -0.0080019207577570889 -0.046954470531114276 -0.011904775140795168 0 -0.011904775140795168 -0.0020693245299840263 0 0 0 -0.012255948765274572 -0.073580211563105818 -0.0036227065429537317 0 -0.0036227065429537317 0.001275139623658883 0 0 0 -0.018076267984861727 0.036424625292994117 0.043655223050320213 0 0.043655223050320213 0.063916716896565196 0 0 0 0.025085335547389842 0.044290874397554969 -0.0090345113927181586 0 -0.0090345113927181586 0.025982613858052117 0 0 0 0.017568372063901772 0.019944124777424767 0.0018030221902921029 0 0.0018030221902921029 -0.0012880125099230342 0 0 0 0.0046640280668754884 -0.0019987974283576827 0.00950168854430802 0 0.00950168854430802 0.00059215237639772406 0 0 0 -0.00035166126298998707 0.010807438907681745 0.00034211892908972332 0 0.00034211892908972332 0.028906269249511396 0 0 0 0.0099284270392982904 -0.025255777851677187 0.0072213661594775214 0 0.0072213661594775214 -0.00025941522885904872 0 0 0 -0.0063787982701340624 0.073073294404213229 0.020540542820148389 0 0.020540542820148389 0.023282661782988434 0 0 0 0.024088989046800513 0.016345217487910572 0.008291692125142797 0 0.008291692125142797 0.0030213833386317709 0 0 0 0.0048416502066355857 0.024017540608772227 -0.0088418925303511697 0 -0.0088418925303511697 0.0033176520611836666 0 0 0 0.0068337981674889657 0.078391200492189061 -0.040214116029365532 0 -0.040214116029365532 0.054321990624750925 0 0 0 0.033178297779235019 -0.13152938975720735 0.0092792289593670585 0 0.0092792289593670585 0.0021286912671059088 0 0 0 -0.032350174622525318 0.027497423272293563 0.0022566301041994385 0 0.0022566301041994385 0.001369022490656995 0 0 0 0.0072166114407376369 -0.0083195873052199637 0.00877630291546138 0 0.00877630291546138 -0.00078921656938596083 0 0 0 -0.0022772009686514811 -0.0031996543093339991 -0.011854449280012776 0 -0.011854449280012776 -0.0018798718649831181 0 0 0 -0.0012698815435792758 0.029383565196294797 0.0092443393529005637 0 0.0092443393529005637 0.0099787843878364063 0 0 0 0.0098405873960327982 -0.049121309630779028 0.0059547851278076852 0 0.0059547851278076852 0.0016297236690296368 0 0 0 -0.011872896490437351 -0.08438333570280622 -0.013981216242487424 0 -0.013981216242487424 0.0053540389777777253 0 0 0 -0.019757324181257106 0.074946182092496594 0.011578030011459517 0 0.011578030011459517 0.048225413432550823 0 0 0 0.030792898881261577 -0.024599951831991818 -0.0069325463007983146 0 -0.0069325463007983146 -0.0013667832239470101 0 0 0 -0.0064916837639846792 0.051164084719795028 0.0030148292705889784 0 0.0030148292705889784 0.047539178644064539 0 0 0 0.024675815840964899 0.035167430464528672 -0.021061689868310637 0 -0.021061689868310637 0.0070453232962309348 0 0 0 0.010553188440189903 0.043017148766180638 0.0026533900663551213 0 0.0026533900663551213 0.021604859994281411 0 0 0 0.016155502190115495 0.02233265182589108 0.0071472230336915282 0 0.0071472230336915282 0.0058163672045272799 0 0 0 0.0070372547576045882 0.026758245366946383 -0.00064642265863689959 0 -0.00064642265863689959 0.00021133534804021383 0 0 0 0.0067423951787466529 0.0045459855673534565 0.0078713359121881134 0 0.0078713359121881134 0.0032090516159874061 0 0 0 0.0019387592958352174 0.02831648776790123 -0.011351152682147874 0 -0.011351152682147874 0.078697599172821736 0 0 0 0.026753521735180745 0.027862320354799654 -0.011224292317589339 0 -0.011224292317589339 0.074232106629504774 0 0 0 0.025523606746076104 -0.011782668664544915 -0.012665973874384395 0 -0.012665973874384395 0.0010021022540935842 0 0 0 -0.0026951416026128605 -0.015998574456878412 -0.013545443944355751 0 -0.013545443944355751 0.0010011878338591629 0 0 0 -0.0037493466557548816 0.048753358866835739 0.019889852459373136 0 0.019889852459373136 0.023568204360971734 0 0 0 0.018080390806951896 0.058966568197225677 0.021324412032310947 0 0.021324412032310947 0.024981701502186482 0 0 0 0.020987067424853123 0.047802408387682793 0.025061843565391734 0 0.025061843565391734 0.012729335966941591 0 0 0 0.015132936088656179 0.073487811071522025 0.021570979200881468 0 0.021570979200881468 0.017356115549613804 0 0 0 0.022710981655284068 0.022298421362801777 0.0050584807784689201 0 0.0050584807784689201 0.0074318727981198783 0 0 0 0.007432573540230413 0.057057073988393991 0.0022918843098594099 0 0.0022918843098594099 0.062020259808830136 0 0 0 0.029769333449306018 0.047841219278328073 0.0043174257354274548 0 0.0043174257354274548 0.034608988141338032 0 0 0 0.020612551854916561 -0.044907174380644677 -0.0063415306947504635 0 -0.0063415306947504635 0.0011702541178857384 0 0 0 -0.010934230065689832 -0.050925360720133955 -0.002096788056741572 0 -0.002096788056741572 0.00032454369446749398 0 0 0 -0.012650204256416581 -0.085623007523761618 0.0060409985068336503 0 0.0060409985068336503 0.00032942080244402483 0 0 0 -0.021323396680329343 0.044047964698957928 0.015848169143162522 0 0.015848169143162522 0.01911115323097564 0 0 0 0.015789779482483387 0.045585402579909451 0.016534894789223337 0 0.016534894789223337 0.022997192618995951 0 0 0 0.017145648799726347 0.027335166100259076 0.0057751105900719123 0 0.0057751105900719123 0.00019020336339993157 0 0 0 0.0068813423659147581 0.020849167275454279 0.0064316379836234262 0 0.0064316379836234262 0.0020599158880066706 0 0 0 0.0057272707908652375 -0.063420448425363568 -0.012408568791963196 0 -0.012408568791963196 -0.0039694984684417178 0 0 0 -0.016847486723451325 -0.040399473147967116 0.0053952935366089012 0 0.0053952935366089012 -0.00058983686708978349 0 0 0 -0.010247327503764239 -0.031510509901697487 0.0089790654683217057 0 0.0089790654683217057 -0.0003605409800341991 0 0 0 -0.0079677627204329075 0.088352763941763834 0.018346174947457605 0 0.018346174947457605 0.060508319594570814 0 0 0 0.037215270884083607 -0.025441824793201007 -0.0070568582060048235 0 -0.0070568582060048235 0.0026552372392933954 0 0 0 -0.0056966468884769306 0.023045831358225556 -0.002677638215712267 0 -0.002677638215712267 0.0018071362847474175 0 0 0 0.0062132419107432425 0.03876863606682443 -0.0034451450149261265 0 -0.0034451450149261265 -0.0050621643641499542 0 0 0 0.0084266179256686276 -0.01892184808446673 -0.010442760493079739 0 -0.010442760493079739 0.0033786166550038299 0 0 0 -0.0038858078573656973 0.0060460288886890817 -0.017562447894697467 0 -0.017562447894697467 -0.0025716283097533062 0 0 0 0.00086860014473394583 0.01290130063990463 -0.0022009934586742774 0 -0.0022009934586742774 0.016675921230288968 0 0 0 0.0073943054675483962 0.047478999021407897 0.010555922078628842 0 0.010555922078628842 0.0092755313446177823 0 0 0 0.014188632591506437 -0.024102014591767792 0.025873558752130599 0 0.025873558752130599 0.0032715655794675058 0 0 0 -0.0052076122530751306 -0.040530458475843939 0.0032718047704578535 0 0.0032718047704578535 0.0033152429201745437 0 0 0 -0.0093038038889173419 -0.07083360789549295 -0.0053655180581618084 0 -0.0053655180581618084 0.0082877412340505163 0 0 0 -0.015636466665360615 0.013293908715580061 -0.00099097733272340838 0 -0.00099097733272340838 -0.015083501517710207 0 0 0 -0.00044739820053252277 0.019295919007805251 0.0053144154902460827 0 0.0053144154902460827 -0.018250692627396092 0 0 0 0.00026130659510226195 -0.023129571405854872 0.0098803751912302038 0 0.0098803751912302038 0.00065702282456231442 0 0 0 -0.0056181371453231464 -0.014714581433542236 0.008457083413459774 0 0.008457083413459774 1.0835749503834702e-05 0 0 0 -0.0036759364210096034 0.013091642268076046 0.0031873730371235285 0 0.0031873730371235285 0.01058125026105091 0 0 0 0.0059182231322817396 -0.042932261379002794 0.0087333999061921345 0 0.0087333999061921345 0.0019256390220254889 0 0 0 -0.010251655589244318 -0.03000858385960143 -0.018153416571180515 0 -0.018153416571180515 -0.0055944603685494018 0 0 0 -0.0089007610570377132 0.011441380509612908 -0.0030549908247067825 0 -0.0030549908247067825 -0.060498177651846341 0 0 0 -0.012264199285558275 -0.0099602830814796706 0.035123834630838791 0 0.035123834630838791 0.0048893959329596726 0 0 0 -0.0012677217871300828 0.019937549310877219 0.0064197122234634701 0 0.0064197122234634701 0.0066448361948851309 0 0 0 0.0066455963764405872 0.098762044121174508 0.0069670918464359577 0 0.0069670918464359577 0.051612604080715885 0 0 0 0.037593662050472654 0.068556882876112543 0.022533229500390078 0 0.022533229500390078 0.0626502864560331 0 0 0 0.032801792333036414 -0.065108053309705566 0.0039019240780537034 0 0.0039019240780537034 0.015117720254888362 0 0 0 -0.012497583263704343 0.052746382668512629 0.025776240077238787 0 0.025776240077238787 0.067441917053457701 0 0 0 0.030047074930492579 0.0622344648468681 0.02087351187171501 0 0.02087351187171501 0.043859456212853115 0 0 0 0.026523480264930337 -0.0075539753025872809 0.0092927299212385312 0 0.0092927299212385312 0.0010333108357251414 0 0 0 -0.0016301661167155369 0.0098685950826022731 0.0068469371672659745 0 0.0068469371672659745 0.001188868154262326 0 0 0 0.0027643658092161511 -0.072309179759522502 0.023830317783492871 0 0.023830317783492871 0.0083369395048271677 0 0 0 -0.015993060063673792 0.0084807765517747949 -0.006408054730968147 0 -0.006408054730968147 0.035715209280822675 0 0 0 0.011048996458149371 0.038838224115963729 0.018171373488152974 0 0.018171373488152974 0.074145143669203689 0 0 0 0.028245841946291886 0.017259589255925398 -0.012651079096359971 0 -0.012651079096359971 0.0057578800772361549 0 0 0 0.0057543673332903778 -0.056171217444668367 -0.0005706583023156464 0 -0.0005706583023156464 0.0013861239771320935 0 0 0 -0.013696273366884061 -0.099956063272138879 0.0022983505619520728 0 0.0022983505619520728 0.0062985416298966812 0 0 0 -0.02341438041056057 -0.031988121080682275 0.012969779827953554 0 0.012969779827953554 -1.5460809348111226e-05 0 0 0 -0.0080008954725077075 0.039281773215791238 -0.013742690357694376 0 -0.013742690357694376 0.024410462959444601 0 0 0 0.015923059043808918 0.016374375306009659 -0.010613479586607313 0 -0.010613479586607313 0.016821027181540049 0 0 0 0.0082988506218874269 0.054381959471943027 0.011616141734503226 0 0.011616141734503226 0.010945374947251264 0 0 0 0.016331833604798569 -0.021317082547427701 -0.018770292514115286 0 -0.018770292514115286 -0.0079547980556664427 0 0 0 -0.0073179701507735378 -0.037264646709307805 0.0069249165142882757 0 0.0069249165142882757 0.0012403708569392602 0 0 0 -0.0090060689630921363 -0.049962537349966842 -0.011415627977508086 0 -0.011415627977508086 0.003585805321816047 0 0 0 -0.011594183007037693 0.020580876584800539 -0.010414085966843366 0 -0.010414085966843366 0.028517750378847184 0 0 0 0.012274656740911938 -0.021204417778019121 0.0058555605282249248 0 0.0058555605282249248 0.0022251206391698079 0 0 0 -0.004744824284712337 0.024341425959120713 0.0059436489168570167 0 0.0059436489168570167 0.060533654057391632 0 0 0 0.021218770004128092 0.025532765391138555 -0.00087012571610122814 0 -0.00087012571610122814 0.0085125491214713567 0 0 0 0.0085113286281524782 0.021376150443665032 -0.010923110563930166 0 -0.010923110563930166 0.015551931544522113 0 0 0 0.0092320204970467723 -0.052890138947859017 0.002511893620818894 0 0.002511893620818894 0.0020754519130988178 0 0 0 -0.012703671758690031 -0.092249876980369003 -0.0075810166200743767 0 -0.0075810166200743767 0.0040854633289398867 0 0 0 -0.022041103412857296 -0.044899846507611106 -0.010343337947849862 0 -0.010343337947849862 0.0037467955932434724 0 0 0 -0.010288262728591867 0.0051435372064444068 -0.0087566776586886774 0 -0.0087566776586886774 0.018785510876141054 0 0 0 0.0059822620206463756 0.013055304309368992 -0.0043873038392330116 0 -0.0043873038392330116 0.035945136645666842 0 0 0 0.012250110238758952 -0.0054809469194185539 0.0070608815601075287 0 0.0070608815601075287 0.002483853899608032 0 0 0 -0.00074927325495262884 0.016260859774578029 -0.011555748453179061 0 -0.011555748453179061 0.0071469929303314417 0 0 0 0.0058519631762273816 -0.022276047021684689 -0.0096570665836229197 0 -0.0096570665836229197 0.0017151528816844036 0 0 0 -0.0051402235350001147 -0.014343405859232409 0.0076323181976485381 0 0.0076323181976485381 0.002637731425079449 0 0 0 -0.0029264186085382381 0.019917759487983008 -0.011515903789271503 0 -0.011515903789271503 0.0056741291403721861 0 0 0 0.0063979721570887743 0.02785183017670969 -0.0023160024967971166 0 -0.0023160024967971166 -0.002808891976684923 0 0 0 0.0062607345500061955 -0.057310217603175714 0.0019915377101599741 0 0.0019915377101599741 0.0016217464106378365 0 0 0 -0.013922117798134473 -0.10471348269824216 -0.0040984388216989409 0 -0.0040984388216989409 0.0023306428072097929 0 0 0 -0.025595709972758091 -0.035298034588775513 -0.0039254050015171682 0 -0.0039254050015171682 -0.0010464115360492021 0 0 0 -0.0090861115312060384 0.089574039286468898 0.0088649998244423323 0 0.0088649998244423323 0.064843843283504454 0 0 0 0.038604470642493283 0.082900713044447238 0.017834169860502902 0 0.017834169860502902 0.051194664327242068 0 0 0 0.033523844342922438 -0.034792586314348117 -0.0037929398530039335 0 -0.0037929398530039335 -0.00029115339910079641 0 0 0 -0.0087709349283622284 0.10908117100576065 0.0066314616768698015 0 0.0066314616768698015 0.087520488252001982 0 0 0 0.049150414814440602 0.050067166508625971 -0.0088990317745018255 0 -0.0088990317745018255 0.012030364566029905 0 0 0 0.015524382768663941 0.0090677594794134619 -0.012024572692483179 0 -0.012024572692483179 0.013960543483303833 0 0 0 0.0057570757406793238 0.10138047555912172 -0.0092743855366778719 0 -0.0092743855366778719 0.073375633479157321 0 0 0 0.04368902725956969 0.16164004703568685 0.0091123743716252648 0 0.0091123743716252648 0.13261796510515722 0 0 0 0.073564503035211004 -0.047148269812017821 -0.017171060746187072 0 -0.017171060746187072 0.016303366542173736 0 0 0 -0.0077112258174610038 -0.010634007154181863 0.0084752780345626437 0 0.0084752780345626437 0.0012228614260484383 0 0 0 -0.0023527864320333578 0.02890133195165159 0.0068233592196620552 0 0.0068233592196620552 0.0017938258751025249 0 0 0 0.0076737894566885189 -0.030570254751572379 0.021347128930713777 0 0.021347128930713777 -0.00095143247724438496 0 0 0 -0.0078804218072041632 0.03894233956940385 -0.013530214899948073 0 -0.013530214899948073 0.013639745714189688 0 0 0 0.013145521320898301 0.027847422691397741 0.00050181774180867752 0 0.00050181774180867752 0.0026079642120732582 0 0 0 0.0076138467258677501 -0.0074415029031483877 0.0069282670759860596 0 0.0069282670759860596 0.0084051655217390851 0 0 0 0.00024091565464767501 0.10725934167470474 0.010031481901255045 0 0.010031481901255045 0.054120721281869955 0 0 0 0.040345015739143619 0.017947507069449836 -0.010714232814523618 0 -0.010714232814523618 -0.0069858676054111724 0 0 0 0.0027404098660096694 0.041410370891926375 -0.0032103422350761857 0 -0.0032103422350761857 0.0054910248844315113 0 0 0 0.011725348944089477 0.043282645200124564 -0.0044962041189594709 0 -0.0044962041189594709 0.0072760011532884139 0 0 0 0.012639661588353251 0.056345450535298047 -0.012855508066674098 0 -0.012855508066674098 0.030832493877667844 0 0 0 0.021794486103241473 0.071580409366832382 -0.0051327680576343515 0 -0.0051327680576343515 0.067944509648298845 0 0 0 0.0348812297537828 0.11803162656293215 0.0018650768590286471 0 0.0018650768590286471 0.12203730093110526 0 0 0 0.060017231873509325 0.092389467333152106 0.015427453028724669 0 0.015427453028724669 0.062483341272279086 0 0 0 0.038718202151357836 0.037372996322396976 0.014243383763640385 0 0.014243383763640385 0.021996799141023267 0 0 0 0.014842448865855059 0.050353277813265783 -0.014475784879865922 0 -0.014475784879865922 0.0033377199050458883 0 0 0 0.013422749429577906 0.058839868267997732 -0.027164689910962426 0 -0.027164689910962426 0.028306859767527039 0 0 0 0.021786682008881175 -0.030829847155315671 -0.010824839588754132 0 -0.010824839588754132 0.0019017651773747812 0 0 0 -0.0072320204944852917 -0.024888936210830249 0.0079823334553250046 0 0.0079823334553250046 0.0013081029507124638 0 0 0 -0.0058952083150294442 -0.015082483856910684 0.0094971415445036789 0 0.0094971415445036789 0.0019212727534414498 0 0 0 -0.0032903027758673046 -0.033953493248261371 0.0066934949900920027 0 0.0066934949900920027 0.036096080965115851 0 0 0 0.00053564692921363732 0.035888282486604028 -0.011929569683060248 0 -0.011929569683060248 0.020413325441965724 0 0 0 0.01407540198214241 0.065151542984073496 0.012572693694664877 0 0.012572693694664877 0.041917813399061421 0 0 0 0.026767339095783715 0.028112961647939073 0.0082177093025974732 0 0.0082177093025974732 0.0055237970683328398 0 0 0 0.0084091896790679695 0.013748753129846525 -0.0025161160210258604 0 -0.0025161160210258604 -0.03421576007416971 0 0 0 -0.0051167517360808379 0.018231711286922518 0.0067390097250494257 0 0.0067390097250494257 0.0010060753713283417 0 0 0 0.0048094466645627141 0.018806633208821318 -0.01178640411479321 0 -0.01178640411479321 0.013143723625613168 0 0 0 0.0079875892086086198 0.029034475629731958 0.00046557491373281821 0 0.00046557491373281821 -0.0037254545974899009 0 0 0 0.0063272552580605126 0.027603348601009547 0.025911677071995265 0 0.025911677071995265 0.0021522484651965712 0 0 0 0.0074388992665515019 0.032541874163870693 0.025718904990325031 0 0.025718904990325031 0.0069541288066281293 0 0 0 0.0098740007426249277 -0.0032320820776167644 -0.01673891824046525 0 -0.01673891824046525 0.0048678527637725233 0 0 0 0.00040894267153896574 0.079061356741957467 -0.055956812221584058 0 -0.055956812221584058 0.10915143640085816 0 0 0 0.047053198285703875 0.026679515473201684 0.0017126992473725281 0 0.0017126992473725281 -0.00090937238618896306 0 0 0 0.0064425357717531814 -0.036166097738456304 -0.0069657839427070822 0 -0.0069657839427070822 0.001715864826311142 0 0 0 -0.0086125582280362489 -0.00037498288398718493 -0.0013037290708151072 0 -0.0013037290708151072 -0.00023504925048989378 0 0 0 -0.00015250803361921417 0.1981170926542386 -0.0013978136569068322 0 -0.0013978136569068322 0.14697287136314863 0 0 0 0.086272491004346641 0.15140891088222047 -0.015527240533069087 0 -0.015527240533069087 0.12869200213126988 0 0 0 0.070025228253372374 0.096396177133561745 0.0077872669910290515 0 0.0077872669910290515 0.074757266317247772 0 0 0 0.042788360862702324 -0.00064723702501501279 0.0021149665770194216 0 0.0021149665770194216 -0.00027451088330465723 0 0 0 -0.00023043697707958444 0.00060209531659235831 -0.0010387453809175273 0 -0.0010387453809175273 5.6201893211559701e-05 0 0 0 0.00016457430245106277 0.12505305050855875 -0.0013384461672169817 0 -0.0013384461672169817 0.087334855946617829 0 0 0 0.053096976613794311 0.001133455165231334 0.0016980183779797819 0 0.0016980183779797819 5.9646810371738468e-05 0 0 0 0.00029827549390071262 0.023372874274776599 0.00066067381261160872 0 0.00066067381261160872 0.0015143473122807786 0 0 0 0.0062218053967643431 0.022258723941235792 -0.011091594300336099 0 -0.011091594300336099 0.0037267991309232543 0 0 0 0.006496380768039765 -0.014287116792704363 0.0090697111950163133 0 0.0090697111950163133 0.0046697900201515888 0 0 0 -0.0024043316931381918 -0.017355659299697179 -0.014460274391154049 0 -0.014460274391154049 0.0029790144246761852 0 0 0 -0.0035941612187551653 0.025256972426758714 -0.0055062171176830273 0 -0.0055062171176830273 -0.0059905312529837662 0 0 0 0.004816610293443737 0.00113486439706878 0.022245758635325963 0 0.022245758635325963 0.0021046879924790929 0 0 0 0.00080988809738680168 0.018242030296434231 -0.017199271864564381 0 -0.017199271864564381 0.0070398754766300975 0 0 0 0.0063204764432660543 0.052531185568858163 -0.0093639772238471586 0 -0.0093639772238471586 0.052539833142801973 0 0 0 0.026267754677914978 0.097375025428265288 0.0076346662317886838 0 0.0076346662317886838 0.098858802124724199 0 0 0 0.049058456888247309 0.034027137977984567 0.0059152079288653653 0 0.0059152079288653653 0.046511251851048041 0 0 0 0.02013459745725818 -0.011104625561557967 0.0046923507777611607 0 0.0046923507777611607 0.0044003081451647885 0 0 0 -0.0016760793540982893 0.022447820498940646 -0.0092767503189886847 0 -0.0092767503189886847 0.035966087178896711 0 0 0 0.014603476919459346 0.060755035474425706 0.0061378355682247532 0 0.0061378355682247532 0.071480751030695455 0 0 0 0.033058946626280311 0.010264266354848325 -0.014619609966327107 0 -0.014619609966327107 0.005450320584838908 0 0 0 0.0039286467349218118 0.029451183232248945 0.0067608485002170291 0 0.0067608485002170291 0.0019874749736799036 0 0 0 0.0078596645514822164 0.016003665252393384 -0.016013561734113169 0 -0.016013561734113169 0.012630893223668727 0 0 0 0.0071586396190156387 -0.00020318185903467345 0.017706616898401251 0 0.017706616898401251 0.0024952798975883539 0 0 0 0.00057302450963847562 0.044093582488353794 0.0013706520443751702 0 0.0013706520443751702 0.019297907692028327 0 0 0 0.015847872545095509 0.048484129340770177 0.00066803435246584608 0 0.00066803435246584608 0.020759840821738818 0 0 0 0.017310992540627235 0.004935101974435082 0.0082979223402254131 0 0.0082979223402254131 0.0011404247350388502 0 0 0 0.0015188816773684805 0.00028134153966256382 0.0012304970437602494 0 0.0012304970437602494 0.023460752966809287 0 0 0 0.0059355236266179588 0.044613251704978971 -0.0132608410682587 0 -0.0132608410682587 0.015170048651483581 0 0 0 0.014945825089115669 0.023860620582815122 -0.012009565226202279 0 -0.012009565226202279 0.0043943068440543721 0 0 0 0.0070637318567174003 0.0710053470162198 -0.010263817428718902 0 -0.010263817428718902 0.018967193479651034 0 0 0 0.022493135123967722 0.053417190152628732 0.0033561298055658495 0 0.0033561298055658495 0.042106444572094448 0 0 0 0.023880908681180826 0.045987430655882539 0.004270033293338249 0 0.004270033293338249 0.019941468505934978 0 0 0 0.016482224790454442 -0.017820861125491631 0.0084996996278094063 0 0.0084996996278094063 0.00074248680316001819 0 0 0 -0.004269593580582905 0.012642718621750273 -0.0026112087120855883 0 -0.0026112087120855883 0.027849293385403928 0 0 0 0.01012300300178855 0.013587802046257829 -0.0013346438556247637 0 -0.0013346438556247637 0.034058238920346977 0 0 0 0.011911510241651204 0.071336487478155491 0.039112043086993759 0 0.039112043086993759 0.11514743994297173 0 0 0 0.046620981855281803 0.038861446726228398 -0.011030935732660847 0 -0.011030935732660847 0.13239321788377706 0 0 0 0.042813666152501394 0.10469737418585101 0.0096183138438917012 0 0.0096183138438917012 0.065492781710022818 0 0 0 0.042547538973968679 0.03502297286175473 0.015526952139462974 0 0.015526952139462974 0.029353723000349108 0 0 0 0.016094173965525954 -0.045757173291087638 -0.0047065628119326896 0 -0.0047065628119326896 0.0016088180073166036 0 0 0 -0.011037088820942675 0.004620488796210737 0.0081668439017385137 0 0.0081668439017385137 0.00032164837206256208 0 0 0 0.0012355342920683226 -0.017053253782268116 -0.013667577964001922 0 -0.013667577964001922 -0.0032190301941126126 0 0 0 -0.0050680709940951821 -0.017627566580115127 0.0081175271118288112 0 0.0081175271118288112 -0.00060678756022003455 0 0 0 -0.0045585885350837921 0.038343048450809471 0.00072493941220041526 0 0.00072493941220041526 -0.0062135525314636056 0 0 0 0.0080323739798364591 -0.026306363152638058 0.0025976664480377252 0 0.0025976664480377252 0.0015626865050408099 0 0 0 -0.0061859191618993115 -0.025429330979098969 0.0032091307892101444 0 0.0032091307892101444 -0.0034332733970934698 0 0 0 -0.0072156510940481113 -0.033829412105933911 -0.0050328645678132042 0 -0.0050328645678132042 0.002729450357359723 0 0 0 -0.0077749904371435417 -0.032957534800070139 -0.0059500473323500841 0 -0.0059500473323500841 -0.0039596186183962108 0 0 0 -0.0092292883546165883 -0.0062183522673213698 -0.0077091932935618168 0 -0.0077091932935618168 0.01361704207814593 0 0 0 0.001849672452706147 0.030545086649628593 0.0018126144550215878 0 0.0018126144550215878 0.00026930378609679305 0 0 0 0.0077035976089313406 0.089757246665818802 0.016802967499354393 0 0.016802967499354393 0.021912186833349168 0 0 0 0.027917358374791978 0.032194358303807499 -0.0039532580050298874 0 -0.0039532580050298874 0.04460942052406891 0 0 0 0.019200944706969092 0.042876778919897156 0.020851234077414162 0 0.020851234077414162 0.044663930320984736 0 0 0 0.021885177310220473 0.011467189616160584 -0.015877012389160557 0 -0.015877012389160557 0.019235928126279389 0 0 0 0.0076757794356099862 0.0033390542498582423 0.0038641628832123409 0 0.0038641628832123409 -0.0076551570125199852 0 0 0 -0.0010790256906653246 0.048983050838022846 0.0047529742756422522 0 0.0047529742756422522 0.011420661835536755 0 0 0 0.015100928168389873 0.076588612488502114 -0.0090015207170957012 0 -0.0090015207170957012 0.02520469626117991 0 0 0 0.025448327187420506 0.0016995896865059058 -0.0026398830783120886 0 -0.0026398830783120886 -0.0050671975452480462 0 0 0 -0.00084190196468553506 0.022581899736846767 -0.0066566250886261336 0 -0.0066566250886261336 0.0068224529667892941 0 0 0 0.0073510881759090707 0.03809765235732715 0.0031345448870213205 0 0.0031345448870213205 0.013988267862816706 0 0 0 0.01302148005503595 -0.024533633787723913 0.0022834426488289876 0 0.0022834426488289876 -0.0081628320729054543 0 0 0 -0.0081741164651573418 -0.031415996857780529 -0.0047592042766367261 0 -0.0047592042766367261 -0.010451808188526283 0 0 0 -0.010466951261576703 -0.032506048929354103 -0.003616083905348854 0 -0.003616083905348854 -0.004061538467036498 0 0 0 -0.0091418968490976499 -0.025592994617528817 0.0014998386465374389 0 0.0014998386465374389 -0.003402353589151896 0 0 0 -0.0072488370516701778 0.011894671783607147 -0.018321656080506954 0 -0.018321656080506954 0.008236787624341213 0 0 0 0.0050328648519871177 0.0046347926562838237 0.0083281850342509876 0 0.0083281850342509876 0.0020575804255672202 0 0 0 0.0016730932704627612 0.021306459538385406 -0.012286157404502708 0 -0.012286157404502708 0.0086411249379609312 0 0 0 0.0074868961190865807 0.024726789663181162 -0.011200325190246697 0 -0.011200325190246697 0.0045564815156687866 0 0 0 0.0073208177947124975 0.010937174430439378 0.0073196856543226232 0 0.0073196856543226232 0.0038920854873079336 0 0 0 0.00370731497943683 0.022873686899341751 0.0061605507498727809 0 0.0061605507498727809 0.0013027516512645367 0 0 0 0.0060441096376515719 0.022782180398730908 0.0072655469661204678 0 0.0072655469661204678 0.001107492600947349 0 0 0 0.0059724182499195609 0.027258673886173063 -0.025008431964447159 0 -0.025008431964447159 0.085900147453432357 0 0 0 0.028289705334901355 0.068986802370160652 -0.0066654136063505204 0 -0.0066654136063505204 0.23983315550054862 0 0 0 0.077204989467677329 -0.017273498746615677 -0.0030126194726552702 0 -0.0030126194726552702 0.0092169966691428573 0 0 0 -0.0020141255193682414 0.049687593445908729 0.0022814873010780085 0 0.0022814873010780085 0.036718198266904589 0 0 0 0.021601447928203343 0.019865101410797475 -0.010063106276445216 0 -0.010063106276445216 0.022300856281199044 0 0 0 0.010541489422999123 0.025127155171659664 0.0070337030781373964 0 0.0070337030781373964 0.0061036012000862741 0 0 0 0.0078076890929364888 0.080517836785689467 0.014222026790720044 0 0.014222026790720044 0.04643646955735603 0 0 0 0.031738576585761735 -0.021154711145208283 -0.008427674789673989 0 -0.008427674789673989 0.00099026493250686798 0 0 0 -0.0050411115531754369 0.046823038185824499 -0.015352405715898042 0 -0.015352405715898042 0.037802512803035287 0 0 0 0.021156387747214955 0.049833222290986044 -0.0025939918021185837 0 -0.0025939918021185837 0.015863881922901432 0 0 0 0.016424276053471874 -0.018060206633389919 0.015969989126165984 0 0.015969989126165984 0.0027172120085170448 0 0 0 -0.0038357486562183851 0.028485578170222237 -0.016058024348790334 0 -0.016058024348790334 0.022320008252555423 0 0 0 0.012701396605694304 0.028381292265538649 -0.013499980180760204 0 -0.013499980180760204 0.017213193964953799 0 0 0 0.011398621557623057 0.016462059125919026 -0.0058989647220586416 0 -0.0058989647220586416 0.0014798770243411585 0 0 0 0.0044854840375650462 0.060977264314981225 0.0053732105497915628 0 0.0053732105497915628 0.052312728218141535 0 0 0 0.028322498133280624 0.027483974750764459 -0.010554391119280485 0 -0.010554391119280485 -0.0074970614598191326 0 0 0 0.0049967283227363296 0.018116800634688256 0.0016613272849328453 0 0.0016613272849328453 -0.012171363280809838 0 0 0 0.0014863593384695992 -0.00021990787615113264 0.009685369091752865 0 0.009685369091752865 -3.9720616905408734e-05 0 0 0 -6.4907123264137945e-05 0.0048987931931517917 0.0092915981185800051 0 0.0092915981185800051 5.0006053654585991e-05 0 0 0 0.0012371998117015927 0.013819862715937265 0.00096404906701832646 0 0.00096404906701832646 0.020289022315331834 0 0 0 0.0085272212578172777 -0.0013856031963302151 -0.004985896858809305 0 -0.004985896858809305 0.023115231962977489 0 0 0 0.0054324071916618533 0.013429798518787797 0.0063784182088233062 0 0.0063784182088233062 0.00041436418865060248 0 0 0 0.0034610406768596017 0.015756910975056517 0.0077403183697233504 0 0.0077403183697233504 0.0046581191389945126 0 0 0 0.0051037575285127618 0.013849252341828282 0.006793997951619047 0 0.006793997951619047 0.0032155661253722018 0 0 0 0.0042662046168001153 0.023181710853783954 -0.0050088404858500968 0 -0.0050088404858500968 -0.01921619019091636 0 0 0 0.00099138016571681531 0.03002069783413408 -0.0051112025618028356 0 -0.0051112025618028356 0.0065129844800284609 0 0 0 0.0091334205785406075 0.04865724113217728 0.0028303893206108044 0 0.0028303893206108044 0.021290172222521719 0 0 0 0.017486853338674772 0.040089392110544936 0.0034559380382154226 0 0.0034559380382154226 -0.0093597601069435044 0 0 0 0.007682408000900337 0.049359404153982989 -0.025045182365218535 0 -0.025045182365218535 0.08658966476097979 0 0 0 0.033987267228740681 0.070804263148264379 0.0067999316493163597 0 0.0067999316493163597 0.036480106752271091 0 0 0 0.026821092475134201 0.0012955002383403524 -0.0051952675990390995 0 -0.0051952675990390995 -0.0030026708444421679 0 0 0 -0.00042679265152534285 0.045204831009995339 -0.0065914020787025684 0 -0.0065914020787025684 0.018536708813333025 0 0 0 0.015935384955832188 0.0024728522983582524 0.0074956682399629493 0 0.0074956682399629493 -0.0033299905406076746 0 0 0 -0.00021428456056205025 -0.02014256162724859 0.021008707130218893 0 0.021008707130218893 -0.00048167090942285995 0 0 0 -0.0051560581341678624 0.025322691225178384 -0.017307757288004856 0 -0.017307757288004856 0.012220919358180371 0 0 0 0.0093859026458397166 0.025782686712933933 -0.015191690020160409 0 -0.015191690020160409 0.010091689348084687 0 0 0 0.0089685940152546828 0.016035806410103506 -0.00017326057455121534 0 -0.00017326057455121534 0.0278088203005195 0 0 0 0.010961156677655752 0.045727983112695103 -0.00071216810460017488 0 -0.00071216810460017488 0.024449336457074367 0 0 0 0.0175443298924427 0.0061077055769060973 -0.0044600771333804246 0 -0.0044600771333804246 -0.0022792689389143916 0 0 0 0.00095710915949798192 0.0097727090772858904 0.006684434944579154 0 0.006684434944579154 -0.0028965369633571214 0 0 0 0.0017190430284821367 0.028123967057119725 -0.0011569005811604693 0 -0.0011569005811604693 0.0096167481056856907 0 0 0 0.0094351787907016593 0.018219309254940086 -0.0048376463633943989 0 -0.0048376463633943989 -0.0013547137417011523 0 0 0 0.0042161488783097889 0.051210133124278877 -0.017877972858885594 0 -0.017877972858885594 0.0087616182659994712 0 0 0 0.014992937847569658 0.08509599558402535 -0.012999093060814537 0 -0.012999093060814537 0.073331388844486839 0 0 0 0.039606846107128044 0.13401071692746203 0.015219837219547228 0 0.015219837219547228 0.13107981347237607 0 0 0 0.06627263259995958 0.02609277420348851 0.0066061509748792996 0 0.0066061509748792996 0.00052964002497472157 0 0 0 0.0066556035571158044 -0.044899266424577755 0.022417287347955311 0 0.022417287347955311 0.0012847507908340106 0 0 0 -0.010903628908435881 -0.036468922508188562 0.017636061134060889 0 0.017636061134060889 0.00028259486161852365 0 0 0 -0.0090465819116424262 0.017729933514096366 -0.0056357028240881513 0 -0.0056357028240881513 0.00013975685269639396 0 0 0 0.0044674225916981752 0.015533359398473707 0.0030489080326340685 0 0.0030489080326340685 0.010375218994000813 0 0 0 0.0064771445981186334 0.01884885896309834 -0.011229131496766312 0 -0.011229131496766312 0.0075917892032048573 0 0 0 0.0066101620415758098 0.024752065776207879 -0.014601664748731522 0 -0.014601664748731522 0.016292950220775121 0 0 0 0.010261253999245754 -0.0093406980944881202 0.018715159994352415 0 0.018715159994352415 -6.2590526389350032e-05 0 0 0 -0.00235082215521909 0.017731926681947452 -0.014777211941198048 0 -0.014777211941198048 0.011929061757312009 0 0 0 0.0074152471098148931 0.015631936528769541 -0.018518531485855028 0 -0.018518531485855028 0.008982274855948047 0 0 0 0.0061535528461794109 -0.026884073481453972 0.0082098859174902714 0 0.0082098859174902714 -0.00086142781235210714 0 0 0 -0.0069363753234515275 -0.034731049284159453 -0.014463820721389742 0 -0.014463820721389742 -0.0034948658509076427 0 0 0 -0.009556478783766767 -0.02958791696772 -0.014410519927780741 0 -0.014410519927780741 0.001043757910993183 0 0 0 -0.0071360397641817043 -0.02462983096529877 0.0075692364907128731 0 0.0075692364907128731 0.0008974515636918888 0 0 0 -0.0059330948504017237 0.015393089834979157 0.001629150232322945 0 0.001629150232322945 0.013773763758623794 0 0 0 0.0072917133984007239 -0.041854035760311437 0.01475598122059596 0 0.01475598122059596 -0.0007648195322933482 0 0 0 -0.010654713823151196 0.035779767619148251 -0.013052262087461131 0 -0.013052262087461131 0.020196530358454812 0 0 0 0.013994074494400599 0.03335448970800392 -0.015691469092391191 0 -0.015691469092391191 0.015411677381055977 0 0 0 0.012191541772264891 -0.015645655315669124 -0.016410961684609038 0 -0.016410961684609038 0.0059270485147034369 0 0 0 -0.0024296517002414392 0.019624795851324268 -0.0067736065376128862 0 -0.0067736065376128862 0.0021222067931876559 0 0 0 0.0054367506611279828 0.033431261242468494 -0.015656695429420425 0 -0.015656695429420425 -0.004206061579960306 0 0 0 0.0073062999156270434 0.015382992418012552 -0.00056556293732500378 0 -0.00056556293732500378 0.0095049973185546491 0 0 0 0.0062219974341418049 -0.017727365719334861 0.010395334937316468 0 0.010395334937316468 -0.0004723171833201853 0 0 0 -0.0045499207256637607 -0.033917233668641425 0.03297837843752438 0 0.03297837843752438 0.011083054698429351 0 0 0 -0.005708544742553015 -0.022175091370519873 -0.014478093336514314 0 -0.014478093336514314 0.0067652833593332407 0 0 0 -0.0038524520027967135 0.049280408377250576 0.016668376626194581 0 0.016668376626194581 0.020543817599747605 0 0 0 0.017456056494249542 -0.011850955958584951 -0.01172965729839659 0 -0.01172965729839659 -0.00039522703837124862 0 0 0 -0.0030615457492389683 0.047726612871424101 0.032854169515212694 0 0.032854169515212694 0.0071824830715239152 0 0 0 0.013727273985736921 -0.015396399542466221 0.0080684675769629524 0 0.0080684675769629524 0.0012813270700877759 0 0 0 -0.0035287681180946168 0.013888988993861101 0.0046461478136647777 0 0.0046461478136647777 0.0072141772260552114 0 0 0 0.0052757915549790767 -0.014763853017006112 -0.012504659764115356 0 -0.012504659764115356 0.0031055156357226998 0 0 0 -0.0029145843453209364 0.066910447558958086 -0.0020868880103283582 0 -0.0020868880103283582 0.03626137823202058 0 0 0 0.025792956447744653 0.10657271613708552 -0.0001737578505798254 0 -0.0001737578505798254 0.070535170613380549 0 0 0 0.044276971687616518 0.015172822226471865 0.0049854312779829355 0 0.0049854312779829355 0.0032458607199606863 0 0 0 0.0046046707366081407 0.0026163112594215221 0.0025276633242654611 0 0.0025276633242654611 -0.0012244246626487154 0 0 0 0.00034797164919320167 -0.0017097944534749665 0.0053564194317974323 0 0.0053564194317974323 -0.0021620757378961741 0 0 0 -0.00096796754784245209 0.060203314417199172 0.0017589900711199036 0 0.0017589900711199036 0.03385756914839444 0 0 0 0.02351522089139868 0.071001901360516317 -0.006851318412247176 0 -0.006851318412247176 0.035930641447620371 0 0 0 0.026733135702034172 0.10850291686436897 0.0091820321159123974 0 0.0091820321159123974 0.066476898145801933 0 0 0 0.043744953752542504 0.0016899810694690487 -0.0016474800969121794 0 -0.0016474800969121794 -0.00087565201074735199 0 0 0 0.00020358226468064622 0.097391221738531319 -0.0080773733049239738 0 -0.0080773733049239738 0.065793608773430101 0 0 0 0.040796207627990189 -0.0017215663467970987 -0.0036698937846149082 0 -0.0036698937846149082 -0.0016510409724164177 0 0 0 -0.00084315182980332359 0.021755430112468832 -0.0037700403475574296 0 -0.0037700403475574296 0.00093159953828170217 0 0 0 0.0056717574126876613 0.020000475099692994 -0.0098522620235474388 0 -0.0098522620235474388 0.013150252714056898 0 0 0 0.0082876819534374868 0.016992199820166698 -0.010570204261776628 0 -0.010570204261776628 0.012107271318942958 0 0 0 0.0072748677847774279 0.013639414272244021 -0.004042367534865976 0 -0.004042367534865976 -0.0027351651563685686 0 0 0 0.0027260622789688771 0.016224555392730655 -0.0077486000557625001 0 -0.0077486000557625001 -0.0014486899934007536 0 0 0 0.0036939663498325448 0.035887021060511171 0.018028388751456563 0 0.018028388751456563 0.063575126702133222 0 0 0 0.024865536940661098 0.011642293040100324 -0.017714529393901109 0 -0.017714529393901109 0.005407755218784306 0 0 0 0.0042625120647211603 0.010105199524498319 -0.024022664135933656 0 -0.024022664135933656 0.0019263232500630473 0 0 0 0.0030078806936403406 -0.006035567354384307 0.006720182526107313 0 0.006720182526107313 0.0035026115680610106 0 0 0 -0.00063323894658082365 -0.039499622012550251 0.018747011375026323 0 0.018747011375026323 0.0030742000860781715 0 0 0 -0.0091063554816180337 -0.025565927551384537 0.030417867676826527 0 0.030417867676826527 0.026597124808055539 0 0 0 0.00025779931416780588 0.039096308536508306 0.01766999198786199 0 0.01766999198786199 0.040994783890787589 0 0 0 0.020022773106823964 0.040763116664782939 0.0046430836372854849 0 0.0046430836372854849 0.020550716958558701 0 0 0 0.015328458405835355 0.05142367344750276 0.0062601936552570854 0 0.0062601936552570854 0.023674877276768314 0 0 0 0.018774637681067796 0.05662576746846721 0.02232013843581214 0 0.02232013843581214 0.041952587383893153 0 0 0 0.024644588713090089 -0.020149236892321662 -0.012680590359900989 0 -0.012680590359900989 0.011960405203152114 0 0 0 -0.0020472079222923906 -0.027432421996667899 -0.0071886682820604397 0 -0.0071886682820604397 0.00084106481061199667 0 0 0 -0.0066478392965139688 0.03719140580510711 0.015649762383188943 0 0.015649762383188943 0.029895544902427462 0 0 0 0.016771737676883655 0.048542069863492653 0.018092351461802984 0 0.018092351461802984 0.023875569186529846 0 0 0 0.018104409762505623 0.015064734306643818 -0.011376509758394271 0 -0.011376509758394271 0.019984959696906723 0 0 0 0.0087624235008876561 0.014390591904882786 0.001435869520076993 0 0.001435869520076993 0.0080914844129708098 0 0 0 0.0056205190794633968 0.015827616633547224 0.0026418245535859246 0 0.0026418245535859246 0.01368918014500127 0 0 0 0.0073791991946371245 0.018332328118488284 0.0022946952219342928 0 0.0022946952219342928 0.02242889748222706 0 0 0 0.010190306400178836 0.09578518869516095 0.011151901333301462 0 0.011151901333301462 0.090986361944508154 0 0 0 0.046692887659917415 -0.022575124470955166 -0.0036943179434442142 0 -0.0036943179434442142 0.00094647290996308087 0 0 0 -0.0054071628902480628 -0.015574598066322139 0.0093236820638660945 0 0.0093236820638660945 0.00079228260874277673 0 0 0 -0.0036955788643948453 0.020120207117506075 0.006316658339798077 0 0.006316658339798077 0.0031760639691790892 0 0 0 0.0058240677716712933 0.098388694329992143 0.011548580946578735 0 0.011548580946578735 0.050898043007665095 0 0 0 0.037321684334414462 0.017164637382500236 -0.0037266952258646902 0 -0.0037266952258646902 -0.00059943791933425583 0 0 0 0.0041412998657914812 0.0053547044714685934 -0.023484046239966652 0 -0.023484046239966652 -0.0016417435547225016 0 0 0 0.00092824022918652251 -0.014045762273171633 -0.020208693273102606 0 -0.020208693273102606 2.4885250937157436e-05 0 0 0 -0.0035052192555586163 0.019462647048631876 -0.0079809883335401899 0 -0.0079809883335401899 0.033622576126573267 0 0 0 0.013271305793801258 
</DataArray>
</CellData>
</Piece>
</UnstructuredGrid>
</VTKFile>
