<?xml version="1.0"?>
<VTKFile type="UnstructuredGrid" version="0.1" byte_order="LittleEndian">
<UnstructuredGrid>
<Piece NumberOfPoints="3142" NumberOfCells="1054">
<Points>
<DataArray type="Float64" NumberOfComponents="3" format="ascii">
0.5 0.29999999999999999 0 0.54999999999999993 0.29999999999999999 0 0.54999999999999993 0.29999999999999999 0 0.59999999999999976 0.29999999999999999 0 0.59999999999999976 0.29999999999999999 0 0.6499999999999998 0.29999999999999999 0 0.6499999999999998 0.29999999999999999 0 0.69999999999999984 0.29999999999999999 0 0.69999999999999984 0.29999999999999999 0 0.74999999999999989 0.29999999999999999 0 0.74999999999999989 0.29999999999999999 0 0.79999999999999982 0.29999999999999999 0 0.79999999999999982 0.29999999999999999 0 0.84999999999999987 0.29999999999999999 0 0.84999999999999987 0.29999999999999999 0 0.89999999999999991 0.29999999999999999 0 0.89999999999999991 0.29999999999999999 0 0.94999999999999996 0.29999999999999999 0 0.94999999999999996 0.29999999999999999 0 1 0.29999999999999999 0 0.5 0.69999999999999996 0 0.54999999999999993 0.69999999999999996 0 0.54999999999999993 0.69999999999999996 0 0.59999999999999976 0.69999999999999996 0 0.59999999999999976 0.69999999999999996 0 0.6499999999999998 0.69999999999999996 0 0.6499999999999998 0.69999999999999996 0 0.69999999999999984 0.69999999999999996 0 0.69999999999999984 0.69999999999999996 0 0.74999999999999989 0.69999999999999996 0 0.74999999999999989 0.69999999999999996 0 0.79999999999999982 0.69999999999999996 0 0.79999999999999982 0.69999999999999996 0 0.84999999999999987 0.69999999999999996 0 0.84999999999999987 0.69999999999999996 0 0.89999999999999991 0.69999999999999996 0 0.89999999999999991 0.69999999999999996 0 0.94999999999999996 0.69999999999999996 0 0.94999999999999996 0.69999999999999996 0 1 0.69999999999999996 0 0.40076539126862748 0.34589349467022118 0 0.33277555741076909 0.36432196682010132 0 0.36575549820117997 0.31677992835137742 0 0.38083244760691543 0.38531983672244652 0 0.33277555741076909 0.36432196682010132 0 0.40076539126862748 0.34589349467022118 0 0.56836770495988642 0.3523062350852913 0 0.52289427570932567 0.3932284363388488 0 0.52752007115234678 0.33170632466418198 0 0.52752007115234678 0.33170632466418198 0 0.52289427570932567 0.3932284363388488 0 0.49077833859261139 0.35229981449445641 0 0.10000000000041601 1 0 0.053064897599294662 0.95186845269532028 0 0.10266856499240549 0.95548163909968886 0 0.099999999999814668 0 0 0.10266856499169109 0.044518360900210059 0 0.053064897599215843 0.048131547304697528 0 0.050000000000207989 1 0 0.053064897599294662 0.95186845269532028 0 0.10000000000041601 1 0 0.049999999999899652 0 0 0.099999999999814668 0 0 0.053064897599215843 0.048131547304697528 0 0.24999999999941211 0 0 0.29999999999926641 0 0 0.27499999999933927 0.060310814194988557 0 0.30000000000124832 1 0 0.25000000000104028 1 0 0.27609987656793722 0.94991445621608572 0 0.15720202157091859 0.60665697304410315 0 0.19914261668318661 0.62286739485272158 0 0.16500388252850301 0.66612077714085194 0 0.2236846579037573 0.67380363126050236 0 0.16500388252850301 0.66612077714085194 0 0.19914261668318661 0.62286739485272158 0 0.1247745017231483 0.27198077544791172 0 0.168349569971391 0.28054490850913671 0 0.14223753364722069 0.3341983344262433 0 0 0.75000000000034661 0 0 0.7000000000006934 0 0.049706944316475897 0.72477277076253799 0 0 0.30000000000124832 0 0 0.25000000000104028 0 0.049706944316556423 0.27522722923869108 0 0.59999999999999976 0.29999999999999999 0 0.61959173890754571 0.33832250091341232 0 0.56836770495988642 0.3523062350852913 0 0.5 0.69999999999999996 0 0.43323420005758778 0.6913544522562407 0 0.47913475093885149 0.66010775372412711 0 1 0.14999999999961891 0 0.95391631417672862 0.19584263333809451 0 0.93677536231883773 0.14999999999999089 0 1 0.84999999999982645 0 0.95391631417670719 0.89584263333814784 0 0.93677536231884972 0.85000000000000286 0 1 0.84999999999982645 0 0.93677536231884972 0.85000000000000286 0 0.95386563387742829 0.80414874155775029 0 1 0.14999999999961891 0 0.93677536231883773 0.14999999999999089 0 0.95386563387744361 0.1041487415577465 0 0.90416666666660628 0.9041666666666166 0 0.88088768115933802 0.84674609810493673 0 0.93677536231884972 0.85000000000000286 0 0.90416666666668166 0.20416666666667119 0 0.88088768115941807 0.14674609810479519 0 0.93677536231883773 0.14999999999999089 0 0.1247745017231483 0.27198077544791172 0 0.14223753364722069 0.3341983344262433 0 0.093851963071650835 0.30582068233324772 0 0.5 0.69999999999999996 0 0.45582236402875981 0.73896743678908217 0 0.43323420005758778 0.6913544522562407 0 0.55000000000173355 1 0 0.50000000000205869 1 0 0.52122150208832174 0.94089974453840242 0 0.49999999999869432 0 0 0.5499999999988151 0 0 0.52375890611712683 0.059318771819432882 0 0.54999999999999993 0.29999999999999999 0 0.59999999999999976 0.29999999999999999 0 0.56836770495988642 0.3523062350852913 0 0.50202631463681879 0.87892870825713787 0 0.44003836461056539 0.88093474584252718 0 0.45677673713123867 0.84253684404072415 0 0.33403534827021109 0.84402799729020661 0 0.35864759629805099 0.87963482415279515 0 0.30864387279288652 0.89906554525974958 0 0.53245488764484505 0.55078124999999989 0 0.47793794143994173 0.52940715638744962 0 0.53330375813596242 0.50827942741749099 0 0.82709327591102189 0.14937141670914489 0 0.81283102246527783 0.1881007222486438 0 0.77144070960558853 0.14311854477243749 0 0.82709327591091286 0.84937141670920724 0 0.81159157511211755 0.88795995483179491 0 0.76901770135486491 0.84293557325473656 0 0.77144070960558853 0.14311854477243749 0 0.81283102246527783 0.1881007222486438 0 0.76587607630038135 0.18880039518954719 0 0.76901770135486491 0.84293557325473656 0 0.81159157511211755 0.88795995483179491 0 0.76891166905518427 0.88835469571185499 0 0.33403534827021109 0.84402799729020661 0 0.30864387279288652 0.89906554525974958 0 0.29209212897034281 0.84715728365233667 0 0.57412547362576272 0.58273804879550706 0 0.5166924242153631 0.59825134841919447 0 0.53245488764484505 0.55078124999999989 0 0.50202631463681879 0.87892870825713787 0 0.47401147028110507 0.91529957330468115 0 0.44003836461056539 0.88093474584252718 0 0.5 0.69999999999999996 0 0.54999999999999993 0.69999999999999996 0 0.55363780716230748 0.74348740161571747 0 1 0.34999999999993492 0 0.95871855522754235 0.40006508612975411 0 0.95780851984364423 0.34215720972155339 0 1 0.64999999999986979 0 0.9578014258160763 0.65787212321113708 0 0.95867599106212187 0.60011091146651041 0 0.46666084890304671 0.57634471035397938 0 0.47793794143994173 0.52940715638744962 0 0.53245488764484505 0.55078124999999989 0 0.94999999999999996 0.29999999999999999 0 0.89898474358614167 0.25391965591104898 0 0.94399509803921056 0.24399509803922639 0 0.94999999999979179 1 0 0.89898474358632463 0.95391965591118966 0 0.94399509803919068 0.9439950980391687 0 0 0.65000000000104008 0 0.050069554451969707 0.61308520079857043 0 0.046634677244967337 0.671418230738282 0 0 0.35000000000145642 0 0.046389130980076937 0.32668781832131749 0 0.050583896093752537 0.38543522283434112 0 0.50202631463681879 0.87892870825713787 0 0.50627822638148745 0.8263979829520941 0 0.55899371797446828 0.85003102233514438 0 0.54782696902220018 0.79245182748204157 0 0.55899371797446828 0.85003102233514438 0 0.50627822638148745 0.8263979829520941 0 0.50945740445113552 0.75476055527778108 0 0.5 0.69999999999999996 0 0.55363780716230748 0.74348740161571747 0 0.84999999999965292 1 0 0.85170973911348691 0.93569607295217616 0 0.89898474358632463 0.95391965591118966 0 0.84999999999999987 0.29999999999999999 0 0.8517097391133297 0.2356960729520409 0 0.89898474358614167 0.25391965591104898 0 0.86956835336234861 0.571283299838105 0 0.82862096804812391 0.55037090955459045 0 0.86907294890112186 0.52008116128001669 0 0.49102375406324739 0.49123754822244059 0 0.53330375813596242 0.50827942741749099 0 0.47793794143994173 0.52940715638744962 0 0.57611405284611883 0.50165903596042916 0 0.61547661924074692 0.48539576058873962 0 0.62042975506801734 0.54295974692364424 0 0.71406021706547751 0.63292083137662503 0 0.67529834988829951 0.61613270668143583 0 0.71809016091162536 0.58185040402320831 0 0.65000000000104008 1 0 0.62065498684670595 0.95224934003983619 0 0.68015064798562208 0.95924320340003011 0 0.84999999999960507 0 0 0.899991664607802 0.045289349238254978 0 0.85491058998398861 0.060047533455626502 0 0.84999999999999987 0.69999999999999996 0 0.89999166460796554 0.74528934923809909 0 0.85491058998424563 0.76004753345552634 0 0.89999999999999991 0.29999999999999999 0 0.89898474358614167 0.25391965591104898 0 0.94999999999999996 0.29999999999999999 0 0.94999999999979179 1 0 0.89999999999958358 1 0 0.89898474358632463 0.95391965591118966 0 0.86411095495256451 0.42388805655111889 0 0.81308179852519835 0.39754945808726527 0 0.86844634540301924 0.38530937474099819 0 0.5 0.29999999999999999 0 0.49695729691142171 0.25014895411178018 0 0.54248833945060504 0.2520322959927106 0 0.86411095495256451 0.42388805655111889 0 0.81973119833356312 0.43505687159469048 0 0.81308179852519835 0.39754945808726527 0 0.67323294229744413 0.57556450033612505 0 0.71809016091162536 0.58185040402320831 0 0.67529834988829951 0.61613270668143583 0 0.6236733212988993 0.14864538214901801 0 0.68391457121233579 0.14440470121196541 0 0.64011864159029941 0.18789607982138171 0 0 0.050000000000207989 0 0.053064897599215843 0.048131547304697528 0 0.044310582753132287 0.101412518374475 0 0 0.94999999999979179 0 0.0443105827531413 0.89858748162559932 0 0.053064897599294662 0.95186845269532028 0 1 0.34999999999993492 0 1 0.39999999999978308 0 0.95871855522754235 0.40006508612975411 0 1 0.59999999999973963 0 1 0.64999999999986979 0 0.95867599106212187 0.60011091146651041 0 0 0.84999999999965292 0 0.065374659239661639 0.8551091961254178 0 0.0443105827531413 0.89858748162559932 0 0 0.15000000000062411 0 0.044310582753132287 0.101412518374475 0 0.065374659239632718 0.1448908038746782 0 0.16500388252850301 0.66612077714085194 0 0.1020579365089687 0.69352219419301997 0 0.1241190223511371 0.64391885572885044 0 0.14999999999970359 0 0 0.14618258501891079 0.062070108745602003 0 0.10266856499169109 0.044518360900210059 0 0.15000000000062411 1 0 0.10266856499240549 0.95548163909968886 0 0.14617343800780541 0.93808063414349496 0 0.7152569930854884 0.5237994455134295 0 0.67569444444444449 0.53500863336860327 0 0.69385896817107129 0.48377516041410151 0 0.6541250972820879 0.49999999999999989 0 0.62042975506801734 0.54295974692364424 0 0.61547661924074692 0.48539576058873962 0 0.94999999999999996 0.69999999999999996 0 0.94399509803918602 0.75600490196082126 0 0.89999166460796554 0.74528934923809909 0 0.94999999999986839 0 0 0.94399509803922566 0.056004901960802607 0 0.899991664607802 0.045289349238254978 0 0.6541250972820879 0.49999999999999989 0 0.69385896817107129 0.48377516041410151 0 0.67569444444444449 0.53500863336860327 0 0.82862096804812391 0.55037090955459045 0 0.81723410853263523 0.59419663659258926 0 0.77151014687832564 0.54436834383023036 0 0.7250000000005199 0.89375000000045834 0 0.66412543161245952 0.88015090885499059 0 0.68697391633157634 0.84450604838764298 0 0 0.94999999999979179 0 0 0.89999999999958358 0 0.0443105827531413 0.89858748162559932 0 0 0.10000000000041601 0 0 0.050000000000207989 0 0.044310582753132287 0.101412518374475 0 0.16500388252850301 0.66612077714085194 0 0.15332765547575641 0.71200081858233666 0 0.1020579365089687 0.69352219419301997 0 0.90299850604011456 0.79563452813489832 0 0.93677536231884972 0.85000000000000286 0 0.88088768115933802 0.84674609810493673 0 0.90299850604006393 0.09563452813493091 0 0.93677536231883773 0.14999999999999089 0 0.88088768115941807 0.14674609810479519 0 0.68391457121233579 0.14440470121196541 0 0.6865991819015953 0.189116534044597 0 0.64011864159029941 0.18789607982138171 0 0.085622222639554768 0.53333248912060549 0 0.1216098864341134 0.50637075089503902 0 0.1154888278694548 0.56733818459978413 0 0.21858834311891909 0.81980263716112767 0 0.22556077506376701 0.77837424984191617 0 0.26104540868854792 0.81401944968719064 0 0.81723410853263523 0.59419663659258926 0 0.77293540622714185 0.59448302402785813 0 0.77151014687832564 0.54436834383023036 0 0.1154888278694548 0.56733818459978413 0 0.1216098864341134 0.50637075089503902 0 0.14934928745814749 0.55042914607228977 0 0.1216098864341134 0.50637075089503902 0 0.068743045408989428 0.48853989837882689 0 0.113541300460994 0.46208784312094731 0 0.078358742472063481 0.43365249433908948 0 0.113541300460994 0.46208784312094731 0 0.068743045408989428 0.48853989837882689 0 0.83573492347052902 0.36590755630746369 0 0.81308179852519835 0.39754945808726527 0 0.78145581580700685 0.34881365920033602 0 0.57611405284611883 0.50165903596042916 0 0.62042975506801734 0.54295974692364424 0 0.57435499076887508 0.54267261987897775 0 0.86956835336234861 0.571283299838105 0 0.81723410853263523 0.59419663659258926 0 0.82862096804812391 0.55037090955459045 0 0.46666084890304671 0.57634471035397938 0 0.53245488764484505 0.55078124999999989 0 0.5166924242153631 0.59825134841919447 0 0.89999999999999991 0.69999999999999996 0 0.94999999999999996 0.69999999999999996 0 0.89999166460796554 0.74528934923809909 0 0.89999999999973679 0 0 0.94999999999986839 0 0 0.899991664607802 0.045289349238254978 0 0.84999999999960507 0 0 0.89999999999973679 0 0 0.899991664607802 0.045289349238254978 0 0.84999999999999987 0.69999999999999996 0 0.89999999999999991 0.69999999999999996 0 0.89999166460796554 0.74528934923809909 0 0.43545892161006339 0.61093128915313821 0 0.4089290844030305 0.58728915500154233 0 0.46666084890304671 0.57634471035397938 0 0.1650278706801647 0.38791388161335733 0 0.1117088112799664 0.38831403004970022 0 0.14223753364722069 0.3341983344262433 0 0.087545339447545459 0.35122518864182262 0 0.14223753364722069 0.3341983344262433 0 0.1117088112799664 0.38831403004970022 0 0.6916490518212759 0.75387992374886192 0 0.72501250972655151 0.74067302935308721 0 0.72500000000000064 0.7952620967744265 0 0.72501250972655151 0.74067302935308721 0 0.75841349681148107 0.75422312624214749 0 0.72500000000000064 0.7952620967744265 0 0.57412547362576272 0.58273804879550706 0 0.53245488764484505 0.55078124999999989 0 0.57435499076887508 0.54267261987897775 0 1 0.54999999999963112 0 0.95867599106212187 0.60011091146651041 0 0.93732437411268477 0.55911392101136159 0 1 0.44999999999963131 0 0.93814194660195893 0.44426664081746747 0 0.95871855522754235 0.40006508612975411 0 0.4089290844030305 0.58728915500154233 0 0.42644501560315817 0.54603747078095544 0 0.46666084890304671 0.57634471035397938 0 0.89999999999958358 1 0 0.84999999999965292 1 0 0.89898474358632463 0.95391965591118966 0 0.84999999999999987 0.29999999999999999 0 0.89898474358614167 0.25391965591104898 0 0.89999999999999991 0.29999999999999999 0 0.29999999999926641 0 0 0.32541448401678508 0.046215317981507749 0 0.27499999999933927 0.060310814194988557 0 0.30000000000124832 1 0 0.27609987656793722 0.94991445621608572 0 0.32544832635163229 0.95485394099568932 0 0.57412547362576272 0.58273804879550706 0 0.62042975506801734 0.54295974692364424 0 0.63065402604362242 0.59661356661633302 0 0.5 0.29999999999999999 0 0.54248833945060504 0.2520322959927106 0 0.54999999999999993 0.29999999999999999 0 0.67323294229744413 0.57556450033612505 0 0.62042975506801734 0.54295974692364424 0 0.67569444444444449 0.53500863336860327 0 0.6541250972820879 0.49999999999999989 0 0.67569444444444449 0.53500863336860327 0 0.62042975506801734 0.54295974692364424 0 1 0.14999999999961891 0 1 0.19999999999974799 0 0.95391631417672862 0.19584263333809451 0 1 0.84999999999982645 0 1 0.8999999999998336 0 0.95391631417670719 0.89584263333814784 0 1 0.7999999999998193 0 1 0.84999999999982645 0 0.95386563387742829 0.80414874155775029 0 1 0.099999999999753911 0 1 0.14999999999961891 0 0.95386563387744361 0.1041487415577465 0 0.4656888918609538 0.78493261229743638 0 0.50627822638148745 0.8263979829520941 0 0.45677673713123867 0.84253684404072415 0 0.6879972333610942 0.43038561374960838 0 0.72622533758026719 0.40265885511101601 0 0.73483647259922602 0.44789725365921768 0 0.67323294229744413 0.57556450033612505 0 0.67569444444444449 0.53500863336860327 0 0.71809016091162536 0.58185040402320831 0 0.7152569930854884 0.5237994455134295 0 0.71809016091162536 0.58185040402320831 0 0.67569444444444449 0.53500863336860327 0 0.65394964615507722 0.22666784374016369 0 0.59814117807200873 0.23398510860739519 0 0.64011864159029941 0.18789607982138171 0 0.55000000000173355 1 0 0.52122150208832174 0.94089974453840242 0 0.57382506491224949 0.9629411906298494 0 0.39801143831225599 0.16651381068160659 0 0.44288491854585582 0.14116182884956319 0 0.42905200079338551 0.19982395548231649 0 0.47357141910802508 0.1873585799078378 0 0.42905200079338551 0.19982395548231649 0 0.44288491854585582 0.14116182884956319 0 0.90594285160987287 0.4141265964174129 0 0.88594198078881503 0.46167788676578442 0 0.86411095495256451 0.42388805655111889 0 0.65507451745379841 0.92229208810758578 0 0.68015064798562208 0.95924320340003011 0 0.62065498684670595 0.95224934003983619 0 0.35312867752657662 0.084946736076730367 0 0.39591832466117061 0.056982757562006353 0 0.39823268594401579 0.1116623613130045 0 0.43698630808430822 0.080423614171545449 0 0.39823268594401579 0.1116623613130045 0 0.39591832466117061 0.056982757562006353 0 0.4367309254023824 0.92065556789053882 0 0.39641108128798319 0.94356127926187128 0 0.39767323751400468 0.89584229130535065 0 0.35752321586431363 0.9185439911803448 0 0.39767323751400468 0.89584229130535065 0 0.39641108128798319 0.94356127926187128 0 0.77354604466818633 0.40378688774472771 0 0.77972660463949339 0.45529290596363098 0 0.73483647259922602 0.44789725365921768 0 0.5499999999988151 0 0 0.57396793757665954 0.037011367187645222 0 0.52375890611712683 0.059318771819432882 0 0.64753070846764316 0.77332939069435502 0 0.60294066490120068 0.80851322453934582 0 0.59636844454254345 0.75937156204589151 0 0.49102375406324739 0.49123754822244059 0 0.48858720058566618 0.43964267759203868 0 0.53823865529665704 0.45873898050322898 0 0.28307294598219601 0.50789252727458634 0 0.29110487519241501 0.56588143995431495 0 0.25115337790845271 0.54719303014923271 0 0.79680861578988083 0.92656778056766709 0 0.81159157511211755 0.88795995483179491 0 0.85170973911348691 0.93569607295217616 0 0.79680861578956375 0.22656778056752541 0 0.81283102246527783 0.1881007222486438 0 0.8517097391133297 0.2356960729520409 0 0.57412547362576272 0.58273804879550706 0 0.57435499076887508 0.54267261987897775 0 0.62042975506801734 0.54295974692364424 0 0.93814194660195893 0.44426664081746747 0 0.88594198078881503 0.46167788676578442 0 0.90594285160987287 0.4141265964174129 0 0.7152569930854884 0.5237994455134295 0 0.73947346780852752 0.49062440112282169 0 0.77151014687832564 0.54436834383023036 0 0 0.7000000000006934 0 0.046634677244967337 0.671418230738282 0 0.049706944316475897 0.72477277076253799 0 0 0.30000000000124832 0 0.049706944316556423 0.27522722923869108 0 0.046389130980076937 0.32668781832131749 0 0.59814117807200873 0.23398510860739519 0 0.59443395090188023 0.18455690917515069 0 0.64011864159029941 0.18789607982138171 0 0.21858834311891909 0.81980263716112767 0 0.26104540868854792 0.81401944968719064 0 0.2401283238295133 0.85648409884788523 0 0.39536230704883951 0.84069429572832477 0 0.45677673713123867 0.84253684404072415 0 0.44003836461056539 0.88093474584252718 0 0.086179601630648681 0.64647209519980475 0 0.050069554451969707 0.61308520079857043 0 0.1024350934457823 0.60772393977513839 0 0.077693244765132896 0.56932317963405099 0 0.1024350934457823 0.60772393977513839 0 0.050069554451969707 0.61308520079857043 0 0.078358742472063481 0.43365249433908948 0 0.050583896093752537 0.38543522283434112 0 0.1117088112799664 0.38831403004970022 0 0.087545339447545459 0.35122518864182262 0 0.1117088112799664 0.38831403004970022 0 0.050583896093752537 0.38543522283434112 0 0.33403534827021109 0.84402799729020661 0 0.35642984951668422 0.80994399665655703 0 0.39536230704883951 0.84069429572832477 0 0.28307294598219601 0.50789252727458634 0 0.33190227185843768 0.52715113583864037 0 0.29110487519241501 0.56588143995431495 0 0.2236846579037573 0.67380363126050236 0 0.19068556247388771 0.71028988922845504 0 0.16500388252850301 0.66612077714085194 0 0.26104540868854792 0.81401944968719064 0 0.22556077506376701 0.77837424984191617 0 0.2792923945214143 0.77665808831789485 0 0.38244435121258652 0.51653317813019495 0 0.37272913873093971 0.56192925302619479 0 0.33190227185843768 0.52715113583864037 0 0.25195515620380449 0.25883339815888678 0 0.29132859388405002 0.27203693976649962 0 0.24432083401701241 0.3006253385567515 0 0.29348325746214782 0.31350119524708198 0 0.24432083401701241 0.3006253385567515 0 0.29132859388405002 0.27203693976649962 0 0 0.89999999999958358 0 0 0.84999999999965292 0 0.0443105827531413 0.89858748162559932 0 0 0.15000000000062411 0 0 0.10000000000041601 0 0.044310582753132287 0.101412518374475 0 0.59999999999999976 0.69999999999999996 0 0.59636844454254345 0.75937156204589151 0 0.55363780716230748 0.74348740161571747 0 0.1650278706801647 0.38791388161335733 0 0.22033343844674469 0.36963382230740238 0 0.191953871957803 0.42546416763755879 0 0.52289427570932567 0.3932284363388488 0 0.46655310992796922 0.39650496622958609 0 0.49077833859261139 0.35229981449445641 0 0.91696753777131557 0.497780560203536 0 0.88594198078881503 0.46167788676578442 0 0.93814194660195893 0.44426664081746747 0 0.24999999999941211 0 0 0.27499999999933927 0.060310814194988557 0 0.22668068146512929 0.045875643423131329 0 0.25000000000104028 1 0 0.22850979588452081 0.95594428570238643 0 0.27609987656793722 0.94991445621608572 0 0.77846603114747959 0.49850927265137401 0 0.77151014687832564 0.54436834383023036 0 0.73947346780852752 0.49062440112282169 0 0.27499999999933927 0.060310814194988557 0 0.27474541102162192 0.11822029332053539 0 0.24218496799700481 0.089025544070598317 0 0.27270076654418179 0.87751467830216623 0 0.29209212897034281 0.84715728365233667 0 0.30864387279288652 0.89906554525974958 0 0.3096713403101819 0.085471541595262421 0 0.27474541102162192 0.11822029332053539 0 0.27499999999933927 0.060310814194988557 0 0.17933913398461551 0.2350063570234002 0 0.18124454140915969 0.18790916706335251 0 0.224700362040408 0.22206622194729711 0 0.18269480424590959 0.75905448272264375 0 0.22556077506376701 0.77837424984191617 0 0.17777405986036951 0.81832336108265358 0 0.35864759629805099 0.87963482415279515 0 0.33403534827021109 0.84402799729020661 0 0.39536230704883951 0.84069429572832477 0 0.77354604466818633 0.40378688774472771 0 0.73483647259922602 0.44789725365921768 0 0.72622533758026719 0.40265885511101601 0 0.80185942888539485 0.77452061303608133 0 0.85491058998424563 0.76004753345552634 0 0.84725310900444062 0.80779732082917555 0 0.80185942888501827 0.074520613036224564 0 0.85491058998398861 0.060047533455626502 0 0.84725310900442086 0.10779732082922661 0 0.086179601630648681 0.64647209519980475 0 0.046634677244967337 0.671418230738282 0 0.050069554451969707 0.61308520079857043 0 0.087545339447545459 0.35122518864182262 0 0.050583896093752537 0.38543522283434112 0 0.046389130980076937 0.32668781832131749 0 0 0.75000000000034661 0 0.049706944316475897 0.72477277076253799 0 0.04408157711937423 0.7728941757575627 0 0 0.25000000000104028 0 0.044081577119474857 0.2271058242433576 0 0.049706944316556423 0.27522722923869108 0 0.52289427570932567 0.3932284363388488 0 0.56836770495988642 0.3523062350852913 0 0.57744073070774993 0.41535148636609359 0 0.6084546825910605 0.37989672713932537 0 0.57744073070774993 0.41535148636609359 0 0.56836770495988642 0.3523062350852913 0 0.61343887413683884 0.856862479058357 0 0.55899371797446828 0.85003102233514438 0 0.60294066490120068 0.80851322453934582 0 0.54782696902220018 0.79245182748204157 0 0.60294066490120068 0.80851322453934582 0 0.55899371797446828 0.85003102233514438 0 0.40326160981139969 0.73346192995102844 0 0.36622285152418499 0.69092437780804039 0 0.43323420005758778 0.6913544522562407 0 0.52289427570932567 0.3932284363388488 0 0.48858720058566618 0.43964267759203868 0 0.46655310992796922 0.39650496622958609 0 0.15720202157091859 0.60665697304410315 0 0.1154888278694548 0.56733818459978413 0 0.14934928745814749 0.55042914607228977 0 0.6879972333610942 0.43038561374960838 0 0.73483647259922602 0.44789725365921768 0 0.69385896817107129 0.48377516041410151 0 0.7250000000005199 0.89375000000045834 0 0.68987011941058407 0.92105047536677087 0 0.66412543161245952 0.88015090885499059 0 0.83573492347052902 0.36590755630746369 0 0.78145581580700685 0.34881365920033602 0 0.82500000000000062 0.33010209762754811 0 0.82862096804812391 0.55037090955459045 0 0.81441713509985358 0.51161854125224959 0 0.86907294890112186 0.52008116128001669 0 0.19670163708476801 0.31472518408333222 0 0.14223753364722069 0.3341983344262433 0 0.168349569971391 0.28054490850913671 0 0.50202631463681879 0.87892870825713787 0 0.45677673713123867 0.84253684404072415 0 0.50627822638148745 0.8263979829520941 0 0.099999999999814668 0 0 0.14999999999970359 0 0 0.10266856499169109 0.044518360900210059 0 0.15000000000062411 1 0 0.10000000000041601 1 0 0.10266856499240549 0.95548163909968886 0 0.67323294229744413 0.57556450033612505 0 0.63065402604362242 0.59661356661633302 0 0.62042975506801734 0.54295974692364424 0 0.083105206071467416 0.20007701332709979 0 0.13737030665753211 0.20313708640667491 0 0.095326043202144745 0.24554465089224409 0 0.083105206071452636 0.79992298667296435 0 0.090953281884486245 0.7564451946902494 0 0.1382744753146134 0.79650574229207483 0 0.50000000000205869 1 0 0.47135117303824892 0.95556877749289892 0 0.52122150208832174 0.94089974453840242 0 0.49999999999869432 0 0 0.52375890611712683 0.059318771819432882 0 0.47040171442036788 0.044141676406503738 0 0.4656888918609538 0.78493261229743638 0 0.45582236402875981 0.73896743678908217 0 0.50945740445113552 0.75476055527778108 0 0.5 0.69999999999999996 0 0.50945740445113552 0.75476055527778108 0 0.45582236402875981 0.73896743678908217 0 0.55306006949600994 0.20198184231352201 0 0.56202748619534593 0.15054058349222879 0 0.59443395090188023 0.18455690917515069 0 0.6236733212988993 0.14864538214901801 0 0.59443395090188023 0.18455690917515069 0 0.56202748619534593 0.15054058349222879 0 0.57412547362576272 0.58273804879550706 0 0.5498280205245758 0.6290146943450976 0 0.5166924242153631 0.59825134841919447 0 0.91696753777131557 0.497780560203536 0 0.93814194660195893 0.44426664081746747 0 0.96228564064454991 0.48206450662049471 0 0.15720202157091859 0.60665697304410315 0 0.16500388252850301 0.66612077714085194 0 0.1241190223511371 0.64391885572885044 0 0.44288491854585582 0.14116182884956319 0 0.47881186583059909 0.093591717165689425 0 0.48466639505193998 0.1421439844745814 0 1 0.54999999999963112 0 0.93732437411268477 0.55911392101136159 0 0.95631871884947484 0.51827533208233789 0 0.57724883562309992 0.92155686857100794 0 0.57382506491224949 0.9629411906298494 0 0.52122150208832174 0.94089974453840242 0 0.85170973911348691 0.93569607295217616 0 0.81159157511211755 0.88795995483179491 0 0.85600844944837662 0.88483418979512773 0 0.8517097391133297 0.2356960729520409 0 0.81283102246527783 0.1881007222486438 0 0.85600844944842547 0.1848341897950983 0 0.27866744612395528 0.38416094670951489 0 0.29124338931648802 0.43334555462578611 0 0.24049127783545701 0.41270748208749802 0 0.6084546825910605 0.37989672713932537 0 0.56836770495988642 0.3523062350852913 0 0.61959173890754571 0.33832250091341232 0 0.20050006573841939 0.53248514016039872 0 0.25115337790845271 0.54719303014923271 0 0.22549374774072969 0.58452645269293457 0 0.26573297623774761 0.59828298563722948 0 0.22549374774072969 0.58452645269293457 0 0.25115337790845271 0.54719303014923271 0 0.26104540868854792 0.81401944968719064 0 0.29209212897034281 0.84715728365233667 0 0.2401283238295133 0.85648409884788523 0 0.6236733212988993 0.14864538214901801 0 0.65290632656860115 0.11434202593454081 0 0.68391457121233579 0.14440470121196541 0 0.19901705110390991 0.9175543425573498 0 0.19741632902693801 0.86755867406447229 0 0.24536017905392571 0.90704567837671446 0 0.72500000000000064 0.7952620967744265 0 0.76901770135486491 0.84293557325473656 0 0.72863726579783861 0.85390518901155588 0 0.72500000000000064 0.7952620967744265 0 0.72863726579783861 0.85390518901155588 0 0.68697391633157634 0.84450604838764298 0 0.7250000000005199 0.89375000000045834 0 0.68697391633157634 0.84450604838764298 0 0.72863726579783861 0.85390518901155588 0 0.72525833953073282 0.1032114801687094 0 0.77144070960558853 0.14311854477243749 0 0.72634814642510737 0.16106886917518889 0 0.72525833953073282 0.1032114801687094 0 0.72634814642510737 0.16106886917518889 0 0.68391457121233579 0.14440470121196541 0 0.36622285152418499 0.69092437780804039 0 0.3977710372045391 0.65868194622830212 0 0.43323420005758778 0.6913544522562407 0 0 0.65000000000104008 0 0 0.60000000000138687 0 0.050069554451969707 0.61308520079857043 0 0 0.40000000000166441 0 0 0.35000000000145642 0 0.050583896093752537 0.38543522283434112 0 0.22033343844674469 0.36963382230740238 0 0.24049127783545701 0.41270748208749802 0 0.191953871957803 0.42546416763755879 0 0.5 0.29999999999999999 0 0.4604742573284204 0.27846934318264788 0 0.49695729691142171 0.25014895411178018 0 0.19741632902693801 0.86755867406447229 0 0.2401283238295133 0.85648409884788523 0 0.24536017905392571 0.90704567837671446 0 0 0.50000000000205869 0 0.068743045408989428 0.48853989837882689 0 0.044576108720083309 0.53509043209532614 0 0.15000000000062411 1 0 0.14617343800780541 0.93808063414349496 0 0.18474005699953849 0.96231585248064622 0 0.14999999999970359 0 0 0.184418230509967 0.038773194583122873 0 0.14618258501891079 0.062070108745602003 0 0.57667858002728545 0.078486105337742612 0 0.52375890611712683 0.059318771819432882 0 0.57396793757665954 0.037011367187645222 0 0.113541300460994 0.46208784312094731 0 0.078358742472063481 0.43365249433908948 0 0.13773355295499351 0.42497777642586831 0 0.77354604466818633 0.40378688774472771 0 0.78145581580700685 0.34881365920033602 0 0.81308179852519835 0.39754945808726527 0 0.38244435121258652 0.51653317813019495 0 0.33190227185843768 0.52715113583864037 0 0.35024835142131061 0.48654922671676981 0 0.64753070846764316 0.77332939069435502 0 0.65005442820240822 0.82644988530054031 0 0.60294066490120068 0.80851322453934582 0 0.15720202157091859 0.60665697304410315 0 0.1024350934457823 0.60772393977513839 0 0.1154888278694548 0.56733818459978413 0 0.90416666666660628 0.9041666666666166 0 0.85600844944837662 0.88483418979512773 0 0.88088768115933802 0.84674609810493673 0 0.90416666666668166 0.20416666666667119 0 0.85600844944842547 0.1848341897950983 0 0.88088768115941807 0.14674609810479519 0 0.078358742472063481 0.43365249433908948 0 0.1117088112799664 0.38831403004970022 0 0.13773355295499351 0.42497777642586831 0 0.38244435121258652 0.51653317813019495 0 0.3908716102680424 0.47010282357248828 0 0.43507373378304309 0.49699695397193322 0 0.90299850604011456 0.79563452813489832 0 0.95386563387742829 0.80414874155775029 0 0.93677536231884972 0.85000000000000286 0 0.90416666666660628 0.9041666666666166 0 0.93677536231884972 0.85000000000000286 0 0.95391631417670719 0.89584263333814784 0 0.90299850604006393 0.09563452813493091 0 0.95386563387744361 0.1041487415577465 0 0.93677536231883773 0.14999999999999089 0 0.90416666666668166 0.20416666666667119 0 0.93677536231883773 0.14999999999999089 0 0.95391631417672862 0.19584263333809451 0 0.39536230704883951 0.84069429572832477 0 0.44003836461056539 0.88093474584252718 0 0.39767323751400468 0.89584229130535065 0 0.51076801031701946 0.1202837388510348 0 0.52375890611712683 0.059318771819432882 0 0.54979595918804436 0.1060565713905809 0 0.57667858002728545 0.078486105337742612 0 0.54979595918804436 0.1060565713905809 0 0.52375890611712683 0.059318771819432882 0 0.57724883562309992 0.92155686857100794 0 0.52122150208832174 0.94089974453840242 0 0.54783390826260769 0.89287767010860219 0 0.50202631463681879 0.87892870825713787 0 0.54783390826260769 0.89287767010860219 0 0.52122150208832174 0.94089974453840242 0 0.087545339447545459 0.35122518864182262 0 0.093851963071650835 0.30582068233324772 0 0.14223753364722069 0.3341983344262433 0 0.54999999999999993 0.69999999999999996 0 0.59999999999999976 0.69999999999999996 0 0.55363780716230748 0.74348740161571747 0 0.083105206071452636 0.79992298667296435 0 0.1074251789111534 0.83564394292147814 0 0.065374659239661639 0.8551091961254178 0 0.083105206071467416 0.20007701332709979 0 0.065374659239632718 0.1448908038746782 0 0.106902708054812 0.16453234188234539 0 0.52289427570932567 0.3932284363388488 0 0.53823865529665704 0.45873898050322898 0 0.48858720058566618 0.43964267759203868 0 0.13737030665753211 0.20313708640667491 0 0.14377654328998779 0.2442024734791064 0 0.095326043202144745 0.24554465089224409 0 0.1382744753146134 0.79650574229207483 0 0.090953281884486245 0.7564451946902494 0 0.14335651144331049 0.75565258250209677 0 0.27270076654418179 0.87751467830216623 0 0.30864387279288652 0.89906554525974958 0 0.24536017905392571 0.90704567837671446 0 0.27609987656793722 0.94991445621608572 0 0.24536017905392571 0.90704567837671446 0 0.30864387279288652 0.89906554525974958 0 0.90299850604011456 0.79563452813489832 0 0.84725310900444062 0.80779732082917555 0 0.85491058998424563 0.76004753345552634 0 0.90299850604006393 0.09563452813493091 0 0.84725310900442086 0.10779732082922661 0 0.85491058998398861 0.060047533455626502 0 1 0.54999999999963112 0 1 0.59999999999973963 0 0.95867599106212187 0.60011091146651041 0 1 0.39999999999978308 0 1 0.44999999999963131 0 0.95871855522754235 0.40006508612975411 0 0.28040350263641872 0.23054717217092141 0 0.25195515620380449 0.25883339815888678 0 0.224700362040408 0.22206622194729711 0 0.84999999999999987 0.29999999999999999 0 0.87430060258887643 0.34056085888204451 0 0.82500000000000062 0.33010209762754811 0 0.84999999999999987 0.69999999999999996 0 0.82457059160610424 0.66831947184359608 0 0.87712158428786946 0.65709029563313581 0 0.86956835336234861 0.571283299838105 0 0.87159648282691515 0.61285406320581504 0 0.81723410853263523 0.59419663659258926 0 0.43698630808430822 0.080423614171545449 0 0.47881186583059909 0.093591717165689425 0 0.44288491854585582 0.14116182884956319 0 1 0.44999999999963131 0 0.96228564064454991 0.48206450662049471 0 0.93814194660195893 0.44426664081746747 0 0.35752321586431363 0.9185439911803448 0 0.30864387279288652 0.89906554525974958 0 0.35864759629805099 0.87963482415279515 0 0.29124338931648802 0.43334555462578611 0 0.25982634974572738 0.46097799597715272 0 0.24049127783545701 0.41270748208749802 0 0.51076801031701946 0.1202837388510348 0 0.56202748619534593 0.15054058349222879 0 0.51729576145820033 0.1683240575987815 0 0.55306006949600994 0.20198184231352201 0 0.51729576145820033 0.1683240575987815 0 0.56202748619534593 0.15054058349222879 0 0.26429849586623999 0.19346700179430079 0 0.28040350263641872 0.23054717217092141 0 0.224700362040408 0.22206622194729711 0 0.51076801031701946 0.1202837388510348 0 0.48466639505193998 0.1421439844745814 0 0.47881186583059909 0.093591717165689425 0 0.2185883431182947 0.18019736283949719 0 0.26429849586623999 0.19346700179430079 0 0.224700362040408 0.22206622194729711 0 0.18269480424590959 0.75905448272264375 0 0.2248999640082178 0.72584299459689172 0 0.22556077506376701 0.77837424984191617 0 0.51076801031701946 0.1202837388510348 0 0.47881186583059909 0.093591717165689425 0 0.52375890611712683 0.059318771819432882 0 0.50202631463681879 0.87892870825713787 0 0.52122150208832174 0.94089974453840242 0 0.47401147028110507 0.91529957330468115 0 0 0.84999999999965292 0 0.038512288486097702 0.8155852717111195 0 0.065374659239661639 0.8551091961254178 0 0 0.15000000000062411 0 0.065374659239632718 0.1448908038746782 0 0.038512288486115001 0.1844147282893184 0 0.2185883431182947 0.18019736283949719 0 0.224700362040408 0.22206622194729711 0 0.18124454140915969 0.18790916706335251 0 0.21858834311891909 0.81980263716112767 0 0.17777405986036951 0.81832336108265358 0 0.22556077506376701 0.77837424984191617 0 0.1215415378367805 0.72939333680004137 0 0.1020579365089687 0.69352219419301997 0 0.15332765547575641 0.71200081858233666 0 0.49695729691142171 0.25014895411178018 0 0.50760557329222289 0.20700468884612061 0 0.54248833945060504 0.2520322959927106 0 0.15720202157091859 0.60665697304410315 0 0.14934928745814749 0.55042914607228977 0 0.18381867841758909 0.57774125163628387 0 0.90416666666660628 0.9041666666666166 0 0.85170973911348691 0.93569607295217616 0 0.85600844944837662 0.88483418979512773 0 0.90416666666668166 0.20416666666667119 0 0.8517097391133297 0.2356960729520409 0 0.85600844944842547 0.1848341897950983 0 0.17933913398461551 0.2350063570234002 0 0.13737030665753211 0.20313708640667491 0 0.18124454140915969 0.18790916706335251 0 0.18269480424590959 0.75905448272264375 0 0.17777405986036951 0.81832336108265358 0 0.1382744753146134 0.79650574229207483 0 0.1216098864341134 0.50637075089503902 0 0.15801167086041079 0.46008690540259539 0 0.16618607197337229 0.50652878253548905 0 0.50760557329222289 0.20700468884612061 0 0.55306006949600994 0.20198184231352201 0 0.54248833945060504 0.2520322959927106 0 0.75000000000034661 1 0 0.7000000000006934 1 0 0.7250000000005199 0.94981617647078953 0 0.69999999999999984 0.29999999999999999 0 0.72500000000000064 0.2498161764706 0 0.74999999999999989 0.29999999999999999 0 0.72525833953073282 0.1032114801687094 0 0.68391457121233579 0.14440470121196541 0 0.68330259535470161 0.10038702501083881 0 0.43249999999999988 0.43937499999999979 0 0.46655310992796922 0.39650496622958609 0 0.48858720058566618 0.43964267759203868 0 0.19901705110390991 0.9175543425573498 0 0.14617343800780541 0.93808063414349496 0 0.16206583317966519 0.89685560785156404 0 0.19922788606653311 0.085920220746880993 0 0.16141998738593399 0.10404039647458049 0 0.14618258501891079 0.062070108745602003 0 0.31378396441836959 0.70157213313026345 0 0.26439878998046262 0.7048065392091396 0 0.27820712747429932 0.65530134213254643 0 0.1216098864341134 0.50637075089503902 0 0.113541300460994 0.46208784312094731 0 0.15801167086041079 0.46008690540259539 0 0.6084546825910605 0.37989672713932537 0 0.65481233915350323 0.35652751921065562 0 0.63912439215427275 0.41063340167983359 0 0.19901705110390991 0.9175543425573498 0 0.18474005699953849 0.96231585248064622 0 0.14617343800780541 0.93808063414349496 0 0.19922788606653311 0.085920220746880993 0 0.14618258501891079 0.062070108745602003 0 0.184418230509967 0.038773194583122873 0 0.38244435121258652 0.51653317813019495 0 0.35024835142131061 0.48654922671676981 0 0.3908716102680424 0.47010282357248828 0 0.82709327591102189 0.14937141670914489 0 0.77144070960558853 0.14311854477243749 0 0.80076557130237269 0.1154587552654202 0 0.82709327591091286 0.84937141670920724 0 0.76901770135486491 0.84293557325473656 0 0.80041942726660109 0.81543261647703358 0 0.43698630808430822 0.080423614171545449 0 0.44288491854585582 0.14116182884956319 0 0.39823268594401579 0.1116623613130045 0 0.39801143831225599 0.16651381068160659 0 0.39823268594401579 0.1116623613130045 0 0.44288491854585582 0.14116182884956319 0 0.36575549820117997 0.31677992835137742 0 0.3786248352540974 0.27082301512024259 0 0.41914690343363781 0.30688979866601612 0 0.42377727103934271 0.25099357235810238 0 0.41914690343363781 0.30688979866601612 0 0.3786248352540974 0.27082301512024259 0 0.049706944316475897 0.72477277076253799 0 0.1020579365089687 0.69352219419301997 0 0.090953281884486245 0.7564451946902494 0 0.1215415378367805 0.72939333680004137 0 0.090953281884486245 0.7564451946902494 0 0.1020579365089687 0.69352219419301997 0 0.1247745017231483 0.27198077544791172 0 0.093851963071650835 0.30582068233324772 0 0.095326043202144745 0.24554465089224409 0 0.049706944316556423 0.27522722923869108 0 0.095326043202144745 0.24554465089224409 0 0.093851963071650835 0.30582068233324772 0 0.77354604466818633 0.40378688774472771 0 0.81973119833356312 0.43505687159469048 0 0.77972660463949339 0.45529290596363098 0 0.43249999999999988 0.43937499999999979 0 0.43507373378304309 0.49699695397193322 0 0.3908716102680424 0.47010282357248828 0 0.26573297623774761 0.59828298563722948 0 0.2459498854893499 0.63248470766216769 0 0.22549374774072969 0.58452645269293457 0 0.72500000000000064 0.7952620967744265 0 0.77094201086366854 0.79647480515688507 0 0.76901770135486491 0.84293557325473656 0 0.72525833953073282 0.1032114801687094 0 0.76878382444651716 0.097147941686331368 0 0.77144070960558853 0.14311854477243749 0 0.72500000000000064 0.7952620967744265 0 0.68697391633157634 0.84450604838764298 0 0.68024162096458085 0.79868546898116533 0 0.31378396441836959 0.70157213313026345 0 0.29904318922293632 0.74132814928635593 0 0.26439878998046262 0.7048065392091396 0 0.31378396441836959 0.70157213313026345 0 0.35415581127540569 0.73730480045900215 0 0.29904318922293632 0.74132814928635593 0 0.61343887413683884 0.856862479058357 0 0.65005442820240822 0.82644988530054031 0 0.66412543161245952 0.88015090885499059 0 0.68697391633157634 0.84450604838764298 0 0.66412543161245952 0.88015090885499059 0 0.65005442820240822 0.82644988530054031 0 0.083411279318375747 0.91030024466934134 0 0.065374659239661639 0.8551091961254178 0 0.10562472963403439 0.87143394428979881 0 0.083411279318303222 0.089699755330707398 0 0.1053400320299198 0.12877248826361379 0 0.065374659239632718 0.1448908038746782 0 0.55306006949600994 0.20198184231352201 0 0.59443395090188023 0.18455690917515069 0 0.59814117807200873 0.23398510860739519 0 0.84999999999999987 0.29999999999999999 0 0.89999999999999991 0.29999999999999999 0 0.87430060258887643 0.34056085888204451 0 0.84999999999999987 0.69999999999999996 0 0.87712158428786946 0.65709029563313581 0 0.89999999999999991 0.69999999999999996 0 0.34258405725730701 0.4444034294386992 0 0.3908716102680424 0.47010282357248828 0 0.35024835142131061 0.48654922671676981 0 0.26573297623774761 0.59828298563722948 0 0.31502927232353312 0.6134992213375432 0 0.27820712747429932 0.65530134213254643 0 0.91696753777131557 0.497780560203536 0 0.86907294890112186 0.52008116128001669 0 0.88594198078881503 0.46167788676578442 0 0.84723782639812573 0.48638347960178252 0 0.88594198078881503 0.46167788676578442 0 0.86907294890112186 0.52008116128001669 0 0.7152569930854884 0.5237994455134295 0 0.77151014687832564 0.54436834383023036 0 0.71809016091162536 0.58185040402320831 0 0.90416666666660628 0.9041666666666166 0 0.89898474358632463 0.95391965591118966 0 0.85170973911348691 0.93569607295217616 0 0.90416666666668166 0.20416666666667119 0 0.89898474358614167 0.25391965591104898 0 0.8517097391133297 0.2356960729520409 0 0.91750694127107502 0.36982372220068471 0 0.95780851984364423 0.34215720972155339 0 0.95871855522754235 0.40006508612975411 0 0.91750694127105259 0.63017627779935648 0 0.95867599106212187 0.60011091146651041 0 0.9578014258160763 0.65787212321113708 0 0.90299850604011456 0.79563452813489832 0 0.88088768115933802 0.84674609810493673 0 0.84725310900444062 0.80779732082917555 0 0.90299850604006393 0.09563452813493091 0 0.88088768115941807 0.14674609810479519 0 0.84725310900442086 0.10779732082922661 0 0.1216098864341134 0.50637075089503902 0 0.16618607197337229 0.50652878253548905 0 0.14934928745814749 0.55042914607228977 0 0.20050006573841939 0.53248514016039872 0 0.14934928745814749 0.55042914607228977 0 0.16618607197337229 0.50652878253548905 0 0.80185942888539485 0.77452061303608133 0 0.84725310900444062 0.80779732082917555 0 0.80041942726660109 0.81543261647703358 0 0.80185942888501827 0.074520613036224564 0 0.84725310900442086 0.10779732082922661 0 0.80076557130237269 0.1154587552654202 0 0.083105206071452636 0.79992298667296435 0 0.065374659239661639 0.8551091961254178 0 0.038512288486097702 0.8155852717111195 0 0.083105206071467416 0.20007701332709979 0 0.038512288486115001 0.1844147282893184 0 0.065374659239632718 0.1448908038746782 0 0.54782696902220018 0.79245182748204157 0 0.59636844454254345 0.75937156204589151 0 0.60294066490120068 0.80851322453934582 0 0.083411279318375747 0.91030024466934134 0 0.0443105827531413 0.89858748162559932 0 0.065374659239661639 0.8551091961254178 0 0.083411279318303222 0.089699755330707398 0 0.065374659239632718 0.1448908038746782 0 0.044310582753132287 0.101412518374475 0 0.84999999999965292 1 0 0.81486180804382891 0.96321394949790495 0 0.85170973911348691 0.93569607295217616 0 0.84999999999999987 0.29999999999999999 0 0.81486180804364938 0.26321394949780091 0 0.8517097391133297 0.2356960729520409 0 0.4656888918609538 0.78493261229743638 0 0.45677673713123867 0.84253684404072415 0 0.42609163930740518 0.80361684430568059 0 0.39536230704883951 0.84069429572832477 0 0.42609163930740518 0.80361684430568059 0 0.45677673713123867 0.84253684404072415 0 0.6236733212988993 0.14864538214901801 0 0.56202748619534593 0.15054058349222879 0 0.58516465772821369 0.11653801664834119 0 0.57412547362576272 0.58273804879550706 0 0.63065402604362242 0.59661356661633302 0 0.5991018319127801 0.62925360607495295 0 0.61343887413683884 0.856862479058357 0 0.5832743223239254 0.88483152652961872 0 0.55899371797446828 0.85003102233514438 0 0.50202631463681879 0.87892870825713787 0 0.55899371797446828 0.85003102233514438 0 0.54783390826260769 0.89287767010860219 0 0.51076801031701946 0.1202837388510348 0 0.54979595918804436 0.1060565713905809 0 0.56202748619534593 0.15054058349222879 0 0.55306006949600994 0.20198184231352201 0 0.59814117807200873 0.23398510860739519 0 0.54248833945060504 0.2520322959927106 0 0.83573492347052902 0.36590755630746369 0 0.82500000000000062 0.33010209762754811 0 0.87430060258887643 0.34056085888204451 0 0.83758014339878906 0.63222013025741819 0 0.87712158428786946 0.65709029563313581 0 0.82457059160610424 0.66831947184359608 0 0.49102375406324739 0.49123754822244059 0 0.53823865529665704 0.45873898050322898 0 0.53330375813596242 0.50827942741749099 0 0.52289427570932567 0.3932284363388488 0 0.57744073070774993 0.41535148636609359 0 0.53823865529665704 0.45873898050322898 0 0.4089290844030305 0.58728915500154233 0 0.37272913873093971 0.56192925302619479 0 0.42644501560315817 0.54603747078095544 0 0.49695729691142171 0.25014895411178018 0 0.4604742573284204 0.27846934318264788 0 0.46429753744194407 0.22870891180733599 0 0.90299850604011456 0.79563452813489832 0 0.85491058998424563 0.76004753345552634 0 0.89999166460796554 0.74528934923809909 0 0.90299850604006393 0.09563452813493091 0 0.85491058998398861 0.060047533455626502 0 0.899991664607802 0.045289349238254978 0 0.38244435121258652 0.51653317813019495 0 0.42644501560315817 0.54603747078095544 0 0.37272913873093971 0.56192925302619479 0 0.71406021706547751 0.63292083137662503 0 0.71809016091162536 0.58185040402320831 0 0.74994237037456724 0.62775548192980357 0 0.84723782639812573 0.48638347960178252 0 0.86907294890112186 0.52008116128001669 0 0.81441713509985358 0.51161854125224959 0 0.33122374654748771 0.57588941099433744 0 0.33190227185843768 0.52715113583864037 0 0.37272913873093971 0.56192925302619479 0 0.086179601630648681 0.64647209519980475 0 0.1241190223511371 0.64391885572885044 0 0.1020579365089687 0.69352219419301997 0 0.59999999999894682 0 0 0.64999999999907843 0 0 0.61940220174112337 0.047251958781050582 0 0.18269480424590959 0.75905448272264375 0 0.14335651144331049 0.75565258250209677 0 0.15332765547575641 0.71200081858233666 0 0.22549374774072969 0.58452645269293457 0 0.2459498854893499 0.63248470766216769 0 0.19914261668318661 0.62286739485272158 0 0.38244435121258652 0.51653317813019495 0 0.43507373378304309 0.49699695397193322 0 0.42644501560315817 0.54603747078095544 0 0.65000000000104008 1 0 0.60000000000138687 1 0 0.62065498684670595 0.95224934003983619 0 0.078358742472063481 0.43365249433908948 0 0.068743045408989428 0.48853989837882689 0 0.033550201249889847 0.46247875832467239 0 0.2236846579037573 0.67380363126050236 0 0.27820712747429932 0.65530134213254643 0 0.26439878998046262 0.7048065392091396 0 0.6879972333610942 0.43038561374960838 0 0.68128176404677243 0.38629093627004979 0 0.72622533758026719 0.40265885511101601 0 0.72525833953073282 0.1032114801687094 0 0.7010294155333181 0.056779085686491267 0 0.7527966693318906 0.053051678021508272 0 0.18269480424590959 0.75905448272264375 0 0.15332765547575641 0.71200081858233666 0 0.19068556247388771 0.71028988922845504 0 0.1216098864341134 0.50637075089503902 0 0.085622222639554768 0.53333248912060549 0 0.068743045408989428 0.48853989837882689 0 0.25676291524611189 0.7436741304886243 0 0.26439878998046262 0.7048065392091396 0 0.29904318922293632 0.74132814928635593 0 0.65481233915350323 0.35652751921065562 0 0.68128176404677243 0.38629093627004979 0 0.63912439215427275 0.41063340167983359 0 0.83573492347052902 0.36590755630746369 0 0.86844634540301924 0.38530937474099819 0 0.81308179852519835 0.39754945808726527 0 0.27270076654418179 0.87751467830216623 0 0.2401283238295133 0.85648409884788523 0 0.29209212897034281 0.84715728365233667 0 0.84999999999999987 0.69999999999999996 0 0.85491058998424563 0.76004753345552634 0 0.81864958914779962 0.73589050177899629 0 0.84999999999960507 0 0 0.85491058998398861 0.060047533455626502 0 0.81864958914740749 0.035890501779055867 0 0.18381867841758909 0.57774125163628387 0 0.19914261668318661 0.62286739485272158 0 0.15720202157091859 0.60665697304410315 0 0.22549374774072969 0.58452645269293457 0 0.19914261668318661 0.62286739485272158 0 0.18381867841758909 0.57774125163628387 0 0.79680861578988083 0.92656778056766709 0 0.85170973911348691 0.93569607295217616 0 0.81486180804382891 0.96321394949790495 0 0.79680861578956375 0.22656778056752541 0 0.8517097391133297 0.2356960729520409 0 0.81486180804364938 0.26321394949780091 0 0.20050006573841939 0.53248514016039872 0 0.23975172658309729 0.49475499200540818 0 0.25115337790845271 0.54719303014923271 0 0.28307294598219601 0.50789252727458634 0 0.25115337790845271 0.54719303014923271 0 0.23975172658309729 0.49475499200540818 0 0.20050006573841939 0.53248514016039872 0 0.18381867841758909 0.57774125163628387 0 0.14934928745814749 0.55042914607228977 0 0.19922788606653311 0.085920220746880993 0 0.22985637510995899 0.1298347970200906 0 0.18652628422869419 0.14162325200928061 0 0.33758650185219202 0.23837101504325639 0 0.38831533174504851 0.2189834941785925 0 0.3786248352540974 0.27082301512024259 0 0.42377727103934271 0.25099357235810238 0 0.3786248352540974 0.27082301512024259 0 0.38831533174504851 0.2189834941785925 0 0.19922788606653311 0.085920220746880993 0 0.18652628422869419 0.14162325200928061 0 0.16141998738593399 0.10404039647458049 0 0.54782696902220018 0.79245182748204157 0 0.55363780716230748 0.74348740161571747 0 0.59636844454254345 0.75937156204589151 0 0.82709327591091286 0.84937141670920724 0 0.88088768115933802 0.84674609810493673 0 0.85600844944837662 0.88483418979512773 0 0.82709327591102189 0.14937141670914489 0 0.88088768115941807 0.14674609810479519 0 0.85600844944842547 0.1848341897950983 0 0.27866744612395528 0.38416094670951489 0 0.22033343844674469 0.36963382230740238 0 0.25966125648670141 0.34351016742083729 0 0 0.50000000000205869 0 0.033550201249889847 0.46247875832467239 0 0.068743045408989428 0.48853989837882689 0 0.31378396441836959 0.70157213313026345 0 0.36622285152418499 0.69092437780804039 0 0.35415581127540569 0.73730480045900215 0 0.77293540622714185 0.59448302402785813 0 0.71809016091162536 0.58185040402320831 0 0.77151014687832564 0.54436834383023036 0 0.7152569930854884 0.5237994455134295 0 0.69385896817107129 0.48377516041410151 0 0.73947346780852752 0.49062440112282169 0 0.15801167086041079 0.46008690540259539 0 0.191953871957803 0.42546416763755879 0 0.19604738184454831 0.47787523520405789 0 0.57667858002728545 0.078486105337742612 0 0.61940220174112337 0.047251958781050582 0 0.61956000905586006 0.1043312481793135 0 0.65408113592120842 0.073941773121567966 0 0.61956000905586006 0.1043312481793135 0 0.61940220174112337 0.047251958781050582 0 0 0.55000000000173355 0 0 0.50000000000205869 0 0.044576108720083309 0.53509043209532614 0 0.65507451745379841 0.92229208810758578 0 0.62065498684670595 0.95224934003983619 0 0.61885627562261258 0.90282959257498208 0 0.57724883562309992 0.92155686857100794 0 0.61885627562261258 0.90282959257498208 0 0.62065498684670595 0.95224934003983619 0 0.91750694127107502 0.36982372220068471 0 0.86844634540301924 0.38530937474099819 0 0.87430060258887643 0.34056085888204451 0 0.91750694127105259 0.63017627779935648 0 0.87712158428786946 0.65709029563313581 0 0.87159648282691515 0.61285406320581504 0 0.33123028043633618 0.77629643437932982 0 0.29904318922293632 0.74132814928635593 0 0.35415581127540569 0.73730480045900215 0 0.86411095495256451 0.42388805655111889 0 0.84925632466077294 0.45359738909549091 0 0.81973119833356312 0.43505687159469048 0 0.43846182030517877 0.64845797726506715 0 0.47913475093885149 0.66010775372412711 0 0.43323420005758778 0.6913544522562407 0 0.18269480424590959 0.75905448272264375 0 0.19068556247388771 0.71028988922845504 0 0.2248999640082178 0.72584299459689172 0 0.39536230704883951 0.84069429572832477 0 0.38586766253264881 0.78219501014812498 0 0.42609163930740518 0.80361684430568059 0 0.59999999999999976 0.69999999999999996 0 0.63221990677827677 0.73442891067859706 0 0.59636844454254345 0.75937156204589151 0 0.27866744612395528 0.38416094670951489 0 0.24049127783545701 0.41270748208749802 0 0.22033343844674469 0.36963382230740238 0 0.82709327591091286 0.84937141670920724 0 0.84725310900444062 0.80779732082917555 0 0.88088768115933802 0.84674609810493673 0 0.82709327591102189 0.14937141670914489 0 0.84725310900442086 0.10779732082922661 0 0.88088768115941807 0.14674609810479519 0 0.1650278706801647 0.38791388161335733 0 0.18434624290945251 0.35208838264196463 0 0.22033343844674469 0.36963382230740238 0 0.4409427642593301 0.35743108089689513 0 0.49077833859261139 0.35229981449445641 0 0.46655310992796922 0.39650496622958609 0 0.80185942888539485 0.77452061303608133 0 0.81864958914779962 0.73589050177899629 0 0.85491058998424563 0.76004753345552634 0 0.80185942888501827 0.074520613036224564 0 0.81864958914740749 0.035890501779055867 0 0.85491058998398861 0.060047533455626502 0 0.29999999999926641 0 0 0.34999999999912063 0 0 0.32541448401678508 0.046215317981507749 0 0.35000000000145642 1 0 0.30000000000124832 1 0 0.32544832635163229 0.95485394099568932 0 0.4656888918609538 0.78493261229743638 0 0.50731287292894423 0.78963574450233831 0 0.50627822638148745 0.8263979829520941 0 0.2185883431182947 0.18019736283949719 0 0.25557216766470708 0.15874861286892261 0 0.26429849586623999 0.19346700179430079 0 1 0.29999999999999999 0 1 0.34999999999993492 0 0.95780851984364423 0.34215720972155339 0 1 0.29999999999999999 0 0.95780851984364423 0.34215720972155339 0 0.94999999999999996 0.29999999999999999 0 1 0.69999999999999996 0 0.94999999999999996 0.69999999999999996 0 0.9578014258160763 0.65787212321113708 0 1 0.69999999999999996 0 0.9578014258160763 0.65787212321113708 0 1 0.64999999999986979 0 0.91750694127107502 0.36982372220068471 0 0.90594285160987287 0.4141265964174129 0 0.86844634540301924 0.38530937474099819 0 0.91750694127105259 0.63017627779935648 0 0.87159648282691515 0.61285406320581504 0 0.91143117093204207 0.58709913730335972 0 0.74999999999999989 0.69999999999999996 0 0.7750489929959945 0.66593931409600093 0 0.79999999999999982 0.69999999999999996 0 0.74999999999999989 0.29999999999999999 0 0.79999999999999982 0.29999999999999999 0 0.78145581580700685 0.34881365920033602 0 0.54999999999999993 0.69999999999999996 0 0.57484956128872922 0.66573805030881994 0 0.59999999999999976 0.69999999999999996 0 0.90299850604011456 0.79563452813489832 0 0.94399509803918602 0.75600490196082126 0 0.95386563387742829 0.80414874155775029 0 0.90416666666660628 0.9041666666666166 0 0.95391631417670719 0.89584263333814784 0 0.94399509803919068 0.9439950980391687 0 0.90299850604006393 0.09563452813493091 0 0.94399509803922566 0.056004901960802607 0 0.95386563387744361 0.1041487415577465 0 0.90416666666668166 0.20416666666667119 0 0.95391631417672862 0.19584263333809451 0 0.94399509803921056 0.24399509803922639 0 0.22278230690790279 0.44824268025881547 0 0.19604738184454831 0.47787523520405789 0 0.191953871957803 0.42546416763755879 0 0.90299850604011456 0.79563452813489832 0 0.89999166460796554 0.74528934923809909 0 0.94399509803918602 0.75600490196082126 0 0.90299850604006393 0.09563452813493091 0 0.899991664607802 0.045289349238254978 0 0.94399509803922566 0.056004901960802607 0 0.49102375406324739 0.49123754822244059 0 0.47793794143994173 0.52940715638744962 0 0.43507373378304309 0.49699695397193322 0 0.90416666666660628 0.9041666666666166 0 0.94399509803919068 0.9439950980391687 0 0.89898474358632463 0.95391965591118966 0 0.90416666666668166 0.20416666666667119 0 0.94399509803921056 0.24399509803922639 0 0.89898474358614167 0.25391965591104898 0 0.65394964615507722 0.22666784374016369 0 0.62657463266645097 0.26524202571255862 0 0.59814117807200873 0.23398510860739519 0 0.6084546825910605 0.37989672713932537 0 0.63912439215427275 0.41063340167983359 0 0.57744073070774993 0.41535148636609359 0 0.61209567303293111 0.44669033081290321 0 0.57744073070774993 0.41535148636609359 0 0.63912439215427275 0.41063340167983359 0 0.25676291524611189 0.7436741304886243 0 0.22556077506376701 0.77837424984191617 0 0.2248999640082178 0.72584299459689172 0 0.61343887413683884 0.856862479058357 0 0.60294066490120068 0.80851322453934582 0 0.65005442820240822 0.82644988530054031 0 0.64999999999907843 0 0 0.66369801598854572 0.036327466368102787 0 0.61940220174112337 0.047251958781050582 0 0.40326160981139969 0.73346192995102844 0 0.38586766253264881 0.78219501014812498 0 0.35415581127540569 0.73730480045900215 0 0.33123028043633618 0.77629643437932982 0 0.35415581127540569 0.73730480045900215 0 0.38586766253264881 0.78219501014812498 0 0.26573297623774761 0.59828298563722948 0 0.29110487519241501 0.56588143995431495 0 0.31502927232353312 0.6134992213375432 0 0.77846603114747959 0.49850927265137401 0 0.81441713509985358 0.51161854125224959 0 0.77151014687832564 0.54436834383023036 0 0.82862096804812391 0.55037090955459045 0 0.77151014687832564 0.54436834383023036 0 0.81441713509985358 0.51161854125224959 0 0.50000000000205869 1 0 0.45000000000187229 1 0 0.47135117303824892 0.95556877749289892 0 0.44999999999882923 0 0 0.49999999999869432 0 0 0.47040171442036788 0.044141676406503738 0 0 0.7000000000006934 0 0 0.65000000000104008 0 0.046634677244967337 0.671418230738282 0 0 0.35000000000145642 0 0 0.30000000000124832 0 0.046389130980076937 0.32668781832131749 0 0.31378396441836959 0.70157213313026345 0 0.27820712747429932 0.65530134213254643 0 0.32263089806001177 0.66003674931826484 0 0.33122374654748771 0.57588941099433744 0 0.31502927232353312 0.6134992213375432 0 0.29110487519241501 0.56588143995431495 0 0.26573297623774761 0.59828298563722948 0 0.27820712747429932 0.65530134213254643 0 0.2459498854893499 0.63248470766216769 0 0.14474682429600511 0.85524784522713515 0 0.16206583317966519 0.89685560785156404 0 0.1241151115713819 0.9045666525468371 0 0.14332333627550789 0.14578431753966009 0 0.12372429750337779 0.095814237875728972 0 0.16141998738593399 0.10404039647458049 0 0.64753070846764316 0.77332939069435502 0 0.59636844454254345 0.75937156204589151 0 0.63221990677827677 0.73442891067859706 0 0.14474682429600511 0.85524784522713515 0 0.1241151115713819 0.9045666525468371 0 0.10562472963403439 0.87143394428979881 0 0.14332333627550789 0.14578431753966009 0 0.1053400320299198 0.12877248826361379 0 0.12372429750337779 0.095814237875728972 0 0.77354604466818633 0.40378688774472771 0 0.81308179852519835 0.39754945808726527 0 0.81973119833356312 0.43505687159469048 0 0.54782696902220018 0.79245182748204157 0 0.50945740445113552 0.75476055527778108 0 0.55363780716230748 0.74348740161571747 0 0.2236846579037573 0.67380363126050236 0 0.2459498854893499 0.63248470766216769 0 0.27820712747429932 0.65530134213254643 0 0.77293540622714185 0.59448302402785813 0 0.74994237037456724 0.62775548192980357 0 0.71809016091162536 0.58185040402320831 0 0 0.79999999999999982 0 0 0.75000000000034661 0 0.04408157711937423 0.7728941757575627 0 0 0.25000000000104028 0 0 0.20000000000083221 0 0.044081577119474857 0.2271058242433576 0 0.19999999999955789 0 0 0.24999999999941211 0 0 0.22668068146512929 0.045875643423131329 0 0.25000000000104028 1 0 0.20000000000083221 1 0 0.22850979588452081 0.95594428570238643 0 0.47357141910802508 0.1873585799078378 0 0.44288491854585582 0.14116182884956319 0 0.48466639505193998 0.1421439844745814 0 0.59999999999999976 0.29999999999999999 0 0.5794309697024993 0.27124795968204829 0 0.62657463266645097 0.26524202571255862 0 0.43249999999999988 0.43937499999999979 0 0.42161023666869668 0.39493916313643851 0 0.46655310992796922 0.39650496622958609 0 0.31068898841644388 0.47541502461811092 0 0.33190227185843768 0.52715113583864037 0 0.28307294598219601 0.50789252727458634 0 0.35024835142131061 0.48654922671676981 0 0.33190227185843768 0.52715113583864037 0 0.31068898841644388 0.47541502461811092 0 0.35864735590330371 0.63903383440414463 0 0.36622285152418499 0.69092437780804039 0 0.32263089806001177 0.66003674931826484 0 0.31378396441836959 0.70157213313026345 0 0.32263089806001177 0.66003674931826484 0 0.36622285152418499 0.69092437780804039 0 0.86956835336234861 0.571283299838105 0 0.90900154012161016 0.53607784105648792 0 0.91143117093204207 0.58709913730335972 0 0.6499999999999998 0.29999999999999999 0 0.65481233915350323 0.35652751921065562 0 0.61959173890754571 0.33832250091341232 0 0.4409427642593301 0.35743108089689513 0 0.46226845272279993 0.31901800744800313 0 0.49077833859261139 0.35229981449445641 0 0.5 0.29999999999999999 0 0.49077833859261139 0.35229981449445641 0 0.46226845272279993 0.31901800744800313 0 0.14999999999970359 0 0 0.19999999999955789 0 0 0.184418230509967 0.038773194583122873 0 0.20000000000083221 1 0 0.15000000000062411 1 0 0.18474005699953849 0.96231585248064622 0 1 0.49999999999950101 0 1 0.54999999999963112 0 0.95631871884947484 0.51827533208233789 0 0.38586766253264881 0.78219501014812498 0 0.42676259796334498 0.76772545931379299 0 0.42609163930740518 0.80361684430568059 0 0.20050006573841939 0.53248514016039872 0 0.22549374774072969 0.58452645269293457 0 0.18381867841758909 0.57774125163628387 0 0.065374659239661639 0.8551091961254178 0 0.1074251789111534 0.83564394292147814 0 0.10562472963403439 0.87143394428979881 0 0.065374659239632718 0.1448908038746782 0 0.1053400320299198 0.12877248826361379 0 0.106902708054812 0.16453234188234539 0 0.1650278706801647 0.38791388161335733 0 0.14223753364722069 0.3341983344262433 0 0.18434624290945251 0.35208838264196463 0 0.43249999999999988 0.43937499999999979 0 0.46111841286828259 0.46690301029591341 0 0.43507373378304309 0.49699695397193322 0 0.83758014339878906 0.63222013025741819 0 0.81723410853263523 0.59419663659258926 0 0.87159648282691515 0.61285406320581504 0 0.19670163708476801 0.31472518408333222 0 0.18434624290945251 0.35208838264196463 0 0.14223753364722069 0.3341983344262433 0 0.75000000000034661 1 0 0.7250000000005199 0.94981617647078953 0 0.770759834363826 0.95919399014344442 0 0.74999999999999989 0.29999999999999999 0 0.72500000000000064 0.2498161764706 0 0.77075983436335049 0.25919399014334171 0 0.69999999999999984 0.29999999999999999 0 0.67933712972090698 0.25920070958121938 0 0.72500000000000064 0.2498161764706 0 0.57611405284611883 0.50165903596042916 0 0.53330375813596242 0.50827942741749099 0 0.53823865529665704 0.45873898050322898 0 0.6499999999999998 0.29999999999999999 0 0.68887083591306764 0.33632058575757479 0 0.65481233915350323 0.35652751921065562 0 0.27866744612395528 0.38416094670951489 0 0.33277555741076909 0.36432196682010132 0 0.31778888742534622 0.40581751814196781 0 0.49102375406324739 0.49123754822244059 0 0.43507373378304309 0.49699695397193322 0 0.46111841286828259 0.46690301029591341 0 0.94999999999999996 0.69999999999999996 0 0.97166519676947294 0.73337114490064459 0 0.94399509803918602 0.75600490196082126 0 0.94999999999986839 0 0 0.97166519676946894 0.033371144900598393 0 0.94399509803922566 0.056004901960802607 0 0.94999999999999996 0.29999999999999999 0 0.94399509803921056 0.24399509803922639 0 0.97166519676951801 0.26662885509932011 0 0.94999999999979179 1 0 0.94399509803919068 0.9439950980391687 0 0.97166519676946206 0.96662885509935492 0 0.34258405725730701 0.4444034294386992 0 0.29124338931648802 0.43334555462578611 0 0.31778888742534622 0.40581751814196781 0 0.27866744612395528 0.38416094670951489 0 0.31778888742534622 0.40581751814196781 0 0.29124338931648802 0.43334555462578611 0 0.36575549820117997 0.31677992835137742 0 0.33277555741076909 0.36432196682010132 0 0.32752639306529541 0.32610012995269699 0 0.35752321586431363 0.9185439911803448 0 0.32544832635163229 0.95485394099568932 0 0.30864387279288652 0.89906554525974958 0 0.27609987656793722 0.94991445621608572 0 0.30864387279288652 0.89906554525974958 0 0.32544832635163229 0.95485394099568932 0 0.33123028043633618 0.77629643437932982 0 0.30857225866488791 0.81101973481716805 0 0.2792923945214143 0.77665808831789485 0 0.33758650185219202 0.23837101504325639 0 0.29132859388405002 0.27203693976649962 0 0.28040350263641872 0.23054717217092141 0 0.4409427642593301 0.35743108089689513 0 0.41914690343363781 0.30688979866601612 0 0.46226845272279993 0.31901800744800313 0 0.14332333627550789 0.14578431753966009 0 0.13737030665753211 0.20313708640667491 0 0.106902708054812 0.16453234188234539 0 0.083105206071467416 0.20007701332709979 0 0.106902708054812 0.16453234188234539 0 0.13737030665753211 0.20313708640667491 0 0.083105206071452636 0.79992298667296435 0 0.1382744753146134 0.79650574229207483 0 0.1074251789111534 0.83564394292147814 0 0.14474682429600511 0.85524784522713515 0 0.1074251789111534 0.83564394292147814 0 0.1382744753146134 0.79650574229207483 0 0.65408113592120842 0.073941773121567966 0 0.7010294155333181 0.056779085686491267 0 0.68330259535470161 0.10038702501083881 0 0.72525833953073282 0.1032114801687094 0 0.68330259535470161 0.10038702501083881 0 0.7010294155333181 0.056779085686491267 0 0.049706944316475897 0.72477277076253799 0 0.046634677244967337 0.671418230738282 0 0.1020579365089687 0.69352219419301997 0 0.086179601630648681 0.64647209519980475 0 0.1020579365089687 0.69352219419301997 0 0.046634677244967337 0.671418230738282 0 0.087545339447545459 0.35122518864182262 0 0.046389130980076937 0.32668781832131749 0 0.093851963071650835 0.30582068233324772 0 0.049706944316556423 0.27522722923869108 0 0.093851963071650835 0.30582068233324772 0 0.046389130980076937 0.32668781832131749 0 0.82709327591091286 0.84937141670920724 0 0.80041942726660109 0.81543261647703358 0 0.84725310900444062 0.80779732082917555 0 0.82709327591102189 0.14937141670914489 0 0.80076557130237269 0.1154587552654202 0 0.84725310900442086 0.10779732082922661 0 0.17933913398461551 0.2350063570234002 0 0.14377654328998779 0.2442024734791064 0 0.13737030665753211 0.20313708640667491 0 0.18269480424590959 0.75905448272264375 0 0.1382744753146134 0.79650574229207483 0 0.14335651144331049 0.75565258250209677 0 0.33758650185219202 0.23837101504325639 0 0.3786248352540974 0.27082301512024259 0 0.33402499257867951 0.28911035184473982 0 0.14332333627550789 0.14578431753966009 0 0.18124454140915969 0.18790916706335251 0 0.13737030665753211 0.20313708640667491 0 0.14474682429600511 0.85524784522713515 0 0.1382744753146134 0.79650574229207483 0 0.17777405986036951 0.81832336108265358 0 0.5 0.29999999999999999 0 0.52752007115234678 0.33170632466418198 0 0.49077833859261139 0.35229981449445641 0 0.27866744612395528 0.38416094670951489 0 0.29644548887253103 0.34914008784168082 0 0.33277555741076909 0.36432196682010132 0 0 0.84999999999965292 0 0 0.79999999999999982 0 0.038512288486097702 0.8155852717111195 0 0 0.20000000000083221 0 0 0.15000000000062411 0 0.038512288486115001 0.1844147282893184 0 0.40326160981139969 0.73346192995102844 0 0.35415581127540569 0.73730480045900215 0 0.36622285152418499 0.69092437780804039 0 0.91696753777131557 0.497780560203536 0 0.96228564064454991 0.48206450662049471 0 0.95631871884947484 0.51827533208233789 0 0.33758650185219202 0.23837101504325639 0 0.31255190597181792 0.19850845631528771 0 0.3572130504031617 0.1874703368446563 0 0.59814117807200873 0.23398510860739519 0 0.62657463266645097 0.26524202571255862 0 0.5794309697024993 0.27124795968204829 0 0.34258405725730701 0.4444034294386992 0 0.31068898841644388 0.47541502461811092 0 0.29124338931648802 0.43334555462578611 0 0.38083244760691543 0.38531983672244652 0 0.35221190152536241 0.40457127605439203 0 0.33277555741076909 0.36432196682010132 0 0.083411279318375747 0.91030024466934134 0 0.10266856499240549 0.95548163909968886 0 0.053064897599294662 0.95186845269532028 0 0.083411279318303222 0.089699755330707398 0 0.053064897599215843 0.048131547304697528 0 0.10266856499169109 0.044518360900210059 0 0.42377727103934271 0.25099357235810238 0 0.4604742573284204 0.27846934318264788 0 0.41914690343363781 0.30688979866601612 0 0.28307294598219601 0.50789252727458634 0 0.25982634974572738 0.46097799597715272 0 0.31068898841644388 0.47541502461811092 0 0.29348325746214782 0.31350119524708198 0 0.29132859388405002 0.27203693976649962 0 0.33402499257867951 0.28911035184473982 0 0.35312867752657662 0.084946736076730367 0 0.39823268594401579 0.1116623613130045 0 0.36246644853392812 0.1399454205365751 0 0.7000000000006934 1 0 0.68015064798562208 0.95924320340003011 0 0.7250000000005199 0.94981617647078953 0 0.42377727103934271 0.25099357235810238 0 0.38831533174504851 0.2189834941785925 0 0.42905200079338551 0.19982395548231649 0 0.53823865529665704 0.45873898050322898 0 0.57744073070774993 0.41535148636609359 0 0.57975577671020095 0.46172033326338591 0 0.33758650185219202 0.23837101504325639 0 0.3572130504031617 0.1874703368446563 0 0.38831533174504851 0.2189834941785925 0 0.29124338931648802 0.43334555462578611 0 0.31068898841644388 0.47541502461811092 0 0.25982634974572738 0.46097799597715272 0 0.6084546825910605 0.37989672713932537 0 0.61959173890754571 0.33832250091341232 0 0.65481233915350323 0.35652751921065562 0 0.40326160981139969 0.73346192995102844 0 0.43323420005758778 0.6913544522562407 0 0.45582236402875981 0.73896743678908217 0 0.33758650185219202 0.23837101504325639 0 0.28040350263641872 0.23054717217092141 0 0.31255190597181792 0.19850845631528771 0 0.79999999999999982 1 0 0.75000000000034661 1 0 0.770759834363826 0.95919399014344442 0 0.74999999999999989 0.29999999999999999 0 0.77075983436335049 0.25919399014334171 0 0.79999999999999982 0.29999999999999999 0 0.6499999999999998 0.29999999999999999 0 0.67933712972090698 0.25920070958121938 0 0.69999999999999984 0.29999999999999999 0 0.39536230704883951 0.84069429572832477 0 0.39767323751400468 0.89584229130535065 0 0.35864759629805099 0.87963482415279515 0 0.54999999999999993 0.69999999999999996 0 0.52584555706968406 0.66664215091846768 0 0.57484956128872922 0.66573805030881994 0 0.35312867752657662 0.084946736076730367 0 0.32541448401678508 0.046215317981507749 0 0.3615861437013822 0.03582617922508851 0 0.35752321586431363 0.9185439911803448 0 0.36184234618600131 0.96443954459096326 0 0.32544832635163229 0.95485394099568932 0 0.35312867752657662 0.084946736076730367 0 0.3615861437013822 0.03582617922508851 0 0.39591832466117061 0.056982757562006353 0 0.35752321586431363 0.9185439911803448 0 0.39641108128798319 0.94356127926187128 0 0.36184234618600131 0.96443954459096326 0 0.083411279318303222 0.089699755330707398 0 0.044310582753132287 0.101412518374475 0 0.053064897599215843 0.048131547304697528 0 0.083411279318375747 0.91030024466934134 0 0.053064897599294662 0.95186845269532028 0 0.0443105827531413 0.89858748162559932 0 0.38083244760691543 0.38531983672244652 0 0.40076539126862748 0.34589349467022118 0 0.42161023666869668 0.39493916313643851 0 0.4409427642593301 0.35743108089689513 0 0.42161023666869668 0.39493916313643851 0 0.40076539126862748 0.34589349467022118 0 0.79999999999999982 0.29999999999999999 0 0.82500000000000062 0.33010209762754811 0 0.78145581580700685 0.34881365920033602 0 0.79999999999999982 0.69999999999999996 0 0.7750489929959945 0.66593931409600093 0 0.82457059160610424 0.66831947184359608 0 0.59999999999999976 0.69999999999999996 0 0.57484956128872922 0.66573805030881994 0 0.62460753523532009 0.66851202781000296 0 0.74999999999999989 0.69999999999999996 0 0.72500000000000064 0.67022701834392062 0 0.7750489929959945 0.66593931409600093 0 0.74999999999999989 0.29999999999999999 0 0.78145581580700685 0.34881365920033602 0 0.73090396928863699 0.33699297293167962 0 0.33758650185219202 0.23837101504325639 0 0.33402499257867951 0.28911035184473982 0 0.29132859388405002 0.27203693976649962 0 0.36575549820117997 0.31677992835137742 0 0.41914690343363781 0.30688979866601612 0 0.40076539126862748 0.34589349467022118 0 0.4409427642593301 0.35743108089689513 0 0.40076539126862748 0.34589349467022118 0 0.41914690343363781 0.30688979866601612 0 0.34258405725730701 0.4444034294386992 0 0.38707855792647411 0.42299362914874578 0 0.3908716102680424 0.47010282357248828 0 0.7000000000006934 1 0 0.65000000000104008 1 0 0.68015064798562208 0.95924320340003011 0 0.49102375406324739 0.49123754822244059 0 0.46111841286828259 0.46690301029591341 0 0.48858720058566618 0.43964267759203868 0 0.4656888918609538 0.78493261229743638 0 0.42676259796334498 0.76772545931379299 0 0.45582236402875981 0.73896743678908217 0 0.40326160981139969 0.73346192995102844 0 0.45582236402875981 0.73896743678908217 0 0.42676259796334498 0.76772545931379299 0 0.59999999999999976 0.29999999999999999 0 0.62657463266645097 0.26524202571255862 0 0.6499999999999998 0.29999999999999999 0 0.40000000000166441 1 0 0.36184234618600131 0.96443954459096326 0 0.39641108128798319 0.94356127926187128 0 0.3999999999989749 0 0 0.39591832466117061 0.056982757562006353 0 0.3615861437013822 0.03582617922508851 0 0.43249999999999988 0.43937499999999979 0 0.48858720058566618 0.43964267759203868 0 0.46111841286828259 0.46690301029591341 0 0.7250000000005199 0.89375000000045834 0 0.7250000000005199 0.94981617647078953 0 0.68987011941058407 0.92105047536677087 0 0.7250000000005199 0.89375000000045834 0 0.75729602384198635 0.92353652857884294 0 0.7250000000005199 0.94981617647078953 0 0.72500000000001008 0.19776155966387679 0 0.75668890529066124 0.2244279804069782 0 0.72500000000000064 0.2498161764706 0 0.72500000000001008 0.19776155966387679 0 0.72500000000000064 0.2498161764706 0 0.69397719155551807 0.2245125647000914 0 0.79999999999999982 0.29999999999999999 0 0.81486180804364938 0.26321394949780091 0 0.84999999999999987 0.29999999999999999 0 0.84999999999965292 1 0 0.79999999999999982 1 0 0.81486180804382891 0.96321394949790495 0 0.1247745017231483 0.27198077544791172 0 0.095326043202144745 0.24554465089224409 0 0.14377654328998779 0.2442024734791064 0 0.1215415378367805 0.72939333680004137 0 0.14335651144331049 0.75565258250209677 0 0.090953281884486245 0.7564451946902494 0 0.72500000000001008 0.19776155966387679 0 0.72634814642510737 0.16106886917518889 0 0.76587607630038135 0.18880039518954719 0 0.72500000000001008 0.19776155966387679 0 0.6865991819015953 0.189116534044597 0 0.72634814642510737 0.16106886917518889 0 0.77144070960558853 0.14311854477243749 0 0.76587607630038135 0.18880039518954719 0 0.72634814642510737 0.16106886917518889 0 0.68391457121233579 0.14440470121196541 0 0.72634814642510737 0.16106886917518889 0 0.6865991819015953 0.189116534044597 0 0.7250000000005199 0.89375000000045834 0 0.72863726579783861 0.85390518901155588 0 0.76891166905518427 0.88835469571185499 0 0.76901770135486491 0.84293557325473656 0 0.76891166905518427 0.88835469571185499 0 0.72863726579783861 0.85390518901155588 0 0 0.20000000000083221 0 0.038512288486115001 0.1844147282893184 0 0.044081577119474857 0.2271058242433576 0 0 0.79999999999999982 0 0.04408157711937423 0.7728941757575627 0 0.038512288486097702 0.8155852717111195 0 0.52375890611712683 0.059318771819432882 0 0.47881186583059909 0.093591717165689425 0 0.47040171442036788 0.044141676406503738 0 0.52122150208832174 0.94089974453840242 0 0.47135117303824892 0.95556877749289892 0 0.47401147028110507 0.91529957330468115 0 0.27474541102162192 0.11822029332053539 0 0.3096713403101819 0.085471541595262421 0 0.32215584939770009 0.1218492143506909 0 0.22278230690790279 0.44824268025881547 0 0.24049127783545701 0.41270748208749802 0 0.25982634974572738 0.46097799597715272 0 0.93732437411268477 0.55911392101136159 0 0.91143117093204207 0.58709913730335972 0 0.90900154012161016 0.53607784105648792 0 0.19901705110390991 0.9175543425573498 0 0.24536017905392571 0.90704567837671446 0 0.22850979588452081 0.95594428570238643 0 0.27609987656793722 0.94991445621608572 0 0.22850979588452081 0.95594428570238643 0 0.24536017905392571 0.90704567837671446 0 0.15720202157091859 0.60665697304410315 0 0.1241190223511371 0.64391885572885044 0 0.1024350934457823 0.60772393977513839 0 0.6499999999999998 0.69999999999999996 0 0.675261390228442 0.65996937624687813 0 0.69999999999999984 0.69999999999999996 0 0.3999999999989749 0 0 0.4320097814748517 0.037406712692169303 0 0.39591832466117061 0.056982757562006353 0 0.40000000000166441 1 0 0.39641108128798319 0.94356127926187128 0 0.4308986359464303 0.96395712492906194 0 0.54999999999999993 0.29999999999999999 0 0.56836770495988642 0.3523062350852913 0 0.52752007115234678 0.33170632466418198 0 0.14474682429600511 0.85524784522713515 0 0.17777405986036951 0.81832336108265358 0 0.19741632902693801 0.86755867406447229 0 0.21858834311891909 0.81980263716112767 0 0.19741632902693801 0.86755867406447229 0 0.17777405986036951 0.81832336108265358 0 0.54782696902220018 0.79245182748204157 0 0.50731287292894423 0.78963574450233831 0 0.50945740445113552 0.75476055527778108 0 0.20000000000083221 1 0 0.18474005699953849 0.96231585248064622 0 0.22850979588452081 0.95594428570238643 0 0.19999999999955789 0 0 0.22668068146512929 0.045875643423131329 0 0.184418230509967 0.038773194583122873 0 0.77846603114747959 0.49850927265137401 0 0.73947346780852752 0.49062440112282169 0 0.77972660463949339 0.45529290596363098 0 0.73483647259922602 0.44789725365921768 0 0.77972660463949339 0.45529290596363098 0 0.73947346780852752 0.49062440112282169 0 0.34258405725730701 0.4444034294386992 0 0.35024835142131061 0.48654922671676981 0 0.31068898841644388 0.47541502461811092 0 0.33123028043633618 0.77629643437932982 0 0.2792923945214143 0.77665808831789485 0 0.29904318922293632 0.74132814928635593 0 0.26573297623774761 0.59828298563722948 0 0.25115337790845271 0.54719303014923271 0 0.29110487519241501 0.56588143995431495 0 0.4656888918609538 0.78493261229743638 0 0.50945740445113552 0.75476055527778108 0 0.50731287292894423 0.78963574450233831 0 0.35312867752657662 0.084946736076730367 0 0.36246644853392812 0.1399454205365751 0 0.32215584939770009 0.1218492143506909 0 0.29348325746214782 0.31350119524708198 0 0.25966125648670141 0.34351016742083729 0 0.24432083401701241 0.3006253385567515 0 0.59999999999999976 0.69999999999999996 0 0.6499999999999998 0.69999999999999996 0 0.63221990677827677 0.73442891067859706 0 0.69999999999921003 0 0 0.7010294155333181 0.056779085686491267 0 0.66369801598854572 0.036327466368102787 0 0.40000000000166441 1 0 0.35000000000145642 1 0 0.36184234618600131 0.96443954459096326 0 0.34999999999912063 0 0 0.3999999999989749 0 0 0.3615861437013822 0.03582617922508851 0 0.43507373378304309 0.49699695397193322 0 0.47793794143994173 0.52940715638744962 0 0.42644501560315817 0.54603747078095544 0 0.14474682429600511 0.85524784522713515 0 0.19741632902693801 0.86755867406447229 0 0.16206583317966519 0.89685560785156404 0 0.19901705110390991 0.9175543425573498 0 0.16206583317966519 0.89685560785156404 0 0.19741632902693801 0.86755867406447229 0 0.35864735590330371 0.63903383440414463 0 0.3977710372045391 0.65868194622830212 0 0.36622285152418499 0.69092437780804039 0 0.7527966693318906 0.053051678021508272 0 0.7010294155333181 0.056779085686491267 0 0.72683645290270404 0.027797073151180601 0 0.71508799138962864 0.36622814920737751 0 0.72622533758026719 0.40265885511101601 0 0.68128176404677243 0.38629093627004979 0 0.79999999999999982 0.69999999999999996 0 0.84999999999999987 0.69999999999999996 0 0.81864958914779962 0.73589050177899629 0 0.79999999999947335 0 0 0.84999999999960507 0 0 0.81864958914740749 0.035890501779055867 0 0.39536230704883951 0.84069429572832477 0 0.35642984951668422 0.80994399665655703 0 0.38586766253264881 0.78219501014812498 0 0.42377727103934271 0.25099357235810238 0 0.46429753744194407 0.22870891180733599 0 0.4604742573284204 0.27846934318264788 0 0.39801143831225599 0.16651381068160659 0 0.42905200079338551 0.19982395548231649 0 0.38831533174504851 0.2189834941785925 0 0.79999999999999982 1 0 0.770759834363826 0.95919399014344442 0 0.81486180804382891 0.96321394949790495 0 0.79999999999999982 0.29999999999999999 0 0.77075983436335049 0.25919399014334171 0 0.81486180804364938 0.26321394949780091 0 0.25195515620380449 0.25883339815888678 0 0.21049769590865089 0.26857363548218488 0 0.224700362040408 0.22206622194729711 0 0.40326160981139969 0.73346192995102844 0 0.42676259796334498 0.76772545931379299 0 0.38586766253264881 0.78219501014812498 0 0.35312867752657662 0.084946736076730367 0 0.3096713403101819 0.085471541595262421 0 0.32541448401678508 0.046215317981507749 0 0.59999999999999976 0.29999999999999999 0 0.6499999999999998 0.29999999999999999 0 0.61959173890754571 0.33832250091341232 0 0.2185883431182947 0.18019736283949719 0 0.18652628422869419 0.14162325200928061 0 0.22985637510995899 0.1298347970200906 0 0.64999999999907843 0 0 0.69999999999921003 0 0 0.66369801598854572 0.036327466368102787 0 0.27499999999933927 0.060310814194988557 0 0.24218496799700481 0.089025544070598317 0 0.22668068146512929 0.045875643423131329 0 0.19922788606653311 0.085920220746880993 0 0.22668068146512929 0.045875643423131329 0 0.24218496799700481 0.089025544070598317 0 0.65507451745379841 0.92229208810758578 0 0.66412543161245952 0.88015090885499059 0 0.68987011941058407 0.92105047536677087 0 0.049706944316475897 0.72477277076253799 0 0.090953281884486245 0.7564451946902494 0 0.04408157711937423 0.7728941757575627 0 0.083105206071452636 0.79992298667296435 0 0.04408157711937423 0.7728941757575627 0 0.090953281884486245 0.7564451946902494 0 0.083105206071467416 0.20007701332709979 0 0.095326043202144745 0.24554465089224409 0 0.044081577119474857 0.2271058242433576 0 0.049706944316556423 0.27522722923869108 0 0.044081577119474857 0.2271058242433576 0 0.095326043202144745 0.24554465089224409 0 0.36575549820117997 0.31677992835137742 0 0.33402499257867951 0.28911035184473982 0 0.3786248352540974 0.27082301512024259 0 0.53245488764484505 0.55078124999999989 0 0.53330375813596242 0.50827942741749099 0 0.57435499076887508 0.54267261987897775 0 0.57611405284611883 0.50165903596042916 0 0.57435499076887508 0.54267261987897775 0 0.53330375813596242 0.50827942741749099 0 0.6499999999999998 0.29999999999999999 0 0.69999999999999984 0.29999999999999999 0 0.68887083591306764 0.33632058575757479 0 0.57611405284611883 0.50165903596042916 0 0.53823865529665704 0.45873898050322898 0 0.57975577671020095 0.46172033326338591 0 0.7750489929959945 0.66593931409600093 0 0.72500000000000064 0.67022701834392062 0 0.74994237037456724 0.62775548192980357 0 0.78145581580700685 0.34881365920033602 0 0.74764719760526988 0.3719647154012321 0 0.73090396928863699 0.33699297293167962 0 0.3999999999989749 0 0 0.44999999999882923 0 0 0.4320097814748517 0.037406712692169303 0 0.45000000000187229 1 0 0.40000000000166441 1 0 0.4308986359464303 0.96395712492906194 0 0.57484956128872922 0.66573805030881994 0 0.5991018319127801 0.62925360607495295 0 0.62460753523532009 0.66851202781000296 0 0.7750489929959945 0.66593931409600093 0 0.79884539758237771 0.62875045078114233 0 0.82457059160610424 0.66831947184359608 0 0.39801143831225599 0.16651381068160659 0 0.36246644853392812 0.1399454205365751 0 0.39823268594401579 0.1116623613130045 0 0.078358742472063481 0.43365249433908948 0 0.033550201249889847 0.46247875832467239 0 0.035463093262830522 0.42673416072819947 0 0.25676291524611189 0.7436741304886243 0 0.2792923945214143 0.77665808831789485 0 0.22556077506376701 0.77837424984191617 0 0.2236846579037573 0.67380363126050236 0 0.2248999640082178 0.72584299459689172 0 0.19068556247388771 0.71028988922845504 0 0.50715858906372158 0.63295939104129484 0 0.5166924242153631 0.59825134841919447 0 0.5498280205245758 0.6290146943450976 0 0.14618258501891079 0.062070108745602003 0 0.12372429750337779 0.095814237875728972 0 0.10266856499169109 0.044518360900210059 0 0.083411279318303222 0.089699755330707398 0 0.10266856499169109 0.044518360900210059 0 0.12372429750337779 0.095814237875728972 0 0.083411279318375747 0.91030024466934134 0 0.1241151115713819 0.9045666525468371 0 0.10266856499240549 0.95548163909968886 0 0.14617343800780541 0.93808063414349496 0 0.10266856499240549 0.95548163909968886 0 0.1241151115713819 0.9045666525468371 0 0.5499999999988151 0 0 0.59999999999894682 0 0 0.57396793757665954 0.037011367187645222 0 0.54782696902220018 0.79245182748204157 0 0.50627822638148745 0.8263979829520941 0 0.50731287292894423 0.78963574450233831 0 0.6499999999999998 0.29999999999999999 0 0.62657463266645097 0.26524202571255862 0 0.67933712972090698 0.25920070958121938 0 0.86956835336234861 0.571283299838105 0 0.86907294890112186 0.52008116128001669 0 0.90900154012161016 0.53607784105648792 0 0.17933913398461551 0.2350063570234002 0 0.224700362040408 0.22206622194729711 0 0.21049769590865089 0.26857363548218488 0 0.43249999999999988 0.43937499999999979 0 0.3908716102680424 0.47010282357248828 0 0.38707855792647411 0.42299362914874578 0 0.27474541102162192 0.11822029332053539 0 0.22985637510995899 0.1298347970200906 0 0.24218496799700481 0.089025544070598317 0 0.64753070846764316 0.77332939069435502 0 0.66427993341343905 0.73232764502436276 0 0.6916490518212759 0.75387992374886192 0 0 0.40000000000166441 0 0.050583896093752537 0.38543522283434112 0 0.035463093262830522 0.42673416072819947 0 0.73483647259922602 0.44789725365921768 0 0.73947346780852752 0.49062440112282169 0 0.69385896817107129 0.48377516041410151 0 0.57484956128872922 0.66573805030881994 0 0.52584555706968406 0.66664215091846768 0 0.5498280205245758 0.6290146943450976 0 0.60000000000138687 1 0 0.55000000000173355 1 0 0.57382506491224949 0.9629411906298494 0 0.068743045408989428 0.48853989837882689 0 0.085622222639554768 0.53333248912060549 0 0.044576108720083309 0.53509043209532614 0 0.083105206071467416 0.20007701332709979 0 0.044081577119474857 0.2271058242433576 0 0.038512288486115001 0.1844147282893184 0 0.083105206071452636 0.79992298667296435 0 0.038512288486097702 0.8155852717111195 0 0.04408157711937423 0.7728941757575627 0 0.28307294598219601 0.50789252727458634 0 0.23975172658309729 0.49475499200540818 0 0.25982634974572738 0.46097799597715272 0 0.43698630808430822 0.080423614171545449 0 0.39591832466117061 0.056982757562006353 0 0.4320097814748517 0.037406712692169303 0 0.4367309254023824 0.92065556789053882 0 0.4308986359464303 0.96395712492906194 0 0.39641108128798319 0.94356127926187128 0 0.80185942888539485 0.77452061303608133 0 0.75841349681148107 0.75422312624214749 0 0.78578450296893509 0.73292684821144505 0 0.80185942888501827 0.074520613036224564 0 0.7527966693318906 0.053051678021508272 0 0.78393852574753176 0.032039079577822822 0 0.6499999999999998 0.69999999999999996 0 0.62460753523532009 0.66851202781000296 0 0.675261390228442 0.65996937624687813 0 0.33123028043633618 0.77629643437932982 0 0.38586766253264881 0.78219501014812498 0 0.35642984951668422 0.80994399665655703 0 0.6405463747586706 0.63290524857395714 0 0.675261390228442 0.65996937624687813 0 0.62460753523532009 0.66851202781000296 0 0.22278230690790279 0.44824268025881547 0 0.191953871957803 0.42546416763755879 0 0.24049127783545701 0.41270748208749802 0 0.077693244765132896 0.56932317963405099 0 0.050069554451969707 0.61308520079857043 0 0.034381862692950467 0.57372682250960894 0 0.25195515620380449 0.25883339815888678 0 0.24432083401701241 0.3006253385567515 0 0.21049769590865089 0.26857363548218488 0 0.46666084890304671 0.57634471035397938 0 0.5166924242153631 0.59825134841919447 0 0.47095389620662098 0.61892551373708504 0 0.50715858906372158 0.63295939104129484 0 0.47095389620662098 0.61892551373708504 0 0.5166924242153631 0.59825134841919447 0 0.72525833953073282 0.1032114801687094 0 0.7527966693318906 0.053051678021508272 0 0.76878382444651716 0.097147941686331368 0 0.80185942888501827 0.074520613036224564 0 0.76878382444651716 0.097147941686331368 0 0.7527966693318906 0.053051678021508272 0 0.72500000000000064 0.7952620967744265 0 0.75841349681148107 0.75422312624214749 0 0.77094201086366854 0.79647480515688507 0 0.80185942888539485 0.77452061303608133 0 0.77094201086366854 0.79647480515688507 0 0.75841349681148107 0.75422312624214749 0 0.72500000000000064 0.7952620967744265 0 0.68024162096458085 0.79868546898116533 0 0.6916490518212759 0.75387992374886192 0 0.64753070846764316 0.77332939069435502 0 0.6916490518212759 0.75387992374886192 0 0.68024162096458085 0.79868546898116533 0 0 0.50000000000205869 0 0 0.45000000000187229 0 0.033550201249889847 0.46247875832467239 0 0.69999999999999984 0.69999999999999996 0 0.675261390228442 0.65996937624687813 0 0.72500000000000064 0.67022701834392062 0 0.71406021706547751 0.63292083137662503 0 0.72500000000000064 0.67022701834392062 0 0.675261390228442 0.65996937624687813 0 0.65408113592120842 0.073941773121567966 0 0.61940220174112337 0.047251958781050582 0 0.66369801598854572 0.036327466368102787 0 0.59999999999894682 0 0 0.61940220174112337 0.047251958781050582 0 0.57396793757665954 0.037011367187645222 0 0.60000000000138687 1 0 0.57382506491224949 0.9629411906298494 0 0.62065498684670595 0.95224934003983619 0 0.33122374654748771 0.57588941099433744 0 0.35765792684946668 0.6000687869219653 0 0.31502927232353312 0.6134992213375432 0 0.35864735590330371 0.63903383440414463 0 0.31502927232353312 0.6134992213375432 0 0.35765792684946668 0.6000687869219653 0 0.15801167086041079 0.46008690540259539 0 0.19604738184454831 0.47787523520405789 0 0.16618607197337229 0.50652878253548905 0 0.078358742472063481 0.43365249433908948 0 0.035463093262830522 0.42673416072819947 0 0.050583896093752537 0.38543522283434112 0 0.19901705110390991 0.9175543425573498 0 0.22850979588452081 0.95594428570238643 0 0.18474005699953849 0.96231585248064622 0 0.19922788606653311 0.085920220746880993 0 0.184418230509967 0.038773194583122873 0 0.22668068146512929 0.045875643423131329 0 0.19922788606653311 0.085920220746880993 0 0.24218496799700481 0.089025544070598317 0 0.22985637510995899 0.1298347970200906 0 0.74999999999999989 0.69999999999999996 0 0.78578450296893509 0.73292684821144505 0 0.75841349681148107 0.75422312624214749 0 0.74999999999934175 0 0 0.78393852574753176 0.032039079577822822 0 0.7527966693318906 0.053051678021508272 0 0 0.60000000000138687 0 0.034381862692950467 0.57372682250960894 0 0.050069554451969707 0.61308520079857043 0 0.2236846579037573 0.67380363126050236 0 0.26439878998046262 0.7048065392091396 0 0.2248999640082178 0.72584299459689172 0 0.6236733212988993 0.14864538214901801 0 0.58516465772821369 0.11653801664834119 0 0.61956000905586006 0.1043312481793135 0 0.26104540868854792 0.81401944968719064 0 0.2792923945214143 0.77665808831789485 0 0.30857225866488791 0.81101973481716805 0 0.42377727103934271 0.25099357235810238 0 0.42905200079338551 0.19982395548231649 0 0.46429753744194407 0.22870891180733599 0 0.27820712747429932 0.65530134213254643 0 0.31502927232353312 0.6134992213375432 0 0.32263089806001177 0.66003674931826484 0 0.61343887413683884 0.856862479058357 0 0.61885627562261258 0.90282959257498208 0 0.5832743223239254 0.88483152652961872 0 0.43698630808430822 0.080423614171545449 0 0.47040171442036788 0.044141676406503738 0 0.47881186583059909 0.093591717165689425 0 0.4367309254023824 0.92065556789053882 0 0.47401147028110507 0.91529957330468115 0 0.47135117303824892 0.95556877749289892 0 0.91696753777131557 0.497780560203536 0 0.95631871884947484 0.51827533208233789 0 0.90900154012161016 0.53607784105648792 0 0.93732437411268477 0.55911392101136159 0 0.90900154012161016 0.53607784105648792 0 0.95631871884947484 0.51827533208233789 0 0.27474541102162192 0.11822029332053539 0 0.25557216766470708 0.15874861286892261 0 0.22985637510995899 0.1298347970200906 0 0.2185883431182947 0.18019736283949719 0 0.22985637510995899 0.1298347970200906 0 0.25557216766470708 0.15874861286892261 0 0.29348325746214782 0.31350119524708198 0 0.33402499257867951 0.28911035184473982 0 0.32752639306529541 0.32610012995269699 0 0.27499999999933927 0.060310814194988557 0 0.32541448401678508 0.046215317981507749 0 0.3096713403101819 0.085471541595262421 0 0.27270076654418179 0.87751467830216623 0 0.24536017905392571 0.90704567837671446 0 0.2401283238295133 0.85648409884788523 0 1 0.44999999999963131 0 1 0.49999999999950101 0 0.96228564064454991 0.48206450662049471 0 0.61343887413683884 0.856862479058357 0 0.66412543161245952 0.88015090885499059 0 0.61885627562261258 0.90282959257498208 0 0 0.45000000000187229 0 0 0.40000000000166441 0 0.035463093262830522 0.42673416072819947 0 0.69999999999999984 0.69999999999999996 0 0.6916490518212759 0.75387992374886192 0 0.66427993341343905 0.73232764502436276 0 0.43846182030517877 0.64845797726506715 0 0.43323420005758778 0.6913544522562407 0 0.3977710372045391 0.65868194622830212 0 0.4367309254023824 0.92065556789053882 0 0.44003836461056539 0.88093474584252718 0 0.47401147028110507 0.91529957330468115 0 0.43846182030517877 0.64845797726506715 0 0.39743091024207589 0.6239520004230239 0 0.43545892161006339 0.61093128915313821 0 0.43846182030517877 0.64845797726506715 0 0.3977710372045391 0.65868194622830212 0 0.39743091024207589 0.6239520004230239 0 0.26429849586623999 0.19346700179430079 0 0.29336099386129338 0.15892013001050981 0 0.31255190597181792 0.19850845631528771 0 0.19670163708476801 0.31472518408333222 0 0.21049769590865089 0.26857363548218488 0 0.24432083401701241 0.3006253385567515 0 0.57724883562309992 0.92155686857100794 0 0.62065498684670595 0.95224934003983619 0 0.57382506491224949 0.9629411906298494 0 0.4409427642593301 0.35743108089689513 0 0.46655310992796922 0.39650496622958609 0 0.42161023666869668 0.39493916313643851 0 0.46666084890304671 0.57634471035397938 0 0.47095389620662098 0.61892551373708504 0 0.43545892161006339 0.61093128915313821 0 0.6879972333610942 0.43038561374960838 0 0.65178832218679827 0.45929119821019959 0 0.63912439215427275 0.41063340167983359 0 0.43698630808430822 0.080423614171545449 0 0.4320097814748517 0.037406712692169303 0 0.47040171442036788 0.044141676406503738 0 0.4367309254023824 0.92065556789053882 0 0.47135117303824892 0.95556877749289892 0 0.4308986359464303 0.96395712492906194 0 0.79680861578988083 0.92656778056766709 0 0.81486180804382891 0.96321394949790495 0 0.770759834363826 0.95919399014344442 0 0.79680861578956375 0.22656778056752541 0 0.81486180804364938 0.26321394949780091 0 0.77075983436335049 0.25919399014334171 0 0.71508799138962864 0.36622814920737751 0 0.68128176404677243 0.38629093627004979 0 0.68887083591306764 0.33632058575757479 0 0.35864735590330371 0.63903383440414463 0 0.32263089806001177 0.66003674931826484 0 0.31502927232353312 0.6134992213375432 0 0.21858834311891909 0.81980263716112767 0 0.2401283238295133 0.85648409884788523 0 0.19741632902693801 0.86755867406447229 0 0.35312867752657662 0.084946736076730367 0 0.32215584939770009 0.1218492143506909 0 0.3096713403101819 0.085471541595262421 0 0.35752321586431363 0.9185439911803448 0 0.35864759629805099 0.87963482415279515 0 0.39767323751400468 0.89584229130535065 0 0.41914690343363781 0.30688979866601612 0 0.4604742573284204 0.27846934318264788 0 0.46226845272279993 0.31901800744800313 0 0.33084213324567391 0.16272720141332131 0 0.32215584939770009 0.1218492143506909 0 0.36246644853392812 0.1399454205365751 0 0.46666084890304671 0.57634471035397938 0 0.42644501560315817 0.54603747078095544 0 0.47793794143994173 0.52940715638744962 0 0 0.60000000000138687 0 0 0.55000000000173355 0 0.034381862692950467 0.57372682250960894 0 0.77354604466818633 0.40378688774472771 0 0.74764719760526988 0.3719647154012321 0 0.78145581580700685 0.34881365920033602 0 0.34999999999912063 0 0 0.3615861437013822 0.03582617922508851 0 0.32541448401678508 0.046215317981507749 0 0.35000000000145642 1 0 0.32544832635163229 0.95485394099568932 0 0.36184234618600131 0.96443954459096326 0 0.57667858002728545 0.078486105337742612 0 0.57396793757665954 0.037011367187645222 0 0.61940220174112337 0.047251958781050582 0 0.47357141910802508 0.1873585799078378 0 0.50760557329222289 0.20700468884612061 0 0.46429753744194407 0.22870891180733599 0 0.49695729691142171 0.25014895411178018 0 0.46429753744194407 0.22870891180733599 0 0.50760557329222289 0.20700468884612061 0 0.33084213324567391 0.16272720141332131 0 0.3572130504031617 0.1874703368446563 0 0.31255190597181792 0.19850845631528771 0 0.6879972333610942 0.43038561374960838 0 0.63912439215427275 0.41063340167983359 0 0.68128176404677243 0.38629093627004979 0 0.65408113592120842 0.073941773121567966 0 0.65290632656860115 0.11434202593454081 0 0.61956000905586006 0.1043312481793135 0 0.33084213324567391 0.16272720141332131 0 0.31255190597181792 0.19850845631528771 0 0.29336099386129338 0.15892013001050981 0 0.61209567303293111 0.44669033081290321 0 0.63912439215427275 0.41063340167983359 0 0.65178832218679827 0.45929119821019959 0 0.086179601630648681 0.64647209519980475 0 0.1024350934457823 0.60772393977513839 0 0.1241190223511371 0.64391885572885044 0 0.44999999999882923 0 0 0.47040171442036788 0.044141676406503738 0 0.4320097814748517 0.037406712692169303 0 0.45000000000187229 1 0 0.4308986359464303 0.96395712492906194 0 0.47135117303824892 0.95556877749289892 0 0.74999999999934175 0 0 0.7527966693318906 0.053051678021508272 0 0.72683645290270404 0.027797073151180601 0 0.74999999999999989 0.69999999999999996 0 0.75841349681148107 0.75422312624214749 0 0.72501250972655151 0.74067302935308721 0 0.69999999999999984 0.69999999999999996 0 0.72501250972655151 0.74067302935308721 0 0.6916490518212759 0.75387992374886192 0 0.74999999999934175 0 0 0.79999999999947335 0 0 0.78393852574753176 0.032039079577822822 0 0.74999999999999989 0.69999999999999996 0 0.79999999999999982 0.69999999999999996 0 0.78578450296893509 0.73292684821144505 0 0.6405463747586706 0.63290524857395714 0 0.5991018319127801 0.62925360607495295 0 0.63065402604362242 0.59661356661633302 0 0.65481233915350323 0.35652751921065562 0 0.68887083591306764 0.33632058575757479 0 0.68128176404677243 0.38629093627004979 0 0.89999999999999991 0.29999999999999999 0 0.94999999999999996 0.29999999999999999 0 0.92012390126144183 0.33123581297173937 0 0.89999999999999991 0.69999999999999996 0 0.92057473616084773 0.66770436535372446 0 0.94999999999999996 0.69999999999999996 0 0.4367309254023824 0.92065556789053882 0 0.39767323751400468 0.89584229130535065 0 0.44003836461056539 0.88093474584252718 0 0.2185883431182947 0.18019736283949719 0 0.18124454140915969 0.18790916706335251 0 0.18652628422869419 0.14162325200928061 0 0.20050006573841939 0.53248514016039872 0 0.19604738184454831 0.47787523520405789 0 0.23975172658309729 0.49475499200540818 0 0.65507451745379841 0.92229208810758578 0 0.61885627562261258 0.90282959257498208 0 0.66412543161245952 0.88015090885499059 0 0.65394964615507722 0.22666784374016369 0 0.67933712972090698 0.25920070958121938 0 0.62657463266645097 0.26524202571255862 0 0.077693244765132896 0.56932317963405099 0 0.034381862692950467 0.57372682250960894 0 0.044576108720083309 0.53509043209532614 0 0.39801143831225599 0.16651381068160659 0 0.38831533174504851 0.2189834941785925 0 0.3572130504031617 0.1874703368446563 0 0.6499999999999998 0.69999999999999996 0 0.69999999999999984 0.69999999999999996 0 0.66427993341343905 0.73232764502436276 0 0.1215415378367805 0.72939333680004137 0 0.15332765547575641 0.71200081858233666 0 0.14335651144331049 0.75565258250209677 0 0.6405463747586706 0.63290524857395714 0 0.63065402604362242 0.59661356661633302 0 0.67529834988829951 0.61613270668143583 0 0.67323294229744413 0.57556450033612505 0 0.67529834988829951 0.61613270668143583 0 0.63065402604362242 0.59661356661633302 0 0.91750694127107502 0.36982372220068471 0 0.87430060258887643 0.34056085888204451 0 0.92012390126144183 0.33123581297173937 0 0.89999999999999991 0.29999999999999999 0 0.92012390126144183 0.33123581297173937 0 0.87430060258887643 0.34056085888204451 0 0.89999999999999991 0.69999999999999996 0 0.87712158428786946 0.65709029563313581 0 0.92057473616084773 0.66770436535372446 0 0.91750694127105259 0.63017627779935648 0 0.92057473616084773 0.66770436535372446 0 0.87712158428786946 0.65709029563313581 0 0.33122374654748771 0.57588941099433744 0 0.29110487519241501 0.56588143995431495 0 0.33190227185843768 0.52715113583864037 0 0.57484956128872922 0.66573805030881994 0 0.5498280205245758 0.6290146943450976 0 0.5991018319127801 0.62925360607495295 0 0.57412547362576272 0.58273804879550706 0 0.5991018319127801 0.62925360607495295 0 0.5498280205245758 0.6290146943450976 0 0.65408113592120842 0.073941773121567966 0 0.66369801598854572 0.036327466368102787 0 0.7010294155333181 0.056779085686491267 0 0.27474541102162192 0.11822029332053539 0 0.32215584939770009 0.1218492143506909 0 0.29336099386129338 0.15892013001050981 0 0.33084213324567391 0.16272720141332131 0 0.29336099386129338 0.15892013001050981 0 0.32215584939770009 0.1218492143506909 0 0.5 0.29999999999999999 0 0.54999999999999993 0.29999999999999999 0 0.52752007115234678 0.33170632466418198 0 0.83573492347052902 0.36590755630746369 0 0.87430060258887643 0.34056085888204451 0 0.86844634540301924 0.38530937474099819 0 0.83758014339878906 0.63222013025741819 0 0.87159648282691515 0.61285406320581504 0 0.87712158428786946 0.65709029563313581 0 0.22278230690790279 0.44824268025881547 0 0.23975172658309729 0.49475499200540818 0 0.19604738184454831 0.47787523520405789 0 1 0.49999999999950101 0 0.95631871884947484 0.51827533208233789 0 0.96228564064454991 0.48206450662049471 0 0.1650278706801647 0.38791388161335733 0 0.13773355295499351 0.42497777642586831 0 0.1117088112799664 0.38831403004970022 0 0.61209567303293111 0.44669033081290321 0 0.57975577671020095 0.46172033326338591 0 0.57744073070774993 0.41535148636609359 0 0.077693244765132896 0.56932317963405099 0 0.1154888278694548 0.56733818459978413 0 0.1024350934457823 0.60772393977513839 0 0.68697391633157634 0.84450604838764298 0 0.65005442820240822 0.82644988530054031 0 0.68024162096458085 0.79868546898116533 0 0.76901770135486491 0.84293557325473656 0 0.77094201086366854 0.79647480515688507 0 0.80041942726660109 0.81543261647703358 0 0.77144070960558853 0.14311854477243749 0 0.76878382444651716 0.097147941686331368 0 0.80076557130237269 0.1154587552654202 0 0.5 0.69999999999999996 0 0.52584555706968406 0.66664215091846768 0 0.54999999999999993 0.69999999999999996 0 0.077693244765132896 0.56932317963405099 0 0.044576108720083309 0.53509043209532614 0 0.085622222639554768 0.53333248912060549 0 0.69999999999921003 0 0 0.72683645290270404 0.027797073151180601 0 0.7010294155333181 0.056779085686491267 0 1 0 0 0.97166519676946894 0.033371144900598393 0 0.94999999999986839 0 0 1 0.69999999999999996 0 0.97166519676947294 0.73337114490064459 0 0.94999999999999996 0.69999999999999996 0 1 0.69999999999999996 0 1 0.74999999999993494 0 0.97166519676947294 0.73337114490064459 0 1 0.29999999999999999 0 0.97166519676951801 0.26662885509932011 0 1 0.24999999999987299 0 1 1 0 0.94999999999979179 1 0 0.97166519676946206 0.96662885509935492 0 1 0 0 1 0.049999999999896842 0 0.97166519676946894 0.033371144900598393 0 1 0.29999999999999999 0 0.94999999999999996 0.29999999999999999 0 0.97166519676951801 0.26662885509932011 0 1 1 0 0.97166519676946206 0.96662885509935492 0 1 0.94999999999997109 0 0 0.55000000000173355 0 0.044576108720083309 0.53509043209532614 0 0.034381862692950467 0.57372682250960894 0 0.6879972333610942 0.43038561374960838 0 0.69385896817107129 0.48377516041410151 0 0.65178832218679827 0.45929119821019959 0 0.33084213324567391 0.16272720141332131 0 0.36246644853392812 0.1399454205365751 0 0.3572130504031617 0.1874703368446563 0 0.65408113592120842 0.073941773121567966 0 0.68330259535470161 0.10038702501083881 0 0.65290632656860115 0.11434202593454081 0 0.16500388252850301 0.66612077714085194 0 0.19068556247388771 0.71028988922845504 0 0.15332765547575641 0.71200081858233666 0 0.82709327591091286 0.84937141670920724 0 0.85600844944837662 0.88483418979512773 0 0.81159157511211755 0.88795995483179491 0 0.82709327591102189 0.14937141670914489 0 0.85600844944842547 0.1848341897950983 0 0.81283102246527783 0.1881007222486438 0 0.79999999999999982 0.29999999999999999 0 0.84999999999999987 0.29999999999999999 0 0.82500000000000062 0.33010209762754811 0 0.79999999999999982 0.69999999999999996 0 0.82457059160610424 0.66831947184359608 0 0.84999999999999987 0.69999999999999996 0 0.59999999999999976 0.69999999999999996 0 0.62460753523532009 0.66851202781000296 0 0.6499999999999998 0.69999999999999996 0 0.39801143831225599 0.16651381068160659 0 0.3572130504031617 0.1874703368446563 0 0.36246644853392812 0.1399454205365751 0 0.69999999999999984 0.29999999999999999 0 0.74999999999999989 0.29999999999999999 0 0.73090396928863699 0.33699297293167962 0 0.69999999999999984 0.69999999999999996 0 0.72500000000000064 0.67022701834392062 0 0.74999999999999989 0.69999999999999996 0 0.6236733212988993 0.14864538214901801 0 0.64011864159029941 0.18789607982138171 0 0.59443395090188023 0.18455690917515069 0 0.20050006573841939 0.53248514016039872 0 0.16618607197337229 0.50652878253548905 0 0.19604738184454831 0.47787523520405789 0 0.79680861578956375 0.22656778056752541 0 0.76587607630038135 0.18880039518954719 0 0.81283102246527783 0.1881007222486438 0 0.79680861578988083 0.92656778056766709 0 0.76891166905518427 0.88835469571185499 0 0.81159157511211755 0.88795995483179491 0 0.71406021706547751 0.63292083137662503 0 0.675261390228442 0.65996937624687813 0 0.67529834988829951 0.61613270668143583 0 0.6405463747586706 0.63290524857395714 0 0.67529834988829951 0.61613270668143583 0 0.675261390228442 0.65996937624687813 0 0.19670163708476801 0.31472518408333222 0 0.168349569971391 0.28054490850913671 0 0.21049769590865089 0.26857363548218488 0 0.47357141910802508 0.1873585799078378 0 0.46429753744194407 0.22870891180733599 0 0.42905200079338551 0.19982395548231649 0 0.59814117807200873 0.23398510860739519 0 0.5794309697024993 0.27124795968204829 0 0.54248833945060504 0.2520322959927106 0 0.6541250972820879 0.49999999999999989 0 0.65178832218679827 0.45929119821019959 0 0.69385896817107129 0.48377516041410151 0 0.54999999999999993 0.29999999999999999 0 0.5794309697024993 0.27124795968204829 0 0.59999999999999976 0.29999999999999999 0 0.7750489929959945 0.66593931409600093 0 0.74994237037456724 0.62775548192980357 0 0.79884539758237771 0.62875045078114233 0 0.77293540622714185 0.59448302402785813 0 0.79884539758237771 0.62875045078114233 0 0.74994237037456724 0.62775548192980357 0 0.14332333627550789 0.14578431753966009 0 0.16141998738593399 0.10404039647458049 0 0.18652628422869419 0.14162325200928061 0 0.38083244760691543 0.38531983672244652 0 0.42161023666869668 0.39493916313643851 0 0.38707855792647411 0.42299362914874578 0 0.43249999999999988 0.43937499999999979 0 0.38707855792647411 0.42299362914874578 0 0.42161023666869668 0.39493916313643851 0 0.43846182030517877 0.64845797726506715 0 0.47095389620662098 0.61892551373708504 0 0.47913475093885149 0.66010775372412711 0 0.50715858906372158 0.63295939104129484 0 0.47913475093885149 0.66010775372412711 0 0.47095389620662098 0.61892551373708504 0 0.69999999999999984 0.69999999999999996 0 0.74999999999999989 0.69999999999999996 0 0.72501250972655151 0.74067302935308721 0 0.4089290844030305 0.58728915500154233 0 0.35765792684946668 0.6000687869219653 0 0.37272913873093971 0.56192925302619479 0 0.69999999999921003 0 0 0.74999999999934175 0 0 0.72683645290270404 0.027797073151180601 0 0.17933913398461551 0.2350063570234002 0 0.21049769590865089 0.26857363548218488 0 0.168349569971391 0.28054490850913671 0 0.14474682429600511 0.85524784522713515 0 0.10562472963403439 0.87143394428979881 0 0.1074251789111534 0.83564394292147814 0 0.14332333627550789 0.14578431753966009 0 0.106902708054812 0.16453234188234539 0 0.1053400320299198 0.12877248826361379 0 0.2236846579037573 0.67380363126050236 0 0.19914261668318661 0.62286739485272158 0 0.2459498854893499 0.63248470766216769 0 0.049999999999899652 0 0 0.053064897599215843 0.048131547304697528 0 0.02576622439977887 0.024532886826226379 0 0 0.050000000000207989 0 0.02576622439977887 0.024532886826226379 0 0.053064897599215843 0.048131547304697528 0 0.050000000000207989 1 0 0.025766224399875661 0.97546711317377799 0 0.053064897599294662 0.95186845269532028 0 0 0.94999999999979179 0 0.053064897599294662 0.95186845269532028 0 0.025766224399875661 0.97546711317377799 0 0.47357141910802508 0.1873585799078378 0 0.48466639505193998 0.1421439844745814 0 0.51729576145820033 0.1683240575987815 0 0.077693244765132896 0.56932317963405099 0 0.085622222639554768 0.53333248912060549 0 0.1154888278694548 0.56733818459978413 0 0.64753070846764316 0.77332939069435502 0 0.63221990677827677 0.73442891067859706 0 0.66427993341343905 0.73232764502436276 0 0.4656888918609538 0.78493261229743638 0 0.42609163930740518 0.80361684430568059 0 0.42676259796334498 0.76772545931379299 0 0.4089290844030305 0.58728915500154233 0 0.39743091024207589 0.6239520004230239 0 0.35765792684946668 0.6000687869219653 0 0.55306006949600994 0.20198184231352201 0 0.50760557329222289 0.20700468884612061 0 0.51729576145820033 0.1683240575987815 0 1 0.8999999999998336 0 1 0.94999999999997109 0 0.97435614836744289 0.92499999999990257 0 1 0.19999999999974799 0 1 0.24999999999987299 0 0.97435614836740092 0.22499999999981049 0 1 0.74999999999993494 0 1 0.7999999999998193 0 0.97435614836745565 0.77499999999987745 0 1 0.049999999999896842 0 1 0.099999999999753911 0 0.97435614836748241 0.074999999999825387 0 0.86411095495256451 0.42388805655111889 0 0.86844634540301924 0.38530937474099819 0 0.90594285160987287 0.4141265964174129 0 0.86956835336234861 0.571283299838105 0 0.91143117093204207 0.58709913730335972 0 0.87159648282691515 0.61285406320581504 0 0 0 0 0.02576622439977887 0.024532886826226379 0 0 0.050000000000207989 0 0 1 0 0 0.94999999999979179 0 0.025766224399875661 0.97546711317377799 0 0 1 0 0.025766224399875661 0.97546711317377799 0 0.050000000000207989 1 0 0 0 0 0.049999999999899652 0 0 0.02576622439977887 0.024532886826226379 0 0.65394964615507722 0.22666784374016369 0 0.64011864159029941 0.18789607982138171 0 0.6865991819015953 0.189116534044597 0 0.25195515620380449 0.25883339815888678 0 0.28040350263641872 0.23054717217092141 0 0.29132859388405002 0.27203693976649962 0 0.61209567303293111 0.44669033081290321 0 0.65178832218679827 0.45929119821019959 0 0.61547661924074692 0.48539576058873962 0 0.6541250972820879 0.49999999999999989 0 0.61547661924074692 0.48539576058873962 0 0.65178832218679827 0.45929119821019959 0 0.19670163708476801 0.31472518408333222 0 0.24432083401701241 0.3006253385567515 0 0.22615676742807109 0.33458786033114157 0 0.15801167086041079 0.46008690540259539 0 0.13773355295499351 0.42497777642586831 0 0.191953871957803 0.42546416763755879 0 0.1650278706801647 0.38791388161335733 0 0.191953871957803 0.42546416763755879 0 0.13773355295499351 0.42497777642586831 0 0.50715858906372158 0.63295939104129484 0 0.52584555706968406 0.66664215091846768 0 0.47913475093885149 0.66010775372412711 0 0.5 0.69999999999999996 0 0.47913475093885149 0.66010775372412711 0 0.52584555706968406 0.66664215091846768 0 0.51076801031701946 0.1202837388510348 0 0.51729576145820033 0.1683240575987815 0 0.48466639505193998 0.1421439844745814 0 0.71406021706547751 0.63292083137662503 0 0.74994237037456724 0.62775548192980357 0 0.72500000000000064 0.67022701834392062 0 0.71508799138962864 0.36622814920737751 0 0.73090396928863699 0.33699297293167962 0 0.74764719760526988 0.3719647154012321 0 0.22278230690790279 0.44824268025881547 0 0.25982634974572738 0.46097799597715272 0 0.23975172658309729 0.49475499200540818 0 0.80185942888539485 0.77452061303608133 0 0.78578450296893509 0.73292684821144505 0 0.81864958914779962 0.73589050177899629 0 0.80185942888501827 0.074520613036224564 0 0.78393852574753176 0.032039079577822822 0 0.81864958914740749 0.035890501779055867 0 0.5 0.29999999999999999 0 0.46226845272279993 0.31901800744800313 0 0.4604742573284204 0.27846934318264788 0 0.6405463747586706 0.63290524857395714 0 0.62460753523532009 0.66851202781000296 0 0.5991018319127801 0.62925360607495295 0 0.79680861578988083 0.92656778056766709 0 0.770759834363826 0.95919399014344442 0 0.75729602384198635 0.92353652857884294 0 0.79680861578956375 0.22656778056752541 0 0.77075983436335049 0.25919399014334171 0 0.75668890529066124 0.2244279804069782 0 0.65394964615507722 0.22666784374016369 0 0.69397719155551807 0.2245125647000914 0 0.67933712972090698 0.25920070958121938 0 0.81973119833356312 0.43505687159469048 0 0.84925632466077294 0.45359738909549091 0 0.81400510706333218 0.47357325943904899 0 0.83758014339878906 0.63222013025741819 0 0.82457059160610424 0.66831947184359608 0 0.79884539758237771 0.62875045078114233 0 0.25676291524611189 0.7436741304886243 0 0.2248999640082178 0.72584299459689172 0 0.26439878998046262 0.7048065392091396 0 0.91696753777131557 0.497780560203536 0 0.90900154012161016 0.53607784105648792 0 0.86907294890112186 0.52008116128001669 0 0.17933913398461551 0.2350063570234002 0 0.168349569971391 0.28054490850913671 0 0.14377654328998779 0.2442024734791064 0 0.1247745017231483 0.27198077544791172 0 0.14377654328998779 0.2442024734791064 0 0.168349569971391 0.28054490850913671 0 0.34258405725730701 0.4444034294386992 0 0.35221190152536241 0.40457127605439203 0 0.38707855792647411 0.42299362914874578 0 0.47357141910802508 0.1873585799078378 0 0.51729576145820033 0.1683240575987815 0 0.50760557329222289 0.20700468884612061 0 0.19670163708476801 0.31472518408333222 0 0.22615676742807109 0.33458786033114157 0 0.18434624290945251 0.35208838264196463 0 0.22033343844674469 0.36963382230740238 0 0.18434624290945251 0.35208838264196463 0 0.22615676742807109 0.33458786033114157 0 0.24432083401701241 0.3006253385567515 0 0.25966125648670141 0.34351016742083729 0 0.22615676742807109 0.33458786033114157 0 0.93814194660195893 0.44426664081746747 0 0.90594285160987287 0.4141265964174129 0 0.95871855522754235 0.40006508612975411 0 0.91750694127107502 0.36982372220068471 0 0.95871855522754235 0.40006508612975411 0 0.90594285160987287 0.4141265964174129 0 0.91750694127105259 0.63017627779935648 0 0.91143117093204207 0.58709913730335972 0 0.95867599106212187 0.60011091146651041 0 0.93732437411268477 0.55911392101136159 0 0.95867599106212187 0.60011091146651041 0 0.91143117093204207 0.58709913730335972 0 0.50715858906372158 0.63295939104129484 0 0.5498280205245758 0.6290146943450976 0 0.52584555706968406 0.66664215091846768 0 0.94399509803918602 0.75600490196082126 0 0.97435614836745565 0.77499999999987745 0 0.95386563387742829 0.80414874155775029 0 0.94399509803922566 0.056004901960802607 0 0.97435614836748241 0.074999999999825387 0 0.95386563387744361 0.1041487415577465 0 0.94399509803921056 0.24399509803922639 0 0.95391631417672862 0.19584263333809451 0 0.97435614836740092 0.22499999999981049 0 0.94399509803919068 0.9439950980391687 0 0.95391631417670719 0.89584263333814784 0 0.97435614836744289 0.92499999999990257 0 0.79680861578988083 0.92656778056766709 0 0.75729602384198635 0.92353652857884294 0 0.76891166905518427 0.88835469571185499 0 0.79680861578956375 0.22656778056752541 0 0.75668890529066124 0.2244279804069782 0 0.76587607630038135 0.18880039518954719 0 0.65394964615507722 0.22666784374016369 0 0.6865991819015953 0.189116534044597 0 0.69397719155551807 0.2245125647000914 0 0.38083244760691543 0.38531983672244652 0 0.38707855792647411 0.42299362914874578 0 0.35221190152536241 0.40457127605439203 0 1 0.7999999999998193 0 0.95386563387742829 0.80414874155775029 0 0.97435614836745565 0.77499999999987745 0 1 0.099999999999753911 0 0.95386563387744361 0.1041487415577465 0 0.97435614836748241 0.074999999999825387 0 1 0.8999999999998336 0 0.97435614836744289 0.92499999999990257 0 0.95391631417670719 0.89584263333814784 0 1 0.19999999999974799 0 0.97435614836740092 0.22499999999981049 0 0.95391631417672862 0.19584263333809451 0 0.84723782639812573 0.48638347960178252 0 0.81400510706333218 0.47357325943904899 0 0.84925632466077294 0.45359738909549091 0 0.54999999999999993 0.29999999999999999 0 0.54248833945060504 0.2520322959927106 0 0.5794309697024993 0.27124795968204829 0 0.94999999999999996 0.29999999999999999 0 0.95780851984364423 0.34215720972155339 0 0.92012390126144183 0.33123581297173937 0 0.94999999999999996 0.69999999999999996 0 0.92057473616084773 0.66770436535372446 0 0.9578014258160763 0.65787212321113708 0 0.15801167086041079 0.46008690540259539 0 0.113541300460994 0.46208784312094731 0 0.13773355295499351 0.42497777642586831 0 0.7250000000005199 0.94981617647078953 0 0.68015064798562208 0.95924320340003011 0 0.68987011941058407 0.92105047536677087 0 0.65507451745379841 0.92229208810758578 0 0.68987011941058407 0.92105047536677087 0 0.68015064798562208 0.95924320340003011 0 0.77846603114747959 0.49850927265137401 0 0.77972660463949339 0.45529290596363098 0 0.81400510706333218 0.47357325943904899 0 0.27866744612395528 0.38416094670951489 0 0.25966125648670141 0.34351016742083729 0 0.29644548887253103 0.34914008784168082 0 0.61209567303293111 0.44669033081290321 0 0.61547661924074692 0.48539576058873962 0 0.57975577671020095 0.46172033326338591 0 0.57611405284611883 0.50165903596042916 0 0.57975577671020095 0.46172033326338591 0 0.61547661924074692 0.48539576058873962 0 0.7250000000005199 0.89375000000045834 0 0.76891166905518427 0.88835469571185499 0 0.75729602384198635 0.92353652857884294 0 0.72500000000001008 0.19776155966387679 0 0.76587607630038135 0.18880039518954719 0 0.75668890529066124 0.2244279804069782 0 0.72500000000001008 0.19776155966387679 0 0.69397719155551807 0.2245125647000914 0 0.6865991819015953 0.189116534044597 0 0.083411279318303222 0.089699755330707398 0 0.12372429750337779 0.095814237875728972 0 0.1053400320299198 0.12877248826361379 0 0.083411279318375747 0.91030024466934134 0 0.10562472963403439 0.87143394428979881 0 0.1241151115713819 0.9045666525468371 0 0.14617343800780541 0.93808063414349496 0 0.1241151115713819 0.9045666525468371 0 0.16206583317966519 0.89685560785156404 0 0.14618258501891079 0.062070108745602003 0 0.16141998738593399 0.10404039647458049 0 0.12372429750337779 0.095814237875728972 0 0.33277555741076909 0.36432196682010132 0 0.35221190152536241 0.40457127605439203 0 0.31778888742534622 0.40581751814196781 0 0.7250000000005199 0.94981617647078953 0 0.75729602384198635 0.92353652857884294 0 0.770759834363826 0.95919399014344442 0 0.72500000000000064 0.2498161764706 0 0.75668890529066124 0.2244279804069782 0 0.77075983436335049 0.25919399014334171 0 0.72500000000000064 0.2498161764706 0 0.67933712972090698 0.25920070958121938 0 0.69397719155551807 0.2245125647000914 0 0.6236733212988993 0.14864538214901801 0 0.61956000905586006 0.1043312481793135 0 0.65290632656860115 0.11434202593454081 0 0.81973119833356312 0.43505687159469048 0 0.81400510706333218 0.47357325943904899 0 0.77972660463949339 0.45529290596363098 0 0.25676291524611189 0.7436741304886243 0 0.29904318922293632 0.74132814928635593 0 0.2792923945214143 0.77665808831789485 0 0.36575549820117997 0.31677992835137742 0 0.32752639306529541 0.32610012995269699 0 0.33402499257867951 0.28911035184473982 0 0.14332333627550789 0.14578431753966009 0 0.18652628422869419 0.14162325200928061 0 0.18124454140915969 0.18790916706335251 0 0.57724883562309992 0.92155686857100794 0 0.5832743223239254 0.88483152652961872 0 0.61885627562261258 0.90282959257498208 0 0.57667858002728545 0.078486105337742612 0 0.61956000905586006 0.1043312481793135 0 0.58516465772821369 0.11653801664834119 0 0.80185942888539485 0.77452061303608133 0 0.80041942726660109 0.81543261647703358 0 0.77094201086366854 0.79647480515688507 0 0.80185942888501827 0.074520613036224564 0 0.80076557130237269 0.1154587552654202 0 0.76878382444651716 0.097147941686331368 0 0.64753070846764316 0.77332939069435502 0 0.68024162096458085 0.79868546898116533 0 0.65005442820240822 0.82644988530054031 0 0.26429849586623999 0.19346700179430079 0 0.25557216766470708 0.15874861286892261 0 0.29336099386129338 0.15892013001050981 0 0.29348325746214782 0.31350119524708198 0 0.29644548887253103 0.34914008784168082 0 0.25966125648670141 0.34351016742083729 0 0.68391457121233579 0.14440470121196541 0 0.65290632656860115 0.11434202593454081 0 0.68330259535470161 0.10038702501083881 0 0.91750694127107502 0.36982372220068471 0 0.92012390126144183 0.33123581297173937 0 0.95780851984364423 0.34215720972155339 0 0.91750694127105259 0.63017627779935648 0 0.9578014258160763 0.65787212321113708 0 0.92057473616084773 0.66770436535372446 0 0.22033343844674469 0.36963382230740238 0 0.22615676742807109 0.33458786033114157 0 0.25966125648670141 0.34351016742083729 0 1 0.94999999999997109 0 0.97166519676946206 0.96662885509935492 0 0.97435614836744289 0.92499999999990257 0 0.94399509803919068 0.9439950980391687 0 0.97435614836744289 0.92499999999990257 0 0.97166519676946206 0.96662885509935492 0 0.94399509803921056 0.24399509803922639 0 0.97435614836740092 0.22499999999981049 0 0.97166519676951801 0.26662885509932011 0 1 0.24999999999987299 0 0.97166519676951801 0.26662885509932011 0 0.97435614836740092 0.22499999999981049 0 1 0.74999999999993494 0 0.97435614836745565 0.77499999999987745 0 0.97166519676947294 0.73337114490064459 0 1 0.049999999999896842 0 0.97435614836748241 0.074999999999825387 0 0.97166519676946894 0.033371144900598393 0 0.94399509803918602 0.75600490196082126 0 0.97166519676947294 0.73337114490064459 0 0.97435614836745565 0.77499999999987745 0 0.94399509803922566 0.056004901960802607 0 0.97166519676946894 0.033371144900598393 0 0.97435614836748241 0.074999999999825387 0 0.77846603114747959 0.49850927265137401 0 0.81400510706333218 0.47357325943904899 0 0.81441713509985358 0.51161854125224959 0 0.77354604466818633 0.40378688774472771 0 0.72622533758026719 0.40265885511101601 0 0.74764719760526988 0.3719647154012321 0 0.71508799138962864 0.36622814920737751 0 0.74764719760526988 0.3719647154012321 0 0.72622533758026719 0.40265885511101601 0 0.84723782639812573 0.48638347960178252 0 0.84925632466077294 0.45359738909549091 0 0.88594198078881503 0.46167788676578442 0 0.86411095495256451 0.42388805655111889 0 0.88594198078881503 0.46167788676578442 0 0.84925632466077294 0.45359738909549091 0 0.43846182030517877 0.64845797726506715 0 0.43545892161006339 0.61093128915313821 0 0.47095389620662098 0.61892551373708504 0 0.33123028043633618 0.77629643437932982 0 0.35642984951668422 0.80994399665655703 0 0.30857225866488791 0.81101973481716805 0 0.33403534827021109 0.84402799729020661 0 0.30857225866488791 0.81101973481716805 0 0.35642984951668422 0.80994399665655703 0 0.26429849586623999 0.19346700179430079 0 0.31255190597181792 0.19850845631528771 0 0.28040350263641872 0.23054717217092141 0 0.57724883562309992 0.92155686857100794 0 0.54783390826260769 0.89287767010860219 0 0.5832743223239254 0.88483152652961872 0 0.55899371797446828 0.85003102233514438 0 0.5832743223239254 0.88483152652961872 0 0.54783390826260769 0.89287767010860219 0 0.4089290844030305 0.58728915500154233 0 0.43545892161006339 0.61093128915313821 0 0.39743091024207589 0.6239520004230239 0 0.77293540622714185 0.59448302402785813 0 0.81723410853263523 0.59419663659258926 0 0.79884539758237771 0.62875045078114233 0 0.83758014339878906 0.63222013025741819 0 0.79884539758237771 0.62875045078114233 0 0.81723410853263523 0.59419663659258926 0 0.35864735590330371 0.63903383440414463 0 0.39743091024207589 0.6239520004230239 0 0.3977710372045391 0.65868194622830212 0 0.56202748619534593 0.15054058349222879 0 0.54979595918804436 0.1060565713905809 0 0.58516465772821369 0.11653801664834119 0 0.57667858002728545 0.078486105337742612 0 0.58516465772821369 0.11653801664834119 0 0.54979595918804436 0.1060565713905809 0 0.33122374654748771 0.57588941099433744 0 0.37272913873093971 0.56192925302619479 0 0.35765792684946668 0.6000687869219653 0 0.35864735590330371 0.63903383440414463 0 0.35765792684946668 0.6000687869219653 0 0.39743091024207589 0.6239520004230239 0 0.71508799138962864 0.36622814920737751 0 0.68887083591306764 0.33632058575757479 0 0.73090396928863699 0.33699297293167962 0 0.29348325746214782 0.31350119524708198 0 0.32752639306529541 0.32610012995269699 0 0.29644548887253103 0.34914008784168082 0 0.33277555741076909 0.36432196682010132 0 0.29644548887253103 0.34914008784168082 0 0.32752639306529541 0.32610012995269699 0 0.34258405725730701 0.4444034294386992 0 0.31778888742534622 0.40581751814196781 0 0.35221190152536241 0.40457127605439203 0 0.79999999999999982 0.69999999999999996 0 0.81864958914779962 0.73589050177899629 0 0.78578450296893509 0.73292684821144505 0 0.79999999999947335 0 0 0.81864958914740749 0.035890501779055867 0 0.78393852574753176 0.032039079577822822 0 0.27474541102162192 0.11822029332053539 0 0.29336099386129338 0.15892013001050981 0 0.25557216766470708 0.15874861286892261 0 0 0.45000000000187229 0 0.035463093262830522 0.42673416072819947 0 0.033550201249889847 0.46247875832467239 0 0.6499999999999998 0.69999999999999996 0 0.66427993341343905 0.73232764502436276 0 0.63221990677827677 0.73442891067859706 0 0.84723782639812573 0.48638347960178252 0 0.81441713509985358 0.51161854125224959 0 0.81400510706333218 0.47357325943904899 0 0.26104540868854792 0.81401944968719064 0 0.30857225866488791 0.81101973481716805 0 0.29209212897034281 0.84715728365233667 0 0.33403534827021109 0.84402799729020661 0 0.29209212897034281 0.84715728365233667 0 0.30857225866488791 0.81101973481716805 0 0.69999999999999984 0.29999999999999999 0 0.73090396928863699 0.33699297293167962 0 0.68887083591306764 0.33632058575757479 0 
</DataArray>
</Points>
<Cells>
<DataArray type="UInt32" Name="connectivity" format="ascii">
0 1 2 3 4 5 6 7 8 9 10 11 12 13 14 15 16 17 18 19 20 21 22 23 24 25 26 27 28 29 30 31 32 33 34 35 36 37 38 39 40 41 42 43 44 45 46 47 48 49 50 51 52 53 54 55 56 57 58 59 60 61 62 63 64 65 66 67 68 69 70 71 72 73 74 75 76 77 78 79 80 81 82 83 84 85 86 87 88 89 90 91 92 93 94 95 96 97 98 99 100 101 102 103 104 105 106 107 108 109 110 111 112 113 114 115 116 117 118 119 120 121 122 123 124 125 126 127 128 129 130 131 132 133 134 135 136 137 138 139 140 141 142 143 144 145 146 147 148 149 150 151 152 153 154 155 156 157 158 159 160 161 162 163 164 165 166 167 168 169 170 171 172 173 174 175 176 177 178 179 180 181 182 183 184 185 186 187 188 189 190 191 192 193 194 195 196 197 198 199 200 201 202 203 204 205 206 207 208 209 210 211 212 213 214 215 216 217 218 219 220 221 222 223 224 225 226 227 228 229 230 231 232 233 234 235 236 237 238 239 240 241 242 243 244 245 246 247 248 249 250 251 252 253 254 255 256 257 258 259 260 261 262 263 264 265 266 267 268 269 270 271 272 273 274 275 276 277 278 279 280 281 282 283 284 285 286 287 288 289 290 291 292 293 294 295 296 297 298 299 300 301 302 303 304 305 306 307 308 309 310 311 312 313 314 315 316 317 318 319 320 321 322 323 324 325 326 327 328 329 330 331 332 333 334 335 336 337 338 339 340 341 342 343 344 345 346 347 348 349 350 351 352 353 354 355 356 357 358 359 360 361 362 363 364 365 366 367 368 369 370 371 372 373 374 375 376 377 378 379 380 381 382 383 384 385 386 387 388 389 390 391 392 393 394 395 396 397 398 399 400 401 402 403 404 405 406 407 408 409 410 411 412 413 414 415 416 417 418 419 420 421 422 423 424 425 426 427 428 429 430 431 432 433 434 435 436 437 438 439 440 441 442 443 444 445 446 447 448 449 450 451 452 453 454 455 456 457 458 459 460 461 462 463 464 465 466 467 468 469 470 471 472 473 474 475 476 477 478 479 480 481 482 483 484 485 486 487 488 489 490 491 492 493 494 495 496 497 498 499 500 501 502 503 504 505 506 507 508 509 510 511 512 513 514 515 516 517 518 519 520 521 522 523 524 525 526 527 528 529 530 531 532 533 534 535 536 537 538 539 540 541 542 543 544 545 546 547 548 549 550 551 552 553 554 555 556 557 558 559 560 561 562 563 564 565 566 567 568 569 570 571 572 573 574 575 576 577 578 579 580 581 582 583 584 585 586 587 588 589 590 591 592 593 594 595 596 597 598 599 600 601 602 603 604 605 606 607 608 609 610 611 612 613 614 615 616 617 618 619 620 621 622 623 624 625 626 627 628 629 630 631 632 633 634 635 636 637 638 639 640 641 642 643 644 645 646 647 648 649 650 651 652 653 654 655 656 657 658 659 660 661 662 663 664 665 666 667 668 669 670 671 672 673 674 675 676 677 678 679 680 681 682 683 684 685 686 687 688 689 690 691 692 693 694 695 696 697 698 699 700 701 702 703 704 705 706 707 708 709 710 711 712 713 714 715 716 717 718 719 720 721 722 723 724 725 726 727 728 729 730 731 732 733 734 735 736 737 738 739 740 741 742 743 744 745 746 747 748 749 750 751 752 753 754 755 756 757 758 759 760 761 762 763 764 765 766 767 768 769 770 771 772 773 774 775 776 777 778 779 780 781 782 783 784 785 786 787 788 789 790 791 792 793 794 795 796 797 798 799 800 801 802 803 804 805 806 807 808 809 810 811 812 813 814 815 816 817 818 819 820 821 822 823 824 825 826 827 828 829 830 831 832 833 834 835 836 837 838 839 840 841 842 843 844 845 846 847 848 849 850 851 852 853 854 855 856 857 858 859 860 861 862 863 864 865 866 867 868 869 870 871 872 873 874 875 876 877 878 879 880 881 882 883 884 885 886 887 888 889 890 891 892 893 894 895 896 897 898 899 900 901 902 903 904 905 906 907 908 909 910 911 912 913 914 915 916 917 918 919 920 921 922 923 924 925 926 927 928 929 930 931 932 933 934 935 936 937 938 939 940 941 942 943 944 945 946 947 948 949 950 951 952 953 954 955 956 957 958 959 960 961 962 963 964 965 966 967 968 969 970 971 972 973 974 975 976 977 978 979 980 981 982 983 984 985 986 987 988 989 990 991 992 993 994 995 996 997 998 999 1000 1001 1002 1003 1004 1005 1006 1007 1008 1009 1010 1011 1012 1013 1014 1015 1016 1017 1018 1019 1020 1021 1022 1023 1024 1025 1026 1027 1028 1029 1030 1031 1032 1033 1034 1035 1036 1037 1038 1039 1040 1041 1042 1043 1044 1045 1046 1047 1048 1049 1050 1051 1052 1053 1054 1055 1056 1057 1058 1059 1060 1061 1062 1063 1064 1065 1066 1067 1068 1069 1070 1071 1072 1073 1074 1075 1076 1077 1078 1079 1080 1081 1082 1083 1084 1085 1086 1087 1088 1089 1090 1091 1092 1093 1094 1095 1096 1097 1098 1099 1100 1101 1102 1103 1104 1105 1106 1107 1108 1109 1110 1111 1112 1113 1114 1115 1116 1117 1118 1119 1120 1121 1122 1123 1124 1125 1126 1127 1128 1129 1130 1131 1132 1133 1134 1135 1136 1137 1138 1139 1140 1141 1142 1143 1144 1145 1146 1147 1148 1149 1150 1151 1152 1153 1154 1155 1156 1157 1158 1159 1160 1161 1162 1163 1164 1165 1166 1167 1168 1169 1170 1171 1172 1173 1174 1175 1176 1177 1178 1179 1180 1181 1182 1183 1184 1185 1186 1187 1188 1189 1190 1191 1192 1193 1194 1195 1196 1197 1198 1199 1200 1201 1202 1203 1204 1205 1206 1207 1208 1209 1210 1211 1212 1213 1214 1215 1216 1217 1218 1219 1220 1221 1222 1223 1224 1225 1226 1227 1228 1229 1230 1231 1232 1233 1234 1235 1236 1237 1238 1239 1240 1241 1242 1243 1244 1245 1246 1247 1248 1249 1250 1251 1252 1253 1254 1255 1256 1257 1258 1259 1260 1261 1262 1263 1264 1265 1266 1267 1268 1269 1270 1271 1272 1273 1274 1275 1276 1277 1278 1279 1280 1281 1282 1283 1284 1285 1286 1287 1288 1289 1290 1291 1292 1293 1294 1295 1296 1297 1298 1299 1300 1301 1302 1303 1304 1305 1306 1307 1308 1309 1310 1311 1312 1313 1314 1315 1316 1317 1318 1319 1320 1321 1322 1323 1324 1325 1326 1327 1328 1329 1330 1331 1332 1333 1334 1335 1336 1337 1338 1339 1340 1341 1342 1343 1344 1345 1346 1347 1348 1349 1350 1351 1352 1353 1354 1355 1356 1357 1358 1359 1360 1361 1362 1363 1364 1365 1366 1367 1368 1369 1370 1371 1372 1373 1374 1375 1376 1377 1378 1379 1380 1381 1382 1383 1384 1385 1386 1387 1388 1389 1390 1391 1392 1393 1394 1395 1396 1397 1398 1399 1400 1401 1402 1403 1404 1405 1406 1407 1408 1409 1410 1411 1412 1413 1414 1415 1416 1417 1418 1419 1420 1421 1422 1423 1424 1425 1426 1427 1428 1429 1430 1431 1432 1433 1434 1435 1436 1437 1438 1439 1440 1441 1442 1443 1444 1445 1446 1447 1448 1449 1450 1451 1452 1453 1454 1455 1456 1457 1458 1459 1460 1461 1462 1463 1464 1465 1466 1467 1468 1469 1470 1471 1472 1473 1474 1475 1476 1477 1478 1479 1480 1481 1482 1483 1484 1485 1486 1487 1488 1489 1490 1491 1492 1493 1494 1495 1496 1497 1498 1499 1500 1501 1502 1503 1504 1505 1506 1507 1508 1509 1510 1511 1512 1513 1514 1515 1516 1517 1518 1519 1520 1521 1522 1523 1524 1525 1526 1527 1528 1529 1530 1531 1532 1533 1534 1535 1536 1537 1538 1539 1540 1541 1542 1543 1544 1545 1546 1547 1548 1549 1550 1551 1552 1553 1554 1555 1556 1557 1558 1559 1560 1561 1562 1563 1564 1565 1566 1567 1568 1569 1570 1571 1572 1573 1574 1575 1576 1577 1578 1579 1580 1581 1582 1583 1584 1585 1586 1587 1588 1589 1590 1591 1592 1593 1594 1595 1596 1597 1598 1599 1600 1601 1602 1603 1604 1605 1606 1607 1608 1609 1610 1611 1612 1613 1614 1615 1616 1617 1618 1619 1620 1621 1622 1623 1624 1625 1626 1627 1628 1629 1630 1631 1632 1633 1634 1635 1636 1637 1638 1639 1640 1641 1642 1643 1644 1645 1646 1647 1648 1649 1650 1651 1652 1653 1654 1655 1656 1657 1658 1659 1660 1661 1662 1663 1664 1665 1666 1667 1668 1669 1670 1671 1672 1673 1674 1675 1676 1677 1678 1679 1680 1681 1682 1683 1684 1685 1686 1687 1688 1689 1690 1691 1692 1693 1694 1695 1696 1697 1698 1699 1700 1701 1702 1703 1704 1705 1706 1707 1708 1709 1710 1711 1712 1713 1714 1715 1716 1717 1718 1719 1720 1721 1722 1723 1724 1725 1726 1727 1728 1729 1730 1731 1732 1733 1734 1735 1736 1737 1738 1739 1740 1741 1742 1743 1744 1745 1746 1747 1748 1749 1750 1751 1752 1753 1754 1755 1756 1757 1758 1759 1760 1761 1762 1763 1764 1765 1766 1767 1768 1769 1770 1771 1772 1773 1774 1775 1776 1777 1778 1779 1780 1781 1782 1783 1784 1785 1786 1787 1788 1789 1790 1791 1792 1793 1794 1795 1796 1797 1798 1799 1800 1801 1802 1803 1804 1805 1806 1807 1808 1809 1810 1811 1812 1813 1814 1815 1816 1817 1818 1819 1820 1821 1822 1823 1824 1825 1826 1827 1828 1829 1830 1831 1832 1833 1834 1835 1836 1837 1838 1839 1840 1841 1842 1843 1844 1845 1846 1847 1848 1849 1850 1851 1852 1853 1854 1855 1856 1857 1858 1859 1860 1861 1862 1863 1864 1865 1866 1867 1868 1869 1870 1871 1872 1873 1874 1875 1876 1877 1878 1879 1880 1881 1882 1883 1884 1885 1886 1887 1888 1889 1890 1891 1892 1893 1894 1895 1896 1897 1898 1899 1900 1901 1902 1903 1904 1905 1906 1907 1908 1909 1910 1911 1912 1913 1914 1915 1916 1917 1918 1919 1920 1921 1922 1923 1924 1925 1926 1927 1928 1929 1930 1931 1932 1933 1934 1935 1936 1937 1938 1939 1940 1941 1942 1943 1944 1945 1946 1947 1948 1949 1950 1951 1952 1953 1954 1955 1956 1957 1958 1959 1960 1961 1962 1963 1964 1965 1966 1967 1968 1969 1970 1971 1972 1973 1974 1975 1976 1977 1978 1979 1980 1981 1982 1983 1984 1985 1986 1987 1988 1989 1990 1991 1992 1993 1994 1995 1996 1997 1998 1999 2000 2001 2002 2003 2004 2005 2006 2007 2008 2009 2010 2011 2012 2013 2014 2015 2016 2017 2018 2019 2020 2021 2022 2023 2024 2025 2026 2027 2028 2029 2030 2031 2032 2033 2034 2035 2036 2037 2038 2039 2040 2041 2042 2043 2044 2045 2046 2047 2048 2049 2050 2051 2052 2053 2054 2055 2056 2057 2058 2059 2060 2061 2062 2063 2064 2065 2066 2067 2068 2069 2070 2071 2072 2073 2074 2075 2076 2077 2078 2079 2080 2081 2082 2083 2084 2085 2086 2087 2088 2089 2090 2091 2092 2093 2094 2095 2096 2097 2098 2099 2100 2101 2102 2103 2104 2105 2106 2107 2108 2109 2110 2111 2112 2113 2114 2115 2116 2117 2118 2119 2120 2121 2122 2123 2124 2125 2126 2127 2128 2129 2130 2131 2132 2133 2134 2135 2136 2137 2138 2139 2140 2141 2142 2143 2144 2145 2146 2147 2148 2149 2150 2151 2152 2153 2154 2155 2156 2157 2158 2159 2160 2161 2162 2163 2164 2165 2166 2167 2168 2169 2170 2171 2172 2173 2174 2175 2176 2177 2178 2179 2180 2181 2182 2183 2184 2185 2186 2187 2188 2189 2190 2191 2192 2193 2194 2195 2196 2197 2198 2199 2200 2201 2202 2203 2204 2205 2206 2207 2208 2209 2210 2211 2212 2213 2214 2215 2216 2217 2218 2219 2220 2221 2222 2223 2224 2225 2226 2227 2228 2229 2230 2231 2232 2233 2234 2235 2236 2237 2238 2239 2240 2241 2242 2243 2244 2245 2246 2247 2248 2249 2250 2251 2252 2253 2254 2255 2256 2257 2258 2259 2260 2261 2262 2263 2264 2265 2266 2267 2268 2269 2270 2271 2272 2273 2274 2275 2276 2277 2278 2279 2280 2281 2282 2283 2284 2285 2286 2287 2288 2289 2290 2291 2292 2293 2294 2295 2296 2297 2298 2299 2300 2301 2302 2303 2304 2305 2306 2307 2308 2309 2310 2311 2312 2313 2314 2315 2316 2317 2318 2319 2320 2321 2322 2323 2324 2325 2326 2327 2328 2329 2330 2331 2332 2333 2334 2335 2336 2337 2338 2339 2340 2341 2342 2343 2344 2345 2346 2347 2348 2349 2350 2351 2352 2353 2354 2355 2356 2357 2358 2359 2360 2361 2362 2363 2364 2365 2366 2367 2368 2369 2370 2371 2372 2373 2374 2375 2376 2377 2378 2379 2380 2381 2382 2383 2384 2385 2386 2387 2388 2389 2390 2391 2392 2393 2394 2395 2396 2397 2398 2399 2400 2401 2402 2403 2404 2405 2406 2407 2408 2409 2410 2411 2412 2413 2414 2415 2416 2417 2418 2419 2420 2421 2422 2423 2424 2425 2426 2427 2428 2429 2430 2431 2432 2433 2434 2435 2436 2437 2438 2439 2440 2441 2442 2443 2444 2445 2446 2447 2448 2449 2450 2451 2452 2453 2454 2455 2456 2457 2458 2459 2460 2461 2462 2463 2464 2465 2466 2467 2468 2469 2470 2471 2472 2473 2474 2475 2476 2477 2478 2479 2480 2481 2482 2483 2484 2485 2486 2487 2488 2489 2490 2491 2492 2493 2494 2495 2496 2497 2498 2499 2500 2501 2502 2503 2504 2505 2506 2507 2508 2509 2510 2511 2512 2513 2514 2515 2516 2517 2518 2519 2520 2521 2522 2523 2524 2525 2526 2527 2528 2529 2530 2531 2532 2533 2534 2535 2536 2537 2538 2539 2540 2541 2542 2543 2544 2545 2546 2547 2548 2549 2550 2551 2552 2553 2554 2555 2556 2557 2558 2559 2560 2561 2562 2563 2564 2565 2566 2567 2568 2569 2570 2571 2572 2573 2574 2575 2576 2577 2578 2579 2580 2581 2582 2583 2584 2585 2586 2587 2588 2589 2590 2591 2592 2593 2594 2595 2596 2597 2598 2599 2600 2601 2602 2603 2604 2605 2606 2607 2608 2609 2610 2611 2612 2613 2614 2615 2616 2617 2618 2619 2620 2621 2622 2623 2624 2625 2626 2627 2628 2629 2630 2631 2632 2633 2634 2635 2636 2637 2638 2639 2640 2641 2642 2643 2644 2645 2646 2647 2648 2649 2650 2651 2652 2653 2654 2655 2656 2657 2658 2659 2660 2661 2662 2663 2664 2665 2666 2667 2668 2669 2670 2671 2672 2673 2674 2675 2676 2677 2678 2679 2680 2681 2682 2683 2684 2685 2686 2687 2688 2689 2690 2691 2692 2693 2694 2695 2696 2697 2698 2699 2700 2701 2702 2703 2704 2705 2706 2707 2708 2709 2710 2711 2712 2713 2714 2715 2716 2717 2718 2719 2720 2721 2722 2723 2724 2725 2726 2727 2728 2729 2730 2731 2732 2733 2734 2735 2736 2737 2738 2739 2740 2741 2742 2743 2744 2745 2746 2747 2748 2749 2750 2751 2752 2753 2754 2755 2756 2757 2758 2759 2760 2761 2762 2763 2764 2765 2766 2767 2768 2769 2770 2771 2772 2773 2774 2775 2776 2777 2778 2779 2780 2781 2782 2783 2784 2785 2786 2787 2788 2789 2790 2791 2792 2793 2794 2795 2796 2797 2798 2799 2800 2801 2802 2803 2804 2805 2806 2807 2808 2809 2810 2811 2812 2813 2814 2815 2816 2817 2818 2819 2820 2821 2822 2823 2824 2825 2826 2827 2828 2829 2830 2831 2832 2833 2834 2835 2836 2837 2838 2839 2840 2841 2842 2843 2844 2845 2846 2847 2848 2849 2850 2851 2852 2853 2854 2855 2856 2857 2858 2859 2860 2861 2862 2863 2864 2865 2866 2867 2868 2869 2870 2871 2872 2873 2874 2875 2876 2877 2878 2879 2880 2881 2882 2883 2884 2885 2886 2887 2888 2889 2890 2891 2892 2893 2894 2895 2896 2897 2898 2899 2900 2901 2902 2903 2904 2905 2906 2907 2908 2909 2910 2911 2912 2913 2914 2915 2916 2917 2918 2919 2920 2921 2922 2923 2924 2925 2926 2927 2928 2929 2930 2931 2932 2933 2934 2935 2936 2937 2938 2939 2940 2941 2942 2943 2944 2945 2946 2947 2948 2949 2950 2951 2952 2953 2954 2955 2956 2957 2958 2959 2960 2961 2962 2963 2964 2965 2966 2967 2968 2969 2970 2971 2972 2973 2974 2975 2976 2977 2978 2979 2980 2981 2982 2983 2984 2985 2986 2987 2988 2989 2990 2991 2992 2993 2994 2995 2996 2997 2998 2999 3000 3001 3002 3003 3004 3005 3006 3007 3008 3009 3010 3011 3012 3013 3014 3015 3016 3017 3018 3019 3020 3021 3022 3023 3024 3025 3026 3027 3028 3029 3030 3031 3032 3033 3034 3035 3036 3037 3038 3039 3040 3041 3042 3043 3044 3045 3046 3047 3048 3049 3050 3051 3052 3053 3054 3055 3056 3057 3058 3059 3060 3061 3062 3063 3064 3065 3066 3067 3068 3069 3070 3071 3072 3073 3074 3075 3076 3077 3078 3079 3080 3081 3082 3083 3084 3085 3086 3087 3088 3089 3090 3091 3092 3093 3094 3095 3096 3097 3098 3099 3100 3101 3102 3103 3104 3105 3106 3107 3108 3109 3110 3111 3112 3113 3114 3115 3116 3117 3118 3119 3120 3121 3122 3123 3124 3125 3126 3127 3128 3129 3130 3131 3132 3133 3134 3135 3136 3137 3138 3139 3140 3141 
</DataArray>
<DataArray type="UInt32" Name="offsets" format="ascii">
2 4 6 8 10 12 14 16 18 20 22 24 26 28 30 32 34 36 38 40 43 46 49 52 55 58 61 64 67 70 73 76 79 82 85 88 91 94 97 100 103 106 109 112 115 118 121 124 127 130 133 136 139 142 145 148 151 154 157 160 163 166 169 172 175 178 181 184 187 190 193 196 199 202 205 208 211 214 217 220 223 226 229 232 235 238 241 244 247 250 253 256 259 262 265 268 271 274 277 280 283 286 289 292 295 298 301 304 307 310 313 316 319 322 325 328 331 334 337 340 343 346 349 352 355 358 361 364 367 370 373 376 379 382 385 388 391 394 397 400 403 406 409 412 415 418 421 424 427 430 433 436 439 442 445 448 451 454 457 460 463 466 469 472 475 478 481 484 487 490 493 496 499 502 505 508 511 514 517 520 523 526 529 532 535 538 541 544 547 550 553 556 559 562 565 568 571 574 577 580 583 586 589 592 595 598 601 604 607 610 613 616 619 622 625 628 631 634 637 640 643 646 649 652 655 658 661 664 667 670 673 676 679 682 685 688 691 694 697 700 703 706 709 712 715 718 721 724 727 730 733 736 739 742 745 748 751 754 757 760 763 766 769 772 775 778 781 784 787 790 793 796 799 802 805 808 811 814 817 820 823 826 829 832 835 838 841 844 847 850 853 856 859 862 865 868 871 874 877 880 883 886 889 892 895 898 901 904 907 910 913 916 919 922 925 928 931 934 937 940 943 946 949 952 955 958 961 964 967 970 973 976 979 982 985 988 991 994 997 1000 1003 1006 1009 1012 1015 1018 1021 1024 1027 1030 1033 1036 1039 1042 1045 1048 1051 1054 1057 1060 1063 1066 1069 1072 1075 1078 1081 1084 1087 1090 1093 1096 1099 1102 1105 1108 1111 1114 1117 1120 1123 1126 1129 1132 1135 1138 1141 1144 1147 1150 1153 1156 1159 1162 1165 1168 1171 1174 1177 1180 1183 1186 1189 1192 1195 1198 1201 1204 1207 1210 1213 1216 1219 1222 1225 1228 1231 1234 1237 1240 1243 1246 1249 1252 1255 1258 1261 1264 1267 1270 1273 1276 1279 1282 1285 1288 1291 1294 1297 1300 1303 1306 1309 1312 1315 1318 1321 1324 1327 1330 1333 1336 1339 1342 1345 1348 1351 1354 1357 1360 1363 1366 1369 1372 1375 1378 1381 1384 1387 1390 1393 1396 1399 1402 1405 1408 1411 1414 1417 1420 1423 1426 1429 1432 1435 1438 1441 1444 1447 1450 1453 1456 1459 1462 1465 1468 1471 1474 1477 1480 1483 1486 1489 1492 1495 1498 1501 1504 1507 1510 1513 1516 1519 1522 1525 1528 1531 1534 1537 1540 1543 1546 1549 1552 1555 1558 1561 1564 1567 1570 1573 1576 1579 1582 1585 1588 1591 1594 1597 1600 1603 1606 1609 1612 1615 1618 1621 1624 1627 1630 1633 1636 1639 1642 1645 1648 1651 1654 1657 1660 1663 1666 1669 1672 1675 1678 1681 1684 1687 1690 1693 1696 1699 1702 1705 1708 1711 1714 1717 1720 1723 1726 1729 1732 1735 1738 1741 1744 1747 1750 1753 1756 1759 1762 1765 1768 1771 1774 1777 1780 1783 1786 1789 1792 1795 1798 1801 1804 1807 1810 1813 1816 1819 1822 1825 1828 1831 1834 1837 1840 1843 1846 1849 1852 1855 1858 1861 1864 1867 1870 1873 1876 1879 1882 1885 1888 1891 1894 1897 1900 1903 1906 1909 1912 1915 1918 1921 1924 1927 1930 1933 1936 1939 1942 1945 1948 1951 1954 1957 1960 1963 1966 1969 1972 1975 1978 1981 1984 1987 1990 1993 1996 1999 2002 2005 2008 2011 2014 2017 2020 2023 2026 2029 2032 2035 2038 2041 2044 2047 2050 2053 2056 2059 2062 2065 2068 2071 2074 2077 2080 2083 2086 2089 2092 2095 2098 2101 2104 2107 2110 2113 2116 2119 2122 2125 2128 2131 2134 2137 2140 2143 2146 2149 2152 2155 2158 2161 2164 2167 2170 2173 2176 2179 2182 2185 2188 2191 2194 2197 2200 2203 2206 2209 2212 2215 2218 2221 2224 2227 2230 2233 2236 2239 2242 2245 2248 2251 2254 2257 2260 2263 2266 2269 2272 2275 2278 2281 2284 2287 2290 2293 2296 2299 2302 2305 2308 2311 2314 2317 2320 2323 2326 2329 2332 2335 2338 2341 2344 2347 2350 2353 2356 2359 2362 2365 2368 2371 2374 2377 2380 2383 2386 2389 2392 2395 2398 2401 2404 2407 2410 2413 2416 2419 2422 2425 2428 2431 2434 2437 2440 2443 2446 2449 2452 2455 2458 2461 2464 2467 2470 2473 2476 2479 2482 2485 2488 2491 2494 2497 2500 2503 2506 2509 2512 2515 2518 2521 2524 2527 2530 2533 2536 2539 2542 2545 2548 2551 2554 2557 2560 2563 2566 2569 2572 2575 2578 2581 2584 2587 2590 2593 2596 2599 2602 2605 2608 2611 2614 2617 2620 2623 2626 2629 2632 2635 2638 2641 2644 2647 2650 2653 2656 2659 2662 2665 2668 2671 2674 2677 2680 2683 2686 2689 2692 2695 2698 2701 2704 2707 2710 2713 2716 2719 2722 2725 2728 2731 2734 2737 2740 2743 2746 2749 2752 2755 2758 2761 2764 2767 2770 2773 2776 2779 2782 2785 2788 2791 2794 2797 2800 2803 2806 2809 2812 2815 2818 2821 2824 2827 2830 2833 2836 2839 2842 2845 2848 2851 2854 2857 2860 2863 2866 2869 2872 2875 2878 2881 2884 2887 2890 2893 2896 2899 2902 2905 2908 2911 2914 2917 2920 2923 2926 2929 2932 2935 2938 2941 2944 2947 2950 2953 2956 2959 2962 2965 2968 2971 2974 2977 2980 2983 2986 2989 2992 2995 2998 3001 3004 3007 3010 3013 3016 3019 3022 3025 3028 3031 3034 3037 3040 3043 3046 3049 3052 3055 3058 3061 3064 3067 3070 3073 3076 3079 3082 3085 3088 3091 3094 3097 3100 3103 3106 3109 3112 3115 3118 3121 3124 3127 3130 3133 3136 3139 3142 
</DataArray>
<DataArray type="UInt32" Name="types" format="ascii">
3 3 3 3 3 3 3 3 3 3 3 3 3 3 3 3 3 3 3 3 5 5 5 5 5 5 5 5 5 5 5 5 5 5 5 5 5 5 5 5 5 5 5 5 5 5 5 5 5 5 5 5 5 5 5 5 5 5 5 5 5 5 5 5 5 5 5 5 5 5 5 5 5 5 5 5 5 5 5 5 5 5 5 5 5 5 5 5 5 5 5 5 5 5 5 5 5 5 5 5 5 5 5 5 5 5 5 5 5 5 5 5 5 5 5 5 5 5 5 5 5 5 5 5 5 5 5 5 5 5 5 5 5 5 5 5 5 5 5 5 5 5 5 5 5 5 5 5 5 5 5 5 5 5 5 5 5 5 5 5 5 5 5 5 5 5 5 5 5 5 5 5 5 5 5 5 5 5 5 5 5 5 5 5 5 5 5 5 5 5 5 5 5 5 5 5 5 5 5 5 5 5 5 5 5 5 5 5 5 5 5 5 5 5 5 5 5 5 5 5 5 5 5 5 5 5 5 5 5 5 5 5 5 5 5 5 5 5 5 5 5 5 5 5 5 5 5 5 5 5 5 5 5 5 5 5 5 5 5 5 5 5 5 5 5 5 5 5 5 5 5 5 5 5 5 5 5 5 5 5 5 5 5 5 5 5 5 5 5 5 5 5 5 5 5 5 5 5 5 5 5 5 5 5 5 5 5 5 5 5 5 5 5 5 5 5 5 5 5 5 5 5 5 5 5 5 5 5 5 5 5 5 5 5 5 5 5 5 5 5 5 5 5 5 5 5 5 5 5 5 5 5 5 5 5 5 5 5 5 5 5 5 5 5 5 5 5 5 5 5 5 5 5 5 5 5 5 5 5 5 5 5 5 5 5 5 5 5 5 5 5 5 5 5 5 5 5 5 5 5 5 5 5 5 5 5 5 5 5 5 5 5 5 5 5 5 5 5 5 5 5 5 5 5 5 5 5 5 5 5 5 5 5 5 5 5 5 5 5 5 5 5 5 5 5 5 5 5 5 5 5 5 5 5 5 5 5 5 5 5 5 5 5 5 5 5 5 5 5 5 5 5 5 5 5 5 5 5 5 5 5 5 5 5 5 5 5 5 5 5 5 5 5 5 5 5 5 5 5 5 5 5 5 5 5 5 5 5 5 5 5 5 5 5 5 5 5 5 5 5 5 5 5 5 5 5 5 5 5 5 5 5 5 5 5 5 5 5 5 5 5 5 5 5 5 5 5 5 5 5 5 5 5 5 5 5 5 5 5 5 5 5 5 5 5 5 5 5 5 5 5 5 5 5 5 5 5 5 5 5 5 5 5 5 5 5 5 5 5 5 5 5 5 5 5 5 5 5 5 5 5 5 5 5 5 5 5 5 5 5 5 5 5 5 5 5 5 5 5 5 5 5 5 5 5 5 5 5 5 5 5 5 5 5 5 5 5 5 5 5 5 5 5 5 5 5 5 5 5 5 5 5 5 5 5 5 5 5 5 5 5 5 5 5 5 5 5 5 5 5 5 5 5 5 5 5 5 5 5 5 5 5 5 5 5 5 5 5 5 5 5 5 5 5 5 5 5 5 5 5 5 5 5 5 5 5 5 5 5 5 5 5 5 5 5 5 5 5 5 5 5 5 5 5 5 5 5 5 5 5 5 5 5 5 5 5 5 5 5 5 5 5 5 5 5 5 5 5 5 5 5 5 5 5 5 5 5 5 5 5 5 5 5 5 5 5 5 5 5 5 5 5 5 5 5 5 5 5 5 5 5 5 5 5 5 5 5 5 5 5 5 5 5 5 5 5 5 5 5 5 5 5 5 5 5 5 5 5 5 5 5 5 5 5 5 5 5 5 5 5 5 5 5 5 5 5 5 5 5 5 5 5 5 5 5 5 5 5 5 5 5 5 5 5 5 5 5 5 5 5 5 5 5 5 5 5 5 5 5 5 5 5 5 5 5 5 5 5 5 5 5 5 5 5 5 5 5 5 5 5 5 5 5 5 5 5 5 5 5 5 5 5 5 5 5 5 5 5 5 5 5 5 5 5 5 5 5 5 5 5 5 5 5 5 5 5 5 5 5 5 5 5 5 5 5 5 5 5 5 5 5 5 5 5 5 5 5 5 5 5 5 5 5 5 5 5 5 5 5 5 5 5 5 5 5 5 5 5 5 5 5 5 5 5 5 5 5 5 5 5 5 5 5 5 5 5 5 5 5 5 5 5 5 5 5 5 5 5 5 5 5 5 5 5 5 5 5 5 5 5 5 5 5 5 5 5 5 5 5 5 5 5 5 5 5 5 5 5 5 5 5 5 5 5 5 5 5 5 5 5 5 5 5 5 5 5 5 5 5 5 5 5 5 5 5 5 5 5 5 5 5 5 5 5 
</DataArray>
</Cells>
<PointData Scalars="" Vectors="displacement," Tensors="">
<DataArray type="Float64" Name="displacement" NumberOfComponents="3" format="ascii">
-1.9492301363832437e-05 -1.6834022191292849e-05 0 -2.1118350395597737e-05 -2.1086992159995621e-05 0 -2.1118350395597737e-05 -2.1086992159995621e-05 0 -2.2900864979753779e-05 -2.713994894144147e-05 0 -2.2900864979753779e-05 -2.713994894144147e-05 0 -2.4929644636010379e-05 -3.4811585480198261e-05 0 -2.4929644636010379e-05 -3.4811585480198261e-05 0 -2.6829490032572429e-05 -4.2707106405759783e-05 0 -2.6829490032572429e-05 -4.2707106405759783e-05 0 -2.8536312005535543e-05 -4.9469085628753718e-05 0 -2.8536312005535543e-05 -4.9469085628753718e-05 0 -3.0162295677704333e-05 -5.6950332368286636e-05 0 -3.0162295677704333e-05 -5.6950332368286636e-05 0 -3.1857891611940681e-05 -6.3342753781545135e-05 0 -3.1857891611940681e-05 -6.3342753781545135e-05 0 -3.3370384298766109e-05 -7.0766957190869568e-05 0 -3.3370384298766109e-05 -7.0766957190869568e-05 0 -3.4517694194926574e-05 -7.6307689044997491e-05 0 -3.4517694194926574e-05 -7.6307689044997491e-05 0 -3.5715981827579402e-05 -7.7284251174695545e-05 0 -3.0220984754726443e-06 2.4907875285208317e-05 0 -2.4008281963102448e-07 3.3086270627949346e-05 0 -2.4008281963102448e-07 3.3086270627949346e-05 0 -1.2906488845518708e-06 4.1647849591756304e-05 0 -1.2906488845518708e-06 4.1647849591756304e-05 0 -2.7433233479972396e-06 4.7770013205243477e-05 0 -2.7433233479972396e-06 4.7770013205243477e-05 0 -4.5315488182970278e-06 5.9908292039256801e-05 0 -4.5315488182970278e-06 5.9908292039256801e-05 0 -6.6206498136867023e-06 6.9733784405530768e-05 0 -6.6206498136867023e-06 6.9733784405530768e-05 0 -8.9363661296131578e-06 7.9651471299866389e-05 0 -8.9363661296131578e-06 7.9651471299866389e-05 0 -1.1384926834727013e-05 8.8978835596470164e-05 0 -1.1384926834727013e-05 8.8978835596470164e-05 0 -1.4367294645679823e-05 0.00010223832273165919 0 -1.4367294645679823e-05 0.00010223832273165919 0 -1.4651528652471102e-05 0.00011058429409665202 0 -1.4651528652471102e-05 0.00011058429409665202 0 -2.3975348124367353e-05 0.00010854919127859177 0 -1.596296375590617e-05 -6.8859028259890702e-06 0 -1.2247038540546891e-05 -3.0847533215572508e-06 0 -1.4720830496121973e-05 -6.196984750891764e-06 0 -1.4419997534329807e-05 -4.2322067650916589e-06 0 -1.2247038540546891e-05 -3.0847533215572508e-06 0 -1.596296375590617e-05 -6.8859028259890702e-06 0 -2.6985625936012721e-05 -1.2113266205582091e-05 0 -2.3867817569884955e-05 -9.0653552741544918e-06 0 -2.4388252004579084e-05 -1.2084882941525625e-05 0 -2.4388252004579084e-05 -1.2084882941525625e-05 0 -2.3867817569884958e-05 -9.0653552741544918e-06 0 -2.1868084638993671e-05 -1.0900275085157821e-05 0 -1.2969054126474655e-05 4.6365072278751388e-06 0 -5.6340774309005676e-06 1.3811045040473873e-06 0 -1.169299979308991e-05 2.8890470489758059e-06 0 -9.4199148042059325e-06 -4.2487149977483881e-06 0 -8.4195644111635328e-06 -3.0746664342871357e-06 0 -4.0988964521866201e-06 -1.5480085722250895e-06 0 -6.739050773795245e-06 3.2490519859436427e-06 0 -5.6340774309005676e-06 1.3811045040473873e-06 0 -1.2969054126474655e-05 4.6365072278751388e-06 0 -5.0377928910725323e-06 -2.8385836321907486e-06 0 -9.4199148042059325e-06 -4.2487149977483881e-06 0 -4.0988964521866201e-06 -1.5480085722250895e-06 0 -2.3274585825910888e-05 -8.7668524438676491e-06 0 -2.8253148670975025e-05 -1.1077961264715167e-05 0 -2.256721139831478e-05 -7.9387539609030277e-06 0 -4.3077509168751738e-05 1.4832003711322695e-05 0 -3.4543930852278665e-05 1.0733209524867336e-05 0 -3.3876660357775764e-05 1.0041976142986423e-05 0 -3.6812624792485912e-06 8.1532897970129218e-07 0 -4.7242143446871021e-06 1.6692920987792387e-06 0 -4.7019246194415509e-06 7.0336162591847132e-07 0 -6.2325771837041726e-06 2.3339415137860448e-06 0 -4.7019246194415509e-06 7.0336162591847132e-07 0 -4.7242143446871021e-06 1.6692920987792387e-06 0 -5.2782954710825587e-06 -4.3281345628477353e-08 0 -7.0180836285550311e-06 -5.2111685417598742e-07 0 -5.0224922271585667e-06 2.2892414337586368e-07 0 -2.344881185109621e-09 -4.5090864714609333e-10 0 -1.8912828899368931e-09 -3.1059472855808661e-10 0 -2.0545648710089399e-06 -6.3044128307569401e-07 0 -1.8667879235370588e-09 2.0446316451423751e-10 0 -2.1404740305187718e-09 1.9924936301204821e-10 0 -2.0242474819426988e-06 3.1337217711791457e-07 0 -3.0252487424065612e-05 -1.6078183192612861e-05 0 -3.0434689884478859e-05 -1.5741476440356711e-05 0 -2.6985625936012721e-05 -1.2113266205582091e-05 0 -4.3963287660565167e-06 2.4326362854022044e-05 0 -8.079575582480107e-06 1.6293407536820684e-05 0 -9.9302918009479166e-06 1.6551321159141928e-05 0 -4.7359693076701355e-05 -0.00012638223055324153 0 -4.0679316829595628e-05 -0.00011862131854354864 0 -4.7116531365345795e-05 -0.0001158284672963258 0 -5.9672588479085022e-05 0.00027367362560953498 0 -7.6986756402655542e-05 0.00025553061610688222 0 -5.9210185340874942e-05 0.00024833625550183794 0 -5.9672588479085022e-05 0.00027367362560953498 0 -5.9210185340874942e-05 0.00024833625550183794 0 -4.2380491306212162e-05 0.00025469071104962263 0 -4.7359693076701355e-05 -0.00012638223055324153 0 -4.7116531365345795e-05 -0.0001158284672963258 0 -5.421880978390712e-05 -0.00011880093177242242 0 -7.9945398940224491e-05 0.00023429407209494939 0 -5.7139862129091881e-05 0.00022370474414225891 0 -5.9210185340874942e-05 0.00024833625550183794 0 -3.8852961781023848e-05 -0.00010915974267707543 0 -4.6998236857012749e-05 -0.00010480113426793102 0 -4.7116531365345795e-05 -0.0001158284672963258 0 -5.2782954710825587e-06 -4.3281345628477353e-08 0 -5.0224922271585667e-06 2.2892414337586368e-07 0 -3.5501755437618149e-06 3.4673057416766821e-07 0 -4.3963287660565167e-06 2.4326362854022044e-05 0 -1.2274251818815921e-05 2.2257809470166756e-05 0 -8.079575582480107e-06 1.6293407536820684e-05 0 -9.345517670926703e-05 7.2753509897201352e-05 0 -8.4162132829804418e-05 5.5002858284580742e-05 0 -6.8973948630256465e-05 5.8584241364658085e-05 0 -5.0581159783432947e-05 -2.9628052249203894e-05 0 -5.5697145732386274e-05 -3.7355907351965952e-05 0 -4.4573473783981484e-05 -3.1162025735614111e-05 0 -2.588485681198578e-05 -1.3469399737422036e-05 0 -3.0252487424065612e-05 -1.6078183192612861e-05 0 -2.6985625936012721e-05 -1.2113266205582091e-05 0 -4.9126998215931887e-05 4.8126954489663285e-05 0 -4.2795379866955124e-05 3.037729130514634e-05 0 -3.5632649200993873e-05 3.2087013109239598e-05 0 -2.5590450414071194e-05 1.1142982799321705e-05 0 -3.3733638456767588e-05 1.5529088049343095e-05 0 -3.1475113021106477e-05 1.0552926861004306e-05 0 -2.0251502692917281e-05 -1.8891852501001685e-06 0 -1.7601632830818424e-05 1.131329744818681e-06 0 -2.1648664390558222e-05 -4.2726574404391717e-06 0 -4.5561316363192973e-05 -9.3241987770012089e-05 0 -3.9227225573996896e-05 -8.9583752499329124e-05 0 -4.5061643656126737e-05 -8.0793133307511145e-05 0 -5.6922438458533595e-05 0.00019866108792207033 0 -7.1599432326727589e-05 0.00019157309034029897 0 -5.2680915550646246e-05 0.0001704924339011514 0 -4.5061643656126737e-05 -8.0793133307511145e-05 0 -3.9227225573996896e-05 -8.9583752499329124e-05 0 -3.7747793792158404e-05 -7.8813552129879013e-05 0 -5.2680915550646246e-05 0.0001704924339011514 0 -7.1599432326727589e-05 0.00019157309034029897 0 -7.0273895245112183e-05 0.00017089816238015281 0 -2.5590450414071194e-05 1.1142982799321705e-05 0 -3.1475113021106477e-05 1.0552926861004306e-05 0 -2.2629489894497066e-05 7.5147378527294418e-06 0 -2.0926018342695173e-05 -5.4290222279193902e-06 0 -1.7520092573269612e-05 3.1724141170137471e-06 0 -2.0251502692917281e-05 -1.8891852501001685e-06 0 -4.9126998215931887e-05 4.8126954489663285e-05 0 -5.5381798326740561e-05 4.1828958247705916e-05 0 -4.2795379866955124e-05 3.037729130514634e-05 0 -4.3963287660565167e-06 2.4326362854022044e-05 0 4.375025821815636e-06 5.897959756817116e-05 0 -1.4201244212064572e-05 6.165752920149939e-05 0 -4.133433824775347e-05 -3.6516621459402325e-05 0 -3.8185294025237799e-05 -3.396533625001884e-05 0 -4.1548578805221433e-05 -3.4989242375332729e-05 0 -2.9212984881814494e-05 -3.5865689450001149e-05 0 -2.8334338283272396e-05 -3.3555112792286341e-05 0 -2.9724877454990417e-05 -3.6430793966926644e-05 0 -1.5008697837453497e-05 5.7411632784430628e-06 0 -1.7601632830818424e-05 1.131329744818681e-06 0 -2.0251502692917281e-05 -1.8891852501001685e-06 0 -2.5538478227370849e-05 -0.00011320024053528013 0 -3.1337569974881977e-05 -0.00010653804025760319 0 -3.3817096578215469e-05 -0.00011570696351731653 0 -0.00012001431478162696 0.00025387769134207691 0 -0.00010036500879487471 0.00023203103708571265 0 -9.6467140134050993e-05 0.00025131686196249163 0 -1.5979641250042867e-09 -2.3815222185135291e-10 0 -1.3402462308708785e-06 -1.7388920011255044e-07 0 -1.4999410697594832e-06 -4.0253862810317465e-07 0 -1.6687686931503947e-09 2.198930442268707e-10 0 -1.6372763921638906e-06 3.6326384158984039e-07 0 -1.5475602836749354e-06 4.1826789258161086e-07 0 -4.9126998215931887e-05 4.8126954489663285e-05 0 -3.5916546405469969e-05 4.5981406039070692e-05 0 -4.6271563981985785e-05 6.886331653737931e-05 0 -2.9362483945967062e-05 6.0994877882330048e-05 0 -4.6271563981985785e-05 6.886331653737931e-05 0 -3.5916546405469962e-05 4.5981406039070692e-05 0 -1.7857701036572632e-05 3.902414695583293e-05 0 -4.3963287660565167e-06 2.4326362854022044e-05 0 -1.4201244212064572e-05 6.165752920149939e-05 0 -0.00011978760512323533 0.0002101954163656785 0 -9.1973460421914457e-05 0.00021070405048910935 0 -0.00010036500879487471 0.00023203103708571265 0 -2.1873090763889198e-05 -9.3300790711807626e-05 0 -3.2923030761275081e-05 -9.7181667200290828e-05 0 -3.1337569974881971e-05 -0.00010653804025760319 0 -2.9346753326105035e-05 -3.1533738525986064e-05 0 -2.9395877813133386e-05 -2.8887353424414093e-05 0 -3.1341572232998918e-05 -3.1258261676079098e-05 0 -1.9597406062742915e-05 -2.2327038559834289e-06 0 -2.1648664390558222e-05 -4.2726574404391717e-06 0 -1.7601632830818424e-05 1.131329744818681e-06 0 -2.4027728245069539e-05 -8.263443613699147e-06 0 -2.6099530189558142e-05 -1.2176268077617691e-05 0 -2.4236910821245157e-05 -1.1731286696631128e-05 0 -2.1456959724381468e-05 -1.8990605644465876e-05 0 -2.1304803633376816e-05 -1.6294959864626476e-05 0 -2.483202401149021e-05 -2.0557615258876181e-05 0 -0.00010859211768335277 0.00011577804332177256 0 -8.5362703076006635e-05 0.00010052486794497327 0 -9.3854811706317191e-05 0.00012873763478117597 0 -7.2139354172923338e-05 -9.8842593026350045e-05 0 -6.3992304486054906e-05 -0.00010874844762429711 0 -6.0833868992058045e-05 -9.9653195797292689e-05 0 1.7470531619908604e-06 0.00020099456588533517 0 -1.891754347963197e-05 0.00022854011629848848 0 -2.3128578813010118e-05 0.00020917393893632642 0 -2.3796472382957495e-05 -0.00010317521688776068 0 -3.1337569974881971e-05 -0.00010653804025760319 0 -2.5538478227370849e-05 -0.00011320024053528013 0 -0.00012001431478162696 0.00025387769134207691 0 -0.0001200691370149229 0.00023240335949270633 0 -0.00010036500879487471 0.00023203103708571265 0 -3.5939870463933222e-05 -3.0112025443759179e-05 0 -3.6185554696383532e-05 -2.7713849722301938e-05 0 -3.8047981319357964e-05 -3.0576072013793705e-05 0 -1.9688728052786311e-05 -1.613551778213716e-05 0 -2.2328893083635376e-05 -1.958794785667443e-05 0 -2.3402981488257052e-05 -2.7902577019196755e-05 0 -3.5939870463933222e-05 -3.0112025443759179e-05 0 -3.4468105762871967e-05 -2.7821707485098511e-05 0 -3.6185554696383532e-05 -2.7713849722301938e-05 0 -2.3878959450046583e-05 -1.6647695377472467e-05 0 -2.483202401149021e-05 -2.0557615258876181e-05 0 -2.1304803633376816e-05 -1.6294959864626476e-05 0 -3.8764667532191026e-05 -4.7544268038706598e-05 0 -4.1827616356665628e-05 -6.0822006385648244e-05 0 -3.3874983827974804e-05 -5.032800739467018e-05 0 -3.0662961531393139e-09 2.1336142150310729e-10 0 -4.0988964521866201e-06 -1.5480085722250895e-06 0 -2.8680464662044772e-06 -5.8163372491661915e-07 0 -4.2873478472787352e-09 -5.199580920875736e-10 0 -3.8388721892216546e-06 1.3471240230977331e-07 0 -5.6340774309005676e-06 1.3811045040473873e-06 0 -4.133433824775347e-05 -3.6516621459402325e-05 0 -3.8181282235435956e-05 -3.6266340053993395e-05 0 -3.8185294025237799e-05 -3.396533625001884e-05 0 -3.0026124322401668e-05 -3.7459431065796402e-05 0 -2.9212984881814494e-05 -3.5865689450001149e-05 0 -2.9724877454990417e-05 -3.6430793966926644e-05 0 -3.2897586399347943e-09 -7.1365710110858374e-10 0 -5.0044750938608195e-06 -2.6713239759518061e-07 0 -3.8388721892216537e-06 1.34712402309773e-07 0 -2.6009026115137441e-09 2.6007604489077623e-10 0 -2.8680464662044772e-06 -5.8163372491661915e-07 0 -3.9164920564568452e-06 -4.4548452000420952e-07 0 -4.7019246194415509e-06 7.0336162591847132e-07 0 -3.5011043805698529e-06 -4.066949463143245e-07 0 -3.3684761020888126e-06 1.7601574040965178e-07 0 -1.3812864894281158e-05 -5.5267955581808538e-06 0 -1.1590394788142274e-05 -3.6823182691920702e-06 0 -8.4195644111635328e-06 -3.0746664342871357e-06 0 -1.9535000117731022e-05 6.0396540976065414e-06 0 -1.169299979308991e-05 2.8890470489758059e-06 0 -1.6176322971062731e-05 3.3726383136249296e-06 0 -2.7728987247526415e-05 -2.0551776345994287e-05 0 -2.609947110737033e-05 -1.7139616930388245e-05 0 -2.883255842921167e-05 -1.8891927405608119e-05 0 -2.6942772708723691e-05 -1.5376973260720121e-05 0 -2.4236910821245157e-05 -1.1731286696631128e-05 0 -2.6099530189558142e-05 -1.2176268077617691e-05 0 -3.1843563662809755e-06 0.00024427962097732519 0 -2.442391124670057e-05 0.00024831801864956917 0 -1.891754347963197e-05 0.00022854011629848848 0 -7.2357855533911739e-05 -0.00011805731732828269 0 -6.2291613266713864e-05 -0.00011694395196254718 0 -6.3992304486054906e-05 -0.00010874844762429711 0 -2.6942772708723691e-05 -1.5376973260720121e-05 0 -2.883255842921167e-05 -1.8891927405608119e-05 0 -2.609947110737033e-05 -1.7139616930388245e-05 0 -2.9395877813133386e-05 -2.8887353424414093e-05 0 -2.7177545207885753e-05 -2.7837009539702932e-05 0 -2.8269353004412505e-05 -2.4975064948602537e-05 0 -7.0471171779890493e-05 0.00014940432877403402 0 -6.2282464854534949e-05 0.00011921269510636884 0 -5.0490352622617547e-05 0.00012985642427318077 0 -4.2873478472787352e-09 -5.199580920875736e-10 0 -4.5961495546328144e-09 3.8262304090831877e-10 0 -3.8388721892216537e-06 1.34712402309773e-07 0 -3.4322505251779561e-09 -4.4525076810213144e-10 0 -3.0662961531393139e-09 2.1336142150310729e-10 0 -2.8680464662044772e-06 -5.8163372491661915e-07 0 -4.7019246194415509e-06 7.0336162591847132e-07 0 -5.5512041916218365e-06 3.2715605817581388e-07 0 -3.5011043805698529e-06 -4.066949463143245e-07 0 -3.821804213227131e-05 0.0002328229921623888 0 -5.9210185340874942e-05 0.00024833625550183794 0 -5.7139862129091881e-05 0.00022370474414225891 0 -5.5348563391180848e-05 -0.00010934079901713187 0 -4.7116531365345795e-05 -0.0001158284672963258 0 -4.6998236857012749e-05 -0.00010480113426793102 0 -4.1827616356665628e-05 -6.0822006385648244e-05 0 -3.520053744363328e-05 -6.0692591428154776e-05 0 -3.3874983827974804e-05 -5.032800739467018e-05 0 -2.0100727510807688e-06 3.5199212512792844e-07 0 -2.8452009855550141e-06 6.6816076828958447e-07 0 -2.6498454214555042e-06 4.4999500372997661e-07 0 -1.459656813185009e-05 2.8323633167134051e-06 0 -1.1735385136622025e-05 2.5654614354102886e-06 0 -1.6745984143917469e-05 4.7935752234481683e-06 0 -2.7177545207885753e-05 -2.7837009539702932e-05 0 -2.5834983985704414e-05 -2.4579674039823664e-05 0 -2.8269353004412505e-05 -2.4975064948602537e-05 0 -2.6498454214555042e-06 4.4999500372997661e-07 0 -2.8452009855550141e-06 6.6816076828958447e-07 0 -3.3720692831978257e-06 8.587495058608121e-07 0 -2.8452009855550141e-06 6.6816076828958447e-07 0 -1.6750165262412814e-06 3.8577733486651065e-07 0 -2.8971330747320424e-06 6.376460291625967e-07 0 -2.1199974176796062e-06 5.1568323963731687e-07 0 -2.8971330747320424e-06 6.376460291625967e-07 0 -1.6750165262412814e-06 3.8577733486651065e-07 0 -3.8264997708222183e-05 -2.9486972007773229e-05 0 -3.6185554696383532e-05 -2.7713849722301938e-05 0 -3.7491560819631617e-05 -2.7148934347306094e-05 0 -2.4027728245069539e-05 -8.263443613699147e-06 0 -2.4236910821245154e-05 -1.1731286696631127e-05 0 -2.2477995491868407e-05 -6.8031824570367e-06 0 -2.9346753326105035e-05 -3.1533738525986064e-05 0 -2.7177545207885753e-05 -2.7837009539702932e-05 0 -2.9395877813133386e-05 -2.8887353424414093e-05 0 -1.5008697837453497e-05 5.7411632784430628e-06 0 -2.0251502692917284e-05 -1.8891852501001677e-06 0 -1.7520092573269612e-05 3.1724141170137471e-06 0 -7.9078081392268038e-07 0.0002223862495570494 0 -3.1843563662809755e-06 0.00024427962097732519 0 -1.891754347963197e-05 0.00022854011629848848 0 -7.2380726059590713e-05 -0.00010871149562999413 0 -7.2357855533911739e-05 -0.00011805731732828269 0 -6.3992304486054906e-05 -0.00010874844762429711 0 -7.2139354172923338e-05 -9.8842593026350045e-05 0 -7.2380726059590713e-05 -0.00010871149562999413 0 -6.3992304486054906e-05 -0.00010874844762429711 0 1.7470531619908604e-06 0.00020099456588533517 0 -7.9078081392268038e-07 0.0002223862495570494 0 -1.891754347963197e-05 0.00022854011629848848 0 -1.1270294730866234e-05 9.4474163009351826e-06 0 -1.0901787179776117e-05 7.4573036092070636e-06 0 -1.5008697837453497e-05 5.7411632784430628e-06 0 -5.1065401652284169e-06 4.0416855746145069e-07 0 -3.371338554224377e-06 5.5764770173814145e-07 0 -5.0224922271585667e-06 2.2892414337586368e-07 0 -2.9180331863564426e-06 4.8405746906649742e-07 0 -5.0224922271585667e-06 2.2892414337586368e-07 0 -3.371338554224377e-06 5.5764770173814145e-07 0 -1.5899594847577738e-05 0.00013048476304113458 0 -1.1001809576129219e-05 0.00014606240305864156 0 -3.3048933843221717e-05 0.00014802811019054376 0 -1.1001809576129219e-05 0.00014606240305864156 0 -1.750234997925183e-05 0.00016289931357722762 0 -3.3048933843221717e-05 0.00014802811019054376 0 -2.0926018342695173e-05 -5.4290222279193902e-06 0 -2.0251502692917277e-05 -1.8891852501001692e-06 0 -2.2477995491868407e-05 -6.8031824570367e-06 0 -3.0993380681387827e-05 -3.7906509773647719e-05 0 -2.9724877454990417e-05 -3.6430793966926644e-05 0 -3.0610839896551701e-05 -3.545451504653256e-05 0 -3.5087495272303819e-05 -3.6622407424403089e-05 0 -3.5486101561623849e-05 -3.3512778957391611e-05 0 -3.8185294025237799e-05 -3.396533625001884e-05 0 -1.0901787179776117e-05 7.4573036092070636e-06 0 -1.3473961631668359e-05 4.2366623645807858e-06 0 -1.5008697837453497e-05 5.7411632784430628e-06 0 -0.0001200691370149229 0.00023240335949270633 0 -0.00011978760512323533 0.0002101954163656785 0 -0.00010036500879487471 0.00023203103708571265 0 -2.1873090763889198e-05 -9.3300790711807626e-05 0 -3.1337569974881971e-05 -0.00010653804025760319 0 -2.3796472382957495e-05 -0.00010317521688776068 0 -2.8253148670975025e-05 -1.1077961264715167e-05 0 -2.7985612874687582e-05 -1.0921094862472523e-05 0 -2.256721139831478e-05 -7.9387539609030277e-06 0 -4.3077509168751738e-05 1.4832003711322695e-05 0 -3.3876660357775764e-05 1.0041976142986423e-05 0 -4.1765964669119085e-05 1.4968271210847379e-05 0 -2.0926018342695173e-05 -5.4290222279193902e-06 0 -2.4236910821245157e-05 -1.1731286696631128e-05 0 -2.1443207792581086e-05 -1.2227472106832389e-05 0 -1.9688728052786311e-05 -1.613551778213716e-05 0 -2.3402981488257052e-05 -2.7902577019196755e-05 0 -1.6497446747791231e-05 -2.9088788086157493e-05 0 -2.3878959450046583e-05 -1.6647695377472467e-05 0 -2.4236910821245157e-05 -1.1731286696631128e-05 0 -2.609947110737033e-05 -1.7139616930388245e-05 0 -2.6942772708723691e-05 -1.5376973260720121e-05 0 -2.609947110737033e-05 -1.7139616930388245e-05 0 -2.4236910821245157e-05 -1.1731286696631128e-05 0 -4.7359693076701355e-05 -0.00012638223055324153 0 -4.043003390989478e-05 -0.00012582552032204558 0 -4.0679316829595628e-05 -0.00011862131854354864 0 -5.9672588479085022e-05 0.00027367362560953498 0 -7.8818663262000867e-05 0.00027407317913349266 0 -7.6986756402655542e-05 0.00025553061610688222 0 -4.1499532222646824e-05 0.00027243083391162827 0 -5.9672588479085022e-05 0.00027367362560953498 0 -4.2380491306212162e-05 0.00025469071104962263 0 -5.4993369999336515e-05 -0.00012653148504772758 0 -4.7359693076701355e-05 -0.00012638223055324153 0 -5.421880978390712e-05 -0.00011880093177242242 0 -2.2795343418506219e-05 2.9696707328278636e-05 0 -3.5916546405469962e-05 4.5981406039070692e-05 0 -3.5632649200993873e-05 3.2087013109239598e-05 0 -3.0611044736856515e-05 -1.8823276615247508e-05 0 -3.3108573236389111e-05 -2.2120077868325765e-05 0 -3.153029821516194e-05 -2.2240787063429995e-05 0 -2.3878959450046583e-05 -1.6647695377472467e-05 0 -2.609947110737033e-05 -1.7139616930388245e-05 0 -2.483202401149021e-05 -2.0557615258876181e-05 0 -2.7728987247526415e-05 -2.0551776345994287e-05 0 -2.483202401149021e-05 -2.0557615258876181e-05 0 -2.609947110737033e-05 -1.7139616930388245e-05 0 -2.8554523971529005e-05 -5.2629629811071094e-05 0 -2.6337409072482121e-05 -4.0263869416972027e-05 0 -3.3874983827974804e-05 -5.032800739467018e-05 0 -9.345517670926703e-05 7.2753509897201352e-05 0 -6.8973948630256465e-05 5.8584241364658085e-05 0 -8.3730780426656933e-05 8.0451183700895295e-05 0 -2.4199135562966614e-05 -1.256688109494657e-05 0 -2.9296088653370556e-05 -1.7646375048938466e-05 0 -2.3271362842684946e-05 -1.4232673508617789e-05 0 -2.6825239159255261e-05 -1.9586584290629313e-05 0 -2.3271362842684946e-05 -1.4232673508617789e-05 0 -2.9296088653370556e-05 -1.7646375048938466e-05 0 -3.7010199997714278e-05 -3.1865427309436228e-05 0 -3.4255624779883431e-05 -3.1391085161932287e-05 0 -3.5939870463933222e-05 -3.0112025443759179e-05 0 -7.7238426094634451e-05 0.00011579224779243751 0 -9.3854811706317191e-05 0.00012873763478117597 0 -8.5362703076006635e-05 0.00010052486794497327 0 -2.755181240833918e-05 -1.149949956370627e-05 0 -3.3599903495528387e-05 -1.5728289610779669e-05 0 -2.8879601575384243e-05 -1.4222634549285303e-05 0 -3.4889202971808107e-05 -1.8964184107858343e-05 0 -2.8879601575384243e-05 -1.4222634549285303e-05 0 -3.3599903495528387e-05 -1.5728289610779669e-05 0 -5.1680704908747672e-05 3.2008255053134729e-05 0 -5.0876777423773244e-05 2.4863468005609939e-05 0 -4.122188406238465e-05 2.2513408209250608e-05 0 -4.0545669847889307e-05 1.7112370570979411e-05 0 -4.122188406238465e-05 2.2513408209250608e-05 0 -5.0876777423773244e-05 2.4863468005609939e-05 0 -3.4676267346831093e-05 -2.5297495272693525e-05 0 -3.25209763918627e-05 -2.5372529584395234e-05 0 -3.153029821516194e-05 -2.2240787063429995e-05 0 -5.5697145732386274e-05 -3.7355907351965952e-05 0 -5.1989828183315295e-05 -4.0460404734444265e-05 0 -4.4573473783981484e-05 -3.1162025735614111e-05 0 -2.3385777729725782e-05 0.00010937738559566642 0 -3.5471970770616142e-05 8.8010402739920819e-05 0 -1.868115581719323e-05 8.3701644003411339e-05 0 -1.9597406062742915e-05 -2.2327038559834289e-06 0 -2.0683401386533486e-05 -5.1730677087956678e-06 0 -2.3348351035653003e-05 -6.9173207024886581e-06 0 -7.3238085422726166e-06 2.0859318746659178e-06 0 -6.7503739981043516e-06 3.7041992728244197e-06 0 -5.790650676568806e-06 2.4241950509428485e-06 0 -8.6747674047056832e-05 0.00018482877802583806 0 -7.1599432326727589e-05 0.00019157309034029897 0 -9.1973460421914457e-05 0.00021070405048910935 0 -3.2715695768158258e-05 -8.5055684534851198e-05 0 -3.9227225573996896e-05 -8.9583752499329124e-05 0 -3.2923030761275081e-05 -9.7181667200290815e-05 0 -2.0926018342695173e-05 -5.4290222279193902e-06 0 -2.2477995491868404e-05 -6.8031824570367e-06 0 -2.4236910821245157e-05 -1.1731286696631128e-05 0 -3.5486101561623849e-05 -3.3512778957391611e-05 0 -3.4255624779883431e-05 -3.1391085161932287e-05 0 -3.7010199997714278e-05 -3.1865427309436228e-05 0 -2.7728987247526415e-05 -2.0551776345994287e-05 0 -2.9875859276051362e-05 -2.2485624478159636e-05 0 -2.8269353004412505e-05 -2.4975064948602537e-05 0 -1.8912828899368931e-09 -3.1059472855808661e-10 0 -1.4999410697594832e-06 -4.0253862810317465e-07 0 -2.0545648710089399e-06 -6.3044128307569401e-07 0 -1.8667879235370588e-09 2.0446316451423751e-10 0 -2.0242474819426988e-06 3.1337217711791457e-07 0 -1.6372763921638906e-06 3.6326384158984039e-07 0 -2.6337409072482121e-05 -4.0263869416972027e-05 0 -3.280113624558764e-05 -4.0684568832151486e-05 0 -3.3874983827974804e-05 -5.032800739467018e-05 0 -1.459656813185009e-05 2.8323633167134051e-06 0 -1.6745984143917469e-05 4.7935752234481683e-06 0 -1.956876688154162e-05 4.5223581004717984e-06 0 -2.9828404995812321e-05 1.8941763240262052e-05 0 -3.5632649200993867e-05 3.2087013109239598e-05 0 -4.2795379866955124e-05 3.037729130514634e-05 0 -2.448571515870247e-06 -2.258941286804094e-07 0 -1.3402462308708785e-06 -1.7388920011255044e-07 0 -2.5329105476901745e-06 1.1401656077617171e-07 0 -1.8487026106819356e-06 1.5616312287512176e-07 0 -2.5329105476901745e-06 1.1401656077617171e-07 0 -1.3402462308708785e-06 -1.7388920011255044e-07 0 -2.1199974176796062e-06 5.1568323963731687e-07 0 -1.5475602836749354e-06 4.1826789258161086e-07 0 -3.371338554224377e-06 5.5764770173814145e-07 0 -2.9180331863564426e-06 4.8405746906649742e-07 0 -3.371338554224377e-06 5.5764770173814145e-07 0 -1.5475602836749354e-06 4.1826789258161086e-07 0 -2.5590450414071194e-05 1.1142982799321705e-05 0 -2.1678446017877364e-05 1.2499020800034928e-05 0 -2.9828404995812321e-05 1.8941763240262052e-05 0 -7.3238085422726166e-06 2.0859318746659178e-06 0 -8.8778027294711375e-06 3.2168115760470064e-06 0 -6.7503739981043516e-06 3.7041992728244197e-06 0 -6.2325771837041726e-06 2.3339415137860448e-06 0 -6.6761846358047025e-06 1.2739478556993073e-06 0 -4.7019246194415509e-06 7.0336162591847132e-07 0 -1.6745984143917469e-05 4.7935752234481683e-06 0 -1.1735385136622025e-05 2.5654614354102886e-06 0 -1.3983367692820852e-05 5.3478513989001243e-06 0 -1.1749122755697316e-05 2.7560969473466578e-06 0 -9.8806094743029864e-06 5.325958265998446e-06 0 -8.8778027294711375e-06 3.216811576047006e-06 0 -1.1488686131647577e-05 -2.7303064564461505e-06 0 -1.2837782958493811e-05 -3.8485055246855874e-06 0 -9.8530020335146788e-06 -1.8020107446485741e-06 0 -1.1636339049903379e-05 -3.0985434263160083e-06 0 -9.8530020335146788e-06 -1.8020107446485741e-06 0 -1.2837782958493811e-05 -3.8485055246855874e-06 0 -4.5961495546327433e-09 3.8262304090831634e-10 0 -3.2897586399347943e-09 -7.1365710110858374e-10 0 -3.8388721892216537e-06 1.34712402309773e-07 0 -2.6009026115137441e-09 2.6007604489077623e-10 0 -3.4322505251779561e-09 -4.4525076810213144e-10 0 -2.8680464662044772e-06 -5.8163372491661915e-07 0 6.7475693390745866e-06 8.4366203152439043e-05 0 -1.868115581719323e-05 8.3701644003411339e-05 0 -1.4201244212064572e-05 6.165752920149939e-05 0 -5.1065401652284169e-06 4.0416855746145069e-07 0 -7.3433828408933854e-06 -3.1288250506889254e-07 0 -5.4660200640053471e-06 5.7760509212620201e-07 0 -2.3867817569884955e-05 -9.0653552741544918e-06 0 -1.9784019725011472e-05 -7.0342868000127141e-06 0 -2.1868084638993671e-05 -1.0900275085157821e-05 0 -3.2741346145540085e-05 -3.3504179249553903e-05 0 -3.4255624779883431e-05 -3.1391085161932287e-05 0 -3.5486101561623849e-05 -3.3512778957391611e-05 0 -2.3274585825910888e-05 -8.7668524438676491e-06 0 -2.256721139831478e-05 -7.9387539609030277e-06 0 -1.9016940875023009e-05 -6.4647740993405857e-06 0 -3.4543930852278665e-05 1.0733209524867336e-05 0 -2.7804246054440644e-05 7.2788927961330634e-06 0 -3.3876660357775764e-05 1.0041976142986423e-05 0 -3.0514098785489571e-05 -2.5348356526458918e-05 0 -2.8269353004412505e-05 -2.4975064948602537e-05 0 -2.9875859276051362e-05 -2.2485624478159636e-05 0 -2.256721139831478e-05 -7.9387539609030277e-06 0 -1.9284539670262567e-05 -6.3668226639018863e-06 0 -1.8320957246795618e-05 -5.8325694970745555e-06 0 -2.4842451689457017e-05 7.0360819877963103e-06 0 -2.2629489894497066e-05 7.5147378527294418e-06 0 -3.1475113021106477e-05 1.0552926861004306e-05 0 -2.3956735389216274e-05 -8.9035651530887943e-06 0 -1.9284539670262567e-05 -6.3668226639018863e-06 0 -2.256721139831478e-05 -7.9387539609030277e-06 0 -8.6387681276879639e-06 -1.2140140016103211e-06 0 -1.0110139585132091e-05 -1.9166490275832737e-06 0 -1.1393428961290014e-05 -2.4764451774361364e-06 0 -8.5701824617336977e-06 9.6272577526610802e-07 0 -1.1735385136622025e-05 2.5654614354102886e-06 0 -1.1767790887560232e-05 1.2322410656726119e-06 0 -3.3733638456767588e-05 1.5529088049343095e-05 0 -2.5590450414071194e-05 1.1142982799321705e-05 0 -2.9828404995812321e-05 1.8941763240262052e-05 0 -3.4676267346831093e-05 -2.5297495272693525e-05 0 -3.153029821516194e-05 -2.2240787063429995e-05 0 -3.3108573236389111e-05 -2.2120077868325765e-05 0 -2.7086115251633393e-05 0.00018483531609927195 0 -2.3128578813010118e-05 0.00020917393893632642 0 -4.1441707509187574e-05 0.0002075037278728019 0 -5.7233833903801832e-05 -8.8245279003828876e-05 0 -6.0833868992058045e-05 -9.9653195797292689e-05 0 -5.2602244401101505e-05 -9.7876109588713344e-05 0 -2.448571515870247e-06 -2.258941286804094e-07 0 -1.4999410697594834e-06 -4.0253862810317465e-07 0 -1.3402462308708785e-06 -1.7388920011255044e-07 0 -2.9180331863564426e-06 4.8405746906649742e-07 0 -1.5475602836749352e-06 4.1826789258161086e-07 0 -1.6372763921638906e-06 3.6326384158984039e-07 0 -2.344881185109621e-09 -4.5090864714609333e-10 0 -2.0545648710089399e-06 -6.3044128307569401e-07 0 -2.2886950829445831e-06 -6.419422907555529e-07 0 -2.1404740305187718e-09 1.9924936301204821e-10 0 -2.0586535531650514e-06 1.7376588605694759e-07 0 -2.0242474819426988e-06 3.1337217711791457e-07 0 -2.3867817569884955e-05 -9.0653552741544918e-06 0 -2.6985625936012721e-05 -1.2113266205582091e-05 0 -2.6438507547790742e-05 -1.0760040198271282e-05 0 -2.8710365991128755e-05 -1.3713185968132692e-05 0 -2.6438507547790742e-05 -1.0760040198271282e-05 0 -2.6985625936012721e-05 -1.2113266205582091e-05 0 -5.1453290684580339e-05 9.4307866356914069e-05 0 -4.6271563981985785e-05 6.886331653737931e-05 0 -3.5471970770616142e-05 8.8010402739920819e-05 0 -2.9362483945967062e-05 6.0994877882330048e-05 0 -3.5471970770616149e-05 8.8010402739920819e-05 0 -4.6271563981985785e-05 6.886331653737931e-05 0 -1.1943194675951631e-05 1.5199392190394589e-05 0 -8.7201731404867004e-06 1.0324395135552145e-05 0 -8.079575582480107e-06 1.6293407536820684e-05 0 -2.3867817569884955e-05 -9.0653552741544918e-06 0 -2.0683401386533486e-05 -5.1730677087956678e-06 0 -1.9784019725011472e-05 -7.0342868000127141e-06 0 -3.6812624792485912e-06 8.1532897970129218e-07 0 -2.6498454214555042e-06 4.4999500372997661e-07 0 -3.3720692831978257e-06 8.587495058608121e-07 0 -3.0611044736856515e-05 -1.8823276615247508e-05 0 -3.153029821516194e-05 -2.2240787063429995e-05 0 -2.883255842921167e-05 -1.8891927405608119e-05 0 -7.0471171779890493e-05 0.00014940432877403402 0 -7.9216216288420464e-05 0.00013258245079816861 0 -6.2282464854534949e-05 0.00011921269510636884 0 -3.8264997708222183e-05 -2.9486972007773229e-05 0 -3.7491560819631617e-05 -2.7148934347306094e-05 0 -3.9654875187647529e-05 -3.03677110708776e-05 0 -2.9395877813133386e-05 -2.8887353424414093e-05 0 -3.0758460363253967e-05 -2.7816021539743404e-05 0 -3.1341572232998918e-05 -3.1258261676079098e-05 0 -7.5104757791231381e-06 -6.1695363010150262e-07 0 -5.0224922271585667e-06 2.2892414337586368e-07 0 -7.0180836285550311e-06 -5.2111685417598742e-07 0 -4.9126998215931887e-05 4.8126954489663285e-05 0 -3.5632649200993873e-05 3.2087013109239598e-05 0 -3.5916546405469962e-05 4.5981406039070692e-05 0 -9.4199148042059325e-06 -4.2487149977483881e-06 0 -1.3812864894281158e-05 -5.5267955581808538e-06 0 -8.4195644111635328e-06 -3.0746664342871357e-06 0 -1.9535000117731022e-05 6.0396540976065414e-06 0 -1.2969054126474655e-05 4.6365072278751388e-06 0 -1.169299979308991e-05 2.8890470489758059e-06 0 -2.3878959450046583e-05 -1.6647695377472467e-05 0 -2.1443207792581086e-05 -1.2227472106832389e-05 0 -2.4236910821245157e-05 -1.1731286696631128e-05 0 -4.3098346906740274e-06 -1.669062821558144e-07 0 -7.1755495066033915e-06 -8.1787749338003279e-07 0 -4.3031552575630655e-06 6.3899076709914241e-08 0 -5.0087763400210246e-06 -5.8052859274164495e-07 0 -4.3045192696208908e-06 -6.5644289081094534e-07 0 -8.1328539988734145e-06 5.5122989102528345e-08 0 -8.4162132829804418e-05 5.5002858284580742e-05 0 -6.5673584946153451e-05 4.3260585984785308e-05 0 -6.8973948630256465e-05 5.8584241364658085e-05 0 -5.0581159783432947e-05 -2.9628052249203894e-05 0 -4.4573473783981484e-05 -3.1162025735614111e-05 0 -4.1810432697885295e-05 -2.4049988745401156e-05 0 -2.2795343418506219e-05 2.9696707328278636e-05 0 -1.2274251818815921e-05 2.2257809470166756e-05 0 -1.7857701036572632e-05 3.902414695583293e-05 0 -4.3963287660565167e-06 2.4326362854022044e-05 0 -1.7857701036572632e-05 3.902414695583293e-05 0 -1.2274251818815921e-05 2.2257809470166756e-05 0 -2.9119375153618979e-05 -3.1733636289898641e-05 0 -3.5604106497677125e-05 -3.5059238350790173e-05 0 -3.280113624558764e-05 -4.0684568832151486e-05 0 -3.8764667532191026e-05 -4.7544268038706598e-05 0 -3.280113624558764e-05 -4.0684568832151486e-05 0 -3.5604106497677125e-05 -3.5059238350790173e-05 0 -2.0926018342695173e-05 -5.4290222279193902e-06 0 -1.7424327397572989e-05 4.0209999481311363e-07 0 -1.7520092573269612e-05 3.1724141170137471e-06 0 -3.2741346145540085e-05 -3.3504179249553903e-05 0 -3.5486101561623849e-05 -3.3512778957391611e-05 0 -3.3498318900467452e-05 -3.5354710284674976e-05 0 -3.6812624792485912e-06 8.1532897970129218e-07 0 -4.7019246194415509e-06 7.0336162591847132e-07 0 -3.3684761020888126e-06 1.7601574040965178e-07 0 -2.9296088653370556e-05 -1.7646375048938466e-05 0 -3.6799737902686109e-05 -2.3564316727831188e-05 0 -3.1988284643570873e-05 -2.2780450252947589e-05 0 -3.0993380681387827e-05 -3.7906509773647719e-05 0 -3.0610839896551701e-05 -3.545451504653256e-05 0 -3.195447727357148e-05 -3.5793844007470759e-05 0 -6.9826893846010966e-05 7.9965770666324225e-05 0 -8.3730780426656933e-05 8.0451183700895295e-05 0 -6.8973948630256465e-05 5.8584241364658085e-05 0 -9.1973460421914457e-05 0.00021070405048910935 0 -7.1599432326727589e-05 0.00019157309034029897 0 -7.1491105113519136e-05 0.00021249353449230118 0 -3.2923030761275081e-05 -9.7181667200290815e-05 0 -3.9227225573996896e-05 -8.9583752499329124e-05 0 -4.0807307572025362e-05 -9.9155275848725855e-05 0 -9.3932613091696942e-06 -1.0164515143450183e-06 0 -9.0218198096941909e-06 3.0437233446497624e-08 0 -7.3592075096111459e-06 1.127491300734907e-07 0 -2.8710365991128755e-05 -1.3713185968132692e-05 0 -2.6985625936012721e-05 -1.2113266205582091e-05 0 -3.0434689884478859e-05 -1.5741476440356711e-05 0 -4.5877525397059251e-06 1.4788681491529129e-06 0 -5.7906506765688069e-06 2.4241950509428485e-06 0 -5.0118357863543181e-06 2.2600666965068832e-06 0 -5.9317513757506389e-06 3.4666978393731511e-06 0 -5.0118357863543181e-06 2.2600666965068832e-06 0 -5.790650676568806e-06 2.4241950509428485e-06 0 -1.6745984143917469e-05 4.7935752234481683e-06 0 -2.2629489894497066e-05 7.5147378527294418e-06 0 -1.956876688154162e-05 4.5223581004717984e-06 0 -3.8764667532191026e-05 -4.7544268038706598e-05 0 -4.5024471130610552e-05 -5.4531216993391405e-05 0 -4.1827616356665628e-05 -6.0822006385648244e-05 0 -2.097801100703461e-05 4.4257242223482938e-06 0 -1.682962840538517e-05 2.7814393807173932e-06 0 -2.5234275367525077e-05 6.1762915797252962e-06 0 -3.3048933843221717e-05 0.00014802811019054376 0 -5.2680915550646246e-05 0.0001704924339011514 0 -5.5534877165219197e-05 0.00015072783320082574 0 -3.3048933843221717e-05 0.00014802811019054376 0 -5.5534877165219197e-05 0.00015072783320082574 0 -5.0490352622617547e-05 0.00012985642427318077 0 -7.0471171779890493e-05 0.00014940432877403402 0 -5.0490352622617554e-05 0.00012985642427318074 0 -5.5534877165219197e-05 0.00015072783320082574 0 -4.9870651914515923e-05 -7.0774816999007005e-05 0 -4.5061643656126737e-05 -8.0793133307511145e-05 0 -4.0778897855913507e-05 -7.0216056055699287e-05 0 -4.9870651914515923e-05 -7.0774816999007005e-05 0 -4.0778897855913507e-05 -7.0216056055699287e-05 0 -4.1827616356665628e-05 -6.0822006385648244e-05 0 -8.7201731404867004e-06 1.0324395135552145e-05 0 -8.2509086154327801e-06 1.1673006220023736e-05 0 -8.079575582480107e-06 1.6293407536820684e-05 0 -1.5979641250042867e-09 -2.3815222185135291e-10 0 -1.3029167863904657e-09 1.3710395874779405e-11 0 -1.3402462308708785e-06 -1.7388920011255044e-07 0 -1.4606906485043527e-09 1.6972873233346802e-10 0 -1.6687686931503947e-09 2.198930442268707e-10 0 -1.5475602836749354e-06 4.1826789258161086e-07 0 -7.3433828408933854e-06 -3.1288250506889254e-07 0 -7.3592075096111459e-06 1.1274913007349062e-07 0 -5.4660200640053471e-06 5.7760509212620201e-07 0 -1.9688728052786311e-05 -1.613551778213716e-05 0 -1.9396294386712041e-05 -1.3975063456223143e-05 0 -2.2328893083635376e-05 -1.958794785667443e-05 0 -1.682962840538517e-05 2.7814393807173932e-06 0 -1.9568766881541617e-05 4.5223581004717984e-06 0 -2.5234275367525077e-05 6.1762915797252962e-06 0 -1.2792058492135536e-09 1.3093336314760399e-10 0 -1.6750165262412814e-06 3.8577733486651065e-07 0 -1.081166408403686e-06 1.4403974671626958e-07 0 -1.9535000117731022e-05 6.0396540976065414e-06 0 -1.6176322971062731e-05 3.3726383136249296e-06 0 -2.2367677006460564e-05 5.6291739390886401e-06 0 -1.3812864894281158e-05 -5.5267955581808538e-06 0 -1.5617374883749985e-05 -5.3458803511887379e-06 0 -1.1590394788142272e-05 -3.6823182691920702e-06 0 -4.5972372632548292e-05 -3.9803122355147584e-05 0 -4.4573473783981484e-05 -3.1162025735614111e-05 0 -5.1989828183315295e-05 -4.0460404734444265e-05 0 -2.8971330747320424e-06 6.376460291625967e-07 0 -2.1199974176796062e-06 5.1568323963731687e-07 0 -3.8324708141136383e-06 6.5463701649056767e-07 0 -3.4676267346831093e-05 -2.5297495272693525e-05 0 -3.7491560819631617e-05 -2.7148934347306094e-05 0 -3.6185554696383532e-05 -2.7713849722301938e-05 0 -1.1749122755697316e-05 2.7560969473466578e-06 0 -8.8778027294711375e-06 3.216811576047006e-06 0 -1.073177372678049e-05 1.4009721991406785e-06 0 -2.3385777729725782e-05 0.00010937738559566642 0 -4.2727215995640454e-05 0.00011140942444543586 0 -3.5471970770616142e-05 8.8010402739920819e-05 0 -3.6812624792485912e-06 8.1532897970129218e-07 0 -2.5329105476901745e-06 1.1401656077617171e-07 0 -2.6498454214555042e-06 4.4999500372997661e-07 0 -7.9945398940224491e-05 0.00023429407209494939 0 -7.1491105113519136e-05 0.00021249353449230118 0 -5.7139862129091881e-05 0.00022370474414225891 0 -3.8852961781023848e-05 -0.00010915974267707543 0 -4.0807307572025362e-05 -9.9155275848725855e-05 0 -4.6998236857012749e-05 -0.00010480113426793102 0 -2.1199974176796062e-06 5.1568323963731687e-07 0 -3.371338554224377e-06 5.5764770173814145e-07 0 -3.8324708141136383e-06 6.5463701649056767e-07 0 -1.1749122755697316e-05 2.7560969473466578e-06 0 -1.3445699245911042e-05 -8.7301576778253747e-08 0 -1.5652227785821464e-05 5.6630438911415116e-07 0 -3.821804213227131e-05 0.0002328229921623888 0 -4.2380491306212162e-05 0.00025469071104962263 0 -5.9210185340874942e-05 0.00024833625550183794 0 -7.9945398940224491e-05 0.00023429407209494939 0 -5.9210185340874942e-05 0.00024833625550183794 0 -7.6986756402655542e-05 0.00025553061610688222 0 -5.5348563391180848e-05 -0.00010934079901713187 0 -5.421880978390712e-05 -0.00011880093177242242 0 -4.7116531365345795e-05 -0.0001158284672963258 0 -3.8852961781023848e-05 -0.00010915974267707543 0 -4.7116531365345795e-05 -0.0001158284672963258 0 -4.0679316829595628e-05 -0.00011862131854354864 0 -2.9828404995812321e-05 1.8941763240262052e-05 0 -4.2795379866955124e-05 3.037729130514634e-05 0 -4.122188406238465e-05 2.2513408209250608e-05 0 -3.6076353423432879e-05 -2.724902408939058e-05 0 -4.4573473783981484e-05 -3.1162025735614111e-05 0 -4.0421930320603111e-05 -3.4269361863898411e-05 0 -4.5972372632548292e-05 -3.9803122355147584e-05 0 -4.0421930320603111e-05 -3.4269361863898411e-05 0 -4.4573473783981484e-05 -3.1162025735614111e-05 0 -6.9826893846010966e-05 7.9965770666324225e-05 0 -6.8973948630256465e-05 5.8584241364658085e-05 0 -5.7770062164785259e-05 6.6648993597065047e-05 0 -4.9126998215931887e-05 4.8126954489663285e-05 0 -5.7770062164785259e-05 6.6648993597065047e-05 0 -6.8973948630256465e-05 5.8584241364658085e-05 0 -2.9180331863564426e-06 4.8405746906649742e-07 0 -3.5501755437618149e-06 3.4673057416766821e-07 0 -5.0224922271585667e-06 2.2892414337586368e-07 0 4.375025821815636e-06 5.897959756817116e-05 0 6.7475693390745866e-06 8.4366203152439043e-05 0 -1.4201244212064572e-05 6.165752920149939e-05 0 -5.0087763400210246e-06 -5.8052859274164495e-07 0 -7.7036551702062485e-06 -7.0468009549887343e-08 0 -5.0044750938608195e-06 -2.6713239759518051e-07 0 -4.3098346906740274e-06 -1.669062821558144e-07 0 -3.9164920564568452e-06 -4.4548452000420952e-07 0 -6.2103272988624424e-06 -8.1186674573221348e-07 0 -2.3867817569884955e-05 -9.0653552741544918e-06 0 -2.3348351035653003e-05 -6.9173207024886581e-06 0 -2.0683401386533486e-05 -5.1730677087956678e-06 0 -7.1755495066033915e-06 -8.1787749338003279e-07 0 -6.6836755733730141e-06 -5.1887279725093988e-07 0 -4.3031552575630655e-06 6.3899076709914241e-08 0 -8.1328539988734145e-06 5.5122989102528345e-08 0 -4.3045192696208908e-06 -6.5644289081094534e-07 0 -6.7439638242303652e-06 1.2372224781432122e-07 0 -2.4842451689457017e-05 7.0360819877963103e-06 0 -3.1475113021106477e-05 1.0552926861004306e-05 0 -2.5234275367525077e-05 6.1762915797252962e-06 0 -3.3876660357775764e-05 1.0041976142986423e-05 0 -2.5234275367525077e-05 6.1762915797252962e-06 0 -3.1475113021106477e-05 1.0552926861004306e-05 0 -3.821804213227131e-05 0.0002328229921623888 0 -4.1441707509187574e-05 0.0002075037278728019 0 -2.3128578813010118e-05 0.00020917393893632642 0 -5.5348563391180848e-05 -0.00010934079901713187 0 -5.2602244401101505e-05 -9.7876109588713344e-05 0 -6.0833868992058045e-05 -9.9653195797292689e-05 0 -3.0993380681387827e-05 -3.7906509773647719e-05 0 -3.0026124322401668e-05 -3.7459431065796402e-05 0 -2.9724877454990417e-05 -3.6430793966926644e-05 0 -3.8181282235435956e-05 -3.6266340053993395e-05 0 -3.5087495272303819e-05 -3.6622407424403089e-05 0 -3.8185294025237799e-05 -3.396533625001884e-05 0 -1.3962934464802211e-05 -4.2053656342016591e-06 0 -1.1488686131647577e-05 -2.7303064564461505e-06 0 -1.1393428961290014e-05 -2.4764451774361364e-06 0 -4.14264736316216e-05 -3.3460977307197234e-05 0 -4.035760833638049e-05 -3.204423388826661e-05 0 -3.9654875187647529e-05 -3.03677110708776e-05 0 -2.2868436234246939e-05 -2.2513881233611845e-05 0 -2.3634767317505864e-05 -2.4632796688046599e-05 0 -2.6129073912648886e-05 -2.8992360230319644e-05 0 -2.9346753326105035e-05 -3.1533738525986064e-05 0 -2.7843110220645989e-05 -3.0979257617426153e-05 0 -2.7177545207885753e-05 -2.7837009539702932e-05 0 -3.4889202971808107e-05 -1.8964184107858343e-05 0 -3.6799737902686109e-05 -2.3564316727831188e-05 0 -2.9296088653370556e-05 -1.7646375048938466e-05 0 -3.5087495272303819e-05 -3.6622407424403089e-05 0 -3.3498318900467452e-05 -3.5354710284674976e-05 0 -3.5486101561623849e-05 -3.3512778957391611e-05 0 -4.0545669847889307e-05 1.7112370570979411e-05 0 -3.1475113021106477e-05 1.0552926861004306e-05 0 -3.3733638456767588e-05 1.5529088049343095e-05 0 -9.0218198096941909e-06 3.0437233446497557e-08 0 -7.2636843758513547e-06 9.3095234526264871e-07 0 -7.3592075096111459e-06 1.127491300734907e-07 0 -3.6076353423432879e-05 -2.724902408939058e-05 0 -3.5604106497677125e-05 -3.5059238350790173e-05 0 -3.1150893433909054e-05 -2.6628011599739703e-05 0 -2.9119375153618979e-05 -3.1733636289898641e-05 0 -3.1150893433909061e-05 -2.6628011599739703e-05 0 -3.5604106497677125e-05 -3.5059238350790173e-05 0 -1.4731846647190378e-05 -4.2983083898070079e-06 0 -1.3962934464802211e-05 -4.2053656342016591e-06 0 -1.1393428961290014e-05 -2.4764451774361364e-06 0 -3.6076353423432879e-05 -2.724902408939058e-05 0 -3.1988284643570873e-05 -2.2780450252947589e-05 0 -3.6799737902686109e-05 -2.3564316727831188e-05 0 -1.2606967263877835e-05 -3.0327305050528225e-06 0 -1.4731846647190378e-05 -4.2983083898070079e-06 0 -1.1393428961290014e-05 -2.4764451774361364e-06 0 -8.5701824617336977e-06 9.6272577526610802e-07 0 -8.3425675576062057e-06 2.3636595296190413e-06 0 -1.1735385136622025e-05 2.5654614354102886e-06 0 -3.6076353423432879e-05 -2.724902408939058e-05 0 -3.6799737902686109e-05 -2.3564316727831188e-05 0 -4.4573473783981484e-05 -3.1162025735614111e-05 0 -4.9126998215931887e-05 4.8126954489663285e-05 0 -6.8973948630256465e-05 5.8584241364658085e-05 0 -5.5381798326740561e-05 4.1828958247705916e-05 0 -3.2897586399347943e-09 -7.1365710110858374e-10 0 -2.4418541534555499e-06 -4.7479992444087946e-07 0 -5.0044750938608195e-06 -2.6713239759518051e-07 0 -2.6009026115137441e-09 2.6007604489077623e-10 0 -3.9164920564568452e-06 -4.4548452000420952e-07 0 -2.0248229679062923e-06 -4.8219572684003942e-09 0 -1.2606967263877835e-05 -3.0327305050528225e-06 0 -1.1393428961290014e-05 -2.4764451774361364e-06 0 -1.0110139585132091e-05 -1.9166490275832737e-06 0 -1.459656813185009e-05 2.8323633167134051e-06 0 -1.1767790887560232e-05 1.2322410656726119e-06 0 -1.1735385136622025e-05 2.5654614354102886e-06 0 -4.958053279376942e-06 -2.6620436360609722e-07 0 -3.5011043805698529e-06 -4.066949463143245e-07 0 -5.5512041916218365e-06 3.2715605817581388e-07 0 -2.2328893083635376e-05 -1.958794785667443e-05 0 -2.6750394195771331e-05 -2.3488919176692719e-05 0 -2.3402981488257052e-05 -2.7902577019196755e-05 0 -3.6812624792485912e-06 8.1532897970129218e-07 0 -3.3720692831978257e-06 8.587495058608122e-07 0 -4.1162417883909811e-06 1.3411506861351102e-06 0 -7.9945398940224491e-05 0.00023429407209494939 0 -9.1973460421914457e-05 0.00021070405048910935 0 -7.1491105113519136e-05 0.00021249353449230118 0 -3.8852961781023848e-05 -0.00010915974267707543 0 -3.2923030761275081e-05 -9.7181667200290815e-05 0 -4.0807307572025362e-05 -9.9155275848725855e-05 0 -8.6387681276879639e-06 -1.2140140016103211e-06 0 -7.1755495066033915e-06 -8.1787749338003279e-07 0 -1.0110139585132091e-05 -1.9166490275832737e-06 0 -8.5701824617336977e-06 9.6272577526610802e-07 0 -1.1767790887560232e-05 1.2322410656726119e-06 0 -8.1328539988734145e-06 5.5122989102528345e-08 0 -2.8452009855550141e-06 6.6816076828958447e-07 0 -4.0631793000972252e-06 8.0818485306669543e-07 0 -3.9176114956036205e-06 9.9500188604478376e-07 0 -2.6750394195771331e-05 -2.3488919176692719e-05 0 -2.9119375153618979e-05 -3.1733636289898641e-05 0 -2.3402981488257052e-05 -2.7902577019196755e-05 0 -0.00011691566480325701 0.00016330673450271516 0 -0.00011358022614084802 0.00013942788614452212 0 -9.2995119637269614e-05 0.00015031605587397778 0 -1.6864278262673919e-05 -6.0328934487214473e-05 0 -2.6661178963451241e-05 -6.7940819169459536e-05 0 -1.817911322034901e-05 -7.1170249674528093e-05 0 -4.9870651914515923e-05 -7.0774816999007005e-05 0 -4.1827616356665628e-05 -6.0822006385648244e-05 0 -4.8582650545598765e-05 -6.1430036955596962e-05 0 -1.6803595217391374e-05 -3.066699210946551e-06 0 -1.9784019725011472e-05 -7.0342868000127132e-06 0 -2.0683401386533486e-05 -5.1730677087956678e-06 0 -2.097801100703461e-05 4.4257242223482938e-06 0 -1.6176322971062728e-05 3.3726383136249291e-06 0 -1.5502170560787216e-05 2.4522186066124573e-06 0 -1.5043644894745119e-05 -4.4852569302565827e-06 0 -1.1486262690302018e-05 -3.0456816278076369e-06 0 -1.1590394788142272e-05 -3.6823182691920702e-06 0 -8.9146041898720137e-06 6.8313815943260157e-06 0 -8.2674758189011772e-06 4.0884413102001698e-06 0 -6.70264497942756e-06 4.5309219411064923e-06 0 -2.8452009855550141e-06 6.6816076828958447e-07 0 -2.8971330747320424e-06 6.376460291625967e-07 0 -4.0631793000972252e-06 8.0818485306669532e-07 0 -2.8710365991128755e-05 -1.3713185968132692e-05 0 -3.1715712629977846e-05 -1.7791987805574394e-05 0 -2.9293251504565565e-05 -1.5283101303935529e-05 0 -2.097801100703461e-05 4.4257242223482938e-06 0 -2.2367677006460564e-05 5.6291739390886401e-06 0 -1.6176322971062731e-05 3.3726383136249296e-06 0 -1.5043644894745119e-05 -4.4852569302565827e-06 0 -1.1590394788142272e-05 -3.6823182691920698e-06 0 -1.5617374883749985e-05 -5.3458803511887388e-06 0 -1.1749122755697316e-05 2.7560969473466578e-06 0 -1.073177372678049e-05 1.4009721991406785e-06 0 -1.3445699245911042e-05 -8.7301576778253747e-08 0 -4.5561316363192973e-05 -9.3241987770012089e-05 0 -4.5061643656126737e-05 -8.0793133307511132e-05 0 -5.0315194906390352e-05 -8.768149897204481e-05 0 -5.6922438458533595e-05 0.00019866108792207033 0 -5.2680915550646253e-05 0.00017049243390115137 0 -4.3043224972298312e-05 0.00018528286844896239 0 -3.4889202971808107e-05 -1.8964184107858343e-05 0 -2.9296088653370556e-05 -1.7646375048938466e-05 0 -2.8879601575384243e-05 -1.4222634549285303e-05 0 -2.4199135562966614e-05 -1.256688109494657e-05 0 -2.8879601575384243e-05 -1.4222634549285303e-05 0 -2.9296088653370556e-05 -1.7646375048938466e-05 0 -1.4720830496121973e-05 -6.196984750891764e-06 0 -1.6734821381819466e-05 -8.2654994741515032e-06 0 -1.7126418064600176e-05 -9.66136225610888e-06 0 -1.9478062996792169e-05 -1.1982911218749108e-05 0 -1.7126418064600176e-05 -9.66136225610888e-06 0 -1.6734821381819466e-05 -8.2654994741515032e-06 0 -2.0545648710089399e-06 -6.3044128307569401e-07 0 -3.5011043805698529e-06 -4.066949463143245e-07 0 -4.3045192696208908e-06 -6.5644289081094534e-07 0 -4.958053279376942e-06 -2.6620436360609722e-07 0 -4.3045192696208908e-06 -6.5644289081094534e-07 0 -3.5011043805698529e-06 -4.066949463143245e-07 0 -5.2782954710825587e-06 -4.3281345628477353e-08 0 -3.5501755437618149e-06 3.4673057416766821e-07 0 -4.3031552575630655e-06 6.3899076709914241e-08 0 -2.0242474819426988e-06 3.1337217711791457e-07 0 -4.3031552575630655e-06 6.3899076709914241e-08 0 -3.5501755437618149e-06 3.4673057416766821e-07 0 -3.4676267346831093e-05 -2.5297495272693525e-05 0 -3.4468105762871967e-05 -2.7821707485098511e-05 0 -3.25209763918627e-05 -2.5372529584395234e-05 0 -1.6803595217391374e-05 -3.066699210946551e-06 0 -1.5652227785821464e-05 5.6630438911415116e-07 0 -1.3445699245911042e-05 -8.7301576778253747e-08 0 -5.9317513757506389e-06 3.4666978393731511e-06 0 -5.7783822032339983e-06 3.1250176271958923e-06 0 -5.0118357863543181e-06 2.2600666965068832e-06 0 -3.3048933843221717e-05 0.00014802811019054376 0 -3.482534329155752e-05 0.00017056634610052658 0 -5.2680915550646246e-05 0.0001704924339011514 0 -4.9870651914515923e-05 -7.0774816999007005e-05 0 -5.2394278180731224e-05 -8.0719033367386447e-05 0 -4.5061643656126737e-05 -8.0793133307511145e-05 0 -3.3048933843221717e-05 0.00014802811019054376 0 -5.0490352622617547e-05 0.00012985642427318077 0 -3.3305504519067353e-05 0.00012587525652293357 0 -8.9146041898720137e-06 6.8313815943260157e-06 0 -1.1397804632782471e-05 6.2454563839858367e-06 0 -8.2674758189011772e-06 4.088441310200169e-06 0 -8.9146041898720137e-06 6.8313815943260157e-06 0 -1.1999368228162195e-05 1.0365711029774871e-05 0 -1.1397804632782471e-05 6.2454563839858367e-06 0 -5.1453290684580339e-05 9.4307866356914069e-05 0 -4.2727215995640447e-05 0.00011140942444543586 0 -6.2282464854534949e-05 0.00011921269510636884 0 -5.0490352622617547e-05 0.00012985642427318077 0 -6.2282464854534949e-05 0.00011921269510636884 0 -4.2727215995640447e-05 0.00011140942444543586 0 -7.9184297884668697e-06 9.398466000407437e-07 0 -5.0044750938608195e-06 -2.6713239759518046e-07 0 -8.8662773583949515e-06 4.6695872199121041e-07 0 -5.855310668571587e-06 -1.5211039076783716e-06 0 -6.7948526613691048e-06 -1.2952728596840355e-06 0 -3.9164920564568452e-06 -4.4548452000420952e-07 0 -2.9119375153618979e-05 -3.1733636289898641e-05 0 -3.280113624558764e-05 -4.0684568832151486e-05 0 -2.6337409072482121e-05 -4.0263869416972027e-05 0 -4.14264736316216e-05 -3.3460977307197234e-05 0 -4.2293009009006211e-05 -3.5762905905990455e-05 0 -4.035760833638049e-05 -3.204423388826661e-05 0 -2.2868436234246939e-05 -2.2513881233611845e-05 0 -2.6129073912648886e-05 -2.8992360230319644e-05 0 -2.4623686984316166e-05 -2.5066072565683443e-05 0 -1.1220282790289711e-05 -3.8446775502853332e-07 0 -1.3445699245911042e-05 -8.7301576778253747e-08 0 -1.073177372678049e-05 1.4009721991406785e-06 0 -5.9317513757506389e-06 3.4666978393731511e-06 0 -6.9937654838579606e-06 5.5914401627540162e-06 0 -6.70264497942756e-06 4.5309219411064923e-06 0 -3.2741346145540085e-05 -3.3504179249553903e-05 0 -3.1341572232998918e-05 -3.1258261676079098e-05 0 -3.4255624779883431e-05 -3.1391085161932287e-05 0 -3.2565084765409709e-05 -2.962882387288344e-05 0 -3.4255624779883431e-05 -3.1391085161932287e-05 0 -3.1341572232998918e-05 -3.1258261676079098e-05 0 -2.7728987247526415e-05 -2.0551776345994287e-05 0 -2.8269353004412505e-05 -2.4975064948602537e-05 0 -2.483202401149021e-05 -2.0557615258876181e-05 0 -7.9945398940224491e-05 0.00023429407209494939 0 -0.00010036500879487471 0.00023203103708571265 0 -9.1973460421914457e-05 0.00021070405048910935 0 -3.8852961781023848e-05 -0.00010915974267707543 0 -3.1337569974881971e-05 -0.00010653804025760319 0 -3.2923030761275081e-05 -9.7181667200290815e-05 0 -3.9630582929687659e-05 -3.2665290466176658e-05 0 -4.1548578805221433e-05 -3.4989242375332729e-05 0 -3.8185294025237799e-05 -3.396533625001884e-05 0 -2.8273230229770929e-05 -3.3208816782197552e-05 0 -2.9724877454990417e-05 -3.6430793966926644e-05 0 -2.8334338283272396e-05 -3.3555112792286341e-05 0 -3.821804213227131e-05 0.0002328229921623888 0 -5.7139862129091881e-05 0.00022370474414225891 0 -4.1441707509187574e-05 0.0002075037278728019 0 -5.5348563391180848e-05 -0.00010934079901713187 0 -4.6998236857012749e-05 -0.00010480113426793102 0 -5.2602244401101505e-05 -9.7876109588713344e-05 0 -2.8452009855550141e-06 6.6816076828958447e-07 0 -3.9176114956036205e-06 9.9500188604478376e-07 0 -3.3720692831978257e-06 8.587495058608121e-07 0 -4.5877525397059251e-06 1.4788681491529129e-06 0 -3.3720692831978257e-06 8.587495058608121e-07 0 -3.9176114956036205e-06 9.9500188604478376e-07 0 -2.7086115251633393e-05 0.00018483531609927195 0 -4.1441707509187574e-05 0.0002075037278728019 0 -4.3043224972298312e-05 0.00018528286844896239 0 -5.7233833903801832e-05 -8.8245279003828876e-05 0 -5.2602244401101505e-05 -9.7876109588713344e-05 0 -5.0315194906390352e-05 -8.768149897204481e-05 0 -5.0087763400210246e-06 -5.8052859274164495e-07 0 -5.0044750938608204e-06 -2.6713239759518046e-07 0 -2.4418541534555499e-06 -4.7479992444087946e-07 0 -4.3098346906740274e-06 -1.669062821558144e-07 0 -2.0248229679062923e-06 -4.8219572684003942e-09 0 -3.9164920564568452e-06 -4.4548452000420952e-07 0 -2.9362483945967062e-05 6.0994877882330048e-05 0 -1.868115581719323e-05 8.3701644003411339e-05 0 -3.5471970770616142e-05 8.8010402739920819e-05 0 -7.9184297884668697e-06 9.398466000407437e-07 0 -3.8388721892216537e-06 1.34712402309773e-07 0 -5.0044750938608195e-06 -2.6713239759518051e-07 0 -5.855310668571587e-06 -1.5211039076783716e-06 0 -3.9164920564568452e-06 -4.4548452000420952e-07 0 -2.8680464662044772e-06 -5.8163372491661915e-07 0 -0.00011978760512323533 0.0002101954163656785 0 -0.00010290215660312874 0.00019367900080432892 0 -9.1973460421914457e-05 0.00021070405048910935 0 -2.1873090763889198e-05 -9.3300790711807626e-05 0 -2.7119428150070697e-05 -8.7783108464450904e-05 0 -3.2923030761275081e-05 -9.7181667200290815e-05 0 -2.2795343418506219e-05 2.9696707328278636e-05 0 -3.5632649200993873e-05 3.2087013109239598e-05 0 -2.453929441957603e-05 2.2470920505792955e-05 0 -2.9828404995812321e-05 1.8941763240262052e-05 0 -2.453929441957603e-05 2.2470920505792955e-05 0 -3.5632649200993873e-05 3.2087013109239598e-05 0 -3.8764667532191026e-05 -4.7544268038706598e-05 0 -3.5604106497677125e-05 -3.5059238350790173e-05 0 -4.1214793299711724e-05 -4.0502467144805619e-05 0 -2.0926018342695173e-05 -5.4290222279193902e-06 0 -2.1443207792581086e-05 -1.2227472106832389e-05 0 -1.8272029186728823e-05 -7.8679741853729085e-06 0 -5.1453290684580339e-05 9.4307866356914069e-05 0 -5.856292382674185e-05 8.121466936971192e-05 0 -4.6271563981985785e-05 6.886331653737931e-05 0 -4.9126998215931887e-05 4.8126954489663285e-05 0 -4.6271563981985785e-05 6.886331653737931e-05 0 -5.7770062164785259e-05 6.6648993597065047e-05 0 -3.6076353423432879e-05 -2.724902408939058e-05 0 -4.0421930320603111e-05 -3.4269361863898411e-05 0 -3.5604106497677125e-05 -3.5059238350790173e-05 0 -2.9119375153618979e-05 -3.1733636289898641e-05 0 -2.6337409072482121e-05 -4.0263869416972027e-05 0 -2.3402981488257052e-05 -2.7902577019196755e-05 0 -3.8264997708222183e-05 -2.9486972007773229e-05 0 -3.9654875187647529e-05 -3.03677110708776e-05 0 -4.035760833638049e-05 -3.204423388826661e-05 0 -2.6042952603599503e-05 -2.796717964471029e-05 0 -2.6129073912648886e-05 -2.8992360230319644e-05 0 -2.3634767317505864e-05 -2.4632796688046599e-05 0 -1.9597406062742915e-05 -2.2327038559834289e-06 0 -2.3348351035653003e-05 -6.9173207024886581e-06 0 -2.1648664390558222e-05 -4.2726574404391717e-06 0 -2.3867817569884955e-05 -9.0653552741544918e-06 0 -2.6438507547790742e-05 -1.0760040198271282e-05 0 -2.3348351035653003e-05 -6.9173207024886581e-06 0 -1.0901787179776117e-05 7.4573036092070636e-06 0 -9.8806094743029864e-06 5.325958265998446e-06 0 -1.3473961631668359e-05 4.2366623645807858e-06 0 -2.2328893083635376e-05 -1.958794785667443e-05 0 -1.9396294386712041e-05 -1.3975063456223143e-05 0 -2.2695863169944018e-05 -1.6664359458589669e-05 0 -3.821804213227131e-05 0.0002328229921623888 0 -2.3128578813010118e-05 0.00020917393893632642 0 -1.891754347963197e-05 0.00022854011629848848 0 -5.5348563391180848e-05 -0.00010934079901713187 0 -6.0833868992058045e-05 -9.9653195797292689e-05 0 -6.3992304486054906e-05 -0.00010874844762429711 0 -1.1749122755697316e-05 2.7560969473466578e-06 0 -1.3473961631668359e-05 4.2366623645807858e-06 0 -9.8806094743029864e-06 5.325958265998446e-06 0 -2.1456959724381468e-05 -1.8990605644465876e-05 0 -2.483202401149021e-05 -2.0557615258876181e-05 0 -2.3134411382148533e-05 -2.1990624542032315e-05 0 -3.2565084765409709e-05 -2.962882387288344e-05 0 -3.1341572232998918e-05 -3.1258261676079098e-05 0 -3.0758460363253967e-05 -2.7816021539743404e-05 0 -7.9187622265111288e-06 5.0292688902084759e-06 0 -8.8778027294711375e-06 3.216811576047006e-06 0 -9.8806094743029864e-06 5.325958265998446e-06 0 -2.448571515870247e-06 -2.258941286804094e-07 0 -3.3684761020888126e-06 1.7601574040965178e-07 0 -3.5011043805698529e-06 -4.066949463143245e-07 0 -6.0536024103259317e-05 -4.6392995163565892e-05 0 -6.4478220433051656e-05 -5.6253763613489659e-05 0 -5.365754348638684e-05 -4.8932523630241636e-05 0 -8.5701824617336977e-06 9.6272577526610802e-07 0 -6.7439638242303652e-06 1.2372224781432122e-07 0 -5.5512041916218365e-06 3.2715605817581388e-07 0 -5.0118357863543181e-06 2.2600666965068832e-06 0 -5.7783822032339983e-06 3.1250176271958923e-06 0 -4.7242143446871021e-06 1.6692920987792387e-06 0 -1.1749122755697316e-05 2.7560969473466578e-06 0 -1.5652227785821464e-05 5.6630438911415116e-07 0 -1.3473961631668359e-05 4.2366623645807858e-06 0 -0.00010859211768335277 0.00011577804332177256 0 -0.00010201982193464427 9.3452031962082489e-05 0 -8.5362703076006635e-05 0.00010052486794497327 0 -2.1199974176796062e-06 5.1568323963731687e-07 0 -1.6750165262412814e-06 3.8577733486651065e-07 0 -8.7209107356578614e-07 2.4722741683733561e-07 0 -6.2325771837041726e-06 2.3339415137860448e-06 0 -6.70264497942756e-06 4.5309219411064923e-06 0 -8.2674758189011772e-06 4.088441310200169e-06 0 -3.0611044736856515e-05 -1.8823276615247508e-05 0 -3.1915255511766464e-05 -1.9050329768298134e-05 0 -3.3108573236389111e-05 -2.2120077868325765e-05 0 -4.9870651914515923e-05 -7.0774816999007005e-05 0 -5.6717759220929397e-05 -6.6061381315547392e-05 0 -5.9539593840210763e-05 -7.7584166573104683e-05 0 -8.5701824617336977e-06 9.6272577526610802e-07 0 -5.5512041916218365e-06 3.2715605817581388e-07 0 -6.6761846358047025e-06 1.2739478556993071e-06 0 -2.8452009855550141e-06 6.6816076828958447e-07 0 -2.0100727510807688e-06 3.5199212512792844e-07 0 -1.6750165262412814e-06 3.8577733486651065e-07 0 -1.0464924302078823e-05 3.8770216992605197e-06 0 -8.2674758189011772e-06 4.088441310200169e-06 0 -1.1397804632782471e-05 6.2454563839858367e-06 0 -3.1715712629977846e-05 -1.7791987805574394e-05 0 -3.1915255511766464e-05 -1.9050329768298134e-05 0 -2.9293251504565565e-05 -1.5283101303935529e-05 0 -3.8264997708222183e-05 -2.9486972007773229e-05 0 -3.8047981319357964e-05 -3.0576072013793705e-05 0 -3.6185554696383532e-05 -2.7713849722301938e-05 0 -2.4842451689457017e-05 7.0360819877963103e-06 0 -1.956876688154162e-05 4.5223581004717984e-06 0 -2.2629489894497066e-05 7.5147378527294418e-06 0 1.7470531619908604e-06 0.00020099456588533517 0 -2.3128578813010118e-05 0.00020917393893632642 0 -1.1857516745850522e-05 0.00019043846044616169 0 -7.2139354172923338e-05 -9.8842593026350045e-05 0 -6.0833868992058045e-05 -9.9653195797292689e-05 0 -6.4713008316204254e-05 -9.2095101558827095e-05 0 -4.1162417883909811e-06 1.3411506861351102e-06 0 -4.7242143446871021e-06 1.6692920987792387e-06 0 -3.6812624792485912e-06 8.1532897970129218e-07 0 -5.0118357863543181e-06 2.2600666965068832e-06 0 -4.7242143446871021e-06 1.6692920987792387e-06 0 -4.1162417883909811e-06 1.3411506861351102e-06 0 -8.6747674047056832e-05 0.00018482877802583806 0 -9.197346042191447e-05 0.00021070405048910937 0 -0.00010290215660312875 0.00019367900080432892 0 -3.2715695768158258e-05 -8.5055684534851198e-05 0 -3.2923030761275081e-05 -9.7181667200290828e-05 0 -2.7119428150070697e-05 -8.7783108464450904e-05 0 -4.5877525397059251e-06 1.4788681491529129e-06 0 -6.0733368859072627e-06 1.4942233036362659e-06 0 -5.790650676568806e-06 2.4241950509428485e-06 0 -7.3238085422726166e-06 2.0859318746659178e-06 0 -5.7906506765688069e-06 2.4241950509428485e-06 0 -6.0733368859072627e-06 1.4942233036362659e-06 0 -4.5877525397059251e-06 1.4788681491529129e-06 0 -4.1162417883909811e-06 1.3411506861351102e-06 0 -3.3720692831978257e-06 8.587495058608121e-07 0 -1.5043644894745119e-05 -4.4852569302565827e-06 0 -1.5482199900064084e-05 -4.4076239324133732e-06 0 -1.1991092046989316e-05 -2.8850432423702142e-06 0 -1.6390644981664246e-05 -6.6706376146057526e-06 0 -1.9868405132731179e-05 -1.0304948139677727e-05 0 -1.6734821381819466e-05 -8.2654994741515032e-06 0 -1.9478062996792169e-05 -1.1982911218749108e-05 0 -1.6734821381819466e-05 -8.2654994741515032e-06 0 -1.9868405132731179e-05 -1.0304948139677727e-05 0 -1.5043644894745119e-05 -4.4852569302565827e-06 0 -1.1991092046989316e-05 -2.8850432423702142e-06 0 -1.1486262690302018e-05 -3.0456816278076369e-06 0 -2.9362483945967062e-05 6.0994877882330048e-05 0 -1.4201244212064572e-05 6.165752920149939e-05 0 -1.868115581719323e-05 8.3701644003411339e-05 0 -5.6922438458533595e-05 0.00019866108792207033 0 -5.7139862129091874e-05 0.00022370474414225893 0 -7.1491105113519136e-05 0.00021249353449230118 0 -4.5561316363192973e-05 -9.3241987770012089e-05 0 -4.6998236857012749e-05 -0.00010480113426793102 0 -4.0807307572025362e-05 -9.9155275848725855e-05 0 -9.3932613091696942e-06 -1.0164515143450183e-06 0 -7.3433828408933854e-06 -3.128825050688927e-07 0 -9.4278406278057577e-06 -1.4685989002144383e-06 0 -1.2792058492135536e-09 1.3093336314760399e-10 0 -8.7209107356578614e-07 2.4722741683733561e-07 0 -1.6750165262412814e-06 3.8577733486651065e-07 0 -8.9146041898720137e-06 6.8313815943260157e-06 0 -8.7201731404867004e-06 1.0324395135552145e-05 0 -1.1999368228162195e-05 1.0365711029774871e-05 0 -2.5834983985704414e-05 -2.4579674039823664e-05 0 -2.483202401149021e-05 -2.0557615258876181e-05 0 -2.8269353004412505e-05 -2.4975064948602537e-05 0 -2.7728987247526415e-05 -2.0551776345994287e-05 0 -2.883255842921167e-05 -1.8891927405608119e-05 0 -2.9875859276051362e-05 -2.2485624478159636e-05 0 -4.0631793000972252e-06 8.0818485306669532e-07 0 -5.4660200640053471e-06 5.7760509212620201e-07 0 -4.9668366661922988e-06 1.0163817677550932e-06 0 -4.5972372632548292e-05 -3.9803122355147584e-05 0 -5.365754348638684e-05 -4.8932523630241636e-05 0 -4.4798189188680537e-05 -4.7678959350440309e-05 0 -5.144044363007422e-05 -5.5544111757502492e-05 0 -4.4798189188680537e-05 -4.7678959350440309e-05 0 -5.365754348638684e-05 -4.8932523630241636e-05 0 -1.2745573549127061e-09 -3.8393416531504938e-11 0 -1.2792058492136125e-09 1.3093336314761184e-10 0 -1.081166408403686e-06 1.4403974671626958e-07 0 -7.7238426094634451e-05 0.00011579224779243751 0 -8.5362703076006635e-05 0.00010052486794497327 0 -6.7293680912352023e-05 9.805710451861532e-05 0 -6.9826893846010966e-05 7.9965770666324225e-05 0 -6.7293680912352023e-05 9.805710451861532e-05 0 -8.5362703076006635e-05 0.00010052486794497327 0 -3.9630582929687659e-05 -3.2665290466176658e-05 0 -3.8047981319357964e-05 -3.0576072013793705e-05 0 -4.035760833638049e-05 -3.204423388826661e-05 0 -2.8273230229770929e-05 -3.3208816782197552e-05 0 -2.6129073912648886e-05 -2.8992360230319644e-05 0 -2.7843110220645989e-05 -3.0979257617426153e-05 0 -1.5888660124549659e-05 9.1346286700692252e-06 0 -1.1397804632782471e-05 6.2454563839858367e-06 0 -1.1999368228162195e-05 1.0365711029774871e-05 0 -3.5939870463933222e-05 -3.0112025443759179e-05 0 -3.4130919025967429e-05 -2.9453790389520608e-05 0 -3.4468105762871967e-05 -2.7821707485098511e-05 0 -9.3138274841426969e-06 1.3018989731670067e-05 0 -9.9302918009479166e-06 1.6551321159141928e-05 0 -8.079575582480107e-06 1.6293407536820684e-05 0 -8.5701824617336977e-06 9.6272577526610802e-07 0 -6.6761846358047025e-06 1.2739478556993071e-06 0 -8.3425675576062057e-06 2.3636595296190413e-06 0 -2.9828404995812321e-05 1.8941763240262052e-05 0 -1.8442209952646361e-05 1.4942074604830921e-05 0 -2.453929441957603e-05 2.2470920505792955e-05 0 6.7475693390745866e-06 8.4366203152439043e-05 0 -7.5158732064107372e-06 0.00010106546845927142 0 -1.868115581719323e-05 8.3701644003411339e-05 0 -9.3932613091696942e-06 -1.0164515143450183e-06 0 -7.3592075096111459e-06 1.1274913007349062e-07 0 -7.3433828408933854e-06 -3.1288250506889254e-07 0 -5.6922438458533595e-05 0.00019866108792207033 0 -4.1441707509187574e-05 0.0002075037278728019 0 -5.7139862129091881e-05 0.00022370474414225891 0 -4.5561316363192973e-05 -9.3241987770012089e-05 0 -5.2602244401101505e-05 -9.7876109588713344e-05 0 -4.6998236857012749e-05 -0.00010480113426793102 0 -5.1065401652284169e-06 4.0416855746145069e-07 0 -6.3211239061071925e-06 -8.7212573550706346e-08 0 -7.3433828408933854e-06 -3.1288250506889254e-07 0 -1.817916744588846e-05 -8.5164575663349695e-06 0 -2.1868084638993671e-05 -1.0900275085157821e-05 0 -1.9784019725011472e-05 -7.0342868000127141e-06 0 -2.7086115251633393e-05 0.00018483531609927195 0 -1.1857516745850522e-05 0.00019043846044616169 0 -2.3128578813010118e-05 0.00020917393893632642 0 -5.7233833903801832e-05 -8.8245279003828876e-05 0 -6.4713008316204254e-05 -9.2095101558827095e-05 0 -6.0833868992058045e-05 -9.9653195797292689e-05 0 -2.8253148670975025e-05 -1.1077961264715167e-05 0 -3.360701225580386e-05 -1.408870257170866e-05 0 -2.7985612874687582e-05 -1.0921094862472523e-05 0 -5.2515784356429823e-05 2.0800586965663524e-05 0 -4.3077509168751738e-05 1.4832003711322695e-05 0 -4.1765964669119085e-05 1.4968271210847379e-05 0 -2.2795343418506219e-05 2.9696707328278636e-05 0 -2.6394109529066411e-05 4.2979374858634987e-05 0 -3.5916546405469962e-05 4.5981406039070692e-05 0 -1.2606967263877835e-05 -3.0327305050528225e-06 0 -1.5857674618293903e-05 -4.6926734962429887e-06 0 -1.4731846647190378e-05 -4.2983083898070079e-06 0 -4.3037841350162582e-05 -3.9286365004357634e-05 0 -4.133433824775347e-05 -3.6516621459402325e-05 0 -4.1548578805221433e-05 -3.4989242375332729e-05 0 -4.3037841350162582e-05 -3.9286365004357634e-05 0 -4.1548578805221433e-05 -3.4989242375332729e-05 0 -4.2920513426023331e-05 -3.7742212908157147e-05 0 -2.6905114224767097e-05 -3.0311677297605663e-05 0 -2.6146119050441058e-05 -2.7545679758780136e-05 0 -2.8334338283272396e-05 -3.3555112792286341e-05 0 -2.6905114224767097e-05 -3.0311677297605663e-05 0 -2.8334338283272396e-05 -3.3555112792286341e-05 0 -2.9212984881814494e-05 -3.5865689450001149e-05 0 -3.9630582929687659e-05 -3.2665290466176658e-05 0 -3.7010199997714278e-05 -3.1865427309436228e-05 0 -3.8047981319357964e-05 -3.0576072013793705e-05 0 -2.8273230229770929e-05 -3.3208816782197552e-05 0 -2.7843110220645989e-05 -3.0979257617426153e-05 0 -2.9479087472728147e-05 -3.3968055098757646e-05 0 -1.8367311731194212e-05 -1.6735820989185213e-05 0 -2.1787528753940819e-05 -2.16145408537883e-05 0 -2.0669277190212049e-05 -1.9697955099163777e-05 0 -3.8686408873407681e-05 -2.7609477168030328e-05 0 -4.0191730341867307e-05 -3.0846046772796196e-05 0 -3.7491560819631617e-05 -2.7148934347306094e-05 0 -6.1206411532879344e-06 2.9603489922014457e-06 0 -1.3677477846917833e-05 -3.4044456775375224e-06 0 -9.7055957550647275e-06 -5.1026348793598171e-06 0 -3.821804213227131e-05 0.0002328229921623888 0 -2.4423911246700574e-05 0.00024831801864956917 0 -4.2380491306212162e-05 0.00025469071104962263 0 -7.9945398940224491e-05 0.00023429407209494939 0 -7.6986756402655542e-05 0.00025553061610688222 0 -9.6467140134050993e-05 0.00025131686196249163 0 -5.5348563391180848e-05 -0.00010934079901713187 0 -6.2291613266713864e-05 -0.00011694395196254718 0 -5.421880978390712e-05 -0.00011880093177242242 0 -3.8852961781023848e-05 -0.00010915974267707543 0 -4.0679316829595628e-05 -0.00011862131854354864 0 -3.3817096578215469e-05 -0.00011570696351731653 0 -6.1615825641393254e-06 7.5462008584937601e-07 0 -4.9668366661922988e-06 1.0163817677550932e-06 0 -5.4660200640053471e-06 5.7760509212620201e-07 0 -3.821804213227131e-05 0.0002328229921623888 0 -1.891754347963197e-05 0.00022854011629848848 0 -2.442391124670057e-05 0.00024831801864956917 0 -5.5348563391180848e-05 -0.00010934079901713187 0 -6.399230448605492e-05 -0.00010874844762429711 0 -6.2291613266713864e-05 -0.00011694395196254718 0 -1.9597406062742915e-05 -2.2327038559834289e-06 0 -1.7601632830818424e-05 1.131329744818681e-06 0 -1.5652227785821464e-05 5.6630438911415116e-07 0 -7.9945398940224491e-05 0.00023429407209494939 0 -9.6467140134050993e-05 0.00025131686196249163 0 -0.00010036500879487471 0.00023203103708571265 0 -3.8852961781023848e-05 -0.00010915974267707543 0 -3.3817096578215469e-05 -0.00011570696351731653 0 -3.1337569974881971e-05 -0.00010653804025760319 0 -2.8554523971529005e-05 -5.2629629811071094e-05 0 -2.1836839777743708e-05 -4.5770778339021148e-05 0 -2.6337409072482121e-05 -4.0263869416972027e-05 0 -2.8710365991128755e-05 -1.3713185968132692e-05 0 -2.9293251504565565e-05 -1.5283101303935529e-05 0 -2.6438507547790742e-05 -1.0760040198271282e-05 0 -2.7128524573268279e-05 -1.2592897044789592e-05 0 -2.6438507547790742e-05 -1.0760040198271282e-05 0 -2.9293251504565565e-05 -1.5283101303935529e-05 0 -1.0464924302078823e-05 3.8770216992605197e-06 0 -1.1735385136622025e-05 2.5654614354102886e-06 0 -8.3425675576062057e-06 2.3636595296190413e-06 0 -5.1453290684580339e-05 9.4307866356914069e-05 0 -3.5471970770616142e-05 8.8010402739920819e-05 0 -4.2727215995640447e-05 0.00011140942444543586 0 -6.4478220433051656e-05 -5.6253763613489659e-05 0 -5.8483152680985323e-05 -5.8353247054899313e-05 0 -5.365754348638684e-05 -4.8932523630241636e-05 0 -1.1943194675951631e-05 1.5199392190394589e-05 0 -1.8442209952646361e-05 1.4942074604830921e-05 0 -1.1999368228162195e-05 1.0365711029774871e-05 0 -1.5888660124549659e-05 9.1346286700692252e-06 0 -1.1999368228162195e-05 1.0365711029774871e-05 0 -1.8442209952646361e-05 1.4942074604830921e-05 0 -5.9317513757506389e-06 3.4666978393731511e-06 0 -6.7503739981043516e-06 3.7041992728244197e-06 0 -6.9937654838579606e-06 5.5914401627540162e-06 0 -3.0514098785489571e-05 -2.5348356526458918e-05 0 -3.0758460363253967e-05 -2.7816021539743404e-05 0 -2.8269353004412505e-05 -2.4975064948602537e-05 0 -2.9395877813133386e-05 -2.8887353424414093e-05 0 -2.8269353004412505e-05 -2.4975064948602537e-05 0 -3.0758460363253967e-05 -2.7816021539743404e-05 0 -8.4162132829804418e-05 5.5002858284580742e-05 0 -7.3710623783058543e-05 4.0310242683299229e-05 0 -6.5673584946153451e-05 4.3260585984785308e-05 0 -4.4976183696527923e-05 -2.315961794533619e-05 0 -5.0581159783432947e-05 -2.9628052249203894e-05 0 -4.1810432697885295e-05 -2.4049988745401156e-05 0 -1.8912828899368931e-09 -3.1059472855808661e-10 0 -1.5979641250042867e-09 -2.3815222185135291e-10 0 -1.4999410697594832e-06 -4.0253862810317465e-07 0 -1.6687686931503947e-09 2.198930442268707e-10 0 -1.8667879235370588e-09 2.0446316451423751e-10 0 -1.6372763921638906e-06 3.6326384158984039e-07 0 -8.9146041898720137e-06 6.8313815943260157e-06 0 -6.70264497942756e-06 4.5309219411064923e-06 0 -7.5386867864889198e-06 6.8644958761151287e-06 0 -7.9187622265111288e-06 5.0292688902084759e-06 0 -6.9937654838579606e-06 5.5914401627540162e-06 0 -6.7503739981043516e-06 3.7041992728244197e-06 0 -5.9317513757506389e-06 3.4666978393731511e-06 0 -6.70264497942756e-06 4.5309219411064915e-06 0 -5.7783822032339983e-06 3.1250176271958923e-06 0 -1.149745569483286e-05 9.4386063301780781e-07 0 -1.5502170560787216e-05 2.4522186066124573e-06 0 -1.2055596040553035e-05 1.660339937156402e-06 0 -8.9621488994648845e-06 -1.768886261380438e-06 0 -8.8729085296581634e-06 -2.3263716349120445e-06 0 -1.1486262690302018e-05 -3.0456816278076369e-06 0 -2.3385777729725782e-05 0.00010937738559566642 0 -1.868115581719323e-05 8.3701644003411339e-05 0 -7.5158732064107372e-06 0.00010106546845927142 0 -1.149745569483286e-05 9.4386063301780781e-07 0 -1.2055596040553033e-05 1.6603399371564018e-06 0 -8.8662773583949515e-06 4.6695872199121041e-07 0 -8.9621488994648845e-06 -1.768886261380438e-06 0 -6.7948526613691048e-06 -1.2952728596840355e-06 0 -8.8729085296581634e-06 -2.3263716349120445e-06 0 -3.4676267346831093e-05 -2.5297495272693525e-05 0 -3.6185554696383532e-05 -2.7713849722301938e-05 0 -3.4468105762871967e-05 -2.7821707485098511e-05 0 -2.9362483945967062e-05 6.0994877882330048e-05 0 -1.7857701036572632e-05 3.902414695583293e-05 0 -1.4201244212064572e-05 6.165752920149939e-05 0 -6.2325771837041726e-06 2.3339415137860448e-06 0 -5.7783822032339983e-06 3.1250176271958923e-06 0 -6.70264497942756e-06 4.5309219411064923e-06 0 -2.5834983985704414e-05 -2.4579674039823664e-05 0 -2.3134411382148533e-05 -2.1990624542032315e-05 0 -2.483202401149021e-05 -2.0557615258876181e-05 0 -2.9678411299239315e-09 -2.7062505438182603e-10 0 -2.344881185109621e-09 -4.5090864714609333e-10 0 -2.2886950829445831e-06 -6.419422907555529e-07 0 -2.1404740305187718e-09 1.9924936301204821e-10 0 -2.5012666680381983e-09 2.8931296762267839e-11 0 -2.0586535531650514e-06 1.7376588605694759e-07 0 -1.8429024969368752e-05 -6.9675883448573338e-06 0 -2.3274585825910888e-05 -8.7668524438676491e-06 0 -1.9016940875023009e-05 -6.4647740993405857e-06 0 -3.4543930852278665e-05 1.0733209524867336e-05 0 -2.6690295841232395e-05 7.9780067752611862e-06 0 -2.7804246054440644e-05 7.2788927961330634e-06 0 -2.6825239159255261e-05 -1.9586584290629313e-05 0 -2.9296088653370556e-05 -1.7646375048938466e-05 0 -3.1988284643570873e-05 -2.2780450252947589e-05 0 -1.5544851761343154e-05 -3.9257331982137209e-05 0 -2.0525850435626957e-05 -3.554392560033441e-05 0 -2.1836839777743705e-05 -4.5770778339021141e-05 0 -1.6803595217391374e-05 -3.066699210946551e-06 0 -1.670216182507225e-05 -5.351881315286672e-06 0 -1.9784019725011472e-05 -7.0342868000127141e-06 0 -9.0441006614774091e-06 1.1941856201067986e-06 0 -8.8778027294711375e-06 3.216811576047006e-06 0 -7.3238085422726166e-06 2.0859318746659178e-06 0 -1.073177372678049e-05 1.4009721991406785e-06 0 -8.8778027294711375e-06 3.216811576047006e-06 0 -9.0441006614774091e-06 1.1941856201067986e-06 0 -7.7904938265143976e-06 8.3969227387875993e-06 0 -8.7201731404867004e-06 1.0324395135552145e-05 0 -7.5386867864889198e-06 6.8644958761151287e-06 0 -8.9146041898720137e-06 6.8313815943260157e-06 0 -7.5386867864889198e-06 6.8644958761151278e-06 0 -8.7201731404867004e-06 1.0324395135552145e-05 0 -2.9346753326105035e-05 -3.1533738525986064e-05 0 -3.1156714758296011e-05 -3.3720425279702624e-05 0 -2.9479087472728147e-05 -3.3968055098757646e-05 0 -3.3887490660886449e-05 -1.9750072743145772e-05 0 -3.1715712629977839e-05 -1.7791987805574391e-05 0 -3.0434689884478859e-05 -1.5741476440356711e-05 0 -1.817916744588846e-05 -8.5164575663349695e-06 0 -1.8845119968331063e-05 -1.2120391900161106e-05 0 -2.1868084638993671e-05 -1.0900275085157821e-05 0 -1.9688728052786311e-05 -1.613551778213716e-05 0 -2.1868084638993671e-05 -1.0900275085157821e-05 0 -1.8845119968331063e-05 -1.2120391900161106e-05 0 -1.3812864894281158e-05 -5.5267955581808538e-06 0 -1.8429024969368752e-05 -6.9675883448573338e-06 0 -1.5617374883749985e-05 -5.3458803511887388e-06 0 -2.6690295841232395e-05 7.9780067752611862e-06 0 -1.9535000117731022e-05 6.0396540976065414e-06 0 -2.2367677006460564e-05 5.6291739390886401e-06 0 -3.251909510207665e-05 -3.732942214985535e-05 0 -3.0993380681387827e-05 -3.7906509773647719e-05 0 -3.195447727357148e-05 -3.5793844007470759e-05 0 -1.8442209952646361e-05 1.4942074604830921e-05 0 -1.7275426112429802e-05 2.0027503650986656e-05 0 -2.453929441957603e-05 2.2470920505792955e-05 0 -4.5877525397059251e-06 1.4788681491529129e-06 0 -5.0118357863543181e-06 2.2600666965068832e-06 0 -4.1162417883909811e-06 1.3411506861351102e-06 0 -5.0044750938608195e-06 -2.6713239759518051e-07 0 -7.7036551702062485e-06 -7.0468009549887462e-08 0 -8.8662773583949515e-06 4.6695872199121041e-07 0 -3.9164920564568452e-06 -4.4548452000420952e-07 0 -6.7948526613691057e-06 -1.2952728596840355e-06 0 -6.2103272988624424e-06 -8.1186674573221348e-07 0 -5.1065401652284169e-06 4.0416855746145069e-07 0 -5.0224922271585667e-06 2.2892414337586368e-07 0 -6.3211239061071933e-06 -8.7212573550706346e-08 0 -1.6803595217391374e-05 -3.066699210946551e-06 0 -1.8181855015506385e-05 -2.4320130831342347e-06 0 -1.5652227785821464e-05 5.6630438911415116e-07 0 -2.6042952603599503e-05 -2.796717964471029e-05 0 -2.7177545207885753e-05 -2.7837009539702932e-05 0 -2.7843110220645989e-05 -3.0979257617426153e-05 0 -7.5104757791231381e-06 -6.1695363010150262e-07 0 -6.3211239061071933e-06 -8.7212573550706307e-08 0 -5.0224922271585667e-06 2.2892414337586368e-07 0 -0.00011691566480325701 0.00016330673450271516 0 -9.2995119637269614e-05 0.00015031605587397778 0 -9.9534342562494849e-05 0.00017268448222793807 0 -1.817911322034901e-05 -7.1170249674528093e-05 0 -2.6661178963451241e-05 -6.7940819169459536e-05 0 -2.6396976850283727e-05 -7.7953538183878854e-05 0 -1.6864278262673919e-05 -6.0328934487214473e-05 0 -2.380484814044817e-05 -5.7410638602418465e-05 0 -2.6661178963451241e-05 -6.7940819169459536e-05 0 -2.4027728245069539e-05 -8.263443613699147e-06 0 -2.1648664390558222e-05 -4.2726574404391717e-06 0 -2.3348351035653003e-05 -6.9173207024886581e-06 0 -3.3887490660886449e-05 -1.9750072743145772e-05 0 -3.4249469020276349e-05 -2.1169088198479248e-05 0 -3.1715712629977846e-05 -1.7791987805574394e-05 0 -9.3932613091696942e-06 -1.0164515143450183e-06 0 -1.2247038540546891e-05 -3.0847533215572508e-06 0 -1.075442384329391e-05 -1.332790069119509e-06 0 -1.9597406062742915e-05 -2.2327038559834289e-06 0 -1.5652227785821464e-05 5.6630438911415116e-07 0 -1.8181855015506385e-05 -2.4320130831342347e-06 0 -3.1843563662809755e-06 0.00024427962097732519 0 -1.6674119307807587e-05 0.00025751526088196131 0 -2.442391124670057e-05 0.00024831801864956917 0 -7.2357855533911739e-05 -0.00011805731732828269 0 -6.6367975979051452e-05 -0.0001218967934267038 0 -6.2291613266713864e-05 -0.00011694395196254718 0 -2.5538478227370849e-05 -0.00011320024053528013 0 -3.3817096578215469e-05 -0.00011570696351731653 0 -3.0970429890206742e-05 -0.000119448949364054 0 -0.00012001431478162696 0.00025387769134207691 0 -9.6467140134050993e-05 0.00025131686196249163 0 -0.00010599210944827035 0.00026289972147184595 0 -1.1220282790289711e-05 -3.8446775502853332e-07 0 -9.0218198096941909e-06 3.0437233446497557e-08 0 -1.075442384329391e-05 -1.332790069119509e-06 0 -9.3932613091696942e-06 -1.0164515143450183e-06 0 -1.075442384329391e-05 -1.332790069119509e-06 0 -9.0218198096941909e-06 3.0437233446497557e-08 0 -1.4720830496121973e-05 -6.196984750891764e-06 0 -1.224703854054689e-05 -3.0847533215572503e-06 0 -1.2805240480529956e-05 -4.0789554471744804e-06 0 -4.0545669847889307e-05 1.7112370570979411e-05 0 -4.1765964669119085e-05 1.4968271210847379e-05 0 -3.1475113021106477e-05 1.0552926861004306e-05 0 -3.3876660357775764e-05 1.0041976142986423e-05 0 -3.1475113021106477e-05 1.0552926861004306e-05 0 -4.1765964669119085e-05 1.4968271210847379e-05 0 -1.5888660124549659e-05 9.1346286700692252e-06 0 -1.9186875898134312e-05 7.9180977888781026e-06 0 -1.3983367692820852e-05 5.3478513989001243e-06 0 -1.6390644981664246e-05 -6.6706376146057526e-06 0 -1.2837782958493811e-05 -3.8485055246855874e-06 0 -1.3962934464802211e-05 -4.2053656342016591e-06 0 -1.817916744588846e-05 -8.5164575663349695e-06 0 -1.7126418064600176e-05 -9.66136225610888e-06 0 -1.8845119968331063e-05 -1.2120391900161106e-05 0 -8.9621488994648845e-06 -1.768886261380438e-06 0 -7.1755495066033907e-06 -8.1787749338003269e-07 0 -6.2103272988624424e-06 -8.1186674573221348e-07 0 -4.3098346906740274e-06 -1.669062821558144e-07 0 -6.2103272988624424e-06 -8.1186674573221348e-07 0 -7.1755495066033915e-06 -8.1787749338003279e-07 0 -5.0087763400210246e-06 -5.8052859274164495e-07 0 -8.1328539988734145e-06 5.5122989102528345e-08 0 -7.7036551702062485e-06 -7.0468009549887343e-08 0 -1.149745569483286e-05 9.4386063301780781e-07 0 -7.7036551702062485e-06 -7.0468009549887475e-08 0 -8.1328539988734145e-06 5.5122989102528345e-08 0 -5.144044363007422e-05 -5.5544111757502492e-05 0 -5.6717759220929397e-05 -6.6061381315547405e-05 0 -4.8582650545598765e-05 -6.1430036955596962e-05 0 -4.9870651914515923e-05 -7.0774816999007005e-05 0 -4.8582650545598765e-05 -6.1430036955596962e-05 0 -5.6717759220929397e-05 -6.6061381315547405e-05 0 -2.0545648710089399e-06 -6.3044128307569401e-07 0 -1.4999410697594832e-06 -4.0253862810317465e-07 0 -3.5011043805698529e-06 -4.066949463143245e-07 0 -2.448571515870247e-06 -2.258941286804094e-07 0 -3.5011043805698529e-06 -4.066949463143245e-07 0 -1.4999410697594832e-06 -4.0253862810317465e-07 0 -2.9180331863564426e-06 4.8405746906649742e-07 0 -1.6372763921638906e-06 3.6326384158984039e-07 0 -3.5501755437618149e-06 3.4673057416766821e-07 0 -2.0242474819426988e-06 3.1337217711791457e-07 0 -3.5501755437618149e-06 3.4673057416766821e-07 0 -1.6372763921638906e-06 3.6326384158984039e-07 0 -5.6922438458533595e-05 0.00019866108792207033 0 -4.3043224972298319e-05 0.00018528286844896239 0 -4.1441707509187574e-05 0.0002075037278728019 0 -4.5561316363192973e-05 -9.3241987770012089e-05 0 -5.0315194906390352e-05 -8.768149897204481e-05 0 -5.2602244401101505e-05 -9.7876109588713344e-05 0 -8.6387681276879639e-06 -1.2140140016103211e-06 0 -6.6836755733730141e-06 -5.1887279725093978e-07 0 -7.1755495066033915e-06 -8.1787749338003279e-07 0 -8.5701824617336977e-06 9.6272577526610802e-07 0 -8.1328539988734145e-06 5.5122989102528345e-08 0 -6.7439638242303652e-06 1.2372224781432122e-07 0 -1.6390644981664246e-05 -6.6706376146057526e-06 0 -1.6734821381819466e-05 -8.2654994741515032e-06 0 -1.4149231583303322e-05 -5.3340038895898247e-06 0 -8.9621488994648845e-06 -1.768886261380438e-06 0 -1.0110139585132091e-05 -1.9166490275832737e-06 0 -7.1755495066033915e-06 -8.1787749338003279e-07 0 -1.149745569483286e-05 9.4386063301780781e-07 0 -8.1328539988734145e-06 5.5122989102528345e-08 0 -1.1767790887560232e-05 1.2322410656726119e-06 0 -1.9688728052786311e-05 -1.613551778213716e-05 0 -2.4388252004579084e-05 -1.2084882941525625e-05 0 -2.1868084638993671e-05 -1.0900275085157821e-05 0 -9.3932613091696942e-06 -1.0164515143450183e-06 0 -1.0910293164512788e-05 -2.3983753847987227e-06 0 -1.2247038540546891e-05 -3.0847533215572508e-06 0 -3.2897586399347943e-09 -7.1365710110858374e-10 0 -2.9678411299239315e-09 -2.7062505438182603e-10 0 -2.4418541534555499e-06 -4.7479992444087946e-07 0 -2.5012666680381983e-09 2.8931296762267839e-11 0 -2.6009026115137441e-09 2.6007604489077623e-10 0 -2.0248229679062923e-06 -4.8219572684003942e-09 0 -1.1943194675951631e-05 1.5199392190394589e-05 0 -1.1999368228162195e-05 1.0365711029774871e-05 0 -8.7201731404867004e-06 1.0324395135552145e-05 0 -3.2741346145540085e-05 -3.3504179249553903e-05 0 -3.3498318900467452e-05 -3.5354710284674976e-05 0 -3.195447727357148e-05 -3.5793844007470759e-05 0 -1.6390644981664246e-05 -6.6706376146057526e-06 0 -1.7209525952152721e-05 -6.2933339974495601e-06 0 -2.0310539004220574e-05 -9.0419696078940581e-06 0 -2.6337409072482121e-05 -4.0263869416972027e-05 0 -2.1836839777743705e-05 -4.5770778339021141e-05 0 -2.0525850435626957e-05 -3.554392560033441e-05 0 -1.1220282790289711e-05 -3.8446775502853332e-07 0 -9.0441006614774091e-06 1.1941856201067986e-06 0 -9.0218198096941909e-06 3.0437233446497557e-08 0 -1.4419997534329807e-05 -4.2322067650916589e-06 0 -1.2509667360679593e-05 -2.3181900372712702e-06 0 -1.2247038540546891e-05 -3.0847533215572508e-06 0 -7.9184297884668697e-06 9.398466000407437e-07 0 -1.169299979308991e-05 2.8890470489758059e-06 0 -5.6340774309005676e-06 1.3811045040473873e-06 0 -5.855310668571587e-06 -1.5211039076783716e-06 0 -4.0988964521866201e-06 -1.5480085722250895e-06 0 -8.4195644111635328e-06 -3.0746664342871357e-06 0 -1.9478062996792169e-05 -1.1982911218749108e-05 0 -1.9396294386712045e-05 -1.3975063456223143e-05 0 -1.7126418064600176e-05 -9.66136225610888e-06 0 -7.3238085422726166e-06 2.0859318746659178e-06 0 -7.2636843758513547e-06 9.3095234526264871e-07 0 -9.0441006614774091e-06 1.1941856201067986e-06 0 -1.1636339049903379e-05 -3.0985434263160083e-06 0 -1.2837782958493813e-05 -3.8485055246855874e-06 0 -1.4149231583303322e-05 -5.3340038895898247e-06 0 -2.755181240833918e-05 -1.149949956370627e-05 0 -2.8879601575384243e-05 -1.4222634549285303e-05 0 -2.4018175232813736e-05 -1.0634746279686651e-05 0 -0.00011358022614084802 0.00013942788614452215 0 -9.3854811706317191e-05 0.00012873763478117597 0 -9.2995119637269614e-05 0.00015031605587397778 0 -1.9478062996792169e-05 -1.1982911218749108e-05 0 -1.9868405132731179e-05 -1.0304948139677727e-05 0 -2.3271362842684946e-05 -1.4232673508617789e-05 0 -2.3348351035653003e-05 -6.9173207024886581e-06 0 -2.6438507547790742e-05 -1.0760040198271282e-05 0 -2.5260456026986391e-05 -9.7040476602189913e-06 0 -1.6390644981664246e-05 -6.6706376146057526e-06 0 -2.0310539004220574e-05 -9.0419696078940581e-06 0 -1.9868405132731179e-05 -1.0304948139677727e-05 0 -9.0218198096941909e-06 3.0437233446497557e-08 0 -9.0441006614774091e-06 1.1941856201067986e-06 0 -7.2636843758513547e-06 9.3095234526264871e-07 0 -2.8710365991128755e-05 -1.3713185968132692e-05 0 -3.0434689884478859e-05 -1.5741476440356711e-05 0 -3.1715712629977846e-05 -1.7791987805574394e-05 0 -1.1943194675951631e-05 1.5199392190394589e-05 0 -8.079575582480107e-06 1.6293407536820684e-05 0 -1.2274251818815921e-05 2.2257809470166756e-05 0 -1.6390644981664246e-05 -6.6706376146057526e-06 0 -1.3962934464802211e-05 -4.2053656342016591e-06 0 -1.7209525952152721e-05 -6.2933339974495601e-06 0 -0.00011893725446257622 0.00018701255963446401 0 -0.00011691566480325701 0.00016330673450271516 0 -9.9534342562494849e-05 0.00017268448222793807 0 -1.817911322034901e-05 -7.1170249674528093e-05 0 -2.6396976850283727e-05 -7.7953538183878854e-05 0 -1.9834076831721825e-05 -8.221135251166095e-05 0 -1.5910817165822112e-05 -4.9708698174322621e-05 0 -2.380484814044817e-05 -5.7410638602418465e-05 0 -1.6864278262673919e-05 -6.0328934487214473e-05 0 -2.9828404995812321e-05 1.8941763240262052e-05 0 -4.122188406238465e-05 2.2513408209250608e-05 0 -3.3733638456767588e-05 1.5529088049343095e-05 0 -6.1206411532879344e-06 2.9603489922014457e-06 0 -1.3219514039253974e-05 8.779400910097775e-06 0 -1.3677477846917833e-05 -3.4044456775375224e-06 0 -2.755181240833918e-05 -1.149949956370627e-05 0 -2.7985612874687582e-05 -1.0921094862472523e-05 0 -3.2172605648544306e-05 -1.3656340332420214e-05 0 -4.0545669847889307e-05 1.7112370570979411e-05 0 -4.9157085239401357e-05 2.0267727474510886e-05 0 -4.1765964669119085e-05 1.4968271210847379e-05 0 -2.755181240833918e-05 -1.149949956370627e-05 0 -3.2172605648544306e-05 -1.3656340332420214e-05 0 -3.3599903495528387e-05 -1.5728289610779669e-05 0 -4.0545669847889307e-05 1.7112370570979411e-05 0 -5.0876777423773244e-05 2.4863468005609939e-05 0 -4.9157085239401357e-05 2.0267727474510886e-05 0 -5.855310668571587e-06 -1.5211039076783716e-06 0 -2.8680464662044772e-06 -5.8163372491661915e-07 0 -4.0988964521866201e-06 -1.5480085722250895e-06 0 -7.9184297884668697e-06 9.398466000407437e-07 0 -5.6340774309005676e-06 1.3811045040473873e-06 0 -3.8388721892216537e-06 1.34712402309773e-07 0 -1.4419997534329807e-05 -4.2322067650916589e-06 0 -1.596296375590617e-05 -6.8859028259890702e-06 0 -1.670216182507225e-05 -5.351881315286672e-06 0 -1.817916744588846e-05 -8.5164575663349695e-06 0 -1.670216182507225e-05 -5.351881315286672e-06 0 -1.596296375590617e-05 -6.8859028259890702e-06 0 -4.0191730341867307e-05 -3.0846046772796196e-05 0 -3.9654875187647529e-05 -3.03677110708776e-05 0 -3.7491560819631617e-05 -2.7148934347306094e-05 0 -2.0669277190212049e-05 -1.9697955099163777e-05 0 -2.1787528753940819e-05 -2.16145408537883e-05 0 -2.3634767317505864e-05 -2.4632796688046599e-05 0 -9.7055957550647275e-06 -5.1026348793598171e-06 0 -1.3677477846917833e-05 -3.404445677537522e-06 0 -1.4928126741704017e-05 -9.7813327317433994e-06 0 -1.8367311731194212e-05 -1.6735820989185213e-05 0 -1.9343654859626789e-05 -1.7846922320976725e-05 0 -2.1787528753940819e-05 -2.16145408537883e-05 0 -3.8686408873407681e-05 -2.7609477168030328e-05 0 -3.7491560819631617e-05 -2.7148934347306094e-05 0 -3.6115845271232771e-05 -2.4337423047617951e-05 0 -1.6390644981664246e-05 -6.6706376146057526e-06 0 -1.4149231583303322e-05 -5.3340038895898247e-06 0 -1.2837782958493811e-05 -3.8485055246855874e-06 0 -1.4720830496121973e-05 -6.196984750891764e-06 0 -1.7126418064600176e-05 -9.66136225610888e-06 0 -1.596296375590617e-05 -6.8859028259890702e-06 0 -1.817916744588846e-05 -8.5164575663349695e-06 0 -1.596296375590617e-05 -6.8859028259890702e-06 0 -1.7126418064600176e-05 -9.66136225610888e-06 0 -1.1220282790289711e-05 -3.8446775502853332e-07 0 -1.415514286090766e-05 -2.5371224113588568e-06 0 -1.3445699245911042e-05 -8.7301576778253747e-08 0 -0.00011358022614084802 0.00013942788614452215 0 -0.00010859211768335277 0.00011577804332177256 0 -9.3854811706317191e-05 0.00012873763478117597 0 -1.9597406062742915e-05 -2.2327038559834289e-06 0 -1.8181855015506385e-05 -2.4320130831342343e-06 0 -2.0683401386533486e-05 -5.1730677087956678e-06 0 -2.2795343418506219e-05 2.9696707328278636e-05 0 -1.7275426112429802e-05 2.0027503650986656e-05 0 -1.2274251818815921e-05 2.2257809470166756e-05 0 -1.1943194675951631e-05 1.5199392190394589e-05 0 -1.2274251818815921e-05 2.2257809470166756e-05 0 -1.7275426112429802e-05 2.0027503650986656e-05 0 -1.5544851761343154e-05 -3.9257331982137209e-05 0 -2.1836839777743705e-05 -4.5770778339021141e-05 0 -1.5910817165822112e-05 -4.9708698174322621e-05 0 -6.287546331564095e-05 2.8891631766864648e-05 0 -4.9157085239401357e-05 2.0267727474510886e-05 0 -5.0876777423773244e-05 2.4863468005609939e-05 0 -3.9234766029172424e-05 -1.7982769647608393e-05 0 -3.359990349552838e-05 -1.5728289610779669e-05 0 -3.2172605648544306e-05 -1.3656340332420214e-05 0 -1.6803595217391374e-05 -3.066699210946551e-06 0 -2.0683401386533486e-05 -5.173067708795667e-06 0 -1.8181855015506385e-05 -2.4320130831342347e-06 0 -7.0471171779890493e-05 0.00014940432877403402 0 -9.2995119637269614e-05 0.00015031605587397778 0 -7.9216216288420464e-05 0.00013258245079816858 0 -7.0471171779890493e-05 0.00014940432877403402 0 -8.3933361705835677e-05 0.00016562249203520211 0 -9.2995119637269614e-05 0.00015031605587397778 0 -3.5087662857948887e-05 -6.9267822231196594e-05 0 -3.1788679633225953e-05 -7.5890644527379364e-05 0 -2.6661178963451241e-05 -6.7940819169459536e-05 0 -3.5087662857948887e-05 -6.9267822231196594e-05 0 -2.6661178963451241e-05 -6.7940819169459523e-05 0 -2.9928156075560671e-05 -6.1640190180281895e-05 0 -1.9834076831721825e-05 -8.221135251166095e-05 0 -2.7119428150070697e-05 -8.7783108464450904e-05 0 -2.1873090763889198e-05 -9.3300790711807626e-05 0 -0.00011978760512323533 0.0002101954163656785 0 -0.00011893725446257622 0.00018701255963446401 0 -0.00010290215660312875 0.00019367900080432892 0 -5.2782954710825587e-06 -4.3281345628477353e-08 0 -4.3031552575630655e-06 6.3899076709914228e-08 0 -6.6836755733730141e-06 -5.1887279725093988e-07 0 -4.958053279376942e-06 -2.6620436360609722e-07 0 -6.7439638242303652e-06 1.2372224781432122e-07 0 -4.3045192696208908e-06 -6.5644289081094534e-07 0 -3.5087662857948887e-05 -6.9267822231196594e-05 0 -4.0778897855913507e-05 -7.0216056055699287e-05 0 -3.7747793792158404e-05 -7.8813552129879013e-05 0 -3.5087662857948887e-05 -6.9267822231196594e-05 0 -3.520053744363328e-05 -6.0692591428154776e-05 0 -4.0778897855913507e-05 -7.0216056055699287e-05 0 -4.5061643656126737e-05 -8.0793133307511145e-05 0 -3.7747793792158404e-05 -7.8813552129879013e-05 0 -4.0778897855913507e-05 -7.0216056055699287e-05 0 -4.1827616356665628e-05 -6.0822006385648244e-05 0 -4.0778897855913507e-05 -7.0216056055699287e-05 0 -3.520053744363328e-05 -6.0692591428154776e-05 0 -7.0471171779890493e-05 0.00014940432877403402 0 -5.5534877165219197e-05 0.00015072783320082574 0 -7.0273895245112183e-05 0.00017089816238015281 0 -5.2680915550646246e-05 0.0001704924339011514 0 -7.0273895245112183e-05 0.00017089816238015281 0 -5.5534877165219197e-05 0.00015072783320082574 0 -2.5012666680381983e-09 2.8931296762267839e-11 0 -2.0248229679062923e-06 -4.8219572684003942e-09 0 -2.0586535531650514e-06 1.7376588605694759e-07 0 -2.9678411299239315e-09 -2.7062505438182603e-10 0 -2.2886950829445831e-06 -6.419422907555529e-07 0 -2.4418541534555499e-06 -4.7479992444087946e-07 0 -4.4573473783981484e-05 -3.1162025735614111e-05 0 -3.6799737902686109e-05 -2.3564316727831188e-05 0 -4.1810432697885295e-05 -2.4049988745401156e-05 0 -6.8973948630256465e-05 5.8584241364658085e-05 0 -6.5673584946153451e-05 4.3260585984785308e-05 0 -5.5381798326740561e-05 4.1828958247705916e-05 0 -1.9284539670262567e-05 -6.3668226639018863e-06 0 -2.3956735389216277e-05 -8.9035651530887943e-06 0 -2.2490632313034353e-05 -8.5863685828195512e-06 0 -6.1615825641393254e-06 7.5462008584937601e-07 0 -7.3592075096111459e-06 1.127491300734907e-07 0 -7.2636843758513547e-06 9.3095234526264871e-07 0 -3.0610839896551701e-05 -3.545451504653256e-05 0 -2.9479087472728147e-05 -3.3968055098757646e-05 0 -3.1156714758296011e-05 -3.3720425279702624e-05 0 -2.097801100703461e-05 4.4257242223482938e-06 0 -2.5234275367525077e-05 6.1762915797252962e-06 0 -2.7804246054440644e-05 7.2788927961330634e-06 0 -3.3876660357775764e-05 1.0041976142986423e-05 0 -2.7804246054440644e-05 7.2788927961330634e-06 0 -2.5234275367525077e-05 6.1762915797252962e-06 0 -3.6812624792485912e-06 8.1532897970129218e-07 0 -3.3684761020888126e-06 1.7601574040965178e-07 0 -2.5329105476901745e-06 1.1401656077617171e-07 0 -1.3030158283080259e-05 -9.9691827736411814e-06 0 -1.7889358897528417e-05 -1.4811678419114786e-05 0 -1.5756784032723028e-05 -1.3506917686273166e-05 0 -3.9234766029172424e-05 -1.7982769647608393e-05 0 -3.891538988318615e-05 -1.9846824566152695e-05 0 -3.3599903495528387e-05 -1.5728289610779669e-05 0 -6.287546331564095e-05 2.8891631766864648e-05 0 -5.0876777423773244e-05 2.4863468005609939e-05 0 -6.0990800906234525e-05 3.3236609378150505e-05 0 -2.588485681198578e-05 -1.3469399737422036e-05 0 -2.6985625936012721e-05 -1.2113266205582091e-05 0 -2.4388252004579084e-05 -1.2084882941525625e-05 0 -1.149745569483286e-05 9.4386063301780781e-07 0 -1.1767790887560232e-05 1.2322410656726119e-06 0 -1.682962840538517e-05 2.7814393807173932e-06 0 -1.459656813185009e-05 2.8323633167134051e-06 0 -1.682962840538517e-05 2.7814393807173936e-06 0 -1.1767790887560232e-05 1.2322410656726119e-06 0 -2.9362483945967062e-05 6.0994877882330048e-05 0 -2.6394109529066415e-05 4.2979374858634987e-05 0 -1.7857701036572632e-05 3.902414695583293e-05 0 -2.6690295841232395e-05 7.9780067752611862e-06 0 -2.2367677006460564e-05 5.6291739390886401e-06 0 -2.7804246054440644e-05 7.2788927961330634e-06 0 -1.8429024969368752e-05 -6.9675883448573338e-06 0 -1.9016940875023009e-05 -6.4647740993405857e-06 0 -1.5617374883749985e-05 -5.3458803511887388e-06 0 -3.0514098785489571e-05 -2.5348356526458918e-05 0 -2.9875859276051362e-05 -2.2485624478159636e-05 0 -3.25209763918627e-05 -2.5372529584395234e-05 0 -3.153029821516194e-05 -2.2240787063429995e-05 0 -3.25209763918627e-05 -2.5372529584395234e-05 0 -2.9875859276051362e-05 -2.2485624478159636e-05 0 -1.1220282790289711e-05 -3.8446775502853332e-07 0 -1.073177372678049e-05 1.4009721991406785e-06 0 -9.0441006614774091e-06 1.1941856201067986e-06 0 -1.5888660124549659e-05 9.1346286700692252e-06 0 -1.3983367692820854e-05 5.3478513989001234e-06 0 -1.1397804632782471e-05 6.2454563839858367e-06 0 -5.9317513757506389e-06 3.4666978393731511e-06 0 -5.790650676568806e-06 2.4241950509428485e-06 0 -6.7503739981043516e-06 3.7041992728244197e-06 0 -2.2795343418506219e-05 2.9696707328278636e-05 0 -1.7857701036572632e-05 3.902414695583293e-05 0 -2.6394109529066411e-05 4.2979374858634987e-05 0 -2.755181240833918e-05 -1.149949956370627e-05 0 -2.4018175232813736e-05 -1.0634746279686651e-05 0 -2.2490632313034353e-05 -8.5863685828195512e-06 0 -1.1636339049903379e-05 -3.0985434263160083e-06 0 -9.4278406278057577e-06 -1.4685989002144383e-06 0 -9.8530020335146788e-06 -1.8020107446485741e-06 0 6.7475693390745866e-06 8.4366203152439043e-05 0 7.5629962811208189e-06 0.00010773094385828737 0 -7.5158732064107372e-06 0.00010106546845927142 0 -6.7596142636210888e-05 -6.6823488108050025e-05 0 -5.6717759220929397e-05 -6.6061381315547405e-05 0 -5.8483152680985323e-05 -5.8353247054899313e-05 0 -6.287546331564095e-05 2.8891631766864648e-05 0 -5.2515784356429823e-05 2.0800586965663524e-05 0 -4.9157085239401357e-05 2.0267727474510886e-05 0 -3.360701225580386e-05 -1.408870257170866e-05 0 -3.9234766029172424e-05 -1.7982769647608393e-05 0 -3.2172605648544306e-05 -1.3656340332420214e-05 0 -1.5652227785821464e-05 5.6630438911415116e-07 0 -1.7601632830818424e-05 1.131329744818681e-06 0 -1.3473961631668359e-05 4.2366623645807858e-06 0 -1.149745569483286e-05 9.4386063301780781e-07 0 -1.682962840538517e-05 2.7814393807173932e-06 0 -1.5502170560787216e-05 2.4522186066124573e-06 0 -2.097801100703461e-05 4.4257242223482938e-06 0 -1.5502170560787216e-05 2.4522186066124573e-06 0 -1.682962840538517e-05 2.7814393807173932e-06 0 -7.7904938265143976e-06 8.3969227387875993e-06 0 -8.2509086154327801e-06 1.1673006220023736e-05 0 -8.7201731404867004e-06 1.0324395135552145e-05 0 -5.9539593840210763e-05 -7.7584166573104683e-05 0 -5.6717759220929397e-05 -6.6061381315547405e-05 0 -6.3457745761196855e-05 -7.2159178177990345e-05 0 -3.4185826781964085e-05 -2.2136687252538965e-05 0 -3.3108573236389111e-05 -2.2120077868325765e-05 0 -3.1915255511766464e-05 -1.9050329768298134e-05 0 4.1583586064977698e-06 0.0001778762464288648 0 1.7470531619908604e-06 0.00020099456588533517 0 -1.1857516745850522e-05 0.00019043846044616169 0 -7.1433754804820079e-05 -8.8404606109689364e-05 0 -7.2139354172923338e-05 -9.8842593026350045e-05 0 -6.4713008316204254e-05 -9.2095101558827095e-05 0 -2.9828404995812321e-05 1.8941763240262052e-05 0 -2.1678446017877364e-05 1.2499020800034928e-05 0 -1.8442209952646361e-05 1.4942074604830921e-05 0 -1.9478062996792169e-05 -1.1982911218749108e-05 0 -2.2695863169944018e-05 -1.6664359458589669e-05 0 -1.9396294386712041e-05 -1.3975063456223143e-05 0 -2.4199135562966614e-05 -1.256688109494657e-05 0 -2.3271362842684946e-05 -1.4232673508617789e-05 0 -1.9868405132731179e-05 -1.0304948139677727e-05 0 -0.00011893725446257622 0.00018701255963446401 0 -9.9534342562494849e-05 0.00017268448222793807 0 -0.00010290215660312875 0.00019367900080432892 0 -1.9834076831721825e-05 -8.221135251166095e-05 0 -2.6396976850283727e-05 -7.7953538183878854e-05 0 -2.7119428150070697e-05 -8.7783108464450904e-05 0 -1.1488686131647577e-05 -2.7303064564461505e-06 0 -9.219731257926307e-06 -1.4524178200940839e-06 0 -1.1393428961290014e-05 -2.4764451774361364e-06 0 -1.1943194675951631e-05 1.5199392190394589e-05 0 -1.7275426112429802e-05 2.0027503650986656e-05 0 -1.8442209952646361e-05 1.4942074604830921e-05 0 -2.755181240833918e-05 -1.149949956370627e-05 0 -2.3956735389216274e-05 -8.9035651530887943e-06 0 -2.7985612874687582e-05 -1.0921094862472523e-05 0 -3.0252487424065612e-05 -1.6078183192612861e-05 0 -3.3887490660886449e-05 -1.9750072743145772e-05 0 -3.0434689884478859e-05 -1.5741476440356711e-05 0 -1.2606967263877835e-05 -3.0327305050528225e-06 0 -1.1991092046989316e-05 -2.8850432423702142e-06 0 -1.5482199900064084e-05 -4.4076239324133732e-06 0 -6.4478220433051656e-05 -5.6253763613489659e-05 0 -6.7596142636210888e-05 -6.6823488108050025e-05 0 -5.8483152680985323e-05 -5.8353247054899313e-05 0 -2.256721139831478e-05 -7.9387539609030277e-06 0 -1.8320957246795618e-05 -5.8325694970745555e-06 0 -1.9016940875023009e-05 -6.4647740993405857e-06 0 -1.5043644894745119e-05 -4.4852569302565827e-06 0 -1.9016940875023009e-05 -6.4647740993405857e-06 0 -1.8320957246795618e-05 -5.8325694970745555e-06 0 -7.7238426094634451e-05 0.00011579224779243751 0 -6.2282464854534949e-05 0.00011921269510636884 0 -7.9216216288420464e-05 0.00013258245079816858 0 -2.0545648710089399e-06 -6.3044128307569401e-07 0 -4.3045192696208908e-06 -6.5644289081094534e-07 0 -2.2886950829445831e-06 -6.419422907555529e-07 0 -5.0087763400210246e-06 -5.8052859274164495e-07 0 -2.2886950829445831e-06 -6.419422907555529e-07 0 -4.3045192696208908e-06 -6.5644289081094534e-07 0 -4.3098346906740274e-06 -1.669062821558144e-07 0 -4.3031552575630655e-06 6.3899076709914241e-08 0 -2.0586535531650514e-06 1.7376588605694759e-07 0 -2.0242474819426988e-06 3.1337217711791457e-07 0 -2.0586535531650514e-06 1.7376588605694759e-07 0 -4.3031552575630655e-06 6.3899076709914241e-08 0 -1.4720830496121973e-05 -6.196984750891764e-06 0 -1.4149231583303322e-05 -5.3340038895898239e-06 0 -1.6734821381819466e-05 -8.2654994741515032e-06 0 -2.0251502692917281e-05 -1.8891852501001685e-06 0 -2.1648664390558222e-05 -4.2726574404391717e-06 0 -2.2477995491868407e-05 -6.8031824570367e-06 0 -2.4027728245069539e-05 -8.263443613699147e-06 0 -2.2477995491868407e-05 -6.8031824570367e-06 0 -2.1648664390558222e-05 -4.2726574404391717e-06 0 -3.3887490660886449e-05 -1.9750072743145772e-05 0 -3.6658989047717424e-05 -2.3858559773258289e-05 0 -3.4249469020276349e-05 -2.1169088198479248e-05 0 -2.4027728245069539e-05 -8.263443613699147e-06 0 -2.3348351035653003e-05 -6.9173207024886581e-06 0 -2.5260456026986391e-05 -9.7040476602189913e-06 0 -2.1787528753940819e-05 -2.16145408537883e-05 0 -1.9343654859626789e-05 -1.7846922320976725e-05 0 -2.3134411382148533e-05 -2.1990624542032315e-05 0 -3.7491560819631617e-05 -2.7148934347306094e-05 0 -3.5246080453519837e-05 -2.4239588694992855e-05 0 -3.6115845271232771e-05 -2.4337423047617951e-05 0 -3.9234766029172424e-05 -1.7982769647608393e-05 0 -4.4976183696527923e-05 -2.315961794533619e-05 0 -3.891538988318615e-05 -1.9846824566152695e-05 0 -7.3710623783058543e-05 4.0310242683299229e-05 0 -6.287546331564095e-05 2.8891631766864648e-05 0 -6.0990800906234525e-05 3.3236609378150505e-05 0 -1.3677477846917833e-05 -3.4044456775375224e-06 0 -1.8272029186728823e-05 -7.8679741853729085e-06 0 -1.4928126741704017e-05 -9.7813327317433994e-06 0 -2.1787528753940819e-05 -2.16145408537883e-05 0 -2.4870040692053833e-05 -2.5469814210891359e-05 0 -2.3634767317505864e-05 -2.4632796688046599e-05 0 -2.4199135562966614e-05 -1.256688109494657e-05 0 -2.4018175232813736e-05 -1.0634746279686651e-05 0 -2.8879601575384243e-05 -1.4222634549285303e-05 0 -2.1199974176796062e-06 5.1568323963731687e-07 0 -8.7209107356578614e-07 2.4722741683733561e-07 0 -9.8598917098736435e-07 2.9224930388656556e-07 0 -1.0464924302078823e-05 3.8770216992605197e-06 0 -1.3983367692820852e-05 5.3478513989001243e-06 0 -1.1735385136622025e-05 2.5654614354102886e-06 0 -6.2325771837041726e-06 2.3339415137860448e-06 0 -8.3425675576062057e-06 2.3636595296190413e-06 0 -6.6761846358047025e-06 1.2739478556993071e-06 0 -1.482960913562383e-05 7.9596603760191028e-06 0 -1.7520092573269612e-05 3.1724141170137471e-06 0 -1.7424327397572992e-05 4.0209999481311231e-07 0 -1.1590394788142272e-05 -3.6823182691920702e-06 0 -8.8729085296581634e-06 -2.3263716349120445e-06 0 -8.4195644111635328e-06 -3.0746664342871357e-06 0 -5.855310668571587e-06 -1.5211039076783716e-06 0 -8.4195644111635328e-06 -3.0746664342871357e-06 0 -8.8729085296581634e-06 -2.3263716349120445e-06 0 -7.9184297884668697e-06 9.398466000407437e-07 0 -1.2055596040553035e-05 1.660339937156402e-06 0 -1.169299979308991e-05 2.8890470489758059e-06 0 -1.6176322971062731e-05 3.3726383136249296e-06 0 -1.169299979308991e-05 2.8890470489758059e-06 0 -1.2055596040553035e-05 1.660339937156402e-06 0 -5.5697145732386274e-05 -3.7355907351965952e-05 0 -6.0536024103259317e-05 -4.6392995163565892e-05 0 -5.1989828183315295e-05 -4.0460404734444265e-05 0 -2.9362483945967062e-05 6.0994877882330048e-05 0 -3.5916546405469962e-05 4.5981406039070699e-05 0 -2.6394109529066411e-05 4.2979374858634987e-05 0 -1.5910817165822112e-05 -4.9708698174322621e-05 0 -2.1836839777743705e-05 -4.5770778339021141e-05 0 -2.380484814044817e-05 -5.7410638602418465e-05 0 -2.9346753326105035e-05 -3.1533738525986064e-05 0 -3.1341572232998918e-05 -3.1258261676079098e-05 0 -3.1156714758296011e-05 -3.3720425279702624e-05 0 -8.6387681276879639e-06 -1.2140140016103211e-06 0 -1.1393428961290014e-05 -2.4764451774361364e-06 0 -9.219731257926307e-06 -1.4524178200940839e-06 0 -1.6803595217391374e-05 -3.066699210946551e-06 0 -1.3445699245911042e-05 -8.7301576778253747e-08 0 -1.415514286090766e-05 -2.5371224113588568e-06 0 -1.9284539670262567e-05 -6.3668226639018863e-06 0 -1.5482199900064084e-05 -4.4076239324133732e-06 0 -1.8320957246795618e-05 -5.8325694970745555e-06 0 -2.3385777729725782e-05 0.00010937738559566642 0 -6.5658849873358739e-06 0.00011639023683339709 0 -1.5899594847577738e-05 0.00013048476304113458 0 -1.4606906485043527e-09 1.6972873233346802e-10 0 -1.5475602836749354e-06 4.1826789258161086e-07 0 -9.8598917098736435e-07 2.9224930388656556e-07 0 -3.153029821516194e-05 -2.2240787063429995e-05 0 -2.9875859276051362e-05 -2.2485624478159636e-05 0 -2.883255842921167e-05 -1.8891927405608119e-05 0 -1.3677477846917833e-05 -3.4044456775375224e-06 0 -1.3219514039253974e-05 8.779400910097775e-06 0 -1.7424327397572992e-05 4.0209999481311231e-07 0 -0.00010201982193464427 9.3452031962082489e-05 0 -9.345517670926703e-05 7.2753509897201352e-05 0 -8.3730780426656933e-05 8.0451183700895295e-05 0 -1.6750165262412814e-06 3.8577733486651065e-07 0 -2.0100727510807692e-06 3.5199212512792844e-07 0 -1.081166408403686e-06 1.4403974671626958e-07 0 -4.3098346906740274e-06 -1.669062821558144e-07 0 -2.0586535531650514e-06 1.7376588605694759e-07 0 -2.0248229679062923e-06 -4.8219572684003942e-09 0 -5.0087763400210246e-06 -5.8052859274164495e-07 0 -2.4418541534555499e-06 -4.7479992444087946e-07 0 -2.2886950829445831e-06 -6.419422907555529e-07 0 -7.3238085422726166e-06 2.0859318746659178e-06 0 -6.0733368859072627e-06 1.4942233036362659e-06 0 -7.2636843758513547e-06 9.3095234526264871e-07 0 -3.4889202971808107e-05 -1.8964184107858343e-05 0 -3.3599903495528387e-05 -1.5728289610779669e-05 0 -3.891538988318615e-05 -1.9846824566152695e-05 0 -5.1680704908747672e-05 3.2008255053134729e-05 0 -6.0990800906234525e-05 3.3236609378150505e-05 0 -5.0876777423773244e-05 2.4863468005609939e-05 0 -2.7086115251633393e-05 0.00018483531609927195 0 -1.750234997925183e-05 0.00016289931357722762 0 -9.4023619034610319e-06 0.00017464271604830756 0 -5.7233833903801832e-05 -8.8245279003828876e-05 0 -5.9539593840210763e-05 -7.7584166573104683e-05 0 -6.4593819781029934e-05 -8.4678204252025861e-05 0 -1.3030158283080259e-05 -9.9691827736411814e-06 0 -1.4928126741704015e-05 -9.7813327317433994e-06 0 -1.7889358897528417e-05 -1.4811678419114786e-05 0 -1.5888660124549659e-05 9.1346286700692252e-06 0 -1.8442209952646357e-05 1.4942074604830921e-05 0 -2.1678446017877364e-05 1.2499020800034928e-05 0 -1.8957135285015698e-05 -1.2628957243834552e-05 0 -1.7889358897528417e-05 -1.4811678419114786e-05 0 -1.4928126741704017e-05 -9.7813327317433994e-06 0 -6.1615825641393254e-06 7.5462008584937601e-07 0 -5.4660200640053471e-06 5.7760509212620201e-07 0 -7.3592075096111459e-06 1.127491300734907e-07 0 -1.8487026106819356e-06 1.5616312287512176e-07 0 -1.3402462308708785e-06 -1.7388920011255044e-07 0 -8.700711305105557e-07 -1.5926905782813897e-08 0 -1.1488686131647577e-05 -2.7303064564461505e-06 0 -9.8530020335146788e-06 -1.8020107446485743e-06 0 -9.219731257926307e-06 -1.4524178200940839e-06 0 -1.5008697837453497e-05 5.7411632784430628e-06 0 -1.7520092573269612e-05 3.1724141170137471e-06 0 -1.2961915956867574e-05 1.0200795539550143e-05 0 -1.482960913562383e-05 7.9596603760191028e-06 0 -1.2961915956867574e-05 1.0200795539550143e-05 0 -1.7520092573269612e-05 3.1724141170137471e-06 0 -4.9870651914515923e-05 -7.0774816999007005e-05 0 -5.9539593840210763e-05 -7.7584166573104683e-05 0 -5.2394278180731224e-05 -8.0719033367386447e-05 0 -5.7233833903801832e-05 -8.8245279003828876e-05 0 -5.2394278180731224e-05 -8.0719033367386447e-05 0 -5.9539593840210763e-05 -7.7584166573104683e-05 0 -3.3048933843221717e-05 0.00014802811019054376 0 -1.750234997925183e-05 0.00016289931357722762 0 -3.482534329155752e-05 0.00017056634610052658 0 -2.7086115251633393e-05 0.00018483531609927195 0 -3.482534329155752e-05 0.00017056634610052658 0 -1.750234997925183e-05 0.00016289931357722762 0 -3.3048933843221717e-05 0.00014802811019054376 0 -3.3305504519067353e-05 0.00012587525652293357 0 -1.5899594847577738e-05 0.00013048476304113458 0 -2.3385777729725782e-05 0.00010937738559566642 0 -1.5899594847577738e-05 0.00013048476304113458 0 -3.3305504519067353e-05 0.00012587525652293357 0 -1.2792058492135536e-09 1.3093336314760399e-10 0 -1.3301736798254817e-09 1.4789133736551869e-10 0 -8.7209107356578614e-07 2.4722741683733561e-07 0 -1.5756784032723028e-05 -1.3506917686273166e-05 0 -1.7889358897528417e-05 -1.4811678419114786e-05 0 -1.9343654859626789e-05 -1.7846922320976725e-05 0 -2.1456959724381468e-05 -1.8990605644465876e-05 0 -1.9343654859626789e-05 -1.7846922320976725e-05 0 -1.7889358897528417e-05 -1.4811678419114786e-05 0 -5.144044363007422e-05 -5.5544111757502492e-05 0 -5.365754348638684e-05 -4.8932523630241636e-05 0 -5.8483152680985323e-05 -5.8353247054899313e-05 0 -6.0536024103259317e-05 -4.6392995163565892e-05 0 -5.365754348638684e-05 -4.8932523630241636e-05 0 -5.1989828183315295e-05 -4.0460404734444265e-05 0 -0.00010201982193464427 9.3452031962082489e-05 0 -8.3730780426656933e-05 8.0451183700895295e-05 0 -8.5362703076006635e-05 0.00010052486794497327 0 -7.9187622265111288e-06 5.0292688902084759e-06 0 -8.3445239778651878e-06 6.8567602865692158e-06 0 -6.9937654838579606e-06 5.5914401627540162e-06 0 -7.7904938265143976e-06 8.3969227387875993e-06 0 -6.9937654838579606e-06 5.5914401627540162e-06 0 -8.3445239778651878e-06 6.8567602865692158e-06 0 -4.0631793000972252e-06 8.0818485306669532e-07 0 -4.9668366661922988e-06 1.0163817677550932e-06 0 -3.9176114956036205e-06 9.9500188604478376e-07 0 -2.1199974176796062e-06 5.1568323963731687e-07 0 -9.8598917098736414e-07 2.9224930388656551e-07 0 -1.5475602836749354e-06 4.1826789258161086e-07 0 -2.097801100703461e-05 4.4257242223482938e-06 0 -2.7804246054440644e-05 7.2788927961330634e-06 0 -2.2367677006460564e-05 5.6291739390886401e-06 0 -1.5043644894745119e-05 -4.4852569302565827e-06 0 -1.5617374883749985e-05 -5.3458803511887388e-06 0 -1.9016940875023009e-05 -6.4647740993405857e-06 0 -1.5043644894745119e-05 -4.4852569302565827e-06 0 -1.8320957246795618e-05 -5.8325694970745555e-06 0 -1.5482199900064084e-05 -4.4076239324133732e-06 0 5.9538232410144576e-06 0.0001547445156779925 0 -9.4023619034610319e-06 0.00017464271604830756 0 -1.750234997925183e-05 0.00016289931357722762 0 -6.9941020039066069e-05 -7.7586001399452683e-05 0 -6.4593819781029934e-05 -8.4678204252025861e-05 0 -5.9539593840210763e-05 -7.7584166573104683e-05 0 -1.3029167863904657e-09 1.3710395874779405e-11 0 -8.7007113051055581e-07 -1.5926905782813917e-08 0 -1.3402462308708785e-06 -1.7388920011255044e-07 0 -6.2325771837041726e-06 2.3339415137860448e-06 0 -8.2674758189011772e-06 4.0884413102001698e-06 0 -8.3425675576062057e-06 2.3636595296190413e-06 0 -3.8764667532191026e-05 -4.7544268038706598e-05 0 -4.1214793299711724e-05 -4.0502467144805619e-05 0 -4.4798189188680537e-05 -4.7678959350440309e-05 0 -1.6745984143917469e-05 4.7935752234481683e-06 0 -1.3983367692820852e-05 5.3478513989001234e-06 0 -1.9186875898134312e-05 7.9180977888781026e-06 0 -1.9478062996792169e-05 -1.1982911218749108e-05 0 -2.3271362842684946e-05 -1.4232673508617789e-05 0 -2.2695863169944018e-05 -1.6664359458589669e-05 0 -6.70264497942756e-06 4.5309219411064923e-06 0 -6.9937654838579606e-06 5.5914401627540162e-06 0 -7.5386867864889198e-06 6.8644958761151287e-06 0 -5.1453290684580339e-05 9.4307866356914069e-05 0 -6.7293680912352023e-05 9.805710451861532e-05 0 -5.856292382674185e-05 8.121466936971192e-05 0 -3.4889202971808107e-05 -1.8964184107858343e-05 0 -4.1810432697885295e-05 -2.4049988745401156e-05 0 -3.6799737902686109e-05 -2.3564316727831188e-05 0 -5.1680704908747672e-05 3.2008255053134729e-05 0 -5.5381798326740561e-05 4.1828958247705916e-05 0 -6.5673584946153451e-05 4.3260585984785308e-05 0 -3.2741346145540085e-05 -3.3504179249553903e-05 0 -3.195447727357148e-05 -3.5793844007470759e-05 0 -3.1156714758296011e-05 -3.3720425279702624e-05 0 -3.0610839896551701e-05 -3.545451504653256e-05 0 -3.1156714758296011e-05 -3.3720425279702624e-05 0 -3.195447727357148e-05 -3.5793844007470759e-05 0 -1.9284539670262567e-05 -6.3668226639018863e-06 0 -1.5857674618293903e-05 -4.6926734962429887e-06 0 -1.5482199900064084e-05 -4.4076239324133732e-06 0 -1.2606967263877835e-05 -3.0327305050528225e-06 0 -1.5482199900064084e-05 -4.4076239324133732e-06 0 -1.5857674618293903e-05 -4.6926734962429887e-06 0 -1.1636339049903379e-05 -3.0985434263160083e-06 0 -1.4149231583303322e-05 -5.3340038895898247e-06 0 -1.2805240480529956e-05 -4.0789554471744804e-06 0 -2.256721139831478e-05 -7.9387539609030277e-06 0 -2.7985612874687582e-05 -1.0921094862472523e-05 0 -2.3956735389216274e-05 -8.9035651530887943e-06 0 -2.4842451689457017e-05 7.0360819877963103e-06 0 -2.5234275367525077e-05 6.1762915797252962e-06 0 -1.956876688154162e-05 4.5223581004717984e-06 0 -3.5087495272303819e-05 -3.6622407424403089e-05 0 -3.251909510207665e-05 -3.732942214985535e-05 0 -3.3498318900467452e-05 -3.5354710284674976e-05 0 -5.1453290684580339e-05 9.4307866356914069e-05 0 -6.2282464854534949e-05 0.00011921269510636884 0 -6.7293680912352023e-05 9.805710451861532e-05 0 -1.3301736798254817e-09 1.4789133736551869e-10 0 -1.4606906485043527e-09 1.6972873233346802e-10 0 -9.8598917098736435e-07 2.9224930388656556e-07 0 7.1158011959736863e-06 0.00013120679999730335 0 -1.5899594847577738e-05 0.00013048476304113458 0 -6.5658849873358739e-06 0.00011639023683339709 0 -9.3138274841426969e-06 1.3018989731670067e-05 0 -8.079575582480107e-06 1.6293407536820684e-05 0 -8.2509086154327801e-06 1.1673006220023736e-05 0 -5.1680704908747672e-05 3.2008255053134729e-05 0 -4.2795379866955124e-05 3.037729130514634e-05 0 -5.5381798326740561e-05 4.1828958247705916e-05 0 -9.3138274841426969e-06 1.3018989731670067e-05 0 -9.0381970799790102e-06 9.5851004043051725e-06 0 -1.1270294730866234e-05 9.4474163009351826e-06 0 -9.3138274841426969e-06 1.3018989731670067e-05 0 -8.2509086154327801e-06 1.1673006220023735e-05 0 -9.0381970799790102e-06 9.5851004043051725e-06 0 -1.4731846647190378e-05 -4.2983083898070079e-06 0 -1.8262407542495979e-05 -6.2489988368125988e-06 0 -1.7209525952152721e-05 -6.2933339974495601e-06 0 -7.5104757791231381e-06 -6.1695363010150262e-07 0 -9.219731257926307e-06 -1.4524178200940839e-06 0 -9.8530020335146788e-06 -1.8020107446485741e-06 0 -6.9826893846010966e-05 7.9965770666324225e-05 0 -8.5362703076006635e-05 0.00010052486794497327 0 -8.3730780426656933e-05 8.0451183700895295e-05 0 -1.817916744588846e-05 -8.5164575663349695e-06 0 -1.9784019725011472e-05 -7.0342868000127141e-06 0 -1.670216182507225e-05 -5.351881315286672e-06 0 -1.5008697837453497e-05 5.7411632784430628e-06 0 -1.2961915956867574e-05 1.0200795539550143e-05 0 -1.1270294730866234e-05 9.4474163009351826e-06 0 -3.0611044736856515e-05 -1.8823276615247508e-05 0 -2.830587119056077e-05 -1.5582880027918858e-05 0 -2.9293251504565565e-05 -1.5283101303935529e-05 0 -3.4889202971808107e-05 -1.8964184107858343e-05 0 -3.891538988318615e-05 -1.9846824566152695e-05 0 -4.1810432697885295e-05 -2.4049988745401156e-05 0 -5.1680704908747672e-05 3.2008255053134729e-05 0 -6.5673584946153451e-05 4.3260585984785308e-05 0 -6.0990800906234525e-05 3.3236609378150505e-05 0 -8.6747674047056832e-05 0.00018482877802583806 0 -0.00010290215660312875 0.00019367900080432892 0 -9.9534342562494849e-05 0.00017268448222793807 0 -3.2715695768158258e-05 -8.5055684534851198e-05 0 -2.7119428150070697e-05 -8.7783108464450904e-05 0 -2.6396976850283727e-05 -7.7953538183878854e-05 0 -3.4185826781964085e-05 -2.2136687252538965e-05 0 -3.1915255511766464e-05 -1.9050329768298134e-05 0 -3.4249469020276349e-05 -2.1169088198479248e-05 0 -7.7904938265143976e-06 8.3969227387875993e-06 0 -7.5386867864889198e-06 6.8644958761151287e-06 0 -6.9937654838579606e-06 5.5914401627540162e-06 0 -1.459656813185009e-05 2.8323633167134051e-06 0 -1.956876688154162e-05 4.5223581004717984e-06 0 -1.682962840538517e-05 2.7814393807173932e-06 0 -2.755181240833918e-05 -1.149949956370627e-05 0 -2.2490632313034353e-05 -8.5863685828195512e-06 0 -2.3956735389216274e-05 -8.9035651530887943e-06 0 -4.0545669847889307e-05 1.7112370570979411e-05 0 -3.3733638456767588e-05 1.5529088049343095e-05 0 -4.122188406238465e-05 2.2513408209250608e-05 0 -1.7126418064600176e-05 -9.66136225610888e-06 0 -1.9396294386712041e-05 -1.3975063456223143e-05 0 -1.8845119968331063e-05 -1.2120391900161106e-05 0 -2.0394140852660059e-05 -8.0861627954208886e-06 0 -2.2490632313034353e-05 -8.5863685828195495e-06 0 -2.4018175232813736e-05 -1.0634746279686651e-05 0 -1.5008697837453497e-05 5.7411632784430628e-06 0 -1.3473961631668359e-05 4.2366623645807858e-06 0 -1.7601632830818424e-05 1.131329744818681e-06 0 -1.3029167863904657e-09 1.3710395874779405e-11 0 -1.2745573549125466e-09 -3.8393416531502024e-11 0 -8.700711305105557e-07 -1.5926905782813897e-08 0 -3.4676267346831093e-05 -2.5297495272693525e-05 0 -3.5246080453519837e-05 -2.4239588694992855e-05 0 -3.7491560819631617e-05 -2.7148934347306094e-05 0 -3.360701225580386e-05 -1.408870257170866e-05 0 -3.2172605648544306e-05 -1.3656340332420214e-05 0 -2.7985612874687582e-05 -1.0921094862472523e-05 0 -5.2515784356429823e-05 2.0800586965663524e-05 0 -4.1765964669119085e-05 1.4968271210847379e-05 0 -4.9157085239401357e-05 2.0267727474510886e-05 0 -4.5972372632548292e-05 -3.9803122355147584e-05 0 -5.1989828183315295e-05 -4.0460404734444265e-05 0 -5.365754348638684e-05 -4.8932523630241636e-05 0 -2.6825239159255261e-05 -1.9586584290629313e-05 0 -2.6750394195771331e-05 -2.3488919176692719e-05 0 -2.2695863169944018e-05 -1.6664359458589669e-05 0 -2.2328893083635376e-05 -1.958794785667443e-05 0 -2.2695863169944018e-05 -1.6664359458589669e-05 0 -2.6750394195771331e-05 -2.3488919176692719e-05 0 -2.0394140852660059e-05 -8.0861627954208886e-06 0 -2.0310539004220574e-05 -9.0419696078940581e-06 0 -1.7209525952152721e-05 -6.2933339974495601e-06 0 -3.0611044736856515e-05 -1.8823276615247508e-05 0 -2.9293251504565565e-05 -1.5283101303935529e-05 0 -3.1915255511766464e-05 -1.9050329768298134e-05 0 -5.144044363007422e-05 -5.5544111757502492e-05 0 -4.5024471130610552e-05 -5.4531216993391405e-05 0 -4.4798189188680537e-05 -4.7678959350440309e-05 0 -2.0394140852660059e-05 -8.0861627954208886e-06 0 -1.7209525952152721e-05 -6.2933339974495601e-06 0 -1.8262407542495979e-05 -6.2489988368125988e-06 0 -2.7128524573268279e-05 -1.2592897044789592e-05 0 -2.9293251504565565e-05 -1.5283101303935529e-05 0 -2.830587119056077e-05 -1.5582880027918858e-05 0 -2.448571515870247e-06 -2.258941286804094e-07 0 -2.5329105476901745e-06 1.1401656077617175e-07 0 -3.3684761020888126e-06 1.7601574040965178e-07 0 -4.4976183696527923e-05 -2.315961794533619e-05 0 -4.1810432697885295e-05 -2.4049988745401156e-05 0 -3.891538988318615e-05 -1.9846824566152695e-05 0 -7.3710623783058543e-05 4.0310242683299229e-05 0 -6.0990800906234525e-05 3.3236609378150505e-05 0 -6.5673584946153451e-05 4.3260585984785308e-05 0 -6.9941020039066069e-05 -7.7586001399452683e-05 0 -5.9539593840210763e-05 -7.7584166573104683e-05 0 -6.3457745761196855e-05 -7.2159178177990345e-05 0 5.9538232410144576e-06 0.0001547445156779925 0 -1.750234997925183e-05 0.00016289931357722762 0 -1.1001809576129219e-05 0.00014606240305864156 0 7.1158011959736863e-06 0.00013120679999730335 0 -1.1001809576129219e-05 0.00014606240305864156 0 -1.5899594847577738e-05 0.00013048476304113458 0 -6.9941020039066069e-05 -7.7586001399452683e-05 0 -7.1433754804820079e-05 -8.8404606109689364e-05 0 -6.4593819781029934e-05 -8.4678204252025861e-05 0 5.9538232410144576e-06 0.0001547445156779925 0 4.1583586064977698e-06 0.0001778762464288648 0 -9.4023619034610319e-06 0.00017464271604830756 0 -1.8957135285015698e-05 -1.2628957243834552e-05 0 -1.8272029186728823e-05 -7.8679741853729085e-06 0 -2.1443207792581086e-05 -1.2227472106832389e-05 0 -3.1715712629977846e-05 -1.7791987805574394e-05 0 -3.4249469020276349e-05 -2.1169088198479248e-05 0 -3.1915255511766464e-05 -1.9050329768298134e-05 0 -4.2293009009006211e-05 -3.5762905905990455e-05 0 -4.2920513426023331e-05 -3.7742212908157147e-05 0 -4.153180761700011e-05 -3.4278900782712479e-05 0 -2.4623686984316166e-05 -2.5066072565683443e-05 0 -2.6965770966113542e-05 -3.047747446017938e-05 0 -2.6146119050441058e-05 -2.7545679758780136e-05 0 -5.1680704908747672e-05 3.2008255053134729e-05 0 -4.122188406238465e-05 2.2513408209250608e-05 0 -4.2795379866955124e-05 3.037729130514634e-05 0 -1.2606967263877835e-05 -3.0327305050528225e-06 0 -1.0110139585132091e-05 -1.9166490275832737e-06 0 -1.1991092046989316e-05 -2.8850432423702142e-06 0 -4.5877525397059251e-06 1.4788681491529129e-06 0 -4.9668366661922988e-06 1.0163817677550932e-06 0 -6.0733368859072627e-06 1.4942233036362659e-06 0 -7.7238426094634451e-05 0.00011579224779243751 0 -6.7293680912352023e-05 9.805710451861532e-05 0 -6.2282464854534949e-05 0.00011921269510636884 0 -2.8554523971529005e-05 -5.2629629811071094e-05 0 -2.380484814044817e-05 -5.7410638602418465e-05 0 -2.1836839777743705e-05 -4.5770778339021141e-05 0 -1.8487026106819356e-06 1.5616312287512176e-07 0 -8.700711305105557e-07 -1.5926905782813897e-08 0 -1.081166408403686e-06 1.4403974671626958e-07 0 -2.4199135562966614e-05 -1.256688109494657e-05 0 -1.9868405132731179e-05 -1.0304948139677727e-05 0 -2.0310539004220574e-05 -9.0419696078940581e-06 0 7.5629962811208189e-06 0.00010773094385828737 0 7.115801195973688e-06 0.00013120679999730335 0 -6.5658849873358739e-06 0.00011639023683339709 0 -4.958053279376942e-06 -2.6620436360609722e-07 0 -5.5512041916218365e-06 3.2715605817581388e-07 0 -6.7439638242303652e-06 1.2372224781432122e-07 0 -1.8957135285015698e-05 -1.2628957243834552e-05 0 -2.1443207792581086e-05 -1.2227472106832389e-05 0 -2.1304803633376816e-05 -1.6294959864626476e-05 0 -2.3878959450046583e-05 -1.6647695377472467e-05 0 -2.1304803633376816e-05 -1.6294959864626476e-05 0 -2.1443207792581086e-05 -1.2227472106832389e-05 0 -3.9630582929687659e-05 -3.2665290466176658e-05 0 -4.035760833638049e-05 -3.204423388826661e-05 0 -4.153180761700011e-05 -3.4278900782712479e-05 0 -4.2293009009006211e-05 -3.5762905905990455e-05 0 -4.153180761700011e-05 -3.4278900782712479e-05 0 -4.035760833638049e-05 -3.204423388826661e-05 0 -2.4623686984316166e-05 -2.5066072565683443e-05 0 -2.6129073912648886e-05 -2.8992360230319644e-05 0 -2.6965770966113542e-05 -3.047747446017938e-05 0 -2.8273230229770929e-05 -3.3208816782197552e-05 0 -2.6965770966113542e-05 -3.047747446017938e-05 0 -2.6129073912648886e-05 -2.8992360230319644e-05 0 -7.9187622265111288e-06 5.0292688902084759e-06 0 -6.7503739981043516e-06 3.7041992728244197e-06 0 -8.8778027294711375e-06 3.216811576047006e-06 0 -1.3677477846917833e-05 -3.4044456775375224e-06 0 -1.7424327397572992e-05 4.0209999481311231e-07 0 -1.8272029186728823e-05 -7.8679741853729085e-06 0 -2.0926018342695173e-05 -5.4290222279193902e-06 0 -1.8272029186728823e-05 -7.8679741853729085e-06 0 -1.7424327397572992e-05 4.0209999481311231e-07 0 -5.144044363007422e-05 -5.5544111757502492e-05 0 -5.8483152680985323e-05 -5.8353247054899313e-05 0 -5.6717759220929397e-05 -6.6061381315547405e-05 0 -1.9284539670262567e-05 -6.3668226639018863e-06 0 -2.2490632313034353e-05 -8.5863685828195512e-06 0 -1.8262407542495979e-05 -6.2489988368125988e-06 0 -2.0394140852660059e-05 -8.0861627954208886e-06 0 -1.8262407542495979e-05 -6.2489988368125988e-06 0 -2.2490632313034353e-05 -8.5863685828195512e-06 0 -1.9688728052786311e-05 -1.613551778213716e-05 0 -2.588485681198578e-05 -1.3469399737422036e-05 0 -2.4388252004579084e-05 -1.2084882941525625e-05 0 -3.8264997708222183e-05 -2.9486972007773229e-05 0 -4.035760833638049e-05 -3.204423388826661e-05 0 -3.8047981319357964e-05 -3.0576072013793705e-05 0 -2.6042952603599503e-05 -2.796717964471029e-05 0 -2.7843110220645989e-05 -3.0979257617426153e-05 0 -2.6129073912648886e-05 -2.8992360230319644e-05 0 -6.1615825641393254e-06 7.5462008584937601e-07 0 -6.0733368859072627e-06 1.4942233036362659e-06 0 -4.9668366661922988e-06 1.0163817677550932e-06 0 -3.251909510207665e-05 -3.732942214985535e-05 0 -3.195447727357148e-05 -3.5793844007470759e-05 0 -3.3498318900467452e-05 -3.5354710284674976e-05 0 -5.1065401652284169e-06 4.0416855746145069e-07 0 -3.8324708141136383e-06 6.5463701649056767e-07 0 -3.371338554224377e-06 5.5764770173814145e-07 0 -2.7128524573268279e-05 -1.2592897044789592e-05 0 -2.5260456026986391e-05 -9.7040476602189913e-06 0 -2.6438507547790742e-05 -1.0760040198271282e-05 0 -1.8487026106819356e-06 1.5616312287512176e-07 0 -2.6498454214555042e-06 4.4999500372997661e-07 0 -2.5329105476901745e-06 1.1401656077617171e-07 0 -5.0490352622617547e-05 0.00012985642427318077 0 -4.2727215995640447e-05 0.00011140942444543586 0 -3.3305504519067353e-05 0.00012587525652293357 0 -5.2680915550646246e-05 0.0001704924339011514 0 -3.4825343291557513e-05 0.00017056634610052655 0 -4.3043224972298312e-05 0.00018528286844896239 0 -4.5061643656126737e-05 -8.0793133307511145e-05 0 -5.2394278180731224e-05 -8.0719033367386447e-05 0 -5.0315194906390352e-05 -8.768149897204481e-05 0 -4.3963287660565167e-06 2.4326362854022044e-05 0 -1.3219514039253974e-05 8.779400910097775e-06 0 -6.1206411532879344e-06 2.9603489922014457e-06 0 -1.8487026106819356e-06 1.5616312287512176e-07 0 -1.081166408403686e-06 1.4403974671626958e-07 0 -2.0100727510807688e-06 3.5199212512792844e-07 0 -6.7596142636210888e-05 -6.6823488108050025e-05 0 -6.3457745761196855e-05 -7.2159178177990345e-05 0 -5.6717759220929397e-05 -6.6061381315547405e-05 0 -7.2303817058839371e-05 -0.00012690335974141099 0 -6.6367975979051452e-05 -0.0001218967934267038 0 -7.2357855533911739e-05 -0.00011805731732828269 0 -4.7894864241109159e-06 0.00026355501548449049 0 -1.6674119307807584e-05 0.00025751526088196131 0 -3.1843563662809755e-06 0.00024427962097732519 0 -4.7894864241109159e-06 0.00026355501548449049 0 -2.3707943369179437e-05 0.0002698699930102869 0 -1.6674119307807587e-05 0.00025751526088196131 0 -2.6420736762159519e-05 -0.00012116056316464053 0 -3.0970429890206742e-05 -0.000119448949364054 0 -3.3797483417356399e-05 -0.00012460275864140731 0 -0.00011993476314029027 0.00027468610708579743 0 -0.00012001431478162696 0.00025387769134207691 0 -0.00010599210944827035 0.00026289972147184595 0 -7.2303817058839371e-05 -0.00012690335974141099 0 -6.3458827117469243e-05 -0.00012681640742550609 0 -6.6367975979051452e-05 -0.0001218967934267038 0 -2.6420736762159519e-05 -0.00012116056316464053 0 -2.5538478227370849e-05 -0.00011320024053528013 0 -3.0970429890206742e-05 -0.000119448949364054 0 -0.00011993476314029027 0.00027468610708579743 0 -0.00010599210944827035 0.00026289972147184595 0 -9.9114255107668795e-05 0.00027455431185741878 0 -1.2745573549127061e-09 -3.8393416531504938e-11 0 -1.081166408403686e-06 1.4403974671626958e-07 0 -8.700711305105557e-07 -1.5926905782813897e-08 0 -3.0611044736856515e-05 -1.8823276615247508e-05 0 -2.883255842921167e-05 -1.8891927405608119e-05 0 -2.830587119056077e-05 -1.5582880027918858e-05 0 -2.0394140852660059e-05 -8.0861627954208886e-06 0 -2.4018175232813736e-05 -1.0634746279686651e-05 0 -2.0310539004220574e-05 -9.0419696078940581e-06 0 -5.144044363007422e-05 -5.5544111757502492e-05 0 -4.8582650545598765e-05 -6.1430036955596962e-05 0 -4.5024471130610552e-05 -5.4531216993391405e-05 0 -4.7019246194415509e-06 7.0336162591847132e-07 0 -6.6761846358047025e-06 1.2739478556993071e-06 0 -5.5512041916218365e-06 3.2715605817581388e-07 0 -5.6922438458533595e-05 0.00019866108792207033 0 -7.1491105113519136e-05 0.00021249353449230118 0 -7.1599432326727589e-05 0.00019157309034029897 0 -4.5561316363192973e-05 -9.3241987770012089e-05 0 -4.0807307572025362e-05 -9.9155275848725855e-05 0 -3.9227225573996896e-05 -8.9583752499329124e-05 0 -4.0191730341867307e-05 -3.0846046772796196e-05 0 -4.14264736316216e-05 -3.3460977307197234e-05 0 -3.9654875187647529e-05 -3.03677110708776e-05 0 -2.0669277190212049e-05 -1.9697955099163777e-05 0 -2.3634767317505864e-05 -2.4632796688046603e-05 0 -2.2868436234246939e-05 -2.2513881233611845e-05 0 -9.7055957550647275e-06 -5.1026348793598171e-06 0 -1.4928126741704017e-05 -9.7813327317433994e-06 0 -1.3030158283080259e-05 -9.9691827736411814e-06 0 -2.4199135562966614e-05 -1.256688109494657e-05 0 -2.0310539004220574e-05 -9.0419696078940581e-06 0 -2.4018175232813736e-05 -1.0634746279686651e-05 0 -3.6658989047717424e-05 -2.3858559773258289e-05 0 -3.8686408873407681e-05 -2.7609477168030331e-05 0 -3.6115845271232771e-05 -2.4337423047617951e-05 0 -1.5756784032723028e-05 -1.3506917686273166e-05 0 -1.9343654859626789e-05 -1.7846922320976725e-05 0 -1.8367311731194212e-05 -1.6735820989185213e-05 0 -3.8764667532191026e-05 -4.7544268038706598e-05 0 -3.3874983827974804e-05 -5.032800739467018e-05 0 -3.280113624558764e-05 -4.0684568832151486e-05 0 -4.5877525397059251e-06 1.4788681491529129e-06 0 -3.9176114956036205e-06 9.9500188604478355e-07 0 -4.9668366661922988e-06 1.0163817677550932e-06 0 -3.2715695768158258e-05 -8.5055684534851198e-05 0 -3.7747793792158404e-05 -7.8813552129879013e-05 0 -3.9227225573996896e-05 -8.9583752499329124e-05 0 -8.6747674047056832e-05 0.00018482877802583806 0 -7.0273895245112183e-05 0.00017089816238015281 0 -7.1599432326727589e-05 0.00019157309034029897 0 -2.1456959724381468e-05 -1.8990605644465876e-05 0 -1.7889358897528417e-05 -1.4811678419114786e-05 0 -2.1304803633376816e-05 -1.6294959864626476e-05 0 -1.8957135285015698e-05 -1.2628957243834552e-05 0 -2.1304803633376816e-05 -1.6294959864626476e-05 0 -1.7889358897528417e-05 -1.4811678419114786e-05 0 -7.5104757791231381e-06 -6.1695363010150262e-07 0 -7.0180836285550311e-06 -5.2111685417598742e-07 0 -9.219731257926307e-06 -1.4524178200940839e-06 0 -2.6825239159255261e-05 -1.9586584290629313e-05 0 -2.2695863169944014e-05 -1.6664359458589669e-05 0 -2.3271362842684946e-05 -1.4232673508617789e-05 0 -2.6337409072482121e-05 -4.0263869416972027e-05 0 -2.0525850435626957e-05 -3.554392560033441e-05 0 -2.3402981488257052e-05 -2.7902577019196755e-05 0 -2.6942772708723691e-05 -1.5376973260720121e-05 0 -2.830587119056077e-05 -1.5582880027918858e-05 0 -2.883255842921167e-05 -1.8891927405608119e-05 0 -1.6497446747791231e-05 -2.9088788086157493e-05 0 -2.0525850435626957e-05 -3.554392560033441e-05 0 -1.5544851761343154e-05 -3.9257331982137209e-05 0 -2.1787528753940819e-05 -2.16145408537883e-05 0 -2.3134411382148533e-05 -2.1990624542032315e-05 0 -2.4870040692053833e-05 -2.5469814210891359e-05 0 -2.5834983985704414e-05 -2.4579674039823664e-05 0 -2.4870040692053833e-05 -2.5469814210891359e-05 0 -2.3134411382148533e-05 -2.1990624542032315e-05 0 -8.9621488994648845e-06 -1.768886261380438e-06 0 -1.1486262690302018e-05 -3.0456816278076369e-06 0 -1.1991092046989316e-05 -2.8850432423702142e-06 0 -1.4419997534329807e-05 -4.2322067650916589e-06 0 -1.670216182507225e-05 -5.351881315286672e-06 0 -1.415514286090766e-05 -2.5371224113588568e-06 0 -1.6803595217391374e-05 -3.066699210946551e-06 0 -1.415514286090766e-05 -2.5371224113588568e-06 0 -1.670216182507225e-05 -5.351881315286672e-06 0 -9.3138274841426969e-06 1.3018989731670067e-05 0 -1.2961915956867574e-05 1.0200795539550143e-05 0 -9.9302918009479166e-06 1.6551321159141928e-05 0 -1.482960913562383e-05 7.9596603760191028e-06 0 -9.9302918009479166e-06 1.6551321159141928e-05 0 -1.2961915956867574e-05 1.0200795539550143e-05 0 7.1158011959736863e-06 0.00013120679999730335 0 5.9538232410144576e-06 0.0001547445156779925 0 -1.1001809576129219e-05 0.00014606240305864156 0 -1.0901787179776117e-05 7.4573036092070636e-06 0 -8.3445239778651878e-06 6.8567602865692158e-06 0 -9.8806094743029864e-06 5.325958265998446e-06 0 -6.7596142636210888e-05 -6.6823488108050025e-05 0 -6.9941020039066069e-05 -7.7586001399452683e-05 0 -6.3457745761196855e-05 -7.2159178177990345e-05 0 -8.6387681276879639e-06 -1.2140140016103211e-06 0 -9.219731257926307e-06 -1.4524178200940839e-06 0 -7.0180836285550311e-06 -5.2111685417598742e-07 0 -1.149745569483286e-05 9.4386063301780781e-07 0 -8.8662773583949515e-06 4.6695872199121041e-07 0 -7.7036551702062485e-06 -7.0468009549887343e-08 0 -8.9621488994648845e-06 -1.768886261380438e-06 0 -6.2103272988624424e-06 -8.1186674573221348e-07 0 -6.7948526613691048e-06 -1.2952728596840355e-06 0 -6.2325771837041726e-06 2.3339415137860448e-06 0 -4.7242143446871021e-06 1.6692920987792387e-06 0 -5.7783822032339983e-06 3.1250176271958923e-06 0 -5.0377928910725323e-06 -2.8385836321907486e-06 0 -4.0988964521866201e-06 -1.5480085722250895e-06 0 -2.0977814150390538e-06 -9.6017165434389794e-07 0 -3.0662961531393139e-09 2.1336142150310729e-10 0 -2.0977814150390538e-06 -9.6017165434389772e-07 0 -4.0988964521866201e-06 -1.5480085722250895e-06 0 -6.739050773795245e-06 3.2490519859436427e-06 0 -2.8308257437971143e-06 9.9388862380626699e-07 0 -5.6340774309005676e-06 1.3811045040473873e-06 0 -4.2873478472787352e-09 -5.199580920875736e-10 0 -5.6340774309005676e-06 1.3811045040473873e-06 0 -2.8308257437971143e-06 9.9388862380626699e-07 0 -2.6825239159255261e-05 -1.9586584290629313e-05 0 -3.1988284643570873e-05 -2.2780450252947589e-05 0 -3.1150893433909054e-05 -2.6628011599739703e-05 0 -1.8487026106819356e-06 1.5616312287512176e-07 0 -2.0100727510807688e-06 3.5199212512792844e-07 0 -2.6498454214555042e-06 4.4999500372997661e-07 0 -2.3385777729725782e-05 0.00010937738559566642 0 -7.5158732064107372e-06 0.00010106546845927142 0 -6.5658849873358739e-06 0.00011639023683339709 0 -2.2795343418506219e-05 2.9696707328278636e-05 0 -2.4539294419576026e-05 2.2470920505792951e-05 0 -1.7275426112429802e-05 2.0027503650986656e-05 0 -1.0901787179776117e-05 7.4573036092070636e-06 0 -9.0381970799790102e-06 9.5851004043051725e-06 0 -8.3445239778651878e-06 6.8567602865692158e-06 0 -2.9119375153618979e-05 -3.1733636289898641e-05 0 -2.6750394195771331e-05 -2.3488919176692719e-05 0 -3.1150893433909054e-05 -2.6628011599739703e-05 0 -7.8818663262000867e-05 0.00027407317913349266 0 -9.9114255107668795e-05 0.00027455431185741878 0 -8.8793436882377011e-05 0.00026390363829874628 0 -4.043003390989478e-05 -0.00012582552032204558 0 -3.3797483417356399e-05 -0.00012460275864140731 0 -3.6880714329382083e-05 -0.0001215003022023629 0 -2.3707943369179437e-05 0.0002698699930102869 0 -4.1499532222646824e-05 0.00027243083391162827 0 -3.2127267299329595e-05 0.00026172347057496918 0 -6.3458827117469243e-05 -0.00012681640742550609 0 -5.4993369999336515e-05 -0.00012653148504772758 0 -5.9109915444248725e-05 -0.00012230761310642511 0 -3.5939870463933222e-05 -3.0112025443759179e-05 0 -3.8047981319357964e-05 -3.0576072013793705e-05 0 -3.7010199997714278e-05 -3.1865427309436228e-05 0 -2.9346753326105035e-05 -3.1533738525986064e-05 0 -2.9479087472728147e-05 -3.3968055098757646e-05 0 -2.7843110220645989e-05 -3.0979257617426153e-05 0 -5.940292283719869e-09 -2.5420203845153485e-09 0 -2.0977814150390542e-06 -9.6017165434389815e-07 0 -3.0662961531393139e-09 2.1336142150310729e-10 0 -7.6208168055254163e-09 3.2528189551062931e-09 0 -4.2873478472787352e-09 -5.199580920875736e-10 0 -2.8308257437971143e-06 9.9388862380626699e-07 0 -7.6208168055254163e-09 3.2528189551062931e-09 0 -2.8308257437971143e-06 9.9388862380626699e-07 0 -6.739050773795245e-06 3.2490519859436427e-06 0 -5.940292283719869e-09 -2.5420203845153485e-09 0 -5.0377928910725323e-06 -2.8385836321907486e-06 0 -2.0977814150390538e-06 -9.6017165434389794e-07 0 -2.8554523971529005e-05 -5.2629629811071094e-05 0 -3.3874983827974804e-05 -5.032800739467018e-05 0 -3.520053744363328e-05 -6.0692591428154776e-05 0 -1.1488686131647577e-05 -2.7303064564461505e-06 0 -1.3962934464802211e-05 -4.2053656342016591e-06 0 -1.2837782958493811e-05 -3.8485055246855874e-06 0 -2.7128524573268279e-05 -1.2592897044789592e-05 0 -2.830587119056077e-05 -1.5582880027918858e-05 0 -2.6099530189558142e-05 -1.2176268077617691e-05 0 -2.6942772708723691e-05 -1.5376973260720121e-05 0 -2.6099530189558142e-05 -1.2176268077617691e-05 0 -2.830587119056077e-05 -1.5582880027918858e-05 0 -7.5104757791231381e-06 -6.1695363010150262e-07 0 -9.8530020335146788e-06 -1.8020107446485741e-06 0 -8.2813688274962551e-06 -9.0768542869937137e-07 0 -4.0631793000972252e-06 8.0818485306669532e-07 0 -3.8324708141136383e-06 6.5463701649056767e-07 0 -5.4660200640053471e-06 5.7760509212620201e-07 0 -5.1065401652284169e-06 4.0416855746145069e-07 0 -5.4660200640053471e-06 5.7760509212620201e-07 0 -3.8324708141136383e-06 6.5463701649056767e-07 0 -1.482960913562383e-05 7.9596603760191028e-06 0 -1.3219514039253974e-05 8.779400910097775e-06 0 -9.9302918009479166e-06 1.6551321159141928e-05 0 -4.3963287660565167e-06 2.4326362854022044e-05 0 -9.9302918009479149e-06 1.6551321159141932e-05 0 -1.3219514039253974e-05 8.779400910097775e-06 0 -3.6076353423432879e-05 -2.724902408939058e-05 0 -3.1150893433909054e-05 -2.6628011599739703e-05 0 -3.1988284643570873e-05 -2.2780450252947589e-05 0 -2.1456959724381468e-05 -1.8990605644465876e-05 0 -2.3134411382148533e-05 -2.1990624542032315e-05 0 -1.9343654859626789e-05 -1.7846922320976725e-05 0 -3.4185826781964085e-05 -2.2136687252538965e-05 0 -3.6115845271232771e-05 -2.4337423047617951e-05 0 -3.5246080453519837e-05 -2.4239588694992855e-05 0 -6.1615825641393254e-06 7.5462008584937601e-07 0 -7.2636843758513547e-06 9.3095234526264871e-07 0 -6.0733368859072627e-06 1.4942233036362659e-06 0 -2.7086115251633393e-05 0.00018483531609927195 0 -9.4023619034610319e-06 0.00017464271604830756 0 -1.1857516745850522e-05 0.00019043846044616169 0 -5.7233833903801832e-05 -8.8245279003828876e-05 0 -6.4593819781029934e-05 -8.4678204252025861e-05 0 -6.4713008316204254e-05 -9.2095101558827095e-05 0 -1.9688728052786311e-05 -1.613551778213716e-05 0 -1.8845119968331063e-05 -1.2120391900161106e-05 0 -1.9396294386712041e-05 -1.3975063456223143e-05 0 -1.8957135285015698e-05 -1.2628957243834552e-05 0 -1.4928126741704017e-05 -9.7813327317433994e-06 0 -1.8272029186728823e-05 -7.8679741853729085e-06 0 -8.6747674047056832e-05 0.00018482877802583806 0 -9.9534342562494849e-05 0.00017268448222793807 0 -8.3933361705835677e-05 0.00016562249203520211 0 -3.2715695768158258e-05 -8.5055684534851198e-05 0 -2.6396976850283727e-05 -7.7953538183878854e-05 0 -3.1788679633225953e-05 -7.5890644527379364e-05 0 -2.8554523971529005e-05 -5.2629629811071094e-05 0 -2.9928156075560671e-05 -6.1640190180281895e-05 0 -2.380484814044817e-05 -5.7410638602418465e-05 0 -3.4468105762871967e-05 -2.7821707485098511e-05 0 -3.4130919025967429e-05 -2.9453790389520608e-05 0 -3.2500810976018765e-05 -2.7577305050532906e-05 0 -2.6042952603599503e-05 -2.796717964471029e-05 0 -2.3634767317505864e-05 -2.4632796688046599e-05 0 -2.4870040692053833e-05 -2.5469814210891359e-05 0 -1.0464924302078823e-05 3.8770216992605197e-06 0 -8.3425675576062057e-06 2.3636595296190413e-06 0 -8.2674758189011772e-06 4.088441310200169e-06 0 -3.2741346145540085e-05 -3.3504179249553903e-05 0 -3.1156714758296011e-05 -3.3720425279702624e-05 0 -3.1341572232998918e-05 -3.1258261676079098e-05 0 -8.6387681276879639e-06 -1.2140140016103211e-06 0 -7.0180836285550311e-06 -5.2111685417598742e-07 0 -6.6836755733730141e-06 -5.1887279725093988e-07 0 -5.2782954710825587e-06 -4.3281345628477353e-08 0 -6.6836755733730141e-06 -5.1887279725093988e-07 0 -7.0180836285550311e-06 -5.2111685417598742e-07 0 -1.1220282790289711e-05 -3.8446775502853332e-07 0 -1.2509667360679593e-05 -2.3181900372712698e-06 0 -1.415514286090766e-05 -2.5371224113588568e-06 0 -2.6825239159255261e-05 -1.9586584290629313e-05 0 -3.1150893433909054e-05 -2.6628011599739703e-05 0 -2.6750394195771331e-05 -2.3488919176692719e-05 0 -7.5104757791231381e-06 -6.1695363010150262e-07 0 -8.2813688274962551e-06 -9.0768542869937137e-07 0 -6.3211239061071933e-06 -8.7212573550706346e-08 0 -7.3433828408933854e-06 -3.1288250506889254e-07 0 -6.3211239061071933e-06 -8.7212573550706346e-08 0 -8.2813688274962551e-06 -9.0768542869937137e-07 0 -9.8530020335146788e-06 -1.8020107446485741e-06 0 -9.4278406278057577e-06 -1.4685989002144383e-06 0 -8.2813688274962551e-06 -9.0768542869937137e-07 0 -3.5486101561623849e-05 -3.3512778957391611e-05 0 -3.7010199997714278e-05 -3.1865427309436228e-05 0 -3.8185294025237799e-05 -3.396533625001884e-05 0 -3.9630582929687659e-05 -3.2665290466176658e-05 0 -3.8185294025237799e-05 -3.396533625001884e-05 0 -3.7010199997714278e-05 -3.1865427309436228e-05 0 -2.8273230229770929e-05 -3.3208816782197552e-05 0 -2.9479087472728147e-05 -3.3968055098757646e-05 0 -2.9724877454990417e-05 -3.6430793966926644e-05 0 -3.0610839896551701e-05 -3.545451504653256e-05 0 -2.9724877454990417e-05 -3.6430793966926644e-05 0 -2.9479087472728147e-05 -3.3968055098757646e-05 0 -1.482960913562383e-05 7.9596603760191028e-06 0 -1.7424327397572992e-05 4.0209999481311225e-07 0 -1.3219514039253974e-05 8.779400910097775e-06 0 -2.442391124670057e-05 0.00024831801864956917 0 -3.2127267299329595e-05 0.00026172347057496918 0 -4.2380491306212162e-05 0.00025469071104962263 0 -6.2291613266713864e-05 -0.00011694395196254718 0 -5.9109915444248725e-05 -0.00012230761310642511 0 -5.421880978390712e-05 -0.00011880093177242242 0 -3.3817096578215469e-05 -0.00011570696351731653 0 -4.0679316829595628e-05 -0.00011862131854354864 0 -3.6880714329382083e-05 -0.0001215003022023629 0 -9.6467140134050993e-05 0.00025131686196249163 0 -7.6986756402655542e-05 0.00025553061610688222 0 -8.8793436882377011e-05 0.00026390363829874628 0 -8.6747674047056832e-05 0.00018482877802583806 0 -8.3933361705835677e-05 0.00016562249203520211 0 -7.0273895245112183e-05 0.00017089816238015281 0 -3.2715695768158258e-05 -8.5055684534851198e-05 0 -3.1788679633225953e-05 -7.5890644527379364e-05 0 -3.7747793792158404e-05 -7.8813552129879013e-05 0 -2.8554523971529005e-05 -5.2629629811071094e-05 0 -3.520053744363328e-05 -6.0692591428154776e-05 0 -2.9928156075560671e-05 -6.1640190180281895e-05 0 -1.4419997534329807e-05 -4.2322067650916589e-06 0 -1.415514286090766e-05 -2.5371224113588568e-06 0 -1.2509667360679593e-05 -2.3181900372712698e-06 0 -4.1499532222646824e-05 0.00027243083391162827 0 -4.2380491306212162e-05 0.00025469071104962263 0 -3.2127267299329595e-05 0.00026172347057496918 0 -5.4993369999336515e-05 -0.00012653148504772758 0 -5.421880978390712e-05 -0.00011880093177242242 0 -5.9109915444248725e-05 -0.00012230761310642511 0 -7.8818663262000867e-05 0.00027407317913349266 0 -8.8793436882377011e-05 0.00026390363829874628 0 -7.6986756402655542e-05 0.00025553061610688222 0 -4.043003390989478e-05 -0.00012582552032204558 0 -3.6880714329382083e-05 -0.0001215003022023629 0 -4.0679316829595628e-05 -0.00011862131854354864 0 -3.2565084765409709e-05 -2.962882387288344e-05 0 -3.2500810976018765e-05 -2.7577305050532906e-05 0 -3.4130919025967429e-05 -2.9453790389520608e-05 0 -1.6497446747791231e-05 -2.9088788086157493e-05 0 -2.3402981488257052e-05 -2.7902577019196755e-05 0 -2.0525850435626957e-05 -3.554392560033441e-05 0 -4.2920513426023331e-05 -3.7742212908157147e-05 0 -4.1548578805221433e-05 -3.4989242375332729e-05 0 -4.153180761700011e-05 -3.4278900782712479e-05 0 -2.6146119050441058e-05 -2.7545679758780136e-05 0 -2.6965770966113542e-05 -3.047747446017938e-05 0 -2.8334338283272396e-05 -3.3555112792286341e-05 0 -4.0631793000972252e-06 8.0818485306669532e-07 0 -2.8971330747320424e-06 6.376460291625967e-07 0 -3.8324708141136383e-06 6.5463701649056767e-07 0 -9.2995119637269614e-05 0.00015031605587397778 0 -9.3854811706317191e-05 0.00012873763478117597 0 -7.9216216288420464e-05 0.00013258245079816858 0 -7.7238426094634451e-05 0.00011579224779243751 0 -7.9216216288420464e-05 0.00013258245079816858 0 -9.3854811706317191e-05 0.00012873763478117597 0 -3.0514098785489571e-05 -2.5348356526458918e-05 0 -3.25209763918627e-05 -2.5372529584395234e-05 0 -3.2500810976018765e-05 -2.7577305050532906e-05 0 -9.3932613091696942e-06 -1.0164515143450183e-06 0 -9.4278406278057577e-06 -1.4685989002144383e-06 0 -1.0910293164512788e-05 -2.3983753847987227e-06 0 -2.7128524573268279e-05 -1.2592897044789592e-05 0 -2.6099530189558142e-05 -1.2176268077617691e-05 0 -2.5260456026986391e-05 -9.7040476602189913e-06 0 -2.4027728245069539e-05 -8.263443613699147e-06 0 -2.5260456026986391e-05 -9.7040476602189913e-06 0 -2.6099530189558142e-05 -1.2176268077617691e-05 0 -7.0471171779890493e-05 0.00014940432877403402 0 -7.0273895245112183e-05 0.00017089816238015281 0 -8.3933361705835677e-05 0.00016562249203520211 0 -3.5087662857948887e-05 -6.9267822231196594e-05 0 -3.7747793792158404e-05 -7.8813552129879013e-05 0 -3.1788679633225953e-05 -7.5890644527379364e-05 0 -3.5087662857948887e-05 -6.9267822231196594e-05 0 -2.9928156075560671e-05 -6.1640190180281895e-05 0 -3.520053744363328e-05 -6.0692591428154776e-05 0 -5.855310668571587e-06 -1.5211039076783716e-06 0 -8.8729085296581634e-06 -2.3263716349120445e-06 0 -6.7948526613691048e-06 -1.2952728596840355e-06 0 -7.9184297884668697e-06 9.398466000407437e-07 0 -8.8662773583949515e-06 4.6695872199121041e-07 0 -1.2055596040553035e-05 1.660339937156402e-06 0 -1.6176322971062731e-05 3.3726383136249296e-06 0 -1.2055596040553035e-05 1.660339937156402e-06 0 -1.5502170560787216e-05 2.4522186066124573e-06 0 -1.1590394788142272e-05 -3.6823182691920702e-06 0 -1.1486262690302018e-05 -3.0456816278076369e-06 0 -8.8729085296581634e-06 -2.3263716349120445e-06 0 -1.2247038540546891e-05 -3.0847533215572508e-06 0 -1.2509667360679593e-05 -2.3181900372712698e-06 0 -1.075442384329391e-05 -1.332790069119509e-06 0 -9.2995119637269614e-05 0.00015031605587397778 0 -8.3933361705835677e-05 0.00016562249203520211 0 -9.9534342562494849e-05 0.00017268448222793807 0 -2.6661178963451241e-05 -6.7940819169459536e-05 0 -3.1788679633225953e-05 -7.5890644527379364e-05 0 -2.6396976850283727e-05 -7.7953538183878854e-05 0 -2.6661178963451241e-05 -6.7940819169459536e-05 0 -2.380484814044817e-05 -5.7410638602418465e-05 0 -2.9928156075560671e-05 -6.1640190180281895e-05 0 -3.8764667532191026e-05 -4.7544268038706598e-05 0 -4.4798189188680537e-05 -4.7678959350440309e-05 0 -4.5024471130610552e-05 -5.4531216993391405e-05 0 -3.4468105762871967e-05 -2.7821707485098511e-05 0 -3.2500810976018765e-05 -2.7577305050532906e-05 0 -3.25209763918627e-05 -2.5372529584395234e-05 0 -1.0464924302078823e-05 3.8770216992605197e-06 0 -1.1397804632782471e-05 6.2454563839858367e-06 0 -1.3983367692820852e-05 5.3478513989001243e-06 0 -1.4720830496121973e-05 -6.196984750891764e-06 0 -1.2805240480529956e-05 -4.0789554471744804e-06 0 -1.4149231583303322e-05 -5.3340038895898247e-06 0 -8.9621488994648845e-06 -1.768886261380438e-06 0 -1.1991092046989316e-05 -2.8850432423702151e-06 0 -1.0110139585132091e-05 -1.9166490275832737e-06 0 -6.9826893846010966e-05 7.9965770666324225e-05 0 -5.856292382674185e-05 8.1214669369711933e-05 0 -6.7293680912352023e-05 9.805710451861532e-05 0 -4.5972372632548292e-05 -3.9803122355147584e-05 0 -4.4798189188680537e-05 -4.7678959350440309e-05 0 -4.1214793299711724e-05 -4.0502467144805619e-05 0 -2.7086115251633393e-05 0.00018483531609927195 0 -4.3043224972298312e-05 0.00018528286844896239 0 -3.482534329155752e-05 0.00017056634610052658 0 -5.7233833903801832e-05 -8.8245279003828876e-05 0 -5.0315194906390352e-05 -8.768149897204481e-05 0 -5.2394278180731224e-05 -8.0719033367386447e-05 0 -2.3385777729725782e-05 0.00010937738559566642 0 -3.3305504519067353e-05 0.00012587525652293357 0 -4.2727215995640447e-05 0.00011140942444543586 0 -1.4731846647190378e-05 -4.2983083898070079e-06 0 -1.5857674618293903e-05 -4.6926734962429879e-06 0 -1.8262407542495979e-05 -6.2489988368125988e-06 0 -1.1636339049903379e-05 -3.0985434263160083e-06 0 -1.0910293164512788e-05 -2.3983753847987227e-06 0 -9.4278406278057577e-06 -1.4685989002144383e-06 0 -4.1827616356665628e-05 -6.0822006385648244e-05 0 -4.5024471130610552e-05 -5.4531216993391405e-05 0 -4.8582650545598765e-05 -6.1430036955596962e-05 0 -3.9630582929687659e-05 -3.2665290466176658e-05 0 -4.153180761700011e-05 -3.4278900782712479e-05 0 -4.1548578805221433e-05 -3.4989242375332729e-05 0 -2.8273230229770929e-05 -3.3208816782197552e-05 0 -2.8334338283272396e-05 -3.3555112792286341e-05 0 -2.6965770966113542e-05 -3.047747446017938e-05 0 -7.3433828408933854e-06 -3.1288250506889254e-07 0 -8.2813688274962551e-06 -9.0768542869937137e-07 0 -9.4278406278057577e-06 -1.4685989002144383e-06 0 -9.9114255107668795e-05 0.00027455431185741878 0 -0.00010599210944827035 0.00026289972147184595 0 -8.8793436882377011e-05 0.00026390363829874628 0 -9.6467140134050993e-05 0.00025131686196249163 0 -8.8793436882377011e-05 0.00026390363829874628 0 -0.00010599210944827035 0.00026289972147184595 0 -3.3817096578215469e-05 -0.00011570696351731653 0 -3.6880714329382083e-05 -0.0001215003022023629 0 -3.0970429890206742e-05 -0.000119448949364054 0 -3.3797483417356399e-05 -0.00012460275864140731 0 -3.0970429890206742e-05 -0.000119448949364054 0 -3.6880714329382083e-05 -0.0001215003022023629 0 -2.3707943369179437e-05 0.0002698699930102869 0 -3.2127267299329595e-05 0.00026172347057496918 0 -1.6674119307807587e-05 0.00025751526088196131 0 -6.3458827117469243e-05 -0.00012681640742550609 0 -5.9109915444248725e-05 -0.00012230761310642511 0 -6.6367975979051452e-05 -0.0001218967934267038 0 -2.442391124670057e-05 0.00024831801864956917 0 -1.6674119307807587e-05 0.00025751526088196131 0 -3.2127267299329595e-05 0.00026172347057496918 0 -6.2291613266713864e-05 -0.00011694395196254718 0 -6.6367975979051452e-05 -0.0001218967934267038 0 -5.9109915444248725e-05 -0.00012230761310642511 0 -3.0514098785489571e-05 -2.5348356526458918e-05 0 -3.2500810976018765e-05 -2.7577305050532906e-05 0 -3.0758460363253967e-05 -2.7816021539743404e-05 0 -3.4676267346831093e-05 -2.5297495272693525e-05 0 -3.3108573236389111e-05 -2.2120077868325765e-05 0 -3.5246080453519837e-05 -2.4239588694992855e-05 0 -3.4185826781964085e-05 -2.2136687252538965e-05 0 -3.5246080453519837e-05 -2.4239588694992855e-05 0 -3.3108573236389111e-05 -2.2120077868325765e-05 0 -3.2565084765409709e-05 -2.962882387288344e-05 0 -3.4130919025967429e-05 -2.9453790389520608e-05 0 -3.4255624779883431e-05 -3.1391085161932287e-05 0 -3.5939870463933222e-05 -3.0112025443759179e-05 0 -3.4255624779883431e-05 -3.1391085161932287e-05 0 -3.4130919025967429e-05 -2.9453790389520608e-05 0 -9.3138274841426969e-06 1.3018989731670067e-05 0 -1.1270294730866234e-05 9.4474163009351826e-06 0 -1.2961915956867574e-05 1.0200795539550143e-05 0 -1.5888660124549659e-05 9.1346286700692252e-06 0 -2.1678446017877364e-05 1.2499020800034928e-05 0 -1.9186875898134312e-05 7.9180977888781026e-06 0 -2.5590450414071194e-05 1.1142982799321705e-05 0 -1.9186875898134312e-05 7.9180977888781026e-06 0 -2.1678446017877364e-05 1.2499020800034928e-05 0 -1.4731846647190378e-05 -4.2983083898070079e-06 0 -1.7209525952152721e-05 -6.2933339974495601e-06 0 -1.3962934464802211e-05 -4.2053656342016591e-06 0 -6.9826893846010966e-05 7.9965770666324225e-05 0 -5.7770062164785259e-05 6.6648993597065047e-05 0 -5.856292382674185e-05 8.121466936971192e-05 0 -4.6271563981985785e-05 6.886331653737931e-05 0 -5.856292382674185e-05 8.121466936971192e-05 0 -5.7770062164785259e-05 6.6648993597065047e-05 0 -1.0901787179776117e-05 7.4573036092070636e-06 0 -1.1270294730866234e-05 9.4474163009351826e-06 0 -9.0381970799790102e-06 9.5851004043051725e-06 0 -2.5834983985704414e-05 -2.4579674039823664e-05 0 -2.7177545207885753e-05 -2.7837009539702932e-05 0 -2.4870040692053833e-05 -2.5469814210891359e-05 0 -2.6042952603599503e-05 -2.796717964471029e-05 0 -2.4870040692053833e-05 -2.5469814210891359e-05 0 -2.7177545207885753e-05 -2.7837009539702932e-05 0 -7.7904938265143976e-06 8.3969227387875993e-06 0 -9.0381970799790102e-06 9.5851004043051725e-06 0 -8.2509086154327801e-06 1.1673006220023736e-05 0 -3.5604106497677125e-05 -3.5059238350790173e-05 0 -4.0421930320603111e-05 -3.4269361863898411e-05 0 -4.1214793299711724e-05 -4.0502467144805619e-05 0 -4.5972372632548292e-05 -3.9803122355147584e-05 0 -4.1214793299711724e-05 -4.0502467144805619e-05 0 -4.0421930320603111e-05 -3.4269361863898411e-05 0 -7.9187622265111288e-06 5.0292688902084759e-06 0 -9.8806094743029864e-06 5.325958265998446e-06 0 -8.3445239778651878e-06 6.8567602865692158e-06 0 -7.7904938265143976e-06 8.3969227387875993e-06 0 -8.3445239778651878e-06 6.8567602865692158e-06 0 -9.0381970799790102e-06 9.5851004043051725e-06 0 -3.4185826781964085e-05 -2.2136687252538965e-05 0 -3.4249469020276349e-05 -2.1169088198479248e-05 0 -3.6115845271232771e-05 -2.4337423047617951e-05 0 -1.1636339049903379e-05 -3.0985434263160083e-06 0 -1.2805240480529956e-05 -4.0789554471744804e-06 0 -1.0910293164512788e-05 -2.3983753847987227e-06 0 -1.2247038540546891e-05 -3.0847533215572508e-06 0 -1.0910293164512788e-05 -2.3983753847987227e-06 0 -1.2805240480529956e-05 -4.0789554471744804e-06 0 -1.1220282790289711e-05 -3.8446775502853332e-07 0 -1.075442384329391e-05 -1.332790069119509e-06 0 -1.2509667360679593e-05 -2.3181900372712698e-06 0 4.1583586064977698e-06 0.0001778762464288648 0 -1.1857516745850522e-05 0.00019043846044616169 0 -9.4023619034610319e-06 0.00017464271604830756 0 -7.1433754804820079e-05 -8.8404606109689364e-05 0 -6.4713008316204254e-05 -9.2095101558827095e-05 0 -6.4593819781029934e-05 -8.4678204252025861e-05 0 -1.9284539670262567e-05 -6.3668226639018863e-06 0 -1.8262407542495979e-05 -6.2489988368125988e-06 0 -1.5857674618293903e-05 -4.6926734962429887e-06 0 -1.3301736798254817e-09 1.4789133736551869e-10 0 -9.8598917098736435e-07 2.9224930388656556e-07 0 -8.7209107356578614e-07 2.4722741683733561e-07 0 7.5629962811208189e-06 0.00010773094385828737 0 -6.5658849873358739e-06 0.00011639023683339709 0 -7.5158732064107372e-06 0.00010106546845927142 0 -3.2565084765409709e-05 -2.962882387288344e-05 0 -3.0758460363253967e-05 -2.7816021539743404e-05 0 -3.2500810976018765e-05 -2.7577305050532906e-05 0 -1.6745984143917469e-05 4.7935752234481683e-06 0 -1.9186875898134312e-05 7.9180977888781026e-06 0 -2.2629489894497066e-05 7.5147378527294418e-06 0 -2.5590450414071194e-05 1.1142982799321705e-05 0 -2.2629489894497066e-05 7.5147378527294418e-06 0 -1.9186875898134312e-05 7.9180977888781026e-06 0 -3.6658989047717424e-05 -2.3858559773258289e-05 0 -3.6115845271232771e-05 -2.4337423047617951e-05 0 -3.4249469020276349e-05 -2.1169088198479248e-05 0 
</DataArray>
</PointData>
<CellData Scalars="region_id,cross_section_updated," Vectors="" Tensors="stress,">
<DataArray type="Float64" Name="region_id" format="ascii">
2 2 2 2 2 2 2 2 2 2 3 3 3 3 3 3 3 3 3 3 1 1 1 1 1 1 1 1 1 1 1 1 1 1 1 1 1 1 1 1 1 1 1 1 1 1 1 1 1 1 1 1 1 1 1 1 1 1 1 1 1 1 1 1 1 1 1 1 1 1 1 1 1 1 1 1 1 1 1 1 1 1 1 1 1 1 1 1 1 1 1 1 1 1 1 1 1 1 1 1 1 1 1 1 1 1 1 1 1 1 1 1 1 1 1 1 1 1 1 1 1 1 1 1 1 1 1 1 1 1 1 1 1 1 1 1 1 1 1 1 1 1 1 1 1 1 1 1 1 1 1 1 1 1 1 1 1 1 1 1 1 1 1 1 1 1 1 1 1 1 1 1 1 1 1 1 1 1 1 1 1 1 1 1 1 1 1 1 1 1 1 1 1 1 1 1 1 1 1 1 1 1 1 1 1 1 1 1 1 1 1 1 1 1 1 1 1 1 1 1 1 1 1 1 1 1 1 1 1 1 1 1 1 1 1 1 1 1 1 1 1 1 1 1 1 1 1 1 1 1 1 1 1 1 1 1 1 1 1 1 1 1 1 1 1 1 1 1 1 1 1 1 1 1 1 1 1 1 1 1 1 1 1 1 1 1 1 1 1 1 1 1 1 1 1 1 1 1 1 1 1 1 1 1 1 1 1 1 1 1 1 1 1 1 1 1 1 1 1 1 1 1 1 1 1 1 1 1 1 1 1 1 1 1 1 1 1 1 1 1 1 1 1 1 1 1 1 1 1 1 1 1 1 1 1 1 1 1 1 1 1 1 1 1 1 1 1 1 1 1 1 1 1 1 1 1 1 1 1 1 1 1 1 1 1 1 1 1 1 1 1 1 1 1 1 1 1 1 1 1 1 1 1 1 1 1 1 1 1 1 1 1 1 1 1 1 1 1 1 1 1 1 1 1 1 1 1 1 1 1 1 1 1 1 1 1 1 1 1 1 1 1 1 1 1 1 1 1 1 1 1 1 1 1 1 1 1 1 1 1 1 1 1 1 1 1 1 1 1 1 1 1 1 1 1 1 1 1 1 1 1 1 1 1 1 1 1 1 1 1 1 1 1 1 1 1 1 1 1 1 1 1 1 1 1 1 1 1 1 1 1 1 1 1 1 1 1 1 1 1 1 1 1 1 1 1 1 1 1 1 1 1 1 1 1 1 1 1 1 1 1 1 1 1 1 1 1 1 1 1 1 1 1 1 1 1 1 1 1 1 1 1 1 1 1 1 1 1 1 1 1 1 1 1 1 1 1 1 1 1 1 1 1 1 1 1 1 1 1 1 1 1 1 1 1 1 1 1 1 1 1 1 1 1 1 1 1 1 1 1 1 1 1 1 1 1 1 1 1 1 1 1 1 1 1 1 1 1 1 1 1 1 1 1 1 1 1 1 1 1 1 1 1 1 1 1 1 1 1 1 1 1 1 1 1 1 1 1 1 1 1 1 1 1 1 1 1 1 1 1 1 1 1 1 1 1 1 1 1 1 1 1 1 1 1 1 1 1 1 1 1 1 1 1 1 1 1 1 1 1 1 1 1 1 1 1 1 1 1 1 1 1 1 1 1 1 1 1 1 1 1 1 1 1 1 1 1 1 1 1 1 1 1 1 1 1 1 1 1 1 1 1 1 1 1 1 1 1 1 1 1 1 1 1 1 1 1 1 1 1 1 1 1 1 1 1 1 1 1 1 1 1 1 1 1 1 1 1 1 1 1 1 1 1 1 1 1 1 1 1 1 1 1 1 1 1 1 1 1 1 1 1 1 1 1 1 1 1 1 1 1 1 1 1 1 1 1 1 1 1 1 1 1 1 1 1 1 1 1 1 1 1 1 1 1 1 1 1 1 1 1 1 1 1 1 1 1 1 1 1 1 1 1 1 1 1 1 1 1 1 1 1 1 1 1 1 1 1 1 1 1 1 1 1 1 1 1 1 1 1 1 1 1 1 1 1 1 1 1 1 1 1 1 1 1 1 1 1 1 1 1 1 1 1 1 1 1 1 1 1 1 1 1 1 1 1 1 1 1 1 1 1 1 1 1 1 1 1 1 1 1 1 1 1 1 1 1 1 1 1 1 1 1 1 1 1 1 1 1 1 1 1 1 1 1 1 1 1 1 1 1 1 1 1 1 1 1 1 1 1 1 1 1 1 1 1 1 1 1 1 1 1 1 1 1 1 1 1 1 1 1 1 1 1 1 1 1 1 1 1 1 1 1 1 1 1 1 1 1 1 1 1 1 1 1 1 1 1 1 1 1 1 1 1 1 1 1 1 1 1 1 1 1 1 1 1 1 1 1 1 1 1 1 1 1 1 1 1 1 1 1 1 1 1 
</DataArray>
<DataArray type="Float64" Name="stress" NumberOfComponents="9" format="ascii">
-3.9025176762367262e-05 -3.4023759749622233e-05 0 -3.4023759749622233e-05 -1.3008392254122421e-05 0 0 0 -1.3008392254122421e-05 -4.2780350019745251e-05 -4.8423654251566952e-05 0 -4.8423654251566952e-05 -1.426011667324839e-05 0 0 0 -1.426011667324839e-05 -4.8690711750158373e-05 -6.137309231005425e-05 0 -6.137309231005425e-05 -1.6230237250052773e-05 0 0 0 -1.6230237250052773e-05 -4.5596289517489154e-05 -6.3164167404492118e-05 0 -6.3164167404492118e-05 -1.5198763172496403e-05 0 0 0 -1.5198763172496403e-05 -4.0963727351114648e-05 -5.4095833783951485e-05 0 -5.4095833783951485e-05 -1.365457578370491e-05 0 0 0 -1.365457578370491e-05 -3.9023608132051019e-05 -5.9849973916263448e-05 0 -5.9849973916263448e-05 -1.3007869377350349e-05 0 0 0 -1.3007869377350349e-05 -4.0694302421672313e-05 -5.1139371306067936e-05 0 -5.1139371306067936e-05 -1.3564767473890789e-05 0 0 0 -1.3564767473890789e-05 -3.6299824483810163e-05 -5.9393627274595363e-05 0 -5.9393627274595363e-05 -1.2099941494603424e-05 0 0 0 -1.2099941494603424e-05 -2.7535437507851209e-05 -4.4325854833023384e-05 0 -4.4325854833023384e-05 -9.1784791692836641e-06 0 0 0 -9.1784791692836641e-06 -2.875890318366776e-05 -7.8124970375844293e-06 0 -7.8124970375844293e-06 -9.5863010612226227e-06 0 0 0 -9.5863010612226227e-06 6.6768375740198973e-05 6.5427162741928368e-05 0 6.5427162741928368e-05 2.2256125246732993e-05 0 0 0 2.2256125246732993e-05 -2.5213585558100401e-05 6.8492631710455939e-05 0 6.8492631710455939e-05 -8.4045285193668004e-06 0 0 0 -8.4045285193668004e-06 -3.4864187122688821e-05 4.8977308907897324e-05 0 4.8977308907897324e-05 -1.1621395707562938e-05 0 0 0 -1.1621395707562938e-05 -4.2917411287194876e-05 9.7106230672106485e-05 0 9.7106230672106485e-05 -1.4305803762398292e-05 0 0 0 -1.4305803762398292e-05 -5.013842388935214e-05 7.8603938930191632e-05 0 7.8603938930191632e-05 -1.6712807963117382e-05 0 0 0 -1.6712807963117382e-05 -5.5577191582235007e-05 7.9341495154685074e-05 0 7.9341495154685074e-05 -1.8525730527411671e-05 0 0 0 -1.8525730527411671e-05 -5.8765456922732517e-05 7.4618914372830093e-05 0 7.4618914372830093e-05 -1.958848564091083e-05 0 0 0 -1.958848564091083e-05 -7.157682746286733e-05 0.00010607589708151212 0 0.00010607589708151212 -2.3858942487622452e-05 0 0 0 -2.3858942487622452e-05 -6.8216161629907008e-06 6.6767770919942595e-05 0 6.6767770919942595e-05 -2.2738720543302336e-06 0 0 0 -2.2738720543302336e-06 -0.00022377166732550984 -1.6280822544481989e-05 0 -1.6280822544481989e-05 -7.4590555775169948e-05 0 0 0 -7.4590555775169948e-05 -0.046785692154428987 -0.011844678208825721 0 -0.011844678208825721 0.019452948533676434 0 0 0 -0.0068331859051881383 -0.043152361776886888 -0.012125790629747538 0 -0.012125790629747538 0.033873963654487027 0 0 0 -0.0023195995305999723 -0.05955414752255922 -0.0083892354185670509 0 -0.0083892354185670509 0.030534701958119553 0 0 0 -0.0072548613911099236 -0.060507543294872596 -0.00059728960810152831 0 -0.00059728960810152831 0.031786972642851602 0 0 0 -0.0071801426630052415 -0.12708570346838227 -0.0033632241885648249 0 -0.0033632241885648249 0.0012607796436902435 0 0 0 -0.031456230956173004 -0.090876789099986671 -0.00046371782329003748 0 -0.00046371782329003748 -0.0003248639870504803 0 0 0 -0.022800413271759301 -0.13328959749724284 -0.0012569921020551683 0 -0.0012569921020551683 -0.0011485779219051985 0 0 0 -0.033609543854787018 -0.093727178088293381 -0.0012459566452819374 0 -0.0012459566452819374 -0.00072573182386581614 0 0 0 -0.023613227478039803 -0.10632930788986414 0.0027123411415219123 0 0.0027123411415219123 -0.00035990158455925791 0 0 0 -0.026672302368605842 -0.18219820788086688 -0.0081138829185788963 0 -0.0081138829185788963 -0.0004456113905970116 0 0 0 -0.04566095481786598 -0.024967695821616034 0.0030284948990894059 0 0.0030284948990894059 -0.013440129947198377 0 0 0 -0.0096019564422035984 -0.028588099141193507 0.0038569340391817917 0 0.0038569340391817917 -0.0099162089293251612 0 0 0 -0.0096260770176296549 -0.048579806282566966 0.0014784097276217944 0 0.0014784097276217944 -0.0077793616555689934 0 0 0 -0.014089791984533978 -0.049550308331013176 -0.0050738351949053901 0 -0.0050738351949053901 -0.016519762807267625 0 0 0 -0.016517517784570203 -0.048819980261813112 0.0025223226530686972 0 0.0025223226530686972 -0.016273215526172322 0 0 0 -0.016273298946996358 -0.056476286292344552 -0.01360638342031964 0 -0.01360638342031964 0.02329311086411856 0 0 0 -0.0082957938570564771 0.10451095114573061 0.087934044623125443 0 0.087934044623125443 0.18583313185334038 0 0 0 0.072586020749767777 -0.0040183745135070614 -0.010026790427645205 0 -0.010026790427645205 0.00025206404816735528 0 0 0 -0.00094157761633495429 -0.0059397419971758403 0.0062849553094224131 0 0.0062849553094224131 0.005584467517195435 0 0 0 -8.8818619995212345e-05 -0.0044624630800416121 0.012390285648508609 0 0.012390285648508609 0.010016304268459564 0 0 0 0.001388460297104821 -0.0035711809572478437 -0.0053840634059541086 0 -0.0053840634059541086 0.0015936447167264056 0 0 0 -0.00049438406013035952 -0.014757355619673951 0.019601380863060847 0 0.019601380863060847 0.0013502471233581836 0 0 0 -0.0033517771240793026 -0.011077810983692093 -0.020558020526201037 0 -0.020558020526201037 0.00077123241026821887 0 0 0 -0.0025766446433558299 -0.044751547384940596 0.0036636641034644259 0 0.0036636641034644259 -0.0084582935827493058 0 0 0 -0.013302460241922477 0.11417967239787853 -0.00433716254602802 0 -0.00433716254602802 0.11555590300383928 0 0 0 0.057433893850429449 -0.19628171882956627 0.012513852489610233 0 0.012513852489610233 0.0059096518007764054 0 0 0 -0.047593016757197459 -0.10836573653863994 -0.0049188265418057429 0 -0.0049188265418057429 0.0023258911163029916 0 0 0 -0.026509961355584172 -0.087123670568673567 -0.017018352975669025 0 -0.017018352975669025 0.018157347467089691 0 0 0 -0.017241580775395962 -0.099095387026515713 0.021841724112804273 0 0.021841724112804273 0.053841549223204499 0 0 0 -0.01131345945082779 -0.10963680727698294 -0.015795198161865254 0 -0.015795198161865254 0.0091900875064507004 0 0 0 -0.025111679942633088 -0.051401981544721136 -0.018054428223132957 0 -0.018054428223132957 0.041047971451148232 0 0 0 -0.002588502523393231 -0.026879724762357865 -0.028447025659590897 0 -0.028447025659590897 0.0034155665047379546 0 0 0 -0.0058660395644048735 -0.031206780314171179 0.036650221898166802 0 0.036650221898166802 0.0010000281875162109 0 0 0 -0.0075516880316635615 -0.028841073282023566 -0.029037228575980789 0 -0.029037228575980789 0.0068359134778703812 0 0 0 -0.0055012899510383795 -0.037543456475437553 0.038833242304498361 0 0.038833242304498361 -0.0017794514632116787 0 0 0 -0.0098307269846624745 -0.085555833103441226 -0.022281182953674337 0 -0.022281182953674337 0.0037243945705857373 0 0 0 -0.020457859633213865 -0.032684997260365951 -0.036521756144222373 0 -0.036521756144222373 0.055775629220645349 0 0 0 0.0057726579900698564 -0.11311126598243285 0.012342865560358185 0 0.012342865560358185 0.014143060723800505 0 0 0 -0.024742051314658092 0.21195380959983062 0.10049018644766963 0 0.10049018644766963 0.074494735175673288 0 0 0 0.071612136193876019 0.00043941375370679103 0.0074265874488705363 0 0.0074265874488705363 0.019670756606165352 0 0 0 0.0050275425899679871 -1.4267397935918691e-05 -0.0087080737753151283 0 -0.0087080737753151283 0.052363570679362037 0 0 0 0.013087325820356543 -0.04602239991811026 -0.018404823164402458 0 -0.018404823164402458 0.067423722524139737 0 0 0 0.0053503306515073745 -0.0003449201758418674 -0.015674129305234374 0 -0.015674129305234374 0.06928499720362824 0 0 0 0.017235019256946593 -0.0072442023125052213 0.0034479715884569995 0 0.0034479715884569995 -0.0026402909849139178 0 0 0 -0.0024711233243543962 -0.037795388679394637 -0.0044617142298890248 0 -0.0044617142298890248 -0.017196975373654239 0 0 0 -0.01374809101326222 -0.039809700996640045 0.0047655170823428118 0 0.0047655170823428118 -0.012881209325582357 0 0 0 -0.013172727580555599 -0.067584788224433076 0.057271204174695944 0 0.057271204174695944 0.055676541763027429 0 0 0 -0.0029770616153514257 -0.062147367642990864 0.051356977877551113 0 0.051356977877551113 0.040585179143874384 0 0 0 -0.005390547124779127 0.091962478870051503 0.12285199842279904 0 0.12285199842279904 0.21447392470221405 0 0 0 0.076609100893066343 -0.011173819629871948 0.0066968209795907896 0 0.0066968209795907896 0.00058839228364310214 0 0 0 -0.0026463568365572149 -0.017033874039064135 -0.019182321726527229 0 -0.019182321726527229 0.052488415538421415 0 0 0 0.0088636353748394285 -0.024459865593188301 -0.0092187979737885228 0 -0.0092187979737885228 -0.013250333954374138 0 0 0 -0.009427549886890596 -0.048210645068404875 -0.016910714910050157 0 -0.016910714910050157 0.051023728121757136 0 0 0 0.00070327076333807741 -0.039210415434204303 -0.02291516415614419 0 -0.02291516415614419 0.0037026942021894937 0 0 0 -0.008876930308003711 -0.02802174442684327 -0.0065970411603967632 0 -0.0065970411603967632 0.016646619286722009 0 0 0 -0.0028437812850302946 -0.09857300007543357 0.016337271978236978 0 0.016337271978236978 -0.00064638394908489438 0 0 0 -0.024804846006129755 -0.0086783575564508553 -0.0047400629844203124 0 -0.0047400629844203124 0.00022346600705347441 0 0 0 -0.0021137228873493452 -0.0099493550992812985 0.020364248386746553 0 0.020364248386746553 0.10169530416744355 0 0 0 0.02293648726704034 -0.01085018774627217 -0.014432718091574759 0 -0.014432718091574759 0.078937810803637071 0 0 0 0.017021905764341424 0.00076264176026752395 0.00074348942491736351 0 0.00074348942491736351 -0.0012206976501243361 0 0 0 -0.00011451397246364792 -0.023978320952989352 0.00074887904999060284 0 0.00074887904999060284 -0.0011902831515460122 0 0 0 -0.0062921510261338409 0.0012263738018556628 -0.052564003258049413 0 -0.052564003258049413 0.086386879934040969 0 0 0 0.021903313433974163 -0.022455970765213107 -0.00025355552191531905 0 -0.00025355552191531905 -0.0010794813737978748 0 0 0 -0.0058838630347527454 -0.031135090739906418 -0.0096076835026148513 0 -0.0096076835026148513 0.0037303470802911853 0 0 0 -0.0068511859149037735 -0.040719088449147234 -0.030897989487147053 0 -0.030897989487147053 0.0086260434179101786 0 0 0 -0.0080232612578092222 -0.08681106951259443 -0.0072894403223229395 0 -0.0072894403223229395 -0.014621049614739362 0 0 0 -0.025358029781833449 -0.11892950405931953 0.0036012964310348982 0 0.0036012964310348982 -0.019135299333666526 0 0 0 -0.034516200848246519 0.0022381788601057197 0.002931836784316022 0 0.002931836784316022 0.006085396268775284 0 0 0 0.0020808937822202923 0.0040544608650238678 -0.0034174630519099303 0 -0.0034174630519099303 0.035351308091884803 0 0 0 0.0098514422392271261 -0.088072743033804773 -0.00580081519045288 0 -0.00580081519045288 -0.021887800415646971 0 0 0 -0.027490135862362937 -0.068920448687766644 -0.00064866042873019209 0 -0.00064866042873019209 -0.016360180354609739 0 0 0 -0.021320157260594098 -0.032057348649268978 0.00067607623142923955 0 0.00067607623142923955 -0.015850124516570228 0 0 0 -0.011976868291459799 -0.090974390459371141 0.0020973735829971502 0 0.0020973735829971502 -0.00028890027919129674 0 0 0 -0.022815822684640615 -0.12954287602069892 -0.0076236874746395816 0 -0.0076236874746395816 0.00093960787787851496 0 0 0 -0.032150817035705083 -0.033171326922091959 -0.016814690065335279 0 -0.016814690065335279 -0.0067598174409396194 0 0 0 -0.0099827860907579224 -0.036085133467862088 -0.021293180631633365 0 -0.021293180631633365 0.0043507423035209492 0 0 0 -0.0079335977910853367 0.0085572074064153569 0.015297223538425442 0 0.015297223538425442 0.12790698096474062 0 0 0 0.034116047092789092 -0.0060229216797254154 -0.0028088201516788258 0 -0.0028088201516788258 -0.0021009888061246929 0 0 0 -0.0020309776214624403 -0.03484241389680183 -0.017779165201007821 0 -0.017779165201007821 -0.0080737046577493143 0 0 0 -0.010729029638637783 -0.026853936263182006 -0.009940665553670458 0 -0.009940665553670458 -0.0025472961415164697 0 0 0 -0.007350308101174631 -0.056868744026451479 0.050952890010036667 0 0.050952890010036667 -0.00093870187671019067 0 0 0 -0.014451861475790473 -0.10384518650746122 0.0012148605261373697 0 0.0012148605261373697 -0.034634317233324233 0 0 0 -0.034619875935196359 -0.077583229719022234 -0.0052492578071611931 0 -0.0052492578071611931 -0.025875126966385598 0 0 0 -0.025864589171351957 -0.038288646596814239 -0.0041835977463030756 0 -0.0041835977463030756 -0.017215330781568595 0 0 0 -0.013875994344595707 -0.01334736883064469 0.025317376394660585 0 0.025317376394660585 0.008308571466469683 0 0 0 -0.0012596993410438628 -0.012260966419073205 -0.0156165875905806 0 -0.0156165875905806 -0.000485394974330422 0 0 0 -0.0031865903483508373 -0.032430175923610527 -0.029299678245428784 0 -0.029299678245428784 0.0065860693698500672 0 0 0 -0.0064610266384401739 -0.028163349970842948 0.003018644398299302 0 0.003018644398299302 -0.012497818212643392 0 0 0 -0.010165292045871584 -0.067909618328100302 -0.012491690569050265 0 -0.012491690569050265 -0.0071161755619172234 0 0 0 -0.018756448472504402 -0.031993304106949227 -0.0096151398283833307 0 -0.0096151398283833307 -2.0049776923936058e-05 0 0 0 -0.0080033384709682909 -0.025921320715946584 0.0047786188282017972 0 0.0047786188282017972 -0.011297844434788795 0 0 0 -0.0093047912876838487 -0.028927490839890289 0.0043960624335687704 0 0.0043960624335687704 -0.0099654334198306469 0 0 0 -0.0097232310649302354 -0.03072292485539304 0.0033696463900519799 0 0.0033696463900519799 -0.011884961160664771 0 0 0 -0.010651971504014448 -0.025994236952050762 -0.0016990308763360773 0 -0.0016990308763360773 0.013269216674303475 0 0 0 -0.0031812550694367975 -0.033677100896680981 -0.028405296983866998 0 -0.028405296983866998 0.021850143516552734 0 0 0 -0.0029567393450320584 -0.02358238669253776 -0.0091604708131071133 0 -0.0091604708131071133 -0.00110460524238154 0 0 0 -0.006171747983729825 -0.047701469369833827 -0.019961048235922943 0 -0.019961048235922943 0.067521476246750117 0 0 0 0.0049550017192290727 -0.0030620197890263157 0.01504609114667077 0 0.01504609114667077 0.14400277598385269 0 0 0 0.035235189048706594 0.00020876835584993092 -0.0006791731061227545 0 -0.0006791731061227545 -0.00083740857590086648 0 0 0 -0.00015716005501276165 -0.0061338197143492312 -0.0048642094142188003 0 -0.0048642094142188003 -0.0029536583963762908 0 0 0 -0.002271869527681325 -0.0065249606294059959 0.011032376754946949 0 0.011032376754946949 0.14284649257024817 0 0 0 0.034080382985210766 -0.034548383914224351 0.016647218149906294 0 0.016647218149906294 0.091861458196246679 0 0 0 0.014328268570505606 -0.037154778379660587 0.0037436375955414284 0 0.0037436375955414284 -0.0076174513147796519 0 0 0 -0.011193057423610056 -0.040513368166120715 0.0029262177417957828 0 0.0029262177417957828 -0.0090497482586548699 0 0 0 -0.0123907791061939 -0.0012405314146655133 0.030931096107840839 0 0.030931096107840839 0.038113898654977163 0 0 0 0.0092183418100777459 -0.022481210905529014 0.034219652035349879 0 0.034219652035349879 0.031035682779577911 0 0 0 0.0021386179685123352 -0.041365598820659696 -0.028915971732091601 0 -0.028915971732091601 0.022119077122512515 0 0 0 -0.0048116304245367642 -0.004581603393029654 -0.0066171079024651136 0 -0.0066171079024651136 -0.0049365564036215615 0 0 0 -0.00237953994916279 -0.0041456575165507714 0.0049258438806888474 0 0.0049258438806888474 -0.014841944312501298 0 0 0 -0.0047469004572630591 -0.048939749601963067 0.0074917685685885888 0 0.0074917685685885888 0.059612755430497245 0 0 0 0.0026682514571335532 -0.007439162446466252 0.0066716649132118749 0 0.0066716649132118749 -0.0042994462713705772 0 0 0 -0.0029346521794586522 -0.015229750419106569 -0.013195969301072252 0 -0.013195969301072252 0.077407172363050503 0 0 0 0.015544355485986094 -0.09764678487221283 0.0023175532221429845 0 0.0023175532221429845 0.00066467755025144404 0 0 0 -0.024245526830490347 -0.15813063390226367 -0.0072087977937608239 0 -0.0072087977937608239 0.0010590597802350443 0 0 0 -0.039267893530507129 -0.021871112617704677 -0.02693310050776411 0 -0.02693310050776411 0.0080064020727127205 0 0 0 -0.0034661776362479718 0.082926683708815646 -0.050039288214674987 0 -0.050039288214674987 0.044538047606761721 0 0 0 0.03186618282889439 -0.028765499816452683 -0.017517296260864498 0 -0.017517296260864498 -0.0029278695535370769 0 0 0 -0.007923342342497447 -0.029675477754724511 -0.022138812765730723 0 -0.022138812765730723 -0.00014697476559544231 0 0 0 -0.0074556131300799744 -0.0040586518596539591 -0.0074959805500227628 0 -0.0074959805500227628 0.010523600978931699 0 0 0 0.0016162372798191574 -0.0030520771949862358 0.0074899157937782235 0 0.0074899157937782235 0.0075064494461010156 0 0 0 0.0011135930627785839 -0.0063651762487753061 0.00932228848609995 0 0.00932228848609995 0.024391164139080601 0 0 0 0.0045064969725761017 -0.002477599924437439 -0.0058496261707450259 0 -0.0058496261707450259 0.0023582292408985996 0 0 0 -2.9842670884820919e-05 -0.063293964311816692 0.029687111882372164 0 0.029687111882372164 0.074296514548454429 0 0 0 0.0027506375591594689 -0.03737473417958026 -0.014358322386150341 0 -0.014358322386150341 0.00042688327906392765 0 0 0 -0.0092369627251291109 -0.031697649553455089 -0.014040985581247528 0 -0.014040985581247528 -0.0033323038381659273 0 0 0 -0.0087574883479052471 -0.030395255676565761 -0.013557221391944957 0 -0.013557221391944957 -0.0058089150801829796 0 0 0 -0.0090510426891871644 -0.017396900591871489 -0.029791159657989411 0 -0.029791159657989411 0.014253851869799217 0 0 0 -0.00078576218051806812 -0.1424956030153835 0.01889792784262101 0 0.01889792784262101 0.0025277822228870761 0 0 0 -0.034991955198123981 -0.062385148156487991 -0.0020309818711124195 0 -0.0020309818711124195 0.017969546264647029 0 0 0 -0.01110390047296024 -0.05284034397412754 -0.0086032353635558736 0 -0.0086032353635558736 0.016459676783515675 0 0 0 -0.0090951667976529593 -0.01945402499416346 0.0033614228007209368 0 0.0033614228007209368 -0.015538609703919515 0 0 0 -0.0087481586745207507 -0.10479476138213778 0.03485848289084692 0 0.03485848289084692 -0.0018582129006390335 0 0 0 -0.026663243570693884 -0.08682488669545059 0.0044672466618407847 0 0.0044672466618407847 0.003981199882344133 0 0 0 -0.020710921703276583 -0.086543892802918423 -0.0028099983707080278 0 -0.0028099983707080278 0.0048962826580460916 0 0 0 -0.020411902536218066 -0.14242381264552581 0.00094418105884262749 0 0.00094418105884262749 0.010933570459236375 0 0 0 -0.032872560546572366 -0.13843953798411479 -0.016407923772240568 0 -0.016407923772240568 0.011035007185540402 0 0 0 -0.031851132699643681 -0.032634869528656865 -0.010214322208288051 0 -0.010214322208288051 -0.0033538265614228846 0 0 0 -0.0089971740225198819 -0.084978540521403911 -0.0082748233516446446 0 -0.0082748233516446446 0.0015342789707630811 0 0 0 -0.020861065387660305 0.010107118658587932 0.061668003630572288 0 0.061668003630572288 0.026133388971792293 0 0 0 0.0090601269075950563 -0.051600087228187784 -0.013633744004932252 0 -0.013633744004932252 0.046515595836119986 0 0 0 -0.0012711228480169635 -0.026721260416096564 0.013772700679644943 0 0.013772700679644943 0.017860654189391586 0 0 0 -0.0022151515566762509 -0.031614777955684681 0.02690445102896355 0 0.02690445102896355 -0.0047460047224392454 0 0 0 -0.0090901956695309538 -0.026204828284879633 -0.027211064748029701 0 -0.027211064748029701 0.016918522276175407 0 0 0 -0.0023215765021759593 -0.032624726388360691 -0.027461106763795207 0 -0.027461106763795207 0.025054671277902934 0 0 0 -0.0018925137776144496 -0.0092459387885930888 0.0049762953521711728 0 0.0049762953521711728 -0.011917024968100876 0 0 0 -0.0052907409391735327 -0.031229065472561823 -0.013337920998207631 0 -0.013337920998207631 -0.0096568929884284227 0 0 0 -0.010221489615247575 -0.046076720759442011 -0.0076455246363401185 0 -0.0076455246363401185 -0.019248131898638096 0 0 0 -0.016331213164520027 -0.04522909957705331 0.0048271322406163259 0 0.0048271322406163259 -0.01356022681333182 0 0 0 -0.014697331597596286 -0.030104306443282706 -0.031844965186340446 0 -0.031844965186340446 0.016074570272210945 0 0 0 -0.0035074340427679249 -0.069749437893715127 -0.019761007985454715 0 -0.019761007985454715 -0.0045365299678274407 0 0 0 -0.018571491965385635 -0.086058628958171179 -0.0048803752569896736 0 -0.0048803752569896736 0.022672393856488449 0 0 0 -0.015846558775420738 -0.030980439860131138 -0.0011612063175076091 0 -0.0011612063175076091 -0.017533190204719547 0 0 0 -0.012128407516212674 -0.029434267770822507 0.00084153832109505004 0 0.00084153832109505004 -0.014454417663690359 0 0 0 -0.010972171358628215 -0.035822431613860332 0.0030837266822761659 0 0.0030837266822761659 -0.011165823127787805 0 0 0 -0.011747063685412031 -0.036019314476548756 0.0038804532912962049 0 0.0038804532912962049 -0.011457789665317993 0 0 0 -0.011869276035466688 -0.075604964606118791 -0.014591145041777359 0 -0.014591145041777359 0.023214083137748198 0 0 0 -0.013097720367092627 -0.034897128853490916 0.011191389793285328 0 0.011191389793285328 0.016235239503743545 0 0 0 -0.0046654723374368427 -0.027681376876944767 -0.0014873396730410143 0 -0.0014873396730410143 -0.012966070064250776 0 0 0 -0.01016186173529888 -0.049630967447519589 -0.017499716910459269 0 -0.017499716910459269 -0.005215045608630911 0 0 0 -0.013711503264037625 -0.037624151456063001 0.013310192010486197 0 0.013310192010486197 0.04850618671094542 0 0 0 0.0027205088137206021 -0.04716760703058652 -0.0011190413836155242 0 -0.0011190413836155242 0.0013886120790566753 0 0 0 -0.011444748737882454 -0.045471721078387803 -0.00010101381979351481 0 -0.00010101381979351481 0.0058836596652404732 0 0 0 -0.0098970153532868255 -0.10383043134332802 0.001202448737568175 0 0.001202448737568175 -0.03458675647141294 0 0 0 -0.034604296953685235 -0.077573234220128517 -0.0052400272225139877 0 -0.0052400272225139877 -0.025842697768032389 0 0 0 -0.025853982997040229 0.071756545128414978 0.0333753278320712 0 0.0333753278320712 0.045155166968352548 0 0 0 0.029227928024191795 -0.037804858644911767 0.0025836165456461831 0 0.0025836165456461831 -0.0006021800991431632 0 0 0 -0.0096017596860137402 -0.058473579191265501 -0.0097261235792426536 0 -0.0097261235792426536 0.05509917701318362 0 0 0 -0.00084360054452047029 -0.016273958177475567 0.00063199889644149909 0 0.00063199889644149909 -0.024990291902481698 0 0 0 -0.010316062519989289 -0.093389747429645384 0.0034599867781204899 0 0.0034599867781204899 0.00098024998057767709 0 0 0 -0.023102374362266934 -0.14724285680872939 -0.0085681839318592357 0 -0.0085681839318592357 0.0012347980977329143 0 0 0 -0.036502014677749127 -0.031744402242051099 -0.011098527952016657 0 -0.011098527952016657 -0.013682041806146045 0 0 0 -0.011356611012049316 -0.085339073947298325 0.0062989134795132795 0 0.0062989134795132795 0.00031758401965572571 0 0 0 -0.021255372481910634 -0.10867445655064778 -0.024142336892165925 0 -0.024142336892165925 -0.00018103370344765835 0 0 0 -0.02721387256352386 -0.086372090956666231 0.0035822021192280021 0 0.0035822021192280021 -5.8586908203206445e-05 0 0 0 -0.021607669466217373 -0.057322508982460801 0.0021081663872890323 0 0.0021081663872890323 -0.0042233073098886858 0 0 0 -0.015386454073087374 -0.054334734506962641 -0.0095395853632643211 0 -0.0095395853632643211 -0.010244302249233332 0 0 0 -0.016144759189049007 -0.080698869365832232 -0.018145244491128143 0 -0.018145244491128143 0.0093702898019962511 0 0 0 -0.017832144890958995 -0.036875060116761005 -0.010402705179802657 0 -0.010402705179802657 -0.0014552682418343954 0 0 0 -0.0095825820896488501 -0.021542947644866528 0.032491198272354416 0 0.032491198272354416 0.035869545171973272 0 0 0 0.0035816493817766304 -0.024995728140621676 -0.018143613043143603 0 -0.018143613043143603 -0.0052844803397094076 0 0 0 -0.0075700521200827708 -0.033568398026216015 -0.00089564382852416692 0 -0.00089564382852416692 -0.015240415627510929 0 0 0 -0.012202203413431735 -0.0398412634395598 0.0025593430034043917 0 0.0025593430034043917 -0.012470796114008344 0 0 0 -0.013078014888392043 -0.056550088570326708 -0.0095621725308823007 0 -0.0095621725308823007 -0.020801083977972069 0 0 0 -0.019337793137074694 -0.051438038188542867 0.0043792263268186138 0 0.0043792263268186138 -0.014691465033963718 0 0 0 -0.016532375805626647 -0.053527925418057183 -0.010328298767253136 0 -0.010328298767253136 0.011536766109004976 0 0 0 -0.010497789827263036 -0.053181852496643506 -0.017676619678619512 0 -0.017676619678619512 0.014485361012833514 0 0 0 -0.009674122870952484 -0.054411904540668132 0.058031426774943023 0 0.058031426774943023 0.013414582590894231 0 0 0 -0.010249330487443364 -0.014509383604173198 0.075543897946411809 0 0.075543897946411809 0.042184160238177171 0 0 0 0.0069186941585009931 0.027023801083551097 0.0017081405631192564 0 0.0017081405631192564 0.04874413163861202 0 0 0 0.018941983180540772 -0.061970409205734579 -0.006745997774174485 0 -0.006745997774174485 0.043112417117745161 0 0 0 -0.0047144980219973667 -0.027926161505802134 0.0034273753474075631 0 0.0034273753474075631 -0.011759807162725549 0 0 0 -0.0099214921671319199 -0.037338452561799518 -0.01544000025065418 0 -0.01544000025065418 -0.004965940427157256 0 0 0 -0.010576098247239207 -0.051838439183725549 0.043556709405137117 0 0.043556709405137117 0.00096854437676219263 0 0 0 -0.012717473701740811 -0.018511656065069104 -0.0034149528232759879 0 -0.0034149528232759879 0.038014258877801854 0 0 0 0.0048756507031830765 -0.022433314434882529 -0.0083236273120751991 0 -0.0083236273120751991 -0.012636147491851102 0 0 0 -0.0087673654816834146 -0.043936233359560845 0.0021449540299824403 0 0.0021449540299824403 -0.0063537635988218637 0 0 0 -0.012572499239595664 -0.082008701945801288 0.017279122766657662 0 0.017279122766657662 0.042301817982601464 0 0 0 -0.0099267209907999976 -0.094269013101086985 0.00087017414417998981 0 0.00087017414417998981 -0.0016582335378220459 0 0 0 -0.023981811659727265 -0.14120880399310987 -0.0033889067174543825 0 -0.0033889067174543825 -0.0034058685406713196 0 0 0 -0.036153668133445317 -0.030656251351640768 -0.016601689186579879 0 -0.016601689186579879 5.0730279358229824e-05 0 0 0 -0.0076513802680706483 -0.060985499621626797 0.00083616122392060307 0 0.00083616122392060307 -0.011338275958704111 0 0 0 -0.018080943895082725 -0.068390890825298561 -0.0059827833426587262 0 -0.0059827833426587262 -0.018669936014428561 0 0 0 -0.021765206709931786 -0.1679723203150626 0.0038873465924807449 0 0.0038873465924807449 0.0033247293799449906 0 0 0 -0.041161897733779429 -0.096718065992357008 -0.0017680136873351737 0 -0.0017680136873351737 0.00089822731058183947 0 0 0 -0.023954959670443823 -0.0065624139847596241 0.02493579335199253 0 0.02493579335199253 0.10568370335081506 0 0 0 0.024780322341513866 0.050260811750294426 0.002412549360548577 0 0.002412549360548577 0.25771500231868982 0 0 0 0.076993953517246111 -0.034860649917602099 -0.033916930325306682 0 -0.033916930325306682 0.019386868885479663 0 0 0 -0.0038684452580306228 -0.046104537809507268 -0.029678147713185554 0 -0.029678147713185554 0.013205071101832888 0 0 0 -0.0082248666769186018 -0.03226305091409562 -0.033185192651861338 0 -0.033185192651861338 0.048126502459571043 0 0 0 0.0039658628863688539 -0.005909036831613923 0.001809362074217058 0 0.001809362074217058 -0.021746503240416659 0 0 0 -0.0069138850180076039 -0.031636766622135278 0.00044600287768778793 0 0.00044600287768778793 -0.014651749965112695 0 0 0 -0.011572129146811985 -0.067925400360201019 -0.0065748720557408102 0 -0.0065748720557408102 0.010478017521218297 0 0 0 -0.014361845709745663 -0.005939521328608921 -0.0033683516728326771 0 -0.0033683516728326771 -0.013290880113106862 0 0 0 -0.0048076003604288764 -0.14425631653003657 0.01994850302502521 0 0.01994850302502521 -0.00053882446563351116 0 0 0 -0.036198785248917412 -0.029406077209177539 0.026568796908598813 0 0.026568796908598813 -0.0048395610395051136 0 0 0 -0.0085614095621706632 -0.021954643867003965 -0.026901092084826606 0 -0.026901092084826606 0.0142249621799313 0 0 0 -0.0019324204217682217 -0.038298799665917933 0.0025226884938808758 0 0.0025226884938808758 0.013065818788144681 0 0 0 -0.0063082452194433191 -0.059649439383953895 -0.014704686402086845 0 -0.014704686402086845 0.014426386264101865 0 0 0 -0.011305763279963021 -0.02700439155068907 0.008162346647031778 0 0.008162346647031778 -0.0015047643657290291 0 0 0 -0.0071272889791045187 -0.023892094590532487 0.011866768529746372 0 0.011866768529746372 0.0060400389957347145 0 0 0 -0.0044630138986994326 -0.083598232090062563 -0.017133815137605129 0 -0.017133815137605129 -0.0021485958893344703 0 0 0 -0.021436706994849258 -0.041763805431634049 -0.028474999796494149 0 -0.028474999796494149 0.004064729118177679 0 0 0 -0.009424769078364148 -0.11925167834652949 -0.013820669752411315 0 -0.013820669752411315 -0.0062030514370659505 0 0 0 -0.031363682445898808 -0.033350460454695474 0.044901485556100518 0 0.044901485556100518 0.0053296550262271758 0 0 0 -0.0070052013571171301 -0.036008640664408925 0.046506946973700947 0 0.046506946973700947 0.004186817296744888 0 0 0 -0.0079554558419159538 -0.038024052454496582 0.04802411780093796 0 0.04802411780093796 0.00040369583928878683 0 0 0 -0.0094050891538022263 -0.033029134612324373 -0.028502073015143237 0 -0.028502073015143237 0.0038927519184690507 0 0 0 -0.0072840956734638862 -0.039154637899290072 -0.027604139371294245 0 -0.027604139371294245 0.0018077414011721457 0 0 0 -0.0093367241245295093 0.029529885967899447 0.033446978509025324 0 0.033446978509025324 0.057892995862302288 0 0 0 0.021855720457550437 -0.032090163804972871 -0.0013911244606154836 0 -0.0013911244606154836 -0.010702094337502488 0 0 0 -0.010698064535618839 -0.036677030049156116 0.003307725117870028 0 0.003307725117870028 -0.012226746855039092 0 0 0 -0.012225944226048802 -0.03666628582918894 0.0038846206880400356 0 0.0038846206880400356 0.0014209301712746047 0 0 0 -0.0088113389144785885 -0.014958221616711592 -0.016124772422868736 0 -0.016124772422868736 0.075107365782578484 0 0 0 0.01503728604146673 -0.09779910017021258 -0.021882792786326283 0 -0.021882792786326283 -0.0030005643472860999 0 0 0 -0.025199916129374667 -0.030190346693199206 0.0021286757782870915 0 0.0021286757782870915 -0.012726543456166398 0 0 0 -0.010729222537341402 -0.14145119496243311 -0.0053594569945390816 0 -0.0053594569945390816 -0.0033629695504396422 0 0 0 -0.036203541128218178 -0.092868319936488947 0.0016316321795955581 0 0.0016316321795955581 -0.00099031441516475582 0 0 0 -0.023464658587913426 -0.086214414245983306 -0.009100278213646229 0 -0.009100278213646229 0.00023533566083711044 0 0 0 -0.021494769646286549 -0.032897395125943231 0.0038356055902635531 0 0.0038356055902635531 -0.0097069238946078801 0 0 0 -0.010651079755137779 -0.026768475286127635 -0.0041279125062249622 0 -0.0041279125062249622 0.018237707740786785 0 0 0 -0.0021326918863351918 -0.044658868986020915 0.0089593579270011835 0 0.0089593579270011835 0.032967362211006754 0 0 0 -0.0029228766937535507 -0.012819811161674612 0.051042054288174654 0 0.051042054288174654 0.011649830038434297 0 0 0 -0.00029249528081019133 -0.026935578578645095 0.0035267572575650315 0 0.0035267572575650315 -0.013465651909071563 0 0 0 -0.010100307621929164 -0.022670694361647037 0.025157691169096941 0 0.025157691169096941 -0.0064194998404216719 0 0 0 -0.0072725485505171772 -0.019480565281059792 -0.024780713585741077 0 -0.024780713585741077 0.0040988359149172204 0 0 0 -0.0038454323415356706 -0.032999282143624235 0.0038495593151451164 0 0.0038495593151451164 -0.010048599016375682 0 0 0 -0.010761970289999985 -0.054944472334610681 0.0018032266742511916 0 0.0018032266742511916 0.043089617778616071 0 0 0 -0.0029637136389986537 -0.014882917779114546 0.020913449175754439 0 0.020913449175754439 0.01677516902898013 0 0 0 0.00047306281246628501 -0.0071174738812633809 0.016231026292698125 0 0.016231026292698125 -0.0050564707788884888 0 0 0 -0.003043486165038356 -0.0058897577369561027 -0.01267025160801763 0 -0.01267025160801763 -0.006472789231511733 0 0 0 -0.00309063674211707 -0.011089991424181878 -0.017403561275102009 0 -0.017403561275102009 0.0065314601020589613 0 0 0 -0.0011396328305308678 -0.10742887784707875 0.0013281413012751486 0 0.0013281413012751486 0.024092600338826209 0 0 0 -0.020834069377063169 -0.067549908168727343 -0.017708064829856207 0 -0.017708064829856207 0.0073838412820256827 0 0 0 -0.015041516721675405 -0.075838357083610392 -0.017866684840465524 0 -0.017866684840465524 0.007434164296634127 0 0 0 -0.017101048196744073 -0.12057411516869165 0.040512595835708987 0 0.040512595835708987 0.017249206150873775 0 0 0 -0.025831227254454525 -0.10156965363747178 0.040253092169958482 0 0.040253092169958482 0.017377287551213705 0 0 0 -0.02104809152156456 -0.041830874773897325 0.0020295995534557378 0 0.0020295995534557378 -0.011294039157131501 0 0 0 -0.013281228482757208 0.064583718752388108 0.030639339030768854 0 0.030639339030768854 0.041908371152591162 0 0 0 0.026623022476244818 -0.087058559969503208 -0.0062209859099312433 0 -0.0062209859099312433 -0.020020959376490025 0 0 0 -0.026769879836498315 -0.069671856756584022 -0.00027882397878161401 0 -0.00027882397878161401 -0.01330931530946889 0 0 0 -0.020745293016513223 -0.056775065270826722 -0.011974595387628906 0 -0.011974595387628906 0.029158677928728553 0 0 0 -0.0069040968355245542 -0.054662212302039291 0.0031130002026826002 0 0.0031130002026826002 -0.0084946689782957156 0 0 0 -0.015789220320083751 -0.056515962516105127 -0.0099890681649418226 0 -0.0099890681649418226 -0.018653952768483292 0 0 0 -0.0187924788211471 -0.12044373060334812 -0.017699470240766853 0 -0.017699470240766853 0.0020167139963435665 0 0 0 -0.029606754151751125 -0.12161646834312187 -0.018472156258953078 0 -0.018472156258953078 -0.00083961902545348632 0 0 0 -0.030614021842143863 -0.016452427314587403 0.029974382925539611 0 0.029974382925539611 0.036363400285236658 0 0 0 0.0049777432426623136 -0.012734262966923815 -0.013699855028176555 0 -0.013699855028176555 0.00043673557691059628 0 0 0 -0.0030743818475034157 -0.0051089149976057437 -0.0022091483682555313 0 -0.0022091483682555313 0.0078347074349389041 0 0 0 0.00068144810933323439 -0.0026148540546147014 0.0024500364229954608 0 0.0024500364229954608 -0.0084677219203015408 0 0 0 -0.0027706439937290051 -0.054602054889683352 0.0007288635971716903 0 0.0007288635971716903 0.0011615190334524281 0 0 0 -0.013360133964057727 -0.0019388100345055781 -0.0029896054148328965 0 -0.0029896054148328965 0.066932007031775931 0 0 0 0.016248299249317588 0.0022488130614740642 -0.0021778979097238915 0 -0.0021778979097238915 0.12227700803863834 0 0 0 0.03113145527502803 -0.023518991311610137 -0.010419115371242349 0 -0.010419115371242349 0.0096893050842621932 0 0 0 -0.0034574215568370006 -0.079070924475928242 -0.0083731681685428119 0 -0.0083731681685428119 0.0092684359438177655 0 0 0 -0.017450622133027602 -0.0050645565027374606 0.0011564733198808352 0 0.0011564733198808352 -0.02053233478439187 0 0 0 -0.0063992228217824021 -0.11975636090390385 -0.024698306049528579 0 -0.024698306049528579 0.0070810100222925554 0 0 0 -0.028168837720402795 -0.039704202979442188 0.003147146109301939 0 0.003147146109301939 0.0091914891099976054 0 0 0 -0.00762817846736115 -0.052310538118190891 -0.025536508922745088 0 -0.025536508922745088 0.021563810264148775 0 0 0 -0.0076866819635105221 -0.050078793676560568 -0.02324125234579294 0 -0.02324125234579294 0.01974294228643203 0 0 0 -0.0075839628475321552 -0.056483069798646875 0.0040055694262864372 0 0.0040055694262864372 -0.00056703324742549133 0 0 0 -0.014262525761518105 -0.066881426601049815 -0.014421097508034192 0 -0.014421097508034192 0.013347707191559643 0 0 0 -0.013383429852372453 -0.061557503543254288 0.0017653068151164512 0 0.0017653068151164512 -0.0012178832558635555 0 0 0 -0.015693846699779468 -0.052626125226467188 -0.011263749759156498 0 -0.011263749759156498 -0.013925567588096578 0 0 0 -0.01663792320364094 -0.082081801401124699 -0.0083925470277467495 0 -0.0083925470277467495 0.0085101631858984783 0 0 0 -0.018392909553806513 -0.13649105021311528 0.015538660495502676 0 0.015538660495502676 0.029901528555707602 0 0 0 -0.026647380414352023 -0.087138701401184293 -0.0073207513220777658 0 -0.0073207513220777658 -0.020007216712016773 0 0 0 -0.026786479528300267 -0.06837976114584278 0.0005173970876620978 0 0.0005173970876620978 -0.015453856071396726 0 0 0 -0.020958404304309879 -0.06405925927537956 0.0045048625945148975 0 0.0045048625945148975 -0.0030781580052508736 0 0 0 -0.016784354320157589 -0.074495746637643148 -0.016601360849228423 0 -0.016601360849228423 -0.011006155692474609 0 0 0 -0.021375475582529453 -0.039740068697592036 -0.0029818758105005809 0 -0.0029818758105005809 -0.018363513604929913 0 0 0 -0.014525895575630488 -0.015102370221623654 -0.035515407932252552 0 -0.035515407932252552 0.04284666984698407 0 0 0 0.0069360749063401145 -0.024478155624043006 0.0054526544325383328 0 0.0054526544325383328 -0.011429842582208794 0 0 0 -0.0089769995515629475 -0.014932795697762513 0.019060092998518741 0 0.019060092998518741 -0.0018035984857593945 0 0 0 -0.0041840985458803104 -0.016903859828919177 -0.025098595576803773 0 -0.025098595576803773 0.016283625833102278 0 0 0 -0.00015505849895436352 -0.062568141295390345 0.0035172027016714975 0 0.0035172027016714975 -0.0058121183284429515 0 0 0 -0.017095064905958315 -0.068710309684473989 -0.013119214119583044 0 -0.013119214119583044 -0.015742223279542784 0 0 0 -0.021113133241004192 -0.027807382587294545 0.0058784121815649718 0 0.0058784121815649718 -0.0063531389544959453 0 0 0 -0.0085401303854476182 -0.032870712069051816 -0.028555049051135709 0 -0.028555049051135709 0.030798226464422651 0 0 0 -0.00051812140115733984 -0.071671298292408814 0.013660277648254384 0 0.013660277648254384 -0.0015458204815712584 0 0 0 -0.018304279693495129 -0.014090434058309065 -0.013882479407133053 0 -0.013882479407133053 0.04187813511627847 0 0 0 0.0069469252644923096 -0.042511913342241026 -0.027934427203475831 0 -0.027934427203475831 0.0038835136392876279 0 0 0 -0.0096570999257383772 -0.058100220052645417 -0.0093335258283870834 0 -0.0093335258283870834 0.047279605191262952 0 0 0 -0.0027051537153456387 -0.12308985895494927 -0.010717388921561049 0 -0.010717388921561049 -0.0033827693722191243 0 0 0 -0.031618157081792081 -0.085081192788118626 0.0019880389504325028 0 0.0019880389504325028 -0.0020186919180423812 0 0 0 -0.021774971176540262 -0.015877115716291714 0.008023366085896131 0 0.008023366085896131 0.0018286890015607876 0 0 0 -0.003512106678682736 -0.031150055823857842 0.0038945465668731851 0 0.0038945465668731851 -0.010393562585517782 0 0 0 -0.010385904602343905 -0.049620631301840745 -0.018099414019776813 0 -0.018099414019776813 0.0095177650138194014 0 0 0 -0.010025716572005294 -0.12579935650068982 -0.013540194035224419 0 -0.013540194035224419 -0.0014605754173210479 0 0 0 -0.031814982979502707 -0.087895916200846969 0.0043195630794511664 0 0.0043195630794511664 -0.00071968114993545274 0 0 0 -0.022153899337695619 -0.043798763470027965 0.0054274967110253484 0 0.0054274967110253484 0.048248504612452968 0 0 0 0.0011124352856062625 -0.028262002826749066 -0.025467882537644093 0 -0.025467882537644093 0.0019068289715638009 0 0 0 -0.0065887934637964829 -0.030744913933520301 0.039348647331485465 0 0.039348647331485465 0.0049165296370876632 0 0 0 -0.0064570960741079375 -0.077512318522492421 0.00084712257865382501 0 0.00084712257865382501 0.0073795160594567893 0 0 0 -0.017533200615758936 -0.066712035385751281 -0.0045183229264691704 0 -0.0045183229264691704 0.0095466095655143048 0 0 0 -0.014291356455059188 -0.035427335779990909 -0.010691552494824383 0 -0.010691552494824383 0.018386195258872487 0 0 0 -0.0042602851302795813 -0.038240355101668996 -0.011229120940250692 0 -0.011229120940250692 0.025678396110949114 0 0 0 -0.0031404897476799525 -0.048722989441164676 -0.0070373808201246385 0 -0.0070373808201246385 -0.020073949504505143 0 0 0 -0.017199234736417456 -0.047250891626638682 -0.0034558808169368131 0 -0.0034558808169368131 -0.017921248063519801 0 0 0 -0.016293034922539609 -0.050248893825298152 0.0014992852143700499 0 0.0014992852143700499 -0.011944964891646948 0 0 0 -0.01554846467923628 -0.049151017807111771 0.003599265233093429 0 0.003599265233093429 -0.011442613215765646 0 0 0 -0.015148407755719358 -0.028896640999902634 -0.0053826167827492888 0 -0.0053826167827492888 -0.0037093898215915244 0 0 0 -0.0081515077053735951 -0.050920168355206602 -0.00056058197869933392 0 -0.00056058197869933392 0.051433369482808446 0 0 0 0.0001283002819004441 -0.0219839262534288 0.0082363334307793065 0 0.0082363334307793065 -0.00077813494806564659 0 0 0 -0.0056905153003736029 -0.026705737531076856 0.041836483752436579 0 0.041836483752436579 0.01105276949490186 0 0 0 -0.0039132420090439712 -0.037968675756868575 -0.026123804157179562 0 -0.026123804157179562 -0.00038962653029050998 0 0 0 -0.0095895755717898545 -0.021634712007941537 0.049721221782440983 0 0.049721221782440983 0.0077302145540913969 0 0 0 -0.0034761243634627847 -0.01874628743771704 -0.0052240877098929245 0 -0.0052240877098929245 0.00015288931664103611 0 0 0 -0.0046483495302690088 -0.013749408367276651 0.0029504998382877887 0 0.0029504998382877887 0.0096493567099825983 0 0 0 -0.0010250129143235184 -0.055683089966972799 0.052940307654245733 0 0.052940307654245733 0.0015250495983307744 0 0 0 -0.013539510092160589 -0.037687606256707085 0.054841697622638796 0 0.054841697622638796 0.0050399036626833649 0 0 0 -0.0081619256485059299 -0.095767821117911628 -0.0055674907285231633 0 -0.0055674907285231633 -0.012360338181033234 0 0 0 -0.027032039824736204 -0.074186006837460045 -0.00083421453625860936 0 -0.00083421453625860936 -0.0093218453338020854 0 0 0 -0.020876963042815524 -0.029857172718389557 -0.029203011732551409 0 -0.029203011732551409 0.015626310746746808 0 0 0 -0.0035577154929106736 0.0042076358591174312 -0.0037213421954366932 0 -0.0037213421954366932 0.06808117172996675 0 0 0 0.01807220189727099 0.0053605785642247827 0.0011023943970025485 0 0.0011023943970025485 0.1284177836971046 0 0 0 0.033444590565332361 -0.051160589448483208 0.001585231945106921 0 0.001585231945106921 0.031654556585715483 0 0 0 -0.0048765082156919347 -0.01839227467210286 0.012239884087844611 0 0.012239884087844611 0.004433395398865142 0 0 0 -0.0034897198183094294 -0.013518929056767048 -0.0020243406948018822 0 -0.0020243406948018822 -0.01839579101489297 0 0 0 -0.0079786800179150186 -0.022738281631470403 -0.003335090230553811 0 -0.003335090230553811 -0.021804130778206421 0 0 0 -0.011135603102419123 -0.032509200831502966 -0.011494093437313987 0 -0.011494093437313987 -0.006777805857619279 0 0 0 -0.0098217516722806097 -0.021684585563995495 0.015287178663072165 0 0.015287178663072165 -0.0056892106814787624 0 0 0 -0.0068434490613686338 -0.016148886601597093 -0.02448854372462006 0 -0.02448854372462006 0.027515977828917848 0 0 0 0.0028417728068301645 -0.0018093105894695649 0.0052640095310864665 0 0.0052640095310864665 0.019012310720869507 0 0 0 0.0043007500328500203 -0.0017951875982646637 -0.0074277590152603545 0 -0.0074277590152603545 0.051821991655636612 0 0 0 0.012506701014343036 -0.022415527247083511 0.030954091185755983 0 0.030954091185755983 0.013829806824961377 0 0 0 -0.0021464301055306167 -0.018113279335763621 -0.019531701290764314 0 -0.019531701290764314 -0.0062148246744941904 0 0 0 -0.0060820260025646333 -0.028999591150186802 0.0042115783657536709 0 0.0042115783657536709 -0.0099771604221836306 0 0 0 -0.0097441878930926117 -0.026194623644538541 0.0066306323060688326 0 0.0066306323060688326 -0.0068262311732132444 0 0 0 -0.008255213704437948 -0.024353876625874404 0.035167948438009633 0 0.035167948438009633 0.021534138925491497 0 0 0 -0.00070493442509556026 -0.022547828510369183 -0.019823431626809551 0 -0.019823431626809551 0.0009607732280572101 0 0 0 -0.0053967638205780766 -0.075608445109840786 -0.0084732709708660921 0 -0.0084732709708660921 -0.019290734728478531 0 0 0 -0.023724794959579833 -0.063122559224558283 0.0017710080483757122 0 0.0017710080483757122 -0.013567362150794116 0 0 0 -0.019172480343838103 -0.004874643609572793 0.057342759275046395 0 0.057342759275046395 0.022930903814902592 0 0 0 0.0045140650513324498 -0.11103676212177946 -0.0020664363330751569 0 -0.0020664363330751569 -0.019110651326329595 0 0 0 -0.03253685336202726 -0.082470046100922928 -0.0035593399474436911 0 -0.0035593399474436911 -0.013730273817829423 0 0 0 -0.024050079979688093 -0.03057469494215348 0.012843948930726601 0 0.012843948930726601 -0.0054304228792680931 0 0 0 -0.0090012794553555597 -0.013854089506989298 -0.01727957018575399 0 -0.01727957018575399 0.053681286581831689 0 0 0 0.0099567992687106255 -0.049022969009165369 -0.0060313960026073254 0 -0.0060313960026073254 0.063892542656417403 0 0 0 0.0037173934118130345 -0.073561788144862333 -0.0015928715837595087 0 -0.0015928715837595087 0.061044335256875415 0 0 0 -0.0031293632219967227 -0.047521556456159353 -0.027571073215791372 0 -0.027571073215791372 0.0084235679355815218 0 0 0 -0.0097744971301444994 -0.026408265890474666 -0.020929245273188145 0 -0.020929245273188145 0.0061163436857600562 0 0 0 -0.0050729805511786769 -0.054235948450896132 0.059627227150563289 0 0.059627227150563289 0.015646972057322017 0 0 0 -0.0096472440983934038 -0.099044659387100609 0.038014388395859744 0 0.038014388395859744 0.019991728706129308 0 0 0 -0.019763232670242825 -0.066854153008985007 -0.017244324305979677 0 -0.017244324305979677 0.0084521286436284315 0 0 0 -0.014600506091339116 -0.0074899584237685113 -0.04045800335844757 0 -0.04045800335844757 0.031431114758722289 0 0 0 0.0059852890837384376 -0.013957033023460436 0.0016517010596817649 0 0.0016517010596817649 0.034981401193232398 0 0 0 0.0052560920424430668 -0.016103876732353889 -0.005901251952559694 0 -0.005901251952559694 0.066826196577695951 0 0 0 0.012680579961335564 -0.053245123838780967 -0.015493897880270131 0 -0.015493897880270131 0.03206765792392223 0 0 0 -0.0052943664787147154 -0.049046224657031734 -0.011226074975689594 0 -0.011226074975689594 0.030874786248419522 0 0 0 -0.0045428596021530668 -0.034713947508860102 0.016819958121021356 0 0.016819958121021356 0.073166699440321115 0 0 0 0.0096131879828652567 -0.018930629380753489 -0.022018525135983319 0 -0.022018525135983319 0.041585436263923026 0 0 0 0.0056637017207923912 -0.014461485123559825 0.026871677064618904 0 0.026871677064618904 0.057338508354446205 0 0 0 0.010719255807721595 -0.016196107231425949 -0.011664363446680537 0 -0.011664363446680537 -0.0051017756964193417 0 0 0 -0.0053244707319611839 -0.047779145718236542 0.0099555394841857742 0 0.0099555394841857742 0.043596863082923445 0 0 0 -0.0010455706588282793 -0.035451015984583556 -0.0067944013987454588 0 -0.0067944013987454588 0.014169784931058818 0 0 0 -0.0053203077633812192 -0.025083390078634499 -0.005456105736610678 0 -0.005456105736610678 -0.017306827739025588 0 0 0 -0.010597554454415042 -0.03402315699888387 0.015542939285130869 0 0.015542939285130869 0.028618938432541298 0 0 0 -0.001351054641585657 -0.033117547798315432 -0.0015069418829944071 0 -0.0015069418829944071 -0.018775774056307454 0 0 0 -0.012973330463655723 -0.083718908208187282 -0.0077083458425418402 0 -0.0077083458425418402 0.0011438404814831937 0 0 0 -0.020643766931676022 -0.051765425722849062 -0.0063535982560480745 0 -0.0063535982560480745 -0.017033972081580417 0 0 0 -0.01719984945110737 -0.023211082937788945 0.0092145285526116297 0 0.0092145285526116297 -0.0021603894203889619 0 0 0 -0.0063428680895444758 -0.045148740794251047 0.0075076099002208477 0 0.0075076099002208477 0.062007227939223183 0 0 0 0.0042146217862430377 -0.13972459559946149 0.016330689733056743 0 0.016330689733056743 0.0014531411218783319 0 0 0 -0.0345678636193959 -0.031204839510364214 0.0034697553997953923 0 0.0034697553997953923 -0.011985064739616587 0 0 0 -0.010797476062495202 -0.024628591456432265 0.0014348557110133164 0 0.0014348557110133164 -0.0054981828128125715 0 0 0 -0.007531693567311204 -0.040832060007376936 -0.015481197530855639 0 -0.015481197530855639 0.0039515817403019404 0 0 0 -0.0092201195667687141 -0.045120441029342984 -0.020813799594679661 0 -0.020813799594679661 7.4776468974580013e-06 0 0 0 -0.011278240845611243 -0.039458649777690771 -0.0075456756558226305 0 -0.0075456756558226305 -0.015548671188351126 0 0 0 -0.01375183024151048 -0.028228574044899903 0.0029586751749240471 0 0.0029586751749240471 -0.012790804873724301 0 0 0 -0.010254844729656053 -0.028323964745588407 -0.0020850543763105481 0 -0.0020850543763105481 -0.0034392145206259828 0 0 0 -0.0079407948165535931 -0.04255190346443749 -0.01722224814000653 0 -0.01722224814000653 0.012028313282116232 0 0 0 -0.0076308975455803285 -0.018203262067948672 0.0011053156501521499 0 0.0011053156501521499 0.018042312143700778 0 0 0 -4.0237481061938807e-05 -0.088073063831167087 -0.025194713830881454 0 -0.025194713830881454 -0.0040368260790689947 0 0 0 -0.023027472477559055 -0.0044772890417314748 0.015691428555640652 0 0.015691428555640652 0.10450802921266045 0 0 0 0.025007685042732125 -0.021916357485573273 -0.0084252363558194876 0 -0.0084252363558194876 -0.003304887661985445 0 0 0 -0.0063053112868897976 -0.026991772722305817 0.0057657241792156734 0 0.0057657241792156734 -0.0085584697681382518 0 0 0 -0.008887560622611021 -0.024602255840172255 0.0062200695762829449 0 0.0062200695762829449 -0.008444563016912203 0 0 0 -0.0082617047142711231 -0.024550795623307309 0.016216603193790424 0 0.016216603193790424 0.0026474716186664082 0 0 0 -0.0054758310011600031 -0.0231437227291027 -0.023493782520075807 0 -0.023493782520075807 0.032231732381842182 0 0 0 0.0022720024131850369 -0.026583146594638216 0.010275757323964425 0 0.010275757323964425 0.0067106799250409646 0 0 0 -0.0049681166673993127 -0.032860736992021834 0.0085422429455317434 0 0.0085422429455317434 0.0059073906856461876 0 0 0 -0.0067383365765939091 -0.027063289620619772 0.0058409366575505536 0 0.0058409366575505536 -0.0072746344112907778 0 0 0 -0.0085844810079776391 -0.075170427108592647 0.0038829562870266142 0 0.0038829562870266142 -0.0014993402904048131 0 0 0 -0.019167441849749375 -0.04756302650625735 -0.0038657451346078425 0 -0.0038657451346078425 0.013954590709478687 0 0 0 -0.0084021089491946727 -0.03428416315606124 -0.0069558741422583864 0 -0.0069558741422583864 0.01640501805297212 0 0 0 -0.0044697862757722834 -0.082376482865485406 0.0040586416133838871 0 0.0040586416133838871 -0.0034537268483329359 0 0 0 -0.021457552428454589 0.030061788989737451 0.076174154766813884 0 0.076174154766813884 0.058739870690463214 0 0 0 0.022200414920050163 -0.023776230882547544 0.029644161477115072 0 0.029644161477115072 0.0028114139477679601 0 0 0 -0.005241204233694674 -0.020023344285198696 -0.025842933303649146 0 -0.025842933303649146 0.0020008642192981263 0 0 0 -0.0045056200164752536 -0.04042477529270741 0.0011089061747641517 0 0.0011089061747641517 0.0067604835317999698 0 0 0 -0.0084160729402268618 -0.029616974076373658 0.0027967864411240452 0 0.0027967864411240452 -0.011839439475784787 0 0 0 -0.010364103388039614 -0.0057956566674120941 -0.0012438981862877597 0 -0.0012438981862877597 0.018588304832238223 0 0 0 0.0031981620412065287 -0.031587609326779564 -0.010491079494330938 0 -0.010491079494330938 0.00018133913820639336 0 0 0 -0.0078515675471432789 -0.034961762868664828 -0.01424621440620491 0 -0.01424621440620491 -0.010901250318475719 0 0 0 -0.011465753296785133 -0.031840241771065453 0.0053715776483026709 0 0.0053715776483026709 -0.0018182157352751825 0 0 0 -0.0084146143765851562 -0.070528434009829 -0.016734457261364688 0 -0.016734457261364688 0.00049808521629146618 0 0 0 -0.0175075871983843 -0.057754379984045756 -0.021052472427112223 0 -0.021052472427112223 0.0047878512668024786 0 0 0 -0.013241632179310792 -0.029072276125735211 0.0012924572980616026 0 0.0012924572980616026 -0.0096943710132115814 0 0 0 -0.0096916617847366965 -0.082493640327252371 0.043739970431476594 0 0.043739970431476594 0.0074385154439049472 0 0 0 -0.018763781220836884 -0.10898863655487567 0.035201707011945027 0 0.035201707011945027 -0.00053286806769659023 0 0 0 -0.02738037615564326 -0.0086207467926803782 0.0063272174644993934 0 0.0063272174644993934 0.027431756749741187 0 0 0 0.0047027524892652162 -0.0088084948434253851 -0.010743312402871352 0 -0.010743312402871352 0.054133135944115507 0 0 0 0.011331160275172558 -0.017640142517800828 -0.014088213404817682 0 -0.014088213404817682 0.0079211829042925563 0 0 0 -0.0024297399033770539 -0.026158059516703774 -0.00078911648910873211 0 -0.00078911648910873211 -0.013170350140886744 0 0 0 -0.0098321024143976643 0.0064636068634076893 0.035523709904328578 0 0.035523709904328578 0.091738747921043029 0 0 0 0.024550588696112652 -0.035108298628541493 -0.0044932188588115325 0 -0.0044932188588115325 -0.012857445837811093 0 0 0 -0.01199143611658815 -0.046311247041100567 -0.0084397547803765904 0 -0.0084397547803765904 0.028922818535959877 0 0 0 -0.0043471071262851935 0.02456428548246159 0.028112564334143553 0 0.028112564334143553 0.028722068549885238 0 0 0 0.013321588508086735 -0.040577349665688843 0.00070447191414376126 0 0.00070447191414376126 0.0052198395570152156 0 0 0 -0.0088393775271684103 -0.021955618662326759 0.033119373245085404 0 0.033119373245085404 0.0069416243445723502 0 0 0 -0.00375349857943863 -0.019693380811904915 -0.021726411903050247 0 -0.021726411903050247 0.0013783379400105211 0 0 0 -0.004578760717973529 -0.039423984426858023 0.0017822896169303959 0 0.0017822896169303959 -0.004412649130757321 0 0 0 -0.010959158389403843 -0.062002822033530247 -0.013670942442889234 0 -0.013670942442889234 0.04856352053520771 0 0 0 -0.0033598253745806411 -0.020190332171397762 0.026054904009983115 0 0.026054904009983115 0.059049696762504045 0 0 0 0.0097148411477762098 -0.017664717371982552 -0.010770034674787321 0 -0.010770034674787321 0.0016092735965500538 0 0 0 -0.004013860943858194 -0.11388981762852529 0.0017829765385282709 0 0.0017829765385282709 0.000977816544468324 0 0 0 -0.028228000271014242 -0.20081056571036698 -0.0064337877849208374 0 -0.0064337877849208374 0.0016179148777832331 0 0 0 -0.049798162708145896 -0.032270050243711712 0.019307808919123197 0 0.019307808919123197 0.085621495627066446 0 0 0 0.013337861345838753 -0.064455359890865482 0.0056640648965163333 0 0.0056640648965163333 -0.00040802622105981512 0 0 0 -0.016215846527981338 0.020651564784083785 -0.0049712699365188073 0 -0.0049712699365188073 0.065971717220484602 0 0 0 0.021655820501142096 0.025593233727640274 0.00083795767919475628 0 0.00083795767919475628 0.084288688327833206 0 0 0 0.027470480513868356 0.034745327883229427 -0.0024754888996605662 0 -0.0024754888996605662 0.15281167480655466 0 0 0 0.046889250672446037 0.0297788128799642 0.0048498105383828483 0 0.0048498105383828483 0.12841186354411671 0 0 0 0.039547669106020283 -0.014745840511854472 0.0060335938062557326 0 0.0060335938062557326 0.0031507666857279182 0 0 0 -0.0028987684565316557 -0.014920830847662991 -0.010941830667831137 0 -0.010941830667831137 0.022600038188697935 0 0 0 0.0019198018352586388 -0.015380089740492708 0.0029257461196121604 0 0.0029257461196121604 0.1011855201556634 0 0 0 0.021451357603792687 -0.015668510927625001 -0.008341155155007024 0 -0.008341155155007024 0.049335041198541152 0 0 0 0.0084166325677290099 -0.058514937600923661 0.0029195624724929412 0 0.0029195624724929412 0.053892281710944456 0 0 0 -0.0011556639724948047 -0.0057872975110448976 0.021349484761950421 0 0.021349484761950421 0.046925173253230312 0 0 0 0.010284468935546354 -0.010031846167778635 0.0082538611716422849 0 0.0082538611716422849 -0.0028553170300034125 0 0 0 -0.0032217907994454009 -0.0074610097169047762 -0.0067905374914369876 0 -0.0067905374914369876 -0.00297532288950908 0 0 0 -0.0026090831516036861 -0.0071507025764971921 -0.018688525684868229 0 -0.018688525684868229 0.021190161616317038 0 0 0 0.0035098647599549615 -0.034331609545734422 0.0046027238612617316 0 0.0046027238612617316 -0.0024746739547405732 0 0 0 -0.0092015708751187596 -0.015064251102338971 0.021454817603484333 0 0.021454817603484333 0.058003244970098455 0 0 0 0.01073474846693992 -0.0041088495432732991 -0.0056828552692307355 0 -0.0056828552692307355 -0.0020648414764164458 0 0 0 -0.0015434227549223772 -0.051583496255215536 -0.0053245717833317902 0 -0.0053245717833317902 0.061290410104321312 0 0 0 0.0024267284622764389 -0.0051366838787048064 0.0069785910794031292 0 0.0069785910794031292 -0.0026493989501279458 0 0 0 -0.0019465207072082436 -0.013864835517913399 -0.019148398506386277 0 -0.019148398506386277 0.029743785843786785 0 0 0 0.0039697375814681246 -0.013282927461148342 -0.023068577802490886 0 -0.023068577802490886 0.019757495077678655 0 0 0 0.0016186419041325784 -0.045005884431112697 -0.018588402693304612 0 -0.018588402693304612 0.0068905581700958174 0 0 0 -0.0095288315652541922 -0.04473352059733629 -0.017938927506932947 0 -0.017938927506932947 0.0073161066438310884 0 0 0 -0.0093543534883763213 -0.035510295671293927 -0.0074132170759677197 0 -0.0074132170759677197 -0.0083518717551131702 0 0 0 -0.010965541856601792 -0.027058254481640259 0.065389490846256448 0 0.065389490846256448 0.017039325443196751 0 0 0 -0.0025047322596109256 -0.066722901282193048 -0.0076209124434113429 0 -0.0076209124434113429 -0.00037944284767038594 0 0 0 -0.016775586032465872 0.00081314566779345718 -0.01437360417795841 0 -0.01437360417795841 0.03302946384859104 0 0 0 0.008460652379096139 -0.028954739487082166 -0.00659221397328634 0 -0.00659221397328634 0.021362933698686554 0 0 0 -0.0018979514470989084 -0.019845493934491584 0.017317962460576354 0 0.017317962460576354 0.016080979895802955 0 0 0 -0.00094112850967215458 -0.028885836751292332 -0.0089793028768686556 0 -0.0089793028768686556 -0.011924291031883638 0 0 0 -0.010202531945793986 -0.030286595039109743 -0.0096545964249803509 0 -0.0096545964249803509 -0.012910249709837007 0 0 0 -0.010799211187236646 -0.22091358099131275 0.0050067410127581586 0 0.0050067410127581586 0.0061558360153040059 0 0 0 -0.053689436244002187 -0.11867071048882695 -0.0023359081124337097 0 -0.0023359081124337097 0.0027063380964084116 0 0 0 -0.028991093098104603 -0.038552598254833266 -0.0034527355553806466 0 -0.0034527355553806466 -0.012852411525087511 0 0 0 -0.012851252444980196 -0.042307596418038086 0.0031320686872543225 0 0.0031320686872543225 -0.014102202968578829 0 0 0 -0.014102449846654231 -0.013874645805299513 0.0060544913955286883 0 0.0060544913955286883 0.0062132779117385073 0 0 0 -0.0019153419733902582 -0.027670252101359281 0.01493720385862058 0 0.01493720385862058 0.01887258447575816 0 0 0 -0.0021994169064002769 -0.022781081944317452 0.010946050908276918 0 0.010946050908276918 0.0039272625935289317 0 0 0 -0.0047134548376971275 -0.11195324390984986 -0.011143632890943604 0 -0.011143632890943604 -0.010206429437247207 0 0 0 -0.030539918336774302 -0.082314700675495706 0.0017011556244007769 0 0.0017011556244007769 -0.0056937335274114265 0 0 0 -0.022002108550726776 0.03324059662150658 0.032169129761283777 0 0.032169129761283777 0.030377918054371289 0 0 0 0.015904628668969467 -0.094899575120125021 -0.010279884253728128 0 -0.010279884253728128 -0.0063157984911573119 0 0 0 -0.025303843402820603 -0.074111086443231347 0.0015178021840664656 0 0.0015178021840664656 -0.0039394558178669492 0 0 0 -0.01951263556527456 -0.033033667776307063 -0.0035076952715934404 0 -0.0035076952715934404 -0.0027520527726697663 0 0 0 -0.0089464301372441102 0.024141292586729812 0.086221008627071993 0 0.086221008627071993 0.060035321945013376 0 0 0 0.021044153632935769 -0.016882221372739679 0.0088893941069306329 0 0.0088893941069306329 -0.0022754255248432914 0 0 0 -0.0047894117243957417 -0.028920938987280501 -0.0078433922414854196 0 -0.0078433922414854196 0.015329636372835576 0 0 0 -0.0033978256536112 -0.062230404449792845 -0.0058266803875160166 0 -0.0058266803875160166 -0.020739622099951949 0 0 0 -0.020742506637436198 -0.055977066881261521 0.0015785524934991176 0 0.0015785524934991176 -0.018655388841673858 0 0 0 -0.018658113930733841 -0.10353788062584734 0.0030246415619982251 0 0.0030246415619982251 -0.00049774705794128349 0 0 0 -0.026008906920947161 -0.16787589051773014 -0.0085029778364926617 0 -0.0085029778364926617 -0.0009950308483205883 0 0 0 -0.042217730341512674 -0.063980142898891507 -0.010404510359765001 0 -0.010404510359765001 0.021609878156970908 0 0 0 -0.010592566185480157 0.0032342269362324871 -0.014754992231594932 0 -0.014754992231594932 0.026531353809707503 0 0 0 0.0074413951864849559 -0.058450773387996958 -0.0099666007567206921 0 -0.0099666007567206921 0.045713577314700334 0 0 0 -0.003184299018324184 -0.033248706788717206 0.01145390936925806 0 0.01145390936925806 0.026579971490787856 0 0 0 -0.0016671838244823236 -0.042391239072126385 0.0067513947745424917 0 0.0067513947745424917 0.030426894692123396 0 0 0 -0.002991086095000762 -0.0078826210398999595 0.017440609563608891 0 0.017440609563608891 0.027779420872436403 0 0 0 0.0049741999581341036 0.0018123962117061812 0.014261855270431195 0 0.014261855270431195 0.015533274469013723 0 0 0 0.0043364176701799692 -0.019891942765596748 -0.0094845351413555268 0 -0.0094845351413555268 -0.0088947057414342501 0 0 0 -0.0071966621267576802 -0.054014586750171414 -0.014480190488942113 0 -0.014480190488942113 0.026174781339336373 0 0 0 -0.0069599513527087882 -0.063402351971376739 -0.026274461676325606 0 -0.026274461676325606 0.054965028650989123 0 0 0 -0.0021093308300969144 -0.021400743939405376 -0.044591584459818895 0 -0.044591584459818895 0.088089188360174819 0 0 0 0.016672111105192327 -0.0986897313981554 0.0026390238161699622 0 0.0026390238161699622 -0.00063494938799951717 0 0 0 -0.024831170196538743 -0.15307469390667403 -0.0071958891626008352 0 -0.0071958891626008352 -0.0012851554178402169 0 0 0 -0.038589962331128533 -0.0048078787476663861 -0.0037874739888316133 0 -0.0037874739888316133 -0.013913828890093925 0 0 0 -0.0046804269094400637 -0.023688008911185943 -0.021506365335854649 0 -0.021506365335854649 0.067700310010176068 0 0 0 0.011003075274747559 -0.024329624183950207 0.0094498994959744936 0 0.0094498994959744936 -0.0029935742991677519 0 0 0 -0.0068307996207794923 -0.091092038794799934 -0.0098640188480373595 0 -0.0098640188480373595 -0.013708002796792306 0 0 0 -0.026200010397898064 -0.071476127624393884 0.0014472796814838512 0 0.0014472796814838512 -0.0086818112761743518 0 0 0 -0.020039484725142061 -0.041026415424049327 0.001281545678344351 0 0.001281545678344351 -0.0052854972687398933 0 0 0 -0.011577978173197298 -0.058548087571049887 -0.0068280164037051163 0 -0.0068280164037051163 0.049651270113722029 0 0 0 -0.0022242043643319435 -0.019573078445342645 -0.0099155610719413589 0 -0.0099155610719413589 0.029415425017176811 0 0 0 0.0024605866429585344 -0.042576882367689146 0.0028418002849441596 0 0.0028418002849441596 -0.0032538585110319686 0 0 0 -0.011457685219680285 -0.053595994303689554 0.01349967008696451 0 0.01349967008696451 0.00036492237666951866 0 0 0 -0.013307767981755148 -0.018683970109845349 -0.017586905460966973 0 -0.017586905460966973 0.04681661571394935 0 0 0 0.0070331614010260557 -0.013589378499154037 -0.015764199440079785 0 -0.015764199440079785 0.039199444134400685 0 0 0 0.0064025164088116759 -0.043348419519016239 -0.022828210999775556 0 -0.022828210999775556 0.033324254661809882 0 0 0 -0.0025060412143016117 -0.042538716548708541 -0.012889376565551919 0 -0.012889376565551919 0.029563939586191634 0 0 0 -0.0032436942406292579 -0.041607923238493702 -0.0026847462875026285 0 -0.0026847462875026285 0.021066161471484719 0 0 0 -0.0051354404417522561 -0.056753219190071542 -0.0073500341487294793 0 -0.0073500341487294793 0.047051359825283107 0 0 0 -0.002425464841197135 0.007598990478293155 0.018484464468813133 0 0.018484464468813133 0.12851221512237032 0 0 0 0.034027801400165814 -8.8455404154030859e-05 0.00052965590562026321 0 0.00052965590562026321 0.00077450721788263621 0 0 0 0.00017151295343187378 0.0022591548370152481 -0.015371873698861949 0 -0.015371873698861949 0.070039554681677219 0 0 0 0.018074677379673082 -4.1693607015114154e-05 -0.00102434664282125 0 -0.00102434664282125 0.00097031622498455761 0 0 0 0.00023215565449219433 -0.042197098639116914 0.00096033042833421631 0 0.00096033042833421631 0.022789921430888507 0 0 0 -0.0048517943020570942 -0.043598704450998428 -0.0015938238953130419 0 -0.0015938238953130419 0.014483352480848337 0 0 0 -0.0072788379925375389 -0.041035186361025176 -0.01067313023743495 0 -0.01067313023743495 0.021021307264845704 0 0 0 -0.0050034697740448594 -0.13521638093305779 -0.011776670006494357 0 -0.011776670006494357 0.0018656259336540804 0 0 0 -0.033337688749850942 -0.15472184849230505 -0.018312892353322757 0 -0.018312892353322757 0.0023999382470318298 0 0 0 -0.038080477561318299 -0.039979875373496607 -0.018587402200037639 0 -0.018587402200037639 0.00011132979591232939 0 0 0 -0.0099671363943960763 -0.049189459000004015 -0.0024858550607396238 0 -0.0024858550607396238 0.0056826118783496471 0 0 0 -0.010876711780413592 -0.024923442432687987 -0.030516581292556424 0 -0.030516581292556424 0.049043077369171933 0 0 0 0.0060299087341209867 -0.069602695829390604 0.0023526435746696935 0 0.0023526435746696935 -0.0075888237465379883 0 0 0 -0.019297879893982146 -0.060654191487281309 0.0019626505936697937 0 0.0019626505936697937 -0.0098227546663124162 0 0 0 -0.017619236538398433 -0.068113853753764109 -0.0093967823394845926 0 -0.0093967823394845926 -0.016118789360626034 0 0 0 -0.02105816077859753 -0.086001873591207492 -0.011398207212643735 0 -0.011398207212643735 -0.014928197870062495 0 0 0 -0.025232517865317494 -0.055199298754500137 -0.020830005861984496 0 -0.020830005861984496 0.00056800231914655441 0 0 0 -0.013657824108838534 -0.044427905437256165 -0.021728311621819721 0 -0.021728311621819721 0.0014535419775740799 0 0 0 -0.010743590864920605 -0.041001851626293509 -0.0027378292032436222 0 -0.0027378292032436222 -0.018325904227059427 0 0 0 -0.01483193896333823 -0.03946015881082323 -0.0040340044351123479 0 -0.0040340044351123479 -0.017858590219063622 0 0 0 -0.014329687257471715 -0.042418382407611595 0.0039644193178055894 0 0.0039644193178055894 -0.010758445819599102 0 0 0 -0.013294207056802673 -0.045301709559455804 0.0020580180645415084 0 0.0020580180645415084 -0.014060909569904622 0 0 0 -0.014840654782340108 -0.026996086247019546 0.036486278644426884 0 0.036486278644426884 0.011128619503591342 0 0 0 -0.0039668666858567736 -0.025532879551389609 -0.024095686614687195 0 -0.024095686614687195 -0.0025680933110856508 0 0 0 -0.0070252432156188149 -0.055868550311313027 0.0011111762074783264 0 0.0011111762074783264 -0.0080308982290022181 0 0 0 -0.015974862135078802 -0.051239307356830653 -0.0072416862260228192 0 -0.0072416862260228192 -0.01605192000334494 0 0 0 -0.016822806840043905 -0.040299966541832613 -0.0061042933370562755 0 -0.0061042933370562755 0.010431658678715955 0 0 0 -0.007467076965779168 -0.064002178092207124 0.0020415543636739747 0 0.0020415543636739747 -0.0058622292753034329 0 0 0 -0.017466101841877635 -0.072115413067718973 -0.010943628982766501 0 -0.010943628982766501 -0.010583945855269148 0 0 0 -0.020674839730747029 -0.080529145086876974 -0.013271813250978481 0 -0.013271813250978481 0.084911471773915781 0 0 0 0.0010955816717597433 -0.04449009799563277 -0.0035451859066195253 0 -0.0035451859066195253 0.011454551495866452 0 0 0 -0.0082588866249415829 -0.075993397825384529 -0.0049297424603746576 0 -0.0049297424603746576 -0.025340583958791751 0 0 0 -0.025333495446044067 -0.063014172455334624 -5.0333996402434425e-05 0 -5.0333996402434425e-05 -0.021009655239738266 0 0 0 -0.021005956923768224 0.0054444065910694006 0.011473288161690277 0 0.011473288161690277 0.030669940085193026 0 0 0 0.0090285866690655997 -0.010440652586917176 -0.0021880475452390746 0 -0.0021880475452390746 -0.024812235600024213 0 0 0 -0.0088132220467353473 -0.056746095099532066 9.1877720336433488e-05 0 9.1877720336433488e-05 0.0080335022157251301 0 0 0 -0.012178148220951722 -0.0025963552801847867 -0.025124987484765215 0 -0.025124987484765215 0.019353555187460181 0 0 0 0.0041892999768188277 -0.042966796055036623 0.0023206133977650349 0 0.0023206133977650349 0.022871774234653929 0 0 0 -0.0050237554550956872 -0.048932875232968541 -0.0085620614953721454 0 -0.0085620614953721454 0.025024628078993326 0 0 0 -0.0059770617884938176 -0.13127538695454474 -0.0017436119603386514 0 -0.0017436119603386514 -0.010529924542797442 0 0 0 -0.035451327874335539 -0.093974393420620389 -0.0035681196880113404 0 -0.0035681196880113404 -0.0079130009122660994 0 0 0 -0.025471848583221615 -0.019125312197625297 -0.016243366186520149 0 -0.016243366186520149 0.03082301083525088 0 0 0 0.0029244246594063855 -0.038106610057864677 0.0066333337350600961 0 0.0066333337350600961 0.014672632902737778 0 0 0 -0.0058584942887817187 -0.04371318926296789 -0.0046784932822211411 0 -0.0046784932822211411 0.0071004924501131932 0 0 0 -0.0091531742032136855 -0.07849744388666724 -0.00019567514715500972 0 -0.00019567514715500972 0.0046370750922828941 0 0 0 -0.0184650921985961 -0.079722233438753287 0.01558447776634897 0 0.01558447776634897 0.00049344871966616743 0 0 0 -0.019807196179771891 -0.047074358909221084 -0.0042954279281720992 0 -0.0042954279281720992 0.02245420958585953 0 0 0 -0.0061550373308403711 -0.047175437286304064 -0.016479975159875093 0 -0.016479975159875093 0.012241737469004754 0 0 0 -0.0087334249543248449 -0.046166703587647157 -0.0015296748389578008 0 -0.0015296748389578008 0.0083346657264008195 0 0 0 -0.0094580094653115843 -0.036506379457823333 0.0059732333769102249 0 0.0059732333769102249 0.018856794942764505 0 0 0 -0.0044123961287647097 -0.049272532918092769 -0.018166215261431945 0 -0.018166215261431945 0.014673844908028755 0 0 0 -0.0086496720025160054 0.029610505530361736 0.015177413347221669 0 0.015177413347221669 0.078967042856160741 0 0 0 0.02714438709663064 -0.051718890018381911 0.0023579905079209543 0 0.0023579905079209543 0.0033103680520160106 0 0 0 -0.012102130491591465 -0.04396164320996121 0.01103879662270889 0 0.01103879662270889 -0.0025031914325577276 0 0 0 -0.011616208660629734 -0.01816289811422761 -0.014509027550231313 0 -0.014509027550231313 0.051428976785177882 0 0 0 0.0083165196677375541 -0.0084652134114038824 -0.013052848343850287 0 -0.013052848343850287 0.035625869964303947 0 0 0 0.00679016413822503 -0.10623786910943397 -0.018924212319780642 0 -0.018924212319780642 0.026752156257484849 0 0 0 -0.019871428212987288 -0.0042109336490519789 -0.012738344311343214 0 -0.012738344311343214 0.004480020532274212 0 0 0 6.7271720805547885e-05 -0.099022854012715239 0.0046850079220126239 0 0.0046850079220126239 0.0016551393912668244 0 0 0 -0.024341928655362069 -0.16650881915065621 -0.01682224765716181 0 -0.01682224765716181 0.0047067401515734977 0 0 0 -0.040450519749770798 -0.095871478448990133 -0.00017928816781800916 0 -0.00017928816781800916 0.000366040377969723 0 0 0 -0.023876359517755137 -0.16387301033327395 -0.0032099984786121694 0 -0.0032099984786121694 0.0021383667510614934 0 0 0 -0.040433660895553059 -0.081721410631192856 -0.0033847825443298054 0 -0.0033847825443298054 -0.011321394913799132 0 0 0 -0.023260701386248001 -0.1105261378157246 -0.0012480717524822479 0 -0.0012480717524822479 -0.014393635306677132 0 0 0 -0.031229943280600431 -0.050807584174724536 -0.01161302291492014 0 -0.01161302291492014 0.033979218862011856 0 0 0 -0.0042070913281781683 -0.047369962240908989 -0.018768070077216523 0 -0.018768070077216523 0.043166546404500461 0 0 0 -0.001050853959102125 -0.014377145215034526 -0.0023573548063590688 0 -0.0023573548063590688 0.055959769876556542 0 0 0 0.010395656165380518 -0.0065182124982366973 -0.0014496118685488613 0 -0.0014496118685488613 0.10940050675107993 0 0 0 0.025720573563210836 -0.020970684894523771 0.0037462921398024734 0 0.0037462921398024734 0.04251437094463012 0 0 0 0.0053859215125265716 -0.01400499531971694 0.00063924713461474547 0 0.00063924713461474547 0.095367099785783838 0 0 0 0.020340526116516724 -0.025214959443156326 -0.0074450269372606237 0 -0.0074450269372606237 0.048455470440927517 0 0 0 0.0058101277494427284 -0.047171999531294098 -0.0012867413186008689 0 -0.0012867413186008689 0.0090743565334469901 0 0 0 -0.0095244107494617796 -0.034189077630566389 -0.018893108355876501 0 -0.018893108355876501 0.036028507773422619 0 0 0 0.00045985753571405052 -0.049024052373747129 -0.02014730341257398 0 -0.02014730341257398 0.032544235896616813 0 0 0 -0.0041199541192825928 -0.046303194487911481 -0.0011502705168525411 0 -0.0011502705168525411 0.041966713328726812 0 0 0 -0.0010841202897961706 -0.10694058376366344 0.015041777349326898 0 0.015041777349326898 -0.0015828100090815589 0 0 0 -0.027130848443186029 -0.056869835853838695 -0.0068325001321763654 0 -0.0068325001321763654 0.043912331886275774 0 0 0 -0.0032393759918907181 -0.0059007982011309024 -0.0095438825904053809 0 -0.0095438825904053809 0.12592094420252165 0 0 0 0.030005036500347693 0.033963990501922364 -0.013693030268607565 0 -0.013693030268607565 0.067406817561501131 0 0 0 0.025342702015855867 0.0022487966615279409 -0.013440210816967835 0 -0.013440210816967835 0.030168175871237213 0 0 0 0.0081042431331913023 -0.1816341256791103 -0.012858937773846474 0 -0.012858937773846474 0.0040860694403089814 0 0 0 -0.044387014059700358 -0.1043117482440216 0.0042823562827389583 0 0.0042823562827389583 0.001231078387410961 0 0 0 -0.025770167464152654 -0.058171792776839315 -0.0063588435458260218 0 -0.0063588435458260218 0.047178455712367381 0 0 0 -0.0027483342661179869 -0.069417403166849523 0.03589876841049966 0 0.03589876841049966 -0.0057934017595577814 0 0 0 -0.01880270123160166 -0.049073386125029428 0.034174190343345012 0 0.034174190343345012 0.00098793725438195423 0 0 0 -0.012021362217662146 -0.028342039163582355 -0.027427743722894027 0 -0.027427743722894027 0.017744668832860189 0 0 0 -0.0026493425826806805 -0.021874150927761737 -0.024804710462363766 0 -0.024804710462363766 0.019900631578134764 0 0 0 -0.00049337983740677094 -0.024192455810723268 -0.016087076574408221 0 -0.016087076574408221 0.057919524226541341 0 0 0 0.0084317671039545461 -0.01796898938795044 0.0083538399404741708 0 0.0083538399404741708 0.00051547411871055715 0 0 0 -0.0043633788173105259 -0.054758300712681215 0.0022134844105714153 0 0.0022134844105714153 -0.0085837181431319704 0 0 0 -0.015835504713953289 -0.055407469795790115 -0.0056196393477541103 0 -0.0056196393477541103 -0.015855517364985677 0 0 0 -0.017815746790193945 -0.030631238780382788 -0.03030359601560273 0 -0.03030359601560273 0.0083523110023006469 0 0 0 -0.0055697319445205083 -0.031062588237479538 -0.029322646613652303 0 -0.029322646613652303 0.0083051998921370718 0 0 0 -0.0056893470863356166 -0.033196824223863733 -0.028913514312643107 0 -0.028913514312643107 0.0054821192552488573 0 0 0 -0.0069286762421536668 -0.034530418954068831 -0.031046249065157322 0 -0.031046249065157322 0.0061727125453872045 0 0 0 -0.0070894266021704899 -0.045806131978924219 0.044881805324466617 0 0.044881805324466617 -0.0028995867866083991 0 0 0 -0.0121764296913833 -0.037451907522949052 0.041908220740583202 0 0.041908220740583202 -0.0017297925434620314 0 0 0 -0.0097954250166027157 -0.058623335159082739 0.002896996503567637 0 0.002896996503567637 -0.015286079751645289 0 0 0 -0.01847735372768201 -0.069650592177418924 -0.0097853723818929553 0 -0.0097853723818929553 -0.020878703397745044 0 0 0 -0.022632323893790992 -0.08798745610331607 -0.010907345087672243 0 -0.010907345087672243 0.00708947207544941 0 0 0 -0.020224496006966686 -0.15020395456585001 0.02357026513167941 0 0.02357026513167941 0.010686514431259342 0 0 0 -0.034879360033647555 -0.076957939630642319 0.0065838940133263607 0 0.0065838940133263607 0.0014992585888712329 0 0 0 -0.018864670260442799 -0.035371099175165233 0.0059509441245779509 0 0.0059509441245779509 0.0068188576755429282 0 0 0 -0.0071380603749055882 -0.010131612472330298 -0.010534084308764735 0 -0.010534084308764735 -0.0055275716653858664 0 0 0 -0.0039147960344290689 -0.1196341928804423 -0.017928430473732444 0 -0.017928430473732444 0.0012742318641990047 0 0 0 -0.029589990254060838 -0.15066483878117964 -0.01489441492033123 0 -0.01489441492033123 -0.0027559681396810976 0 0 0 -0.038355201730215185 -0.027760717206599679 0.00091542264613102406 0 0.00091542264613102406 -0.015536120942620229 0 0 0 -0.010824209537304978 -0.034911053988070165 0.0064878206501346042 0 0.0064878206501346042 0.06977088601292647 0 0 0 0.0087149580062140658 -0.1038487387689635 -0.0017964129675508422 0 -0.0017964129675508422 0.00022018423042075019 0 0 0 -0.025907138634635674 -0.18565249360349537 0.0027555875795271523 0 0.0027555875795271523 0.00010970995631545688 0 0 0 -0.046385695911794894 -0.064527599245892825 -0.0060690869937215786 0 -0.0060690869937215786 0.012413841145865023 0 0 0 -0.013028439525006964 -0.094437207384774305 -0.015389496741825458 0 -0.015389496741825458 -0.010838182553322556 0 0 0 -0.026318847484524236 -0.073430720097422145 -0.015055351264264777 0 -0.015055351264264777 -0.0073497962407221423 0 0 0 -0.020195129084536072 -0.011155328489807825 0.074686306329416696 0 0.074686306329416696 0.14578076785570349 0 0 0 0.033656359841473915 -0.14189631593778051 -0.0066651214228009986 0 -0.0066651214228009986 0.00011112166132429269 0 0 0 -0.035446298569114049 -0.092434119563537892 0.0025049261829946448 0 0.0025049261829946448 0.00034925492930987234 0 0 0 -0.023021216158556988 -0.031358298377428123 -0.010963346278279516 0 -0.010963346278279516 -0.012130501249892678 0 0 0 -0.010872199906830193 -0.034009570037056069 -0.011283535480180212 0 -0.011283535480180212 -0.009337038335582637 0 0 0 -0.010836652093159732 -0.040623026495534578 0.0053341757436117677 0 0.0053341757436117677 0.033015595318380171 0 0 0 -0.0019018577942886135 -0.038641603070269766 -0.0084160899864389703 0 -0.0084160899864389703 0.0035599843239109696 0 0 0 -0.0087704046865897112 -0.026279518444447186 0.012273273728836048 0 0.012273273728836048 0.0051038965483102758 0 0 0 -0.0052939054740342266 -0.017229429136808028 0.022328774272735441 0 0.022328774272735441 0.13518021033697036 0 0 0 0.029487695300040639 -0.076148239888421385 0.0055467438506158484 0 0.0055467438506158484 0.0027342545409711136 0 0 0 -0.018353496336862552 -0.043871981035991978 -0.0024357192170761464 0 -0.0024357192170761464 0.0056289816694468919 0 0 0 -0.0095607498416362818 0.038659667977678946 0.015098348958019385 0 0.015098348958019385 0.063791679642077881 0 0 0 0.025612836904939096 -0.06296495819064965 -0.0093318257813671535 0 -0.0093318257813671535 -0.0024944317716439693 0 0 0 -0.016364847490573462 -0.22108260777804095 -0.00065165027812691401 0 -0.00065165027812691401 -0.00022836994736941119 0 0 0 -0.055327744431352632 -0.12016406435902779 -0.00057728749862014995 0 -0.00057728749862014995 -0.00031595158044572802 0 0 0 -0.03012000398486836 -0.056495000289139938 -0.0024686346659174886 0 -0.0024686346659174886 0.053810949464705451 0 0 0 -0.00067101270610863892 -0.095044830315343831 -0.012271458590721412 0 -0.012271458590721412 -0.0060053399547723985 0 0 0 -0.025262542567529071 -0.11158369700524602 -0.0176137985249194 0 -0.0176137985249194 -0.0033300819707323681 0 0 0 -0.02872844474399459 0.0071689960187377028 0.021100663064223743 0 0.021100663064223743 0.031074356703467587 0 0 0 0.0095608381805513121 -0.043210388425761526 -0.010009681016125316 0 -0.010009681016125316 -0.00050366558522041416 0 0 0 -0.010928513502745485 -0.040791458512795628 -0.013855082706884986 0 -0.013855082706884986 0.012013542956849588 0 0 0 -0.0071944788889865413 -0.013968118074052516 0.016473255072872166 0 0.016473255072872166 0.11241919422628577 0 0 0 0.02461276903805798 -0.014674311652453031 -0.0056679341868884443 0 -0.0056679341868884443 0.0011354246011303637 0 0 0 -0.0033847217628304449 -0.057488624463502856 -0.02256441667894464 0 -0.02256441667894464 0.031628513052160245 0 0 0 -0.0064650278528356753 -0.034942796502698492 -0.010693145941791271 0 -0.010693145941791271 0.038657268441737169 0 0 0 0.0009286179847596554 -0.047686814517057835 -0.003960680035003189 0 -0.003960680035003189 0.013650399938450464 0 0 0 -0.0085091036446518775 -0.038112572948066248 0.0099574197095215755 0 0.0099574197095215755 -0.0012813315572621775 0 0 0 -0.0098484761263322174 -0.016158218039447392 -0.017461192123902625 0 -0.017461192123902625 0.057799298442704483 0 0 0 0.010410270100814301 -0.051124360225423465 0.001884909072488279 0 0.001884909072488279 -0.0025564462617927997 0 0 0 -0.013420201621804056 -0.0077180914746900198 -0.00031620480136525242 0 -0.00031620480136525242 0.045167743207551819 0 0 0 0.009362412933215436 -0.08723192044416285 0.0041558839175669035 0 0.0041558839175669035 0.00033224332801334855 0 0 0 -0.021724919279037344 -0.06870808486104471 -0.016410219053009257 0 -0.016410219053009257 0.026515952573398893 0 0 0 -0.010548033071911461 -0.074824908461702644 0.0048352092760110751 0 0.0048352092760110751 -0.0028639446963848181 0 0 0 -0.019422213289521855 -0.066063194348947141 -0.0091409788678673554 0 -0.0091409788678673554 0.0013574379548242366 0 0 0 -0.016176439098530726 -0.093773582018514684 0.0034270545467992783 0 0.0034270545467992783 -0.00065300066889403818 0 0 0 -0.023606645671852174 -0.084784294168258084 0.0045662267678167265 0 0.0045662267678167265 0.00012482184303910793 0 0 0 -0.021164868081304737 -0.074991268522326127 0.045360659107540169 0 0.045360659107540169 -0.00084267903365453645 0 0 0 -0.018958486888995096 -0.056067873756833551 -0.0042904844583117347 0 -0.0042904844583117347 -0.018995356446718976 0 0 0 -0.018765807550888136 -0.061659998046651343 -0.010103139362257351 0 -0.010103139362257351 -0.018628517291633406 0 0 0 -0.020072128834571192 -0.055754469180149431 0.0035200176073489045 0 0.0035200176073489045 -0.011909923836742562 0 0 0 -0.016916098254222998 -0.053873972681042222 0.0011054205735061967 0 0.0011054205735061967 -0.01444849837494089 0 0 0 -0.017080617763995776 -0.04220997716139227 -0.008894990358408697 0 -0.008894990358408697 0.017988370093482392 0 0 0 -0.0060554017669774973 -0.034771359097516025 -0.029961635836577787 0 -0.029961635836577787 0.045951350247249688 0 0 0 0.0027949977874334154 -0.047346199259013955 -0.021064456698775887 0 -0.021064456698775887 0.018156248446395171 0 0 0 -0.0072974877031547203 -0.046967916982199015 -0.013125584449653588 0 -0.013125584449653588 0.03647214581058511 0 0 0 -0.0026239427929034831 -0.045647846671039896 -0.017106620984244134 0 -0.017106620984244134 0.016522865020994204 0 0 0 -0.0072812454125114057 -0.029565289795262212 -0.0026714139435712637 0 -0.0026714139435712637 0.05007210702284437 0 0 0 0.0051267043068955187 -0.03137835774877748 -0.0082747535912339187 0 -0.0082747535912339187 0.024883553077258869 0 0 0 -0.0016237011678796043 -0.12228728063341714 0.0013048899151836683 0 0.0013048899151836683 0.00058888881157126427 0 0 0 -0.030424597955461485 -0.22995288408532166 -0.0038765458920623263 0 -0.0038765458920623263 0.0035916176558776769 0 0 0 -0.05659031660736108 -0.022878411347684799 -0.0099336548501506999 0 -0.0099336548501506999 0.030584697275137795 0 0 0 0.0019265714818632318 -0.02296908735569296 -0.0026820711202286962 0 -0.0026820711202286962 0.059264548505629511 0 0 0 0.0090738652874841758 -0.070446666345900966 0.0033455127038720667 0 0.0033455127038720667 0.0083863721121463786 0 0 0 -0.015515073558438661 -0.032452643867209557 0.0028488522995872441 0 0.0028488522995872441 -0.01185477485546496 0 0 0 -0.011076854680668626 -0.049523842233734842 -0.0097423949237330255 0 -0.0097423949237330255 -0.006880998145776418 0 0 0 -0.014101210094877826 -0.036786994161515874 -0.0031610459907791214 0 -0.0031610459907791214 -0.012448556146370394 0 0 0 -0.012308887576971557 -0.029408183960605953 -0.042500733799287919 0 -0.042500733799287919 0.087907165318451649 0 0 0 0.014624745339461434 -0.089926262596437656 0.00058703446944028542 0 0.00058703446944028542 -0.0040001473318536304 0 0 0 -0.023481602482072844 -0.084353301479395862 -0.00012795031050826314 0 -0.00012795031050826314 -0.0021976249071705631 0 0 0 -0.021637731596641605 -0.11495008761838836 -0.0062047773883698379 0 -0.0062047773883698379 -0.0024969336475872544 0 0 0 -0.029361755316493893 -0.13074843071439302 -0.0074651365978472438 0 -0.0074651365978472438 -0.0066195032549714247 0 0 0 -0.034341983492341091 -0.10286678092998786 -0.0071612946239256467 0 -0.0071612946239256467 0.0010878729450956026 0 0 0 -0.025444726996223022 -0.02858940156415235 0.07102369820262483 0 0.07102369820262483 0.090728161296857568 0 0 0 0.015534689933176304 -0.0066649548654801327 -0.014092090616565467 0 -0.014092090616565467 0.032818561471660512 0 0 0 0.0065384016515450671 -0.015146695115996174 -0.0082695813204022306 0 -0.0082695813204022306 -0.010171210525265212 0 0 0 -0.0063294764103153118 -0.056376461430919567 0.00291127972880911 0 0.00291127972880911 -0.0029951380150254267 0 0 0 -0.01484289986148625 -0.056965086985283749 -0.0043914779745270298 0 -0.0043914779745270298 0.039171747923566883 0 0 0 -0.0044483347654292113 -0.07740625843777843 0.0040618713577115217 0 0.0040618713577115217 -0.00065590918079375116 0 0 0 -0.019515541904643059 -0.0044330343213291323 0.030304117515165485 0 0.030304117515165485 0.030264758318592655 0 0 0 0.0064579309993156864 -0.035759670989626784 0.0043791601160676156 0 0.0043791601160676156 -0.011949873464550951 0 0 0 -0.011927386113544434 -0.033847163255572979 -0.014931490424662103 0 -0.014931490424662103 -0.0082247233145748486 0 0 0 -0.010517971642536938 0.017128907846680027 -0.056152288834874615 0 -0.056152288834874615 0.074971997789023165 0 0 0 0.023025226408925795 -0.1821810763970777 0.016576796112911962 0 0.016576796112911962 0.0015940652367110175 0 0 0 -0.045146752790091504 -0.028152400966899856 0.002394079038971428 0 0.002394079038971428 -0.012179966460290811 0 0 0 -0.010083091856797665 -0.062140171142218467 0.00033044649407736444 0 0.00033044649407736444 -0.015506904462327152 0 0 0 -0.019411768901136408 -0.072466261624085579 -0.0050694574727534209 0 -0.0050694574727534209 -0.020124483543422819 0 0 0 -0.0231476862918771 -0.031811690011591759 0.0090447922577713558 0 0.0090447922577713558 0.011804185280425466 0 0 0 -0.0050018761827915776 -0.096284571905196875 0.0028789990482101235 0 0.0028789990482101235 0.0017494686091162892 0 0 0 -0.023633775824020126 -0.16200253472746035 -0.010557120751136739 0 -0.010557120751136739 0.0063329589207439668 0 0 0 -0.038917393951679077 -0.0077957877851475565 0.024659097578199285 0 0.024659097578199285 0.062380649593854365 0 0 0 0.013646215452176591 -0.038629831694346417 -0.013307107766245552 0 -0.013307107766245552 -0.0028055341945676382 0 0 0 -0.010358841472228542 -0.024917624001971617 0.0025017365626576055 0 0.0025017365626576055 0.061288632862201764 0 0 0 0.0090927522150575091 -0.027892800881392649 -0.018092159172029745 0 -0.018092159172029745 0.014359346135230766 0 0 0 -0.0033833636865404637 -0.03574280002559535 0.00050329606915527902 0 0.00050329606915527902 0.029067992382495161 0 0 0 -0.0016687019107750611 -0.035511500812118506 0.0043426076662924189 0 0.0043426076662924189 0.0044755660256820123 0 0 0 -0.0077589836966091208 -0.02961067719839881 0.00024041973443964266 0 0.00024041973443964266 -0.015607985737920212 0 0 0 -0.011304665734079756 -0.050161330716858042 0.0014776622545159233 0 0.0014776622545159233 0.0017596695629494789 0 0 0 -0.012100415288477138 -0.043445775584343926 -0.018442846804095307 0 -0.018442846804095307 0.10816969152865241 0 0 0 0.016180978986077107 -0.044819488501776271 -0.018805417496926772 0 -0.018805417496926772 0.10163491856857439 0 0 0 0.014203857516699496 -0.035975032268705742 -0.021061324618678046 0 -0.021061324618678046 -7.0863461745229728e-05 0 0 0 -0.0090114739326127569 -0.030445173783203217 -0.019581103478443163 0 -0.019581103478443163 -0.00039994180285729541 0 0 0 -0.007711278896515017 -0.019165216987126366 0.035179416586295309 0 0.035179416586295309 0.032307720558995445 0 0 0 0.0032856258929672144 -0.025718261942595966 0.035075541363577045 0 0.035075541363577045 0.030735607779860175 0 0 0 0.0012543364593160522 -0.019910833505972558 0.04081774382434554 0 0.04081774382434554 0.018529192953474993 0 0 0 -0.00034541013812439125 0.0063999162653693986 0.03955906372789697 0 0.03955906372789697 0.024876558885785549 0 0 0 0.007819118787788959 -0.031145354032114381 0.0029462470948308289 0 0.0029462470948308289 -0.010382146447488106 0 0 0 -0.010381875119900623 -0.023090898457105824 0.00164900984904362 0 0.00164900984904362 0.078250391802079544 0 0 0 0.01378987333624343 -0.031595681798974873 -0.00090454854884236546 0 -0.00090454854884236546 0.044589914748038223 0 0 0 0.0032485582372658306 -0.071715424354405255 -0.014889627860499743 0 -0.014889627860499743 -0.00078637503609524373 0 0 0 -0.018125449847625097 -0.081867977165490491 -0.0060450403727689839 0 -0.0060450403727689839 -0.00046280756445754578 0 0 0 -0.020582696182487037 -0.13589131698632562 0.013725077989459988 0 0.013725077989459988 -0.0011545222472233441 0 0 0 -0.034261459808387129 -0.020401903017794702 0.020983537049173551 0 0.020983537049173551 0.027418587564489713 0 0 0 0.0017541711366737406 -0.017003098751299392 0.022682062065899219 0 0.022682062065899219 0.035361979861919524 0 0 0 0.0045897202776550294 -0.031650534166618269 0.004754852409602139 0 0.004754852409602139 -0.0069943829800755454 0 0 0 -0.0096612292866734596 -0.032872022631982238 0.0036332308536879132 0 0.0036332308536879132 -0.012109852979490196 0 0 0 -0.011245468902868108 -0.14567402270173263 -0.0121893621736162 0 -0.0121893621736162 -0.0050358329173071092 0 0 0 -0.037677463904759914 -0.093277278525752946 0.003333451259666026 0 0.003333451259666026 -0.0011713386622951086 0 0 0 -0.023612154297012026 -0.085540598731069367 0.0049421017042688073 0 0.0049421017042688073 -0.001955378200268032 0 0 0 -0.02187399423283435 -0.013603074725547559 0.024111461853986826 0 0.024111461853986826 0.075243189998344562 0 0 0 0.015410028818199528 -0.030118939334477735 -0.0089444115560319837 0 -0.0089444115560319837 0.0023651454726620891 0 0 0 -0.0069384484654539946 -0.032813305430273026 -0.0016572288207937272 0 -0.0016572288207937272 -0.014068179275952462 0 0 0 -0.011720371176556372 -0.023518652501063143 0.001335532304978666 0 0.001335532304978666 -0.0083122900814397438 0 0 0 -0.0079577356456257131 -0.056220140440839783 -0.023910198936035465 0 -0.023910198936035465 0.0043979487219689695 0 0 0 -0.012955547929717703 -0.062239803462441623 -0.014123423004748961 0 -0.014123423004748961 -0.001736674133076696 0 0 0 -0.015994119398879562 -0.03556408552017163 -0.010773819078390784 0 -0.010773819078390784 0.024394694660226764 0 0 0 -0.0027923477149862722 -0.013816391690695658 0.01668192530009787 0 0.01668192530009787 0.015776115490684944 0 0 0 0.00048993094999733033 -0.079716940154365049 0.049511855561396367 0 0.049511855561396367 0.0026676184434258898 0 0 0 -0.019262330427735078 -0.086306898042659397 -0.0016815339770930582 0 -0.0016815339770930582 0.003381112108384321 0 0 0 -0.020731446483568838 -0.14337251426337422 0.0025851272955114829 0 0.0025851272955114829 0.0092348351498634518 0 0 0 -0.033534419778377789 -0.0080881448440766612 -0.0035037225018522966 0 -0.0035037225018522966 -0.019778123336760656 0 0 0 -0.0069665670452093709 -0.012371011152587097 -0.0075799922177595958 0 -0.0075799922177595958 -0.019731482712453285 0 0 0 -0.0080256234662601234 -0.076492189864279969 0.0052529124819038972 0 0.0052529124819038972 -0.00038603793712466139 0 0 0 -0.019219556950351151 -0.067612899763792159 0.0038493767178280347 0 0.0038493767178280347 -0.0013844617797015013 0 0 0 -0.017249340385873405 -0.042995684390752714 -0.0041517571723704814 0 -0.0041517571723704814 0.014582751952952222 0 0 0 -0.0071032331094501161 -0.094012172655197582 0.0066410574435760081 0 0.0066410574435760081 0.0019046348412233849 0 0 0 -0.023026884453493532 -0.10456721343193556 -0.016821978416379661 0 -0.016821978416379661 -0.0065934046873840219 0 0 0 -0.027790154529829907 -0.0038134250651683573 0.0022931598132444608 0 0.0022931598132444608 -0.016354122498077179 0 0 0 -0.0050418868908113697 -0.060178763023174042 0.056859457819539938 0 0.056859457819539938 0.0066180760560872187 0 0 0 -0.013390171741771706 -0.033317006649739696 0.0032956383109159371 0 0.0032956383109159371 -0.011106134747672544 0 0 0 -0.011105785349353059 0.018697884701356471 0.016225305794018485 0 0.016225305794018485 0.069371021932026156 0 0 0 0.022017226658345601 0.0097740610787486054 0.032122479945326077 0 0.032122479945326077 0.091687496576711672 0 0 0 0.025365389413865042 -0.13410329542107718 0.01512704925333419 0 0.01512704925333419 0.023307663213147742 0 0 0 -0.027698908051982427 -0.010539774192210596 0.033404399428237544 0 0.033404399428237544 0.095599383290759565 0 0 0 0.021264902274637232 -0.000592091017159041 0.028373524966683432 0 0.028373524966683432 0.063426729579950325 0 0 0 0.0157086596406978 -0.060443426939965877 0.0043226044924713075 0 0.0043226044924713075 0.0011129470235110295 0 0 0 -0.014832619979113726 -0.045647063303511225 0.0012307323967941583 0 0.0012307323967941583 -0.002736837542884377 0 0 0 -0.01209597521159889 -0.11720164373666342 0.037702496402405195 0 0.037702496402405195 0.012240200894400921 0 0 0 -0.026240360710565569 -0.056881815618279423 -0.014279352341953211 0 -0.014279352341953211 0.049229303479477002 0 0 0 -0.0019131280347006382 -0.029820582340001449 0.020673387043761718 0 0.020673387043761718 0.1020354850825487 0 0 0 0.018053725685636797 -0.041484967900607461 -0.019059376398147157 0 -0.019059376398147157 0.0013009276100546807 0 0 0 -0.010046010072638195 -0.098926129523195294 -0.0043934380980853449 0 -0.0043934380980853449 0.0031541203620108482 0 0 0 -0.023943002290296143 -0.17253462998341179 0.0094974995298064413 0 0.0094974995298064413 0.010240042462652532 0 0 0 -0.040573646880189829 -0.042533725608691175 0.021287022447498583 0 0.021287022447498583 -0.0063732983978734836 0 0 0 -0.01222675600164147 -0.023256142271477598 -0.023167461446864102 0 -0.023167461446864102 0.031754227818691305 0 0 0 0.0021245213868033574 -0.039474706037435692 -0.013022011352156124 0 -0.013022011352156124 0.020294317544909402 0 0 0 -0.0047950971231316142 -0.0076890144310437711 0.017505701903246768 0 0.017505701903246768 0.017309905682328375 0 0 0 0.0024052228128211353 -0.095705264095229295 -0.015686417975304155 0 -0.015686417975304155 -0.011408620128430878 0 0 0 -0.026778471055915042 -0.08664070573846859 0.0036103974269363071 0 0.0036103974269363071 0.002159300422823307 0 0 0 -0.021120351328911338 -0.12318131804683066 -0.0073328152138002756 0 -0.0073328152138002756 0.0072804612694975929 0 0 0 -0.028975214194333212 -0.033528484090227947 -0.022088300069803113 0 -0.022088300069803113 0.040952757765540915 0 0 0 0.0018560684188282245 -0.070624727594176734 0.0013401375284274181 0 0.0013401375284274181 0.0036193442063372494 0 0 0 -0.016751345846959885 -0.044766940106195911 0.0032072951399169589 0 0.0032072951399169589 0.081894767366413934 0 0 0 0.009281956815054497 -0.030321958312363478 -0.00018536213314947368 0 -0.00018536213314947368 -0.010106207889456485 0 0 0 -0.010107041550454993 -0.032280421059768111 -0.0094669307181451667 0 -0.0094669307181451667 0.014439762806579659 0 0 0 -0.0044601645632970921 -0.10110411786224607 0.0019472223190208082 0 0.0019472223190208082 0.0019456609816914661 0 0 0 -0.02478961422013868 -0.17326326842957435 -0.0075076786876936419 0 -0.0075076786876936419 0.0044941916851870545 0 0 0 -0.042192269186096906 -0.073153117830575487 -0.017276732358632363 0 -0.017276732358632363 0.0059664948412477964 0 0 0 -0.016796655747331853 -0.042988660789612804 -0.019512633682579272 0 -0.019512633682579272 0.0281256533128032 0 0 0 -0.0037157518692023661 -0.03435240936291048 -0.015014296235634411 0 -0.015014296235634411 0.051266340532512 0 0 0 0.0042284827924003732 -0.056619257664548936 0.0019912413453247388 0 0.0019912413453247388 0.0038918299525808053 0 0 0 -0.013181856927992008 -0.042867264586421594 -0.017404703124102416 0 -0.017404703124102416 0.0041027361845406007 0 0 0 -0.0096911321004702344 -0.057216075279964432 -0.021572250904696166 0 -0.021572250904696166 0.001120833149530015 0 0 0 -0.014023810532608715 -0.065668504030205396 0.0022148856172867423 0 0.0022148856172867423 0.0035116558569598388 0 0 0 -0.0155392120433114 -0.041364246712024391 -0.019778283789618462 0 -0.019778283789618462 0.0018442083342148918 0 0 0 -0.0098800095944523575 -0.031542007324396971 0.00082646222545024487 0 0.00082646222545024487 -0.015264849042696361 0 0 0 -0.011701714091773334 -0.10165704768047262 0.00027356393510324928 0 0.00027356393510324928 0.0014365658767260259 0 0 0 -0.025055120450936719 -0.18087712168512843 -0.0011055154331805483 0 -0.0011055154331805483 0.0021121689404379751 0 0 0 -0.044691238186172655 -0.045687465337663206 -0.0088123316996355783 0 -0.0088123316996355783 -0.0028044546764246225 0 0 0 -0.012122980003521959 0.0063125005111485111 0.017367146953356727 0 0.017367146953356727 0.084265239179409201 0 0 0 0.022644434922639456 -0.0033687317173286546 0.024373208641190747 0 0.024373208641190747 0.065885288154095445 0 0 0 0.015629139109191725 -0.032690125604666331 -0.0071405065123605936 0 -0.0071405065123605936 -0.0025353518059945124 0 0 0 -0.0088063693526652109 -0.0024793004466543422 0.014115056321121519 0 0.014115056321121519 0.10747183526910575 0 0 0 0.026248133705612631 -0.019446670254858994 -0.016759635169936327 0 -0.016759635169936327 0.015649353733133975 0 0 0 -0.00094932913043124789 -0.049543610556417844 -0.016962908056845333 0 -0.016962908056845333 0.015537657784137071 0 0 0 -0.0085014881930701447 0.014145251302379036 -0.002852458314802582 0 -0.002852458314802582 0.082596036596232825 0 0 0 0.024185321974652896 0.017847390804210772 0.0014119736229217805 0 0.0014119736229217805 0.15097782464462528 0 0 0 0.042206303862208944 -0.11993386787860341 -0.011009335352824112 0 -0.011009335352824112 0.022126361116971971 0 0 0 -0.024451876690407826 -0.064681836448402835 0.0030486624156396353 0 0.0030486624156396353 -0.0024307760507835674 0 0 0 -0.016778153124796601 -0.031561637657913914 0.0068842271822663788 0 0.0068842271822663788 -0.0021751410486935212 0 0 0 -0.0084341946766518499 -0.081617837883192101 0.04282404253724259 0 0.04282404253724259 -0.0042510803184336865 0 0 0 -0.021467229550406475 -0.013421796874497405 -0.022887788076951687 0 -0.022887788076951687 0.020197078045168348 0 0 0 0.0016938202926677359 -0.028447623807043632 0.0012553658532530692 0 0.0012553658532530692 -0.012871532937025257 0 0 0 -0.010329789186017223 -0.058162878458120043 0.00029602145943027902 0 0.00029602145943027902 0.012601829312065979 0 0 0 -0.011390262286513547 0.013452435355080894 0.014566108103857375 0 0.014566108103857375 0.068977791514660325 0 0 0 0.020607556717434861 -0.046276844027280557 -0.0070717881467047602 0 -0.0070717881467047602 -0.015908729410087627 0 0 0 -0.015546393359342046 -0.03032560477959631 -0.0084531884722879591 0 -0.0084531884722879591 0.0065686765397011959 0 0 0 -0.0059392320599737647 -0.024789085256841974 -0.012934126502357771 0 -0.012934126502357771 0.0062830542116537255 0 0 0 -0.0046265077612970473 -0.0033603772671574883 0.0029506270766165299 0 0.0029506270766165299 0.040531166898597148 0 0 0 0.0092926974078599289 0.005987885737269244 0.0006292853790642039 0 0.0006292853790642039 0.076427633909934067 0 0 0 0.020603879911800765 0.012072183663464298 -0.0051410799920518779 0 -0.0051410799920518779 0.13858770944062543 0 0 0 0.037664973276022473 -0.0031511031226431827 -0.0063433554220145294 0 -0.0063433554220145294 0.081205615524846439 0 0 0 0.019513628100550774 -0.025690029036311977 0.017149946469628773 0 0.017149946469628773 0.031454875759347412 0 0 0 0.0014412116807588742 -0.017013352186089271 -0.021505276604409332 0 -0.021505276604409332 0.0057832034313277103 0 0 0 -0.0028075371886903747 -0.005917029844347263 -0.04062231600212439 0 -0.04062231600212439 0.038332669764194541 0 0 0 0.0081039099799618403 -0.050510239568183207 -0.016864704426024169 0 -0.016864704426024169 0.0036458787998089881 0 0 0 -0.011716090192093492 -0.076407667010957747 0.0037335956694766158 0 0.0037335956694766158 0.0013997481744819629 0 0 0 -0.018751979709118932 -0.06688375821305885 0.0053610985183140548 0 0.0053610985183140548 0.0024006048085331577 0 0 0 -0.016120788351131426 -0.11611801277773197 0.005065112090795687 0 0.005065112090795687 0.048198202255570588 0 0 0 -0.01697995263054039 -0.016140685857537751 -0.00010117225243874706 0 -0.00010117225243874706 0.022784641193696276 0 0 0 0.0016609888340397005 -0.013670852369235209 -0.0065799857640357617 0 -0.0065799857640357617 0.051186214510293038 0 0 0 0.0093788405352644155 -0.030841728787548942 0.0074153681009231382 0 0.0074153681009231382 0.0045099980451658809 0 0 0 -0.0065829326855957682 -0.0013683215336591226 0.00011898870312346266 0 0.00011898870312346266 -0.02098607883137471 0 0 0 -0.0055886000912584999 -0.03709272095091138 0.0030494681740164606 0 0.0030494681740164606 -0.0073895672436306344 0 0 0 -0.011120572048635502 -0.043250297875391433 -0.019723760397530141 0 -0.019723760397530141 0.013973643294382831 0 0 0 -0.007319163645252133 -0.028052360143717977 0.0013759285887889425 0 0.0013759285887889425 -0.015651227104169274 0 0 0 -0.010925896811971814 -0.028906193883525777 0.048703641038687739 0 0.048703641038687739 0.005848515371211338 0 0 0 -0.0057644196280786097 -0.029524151640382579 0.040679888398814423 0 0.040679888398814423 0.0099897816578227161 0 0 0 -0.0048835924956398546 -0.028121222881472591 -0.025246820857182328 0 -0.025246820857182328 0.0027282745244273932 0 0 0 -0.0063482370892612716 0.012608369155294591 -0.075815635631456171 0 -0.075815635631456171 0.14818110024869488 0 0 0 0.04019736735099734 -0.028929469436166869 0.0017489950108236418 0 0.0017489950108236418 -0.014300391075013425 0 0 0 -0.010807465127795074 -0.04716461260746746 -0.0097550681329742761 0 -0.0097550681329742761 0.0027881978332295887 0 0 0 -0.011094103693559509 0.0012195978176424704 0.00074810987568463272 0 0.00074810987568463272 0.00020033104830563531 0 0 0 0.00035498221648677664 0.020012905746142451 0.00084607096181077424 0 0.00084607096181077424 0.16276704093954386 0 0 0 0.045694986671421356 0.019096479638602577 -0.0065855392296869653 0 -0.0065855392296869653 0.14108501376336646 0 0 0 0.040045373350492144 0.011710391862003067 0.0024190662840215538 0 0.0024190662840215538 0.077336967458172978 0 0 0 0.022261839830044039 0.0018413759877189406 -0.0011953099688016076 0 -0.0011953099688016076 0.00043282291762736236 0 0 0 0.00056854972633679779 -0.00068045286970988214 0.00090191052676158456 0 0.00090191052676158456 0.0016281651160719268 0 0 0 0.0002369280615906777 0.012381367978973268 -0.003155253216683725 0 -0.003155253216683725 0.093608650163395701 0 0 0 0.026497504535592187 -0.00091790736076502455 -0.0014184323607424609 0 -0.0014184323607424609 0.0025056624184882637 0 0 0 0.00039693876443047671 -0.030921922550177647 0.00040317915468357767 0 0.00040317915468357767 -0.014153392317142386 0 0 0 -0.011268828716830005 -0.037759352335604707 -0.018468119579830106 0 -0.018468119579830106 -0.0042115684149055463 0 0 0 -0.010492730187627562 -0.065443715198063107 0.0038685489696436218 0 0.0038685489696436218 0.0067029624776133723 0 0 0 -0.014685188180112441 -0.046207764068491919 -0.024343450999230798 0 -0.024343450999230798 0.0045670410888634105 0 0 0 -0.010410180744907294 -0.038299982636383401 -0.0004882272396477638 0 -0.0004882272396477638 -0.014655232335267006 0 0 0 -0.013238803742912595 -0.027766377522824515 0.032399825145127181 0 0.032399825145127181 -0.0031868200500939636 0 0 0 -0.0077382993932297861 -0.024623650268270514 -0.026523523903031143 0 -0.026523523903031143 0.0058610921085555656 0 0 0 -0.0046906395399287648 -0.0059039183191386679 -0.0055819510097470104 0 -0.0055819510097470104 0.061311815586858387 0 0 0 0.013851974316929916 -0.0079439210073528332 0.0012701405489885798 0 0.0012701405489885798 0.1169144157961744 0 0 0 0.027242623697205398 -0.050780038101124775 0.0066259039783226475 0 0.0066259039783226475 0.060431887489619446 0 0 0 0.0024129623471236678 -0.060115076817575497 -0.00072282093415661219 0 -0.00072282093415661219 0.0070621153043370355 0 0 0 -0.013263240378309588 -0.028767796130392959 -0.010584729568315288 0 -0.010584729568315288 0.04345148045299696 0 0 0 0.0036709210806510906 -0.026034861216031296 0.0048221626665027606 0 0.0048221626665027606 0.088969189054061482 0 0 0 0.015733581959507525 -0.033140398172887053 -0.029494819986895793 0 -0.029494819986895793 0.0082310134110467059 0 0 0 -0.0062273461904600591 -0.028571253701390027 0.00691829576307121 0 0.00691829576307121 -0.0012034812005920908 0 0 0 -0.0074436837254955226 -0.026074462397082443 -0.028765391641151994 0 -0.028765391641151994 0.015108237140582403 0 0 0 -0.0027415563141247601 -0.037437890992970901 0.031531148318339364 0 0.031531148318339364 -0.00092225515524146928 0 0 0 -0.0095900365370529261 -0.031681547127188514 -0.0025146917044915895 0 -0.0025146917044915895 0.025456104268614943 0 0 0 -0.0015563607146434066 -0.022451761973755549 -0.0045233428569342871 0 -0.0045233428569342871 0.028528177385464593 0 0 0 0.0015191038529272505 -0.049679080391430736 0.0019524098808366558 0 0.0019524098808366558 -0.0031578040826731532 0 0 0 -0.013209221118525965 -0.047758922096838047 -0.0079013181762826179 0 -0.0079013181762826179 0.033815271765020097 0 0 0 -0.0034859125829544389 0.004148883075100987 -0.024631822866355596 0 -0.024631822866355596 0.020672548013256131 0 0 0 0.0062053577720893732 -0.035773003634824427 -0.019613389212013999 0 -0.019613389212013999 -0.0013602412486256391 0 0 0 -0.0092833112208625512 0.029397264497536546 -0.017504261902721419 0 -0.017504261902721419 0.027225714359932485 0 0 0 0.014155744714367258 -0.021081391785192333 -0.0051631633337249627 0 -0.0051631633337249627 0.054195423290432587 0 0 0 0.0082785078763100983 -0.032652506064425463 -0.0063462804145394958 0 -0.0063462804145394958 0.019250903247923223 0 0 0 -0.003350400704125539 -0.072411912163566197 0.0029986798443280907 0 0.0029986798443280907 -0.0025574265481434003 0 0 0 -0.018742334677927394 -0.051338543310833248 -0.0090594186485272211 0 -0.0090594186485272211 0.037887410268497498 0 0 0 -0.0033627832605839514 -0.051851503381561574 -0.0079856136599652447 0 -0.0079856136599652447 0.046232790391852435 0 0 0 -0.0014046782474273073 0.011972324927052386 0.050600926036729763 0 0.050600926036729763 0.15888762571502826 0 0 0 0.042714987660520162 -0.032010452293361261 -0.016387119352217414 0 -0.016387119352217414 0.18174886989349162 0 0 0 0.037434604400032601 0.0024112922885286547 0.015840206320798862 0 0.015840206320798862 0.081600465982976544 0 0 0 0.021002939567876355 -0.033166624415099571 0.018761253663540627 0 0.018761253663540627 0.041911253826647982 0 0 0 0.0021861573528871164 -0.049933029302427601 -0.0084378188609151115 0 -0.0084378188609151115 0.00027306587505337987 0 0 0 -0.012414990856843611 -0.050028894811399771 0.0022370287114900659 0 0.0022370287114900659 -0.0053583038904424056 0 0 0 -0.013846799675460555 -0.092508241065595589 -0.0071345546139323247 0 -0.0071345546139323247 -0.013810417356954737 0 0 0 -0.026579664605637571 -0.073060857960170367 0.00012886400076460823 0 0.00012886400076460823 -0.0090536287027301598 0 0 0 -0.020528621665725128 -0.022751196438622633 0.0042876042735912681 0 0.0042876042735912681 -0.0098758306634431081 0 0 0 -0.0081567567755164317 -0.10257337702646184 -0.0086937839796326251 0 -0.0086937839796326251 -0.0023761345546468413 0 0 0 -0.026237377895277164 -0.0890422091485117 -0.0098253236593587052 0 -0.0098253236593587052 -0.020619691598385663 0 0 0 -0.027415475186724342 -0.13879605822611252 0.0077198370509636172 0 0.0077198370509636172 -0.0014378020749352162 0 0 0 -0.035058465075261933 -0.12188166099999374 0.0087154665847784529 0 0.0087154665847784529 -0.026575193420542098 0 0 0 -0.037114213605133978 -0.052190684812225968 -0.018082285215502536 0 -0.018082285215502536 0.019768833046944323 0 0 0 -0.0081054629413203905 -0.026956756286104156 0.0029551378509434637 0 0.0029551378509434637 -0.013009085154272539 0 0 0 -0.0099914603600941721 0.0133414781528014 0.028224861157464476 0 0.028224861157464476 0.030999376381527055 0 0 0 0.011085213633581947 -0.033444501346696631 0.0052639257430178721 0 0.0052639257430178721 0.065785859471488295 0 0 0 0.0080853395311978882 -0.021657819005145566 0.026628434555866616 0 0.026628434555866616 0.064186995149068338 0 0 0 0.010632294035980698 -0.034114265255528187 -0.029499714008037074 0 -0.029499714008037074 0.027808328672327187 0 0 0 -0.0015764841458002499 -0.0042474896129896661 1.5041032790819031e-05 0 1.5041032790819031e-05 0.0088483349060661954 0 0 0 0.0011502113232690213 -0.0011231794873473649 -0.0048690729975633396 0 -0.0048690729975633396 0.025711189357768321 0 0 0 0.0061470024676054053 -0.0018096346654839668 0.0047113919232488755 0 0.0047113919232488755 0.054028061006912383 0 0 0 0.013054606585357325 -0.0031573915137555401 -0.0003836335314217898 0 -0.0003836335314217898 0.0050258802213743676 0 0 0 0.00046712217690431828 -0.012810876439702745 0.0052005911484723222 0 0.0052005911484723222 0.0037460107760863282 0 0 0 -0.0022662164159040765 -0.013979354081666062 -0.010947441672538263 0 -0.010947441672538263 0.012917774406891458 0 0 0 -0.00026539491869365106 -0.09746610602227132 -0.014864429152193666 0 -0.014864429152193666 -0.032429920528895616 0 0 0 -0.032474006637791736 -0.13152997850343881 0.015380897310172691 0 0.015380897310172691 -0.043762840257473123 0 0 0 -0.043823204690227976 -0.15043448633027884 0.015439042459494765 0 0.015439042459494765 -0.020491941745286735 0 0 0 -0.0427316070188914 -0.11254933365598137 -0.014516514470678463 0 -0.014516514470678463 -0.015609434644813798 0 0 0 -0.032039692075198793 -0.030760990644222913 -0.029892152267772865 0 -0.029892152267772865 0.011478138636029755 0 0 0 -0.0048207130020481437 -0.050014435672204746 0.0021309911424660967 0 0.0021309911424660967 0.0021410782598112882 0 0 0 -0.011968339353098351 -0.039890176817824224 -0.02039324543249673 0 -0.02039324543249673 0.0057312841735474018 0 0 0 -0.0085397231610691848 -0.038270608861150079 -0.020439580886223545 0 -0.020439580886223545 -0.0020588467165224555 0 0 0 -0.010082363894418161 -0.04441318384849078 0.0013671978708646058 0 0.0013671978708646058 0.0017004579111499635 0 0 0 -0.010678181484335197 -0.034182350748676329 0.0037675229603069691 0 0.0037675229603069691 -0.0058249783385575784 0 0 0 -0.010001832271808475 -0.034014320543977211 0.00425468220587512 0 0.00425468220587512 -0.0052858100220235585 0 0 0 -0.0098250326415001872 -0.049725417183000498 -0.035958692333967257 0 -0.035958692333967257 0.11831586220448387 0 0 0 0.017147611255370857 0.0053767273441560071 -0.0078094118504398596 0 -0.0078094118504398596 0.32625416455439915 0 0 0 0.082907722974638789 -0.063232841900024303 -0.013131016514130345 0 -0.013131016514130345 0.01358046197098875 0 0 0 -0.012413094982258885 -0.023261627399515539 -0.0033920339342787195 0 -0.0033920339342787195 0.048714674222562815 0 0 0 0.0063632617057617913 -0.033688885346780606 -0.010754783987302396 0 -0.010754783987302396 0.028051284732983517 0 0 0 -0.0014094001534493139 -0.035238007824757493 0.0055089626931836347 0 0.0055089626931836347 0.0055297276709512372 0 0 0 -0.0074270700384515571 -0.020636522527516132 0.025796339913500166 0 0.025796339913500166 0.058661101432237128 0 0 0 0.0095061447261804988 -0.025933791004164097 -0.012446003716484855 0 -0.012446003716484855 -0.0017382712521258892 0 0 0 -0.0069180155640723995 0.001536673304642161 -0.026910433743553119 0 -0.026910433743553119 0.053149435480926044 0 0 0 0.013671527196392044 -0.019606581395007934 -0.0062223113714118677 0 -0.0062223113714118677 0.022764035446314237 0 0 0 0.00078936351282659495 -0.040562469539134449 0.024821725091653812 0 0.024821725091653812 0.0024215934097711056 0 0 0 -0.0095352190323410024 -0.024943194388103773 -0.024873034496245894 0 -0.024873034496245894 0.027794663746818049 0 0 0 0.00071286733967845795 -0.019447026158107117 -0.023126603456774301 0 -0.023126603456774301 0.022904359093430138 0 0 0 0.00086433323383072747 -0.023353314442962875 -0.0023735238512078427 0 -0.0023735238512078427 -0.0096112581970860811 0 0 0 -0.008241143160012232 -0.015358906432324237 -0.0065679591802953463 0 -0.0065679591802953463 0.0663149145573671 0 0 0 0.012739002031260688 -0.036404763163974452 -0.0068769908973015312 0 -0.0068769908973015312 -0.0083951334440424547 0 0 0 -0.01119997415200423 -0.020054714035433574 -0.0062997706509707596 0 -0.0062997706509707596 -0.024873630369927596 0 0 0 -0.011232086101340355 -0.054104662175963499 0.0028625684840413584 0 0.0028625684840413584 -0.0060912033255667002 0 0 0 -0.015048966375382566 -0.049359561899758521 0.0031557522964036164 0 0.0031557522964036164 -0.0074082149589709111 0 0 0 -0.014191944214682365 -0.05173714557856765 -0.0038897446162147638 0 -0.0038897446162147638 0.02723756265729381 0 0 0 -0.0061248957303184559 -0.048220453175100292 -0.016491019167766824 0 -0.016491019167766824 0.032786119975221739 0 0 0 -0.0038585832999696312 -0.043172134866842342 0.0012253307384924293 0 0.0012253307384924293 -0.0048715910003912944 0 0 0 -0.012010931466808423 -0.040123592549745311 0.0027747641967731948 0 0.0027747641967731948 0.0023441739235102697 0 0 0 -0.0094448546565587786 -0.042802335899670245 0.0014777955526546066 0 0.0014777955526546066 0.0019590296348807653 0 0 0 -0.01021082656619738 -0.011996252805640456 0.006228103023352749 0 0.006228103023352749 -0.014086352163791394 0 0 0 -0.0065206512423580387 -0.0050950332079485461 0.0078913001357679147 0 0.0078913001357679147 0.0070927685735102664 0 0 0 0.00049943384139036762 -0.0057259821177512993 -0.011758594508955444 0 -0.011758594508955444 0.025810559317373749 0 0 0 0.005021144299905661 -0.014069168153980433 -0.0099227968256425658 0 -0.0099227968256425658 -0.00053682696956136589 0 0 0 -0.0036514987808854149 -0.017719331003246422 -0.03551080135033681 0 -0.03551080135033681 0.11848828510517292 0 0 0 0.025192238525481608 -0.0088474809059513326 0.017327070381962795 0 0.017327070381962795 0.048251480479148512 0 0 0 0.0098509998932998499 -0.0012341115032610261 -0.0029069081926743623 0 -0.0029069081926743623 -0.0032891039246862874 0 0 0 -0.0011308038569870504 -0.0064422783643354742 -0.014340164826481816 0 -0.014340164826481816 0.023822614925294916 0 0 0 0.0043450841402400964 -0.0014542840419446978 0.0033705995277073519 0 0.0033705995277073519 -0.0030459853144977345 0 0 0 -0.0011250673391101085 -0.044392121446192201 0.033477946497341149 0 0.033477946497341149 -0.0038428566293546851 0 0 0 -0.012058744518886888 -0.028783605582577643 -0.028217940680770312 0 -0.028217940680770312 0.014745780967693189 0 0 0 -0.0035094561537210023 -0.023235017606947239 -0.027864593782607638 0 -0.027864593782607638 0.01351059469919802 0 0 0 -0.0024311057269372771 -0.046772894252964006 -0.006662723310845102 0 -0.006662723310845102 0.038227283369080135 0 0 0 -0.0021364027209709712 -0.0036594728415968447 0.010462551794196639 0 0.010462551794196639 0.031846949850825368 0 0 0 0.0070468692523073528 -0.0011053187277298981 -0.00032090935176085078 0 -0.00032090935176085078 0.0024897018418421624 0 0 0 0.00034609577852795503 -0.0019492541103982575 -0.00025705687924348908 0 -0.00025705687924348908 0.005157547206398938 0 0 0 0.0008020732739999481 -0.0034933540189211465 -0.0089388071863206742 0 -0.0089388071863206742 0.011189862329768374 0 0 0 0.0019241270777117236 -0.027417531358996272 -0.0047020036173506807 0 -0.0047020036173506807 -0.018661690017464316 0 0 0 -0.011519805344115064 0.0072549147678126619 -0.027092644310186209 0 -0.027092644310186209 0.011315841642786539 0 0 0 0.0046426891026497691 0.016554481749198005 -0.002176538627036595 0 -0.002176538627036595 0.083060779799444179 0 0 0 0.024903815387160536 0.02447937924167376 5.7714568954425616e-05 0 5.7714568954425616e-05 0.15097167097611608 0 0 0 0.043862762554447432 -0.030172180862816901 0.0049142513497239622 0 0.0049142513497239622 -0.0078132976464652653 0 0 0 -0.0094963696273205438 -0.068636560366403643 0.034470705656565126 0 0.034470705656565126 0.0016568433381340952 0 0 0 -0.016744929257067165 -0.076462697037487981 0.03277710820017174 0 0.03277710820017174 -0.0016660818362925767 0 0 0 -0.01953219471844525 -0.029086123713104102 -0.0071538030489277649 0 -0.0071538030489277649 -0.01107842413488799 0 0 0 -0.010041136961998022 -0.042373758612008844 -0.0031387770324232782 0 -0.0031387770324232782 0.012231519001767548 0 0 0 -0.0075355599025603327 -0.045226849619839887 -0.020255361835633118 0 -0.020255361835633118 0.0039564808783616387 0 0 0 -0.010317592185369569 -0.038505582943663706 -0.024289248932318819 0 -0.024289248932318819 0.017099348088525569 0 0 0 -0.0053515587137845447 -0.049187745965218133 0.035139147872255277 0 0.035139147872255277 -0.0034414961151245649 0 0 0 -0.013157310520085952 -0.026882787233723171 -0.027584669640149911 0 -0.027584669640149911 0.015709825286308821 0 0 0 -0.0027932404868535876 -0.030220803571072707 -0.02893385282548766 0 -0.02893385282548766 0.012058833992225626 0 0 0 -0.0045404923947118814 -0.085970378086545174 -0.0012625364812039533 0 -0.0012625364812039533 -0.008847295350473787 0 0 0 -0.023704418359254749 -0.11847082384686292 -0.006216075945555094 0 -0.006216075945555094 -0.01363984100299797 0 0 0 -0.033027666212465223 -0.1093877131935703 -0.011266866043997979 0 -0.011266866043997979 -0.0013140949839389529 0 0 0 -0.02767545204437729 -0.081458007399089816 0.0022843501978995692 0 0.0022843501978995692 -0.0015550230049450331 0 0 0 -0.020753257601008736 -0.047494066255121127 -0.0038677909131901167 0 -0.0038677909131901167 0.018626424283631891 0 0 0 -0.0072169104928722959 -0.063401840624126793 0.028037343320675756 0 0.028037343320675756 -0.0055520129039683397 0 0 0 -0.017238463382023506 -0.021287020839602544 -0.023510617334064565 0 -0.023510617334064565 0.026894909536506084 0 0 0 0.001401972174225774 -0.023746743491326772 -0.024275105742336628 0 -0.024275105742336628 0.020820692780540107 0 0 0 -0.00073151267769666628 -0.049732494686668176 -0.028644948784052326 0 -0.028644948784052326 0.007686010258008108 0 0 0 -0.010511621107165019 -0.030823462661286202 -0.0061296811225751702 0 -0.0061296811225751702 -0.013453616894250647 0 0 0 -0.011069269888884167 -0.029913927655018345 -0.012759920420689234 0 -0.012759920420689234 -0.0034659741849429326 0 0 0 -0.0083449754599903211 -0.041603526464011442 -0.0081911603793968224 0 -0.0081911603793968224 0.01309609092548919 0 0 0 -0.0071268588846305492 -0.073048046601461039 0.0035661031163637391 0 0.0035661031163637391 -0.0049641136103878228 0 0 0 -0.019503040052962228 -0.083856447901958342 0.05302995298215496 0 0.05302995298215496 0.015044158314240219 0 0 0 -0.017203072396929531 -0.05607352514115721 -0.024799948106692726 0 -0.024799948106692726 0.0091356188789641912 0 0 0 -0.011734476565548269 -0.021636582835382792 0.036127957888690609 0 0.036127957888690609 0.022527053761259325 0 0 0 0.00022261773146907415 -0.034394447502144612 -0.021608109261616715 0 -0.021608109261616715 -0.0031077732818474701 0 0 0 -0.0093755551959978818 -0.020248097711415225 0.051913332003665991 0 0.051913332003665991 0.0090781827837842499 0 0 0 -0.0027924787319075772 -0.067933177729859823 0.0028775795490486034 0 0.0028775795490486034 0.00054003470467639536 0 0 0 -0.016848285756295881 -0.043963638252372636 -0.0018480460844411337 0 -0.0018480460844411337 0.0088412698096837408 0 0 0 -0.0087805921106722321 -0.048826871105658531 -0.026046413411623504 0 -0.026046413411623504 0.0017096110188621338 0 0 0 -0.011779315021699155 -0.0014255197417624779 0.0071676372734294502 0 0.0071676372734294502 0.041932007410980951 0 0 0 0.010126621917304617 -0.0012312073723748096 -0.010025659399200249 0 -0.010025659399200249 0.082638652371494592 0 0 0 0.020351861249779946 -0.042077054964937279 -6.9912155144062627e-05 0 -6.9912155144062627e-05 0.0004692220710734666 0 0 0 -0.010401958223465962 0.0013694265170856035 -0.00011976154425785701 0 -0.00011976154425785701 0.0031975476041843365 0 0 0 0.001141743530317374 -0.0060484251250212395 0.0011159115269598896 0 0.0011159115269598896 0.00096581964012365518 0 0 0 -0.0012706513712243961 0.00029229733063385055 -0.01022641856780393 0 -0.01022641856780393 0.041163720099667955 0 0 0 0.010364004357575674 -0.004921117914315376 -0.0072528321598155365 0 -0.0072528321598155365 0.039958599742424994 0 0 0 0.00875937045702746 -0.0075900185420345601 0.0089536348851462222 0 0.0089536348851462222 0.078299941873722467 0 0 0 0.017677480832921866 0.00099818536381457434 -4.9030423556528646e-05 0 -4.9030423556528646e-05 0.0018347387629509271 0 0 0 0.00070823103169148638 0.0033802474508628499 0.0097870324430406885 0 0.0097870324430406885 0.081772034918972558 0 0 0 0.021288070592459185 -0.0047134535738175831 -0.0012133984626661043 0 -0.0012133984626661043 0.00015309372435323709 0 0 0 -0.001140089962366142 -0.030528778763685982 -0.0082249407709796274 0 -0.0082249407709796274 -0.01609957068453538 0 0 0 -0.01165708736205523 -0.032333028887815807 -0.0087641392383494329 0 -0.0087641392383494329 0.01250452398909252 0 0 0 -0.0049571262246808079 -0.039368624524005358 -0.010629410751794827 0 -0.010629410751794827 0.0096515776420940114 0 0 0 -0.0074292617204778089 -0.019869135593512006 -0.0016110463903163952 0 -0.0016110463903163952 -0.01566292182671155 0 0 0 -0.0088830143550557919 -0.019702303177825453 0.00054069200619810687 0 0.00054069200619810687 -0.01064919356493077 0 0 0 -0.0075878741856890142 -0.034511711651872605 0.022704654436182359 0 0.022704654436182359 0.090033548997504279 0 0 0 0.013880459336407922 -0.054871461691622617 -0.013812784715316356 0 -0.013812784715316356 0.011398488080014396 0 0 0 -0.010868243402902059 -0.057172277242677635 -0.021987385979396687 0 -0.021987385979396687 0.0059589418217400048 0 0 0 -0.012803333855234397 -0.058694445505469948 0.00059979923960061 0 0.00059979923960061 0.0033008153905854931 0 0 0 -0.013848407528721123 -0.10079013651984836 0.038594032566169778 0 0.038594032566169778 0.0034353001781508574 0 0 0 -0.02433870908542457 -0.082703011503438728 0.053170751988652398 0 0.053170751988652398 0.035201253140211719 0 0 0 -0.011875439590806891 -0.030012544924591766 0.021811515208705584 0 0.021811515208705584 0.05799225752404738 0 0 0 0.0069949281498638827 -0.02418315235999402 -0.0090057509339410285 0 -0.0090057509339410285 0.023381496061808393 0 0 0 -0.00020041407454646221 -0.028478873891044421 -0.0076148792974689399 0 -0.0076148792974689399 0.025323339136238521 0 0 0 -0.00078888368870144721 -0.0040839166569152929 0.030682498241107643 0 0.030682498241107643 0.06220278246728389 0 0 0 0.01452971645259217 -0.057848876534314919 -0.024605658131757246 0 -0.024605658131757246 0.016370204863298266 0 0 0 -0.010369667917754233 -0.06745136106766364 -0.017456831731202826 0 -0.017456831731202826 0.0014139047471073973 0 0 0 -0.016509364080138977 -0.02684885214287927 0.019488345337966933 0 0.019488345337966933 0.04390036341259182 0 0 0 0.0042628778174281373 -0.01630946419685737 0.024178260426071518 0 0.024178260426071518 0.035491458451063204 0 0 0 0.004795498563551482 -0.040401173042305893 -0.013715557271691742 0 -0.013715557271691742 0.023015759254935042 0 0 0 -0.0043463534468426435 -0.042749558148919384 -0.0053005263535532247 0 -0.0053005263535532247 0.010005491450690587 0 0 0 -0.0081860166745571783 -0.04247196091178948 -0.0042882011397342261 0 -0.0042882011397342261 0.018213511429755691 0 0 0 -0.0060646123705084543 -0.043511928831573565 -0.0027533281304889072 0 -0.0027533281304889072 0.03029070079086257 0 0 0 -0.0033053070101777549 -0.0013091463334784503 0.017473202701793866 0 0.017473202701793866 0.11177745354458368 0 0 0 0.027617076802776586 -0.027348377518937705 -0.0056135794372396131 0 -0.0056135794372396131 0.0001707128633714472 0 0 0 -0.0067944161638916478 -0.06794820876695945 0.0052197554996774032 0 0.0052197554996774032 0.00057999032161228092 0 0 0 -0.016842054611336785 -0.032270803188081246 0.0037770005315453624 0 0.0037770005315453624 -0.011662043767096645 0 0 0 -0.010983211738794471 0.023197950152714863 0.017655549974845863 0 0.017655549974845863 0.066526126009326836 0 0 0 0.022431019040510369 -0.025855128876162259 -0.0054208485381033455 0 -0.0054208485381033455 -0.014623159546861331 0 0 0 -0.01011957210575587 -0.063134591401880463 -0.022095065697526055 0 -0.022095065697526055 -0.00037609387251391624 0 0 0 -0.015877671318598602 -0.084813097246789024 -0.017303554975623903 0 -0.017303554975623903 0.0029648296554369291 0 0 0 -0.020462066897838041 -0.034009172983176544 -0.0094842480315754929 0 -0.0094842480315754929 0.042746763198369009 0 0 0 0.0021843975537981508 
</DataArray>
<DataArray type="Float64" Name="cross_section_updated" format="ascii">
0.0010078096941743676 0.0010193992685691299 0.0010265688871103507 0.0010332145000725664 0.0010400155736102271 0.0010474630391226812 0.0010556025595717376 0.0010636260621931903 0.0010714351693044467 0.0010786661128937029 0.0020280096242879849 0.0020727440433038844 0.0021035844823318636 0.0021312069221577526 0.0021580970271753773 0.0021845272690976031 0.0022105413243234877 0.0022354803846208401 0.0022596388114294189 0.002282845996759101 1 1 1 1 1 1 1 1 1 1 1 1 1 1 1 1 1 1 1 1 1 1 1 1 1 1 1 1 1 1 1 1 1 1 1 1 1 1 1 1 1 1 1 1 1 1 1 1 1 1 1 1 1 1 1 1 1 1 1 1 1 1 1 1 1 1 1 1 1 1 1 1 1 1 1 1 1 1 1 1 1 1 1 1 1 1 1 1 1 1 1 1 1 1 1 1 1 1 1 1 1 1 1 1 1 1 1 1 1 1 1 1 1 1 1 1 1 1 1 1 1 1 1 1 1 1 1 1 1 1 1 1 1 1 1 1 1 1 1 1 1 1 1 1 1 1 1 1 1 1 1 1 1 1 1 1 1 1 1 1 1 1 1 1 1 1 1 1 1 1 1 1 1 1 1 1 1 1 1 1 1 1 1 1 1 1 1 1 1 1 1 1 1 1 1 1 1 1 1 1 1 1 1 1 1 1 1 1 1 1 1 1 1 1 1 1 1 1 1 1 1 1 1 1 1 1 1 1 1 1 1 1 1 1 1 1 1 1 1 1 1 1 1 1 1 1 1 1 1 1 1 1 1 1 1 1 1 1 1 1 1 1 1 1 1 1 1 1 1 1 1 1 1 1 1 1 1 1 1 1 1 1 1 1 1 1 1 1 1 1 1 1 1 1 1 1 1 1 1 1 1 1 1 1 1 1 1 1 1 1 1 1 1 1 1 1 1 1 1 1 1 1 1 1 1 1 1 1 1 1 1 1 1 1 1 1 1 1 1 1 1 1 1 1 1 1 1 1 1 1 1 1 1 1 1 1 1 1 1 1 1 1 1 1 1 1 1 1 1 1 1 1 1 1 1 1 1 1 1 1 1 1 1 1 1 1 1 1 1 1 1 1 1 1 1 1 1 1 1 1 1 1 1 1 1 1 1 1 1 1 1 1 1 1 1 1 1 1 1 1 1 1 1 1 1 1 1 1 1 1 1 1 1 1 1 1 1 1 1 1 1 1 1 1 1 1 1 1 1 1 1 1 1 1 1 1 1 1 1 1 1 1 1 1 1 1 1 1 1 1 1 1 1 1 1 1 1 1 1 1 1 1 1 1 1 1 1 1 1 1 1 1 1 1 1 1 1 1 1 1 1 1 1 1 1 1 1 1 1 1 1 1 1 1 1 1 1 1 1 1 1 1 1 1 1 1 1 1 1 1 1 1 1 1 1 1 1 1 1 1 1 1 1 1 1 1 1 1 1 1 1 1 1 1 1 1 1 1 1 1 1 1 1 1 1 1 1 1 1 1 1 1 1 1 1 1 1 1 1 1 1 1 1 1 1 1 1 1 1 1 1 1 1 1 1 1 1 1 1 1 1 1 1 1 1 1 1 1 1 1 1 1 1 1 1 1 1 1 1 1 1 1 1 1 1 1 1 1 1 1 1 1 1 1 1 1 1 1 1 1 1 1 1 1 1 1 1 1 1 1 1 1 1 1 1 1 1 1 1 1 1 1 1 1 1 1 1 1 1 1 1 1 1 1 1 1 1 1 1 1 1 1 1 1 1 1 1 1 1 1 1 1 1 1 1 1 1 1 1 1 1 1 1 1 1 1 1 1 1 1 1 1 1 1 1 1 1 1 1 1 1 1 1 1 1 1 1 1 1 1 1 1 1 1 1 1 1 1 1 1 1 1 1 1 1 1 1 1 1 1 1 1 1 1 1 1 1 1 1 1 1 1 1 1 1 1 1 1 1 1 1 1 1 1 1 1 1 1 1 1 1 1 1 1 1 1 1 1 1 1 1 1 1 1 1 1 1 1 1 1 1 1 1 1 1 1 1 1 1 1 1 1 1 1 1 1 1 1 1 1 1 1 1 1 1 1 1 1 1 1 1 1 1 1 1 1 1 1 1 1 1 1 1 1 1 1 1 1 1 1 1 1 1 1 1 1 1 1 1 1 1 1 1 1 1 1 1 1 1 1 1 1 1 1 1 1 1 1 1 1 1 1 1 1 1 1 1 1 1 1 1 1 1 1 1 1 1 1 1 1 1 1 1 1 1 1 1 1 1 1 1 1 1 1 1 1 1 1 1 1 1 1 1 1 1 1 1 1 1 1 1 1 1 1 1 1 1 1 1 1 1 1 1 1 1 1 1 1 1 1 1 1 1 1 1 1 1 1 1 1 1 1 1 1 1 1 1 1 1 1 1 1 1 1 1 1 1 1 1 1 1 1 1 1 1 1 1 1 1 1 1 1 1 1 1 1 1 1 1 1 1 1 1 1 1 1 1 1 1 1 1 1 1 1 1 1 1 1 1 1 1 1 1 1 1 1 1 1 1 1 1 1 1 1 
</DataArray>
</CellData>
</Piece>
</UnstructuredGrid>
</VTKFile>
