<?xml version="1.0"?>
<VTKFile type="UnstructuredGrid" version="0.1" byte_order="LittleEndian">
<UnstructuredGrid>
<Piece NumberOfPoints="3142" NumberOfCells="1054">
<Points>
<DataArray type="Float64" NumberOfComponents="3" format="ascii">
0.5 0.29999999999999999 0 0.54999999999999993 0.29999999999999999 0 0.54999999999999993 0.29999999999999999 0 0.59999999999999976 0.29999999999999999 0 0.59999999999999976 0.29999999999999999 0 0.6499999999999998 0.29999999999999999 0 0.6499999999999998 0.29999999999999999 0 0.69999999999999984 0.29999999999999999 0 0.69999999999999984 0.29999999999999999 0 0.74999999999999989 0.29999999999999999 0 0.74999999999999989 0.29999999999999999 0 0.79999999999999982 0.29999999999999999 0 0.79999999999999982 0.29999999999999999 0 0.84999999999999987 0.29999999999999999 0 0.84999999999999987 0.29999999999999999 0 0.89999999999999991 0.29999999999999999 0 0.89999999999999991 0.29999999999999999 0 0.94999999999999996 0.29999999999999999 0 0.94999999999999996 0.29999999999999999 0 1 0.29999999999999999 0 0.5 0.69999999999999996 0 0.54999999999999993 0.69999999999999996 0 0.54999999999999993 0.69999999999999996 0 0.59999999999999976 0.69999999999999996 0 0.59999999999999976 0.69999999999999996 0 0.6499999999999998 0.69999999999999996 0 0.6499999999999998 0.69999999999999996 0 0.69999999999999984 0.69999999999999996 0 0.69999999999999984 0.69999999999999996 0 0.74999999999999989 0.69999999999999996 0 0.74999999999999989 0.69999999999999996 0 0.79999999999999982 0.69999999999999996 0 0.79999999999999982 0.69999999999999996 0 0.84999999999999987 0.69999999999999996 0 0.84999999999999987 0.69999999999999996 0 0.89999999999999991 0.69999999999999996 0 0.89999999999999991 0.69999999999999996 0 0.94999999999999996 0.69999999999999996 0 0.94999999999999996 0.69999999999999996 0 1 0.69999999999999996 0 0.40076539126862748 0.34589349467022118 0 0.33277555741076909 0.36432196682010132 0 0.36575549820117997 0.31677992835137742 0 0.38083244760691543 0.38531983672244652 0 0.33277555741076909 0.36432196682010132 0 0.40076539126862748 0.34589349467022118 0 0.56836770495988642 0.3523062350852913 0 0.52289427570932567 0.3932284363388488 0 0.52752007115234678 0.33170632466418198 0 0.52752007115234678 0.33170632466418198 0 0.52289427570932567 0.3932284363388488 0 0.49077833859261139 0.35229981449445641 0 0.10000000000041601 1 0 0.053064897599294662 0.95186845269532028 0 0.10266856499240549 0.95548163909968886 0 0.099999999999814668 0 0 0.10266856499169109 0.044518360900210059 0 0.053064897599215843 0.048131547304697528 0 0.050000000000207989 1 0 0.053064897599294662 0.95186845269532028 0 0.10000000000041601 1 0 0.049999999999899652 0 0 0.099999999999814668 0 0 0.053064897599215843 0.048131547304697528 0 0.24999999999941211 0 0 0.29999999999926641 0 0 0.27499999999933927 0.060310814194988557 0 0.30000000000124832 1 0 0.25000000000104028 1 0 0.27609987656793722 0.94991445621608572 0 0.15720202157091859 0.60665697304410315 0 0.19914261668318661 0.62286739485272158 0 0.16500388252850301 0.66612077714085194 0 0.2236846579037573 0.67380363126050236 0 0.16500388252850301 0.66612077714085194 0 0.19914261668318661 0.62286739485272158 0 0.1247745017231483 0.27198077544791172 0 0.168349569971391 0.28054490850913671 0 0.14223753364722069 0.3341983344262433 0 0 0.75000000000034661 0 0 0.7000000000006934 0 0.049706944316475897 0.72477277076253799 0 0 0.30000000000124832 0 0 0.25000000000104028 0 0.049706944316556423 0.27522722923869108 0 0.59999999999999976 0.29999999999999999 0 0.61959173890754571 0.33832250091341232 0 0.56836770495988642 0.3523062350852913 0 0.5 0.69999999999999996 0 0.43323420005758778 0.6913544522562407 0 0.47913475093885149 0.66010775372412711 0 1 0.14999999999961891 0 0.95391631417672862 0.19584263333809451 0 0.93677536231883773 0.14999999999999089 0 1 0.84999999999982645 0 0.95391631417670719 0.89584263333814784 0 0.93677536231884972 0.85000000000000286 0 1 0.84999999999982645 0 0.93677536231884972 0.85000000000000286 0 0.95386563387742829 0.80414874155775029 0 1 0.14999999999961891 0 0.93677536231883773 0.14999999999999089 0 0.95386563387744361 0.1041487415577465 0 0.90416666666660628 0.9041666666666166 0 0.88088768115933802 0.84674609810493673 0 0.93677536231884972 0.85000000000000286 0 0.90416666666668166 0.20416666666667119 0 0.88088768115941807 0.14674609810479519 0 0.93677536231883773 0.14999999999999089 0 0.1247745017231483 0.27198077544791172 0 0.14223753364722069 0.3341983344262433 0 0.093851963071650835 0.30582068233324772 0 0.5 0.69999999999999996 0 0.45582236402875981 0.73896743678908217 0 0.43323420005758778 0.6913544522562407 0 0.55000000000173355 1 0 0.50000000000205869 1 0 0.52122150208832174 0.94089974453840242 0 0.49999999999869432 0 0 0.5499999999988151 0 0 0.52375890611712683 0.059318771819432882 0 0.54999999999999993 0.29999999999999999 0 0.59999999999999976 0.29999999999999999 0 0.56836770495988642 0.3523062350852913 0 0.50202631463681879 0.87892870825713787 0 0.44003836461056539 0.88093474584252718 0 0.45677673713123867 0.84253684404072415 0 0.33403534827021109 0.84402799729020661 0 0.35864759629805099 0.87963482415279515 0 0.30864387279288652 0.89906554525974958 0 0.53245488764484505 0.55078124999999989 0 0.47793794143994173 0.52940715638744962 0 0.53330375813596242 0.50827942741749099 0 0.82709327591102189 0.14937141670914489 0 0.81283102246527783 0.1881007222486438 0 0.77144070960558853 0.14311854477243749 0 0.82709327591091286 0.84937141670920724 0 0.81159157511211755 0.88795995483179491 0 0.76901770135486491 0.84293557325473656 0 0.77144070960558853 0.14311854477243749 0 0.81283102246527783 0.1881007222486438 0 0.76587607630038135 0.18880039518954719 0 0.76901770135486491 0.84293557325473656 0 0.81159157511211755 0.88795995483179491 0 0.76891166905518427 0.88835469571185499 0 0.33403534827021109 0.84402799729020661 0 0.30864387279288652 0.89906554525974958 0 0.29209212897034281 0.84715728365233667 0 0.57412547362576272 0.58273804879550706 0 0.5166924242153631 0.59825134841919447 0 0.53245488764484505 0.55078124999999989 0 0.50202631463681879 0.87892870825713787 0 0.47401147028110507 0.91529957330468115 0 0.44003836461056539 0.88093474584252718 0 0.5 0.69999999999999996 0 0.54999999999999993 0.69999999999999996 0 0.55363780716230748 0.74348740161571747 0 1 0.34999999999993492 0 0.95871855522754235 0.40006508612975411 0 0.95780851984364423 0.34215720972155339 0 1 0.64999999999986979 0 0.9578014258160763 0.65787212321113708 0 0.95867599106212187 0.60011091146651041 0 0.46666084890304671 0.57634471035397938 0 0.47793794143994173 0.52940715638744962 0 0.53245488764484505 0.55078124999999989 0 0.94999999999999996 0.29999999999999999 0 0.89898474358614167 0.25391965591104898 0 0.94399509803921056 0.24399509803922639 0 0.94999999999979179 1 0 0.89898474358632463 0.95391965591118966 0 0.94399509803919068 0.9439950980391687 0 0 0.65000000000104008 0 0.050069554451969707 0.61308520079857043 0 0.046634677244967337 0.671418230738282 0 0 0.35000000000145642 0 0.046389130980076937 0.32668781832131749 0 0.050583896093752537 0.38543522283434112 0 0.50202631463681879 0.87892870825713787 0 0.50627822638148745 0.8263979829520941 0 0.55899371797446828 0.85003102233514438 0 0.54782696902220018 0.79245182748204157 0 0.55899371797446828 0.85003102233514438 0 0.50627822638148745 0.8263979829520941 0 0.50945740445113552 0.75476055527778108 0 0.5 0.69999999999999996 0 0.55363780716230748 0.74348740161571747 0 0.84999999999965292 1 0 0.85170973911348691 0.93569607295217616 0 0.89898474358632463 0.95391965591118966 0 0.84999999999999987 0.29999999999999999 0 0.8517097391133297 0.2356960729520409 0 0.89898474358614167 0.25391965591104898 0 0.86956835336234861 0.571283299838105 0 0.82862096804812391 0.55037090955459045 0 0.86907294890112186 0.52008116128001669 0 0.49102375406324739 0.49123754822244059 0 0.53330375813596242 0.50827942741749099 0 0.47793794143994173 0.52940715638744962 0 0.57611405284611883 0.50165903596042916 0 0.61547661924074692 0.48539576058873962 0 0.62042975506801734 0.54295974692364424 0 0.71406021706547751 0.63292083137662503 0 0.67529834988829951 0.61613270668143583 0 0.71809016091162536 0.58185040402320831 0 0.65000000000104008 1 0 0.62065498684670595 0.95224934003983619 0 0.68015064798562208 0.95924320340003011 0 0.84999999999960507 0 0 0.899991664607802 0.045289349238254978 0 0.85491058998398861 0.060047533455626502 0 0.84999999999999987 0.69999999999999996 0 0.89999166460796554 0.74528934923809909 0 0.85491058998424563 0.76004753345552634 0 0.89999999999999991 0.29999999999999999 0 0.89898474358614167 0.25391965591104898 0 0.94999999999999996 0.29999999999999999 0 0.94999999999979179 1 0 0.89999999999958358 1 0 0.89898474358632463 0.95391965591118966 0 0.86411095495256451 0.42388805655111889 0 0.81308179852519835 0.39754945808726527 0 0.86844634540301924 0.38530937474099819 0 0.5 0.29999999999999999 0 0.49695729691142171 0.25014895411178018 0 0.54248833945060504 0.2520322959927106 0 0.86411095495256451 0.42388805655111889 0 0.81973119833356312 0.43505687159469048 0 0.81308179852519835 0.39754945808726527 0 0.67323294229744413 0.57556450033612505 0 0.71809016091162536 0.58185040402320831 0 0.67529834988829951 0.61613270668143583 0 0.6236733212988993 0.14864538214901801 0 0.68391457121233579 0.14440470121196541 0 0.64011864159029941 0.18789607982138171 0 0 0.050000000000207989 0 0.053064897599215843 0.048131547304697528 0 0.044310582753132287 0.101412518374475 0 0 0.94999999999979179 0 0.0443105827531413 0.89858748162559932 0 0.053064897599294662 0.95186845269532028 0 1 0.34999999999993492 0 1 0.39999999999978308 0 0.95871855522754235 0.40006508612975411 0 1 0.59999999999973963 0 1 0.64999999999986979 0 0.95867599106212187 0.60011091146651041 0 0 0.84999999999965292 0 0.065374659239661639 0.8551091961254178 0 0.0443105827531413 0.89858748162559932 0 0 0.15000000000062411 0 0.044310582753132287 0.101412518374475 0 0.065374659239632718 0.1448908038746782 0 0.16500388252850301 0.66612077714085194 0 0.1020579365089687 0.69352219419301997 0 0.1241190223511371 0.64391885572885044 0 0.14999999999970359 0 0 0.14618258501891079 0.062070108745602003 0 0.10266856499169109 0.044518360900210059 0 0.15000000000062411 1 0 0.10266856499240549 0.95548163909968886 0 0.14617343800780541 0.93808063414349496 0 0.7152569930854884 0.5237994455134295 0 0.67569444444444449 0.53500863336860327 0 0.69385896817107129 0.48377516041410151 0 0.6541250972820879 0.49999999999999989 0 0.62042975506801734 0.54295974692364424 0 0.61547661924074692 0.48539576058873962 0 0.94999999999999996 0.69999999999999996 0 0.94399509803918602 0.75600490196082126 0 0.89999166460796554 0.74528934923809909 0 0.94999999999986839 0 0 0.94399509803922566 0.056004901960802607 0 0.899991664607802 0.045289349238254978 0 0.6541250972820879 0.49999999999999989 0 0.69385896817107129 0.48377516041410151 0 0.67569444444444449 0.53500863336860327 0 0.82862096804812391 0.55037090955459045 0 0.81723410853263523 0.59419663659258926 0 0.77151014687832564 0.54436834383023036 0 0.7250000000005199 0.89375000000045834 0 0.66412543161245952 0.88015090885499059 0 0.68697391633157634 0.84450604838764298 0 0 0.94999999999979179 0 0 0.89999999999958358 0 0.0443105827531413 0.89858748162559932 0 0 0.10000000000041601 0 0 0.050000000000207989 0 0.044310582753132287 0.101412518374475 0 0.16500388252850301 0.66612077714085194 0 0.15332765547575641 0.71200081858233666 0 0.1020579365089687 0.69352219419301997 0 0.90299850604011456 0.79563452813489832 0 0.93677536231884972 0.85000000000000286 0 0.88088768115933802 0.84674609810493673 0 0.90299850604006393 0.09563452813493091 0 0.93677536231883773 0.14999999999999089 0 0.88088768115941807 0.14674609810479519 0 0.68391457121233579 0.14440470121196541 0 0.6865991819015953 0.189116534044597 0 0.64011864159029941 0.18789607982138171 0 0.085622222639554768 0.53333248912060549 0 0.1216098864341134 0.50637075089503902 0 0.1154888278694548 0.56733818459978413 0 0.21858834311891909 0.81980263716112767 0 0.22556077506376701 0.77837424984191617 0 0.26104540868854792 0.81401944968719064 0 0.81723410853263523 0.59419663659258926 0 0.77293540622714185 0.59448302402785813 0 0.77151014687832564 0.54436834383023036 0 0.1154888278694548 0.56733818459978413 0 0.1216098864341134 0.50637075089503902 0 0.14934928745814749 0.55042914607228977 0 0.1216098864341134 0.50637075089503902 0 0.068743045408989428 0.48853989837882689 0 0.113541300460994 0.46208784312094731 0 0.078358742472063481 0.43365249433908948 0 0.113541300460994 0.46208784312094731 0 0.068743045408989428 0.48853989837882689 0 0.83573492347052902 0.36590755630746369 0 0.81308179852519835 0.39754945808726527 0 0.78145581580700685 0.34881365920033602 0 0.57611405284611883 0.50165903596042916 0 0.62042975506801734 0.54295974692364424 0 0.57435499076887508 0.54267261987897775 0 0.86956835336234861 0.571283299838105 0 0.81723410853263523 0.59419663659258926 0 0.82862096804812391 0.55037090955459045 0 0.46666084890304671 0.57634471035397938 0 0.53245488764484505 0.55078124999999989 0 0.5166924242153631 0.59825134841919447 0 0.89999999999999991 0.69999999999999996 0 0.94999999999999996 0.69999999999999996 0 0.89999166460796554 0.74528934923809909 0 0.89999999999973679 0 0 0.94999999999986839 0 0 0.899991664607802 0.045289349238254978 0 0.84999999999960507 0 0 0.89999999999973679 0 0 0.899991664607802 0.045289349238254978 0 0.84999999999999987 0.69999999999999996 0 0.89999999999999991 0.69999999999999996 0 0.89999166460796554 0.74528934923809909 0 0.43545892161006339 0.61093128915313821 0 0.4089290844030305 0.58728915500154233 0 0.46666084890304671 0.57634471035397938 0 0.1650278706801647 0.38791388161335733 0 0.1117088112799664 0.38831403004970022 0 0.14223753364722069 0.3341983344262433 0 0.087545339447545459 0.35122518864182262 0 0.14223753364722069 0.3341983344262433 0 0.1117088112799664 0.38831403004970022 0 0.6916490518212759 0.75387992374886192 0 0.72501250972655151 0.74067302935308721 0 0.72500000000000064 0.7952620967744265 0 0.72501250972655151 0.74067302935308721 0 0.75841349681148107 0.75422312624214749 0 0.72500000000000064 0.7952620967744265 0 0.57412547362576272 0.58273804879550706 0 0.53245488764484505 0.55078124999999989 0 0.57435499076887508 0.54267261987897775 0 1 0.54999999999963112 0 0.95867599106212187 0.60011091146651041 0 0.93732437411268477 0.55911392101136159 0 1 0.44999999999963131 0 0.93814194660195893 0.44426664081746747 0 0.95871855522754235 0.40006508612975411 0 0.4089290844030305 0.58728915500154233 0 0.42644501560315817 0.54603747078095544 0 0.46666084890304671 0.57634471035397938 0 0.89999999999958358 1 0 0.84999999999965292 1 0 0.89898474358632463 0.95391965591118966 0 0.84999999999999987 0.29999999999999999 0 0.89898474358614167 0.25391965591104898 0 0.89999999999999991 0.29999999999999999 0 0.29999999999926641 0 0 0.32541448401678508 0.046215317981507749 0 0.27499999999933927 0.060310814194988557 0 0.30000000000124832 1 0 0.27609987656793722 0.94991445621608572 0 0.32544832635163229 0.95485394099568932 0 0.57412547362576272 0.58273804879550706 0 0.62042975506801734 0.54295974692364424 0 0.63065402604362242 0.59661356661633302 0 0.5 0.29999999999999999 0 0.54248833945060504 0.2520322959927106 0 0.54999999999999993 0.29999999999999999 0 0.67323294229744413 0.57556450033612505 0 0.62042975506801734 0.54295974692364424 0 0.67569444444444449 0.53500863336860327 0 0.6541250972820879 0.49999999999999989 0 0.67569444444444449 0.53500863336860327 0 0.62042975506801734 0.54295974692364424 0 1 0.14999999999961891 0 1 0.19999999999974799 0 0.95391631417672862 0.19584263333809451 0 1 0.84999999999982645 0 1 0.8999999999998336 0 0.95391631417670719 0.89584263333814784 0 1 0.7999999999998193 0 1 0.84999999999982645 0 0.95386563387742829 0.80414874155775029 0 1 0.099999999999753911 0 1 0.14999999999961891 0 0.95386563387744361 0.1041487415577465 0 0.4656888918609538 0.78493261229743638 0 0.50627822638148745 0.8263979829520941 0 0.45677673713123867 0.84253684404072415 0 0.6879972333610942 0.43038561374960838 0 0.72622533758026719 0.40265885511101601 0 0.73483647259922602 0.44789725365921768 0 0.67323294229744413 0.57556450033612505 0 0.67569444444444449 0.53500863336860327 0 0.71809016091162536 0.58185040402320831 0 0.7152569930854884 0.5237994455134295 0 0.71809016091162536 0.58185040402320831 0 0.67569444444444449 0.53500863336860327 0 0.65394964615507722 0.22666784374016369 0 0.59814117807200873 0.23398510860739519 0 0.64011864159029941 0.18789607982138171 0 0.55000000000173355 1 0 0.52122150208832174 0.94089974453840242 0 0.57382506491224949 0.9629411906298494 0 0.39801143831225599 0.16651381068160659 0 0.44288491854585582 0.14116182884956319 0 0.42905200079338551 0.19982395548231649 0 0.47357141910802508 0.1873585799078378 0 0.42905200079338551 0.19982395548231649 0 0.44288491854585582 0.14116182884956319 0 0.90594285160987287 0.4141265964174129 0 0.88594198078881503 0.46167788676578442 0 0.86411095495256451 0.42388805655111889 0 0.65507451745379841 0.92229208810758578 0 0.68015064798562208 0.95924320340003011 0 0.62065498684670595 0.95224934003983619 0 0.35312867752657662 0.084946736076730367 0 0.39591832466117061 0.056982757562006353 0 0.39823268594401579 0.1116623613130045 0 0.43698630808430822 0.080423614171545449 0 0.39823268594401579 0.1116623613130045 0 0.39591832466117061 0.056982757562006353 0 0.4367309254023824 0.92065556789053882 0 0.39641108128798319 0.94356127926187128 0 0.39767323751400468 0.89584229130535065 0 0.35752321586431363 0.9185439911803448 0 0.39767323751400468 0.89584229130535065 0 0.39641108128798319 0.94356127926187128 0 0.77354604466818633 0.40378688774472771 0 0.77972660463949339 0.45529290596363098 0 0.73483647259922602 0.44789725365921768 0 0.5499999999988151 0 0 0.57396793757665954 0.037011367187645222 0 0.52375890611712683 0.059318771819432882 0 0.64753070846764316 0.77332939069435502 0 0.60294066490120068 0.80851322453934582 0 0.59636844454254345 0.75937156204589151 0 0.49102375406324739 0.49123754822244059 0 0.48858720058566618 0.43964267759203868 0 0.53823865529665704 0.45873898050322898 0 0.28307294598219601 0.50789252727458634 0 0.29110487519241501 0.56588143995431495 0 0.25115337790845271 0.54719303014923271 0 0.79680861578988083 0.92656778056766709 0 0.81159157511211755 0.88795995483179491 0 0.85170973911348691 0.93569607295217616 0 0.79680861578956375 0.22656778056752541 0 0.81283102246527783 0.1881007222486438 0 0.8517097391133297 0.2356960729520409 0 0.57412547362576272 0.58273804879550706 0 0.57435499076887508 0.54267261987897775 0 0.62042975506801734 0.54295974692364424 0 0.93814194660195893 0.44426664081746747 0 0.88594198078881503 0.46167788676578442 0 0.90594285160987287 0.4141265964174129 0 0.7152569930854884 0.5237994455134295 0 0.73947346780852752 0.49062440112282169 0 0.77151014687832564 0.54436834383023036 0 0 0.7000000000006934 0 0.046634677244967337 0.671418230738282 0 0.049706944316475897 0.72477277076253799 0 0 0.30000000000124832 0 0.049706944316556423 0.27522722923869108 0 0.046389130980076937 0.32668781832131749 0 0.59814117807200873 0.23398510860739519 0 0.59443395090188023 0.18455690917515069 0 0.64011864159029941 0.18789607982138171 0 0.21858834311891909 0.81980263716112767 0 0.26104540868854792 0.81401944968719064 0 0.2401283238295133 0.85648409884788523 0 0.39536230704883951 0.84069429572832477 0 0.45677673713123867 0.84253684404072415 0 0.44003836461056539 0.88093474584252718 0 0.086179601630648681 0.64647209519980475 0 0.050069554451969707 0.61308520079857043 0 0.1024350934457823 0.60772393977513839 0 0.077693244765132896 0.56932317963405099 0 0.1024350934457823 0.60772393977513839 0 0.050069554451969707 0.61308520079857043 0 0.078358742472063481 0.43365249433908948 0 0.050583896093752537 0.38543522283434112 0 0.1117088112799664 0.38831403004970022 0 0.087545339447545459 0.35122518864182262 0 0.1117088112799664 0.38831403004970022 0 0.050583896093752537 0.38543522283434112 0 0.33403534827021109 0.84402799729020661 0 0.35642984951668422 0.80994399665655703 0 0.39536230704883951 0.84069429572832477 0 0.28307294598219601 0.50789252727458634 0 0.33190227185843768 0.52715113583864037 0 0.29110487519241501 0.56588143995431495 0 0.2236846579037573 0.67380363126050236 0 0.19068556247388771 0.71028988922845504 0 0.16500388252850301 0.66612077714085194 0 0.26104540868854792 0.81401944968719064 0 0.22556077506376701 0.77837424984191617 0 0.2792923945214143 0.77665808831789485 0 0.38244435121258652 0.51653317813019495 0 0.37272913873093971 0.56192925302619479 0 0.33190227185843768 0.52715113583864037 0 0.25195515620380449 0.25883339815888678 0 0.29132859388405002 0.27203693976649962 0 0.24432083401701241 0.3006253385567515 0 0.29348325746214782 0.31350119524708198 0 0.24432083401701241 0.3006253385567515 0 0.29132859388405002 0.27203693976649962 0 0 0.89999999999958358 0 0 0.84999999999965292 0 0.0443105827531413 0.89858748162559932 0 0 0.15000000000062411 0 0 0.10000000000041601 0 0.044310582753132287 0.101412518374475 0 0.59999999999999976 0.69999999999999996 0 0.59636844454254345 0.75937156204589151 0 0.55363780716230748 0.74348740161571747 0 0.1650278706801647 0.38791388161335733 0 0.22033343844674469 0.36963382230740238 0 0.191953871957803 0.42546416763755879 0 0.52289427570932567 0.3932284363388488 0 0.46655310992796922 0.39650496622958609 0 0.49077833859261139 0.35229981449445641 0 0.91696753777131557 0.497780560203536 0 0.88594198078881503 0.46167788676578442 0 0.93814194660195893 0.44426664081746747 0 0.24999999999941211 0 0 0.27499999999933927 0.060310814194988557 0 0.22668068146512929 0.045875643423131329 0 0.25000000000104028 1 0 0.22850979588452081 0.95594428570238643 0 0.27609987656793722 0.94991445621608572 0 0.77846603114747959 0.49850927265137401 0 0.77151014687832564 0.54436834383023036 0 0.73947346780852752 0.49062440112282169 0 0.27499999999933927 0.060310814194988557 0 0.27474541102162192 0.11822029332053539 0 0.24218496799700481 0.089025544070598317 0 0.27270076654418179 0.87751467830216623 0 0.29209212897034281 0.84715728365233667 0 0.30864387279288652 0.89906554525974958 0 0.3096713403101819 0.085471541595262421 0 0.27474541102162192 0.11822029332053539 0 0.27499999999933927 0.060310814194988557 0 0.17933913398461551 0.2350063570234002 0 0.18124454140915969 0.18790916706335251 0 0.224700362040408 0.22206622194729711 0 0.18269480424590959 0.75905448272264375 0 0.22556077506376701 0.77837424984191617 0 0.17777405986036951 0.81832336108265358 0 0.35864759629805099 0.87963482415279515 0 0.33403534827021109 0.84402799729020661 0 0.39536230704883951 0.84069429572832477 0 0.77354604466818633 0.40378688774472771 0 0.73483647259922602 0.44789725365921768 0 0.72622533758026719 0.40265885511101601 0 0.80185942888539485 0.77452061303608133 0 0.85491058998424563 0.76004753345552634 0 0.84725310900444062 0.80779732082917555 0 0.80185942888501827 0.074520613036224564 0 0.85491058998398861 0.060047533455626502 0 0.84725310900442086 0.10779732082922661 0 0.086179601630648681 0.64647209519980475 0 0.046634677244967337 0.671418230738282 0 0.050069554451969707 0.61308520079857043 0 0.087545339447545459 0.35122518864182262 0 0.050583896093752537 0.38543522283434112 0 0.046389130980076937 0.32668781832131749 0 0 0.75000000000034661 0 0.049706944316475897 0.72477277076253799 0 0.04408157711937423 0.7728941757575627 0 0 0.25000000000104028 0 0.044081577119474857 0.2271058242433576 0 0.049706944316556423 0.27522722923869108 0 0.52289427570932567 0.3932284363388488 0 0.56836770495988642 0.3523062350852913 0 0.57744073070774993 0.41535148636609359 0 0.6084546825910605 0.37989672713932537 0 0.57744073070774993 0.41535148636609359 0 0.56836770495988642 0.3523062350852913 0 0.61343887413683884 0.856862479058357 0 0.55899371797446828 0.85003102233514438 0 0.60294066490120068 0.80851322453934582 0 0.54782696902220018 0.79245182748204157 0 0.60294066490120068 0.80851322453934582 0 0.55899371797446828 0.85003102233514438 0 0.40326160981139969 0.73346192995102844 0 0.36622285152418499 0.69092437780804039 0 0.43323420005758778 0.6913544522562407 0 0.52289427570932567 0.3932284363388488 0 0.48858720058566618 0.43964267759203868 0 0.46655310992796922 0.39650496622958609 0 0.15720202157091859 0.60665697304410315 0 0.1154888278694548 0.56733818459978413 0 0.14934928745814749 0.55042914607228977 0 0.6879972333610942 0.43038561374960838 0 0.73483647259922602 0.44789725365921768 0 0.69385896817107129 0.48377516041410151 0 0.7250000000005199 0.89375000000045834 0 0.68987011941058407 0.92105047536677087 0 0.66412543161245952 0.88015090885499059 0 0.83573492347052902 0.36590755630746369 0 0.78145581580700685 0.34881365920033602 0 0.82500000000000062 0.33010209762754811 0 0.82862096804812391 0.55037090955459045 0 0.81441713509985358 0.51161854125224959 0 0.86907294890112186 0.52008116128001669 0 0.19670163708476801 0.31472518408333222 0 0.14223753364722069 0.3341983344262433 0 0.168349569971391 0.28054490850913671 0 0.50202631463681879 0.87892870825713787 0 0.45677673713123867 0.84253684404072415 0 0.50627822638148745 0.8263979829520941 0 0.099999999999814668 0 0 0.14999999999970359 0 0 0.10266856499169109 0.044518360900210059 0 0.15000000000062411 1 0 0.10000000000041601 1 0 0.10266856499240549 0.95548163909968886 0 0.67323294229744413 0.57556450033612505 0 0.63065402604362242 0.59661356661633302 0 0.62042975506801734 0.54295974692364424 0 0.083105206071467416 0.20007701332709979 0 0.13737030665753211 0.20313708640667491 0 0.095326043202144745 0.24554465089224409 0 0.083105206071452636 0.79992298667296435 0 0.090953281884486245 0.7564451946902494 0 0.1382744753146134 0.79650574229207483 0 0.50000000000205869 1 0 0.47135117303824892 0.95556877749289892 0 0.52122150208832174 0.94089974453840242 0 0.49999999999869432 0 0 0.52375890611712683 0.059318771819432882 0 0.47040171442036788 0.044141676406503738 0 0.4656888918609538 0.78493261229743638 0 0.45582236402875981 0.73896743678908217 0 0.50945740445113552 0.75476055527778108 0 0.5 0.69999999999999996 0 0.50945740445113552 0.75476055527778108 0 0.45582236402875981 0.73896743678908217 0 0.55306006949600994 0.20198184231352201 0 0.56202748619534593 0.15054058349222879 0 0.59443395090188023 0.18455690917515069 0 0.6236733212988993 0.14864538214901801 0 0.59443395090188023 0.18455690917515069 0 0.56202748619534593 0.15054058349222879 0 0.57412547362576272 0.58273804879550706 0 0.5498280205245758 0.6290146943450976 0 0.5166924242153631 0.59825134841919447 0 0.91696753777131557 0.497780560203536 0 0.93814194660195893 0.44426664081746747 0 0.96228564064454991 0.48206450662049471 0 0.15720202157091859 0.60665697304410315 0 0.16500388252850301 0.66612077714085194 0 0.1241190223511371 0.64391885572885044 0 0.44288491854585582 0.14116182884956319 0 0.47881186583059909 0.093591717165689425 0 0.48466639505193998 0.1421439844745814 0 1 0.54999999999963112 0 0.93732437411268477 0.55911392101136159 0 0.95631871884947484 0.51827533208233789 0 0.57724883562309992 0.92155686857100794 0 0.57382506491224949 0.9629411906298494 0 0.52122150208832174 0.94089974453840242 0 0.85170973911348691 0.93569607295217616 0 0.81159157511211755 0.88795995483179491 0 0.85600844944837662 0.88483418979512773 0 0.8517097391133297 0.2356960729520409 0 0.81283102246527783 0.1881007222486438 0 0.85600844944842547 0.1848341897950983 0 0.27866744612395528 0.38416094670951489 0 0.29124338931648802 0.43334555462578611 0 0.24049127783545701 0.41270748208749802 0 0.6084546825910605 0.37989672713932537 0 0.56836770495988642 0.3523062350852913 0 0.61959173890754571 0.33832250091341232 0 0.20050006573841939 0.53248514016039872 0 0.25115337790845271 0.54719303014923271 0 0.22549374774072969 0.58452645269293457 0 0.26573297623774761 0.59828298563722948 0 0.22549374774072969 0.58452645269293457 0 0.25115337790845271 0.54719303014923271 0 0.26104540868854792 0.81401944968719064 0 0.29209212897034281 0.84715728365233667 0 0.2401283238295133 0.85648409884788523 0 0.6236733212988993 0.14864538214901801 0 0.65290632656860115 0.11434202593454081 0 0.68391457121233579 0.14440470121196541 0 0.19901705110390991 0.9175543425573498 0 0.19741632902693801 0.86755867406447229 0 0.24536017905392571 0.90704567837671446 0 0.72500000000000064 0.7952620967744265 0 0.76901770135486491 0.84293557325473656 0 0.72863726579783861 0.85390518901155588 0 0.72500000000000064 0.7952620967744265 0 0.72863726579783861 0.85390518901155588 0 0.68697391633157634 0.84450604838764298 0 0.7250000000005199 0.89375000000045834 0 0.68697391633157634 0.84450604838764298 0 0.72863726579783861 0.85390518901155588 0 0.72525833953073282 0.1032114801687094 0 0.77144070960558853 0.14311854477243749 0 0.72634814642510737 0.16106886917518889 0 0.72525833953073282 0.1032114801687094 0 0.72634814642510737 0.16106886917518889 0 0.68391457121233579 0.14440470121196541 0 0.36622285152418499 0.69092437780804039 0 0.3977710372045391 0.65868194622830212 0 0.43323420005758778 0.6913544522562407 0 0 0.65000000000104008 0 0 0.60000000000138687 0 0.050069554451969707 0.61308520079857043 0 0 0.40000000000166441 0 0 0.35000000000145642 0 0.050583896093752537 0.38543522283434112 0 0.22033343844674469 0.36963382230740238 0 0.24049127783545701 0.41270748208749802 0 0.191953871957803 0.42546416763755879 0 0.5 0.29999999999999999 0 0.4604742573284204 0.27846934318264788 0 0.49695729691142171 0.25014895411178018 0 0.19741632902693801 0.86755867406447229 0 0.2401283238295133 0.85648409884788523 0 0.24536017905392571 0.90704567837671446 0 0 0.50000000000205869 0 0.068743045408989428 0.48853989837882689 0 0.044576108720083309 0.53509043209532614 0 0.15000000000062411 1 0 0.14617343800780541 0.93808063414349496 0 0.18474005699953849 0.96231585248064622 0 0.14999999999970359 0 0 0.184418230509967 0.038773194583122873 0 0.14618258501891079 0.062070108745602003 0 0.57667858002728545 0.078486105337742612 0 0.52375890611712683 0.059318771819432882 0 0.57396793757665954 0.037011367187645222 0 0.113541300460994 0.46208784312094731 0 0.078358742472063481 0.43365249433908948 0 0.13773355295499351 0.42497777642586831 0 0.77354604466818633 0.40378688774472771 0 0.78145581580700685 0.34881365920033602 0 0.81308179852519835 0.39754945808726527 0 0.38244435121258652 0.51653317813019495 0 0.33190227185843768 0.52715113583864037 0 0.35024835142131061 0.48654922671676981 0 0.64753070846764316 0.77332939069435502 0 0.65005442820240822 0.82644988530054031 0 0.60294066490120068 0.80851322453934582 0 0.15720202157091859 0.60665697304410315 0 0.1024350934457823 0.60772393977513839 0 0.1154888278694548 0.56733818459978413 0 0.90416666666660628 0.9041666666666166 0 0.85600844944837662 0.88483418979512773 0 0.88088768115933802 0.84674609810493673 0 0.90416666666668166 0.20416666666667119 0 0.85600844944842547 0.1848341897950983 0 0.88088768115941807 0.14674609810479519 0 0.078358742472063481 0.43365249433908948 0 0.1117088112799664 0.38831403004970022 0 0.13773355295499351 0.42497777642586831 0 0.38244435121258652 0.51653317813019495 0 0.3908716102680424 0.47010282357248828 0 0.43507373378304309 0.49699695397193322 0 0.90299850604011456 0.79563452813489832 0 0.95386563387742829 0.80414874155775029 0 0.93677536231884972 0.85000000000000286 0 0.90416666666660628 0.9041666666666166 0 0.93677536231884972 0.85000000000000286 0 0.95391631417670719 0.89584263333814784 0 0.90299850604006393 0.09563452813493091 0 0.95386563387744361 0.1041487415577465 0 0.93677536231883773 0.14999999999999089 0 0.90416666666668166 0.20416666666667119 0 0.93677536231883773 0.14999999999999089 0 0.95391631417672862 0.19584263333809451 0 0.39536230704883951 0.84069429572832477 0 0.44003836461056539 0.88093474584252718 0 0.39767323751400468 0.89584229130535065 0 0.51076801031701946 0.1202837388510348 0 0.52375890611712683 0.059318771819432882 0 0.54979595918804436 0.1060565713905809 0 0.57667858002728545 0.078486105337742612 0 0.54979595918804436 0.1060565713905809 0 0.52375890611712683 0.059318771819432882 0 0.57724883562309992 0.92155686857100794 0 0.52122150208832174 0.94089974453840242 0 0.54783390826260769 0.89287767010860219 0 0.50202631463681879 0.87892870825713787 0 0.54783390826260769 0.89287767010860219 0 0.52122150208832174 0.94089974453840242 0 0.087545339447545459 0.35122518864182262 0 0.093851963071650835 0.30582068233324772 0 0.14223753364722069 0.3341983344262433 0 0.54999999999999993 0.69999999999999996 0 0.59999999999999976 0.69999999999999996 0 0.55363780716230748 0.74348740161571747 0 0.083105206071452636 0.79992298667296435 0 0.1074251789111534 0.83564394292147814 0 0.065374659239661639 0.8551091961254178 0 0.083105206071467416 0.20007701332709979 0 0.065374659239632718 0.1448908038746782 0 0.106902708054812 0.16453234188234539 0 0.52289427570932567 0.3932284363388488 0 0.53823865529665704 0.45873898050322898 0 0.48858720058566618 0.43964267759203868 0 0.13737030665753211 0.20313708640667491 0 0.14377654328998779 0.2442024734791064 0 0.095326043202144745 0.24554465089224409 0 0.1382744753146134 0.79650574229207483 0 0.090953281884486245 0.7564451946902494 0 0.14335651144331049 0.75565258250209677 0 0.27270076654418179 0.87751467830216623 0 0.30864387279288652 0.89906554525974958 0 0.24536017905392571 0.90704567837671446 0 0.27609987656793722 0.94991445621608572 0 0.24536017905392571 0.90704567837671446 0 0.30864387279288652 0.89906554525974958 0 0.90299850604011456 0.79563452813489832 0 0.84725310900444062 0.80779732082917555 0 0.85491058998424563 0.76004753345552634 0 0.90299850604006393 0.09563452813493091 0 0.84725310900442086 0.10779732082922661 0 0.85491058998398861 0.060047533455626502 0 1 0.54999999999963112 0 1 0.59999999999973963 0 0.95867599106212187 0.60011091146651041 0 1 0.39999999999978308 0 1 0.44999999999963131 0 0.95871855522754235 0.40006508612975411 0 0.28040350263641872 0.23054717217092141 0 0.25195515620380449 0.25883339815888678 0 0.224700362040408 0.22206622194729711 0 0.84999999999999987 0.29999999999999999 0 0.87430060258887643 0.34056085888204451 0 0.82500000000000062 0.33010209762754811 0 0.84999999999999987 0.69999999999999996 0 0.82457059160610424 0.66831947184359608 0 0.87712158428786946 0.65709029563313581 0 0.86956835336234861 0.571283299838105 0 0.87159648282691515 0.61285406320581504 0 0.81723410853263523 0.59419663659258926 0 0.43698630808430822 0.080423614171545449 0 0.47881186583059909 0.093591717165689425 0 0.44288491854585582 0.14116182884956319 0 1 0.44999999999963131 0 0.96228564064454991 0.48206450662049471 0 0.93814194660195893 0.44426664081746747 0 0.35752321586431363 0.9185439911803448 0 0.30864387279288652 0.89906554525974958 0 0.35864759629805099 0.87963482415279515 0 0.29124338931648802 0.43334555462578611 0 0.25982634974572738 0.46097799597715272 0 0.24049127783545701 0.41270748208749802 0 0.51076801031701946 0.1202837388510348 0 0.56202748619534593 0.15054058349222879 0 0.51729576145820033 0.1683240575987815 0 0.55306006949600994 0.20198184231352201 0 0.51729576145820033 0.1683240575987815 0 0.56202748619534593 0.15054058349222879 0 0.26429849586623999 0.19346700179430079 0 0.28040350263641872 0.23054717217092141 0 0.224700362040408 0.22206622194729711 0 0.51076801031701946 0.1202837388510348 0 0.48466639505193998 0.1421439844745814 0 0.47881186583059909 0.093591717165689425 0 0.2185883431182947 0.18019736283949719 0 0.26429849586623999 0.19346700179430079 0 0.224700362040408 0.22206622194729711 0 0.18269480424590959 0.75905448272264375 0 0.2248999640082178 0.72584299459689172 0 0.22556077506376701 0.77837424984191617 0 0.51076801031701946 0.1202837388510348 0 0.47881186583059909 0.093591717165689425 0 0.52375890611712683 0.059318771819432882 0 0.50202631463681879 0.87892870825713787 0 0.52122150208832174 0.94089974453840242 0 0.47401147028110507 0.91529957330468115 0 0 0.84999999999965292 0 0.038512288486097702 0.8155852717111195 0 0.065374659239661639 0.8551091961254178 0 0 0.15000000000062411 0 0.065374659239632718 0.1448908038746782 0 0.038512288486115001 0.1844147282893184 0 0.2185883431182947 0.18019736283949719 0 0.224700362040408 0.22206622194729711 0 0.18124454140915969 0.18790916706335251 0 0.21858834311891909 0.81980263716112767 0 0.17777405986036951 0.81832336108265358 0 0.22556077506376701 0.77837424984191617 0 0.1215415378367805 0.72939333680004137 0 0.1020579365089687 0.69352219419301997 0 0.15332765547575641 0.71200081858233666 0 0.49695729691142171 0.25014895411178018 0 0.50760557329222289 0.20700468884612061 0 0.54248833945060504 0.2520322959927106 0 0.15720202157091859 0.60665697304410315 0 0.14934928745814749 0.55042914607228977 0 0.18381867841758909 0.57774125163628387 0 0.90416666666660628 0.9041666666666166 0 0.85170973911348691 0.93569607295217616 0 0.85600844944837662 0.88483418979512773 0 0.90416666666668166 0.20416666666667119 0 0.8517097391133297 0.2356960729520409 0 0.85600844944842547 0.1848341897950983 0 0.17933913398461551 0.2350063570234002 0 0.13737030665753211 0.20313708640667491 0 0.18124454140915969 0.18790916706335251 0 0.18269480424590959 0.75905448272264375 0 0.17777405986036951 0.81832336108265358 0 0.1382744753146134 0.79650574229207483 0 0.1216098864341134 0.50637075089503902 0 0.15801167086041079 0.46008690540259539 0 0.16618607197337229 0.50652878253548905 0 0.50760557329222289 0.20700468884612061 0 0.55306006949600994 0.20198184231352201 0 0.54248833945060504 0.2520322959927106 0 0.75000000000034661 1 0 0.7000000000006934 1 0 0.7250000000005199 0.94981617647078953 0 0.69999999999999984 0.29999999999999999 0 0.72500000000000064 0.2498161764706 0 0.74999999999999989 0.29999999999999999 0 0.72525833953073282 0.1032114801687094 0 0.68391457121233579 0.14440470121196541 0 0.68330259535470161 0.10038702501083881 0 0.43249999999999988 0.43937499999999979 0 0.46655310992796922 0.39650496622958609 0 0.48858720058566618 0.43964267759203868 0 0.19901705110390991 0.9175543425573498 0 0.14617343800780541 0.93808063414349496 0 0.16206583317966519 0.89685560785156404 0 0.19922788606653311 0.085920220746880993 0 0.16141998738593399 0.10404039647458049 0 0.14618258501891079 0.062070108745602003 0 0.31378396441836959 0.70157213313026345 0 0.26439878998046262 0.7048065392091396 0 0.27820712747429932 0.65530134213254643 0 0.1216098864341134 0.50637075089503902 0 0.113541300460994 0.46208784312094731 0 0.15801167086041079 0.46008690540259539 0 0.6084546825910605 0.37989672713932537 0 0.65481233915350323 0.35652751921065562 0 0.63912439215427275 0.41063340167983359 0 0.19901705110390991 0.9175543425573498 0 0.18474005699953849 0.96231585248064622 0 0.14617343800780541 0.93808063414349496 0 0.19922788606653311 0.085920220746880993 0 0.14618258501891079 0.062070108745602003 0 0.184418230509967 0.038773194583122873 0 0.38244435121258652 0.51653317813019495 0 0.35024835142131061 0.48654922671676981 0 0.3908716102680424 0.47010282357248828 0 0.82709327591102189 0.14937141670914489 0 0.77144070960558853 0.14311854477243749 0 0.80076557130237269 0.1154587552654202 0 0.82709327591091286 0.84937141670920724 0 0.76901770135486491 0.84293557325473656 0 0.80041942726660109 0.81543261647703358 0 0.43698630808430822 0.080423614171545449 0 0.44288491854585582 0.14116182884956319 0 0.39823268594401579 0.1116623613130045 0 0.39801143831225599 0.16651381068160659 0 0.39823268594401579 0.1116623613130045 0 0.44288491854585582 0.14116182884956319 0 0.36575549820117997 0.31677992835137742 0 0.3786248352540974 0.27082301512024259 0 0.41914690343363781 0.30688979866601612 0 0.42377727103934271 0.25099357235810238 0 0.41914690343363781 0.30688979866601612 0 0.3786248352540974 0.27082301512024259 0 0.049706944316475897 0.72477277076253799 0 0.1020579365089687 0.69352219419301997 0 0.090953281884486245 0.7564451946902494 0 0.1215415378367805 0.72939333680004137 0 0.090953281884486245 0.7564451946902494 0 0.1020579365089687 0.69352219419301997 0 0.1247745017231483 0.27198077544791172 0 0.093851963071650835 0.30582068233324772 0 0.095326043202144745 0.24554465089224409 0 0.049706944316556423 0.27522722923869108 0 0.095326043202144745 0.24554465089224409 0 0.093851963071650835 0.30582068233324772 0 0.77354604466818633 0.40378688774472771 0 0.81973119833356312 0.43505687159469048 0 0.77972660463949339 0.45529290596363098 0 0.43249999999999988 0.43937499999999979 0 0.43507373378304309 0.49699695397193322 0 0.3908716102680424 0.47010282357248828 0 0.26573297623774761 0.59828298563722948 0 0.2459498854893499 0.63248470766216769 0 0.22549374774072969 0.58452645269293457 0 0.72500000000000064 0.7952620967744265 0 0.77094201086366854 0.79647480515688507 0 0.76901770135486491 0.84293557325473656 0 0.72525833953073282 0.1032114801687094 0 0.76878382444651716 0.097147941686331368 0 0.77144070960558853 0.14311854477243749 0 0.72500000000000064 0.7952620967744265 0 0.68697391633157634 0.84450604838764298 0 0.68024162096458085 0.79868546898116533 0 0.31378396441836959 0.70157213313026345 0 0.29904318922293632 0.74132814928635593 0 0.26439878998046262 0.7048065392091396 0 0.31378396441836959 0.70157213313026345 0 0.35415581127540569 0.73730480045900215 0 0.29904318922293632 0.74132814928635593 0 0.61343887413683884 0.856862479058357 0 0.65005442820240822 0.82644988530054031 0 0.66412543161245952 0.88015090885499059 0 0.68697391633157634 0.84450604838764298 0 0.66412543161245952 0.88015090885499059 0 0.65005442820240822 0.82644988530054031 0 0.083411279318375747 0.91030024466934134 0 0.065374659239661639 0.8551091961254178 0 0.10562472963403439 0.87143394428979881 0 0.083411279318303222 0.089699755330707398 0 0.1053400320299198 0.12877248826361379 0 0.065374659239632718 0.1448908038746782 0 0.55306006949600994 0.20198184231352201 0 0.59443395090188023 0.18455690917515069 0 0.59814117807200873 0.23398510860739519 0 0.84999999999999987 0.29999999999999999 0 0.89999999999999991 0.29999999999999999 0 0.87430060258887643 0.34056085888204451 0 0.84999999999999987 0.69999999999999996 0 0.87712158428786946 0.65709029563313581 0 0.89999999999999991 0.69999999999999996 0 0.34258405725730701 0.4444034294386992 0 0.3908716102680424 0.47010282357248828 0 0.35024835142131061 0.48654922671676981 0 0.26573297623774761 0.59828298563722948 0 0.31502927232353312 0.6134992213375432 0 0.27820712747429932 0.65530134213254643 0 0.91696753777131557 0.497780560203536 0 0.86907294890112186 0.52008116128001669 0 0.88594198078881503 0.46167788676578442 0 0.84723782639812573 0.48638347960178252 0 0.88594198078881503 0.46167788676578442 0 0.86907294890112186 0.52008116128001669 0 0.7152569930854884 0.5237994455134295 0 0.77151014687832564 0.54436834383023036 0 0.71809016091162536 0.58185040402320831 0 0.90416666666660628 0.9041666666666166 0 0.89898474358632463 0.95391965591118966 0 0.85170973911348691 0.93569607295217616 0 0.90416666666668166 0.20416666666667119 0 0.89898474358614167 0.25391965591104898 0 0.8517097391133297 0.2356960729520409 0 0.91750694127107502 0.36982372220068471 0 0.95780851984364423 0.34215720972155339 0 0.95871855522754235 0.40006508612975411 0 0.91750694127105259 0.63017627779935648 0 0.95867599106212187 0.60011091146651041 0 0.9578014258160763 0.65787212321113708 0 0.90299850604011456 0.79563452813489832 0 0.88088768115933802 0.84674609810493673 0 0.84725310900444062 0.80779732082917555 0 0.90299850604006393 0.09563452813493091 0 0.88088768115941807 0.14674609810479519 0 0.84725310900442086 0.10779732082922661 0 0.1216098864341134 0.50637075089503902 0 0.16618607197337229 0.50652878253548905 0 0.14934928745814749 0.55042914607228977 0 0.20050006573841939 0.53248514016039872 0 0.14934928745814749 0.55042914607228977 0 0.16618607197337229 0.50652878253548905 0 0.80185942888539485 0.77452061303608133 0 0.84725310900444062 0.80779732082917555 0 0.80041942726660109 0.81543261647703358 0 0.80185942888501827 0.074520613036224564 0 0.84725310900442086 0.10779732082922661 0 0.80076557130237269 0.1154587552654202 0 0.083105206071452636 0.79992298667296435 0 0.065374659239661639 0.8551091961254178 0 0.038512288486097702 0.8155852717111195 0 0.083105206071467416 0.20007701332709979 0 0.038512288486115001 0.1844147282893184 0 0.065374659239632718 0.1448908038746782 0 0.54782696902220018 0.79245182748204157 0 0.59636844454254345 0.75937156204589151 0 0.60294066490120068 0.80851322453934582 0 0.083411279318375747 0.91030024466934134 0 0.0443105827531413 0.89858748162559932 0 0.065374659239661639 0.8551091961254178 0 0.083411279318303222 0.089699755330707398 0 0.065374659239632718 0.1448908038746782 0 0.044310582753132287 0.101412518374475 0 0.84999999999965292 1 0 0.81486180804382891 0.96321394949790495 0 0.85170973911348691 0.93569607295217616 0 0.84999999999999987 0.29999999999999999 0 0.81486180804364938 0.26321394949780091 0 0.8517097391133297 0.2356960729520409 0 0.4656888918609538 0.78493261229743638 0 0.45677673713123867 0.84253684404072415 0 0.42609163930740518 0.80361684430568059 0 0.39536230704883951 0.84069429572832477 0 0.42609163930740518 0.80361684430568059 0 0.45677673713123867 0.84253684404072415 0 0.6236733212988993 0.14864538214901801 0 0.56202748619534593 0.15054058349222879 0 0.58516465772821369 0.11653801664834119 0 0.57412547362576272 0.58273804879550706 0 0.63065402604362242 0.59661356661633302 0 0.5991018319127801 0.62925360607495295 0 0.61343887413683884 0.856862479058357 0 0.5832743223239254 0.88483152652961872 0 0.55899371797446828 0.85003102233514438 0 0.50202631463681879 0.87892870825713787 0 0.55899371797446828 0.85003102233514438 0 0.54783390826260769 0.89287767010860219 0 0.51076801031701946 0.1202837388510348 0 0.54979595918804436 0.1060565713905809 0 0.56202748619534593 0.15054058349222879 0 0.55306006949600994 0.20198184231352201 0 0.59814117807200873 0.23398510860739519 0 0.54248833945060504 0.2520322959927106 0 0.83573492347052902 0.36590755630746369 0 0.82500000000000062 0.33010209762754811 0 0.87430060258887643 0.34056085888204451 0 0.83758014339878906 0.63222013025741819 0 0.87712158428786946 0.65709029563313581 0 0.82457059160610424 0.66831947184359608 0 0.49102375406324739 0.49123754822244059 0 0.53823865529665704 0.45873898050322898 0 0.53330375813596242 0.50827942741749099 0 0.52289427570932567 0.3932284363388488 0 0.57744073070774993 0.41535148636609359 0 0.53823865529665704 0.45873898050322898 0 0.4089290844030305 0.58728915500154233 0 0.37272913873093971 0.56192925302619479 0 0.42644501560315817 0.54603747078095544 0 0.49695729691142171 0.25014895411178018 0 0.4604742573284204 0.27846934318264788 0 0.46429753744194407 0.22870891180733599 0 0.90299850604011456 0.79563452813489832 0 0.85491058998424563 0.76004753345552634 0 0.89999166460796554 0.74528934923809909 0 0.90299850604006393 0.09563452813493091 0 0.85491058998398861 0.060047533455626502 0 0.899991664607802 0.045289349238254978 0 0.38244435121258652 0.51653317813019495 0 0.42644501560315817 0.54603747078095544 0 0.37272913873093971 0.56192925302619479 0 0.71406021706547751 0.63292083137662503 0 0.71809016091162536 0.58185040402320831 0 0.74994237037456724 0.62775548192980357 0 0.84723782639812573 0.48638347960178252 0 0.86907294890112186 0.52008116128001669 0 0.81441713509985358 0.51161854125224959 0 0.33122374654748771 0.57588941099433744 0 0.33190227185843768 0.52715113583864037 0 0.37272913873093971 0.56192925302619479 0 0.086179601630648681 0.64647209519980475 0 0.1241190223511371 0.64391885572885044 0 0.1020579365089687 0.69352219419301997 0 0.59999999999894682 0 0 0.64999999999907843 0 0 0.61940220174112337 0.047251958781050582 0 0.18269480424590959 0.75905448272264375 0 0.14335651144331049 0.75565258250209677 0 0.15332765547575641 0.71200081858233666 0 0.22549374774072969 0.58452645269293457 0 0.2459498854893499 0.63248470766216769 0 0.19914261668318661 0.62286739485272158 0 0.38244435121258652 0.51653317813019495 0 0.43507373378304309 0.49699695397193322 0 0.42644501560315817 0.54603747078095544 0 0.65000000000104008 1 0 0.60000000000138687 1 0 0.62065498684670595 0.95224934003983619 0 0.078358742472063481 0.43365249433908948 0 0.068743045408989428 0.48853989837882689 0 0.033550201249889847 0.46247875832467239 0 0.2236846579037573 0.67380363126050236 0 0.27820712747429932 0.65530134213254643 0 0.26439878998046262 0.7048065392091396 0 0.6879972333610942 0.43038561374960838 0 0.68128176404677243 0.38629093627004979 0 0.72622533758026719 0.40265885511101601 0 0.72525833953073282 0.1032114801687094 0 0.7010294155333181 0.056779085686491267 0 0.7527966693318906 0.053051678021508272 0 0.18269480424590959 0.75905448272264375 0 0.15332765547575641 0.71200081858233666 0 0.19068556247388771 0.71028988922845504 0 0.1216098864341134 0.50637075089503902 0 0.085622222639554768 0.53333248912060549 0 0.068743045408989428 0.48853989837882689 0 0.25676291524611189 0.7436741304886243 0 0.26439878998046262 0.7048065392091396 0 0.29904318922293632 0.74132814928635593 0 0.65481233915350323 0.35652751921065562 0 0.68128176404677243 0.38629093627004979 0 0.63912439215427275 0.41063340167983359 0 0.83573492347052902 0.36590755630746369 0 0.86844634540301924 0.38530937474099819 0 0.81308179852519835 0.39754945808726527 0 0.27270076654418179 0.87751467830216623 0 0.2401283238295133 0.85648409884788523 0 0.29209212897034281 0.84715728365233667 0 0.84999999999999987 0.69999999999999996 0 0.85491058998424563 0.76004753345552634 0 0.81864958914779962 0.73589050177899629 0 0.84999999999960507 0 0 0.85491058998398861 0.060047533455626502 0 0.81864958914740749 0.035890501779055867 0 0.18381867841758909 0.57774125163628387 0 0.19914261668318661 0.62286739485272158 0 0.15720202157091859 0.60665697304410315 0 0.22549374774072969 0.58452645269293457 0 0.19914261668318661 0.62286739485272158 0 0.18381867841758909 0.57774125163628387 0 0.79680861578988083 0.92656778056766709 0 0.85170973911348691 0.93569607295217616 0 0.81486180804382891 0.96321394949790495 0 0.79680861578956375 0.22656778056752541 0 0.8517097391133297 0.2356960729520409 0 0.81486180804364938 0.26321394949780091 0 0.20050006573841939 0.53248514016039872 0 0.23975172658309729 0.49475499200540818 0 0.25115337790845271 0.54719303014923271 0 0.28307294598219601 0.50789252727458634 0 0.25115337790845271 0.54719303014923271 0 0.23975172658309729 0.49475499200540818 0 0.20050006573841939 0.53248514016039872 0 0.18381867841758909 0.57774125163628387 0 0.14934928745814749 0.55042914607228977 0 0.19922788606653311 0.085920220746880993 0 0.22985637510995899 0.1298347970200906 0 0.18652628422869419 0.14162325200928061 0 0.33758650185219202 0.23837101504325639 0 0.38831533174504851 0.2189834941785925 0 0.3786248352540974 0.27082301512024259 0 0.42377727103934271 0.25099357235810238 0 0.3786248352540974 0.27082301512024259 0 0.38831533174504851 0.2189834941785925 0 0.19922788606653311 0.085920220746880993 0 0.18652628422869419 0.14162325200928061 0 0.16141998738593399 0.10404039647458049 0 0.54782696902220018 0.79245182748204157 0 0.55363780716230748 0.74348740161571747 0 0.59636844454254345 0.75937156204589151 0 0.82709327591091286 0.84937141670920724 0 0.88088768115933802 0.84674609810493673 0 0.85600844944837662 0.88483418979512773 0 0.82709327591102189 0.14937141670914489 0 0.88088768115941807 0.14674609810479519 0 0.85600844944842547 0.1848341897950983 0 0.27866744612395528 0.38416094670951489 0 0.22033343844674469 0.36963382230740238 0 0.25966125648670141 0.34351016742083729 0 0 0.50000000000205869 0 0.033550201249889847 0.46247875832467239 0 0.068743045408989428 0.48853989837882689 0 0.31378396441836959 0.70157213313026345 0 0.36622285152418499 0.69092437780804039 0 0.35415581127540569 0.73730480045900215 0 0.77293540622714185 0.59448302402785813 0 0.71809016091162536 0.58185040402320831 0 0.77151014687832564 0.54436834383023036 0 0.7152569930854884 0.5237994455134295 0 0.69385896817107129 0.48377516041410151 0 0.73947346780852752 0.49062440112282169 0 0.15801167086041079 0.46008690540259539 0 0.191953871957803 0.42546416763755879 0 0.19604738184454831 0.47787523520405789 0 0.57667858002728545 0.078486105337742612 0 0.61940220174112337 0.047251958781050582 0 0.61956000905586006 0.1043312481793135 0 0.65408113592120842 0.073941773121567966 0 0.61956000905586006 0.1043312481793135 0 0.61940220174112337 0.047251958781050582 0 0 0.55000000000173355 0 0 0.50000000000205869 0 0.044576108720083309 0.53509043209532614 0 0.65507451745379841 0.92229208810758578 0 0.62065498684670595 0.95224934003983619 0 0.61885627562261258 0.90282959257498208 0 0.57724883562309992 0.92155686857100794 0 0.61885627562261258 0.90282959257498208 0 0.62065498684670595 0.95224934003983619 0 0.91750694127107502 0.36982372220068471 0 0.86844634540301924 0.38530937474099819 0 0.87430060258887643 0.34056085888204451 0 0.91750694127105259 0.63017627779935648 0 0.87712158428786946 0.65709029563313581 0 0.87159648282691515 0.61285406320581504 0 0.33123028043633618 0.77629643437932982 0 0.29904318922293632 0.74132814928635593 0 0.35415581127540569 0.73730480045900215 0 0.86411095495256451 0.42388805655111889 0 0.84925632466077294 0.45359738909549091 0 0.81973119833356312 0.43505687159469048 0 0.43846182030517877 0.64845797726506715 0 0.47913475093885149 0.66010775372412711 0 0.43323420005758778 0.6913544522562407 0 0.18269480424590959 0.75905448272264375 0 0.19068556247388771 0.71028988922845504 0 0.2248999640082178 0.72584299459689172 0 0.39536230704883951 0.84069429572832477 0 0.38586766253264881 0.78219501014812498 0 0.42609163930740518 0.80361684430568059 0 0.59999999999999976 0.69999999999999996 0 0.63221990677827677 0.73442891067859706 0 0.59636844454254345 0.75937156204589151 0 0.27866744612395528 0.38416094670951489 0 0.24049127783545701 0.41270748208749802 0 0.22033343844674469 0.36963382230740238 0 0.82709327591091286 0.84937141670920724 0 0.84725310900444062 0.80779732082917555 0 0.88088768115933802 0.84674609810493673 0 0.82709327591102189 0.14937141670914489 0 0.84725310900442086 0.10779732082922661 0 0.88088768115941807 0.14674609810479519 0 0.1650278706801647 0.38791388161335733 0 0.18434624290945251 0.35208838264196463 0 0.22033343844674469 0.36963382230740238 0 0.4409427642593301 0.35743108089689513 0 0.49077833859261139 0.35229981449445641 0 0.46655310992796922 0.39650496622958609 0 0.80185942888539485 0.77452061303608133 0 0.81864958914779962 0.73589050177899629 0 0.85491058998424563 0.76004753345552634 0 0.80185942888501827 0.074520613036224564 0 0.81864958914740749 0.035890501779055867 0 0.85491058998398861 0.060047533455626502 0 0.29999999999926641 0 0 0.34999999999912063 0 0 0.32541448401678508 0.046215317981507749 0 0.35000000000145642 1 0 0.30000000000124832 1 0 0.32544832635163229 0.95485394099568932 0 0.4656888918609538 0.78493261229743638 0 0.50731287292894423 0.78963574450233831 0 0.50627822638148745 0.8263979829520941 0 0.2185883431182947 0.18019736283949719 0 0.25557216766470708 0.15874861286892261 0 0.26429849586623999 0.19346700179430079 0 1 0.29999999999999999 0 1 0.34999999999993492 0 0.95780851984364423 0.34215720972155339 0 1 0.29999999999999999 0 0.95780851984364423 0.34215720972155339 0 0.94999999999999996 0.29999999999999999 0 1 0.69999999999999996 0 0.94999999999999996 0.69999999999999996 0 0.9578014258160763 0.65787212321113708 0 1 0.69999999999999996 0 0.9578014258160763 0.65787212321113708 0 1 0.64999999999986979 0 0.91750694127107502 0.36982372220068471 0 0.90594285160987287 0.4141265964174129 0 0.86844634540301924 0.38530937474099819 0 0.91750694127105259 0.63017627779935648 0 0.87159648282691515 0.61285406320581504 0 0.91143117093204207 0.58709913730335972 0 0.74999999999999989 0.69999999999999996 0 0.7750489929959945 0.66593931409600093 0 0.79999999999999982 0.69999999999999996 0 0.74999999999999989 0.29999999999999999 0 0.79999999999999982 0.29999999999999999 0 0.78145581580700685 0.34881365920033602 0 0.54999999999999993 0.69999999999999996 0 0.57484956128872922 0.66573805030881994 0 0.59999999999999976 0.69999999999999996 0 0.90299850604011456 0.79563452813489832 0 0.94399509803918602 0.75600490196082126 0 0.95386563387742829 0.80414874155775029 0 0.90416666666660628 0.9041666666666166 0 0.95391631417670719 0.89584263333814784 0 0.94399509803919068 0.9439950980391687 0 0.90299850604006393 0.09563452813493091 0 0.94399509803922566 0.056004901960802607 0 0.95386563387744361 0.1041487415577465 0 0.90416666666668166 0.20416666666667119 0 0.95391631417672862 0.19584263333809451 0 0.94399509803921056 0.24399509803922639 0 0.22278230690790279 0.44824268025881547 0 0.19604738184454831 0.47787523520405789 0 0.191953871957803 0.42546416763755879 0 0.90299850604011456 0.79563452813489832 0 0.89999166460796554 0.74528934923809909 0 0.94399509803918602 0.75600490196082126 0 0.90299850604006393 0.09563452813493091 0 0.899991664607802 0.045289349238254978 0 0.94399509803922566 0.056004901960802607 0 0.49102375406324739 0.49123754822244059 0 0.47793794143994173 0.52940715638744962 0 0.43507373378304309 0.49699695397193322 0 0.90416666666660628 0.9041666666666166 0 0.94399509803919068 0.9439950980391687 0 0.89898474358632463 0.95391965591118966 0 0.90416666666668166 0.20416666666667119 0 0.94399509803921056 0.24399509803922639 0 0.89898474358614167 0.25391965591104898 0 0.65394964615507722 0.22666784374016369 0 0.62657463266645097 0.26524202571255862 0 0.59814117807200873 0.23398510860739519 0 0.6084546825910605 0.37989672713932537 0 0.63912439215427275 0.41063340167983359 0 0.57744073070774993 0.41535148636609359 0 0.61209567303293111 0.44669033081290321 0 0.57744073070774993 0.41535148636609359 0 0.63912439215427275 0.41063340167983359 0 0.25676291524611189 0.7436741304886243 0 0.22556077506376701 0.77837424984191617 0 0.2248999640082178 0.72584299459689172 0 0.61343887413683884 0.856862479058357 0 0.60294066490120068 0.80851322453934582 0 0.65005442820240822 0.82644988530054031 0 0.64999999999907843 0 0 0.66369801598854572 0.036327466368102787 0 0.61940220174112337 0.047251958781050582 0 0.40326160981139969 0.73346192995102844 0 0.38586766253264881 0.78219501014812498 0 0.35415581127540569 0.73730480045900215 0 0.33123028043633618 0.77629643437932982 0 0.35415581127540569 0.73730480045900215 0 0.38586766253264881 0.78219501014812498 0 0.26573297623774761 0.59828298563722948 0 0.29110487519241501 0.56588143995431495 0 0.31502927232353312 0.6134992213375432 0 0.77846603114747959 0.49850927265137401 0 0.81441713509985358 0.51161854125224959 0 0.77151014687832564 0.54436834383023036 0 0.82862096804812391 0.55037090955459045 0 0.77151014687832564 0.54436834383023036 0 0.81441713509985358 0.51161854125224959 0 0.50000000000205869 1 0 0.45000000000187229 1 0 0.47135117303824892 0.95556877749289892 0 0.44999999999882923 0 0 0.49999999999869432 0 0 0.47040171442036788 0.044141676406503738 0 0 0.7000000000006934 0 0 0.65000000000104008 0 0.046634677244967337 0.671418230738282 0 0 0.35000000000145642 0 0 0.30000000000124832 0 0.046389130980076937 0.32668781832131749 0 0.31378396441836959 0.70157213313026345 0 0.27820712747429932 0.65530134213254643 0 0.32263089806001177 0.66003674931826484 0 0.33122374654748771 0.57588941099433744 0 0.31502927232353312 0.6134992213375432 0 0.29110487519241501 0.56588143995431495 0 0.26573297623774761 0.59828298563722948 0 0.27820712747429932 0.65530134213254643 0 0.2459498854893499 0.63248470766216769 0 0.14474682429600511 0.85524784522713515 0 0.16206583317966519 0.89685560785156404 0 0.1241151115713819 0.9045666525468371 0 0.14332333627550789 0.14578431753966009 0 0.12372429750337779 0.095814237875728972 0 0.16141998738593399 0.10404039647458049 0 0.64753070846764316 0.77332939069435502 0 0.59636844454254345 0.75937156204589151 0 0.63221990677827677 0.73442891067859706 0 0.14474682429600511 0.85524784522713515 0 0.1241151115713819 0.9045666525468371 0 0.10562472963403439 0.87143394428979881 0 0.14332333627550789 0.14578431753966009 0 0.1053400320299198 0.12877248826361379 0 0.12372429750337779 0.095814237875728972 0 0.77354604466818633 0.40378688774472771 0 0.81308179852519835 0.39754945808726527 0 0.81973119833356312 0.43505687159469048 0 0.54782696902220018 0.79245182748204157 0 0.50945740445113552 0.75476055527778108 0 0.55363780716230748 0.74348740161571747 0 0.2236846579037573 0.67380363126050236 0 0.2459498854893499 0.63248470766216769 0 0.27820712747429932 0.65530134213254643 0 0.77293540622714185 0.59448302402785813 0 0.74994237037456724 0.62775548192980357 0 0.71809016091162536 0.58185040402320831 0 0 0.79999999999999982 0 0 0.75000000000034661 0 0.04408157711937423 0.7728941757575627 0 0 0.25000000000104028 0 0 0.20000000000083221 0 0.044081577119474857 0.2271058242433576 0 0.19999999999955789 0 0 0.24999999999941211 0 0 0.22668068146512929 0.045875643423131329 0 0.25000000000104028 1 0 0.20000000000083221 1 0 0.22850979588452081 0.95594428570238643 0 0.47357141910802508 0.1873585799078378 0 0.44288491854585582 0.14116182884956319 0 0.48466639505193998 0.1421439844745814 0 0.59999999999999976 0.29999999999999999 0 0.5794309697024993 0.27124795968204829 0 0.62657463266645097 0.26524202571255862 0 0.43249999999999988 0.43937499999999979 0 0.42161023666869668 0.39493916313643851 0 0.46655310992796922 0.39650496622958609 0 0.31068898841644388 0.47541502461811092 0 0.33190227185843768 0.52715113583864037 0 0.28307294598219601 0.50789252727458634 0 0.35024835142131061 0.48654922671676981 0 0.33190227185843768 0.52715113583864037 0 0.31068898841644388 0.47541502461811092 0 0.35864735590330371 0.63903383440414463 0 0.36622285152418499 0.69092437780804039 0 0.32263089806001177 0.66003674931826484 0 0.31378396441836959 0.70157213313026345 0 0.32263089806001177 0.66003674931826484 0 0.36622285152418499 0.69092437780804039 0 0.86956835336234861 0.571283299838105 0 0.90900154012161016 0.53607784105648792 0 0.91143117093204207 0.58709913730335972 0 0.6499999999999998 0.29999999999999999 0 0.65481233915350323 0.35652751921065562 0 0.61959173890754571 0.33832250091341232 0 0.4409427642593301 0.35743108089689513 0 0.46226845272279993 0.31901800744800313 0 0.49077833859261139 0.35229981449445641 0 0.5 0.29999999999999999 0 0.49077833859261139 0.35229981449445641 0 0.46226845272279993 0.31901800744800313 0 0.14999999999970359 0 0 0.19999999999955789 0 0 0.184418230509967 0.038773194583122873 0 0.20000000000083221 1 0 0.15000000000062411 1 0 0.18474005699953849 0.96231585248064622 0 1 0.49999999999950101 0 1 0.54999999999963112 0 0.95631871884947484 0.51827533208233789 0 0.38586766253264881 0.78219501014812498 0 0.42676259796334498 0.76772545931379299 0 0.42609163930740518 0.80361684430568059 0 0.20050006573841939 0.53248514016039872 0 0.22549374774072969 0.58452645269293457 0 0.18381867841758909 0.57774125163628387 0 0.065374659239661639 0.8551091961254178 0 0.1074251789111534 0.83564394292147814 0 0.10562472963403439 0.87143394428979881 0 0.065374659239632718 0.1448908038746782 0 0.1053400320299198 0.12877248826361379 0 0.106902708054812 0.16453234188234539 0 0.1650278706801647 0.38791388161335733 0 0.14223753364722069 0.3341983344262433 0 0.18434624290945251 0.35208838264196463 0 0.43249999999999988 0.43937499999999979 0 0.46111841286828259 0.46690301029591341 0 0.43507373378304309 0.49699695397193322 0 0.83758014339878906 0.63222013025741819 0 0.81723410853263523 0.59419663659258926 0 0.87159648282691515 0.61285406320581504 0 0.19670163708476801 0.31472518408333222 0 0.18434624290945251 0.35208838264196463 0 0.14223753364722069 0.3341983344262433 0 0.75000000000034661 1 0 0.7250000000005199 0.94981617647078953 0 0.770759834363826 0.95919399014344442 0 0.74999999999999989 0.29999999999999999 0 0.72500000000000064 0.2498161764706 0 0.77075983436335049 0.25919399014334171 0 0.69999999999999984 0.29999999999999999 0 0.67933712972090698 0.25920070958121938 0 0.72500000000000064 0.2498161764706 0 0.57611405284611883 0.50165903596042916 0 0.53330375813596242 0.50827942741749099 0 0.53823865529665704 0.45873898050322898 0 0.6499999999999998 0.29999999999999999 0 0.68887083591306764 0.33632058575757479 0 0.65481233915350323 0.35652751921065562 0 0.27866744612395528 0.38416094670951489 0 0.33277555741076909 0.36432196682010132 0 0.31778888742534622 0.40581751814196781 0 0.49102375406324739 0.49123754822244059 0 0.43507373378304309 0.49699695397193322 0 0.46111841286828259 0.46690301029591341 0 0.94999999999999996 0.69999999999999996 0 0.97166519676947294 0.73337114490064459 0 0.94399509803918602 0.75600490196082126 0 0.94999999999986839 0 0 0.97166519676946894 0.033371144900598393 0 0.94399509803922566 0.056004901960802607 0 0.94999999999999996 0.29999999999999999 0 0.94399509803921056 0.24399509803922639 0 0.97166519676951801 0.26662885509932011 0 0.94999999999979179 1 0 0.94399509803919068 0.9439950980391687 0 0.97166519676946206 0.96662885509935492 0 0.34258405725730701 0.4444034294386992 0 0.29124338931648802 0.43334555462578611 0 0.31778888742534622 0.40581751814196781 0 0.27866744612395528 0.38416094670951489 0 0.31778888742534622 0.40581751814196781 0 0.29124338931648802 0.43334555462578611 0 0.36575549820117997 0.31677992835137742 0 0.33277555741076909 0.36432196682010132 0 0.32752639306529541 0.32610012995269699 0 0.35752321586431363 0.9185439911803448 0 0.32544832635163229 0.95485394099568932 0 0.30864387279288652 0.89906554525974958 0 0.27609987656793722 0.94991445621608572 0 0.30864387279288652 0.89906554525974958 0 0.32544832635163229 0.95485394099568932 0 0.33123028043633618 0.77629643437932982 0 0.30857225866488791 0.81101973481716805 0 0.2792923945214143 0.77665808831789485 0 0.33758650185219202 0.23837101504325639 0 0.29132859388405002 0.27203693976649962 0 0.28040350263641872 0.23054717217092141 0 0.4409427642593301 0.35743108089689513 0 0.41914690343363781 0.30688979866601612 0 0.46226845272279993 0.31901800744800313 0 0.14332333627550789 0.14578431753966009 0 0.13737030665753211 0.20313708640667491 0 0.106902708054812 0.16453234188234539 0 0.083105206071467416 0.20007701332709979 0 0.106902708054812 0.16453234188234539 0 0.13737030665753211 0.20313708640667491 0 0.083105206071452636 0.79992298667296435 0 0.1382744753146134 0.79650574229207483 0 0.1074251789111534 0.83564394292147814 0 0.14474682429600511 0.85524784522713515 0 0.1074251789111534 0.83564394292147814 0 0.1382744753146134 0.79650574229207483 0 0.65408113592120842 0.073941773121567966 0 0.7010294155333181 0.056779085686491267 0 0.68330259535470161 0.10038702501083881 0 0.72525833953073282 0.1032114801687094 0 0.68330259535470161 0.10038702501083881 0 0.7010294155333181 0.056779085686491267 0 0.049706944316475897 0.72477277076253799 0 0.046634677244967337 0.671418230738282 0 0.1020579365089687 0.69352219419301997 0 0.086179601630648681 0.64647209519980475 0 0.1020579365089687 0.69352219419301997 0 0.046634677244967337 0.671418230738282 0 0.087545339447545459 0.35122518864182262 0 0.046389130980076937 0.32668781832131749 0 0.093851963071650835 0.30582068233324772 0 0.049706944316556423 0.27522722923869108 0 0.093851963071650835 0.30582068233324772 0 0.046389130980076937 0.32668781832131749 0 0.82709327591091286 0.84937141670920724 0 0.80041942726660109 0.81543261647703358 0 0.84725310900444062 0.80779732082917555 0 0.82709327591102189 0.14937141670914489 0 0.80076557130237269 0.1154587552654202 0 0.84725310900442086 0.10779732082922661 0 0.17933913398461551 0.2350063570234002 0 0.14377654328998779 0.2442024734791064 0 0.13737030665753211 0.20313708640667491 0 0.18269480424590959 0.75905448272264375 0 0.1382744753146134 0.79650574229207483 0 0.14335651144331049 0.75565258250209677 0 0.33758650185219202 0.23837101504325639 0 0.3786248352540974 0.27082301512024259 0 0.33402499257867951 0.28911035184473982 0 0.14332333627550789 0.14578431753966009 0 0.18124454140915969 0.18790916706335251 0 0.13737030665753211 0.20313708640667491 0 0.14474682429600511 0.85524784522713515 0 0.1382744753146134 0.79650574229207483 0 0.17777405986036951 0.81832336108265358 0 0.5 0.29999999999999999 0 0.52752007115234678 0.33170632466418198 0 0.49077833859261139 0.35229981449445641 0 0.27866744612395528 0.38416094670951489 0 0.29644548887253103 0.34914008784168082 0 0.33277555741076909 0.36432196682010132 0 0 0.84999999999965292 0 0 0.79999999999999982 0 0.038512288486097702 0.8155852717111195 0 0 0.20000000000083221 0 0 0.15000000000062411 0 0.038512288486115001 0.1844147282893184 0 0.40326160981139969 0.73346192995102844 0 0.35415581127540569 0.73730480045900215 0 0.36622285152418499 0.69092437780804039 0 0.91696753777131557 0.497780560203536 0 0.96228564064454991 0.48206450662049471 0 0.95631871884947484 0.51827533208233789 0 0.33758650185219202 0.23837101504325639 0 0.31255190597181792 0.19850845631528771 0 0.3572130504031617 0.1874703368446563 0 0.59814117807200873 0.23398510860739519 0 0.62657463266645097 0.26524202571255862 0 0.5794309697024993 0.27124795968204829 0 0.34258405725730701 0.4444034294386992 0 0.31068898841644388 0.47541502461811092 0 0.29124338931648802 0.43334555462578611 0 0.38083244760691543 0.38531983672244652 0 0.35221190152536241 0.40457127605439203 0 0.33277555741076909 0.36432196682010132 0 0.083411279318375747 0.91030024466934134 0 0.10266856499240549 0.95548163909968886 0 0.053064897599294662 0.95186845269532028 0 0.083411279318303222 0.089699755330707398 0 0.053064897599215843 0.048131547304697528 0 0.10266856499169109 0.044518360900210059 0 0.42377727103934271 0.25099357235810238 0 0.4604742573284204 0.27846934318264788 0 0.41914690343363781 0.30688979866601612 0 0.28307294598219601 0.50789252727458634 0 0.25982634974572738 0.46097799597715272 0 0.31068898841644388 0.47541502461811092 0 0.29348325746214782 0.31350119524708198 0 0.29132859388405002 0.27203693976649962 0 0.33402499257867951 0.28911035184473982 0 0.35312867752657662 0.084946736076730367 0 0.39823268594401579 0.1116623613130045 0 0.36246644853392812 0.1399454205365751 0 0.7000000000006934 1 0 0.68015064798562208 0.95924320340003011 0 0.7250000000005199 0.94981617647078953 0 0.42377727103934271 0.25099357235810238 0 0.38831533174504851 0.2189834941785925 0 0.42905200079338551 0.19982395548231649 0 0.53823865529665704 0.45873898050322898 0 0.57744073070774993 0.41535148636609359 0 0.57975577671020095 0.46172033326338591 0 0.33758650185219202 0.23837101504325639 0 0.3572130504031617 0.1874703368446563 0 0.38831533174504851 0.2189834941785925 0 0.29124338931648802 0.43334555462578611 0 0.31068898841644388 0.47541502461811092 0 0.25982634974572738 0.46097799597715272 0 0.6084546825910605 0.37989672713932537 0 0.61959173890754571 0.33832250091341232 0 0.65481233915350323 0.35652751921065562 0 0.40326160981139969 0.73346192995102844 0 0.43323420005758778 0.6913544522562407 0 0.45582236402875981 0.73896743678908217 0 0.33758650185219202 0.23837101504325639 0 0.28040350263641872 0.23054717217092141 0 0.31255190597181792 0.19850845631528771 0 0.79999999999999982 1 0 0.75000000000034661 1 0 0.770759834363826 0.95919399014344442 0 0.74999999999999989 0.29999999999999999 0 0.77075983436335049 0.25919399014334171 0 0.79999999999999982 0.29999999999999999 0 0.6499999999999998 0.29999999999999999 0 0.67933712972090698 0.25920070958121938 0 0.69999999999999984 0.29999999999999999 0 0.39536230704883951 0.84069429572832477 0 0.39767323751400468 0.89584229130535065 0 0.35864759629805099 0.87963482415279515 0 0.54999999999999993 0.69999999999999996 0 0.52584555706968406 0.66664215091846768 0 0.57484956128872922 0.66573805030881994 0 0.35312867752657662 0.084946736076730367 0 0.32541448401678508 0.046215317981507749 0 0.3615861437013822 0.03582617922508851 0 0.35752321586431363 0.9185439911803448 0 0.36184234618600131 0.96443954459096326 0 0.32544832635163229 0.95485394099568932 0 0.35312867752657662 0.084946736076730367 0 0.3615861437013822 0.03582617922508851 0 0.39591832466117061 0.056982757562006353 0 0.35752321586431363 0.9185439911803448 0 0.39641108128798319 0.94356127926187128 0 0.36184234618600131 0.96443954459096326 0 0.083411279318303222 0.089699755330707398 0 0.044310582753132287 0.101412518374475 0 0.053064897599215843 0.048131547304697528 0 0.083411279318375747 0.91030024466934134 0 0.053064897599294662 0.95186845269532028 0 0.0443105827531413 0.89858748162559932 0 0.38083244760691543 0.38531983672244652 0 0.40076539126862748 0.34589349467022118 0 0.42161023666869668 0.39493916313643851 0 0.4409427642593301 0.35743108089689513 0 0.42161023666869668 0.39493916313643851 0 0.40076539126862748 0.34589349467022118 0 0.79999999999999982 0.29999999999999999 0 0.82500000000000062 0.33010209762754811 0 0.78145581580700685 0.34881365920033602 0 0.79999999999999982 0.69999999999999996 0 0.7750489929959945 0.66593931409600093 0 0.82457059160610424 0.66831947184359608 0 0.59999999999999976 0.69999999999999996 0 0.57484956128872922 0.66573805030881994 0 0.62460753523532009 0.66851202781000296 0 0.74999999999999989 0.69999999999999996 0 0.72500000000000064 0.67022701834392062 0 0.7750489929959945 0.66593931409600093 0 0.74999999999999989 0.29999999999999999 0 0.78145581580700685 0.34881365920033602 0 0.73090396928863699 0.33699297293167962 0 0.33758650185219202 0.23837101504325639 0 0.33402499257867951 0.28911035184473982 0 0.29132859388405002 0.27203693976649962 0 0.36575549820117997 0.31677992835137742 0 0.41914690343363781 0.30688979866601612 0 0.40076539126862748 0.34589349467022118 0 0.4409427642593301 0.35743108089689513 0 0.40076539126862748 0.34589349467022118 0 0.41914690343363781 0.30688979866601612 0 0.34258405725730701 0.4444034294386992 0 0.38707855792647411 0.42299362914874578 0 0.3908716102680424 0.47010282357248828 0 0.7000000000006934 1 0 0.65000000000104008 1 0 0.68015064798562208 0.95924320340003011 0 0.49102375406324739 0.49123754822244059 0 0.46111841286828259 0.46690301029591341 0 0.48858720058566618 0.43964267759203868 0 0.4656888918609538 0.78493261229743638 0 0.42676259796334498 0.76772545931379299 0 0.45582236402875981 0.73896743678908217 0 0.40326160981139969 0.73346192995102844 0 0.45582236402875981 0.73896743678908217 0 0.42676259796334498 0.76772545931379299 0 0.59999999999999976 0.29999999999999999 0 0.62657463266645097 0.26524202571255862 0 0.6499999999999998 0.29999999999999999 0 0.40000000000166441 1 0 0.36184234618600131 0.96443954459096326 0 0.39641108128798319 0.94356127926187128 0 0.3999999999989749 0 0 0.39591832466117061 0.056982757562006353 0 0.3615861437013822 0.03582617922508851 0 0.43249999999999988 0.43937499999999979 0 0.48858720058566618 0.43964267759203868 0 0.46111841286828259 0.46690301029591341 0 0.7250000000005199 0.89375000000045834 0 0.7250000000005199 0.94981617647078953 0 0.68987011941058407 0.92105047536677087 0 0.7250000000005199 0.89375000000045834 0 0.75729602384198635 0.92353652857884294 0 0.7250000000005199 0.94981617647078953 0 0.72500000000001008 0.19776155966387679 0 0.75668890529066124 0.2244279804069782 0 0.72500000000000064 0.2498161764706 0 0.72500000000001008 0.19776155966387679 0 0.72500000000000064 0.2498161764706 0 0.69397719155551807 0.2245125647000914 0 0.79999999999999982 0.29999999999999999 0 0.81486180804364938 0.26321394949780091 0 0.84999999999999987 0.29999999999999999 0 0.84999999999965292 1 0 0.79999999999999982 1 0 0.81486180804382891 0.96321394949790495 0 0.1247745017231483 0.27198077544791172 0 0.095326043202144745 0.24554465089224409 0 0.14377654328998779 0.2442024734791064 0 0.1215415378367805 0.72939333680004137 0 0.14335651144331049 0.75565258250209677 0 0.090953281884486245 0.7564451946902494 0 0.72500000000001008 0.19776155966387679 0 0.72634814642510737 0.16106886917518889 0 0.76587607630038135 0.18880039518954719 0 0.72500000000001008 0.19776155966387679 0 0.6865991819015953 0.189116534044597 0 0.72634814642510737 0.16106886917518889 0 0.77144070960558853 0.14311854477243749 0 0.76587607630038135 0.18880039518954719 0 0.72634814642510737 0.16106886917518889 0 0.68391457121233579 0.14440470121196541 0 0.72634814642510737 0.16106886917518889 0 0.6865991819015953 0.189116534044597 0 0.7250000000005199 0.89375000000045834 0 0.72863726579783861 0.85390518901155588 0 0.76891166905518427 0.88835469571185499 0 0.76901770135486491 0.84293557325473656 0 0.76891166905518427 0.88835469571185499 0 0.72863726579783861 0.85390518901155588 0 0 0.20000000000083221 0 0.038512288486115001 0.1844147282893184 0 0.044081577119474857 0.2271058242433576 0 0 0.79999999999999982 0 0.04408157711937423 0.7728941757575627 0 0.038512288486097702 0.8155852717111195 0 0.52375890611712683 0.059318771819432882 0 0.47881186583059909 0.093591717165689425 0 0.47040171442036788 0.044141676406503738 0 0.52122150208832174 0.94089974453840242 0 0.47135117303824892 0.95556877749289892 0 0.47401147028110507 0.91529957330468115 0 0.27474541102162192 0.11822029332053539 0 0.3096713403101819 0.085471541595262421 0 0.32215584939770009 0.1218492143506909 0 0.22278230690790279 0.44824268025881547 0 0.24049127783545701 0.41270748208749802 0 0.25982634974572738 0.46097799597715272 0 0.93732437411268477 0.55911392101136159 0 0.91143117093204207 0.58709913730335972 0 0.90900154012161016 0.53607784105648792 0 0.19901705110390991 0.9175543425573498 0 0.24536017905392571 0.90704567837671446 0 0.22850979588452081 0.95594428570238643 0 0.27609987656793722 0.94991445621608572 0 0.22850979588452081 0.95594428570238643 0 0.24536017905392571 0.90704567837671446 0 0.15720202157091859 0.60665697304410315 0 0.1241190223511371 0.64391885572885044 0 0.1024350934457823 0.60772393977513839 0 0.6499999999999998 0.69999999999999996 0 0.675261390228442 0.65996937624687813 0 0.69999999999999984 0.69999999999999996 0 0.3999999999989749 0 0 0.4320097814748517 0.037406712692169303 0 0.39591832466117061 0.056982757562006353 0 0.40000000000166441 1 0 0.39641108128798319 0.94356127926187128 0 0.4308986359464303 0.96395712492906194 0 0.54999999999999993 0.29999999999999999 0 0.56836770495988642 0.3523062350852913 0 0.52752007115234678 0.33170632466418198 0 0.14474682429600511 0.85524784522713515 0 0.17777405986036951 0.81832336108265358 0 0.19741632902693801 0.86755867406447229 0 0.21858834311891909 0.81980263716112767 0 0.19741632902693801 0.86755867406447229 0 0.17777405986036951 0.81832336108265358 0 0.54782696902220018 0.79245182748204157 0 0.50731287292894423 0.78963574450233831 0 0.50945740445113552 0.75476055527778108 0 0.20000000000083221 1 0 0.18474005699953849 0.96231585248064622 0 0.22850979588452081 0.95594428570238643 0 0.19999999999955789 0 0 0.22668068146512929 0.045875643423131329 0 0.184418230509967 0.038773194583122873 0 0.77846603114747959 0.49850927265137401 0 0.73947346780852752 0.49062440112282169 0 0.77972660463949339 0.45529290596363098 0 0.73483647259922602 0.44789725365921768 0 0.77972660463949339 0.45529290596363098 0 0.73947346780852752 0.49062440112282169 0 0.34258405725730701 0.4444034294386992 0 0.35024835142131061 0.48654922671676981 0 0.31068898841644388 0.47541502461811092 0 0.33123028043633618 0.77629643437932982 0 0.2792923945214143 0.77665808831789485 0 0.29904318922293632 0.74132814928635593 0 0.26573297623774761 0.59828298563722948 0 0.25115337790845271 0.54719303014923271 0 0.29110487519241501 0.56588143995431495 0 0.4656888918609538 0.78493261229743638 0 0.50945740445113552 0.75476055527778108 0 0.50731287292894423 0.78963574450233831 0 0.35312867752657662 0.084946736076730367 0 0.36246644853392812 0.1399454205365751 0 0.32215584939770009 0.1218492143506909 0 0.29348325746214782 0.31350119524708198 0 0.25966125648670141 0.34351016742083729 0 0.24432083401701241 0.3006253385567515 0 0.59999999999999976 0.69999999999999996 0 0.6499999999999998 0.69999999999999996 0 0.63221990677827677 0.73442891067859706 0 0.69999999999921003 0 0 0.7010294155333181 0.056779085686491267 0 0.66369801598854572 0.036327466368102787 0 0.40000000000166441 1 0 0.35000000000145642 1 0 0.36184234618600131 0.96443954459096326 0 0.34999999999912063 0 0 0.3999999999989749 0 0 0.3615861437013822 0.03582617922508851 0 0.43507373378304309 0.49699695397193322 0 0.47793794143994173 0.52940715638744962 0 0.42644501560315817 0.54603747078095544 0 0.14474682429600511 0.85524784522713515 0 0.19741632902693801 0.86755867406447229 0 0.16206583317966519 0.89685560785156404 0 0.19901705110390991 0.9175543425573498 0 0.16206583317966519 0.89685560785156404 0 0.19741632902693801 0.86755867406447229 0 0.35864735590330371 0.63903383440414463 0 0.3977710372045391 0.65868194622830212 0 0.36622285152418499 0.69092437780804039 0 0.7527966693318906 0.053051678021508272 0 0.7010294155333181 0.056779085686491267 0 0.72683645290270404 0.027797073151180601 0 0.71508799138962864 0.36622814920737751 0 0.72622533758026719 0.40265885511101601 0 0.68128176404677243 0.38629093627004979 0 0.79999999999999982 0.69999999999999996 0 0.84999999999999987 0.69999999999999996 0 0.81864958914779962 0.73589050177899629 0 0.79999999999947335 0 0 0.84999999999960507 0 0 0.81864958914740749 0.035890501779055867 0 0.39536230704883951 0.84069429572832477 0 0.35642984951668422 0.80994399665655703 0 0.38586766253264881 0.78219501014812498 0 0.42377727103934271 0.25099357235810238 0 0.46429753744194407 0.22870891180733599 0 0.4604742573284204 0.27846934318264788 0 0.39801143831225599 0.16651381068160659 0 0.42905200079338551 0.19982395548231649 0 0.38831533174504851 0.2189834941785925 0 0.79999999999999982 1 0 0.770759834363826 0.95919399014344442 0 0.81486180804382891 0.96321394949790495 0 0.79999999999999982 0.29999999999999999 0 0.77075983436335049 0.25919399014334171 0 0.81486180804364938 0.26321394949780091 0 0.25195515620380449 0.25883339815888678 0 0.21049769590865089 0.26857363548218488 0 0.224700362040408 0.22206622194729711 0 0.40326160981139969 0.73346192995102844 0 0.42676259796334498 0.76772545931379299 0 0.38586766253264881 0.78219501014812498 0 0.35312867752657662 0.084946736076730367 0 0.3096713403101819 0.085471541595262421 0 0.32541448401678508 0.046215317981507749 0 0.59999999999999976 0.29999999999999999 0 0.6499999999999998 0.29999999999999999 0 0.61959173890754571 0.33832250091341232 0 0.2185883431182947 0.18019736283949719 0 0.18652628422869419 0.14162325200928061 0 0.22985637510995899 0.1298347970200906 0 0.64999999999907843 0 0 0.69999999999921003 0 0 0.66369801598854572 0.036327466368102787 0 0.27499999999933927 0.060310814194988557 0 0.24218496799700481 0.089025544070598317 0 0.22668068146512929 0.045875643423131329 0 0.19922788606653311 0.085920220746880993 0 0.22668068146512929 0.045875643423131329 0 0.24218496799700481 0.089025544070598317 0 0.65507451745379841 0.92229208810758578 0 0.66412543161245952 0.88015090885499059 0 0.68987011941058407 0.92105047536677087 0 0.049706944316475897 0.72477277076253799 0 0.090953281884486245 0.7564451946902494 0 0.04408157711937423 0.7728941757575627 0 0.083105206071452636 0.79992298667296435 0 0.04408157711937423 0.7728941757575627 0 0.090953281884486245 0.7564451946902494 0 0.083105206071467416 0.20007701332709979 0 0.095326043202144745 0.24554465089224409 0 0.044081577119474857 0.2271058242433576 0 0.049706944316556423 0.27522722923869108 0 0.044081577119474857 0.2271058242433576 0 0.095326043202144745 0.24554465089224409 0 0.36575549820117997 0.31677992835137742 0 0.33402499257867951 0.28911035184473982 0 0.3786248352540974 0.27082301512024259 0 0.53245488764484505 0.55078124999999989 0 0.53330375813596242 0.50827942741749099 0 0.57435499076887508 0.54267261987897775 0 0.57611405284611883 0.50165903596042916 0 0.57435499076887508 0.54267261987897775 0 0.53330375813596242 0.50827942741749099 0 0.6499999999999998 0.29999999999999999 0 0.69999999999999984 0.29999999999999999 0 0.68887083591306764 0.33632058575757479 0 0.57611405284611883 0.50165903596042916 0 0.53823865529665704 0.45873898050322898 0 0.57975577671020095 0.46172033326338591 0 0.7750489929959945 0.66593931409600093 0 0.72500000000000064 0.67022701834392062 0 0.74994237037456724 0.62775548192980357 0 0.78145581580700685 0.34881365920033602 0 0.74764719760526988 0.3719647154012321 0 0.73090396928863699 0.33699297293167962 0 0.3999999999989749 0 0 0.44999999999882923 0 0 0.4320097814748517 0.037406712692169303 0 0.45000000000187229 1 0 0.40000000000166441 1 0 0.4308986359464303 0.96395712492906194 0 0.57484956128872922 0.66573805030881994 0 0.5991018319127801 0.62925360607495295 0 0.62460753523532009 0.66851202781000296 0 0.7750489929959945 0.66593931409600093 0 0.79884539758237771 0.62875045078114233 0 0.82457059160610424 0.66831947184359608 0 0.39801143831225599 0.16651381068160659 0 0.36246644853392812 0.1399454205365751 0 0.39823268594401579 0.1116623613130045 0 0.078358742472063481 0.43365249433908948 0 0.033550201249889847 0.46247875832467239 0 0.035463093262830522 0.42673416072819947 0 0.25676291524611189 0.7436741304886243 0 0.2792923945214143 0.77665808831789485 0 0.22556077506376701 0.77837424984191617 0 0.2236846579037573 0.67380363126050236 0 0.2248999640082178 0.72584299459689172 0 0.19068556247388771 0.71028988922845504 0 0.50715858906372158 0.63295939104129484 0 0.5166924242153631 0.59825134841919447 0 0.5498280205245758 0.6290146943450976 0 0.14618258501891079 0.062070108745602003 0 0.12372429750337779 0.095814237875728972 0 0.10266856499169109 0.044518360900210059 0 0.083411279318303222 0.089699755330707398 0 0.10266856499169109 0.044518360900210059 0 0.12372429750337779 0.095814237875728972 0 0.083411279318375747 0.91030024466934134 0 0.1241151115713819 0.9045666525468371 0 0.10266856499240549 0.95548163909968886 0 0.14617343800780541 0.93808063414349496 0 0.10266856499240549 0.95548163909968886 0 0.1241151115713819 0.9045666525468371 0 0.5499999999988151 0 0 0.59999999999894682 0 0 0.57396793757665954 0.037011367187645222 0 0.54782696902220018 0.79245182748204157 0 0.50627822638148745 0.8263979829520941 0 0.50731287292894423 0.78963574450233831 0 0.6499999999999998 0.29999999999999999 0 0.62657463266645097 0.26524202571255862 0 0.67933712972090698 0.25920070958121938 0 0.86956835336234861 0.571283299838105 0 0.86907294890112186 0.52008116128001669 0 0.90900154012161016 0.53607784105648792 0 0.17933913398461551 0.2350063570234002 0 0.224700362040408 0.22206622194729711 0 0.21049769590865089 0.26857363548218488 0 0.43249999999999988 0.43937499999999979 0 0.3908716102680424 0.47010282357248828 0 0.38707855792647411 0.42299362914874578 0 0.27474541102162192 0.11822029332053539 0 0.22985637510995899 0.1298347970200906 0 0.24218496799700481 0.089025544070598317 0 0.64753070846764316 0.77332939069435502 0 0.66427993341343905 0.73232764502436276 0 0.6916490518212759 0.75387992374886192 0 0 0.40000000000166441 0 0.050583896093752537 0.38543522283434112 0 0.035463093262830522 0.42673416072819947 0 0.73483647259922602 0.44789725365921768 0 0.73947346780852752 0.49062440112282169 0 0.69385896817107129 0.48377516041410151 0 0.57484956128872922 0.66573805030881994 0 0.52584555706968406 0.66664215091846768 0 0.5498280205245758 0.6290146943450976 0 0.60000000000138687 1 0 0.55000000000173355 1 0 0.57382506491224949 0.9629411906298494 0 0.068743045408989428 0.48853989837882689 0 0.085622222639554768 0.53333248912060549 0 0.044576108720083309 0.53509043209532614 0 0.083105206071467416 0.20007701332709979 0 0.044081577119474857 0.2271058242433576 0 0.038512288486115001 0.1844147282893184 0 0.083105206071452636 0.79992298667296435 0 0.038512288486097702 0.8155852717111195 0 0.04408157711937423 0.7728941757575627 0 0.28307294598219601 0.50789252727458634 0 0.23975172658309729 0.49475499200540818 0 0.25982634974572738 0.46097799597715272 0 0.43698630808430822 0.080423614171545449 0 0.39591832466117061 0.056982757562006353 0 0.4320097814748517 0.037406712692169303 0 0.4367309254023824 0.92065556789053882 0 0.4308986359464303 0.96395712492906194 0 0.39641108128798319 0.94356127926187128 0 0.80185942888539485 0.77452061303608133 0 0.75841349681148107 0.75422312624214749 0 0.78578450296893509 0.73292684821144505 0 0.80185942888501827 0.074520613036224564 0 0.7527966693318906 0.053051678021508272 0 0.78393852574753176 0.032039079577822822 0 0.6499999999999998 0.69999999999999996 0 0.62460753523532009 0.66851202781000296 0 0.675261390228442 0.65996937624687813 0 0.33123028043633618 0.77629643437932982 0 0.38586766253264881 0.78219501014812498 0 0.35642984951668422 0.80994399665655703 0 0.6405463747586706 0.63290524857395714 0 0.675261390228442 0.65996937624687813 0 0.62460753523532009 0.66851202781000296 0 0.22278230690790279 0.44824268025881547 0 0.191953871957803 0.42546416763755879 0 0.24049127783545701 0.41270748208749802 0 0.077693244765132896 0.56932317963405099 0 0.050069554451969707 0.61308520079857043 0 0.034381862692950467 0.57372682250960894 0 0.25195515620380449 0.25883339815888678 0 0.24432083401701241 0.3006253385567515 0 0.21049769590865089 0.26857363548218488 0 0.46666084890304671 0.57634471035397938 0 0.5166924242153631 0.59825134841919447 0 0.47095389620662098 0.61892551373708504 0 0.50715858906372158 0.63295939104129484 0 0.47095389620662098 0.61892551373708504 0 0.5166924242153631 0.59825134841919447 0 0.72525833953073282 0.1032114801687094 0 0.7527966693318906 0.053051678021508272 0 0.76878382444651716 0.097147941686331368 0 0.80185942888501827 0.074520613036224564 0 0.76878382444651716 0.097147941686331368 0 0.7527966693318906 0.053051678021508272 0 0.72500000000000064 0.7952620967744265 0 0.75841349681148107 0.75422312624214749 0 0.77094201086366854 0.79647480515688507 0 0.80185942888539485 0.77452061303608133 0 0.77094201086366854 0.79647480515688507 0 0.75841349681148107 0.75422312624214749 0 0.72500000000000064 0.7952620967744265 0 0.68024162096458085 0.79868546898116533 0 0.6916490518212759 0.75387992374886192 0 0.64753070846764316 0.77332939069435502 0 0.6916490518212759 0.75387992374886192 0 0.68024162096458085 0.79868546898116533 0 0 0.50000000000205869 0 0 0.45000000000187229 0 0.033550201249889847 0.46247875832467239 0 0.69999999999999984 0.69999999999999996 0 0.675261390228442 0.65996937624687813 0 0.72500000000000064 0.67022701834392062 0 0.71406021706547751 0.63292083137662503 0 0.72500000000000064 0.67022701834392062 0 0.675261390228442 0.65996937624687813 0 0.65408113592120842 0.073941773121567966 0 0.61940220174112337 0.047251958781050582 0 0.66369801598854572 0.036327466368102787 0 0.59999999999894682 0 0 0.61940220174112337 0.047251958781050582 0 0.57396793757665954 0.037011367187645222 0 0.60000000000138687 1 0 0.57382506491224949 0.9629411906298494 0 0.62065498684670595 0.95224934003983619 0 0.33122374654748771 0.57588941099433744 0 0.35765792684946668 0.6000687869219653 0 0.31502927232353312 0.6134992213375432 0 0.35864735590330371 0.63903383440414463 0 0.31502927232353312 0.6134992213375432 0 0.35765792684946668 0.6000687869219653 0 0.15801167086041079 0.46008690540259539 0 0.19604738184454831 0.47787523520405789 0 0.16618607197337229 0.50652878253548905 0 0.078358742472063481 0.43365249433908948 0 0.035463093262830522 0.42673416072819947 0 0.050583896093752537 0.38543522283434112 0 0.19901705110390991 0.9175543425573498 0 0.22850979588452081 0.95594428570238643 0 0.18474005699953849 0.96231585248064622 0 0.19922788606653311 0.085920220746880993 0 0.184418230509967 0.038773194583122873 0 0.22668068146512929 0.045875643423131329 0 0.19922788606653311 0.085920220746880993 0 0.24218496799700481 0.089025544070598317 0 0.22985637510995899 0.1298347970200906 0 0.74999999999999989 0.69999999999999996 0 0.78578450296893509 0.73292684821144505 0 0.75841349681148107 0.75422312624214749 0 0.74999999999934175 0 0 0.78393852574753176 0.032039079577822822 0 0.7527966693318906 0.053051678021508272 0 0 0.60000000000138687 0 0.034381862692950467 0.57372682250960894 0 0.050069554451969707 0.61308520079857043 0 0.2236846579037573 0.67380363126050236 0 0.26439878998046262 0.7048065392091396 0 0.2248999640082178 0.72584299459689172 0 0.6236733212988993 0.14864538214901801 0 0.58516465772821369 0.11653801664834119 0 0.61956000905586006 0.1043312481793135 0 0.26104540868854792 0.81401944968719064 0 0.2792923945214143 0.77665808831789485 0 0.30857225866488791 0.81101973481716805 0 0.42377727103934271 0.25099357235810238 0 0.42905200079338551 0.19982395548231649 0 0.46429753744194407 0.22870891180733599 0 0.27820712747429932 0.65530134213254643 0 0.31502927232353312 0.6134992213375432 0 0.32263089806001177 0.66003674931826484 0 0.61343887413683884 0.856862479058357 0 0.61885627562261258 0.90282959257498208 0 0.5832743223239254 0.88483152652961872 0 0.43698630808430822 0.080423614171545449 0 0.47040171442036788 0.044141676406503738 0 0.47881186583059909 0.093591717165689425 0 0.4367309254023824 0.92065556789053882 0 0.47401147028110507 0.91529957330468115 0 0.47135117303824892 0.95556877749289892 0 0.91696753777131557 0.497780560203536 0 0.95631871884947484 0.51827533208233789 0 0.90900154012161016 0.53607784105648792 0 0.93732437411268477 0.55911392101136159 0 0.90900154012161016 0.53607784105648792 0 0.95631871884947484 0.51827533208233789 0 0.27474541102162192 0.11822029332053539 0 0.25557216766470708 0.15874861286892261 0 0.22985637510995899 0.1298347970200906 0 0.2185883431182947 0.18019736283949719 0 0.22985637510995899 0.1298347970200906 0 0.25557216766470708 0.15874861286892261 0 0.29348325746214782 0.31350119524708198 0 0.33402499257867951 0.28911035184473982 0 0.32752639306529541 0.32610012995269699 0 0.27499999999933927 0.060310814194988557 0 0.32541448401678508 0.046215317981507749 0 0.3096713403101819 0.085471541595262421 0 0.27270076654418179 0.87751467830216623 0 0.24536017905392571 0.90704567837671446 0 0.2401283238295133 0.85648409884788523 0 1 0.44999999999963131 0 1 0.49999999999950101 0 0.96228564064454991 0.48206450662049471 0 0.61343887413683884 0.856862479058357 0 0.66412543161245952 0.88015090885499059 0 0.61885627562261258 0.90282959257498208 0 0 0.45000000000187229 0 0 0.40000000000166441 0 0.035463093262830522 0.42673416072819947 0 0.69999999999999984 0.69999999999999996 0 0.6916490518212759 0.75387992374886192 0 0.66427993341343905 0.73232764502436276 0 0.43846182030517877 0.64845797726506715 0 0.43323420005758778 0.6913544522562407 0 0.3977710372045391 0.65868194622830212 0 0.4367309254023824 0.92065556789053882 0 0.44003836461056539 0.88093474584252718 0 0.47401147028110507 0.91529957330468115 0 0.43846182030517877 0.64845797726506715 0 0.39743091024207589 0.6239520004230239 0 0.43545892161006339 0.61093128915313821 0 0.43846182030517877 0.64845797726506715 0 0.3977710372045391 0.65868194622830212 0 0.39743091024207589 0.6239520004230239 0 0.26429849586623999 0.19346700179430079 0 0.29336099386129338 0.15892013001050981 0 0.31255190597181792 0.19850845631528771 0 0.19670163708476801 0.31472518408333222 0 0.21049769590865089 0.26857363548218488 0 0.24432083401701241 0.3006253385567515 0 0.57724883562309992 0.92155686857100794 0 0.62065498684670595 0.95224934003983619 0 0.57382506491224949 0.9629411906298494 0 0.4409427642593301 0.35743108089689513 0 0.46655310992796922 0.39650496622958609 0 0.42161023666869668 0.39493916313643851 0 0.46666084890304671 0.57634471035397938 0 0.47095389620662098 0.61892551373708504 0 0.43545892161006339 0.61093128915313821 0 0.6879972333610942 0.43038561374960838 0 0.65178832218679827 0.45929119821019959 0 0.63912439215427275 0.41063340167983359 0 0.43698630808430822 0.080423614171545449 0 0.4320097814748517 0.037406712692169303 0 0.47040171442036788 0.044141676406503738 0 0.4367309254023824 0.92065556789053882 0 0.47135117303824892 0.95556877749289892 0 0.4308986359464303 0.96395712492906194 0 0.79680861578988083 0.92656778056766709 0 0.81486180804382891 0.96321394949790495 0 0.770759834363826 0.95919399014344442 0 0.79680861578956375 0.22656778056752541 0 0.81486180804364938 0.26321394949780091 0 0.77075983436335049 0.25919399014334171 0 0.71508799138962864 0.36622814920737751 0 0.68128176404677243 0.38629093627004979 0 0.68887083591306764 0.33632058575757479 0 0.35864735590330371 0.63903383440414463 0 0.32263089806001177 0.66003674931826484 0 0.31502927232353312 0.6134992213375432 0 0.21858834311891909 0.81980263716112767 0 0.2401283238295133 0.85648409884788523 0 0.19741632902693801 0.86755867406447229 0 0.35312867752657662 0.084946736076730367 0 0.32215584939770009 0.1218492143506909 0 0.3096713403101819 0.085471541595262421 0 0.35752321586431363 0.9185439911803448 0 0.35864759629805099 0.87963482415279515 0 0.39767323751400468 0.89584229130535065 0 0.41914690343363781 0.30688979866601612 0 0.4604742573284204 0.27846934318264788 0 0.46226845272279993 0.31901800744800313 0 0.33084213324567391 0.16272720141332131 0 0.32215584939770009 0.1218492143506909 0 0.36246644853392812 0.1399454205365751 0 0.46666084890304671 0.57634471035397938 0 0.42644501560315817 0.54603747078095544 0 0.47793794143994173 0.52940715638744962 0 0 0.60000000000138687 0 0 0.55000000000173355 0 0.034381862692950467 0.57372682250960894 0 0.77354604466818633 0.40378688774472771 0 0.74764719760526988 0.3719647154012321 0 0.78145581580700685 0.34881365920033602 0 0.34999999999912063 0 0 0.3615861437013822 0.03582617922508851 0 0.32541448401678508 0.046215317981507749 0 0.35000000000145642 1 0 0.32544832635163229 0.95485394099568932 0 0.36184234618600131 0.96443954459096326 0 0.57667858002728545 0.078486105337742612 0 0.57396793757665954 0.037011367187645222 0 0.61940220174112337 0.047251958781050582 0 0.47357141910802508 0.1873585799078378 0 0.50760557329222289 0.20700468884612061 0 0.46429753744194407 0.22870891180733599 0 0.49695729691142171 0.25014895411178018 0 0.46429753744194407 0.22870891180733599 0 0.50760557329222289 0.20700468884612061 0 0.33084213324567391 0.16272720141332131 0 0.3572130504031617 0.1874703368446563 0 0.31255190597181792 0.19850845631528771 0 0.6879972333610942 0.43038561374960838 0 0.63912439215427275 0.41063340167983359 0 0.68128176404677243 0.38629093627004979 0 0.65408113592120842 0.073941773121567966 0 0.65290632656860115 0.11434202593454081 0 0.61956000905586006 0.1043312481793135 0 0.33084213324567391 0.16272720141332131 0 0.31255190597181792 0.19850845631528771 0 0.29336099386129338 0.15892013001050981 0 0.61209567303293111 0.44669033081290321 0 0.63912439215427275 0.41063340167983359 0 0.65178832218679827 0.45929119821019959 0 0.086179601630648681 0.64647209519980475 0 0.1024350934457823 0.60772393977513839 0 0.1241190223511371 0.64391885572885044 0 0.44999999999882923 0 0 0.47040171442036788 0.044141676406503738 0 0.4320097814748517 0.037406712692169303 0 0.45000000000187229 1 0 0.4308986359464303 0.96395712492906194 0 0.47135117303824892 0.95556877749289892 0 0.74999999999934175 0 0 0.7527966693318906 0.053051678021508272 0 0.72683645290270404 0.027797073151180601 0 0.74999999999999989 0.69999999999999996 0 0.75841349681148107 0.75422312624214749 0 0.72501250972655151 0.74067302935308721 0 0.69999999999999984 0.69999999999999996 0 0.72501250972655151 0.74067302935308721 0 0.6916490518212759 0.75387992374886192 0 0.74999999999934175 0 0 0.79999999999947335 0 0 0.78393852574753176 0.032039079577822822 0 0.74999999999999989 0.69999999999999996 0 0.79999999999999982 0.69999999999999996 0 0.78578450296893509 0.73292684821144505 0 0.6405463747586706 0.63290524857395714 0 0.5991018319127801 0.62925360607495295 0 0.63065402604362242 0.59661356661633302 0 0.65481233915350323 0.35652751921065562 0 0.68887083591306764 0.33632058575757479 0 0.68128176404677243 0.38629093627004979 0 0.89999999999999991 0.29999999999999999 0 0.94999999999999996 0.29999999999999999 0 0.92012390126144183 0.33123581297173937 0 0.89999999999999991 0.69999999999999996 0 0.92057473616084773 0.66770436535372446 0 0.94999999999999996 0.69999999999999996 0 0.4367309254023824 0.92065556789053882 0 0.39767323751400468 0.89584229130535065 0 0.44003836461056539 0.88093474584252718 0 0.2185883431182947 0.18019736283949719 0 0.18124454140915969 0.18790916706335251 0 0.18652628422869419 0.14162325200928061 0 0.20050006573841939 0.53248514016039872 0 0.19604738184454831 0.47787523520405789 0 0.23975172658309729 0.49475499200540818 0 0.65507451745379841 0.92229208810758578 0 0.61885627562261258 0.90282959257498208 0 0.66412543161245952 0.88015090885499059 0 0.65394964615507722 0.22666784374016369 0 0.67933712972090698 0.25920070958121938 0 0.62657463266645097 0.26524202571255862 0 0.077693244765132896 0.56932317963405099 0 0.034381862692950467 0.57372682250960894 0 0.044576108720083309 0.53509043209532614 0 0.39801143831225599 0.16651381068160659 0 0.38831533174504851 0.2189834941785925 0 0.3572130504031617 0.1874703368446563 0 0.6499999999999998 0.69999999999999996 0 0.69999999999999984 0.69999999999999996 0 0.66427993341343905 0.73232764502436276 0 0.1215415378367805 0.72939333680004137 0 0.15332765547575641 0.71200081858233666 0 0.14335651144331049 0.75565258250209677 0 0.6405463747586706 0.63290524857395714 0 0.63065402604362242 0.59661356661633302 0 0.67529834988829951 0.61613270668143583 0 0.67323294229744413 0.57556450033612505 0 0.67529834988829951 0.61613270668143583 0 0.63065402604362242 0.59661356661633302 0 0.91750694127107502 0.36982372220068471 0 0.87430060258887643 0.34056085888204451 0 0.92012390126144183 0.33123581297173937 0 0.89999999999999991 0.29999999999999999 0 0.92012390126144183 0.33123581297173937 0 0.87430060258887643 0.34056085888204451 0 0.89999999999999991 0.69999999999999996 0 0.87712158428786946 0.65709029563313581 0 0.92057473616084773 0.66770436535372446 0 0.91750694127105259 0.63017627779935648 0 0.92057473616084773 0.66770436535372446 0 0.87712158428786946 0.65709029563313581 0 0.33122374654748771 0.57588941099433744 0 0.29110487519241501 0.56588143995431495 0 0.33190227185843768 0.52715113583864037 0 0.57484956128872922 0.66573805030881994 0 0.5498280205245758 0.6290146943450976 0 0.5991018319127801 0.62925360607495295 0 0.57412547362576272 0.58273804879550706 0 0.5991018319127801 0.62925360607495295 0 0.5498280205245758 0.6290146943450976 0 0.65408113592120842 0.073941773121567966 0 0.66369801598854572 0.036327466368102787 0 0.7010294155333181 0.056779085686491267 0 0.27474541102162192 0.11822029332053539 0 0.32215584939770009 0.1218492143506909 0 0.29336099386129338 0.15892013001050981 0 0.33084213324567391 0.16272720141332131 0 0.29336099386129338 0.15892013001050981 0 0.32215584939770009 0.1218492143506909 0 0.5 0.29999999999999999 0 0.54999999999999993 0.29999999999999999 0 0.52752007115234678 0.33170632466418198 0 0.83573492347052902 0.36590755630746369 0 0.87430060258887643 0.34056085888204451 0 0.86844634540301924 0.38530937474099819 0 0.83758014339878906 0.63222013025741819 0 0.87159648282691515 0.61285406320581504 0 0.87712158428786946 0.65709029563313581 0 0.22278230690790279 0.44824268025881547 0 0.23975172658309729 0.49475499200540818 0 0.19604738184454831 0.47787523520405789 0 1 0.49999999999950101 0 0.95631871884947484 0.51827533208233789 0 0.96228564064454991 0.48206450662049471 0 0.1650278706801647 0.38791388161335733 0 0.13773355295499351 0.42497777642586831 0 0.1117088112799664 0.38831403004970022 0 0.61209567303293111 0.44669033081290321 0 0.57975577671020095 0.46172033326338591 0 0.57744073070774993 0.41535148636609359 0 0.077693244765132896 0.56932317963405099 0 0.1154888278694548 0.56733818459978413 0 0.1024350934457823 0.60772393977513839 0 0.68697391633157634 0.84450604838764298 0 0.65005442820240822 0.82644988530054031 0 0.68024162096458085 0.79868546898116533 0 0.76901770135486491 0.84293557325473656 0 0.77094201086366854 0.79647480515688507 0 0.80041942726660109 0.81543261647703358 0 0.77144070960558853 0.14311854477243749 0 0.76878382444651716 0.097147941686331368 0 0.80076557130237269 0.1154587552654202 0 0.5 0.69999999999999996 0 0.52584555706968406 0.66664215091846768 0 0.54999999999999993 0.69999999999999996 0 0.077693244765132896 0.56932317963405099 0 0.044576108720083309 0.53509043209532614 0 0.085622222639554768 0.53333248912060549 0 0.69999999999921003 0 0 0.72683645290270404 0.027797073151180601 0 0.7010294155333181 0.056779085686491267 0 1 0 0 0.97166519676946894 0.033371144900598393 0 0.94999999999986839 0 0 1 0.69999999999999996 0 0.97166519676947294 0.73337114490064459 0 0.94999999999999996 0.69999999999999996 0 1 0.69999999999999996 0 1 0.74999999999993494 0 0.97166519676947294 0.73337114490064459 0 1 0.29999999999999999 0 0.97166519676951801 0.26662885509932011 0 1 0.24999999999987299 0 1 1 0 0.94999999999979179 1 0 0.97166519676946206 0.96662885509935492 0 1 0 0 1 0.049999999999896842 0 0.97166519676946894 0.033371144900598393 0 1 0.29999999999999999 0 0.94999999999999996 0.29999999999999999 0 0.97166519676951801 0.26662885509932011 0 1 1 0 0.97166519676946206 0.96662885509935492 0 1 0.94999999999997109 0 0 0.55000000000173355 0 0.044576108720083309 0.53509043209532614 0 0.034381862692950467 0.57372682250960894 0 0.6879972333610942 0.43038561374960838 0 0.69385896817107129 0.48377516041410151 0 0.65178832218679827 0.45929119821019959 0 0.33084213324567391 0.16272720141332131 0 0.36246644853392812 0.1399454205365751 0 0.3572130504031617 0.1874703368446563 0 0.65408113592120842 0.073941773121567966 0 0.68330259535470161 0.10038702501083881 0 0.65290632656860115 0.11434202593454081 0 0.16500388252850301 0.66612077714085194 0 0.19068556247388771 0.71028988922845504 0 0.15332765547575641 0.71200081858233666 0 0.82709327591091286 0.84937141670920724 0 0.85600844944837662 0.88483418979512773 0 0.81159157511211755 0.88795995483179491 0 0.82709327591102189 0.14937141670914489 0 0.85600844944842547 0.1848341897950983 0 0.81283102246527783 0.1881007222486438 0 0.79999999999999982 0.29999999999999999 0 0.84999999999999987 0.29999999999999999 0 0.82500000000000062 0.33010209762754811 0 0.79999999999999982 0.69999999999999996 0 0.82457059160610424 0.66831947184359608 0 0.84999999999999987 0.69999999999999996 0 0.59999999999999976 0.69999999999999996 0 0.62460753523532009 0.66851202781000296 0 0.6499999999999998 0.69999999999999996 0 0.39801143831225599 0.16651381068160659 0 0.3572130504031617 0.1874703368446563 0 0.36246644853392812 0.1399454205365751 0 0.69999999999999984 0.29999999999999999 0 0.74999999999999989 0.29999999999999999 0 0.73090396928863699 0.33699297293167962 0 0.69999999999999984 0.69999999999999996 0 0.72500000000000064 0.67022701834392062 0 0.74999999999999989 0.69999999999999996 0 0.6236733212988993 0.14864538214901801 0 0.64011864159029941 0.18789607982138171 0 0.59443395090188023 0.18455690917515069 0 0.20050006573841939 0.53248514016039872 0 0.16618607197337229 0.50652878253548905 0 0.19604738184454831 0.47787523520405789 0 0.79680861578956375 0.22656778056752541 0 0.76587607630038135 0.18880039518954719 0 0.81283102246527783 0.1881007222486438 0 0.79680861578988083 0.92656778056766709 0 0.76891166905518427 0.88835469571185499 0 0.81159157511211755 0.88795995483179491 0 0.71406021706547751 0.63292083137662503 0 0.675261390228442 0.65996937624687813 0 0.67529834988829951 0.61613270668143583 0 0.6405463747586706 0.63290524857395714 0 0.67529834988829951 0.61613270668143583 0 0.675261390228442 0.65996937624687813 0 0.19670163708476801 0.31472518408333222 0 0.168349569971391 0.28054490850913671 0 0.21049769590865089 0.26857363548218488 0 0.47357141910802508 0.1873585799078378 0 0.46429753744194407 0.22870891180733599 0 0.42905200079338551 0.19982395548231649 0 0.59814117807200873 0.23398510860739519 0 0.5794309697024993 0.27124795968204829 0 0.54248833945060504 0.2520322959927106 0 0.6541250972820879 0.49999999999999989 0 0.65178832218679827 0.45929119821019959 0 0.69385896817107129 0.48377516041410151 0 0.54999999999999993 0.29999999999999999 0 0.5794309697024993 0.27124795968204829 0 0.59999999999999976 0.29999999999999999 0 0.7750489929959945 0.66593931409600093 0 0.74994237037456724 0.62775548192980357 0 0.79884539758237771 0.62875045078114233 0 0.77293540622714185 0.59448302402785813 0 0.79884539758237771 0.62875045078114233 0 0.74994237037456724 0.62775548192980357 0 0.14332333627550789 0.14578431753966009 0 0.16141998738593399 0.10404039647458049 0 0.18652628422869419 0.14162325200928061 0 0.38083244760691543 0.38531983672244652 0 0.42161023666869668 0.39493916313643851 0 0.38707855792647411 0.42299362914874578 0 0.43249999999999988 0.43937499999999979 0 0.38707855792647411 0.42299362914874578 0 0.42161023666869668 0.39493916313643851 0 0.43846182030517877 0.64845797726506715 0 0.47095389620662098 0.61892551373708504 0 0.47913475093885149 0.66010775372412711 0 0.50715858906372158 0.63295939104129484 0 0.47913475093885149 0.66010775372412711 0 0.47095389620662098 0.61892551373708504 0 0.69999999999999984 0.69999999999999996 0 0.74999999999999989 0.69999999999999996 0 0.72501250972655151 0.74067302935308721 0 0.4089290844030305 0.58728915500154233 0 0.35765792684946668 0.6000687869219653 0 0.37272913873093971 0.56192925302619479 0 0.69999999999921003 0 0 0.74999999999934175 0 0 0.72683645290270404 0.027797073151180601 0 0.17933913398461551 0.2350063570234002 0 0.21049769590865089 0.26857363548218488 0 0.168349569971391 0.28054490850913671 0 0.14474682429600511 0.85524784522713515 0 0.10562472963403439 0.87143394428979881 0 0.1074251789111534 0.83564394292147814 0 0.14332333627550789 0.14578431753966009 0 0.106902708054812 0.16453234188234539 0 0.1053400320299198 0.12877248826361379 0 0.2236846579037573 0.67380363126050236 0 0.19914261668318661 0.62286739485272158 0 0.2459498854893499 0.63248470766216769 0 0.049999999999899652 0 0 0.053064897599215843 0.048131547304697528 0 0.02576622439977887 0.024532886826226379 0 0 0.050000000000207989 0 0.02576622439977887 0.024532886826226379 0 0.053064897599215843 0.048131547304697528 0 0.050000000000207989 1 0 0.025766224399875661 0.97546711317377799 0 0.053064897599294662 0.95186845269532028 0 0 0.94999999999979179 0 0.053064897599294662 0.95186845269532028 0 0.025766224399875661 0.97546711317377799 0 0.47357141910802508 0.1873585799078378 0 0.48466639505193998 0.1421439844745814 0 0.51729576145820033 0.1683240575987815 0 0.077693244765132896 0.56932317963405099 0 0.085622222639554768 0.53333248912060549 0 0.1154888278694548 0.56733818459978413 0 0.64753070846764316 0.77332939069435502 0 0.63221990677827677 0.73442891067859706 0 0.66427993341343905 0.73232764502436276 0 0.4656888918609538 0.78493261229743638 0 0.42609163930740518 0.80361684430568059 0 0.42676259796334498 0.76772545931379299 0 0.4089290844030305 0.58728915500154233 0 0.39743091024207589 0.6239520004230239 0 0.35765792684946668 0.6000687869219653 0 0.55306006949600994 0.20198184231352201 0 0.50760557329222289 0.20700468884612061 0 0.51729576145820033 0.1683240575987815 0 1 0.8999999999998336 0 1 0.94999999999997109 0 0.97435614836744289 0.92499999999990257 0 1 0.19999999999974799 0 1 0.24999999999987299 0 0.97435614836740092 0.22499999999981049 0 1 0.74999999999993494 0 1 0.7999999999998193 0 0.97435614836745565 0.77499999999987745 0 1 0.049999999999896842 0 1 0.099999999999753911 0 0.97435614836748241 0.074999999999825387 0 0.86411095495256451 0.42388805655111889 0 0.86844634540301924 0.38530937474099819 0 0.90594285160987287 0.4141265964174129 0 0.86956835336234861 0.571283299838105 0 0.91143117093204207 0.58709913730335972 0 0.87159648282691515 0.61285406320581504 0 0 0 0 0.02576622439977887 0.024532886826226379 0 0 0.050000000000207989 0 0 1 0 0 0.94999999999979179 0 0.025766224399875661 0.97546711317377799 0 0 1 0 0.025766224399875661 0.97546711317377799 0 0.050000000000207989 1 0 0 0 0 0.049999999999899652 0 0 0.02576622439977887 0.024532886826226379 0 0.65394964615507722 0.22666784374016369 0 0.64011864159029941 0.18789607982138171 0 0.6865991819015953 0.189116534044597 0 0.25195515620380449 0.25883339815888678 0 0.28040350263641872 0.23054717217092141 0 0.29132859388405002 0.27203693976649962 0 0.61209567303293111 0.44669033081290321 0 0.65178832218679827 0.45929119821019959 0 0.61547661924074692 0.48539576058873962 0 0.6541250972820879 0.49999999999999989 0 0.61547661924074692 0.48539576058873962 0 0.65178832218679827 0.45929119821019959 0 0.19670163708476801 0.31472518408333222 0 0.24432083401701241 0.3006253385567515 0 0.22615676742807109 0.33458786033114157 0 0.15801167086041079 0.46008690540259539 0 0.13773355295499351 0.42497777642586831 0 0.191953871957803 0.42546416763755879 0 0.1650278706801647 0.38791388161335733 0 0.191953871957803 0.42546416763755879 0 0.13773355295499351 0.42497777642586831 0 0.50715858906372158 0.63295939104129484 0 0.52584555706968406 0.66664215091846768 0 0.47913475093885149 0.66010775372412711 0 0.5 0.69999999999999996 0 0.47913475093885149 0.66010775372412711 0 0.52584555706968406 0.66664215091846768 0 0.51076801031701946 0.1202837388510348 0 0.51729576145820033 0.1683240575987815 0 0.48466639505193998 0.1421439844745814 0 0.71406021706547751 0.63292083137662503 0 0.74994237037456724 0.62775548192980357 0 0.72500000000000064 0.67022701834392062 0 0.71508799138962864 0.36622814920737751 0 0.73090396928863699 0.33699297293167962 0 0.74764719760526988 0.3719647154012321 0 0.22278230690790279 0.44824268025881547 0 0.25982634974572738 0.46097799597715272 0 0.23975172658309729 0.49475499200540818 0 0.80185942888539485 0.77452061303608133 0 0.78578450296893509 0.73292684821144505 0 0.81864958914779962 0.73589050177899629 0 0.80185942888501827 0.074520613036224564 0 0.78393852574753176 0.032039079577822822 0 0.81864958914740749 0.035890501779055867 0 0.5 0.29999999999999999 0 0.46226845272279993 0.31901800744800313 0 0.4604742573284204 0.27846934318264788 0 0.6405463747586706 0.63290524857395714 0 0.62460753523532009 0.66851202781000296 0 0.5991018319127801 0.62925360607495295 0 0.79680861578988083 0.92656778056766709 0 0.770759834363826 0.95919399014344442 0 0.75729602384198635 0.92353652857884294 0 0.79680861578956375 0.22656778056752541 0 0.77075983436335049 0.25919399014334171 0 0.75668890529066124 0.2244279804069782 0 0.65394964615507722 0.22666784374016369 0 0.69397719155551807 0.2245125647000914 0 0.67933712972090698 0.25920070958121938 0 0.81973119833356312 0.43505687159469048 0 0.84925632466077294 0.45359738909549091 0 0.81400510706333218 0.47357325943904899 0 0.83758014339878906 0.63222013025741819 0 0.82457059160610424 0.66831947184359608 0 0.79884539758237771 0.62875045078114233 0 0.25676291524611189 0.7436741304886243 0 0.2248999640082178 0.72584299459689172 0 0.26439878998046262 0.7048065392091396 0 0.91696753777131557 0.497780560203536 0 0.90900154012161016 0.53607784105648792 0 0.86907294890112186 0.52008116128001669 0 0.17933913398461551 0.2350063570234002 0 0.168349569971391 0.28054490850913671 0 0.14377654328998779 0.2442024734791064 0 0.1247745017231483 0.27198077544791172 0 0.14377654328998779 0.2442024734791064 0 0.168349569971391 0.28054490850913671 0 0.34258405725730701 0.4444034294386992 0 0.35221190152536241 0.40457127605439203 0 0.38707855792647411 0.42299362914874578 0 0.47357141910802508 0.1873585799078378 0 0.51729576145820033 0.1683240575987815 0 0.50760557329222289 0.20700468884612061 0 0.19670163708476801 0.31472518408333222 0 0.22615676742807109 0.33458786033114157 0 0.18434624290945251 0.35208838264196463 0 0.22033343844674469 0.36963382230740238 0 0.18434624290945251 0.35208838264196463 0 0.22615676742807109 0.33458786033114157 0 0.24432083401701241 0.3006253385567515 0 0.25966125648670141 0.34351016742083729 0 0.22615676742807109 0.33458786033114157 0 0.93814194660195893 0.44426664081746747 0 0.90594285160987287 0.4141265964174129 0 0.95871855522754235 0.40006508612975411 0 0.91750694127107502 0.36982372220068471 0 0.95871855522754235 0.40006508612975411 0 0.90594285160987287 0.4141265964174129 0 0.91750694127105259 0.63017627779935648 0 0.91143117093204207 0.58709913730335972 0 0.95867599106212187 0.60011091146651041 0 0.93732437411268477 0.55911392101136159 0 0.95867599106212187 0.60011091146651041 0 0.91143117093204207 0.58709913730335972 0 0.50715858906372158 0.63295939104129484 0 0.5498280205245758 0.6290146943450976 0 0.52584555706968406 0.66664215091846768 0 0.94399509803918602 0.75600490196082126 0 0.97435614836745565 0.77499999999987745 0 0.95386563387742829 0.80414874155775029 0 0.94399509803922566 0.056004901960802607 0 0.97435614836748241 0.074999999999825387 0 0.95386563387744361 0.1041487415577465 0 0.94399509803921056 0.24399509803922639 0 0.95391631417672862 0.19584263333809451 0 0.97435614836740092 0.22499999999981049 0 0.94399509803919068 0.9439950980391687 0 0.95391631417670719 0.89584263333814784 0 0.97435614836744289 0.92499999999990257 0 0.79680861578988083 0.92656778056766709 0 0.75729602384198635 0.92353652857884294 0 0.76891166905518427 0.88835469571185499 0 0.79680861578956375 0.22656778056752541 0 0.75668890529066124 0.2244279804069782 0 0.76587607630038135 0.18880039518954719 0 0.65394964615507722 0.22666784374016369 0 0.6865991819015953 0.189116534044597 0 0.69397719155551807 0.2245125647000914 0 0.38083244760691543 0.38531983672244652 0 0.38707855792647411 0.42299362914874578 0 0.35221190152536241 0.40457127605439203 0 1 0.7999999999998193 0 0.95386563387742829 0.80414874155775029 0 0.97435614836745565 0.77499999999987745 0 1 0.099999999999753911 0 0.95386563387744361 0.1041487415577465 0 0.97435614836748241 0.074999999999825387 0 1 0.8999999999998336 0 0.97435614836744289 0.92499999999990257 0 0.95391631417670719 0.89584263333814784 0 1 0.19999999999974799 0 0.97435614836740092 0.22499999999981049 0 0.95391631417672862 0.19584263333809451 0 0.84723782639812573 0.48638347960178252 0 0.81400510706333218 0.47357325943904899 0 0.84925632466077294 0.45359738909549091 0 0.54999999999999993 0.29999999999999999 0 0.54248833945060504 0.2520322959927106 0 0.5794309697024993 0.27124795968204829 0 0.94999999999999996 0.29999999999999999 0 0.95780851984364423 0.34215720972155339 0 0.92012390126144183 0.33123581297173937 0 0.94999999999999996 0.69999999999999996 0 0.92057473616084773 0.66770436535372446 0 0.9578014258160763 0.65787212321113708 0 0.15801167086041079 0.46008690540259539 0 0.113541300460994 0.46208784312094731 0 0.13773355295499351 0.42497777642586831 0 0.7250000000005199 0.94981617647078953 0 0.68015064798562208 0.95924320340003011 0 0.68987011941058407 0.92105047536677087 0 0.65507451745379841 0.92229208810758578 0 0.68987011941058407 0.92105047536677087 0 0.68015064798562208 0.95924320340003011 0 0.77846603114747959 0.49850927265137401 0 0.77972660463949339 0.45529290596363098 0 0.81400510706333218 0.47357325943904899 0 0.27866744612395528 0.38416094670951489 0 0.25966125648670141 0.34351016742083729 0 0.29644548887253103 0.34914008784168082 0 0.61209567303293111 0.44669033081290321 0 0.61547661924074692 0.48539576058873962 0 0.57975577671020095 0.46172033326338591 0 0.57611405284611883 0.50165903596042916 0 0.57975577671020095 0.46172033326338591 0 0.61547661924074692 0.48539576058873962 0 0.7250000000005199 0.89375000000045834 0 0.76891166905518427 0.88835469571185499 0 0.75729602384198635 0.92353652857884294 0 0.72500000000001008 0.19776155966387679 0 0.76587607630038135 0.18880039518954719 0 0.75668890529066124 0.2244279804069782 0 0.72500000000001008 0.19776155966387679 0 0.69397719155551807 0.2245125647000914 0 0.6865991819015953 0.189116534044597 0 0.083411279318303222 0.089699755330707398 0 0.12372429750337779 0.095814237875728972 0 0.1053400320299198 0.12877248826361379 0 0.083411279318375747 0.91030024466934134 0 0.10562472963403439 0.87143394428979881 0 0.1241151115713819 0.9045666525468371 0 0.14617343800780541 0.93808063414349496 0 0.1241151115713819 0.9045666525468371 0 0.16206583317966519 0.89685560785156404 0 0.14618258501891079 0.062070108745602003 0 0.16141998738593399 0.10404039647458049 0 0.12372429750337779 0.095814237875728972 0 0.33277555741076909 0.36432196682010132 0 0.35221190152536241 0.40457127605439203 0 0.31778888742534622 0.40581751814196781 0 0.7250000000005199 0.94981617647078953 0 0.75729602384198635 0.92353652857884294 0 0.770759834363826 0.95919399014344442 0 0.72500000000000064 0.2498161764706 0 0.75668890529066124 0.2244279804069782 0 0.77075983436335049 0.25919399014334171 0 0.72500000000000064 0.2498161764706 0 0.67933712972090698 0.25920070958121938 0 0.69397719155551807 0.2245125647000914 0 0.6236733212988993 0.14864538214901801 0 0.61956000905586006 0.1043312481793135 0 0.65290632656860115 0.11434202593454081 0 0.81973119833356312 0.43505687159469048 0 0.81400510706333218 0.47357325943904899 0 0.77972660463949339 0.45529290596363098 0 0.25676291524611189 0.7436741304886243 0 0.29904318922293632 0.74132814928635593 0 0.2792923945214143 0.77665808831789485 0 0.36575549820117997 0.31677992835137742 0 0.32752639306529541 0.32610012995269699 0 0.33402499257867951 0.28911035184473982 0 0.14332333627550789 0.14578431753966009 0 0.18652628422869419 0.14162325200928061 0 0.18124454140915969 0.18790916706335251 0 0.57724883562309992 0.92155686857100794 0 0.5832743223239254 0.88483152652961872 0 0.61885627562261258 0.90282959257498208 0 0.57667858002728545 0.078486105337742612 0 0.61956000905586006 0.1043312481793135 0 0.58516465772821369 0.11653801664834119 0 0.80185942888539485 0.77452061303608133 0 0.80041942726660109 0.81543261647703358 0 0.77094201086366854 0.79647480515688507 0 0.80185942888501827 0.074520613036224564 0 0.80076557130237269 0.1154587552654202 0 0.76878382444651716 0.097147941686331368 0 0.64753070846764316 0.77332939069435502 0 0.68024162096458085 0.79868546898116533 0 0.65005442820240822 0.82644988530054031 0 0.26429849586623999 0.19346700179430079 0 0.25557216766470708 0.15874861286892261 0 0.29336099386129338 0.15892013001050981 0 0.29348325746214782 0.31350119524708198 0 0.29644548887253103 0.34914008784168082 0 0.25966125648670141 0.34351016742083729 0 0.68391457121233579 0.14440470121196541 0 0.65290632656860115 0.11434202593454081 0 0.68330259535470161 0.10038702501083881 0 0.91750694127107502 0.36982372220068471 0 0.92012390126144183 0.33123581297173937 0 0.95780851984364423 0.34215720972155339 0 0.91750694127105259 0.63017627779935648 0 0.9578014258160763 0.65787212321113708 0 0.92057473616084773 0.66770436535372446 0 0.22033343844674469 0.36963382230740238 0 0.22615676742807109 0.33458786033114157 0 0.25966125648670141 0.34351016742083729 0 1 0.94999999999997109 0 0.97166519676946206 0.96662885509935492 0 0.97435614836744289 0.92499999999990257 0 0.94399509803919068 0.9439950980391687 0 0.97435614836744289 0.92499999999990257 0 0.97166519676946206 0.96662885509935492 0 0.94399509803921056 0.24399509803922639 0 0.97435614836740092 0.22499999999981049 0 0.97166519676951801 0.26662885509932011 0 1 0.24999999999987299 0 0.97166519676951801 0.26662885509932011 0 0.97435614836740092 0.22499999999981049 0 1 0.74999999999993494 0 0.97435614836745565 0.77499999999987745 0 0.97166519676947294 0.73337114490064459 0 1 0.049999999999896842 0 0.97435614836748241 0.074999999999825387 0 0.97166519676946894 0.033371144900598393 0 0.94399509803918602 0.75600490196082126 0 0.97166519676947294 0.73337114490064459 0 0.97435614836745565 0.77499999999987745 0 0.94399509803922566 0.056004901960802607 0 0.97166519676946894 0.033371144900598393 0 0.97435614836748241 0.074999999999825387 0 0.77846603114747959 0.49850927265137401 0 0.81400510706333218 0.47357325943904899 0 0.81441713509985358 0.51161854125224959 0 0.77354604466818633 0.40378688774472771 0 0.72622533758026719 0.40265885511101601 0 0.74764719760526988 0.3719647154012321 0 0.71508799138962864 0.36622814920737751 0 0.74764719760526988 0.3719647154012321 0 0.72622533758026719 0.40265885511101601 0 0.84723782639812573 0.48638347960178252 0 0.84925632466077294 0.45359738909549091 0 0.88594198078881503 0.46167788676578442 0 0.86411095495256451 0.42388805655111889 0 0.88594198078881503 0.46167788676578442 0 0.84925632466077294 0.45359738909549091 0 0.43846182030517877 0.64845797726506715 0 0.43545892161006339 0.61093128915313821 0 0.47095389620662098 0.61892551373708504 0 0.33123028043633618 0.77629643437932982 0 0.35642984951668422 0.80994399665655703 0 0.30857225866488791 0.81101973481716805 0 0.33403534827021109 0.84402799729020661 0 0.30857225866488791 0.81101973481716805 0 0.35642984951668422 0.80994399665655703 0 0.26429849586623999 0.19346700179430079 0 0.31255190597181792 0.19850845631528771 0 0.28040350263641872 0.23054717217092141 0 0.57724883562309992 0.92155686857100794 0 0.54783390826260769 0.89287767010860219 0 0.5832743223239254 0.88483152652961872 0 0.55899371797446828 0.85003102233514438 0 0.5832743223239254 0.88483152652961872 0 0.54783390826260769 0.89287767010860219 0 0.4089290844030305 0.58728915500154233 0 0.43545892161006339 0.61093128915313821 0 0.39743091024207589 0.6239520004230239 0 0.77293540622714185 0.59448302402785813 0 0.81723410853263523 0.59419663659258926 0 0.79884539758237771 0.62875045078114233 0 0.83758014339878906 0.63222013025741819 0 0.79884539758237771 0.62875045078114233 0 0.81723410853263523 0.59419663659258926 0 0.35864735590330371 0.63903383440414463 0 0.39743091024207589 0.6239520004230239 0 0.3977710372045391 0.65868194622830212 0 0.56202748619534593 0.15054058349222879 0 0.54979595918804436 0.1060565713905809 0 0.58516465772821369 0.11653801664834119 0 0.57667858002728545 0.078486105337742612 0 0.58516465772821369 0.11653801664834119 0 0.54979595918804436 0.1060565713905809 0 0.33122374654748771 0.57588941099433744 0 0.37272913873093971 0.56192925302619479 0 0.35765792684946668 0.6000687869219653 0 0.35864735590330371 0.63903383440414463 0 0.35765792684946668 0.6000687869219653 0 0.39743091024207589 0.6239520004230239 0 0.71508799138962864 0.36622814920737751 0 0.68887083591306764 0.33632058575757479 0 0.73090396928863699 0.33699297293167962 0 0.29348325746214782 0.31350119524708198 0 0.32752639306529541 0.32610012995269699 0 0.29644548887253103 0.34914008784168082 0 0.33277555741076909 0.36432196682010132 0 0.29644548887253103 0.34914008784168082 0 0.32752639306529541 0.32610012995269699 0 0.34258405725730701 0.4444034294386992 0 0.31778888742534622 0.40581751814196781 0 0.35221190152536241 0.40457127605439203 0 0.79999999999999982 0.69999999999999996 0 0.81864958914779962 0.73589050177899629 0 0.78578450296893509 0.73292684821144505 0 0.79999999999947335 0 0 0.81864958914740749 0.035890501779055867 0 0.78393852574753176 0.032039079577822822 0 0.27474541102162192 0.11822029332053539 0 0.29336099386129338 0.15892013001050981 0 0.25557216766470708 0.15874861286892261 0 0 0.45000000000187229 0 0.035463093262830522 0.42673416072819947 0 0.033550201249889847 0.46247875832467239 0 0.6499999999999998 0.69999999999999996 0 0.66427993341343905 0.73232764502436276 0 0.63221990677827677 0.73442891067859706 0 0.84723782639812573 0.48638347960178252 0 0.81441713509985358 0.51161854125224959 0 0.81400510706333218 0.47357325943904899 0 0.26104540868854792 0.81401944968719064 0 0.30857225866488791 0.81101973481716805 0 0.29209212897034281 0.84715728365233667 0 0.33403534827021109 0.84402799729020661 0 0.29209212897034281 0.84715728365233667 0 0.30857225866488791 0.81101973481716805 0 0.69999999999999984 0.29999999999999999 0 0.73090396928863699 0.33699297293167962 0 0.68887083591306764 0.33632058575757479 0 
</DataArray>
</Points>
<Cells>
<DataArray type="UInt32" Name="connectivity" format="ascii">
0 1 2 3 4 5 6 7 8 9 10 11 12 13 14 15 16 17 18 19 20 21 22 23 24 25 26 27 28 29 30 31 32 33 34 35 36 37 38 39 40 41 42 43 44 45 46 47 48 49 50 51 52 53 54 55 56 57 58 59 60 61 62 63 64 65 66 67 68 69 70 71 72 73 74 75 76 77 78 79 80 81 82 83 84 85 86 87 88 89 90 91 92 93 94 95 96 97 98 99 100 101 102 103 104 105 106 107 108 109 110 111 112 113 114 115 116 117 118 119 120 121 122 123 124 125 126 127 128 129 130 131 132 133 134 135 136 137 138 139 140 141 142 143 144 145 146 147 148 149 150 151 152 153 154 155 156 157 158 159 160 161 162 163 164 165 166 167 168 169 170 171 172 173 174 175 176 177 178 179 180 181 182 183 184 185 186 187 188 189 190 191 192 193 194 195 196 197 198 199 200 201 202 203 204 205 206 207 208 209 210 211 212 213 214 215 216 217 218 219 220 221 222 223 224 225 226 227 228 229 230 231 232 233 234 235 236 237 238 239 240 241 242 243 244 245 246 247 248 249 250 251 252 253 254 255 256 257 258 259 260 261 262 263 264 265 266 267 268 269 270 271 272 273 274 275 276 277 278 279 280 281 282 283 284 285 286 287 288 289 290 291 292 293 294 295 296 297 298 299 300 301 302 303 304 305 306 307 308 309 310 311 312 313 314 315 316 317 318 319 320 321 322 323 324 325 326 327 328 329 330 331 332 333 334 335 336 337 338 339 340 341 342 343 344 345 346 347 348 349 350 351 352 353 354 355 356 357 358 359 360 361 362 363 364 365 366 367 368 369 370 371 372 373 374 375 376 377 378 379 380 381 382 383 384 385 386 387 388 389 390 391 392 393 394 395 396 397 398 399 400 401 402 403 404 405 406 407 408 409 410 411 412 413 414 415 416 417 418 419 420 421 422 423 424 425 426 427 428 429 430 431 432 433 434 435 436 437 438 439 440 441 442 443 444 445 446 447 448 449 450 451 452 453 454 455 456 457 458 459 460 461 462 463 464 465 466 467 468 469 470 471 472 473 474 475 476 477 478 479 480 481 482 483 484 485 486 487 488 489 490 491 492 493 494 495 496 497 498 499 500 501 502 503 504 505 506 507 508 509 510 511 512 513 514 515 516 517 518 519 520 521 522 523 524 525 526 527 528 529 530 531 532 533 534 535 536 537 538 539 540 541 542 543 544 545 546 547 548 549 550 551 552 553 554 555 556 557 558 559 560 561 562 563 564 565 566 567 568 569 570 571 572 573 574 575 576 577 578 579 580 581 582 583 584 585 586 587 588 589 590 591 592 593 594 595 596 597 598 599 600 601 602 603 604 605 606 607 608 609 610 611 612 613 614 615 616 617 618 619 620 621 622 623 624 625 626 627 628 629 630 631 632 633 634 635 636 637 638 639 640 641 642 643 644 645 646 647 648 649 650 651 652 653 654 655 656 657 658 659 660 661 662 663 664 665 666 667 668 669 670 671 672 673 674 675 676 677 678 679 680 681 682 683 684 685 686 687 688 689 690 691 692 693 694 695 696 697 698 699 700 701 702 703 704 705 706 707 708 709 710 711 712 713 714 715 716 717 718 719 720 721 722 723 724 725 726 727 728 729 730 731 732 733 734 735 736 737 738 739 740 741 742 743 744 745 746 747 748 749 750 751 752 753 754 755 756 757 758 759 760 761 762 763 764 765 766 767 768 769 770 771 772 773 774 775 776 777 778 779 780 781 782 783 784 785 786 787 788 789 790 791 792 793 794 795 796 797 798 799 800 801 802 803 804 805 806 807 808 809 810 811 812 813 814 815 816 817 818 819 820 821 822 823 824 825 826 827 828 829 830 831 832 833 834 835 836 837 838 839 840 841 842 843 844 845 846 847 848 849 850 851 852 853 854 855 856 857 858 859 860 861 862 863 864 865 866 867 868 869 870 871 872 873 874 875 876 877 878 879 880 881 882 883 884 885 886 887 888 889 890 891 892 893 894 895 896 897 898 899 900 901 902 903 904 905 906 907 908 909 910 911 912 913 914 915 916 917 918 919 920 921 922 923 924 925 926 927 928 929 930 931 932 933 934 935 936 937 938 939 940 941 942 943 944 945 946 947 948 949 950 951 952 953 954 955 956 957 958 959 960 961 962 963 964 965 966 967 968 969 970 971 972 973 974 975 976 977 978 979 980 981 982 983 984 985 986 987 988 989 990 991 992 993 994 995 996 997 998 999 1000 1001 1002 1003 1004 1005 1006 1007 1008 1009 1010 1011 1012 1013 1014 1015 1016 1017 1018 1019 1020 1021 1022 1023 1024 1025 1026 1027 1028 1029 1030 1031 1032 1033 1034 1035 1036 1037 1038 1039 1040 1041 1042 1043 1044 1045 1046 1047 1048 1049 1050 1051 1052 1053 1054 1055 1056 1057 1058 1059 1060 1061 1062 1063 1064 1065 1066 1067 1068 1069 1070 1071 1072 1073 1074 1075 1076 1077 1078 1079 1080 1081 1082 1083 1084 1085 1086 1087 1088 1089 1090 1091 1092 1093 1094 1095 1096 1097 1098 1099 1100 1101 1102 1103 1104 1105 1106 1107 1108 1109 1110 1111 1112 1113 1114 1115 1116 1117 1118 1119 1120 1121 1122 1123 1124 1125 1126 1127 1128 1129 1130 1131 1132 1133 1134 1135 1136 1137 1138 1139 1140 1141 1142 1143 1144 1145 1146 1147 1148 1149 1150 1151 1152 1153 1154 1155 1156 1157 1158 1159 1160 1161 1162 1163 1164 1165 1166 1167 1168 1169 1170 1171 1172 1173 1174 1175 1176 1177 1178 1179 1180 1181 1182 1183 1184 1185 1186 1187 1188 1189 1190 1191 1192 1193 1194 1195 1196 1197 1198 1199 1200 1201 1202 1203 1204 1205 1206 1207 1208 1209 1210 1211 1212 1213 1214 1215 1216 1217 1218 1219 1220 1221 1222 1223 1224 1225 1226 1227 1228 1229 1230 1231 1232 1233 1234 1235 1236 1237 1238 1239 1240 1241 1242 1243 1244 1245 1246 1247 1248 1249 1250 1251 1252 1253 1254 1255 1256 1257 1258 1259 1260 1261 1262 1263 1264 1265 1266 1267 1268 1269 1270 1271 1272 1273 1274 1275 1276 1277 1278 1279 1280 1281 1282 1283 1284 1285 1286 1287 1288 1289 1290 1291 1292 1293 1294 1295 1296 1297 1298 1299 1300 1301 1302 1303 1304 1305 1306 1307 1308 1309 1310 1311 1312 1313 1314 1315 1316 1317 1318 1319 1320 1321 1322 1323 1324 1325 1326 1327 1328 1329 1330 1331 1332 1333 1334 1335 1336 1337 1338 1339 1340 1341 1342 1343 1344 1345 1346 1347 1348 1349 1350 1351 1352 1353 1354 1355 1356 1357 1358 1359 1360 1361 1362 1363 1364 1365 1366 1367 1368 1369 1370 1371 1372 1373 1374 1375 1376 1377 1378 1379 1380 1381 1382 1383 1384 1385 1386 1387 1388 1389 1390 1391 1392 1393 1394 1395 1396 1397 1398 1399 1400 1401 1402 1403 1404 1405 1406 1407 1408 1409 1410 1411 1412 1413 1414 1415 1416 1417 1418 1419 1420 1421 1422 1423 1424 1425 1426 1427 1428 1429 1430 1431 1432 1433 1434 1435 1436 1437 1438 1439 1440 1441 1442 1443 1444 1445 1446 1447 1448 1449 1450 1451 1452 1453 1454 1455 1456 1457 1458 1459 1460 1461 1462 1463 1464 1465 1466 1467 1468 1469 1470 1471 1472 1473 1474 1475 1476 1477 1478 1479 1480 1481 1482 1483 1484 1485 1486 1487 1488 1489 1490 1491 1492 1493 1494 1495 1496 1497 1498 1499 1500 1501 1502 1503 1504 1505 1506 1507 1508 1509 1510 1511 1512 1513 1514 1515 1516 1517 1518 1519 1520 1521 1522 1523 1524 1525 1526 1527 1528 1529 1530 1531 1532 1533 1534 1535 1536 1537 1538 1539 1540 1541 1542 1543 1544 1545 1546 1547 1548 1549 1550 1551 1552 1553 1554 1555 1556 1557 1558 1559 1560 1561 1562 1563 1564 1565 1566 1567 1568 1569 1570 1571 1572 1573 1574 1575 1576 1577 1578 1579 1580 1581 1582 1583 1584 1585 1586 1587 1588 1589 1590 1591 1592 1593 1594 1595 1596 1597 1598 1599 1600 1601 1602 1603 1604 1605 1606 1607 1608 1609 1610 1611 1612 1613 1614 1615 1616 1617 1618 1619 1620 1621 1622 1623 1624 1625 1626 1627 1628 1629 1630 1631 1632 1633 1634 1635 1636 1637 1638 1639 1640 1641 1642 1643 1644 1645 1646 1647 1648 1649 1650 1651 1652 1653 1654 1655 1656 1657 1658 1659 1660 1661 1662 1663 1664 1665 1666 1667 1668 1669 1670 1671 1672 1673 1674 1675 1676 1677 1678 1679 1680 1681 1682 1683 1684 1685 1686 1687 1688 1689 1690 1691 1692 1693 1694 1695 1696 1697 1698 1699 1700 1701 1702 1703 1704 1705 1706 1707 1708 1709 1710 1711 1712 1713 1714 1715 1716 1717 1718 1719 1720 1721 1722 1723 1724 1725 1726 1727 1728 1729 1730 1731 1732 1733 1734 1735 1736 1737 1738 1739 1740 1741 1742 1743 1744 1745 1746 1747 1748 1749 1750 1751 1752 1753 1754 1755 1756 1757 1758 1759 1760 1761 1762 1763 1764 1765 1766 1767 1768 1769 1770 1771 1772 1773 1774 1775 1776 1777 1778 1779 1780 1781 1782 1783 1784 1785 1786 1787 1788 1789 1790 1791 1792 1793 1794 1795 1796 1797 1798 1799 1800 1801 1802 1803 1804 1805 1806 1807 1808 1809 1810 1811 1812 1813 1814 1815 1816 1817 1818 1819 1820 1821 1822 1823 1824 1825 1826 1827 1828 1829 1830 1831 1832 1833 1834 1835 1836 1837 1838 1839 1840 1841 1842 1843 1844 1845 1846 1847 1848 1849 1850 1851 1852 1853 1854 1855 1856 1857 1858 1859 1860 1861 1862 1863 1864 1865 1866 1867 1868 1869 1870 1871 1872 1873 1874 1875 1876 1877 1878 1879 1880 1881 1882 1883 1884 1885 1886 1887 1888 1889 1890 1891 1892 1893 1894 1895 1896 1897 1898 1899 1900 1901 1902 1903 1904 1905 1906 1907 1908 1909 1910 1911 1912 1913 1914 1915 1916 1917 1918 1919 1920 1921 1922 1923 1924 1925 1926 1927 1928 1929 1930 1931 1932 1933 1934 1935 1936 1937 1938 1939 1940 1941 1942 1943 1944 1945 1946 1947 1948 1949 1950 1951 1952 1953 1954 1955 1956 1957 1958 1959 1960 1961 1962 1963 1964 1965 1966 1967 1968 1969 1970 1971 1972 1973 1974 1975 1976 1977 1978 1979 1980 1981 1982 1983 1984 1985 1986 1987 1988 1989 1990 1991 1992 1993 1994 1995 1996 1997 1998 1999 2000 2001 2002 2003 2004 2005 2006 2007 2008 2009 2010 2011 2012 2013 2014 2015 2016 2017 2018 2019 2020 2021 2022 2023 2024 2025 2026 2027 2028 2029 2030 2031 2032 2033 2034 2035 2036 2037 2038 2039 2040 2041 2042 2043 2044 2045 2046 2047 2048 2049 2050 2051 2052 2053 2054 2055 2056 2057 2058 2059 2060 2061 2062 2063 2064 2065 2066 2067 2068 2069 2070 2071 2072 2073 2074 2075 2076 2077 2078 2079 2080 2081 2082 2083 2084 2085 2086 2087 2088 2089 2090 2091 2092 2093 2094 2095 2096 2097 2098 2099 2100 2101 2102 2103 2104 2105 2106 2107 2108 2109 2110 2111 2112 2113 2114 2115 2116 2117 2118 2119 2120 2121 2122 2123 2124 2125 2126 2127 2128 2129 2130 2131 2132 2133 2134 2135 2136 2137 2138 2139 2140 2141 2142 2143 2144 2145 2146 2147 2148 2149 2150 2151 2152 2153 2154 2155 2156 2157 2158 2159 2160 2161 2162 2163 2164 2165 2166 2167 2168 2169 2170 2171 2172 2173 2174 2175 2176 2177 2178 2179 2180 2181 2182 2183 2184 2185 2186 2187 2188 2189 2190 2191 2192 2193 2194 2195 2196 2197 2198 2199 2200 2201 2202 2203 2204 2205 2206 2207 2208 2209 2210 2211 2212 2213 2214 2215 2216 2217 2218 2219 2220 2221 2222 2223 2224 2225 2226 2227 2228 2229 2230 2231 2232 2233 2234 2235 2236 2237 2238 2239 2240 2241 2242 2243 2244 2245 2246 2247 2248 2249 2250 2251 2252 2253 2254 2255 2256 2257 2258 2259 2260 2261 2262 2263 2264 2265 2266 2267 2268 2269 2270 2271 2272 2273 2274 2275 2276 2277 2278 2279 2280 2281 2282 2283 2284 2285 2286 2287 2288 2289 2290 2291 2292 2293 2294 2295 2296 2297 2298 2299 2300 2301 2302 2303 2304 2305 2306 2307 2308 2309 2310 2311 2312 2313 2314 2315 2316 2317 2318 2319 2320 2321 2322 2323 2324 2325 2326 2327 2328 2329 2330 2331 2332 2333 2334 2335 2336 2337 2338 2339 2340 2341 2342 2343 2344 2345 2346 2347 2348 2349 2350 2351 2352 2353 2354 2355 2356 2357 2358 2359 2360 2361 2362 2363 2364 2365 2366 2367 2368 2369 2370 2371 2372 2373 2374 2375 2376 2377 2378 2379 2380 2381 2382 2383 2384 2385 2386 2387 2388 2389 2390 2391 2392 2393 2394 2395 2396 2397 2398 2399 2400 2401 2402 2403 2404 2405 2406 2407 2408 2409 2410 2411 2412 2413 2414 2415 2416 2417 2418 2419 2420 2421 2422 2423 2424 2425 2426 2427 2428 2429 2430 2431 2432 2433 2434 2435 2436 2437 2438 2439 2440 2441 2442 2443 2444 2445 2446 2447 2448 2449 2450 2451 2452 2453 2454 2455 2456 2457 2458 2459 2460 2461 2462 2463 2464 2465 2466 2467 2468 2469 2470 2471 2472 2473 2474 2475 2476 2477 2478 2479 2480 2481 2482 2483 2484 2485 2486 2487 2488 2489 2490 2491 2492 2493 2494 2495 2496 2497 2498 2499 2500 2501 2502 2503 2504 2505 2506 2507 2508 2509 2510 2511 2512 2513 2514 2515 2516 2517 2518 2519 2520 2521 2522 2523 2524 2525 2526 2527 2528 2529 2530 2531 2532 2533 2534 2535 2536 2537 2538 2539 2540 2541 2542 2543 2544 2545 2546 2547 2548 2549 2550 2551 2552 2553 2554 2555 2556 2557 2558 2559 2560 2561 2562 2563 2564 2565 2566 2567 2568 2569 2570 2571 2572 2573 2574 2575 2576 2577 2578 2579 2580 2581 2582 2583 2584 2585 2586 2587 2588 2589 2590 2591 2592 2593 2594 2595 2596 2597 2598 2599 2600 2601 2602 2603 2604 2605 2606 2607 2608 2609 2610 2611 2612 2613 2614 2615 2616 2617 2618 2619 2620 2621 2622 2623 2624 2625 2626 2627 2628 2629 2630 2631 2632 2633 2634 2635 2636 2637 2638 2639 2640 2641 2642 2643 2644 2645 2646 2647 2648 2649 2650 2651 2652 2653 2654 2655 2656 2657 2658 2659 2660 2661 2662 2663 2664 2665 2666 2667 2668 2669 2670 2671 2672 2673 2674 2675 2676 2677 2678 2679 2680 2681 2682 2683 2684 2685 2686 2687 2688 2689 2690 2691 2692 2693 2694 2695 2696 2697 2698 2699 2700 2701 2702 2703 2704 2705 2706 2707 2708 2709 2710 2711 2712 2713 2714 2715 2716 2717 2718 2719 2720 2721 2722 2723 2724 2725 2726 2727 2728 2729 2730 2731 2732 2733 2734 2735 2736 2737 2738 2739 2740 2741 2742 2743 2744 2745 2746 2747 2748 2749 2750 2751 2752 2753 2754 2755 2756 2757 2758 2759 2760 2761 2762 2763 2764 2765 2766 2767 2768 2769 2770 2771 2772 2773 2774 2775 2776 2777 2778 2779 2780 2781 2782 2783 2784 2785 2786 2787 2788 2789 2790 2791 2792 2793 2794 2795 2796 2797 2798 2799 2800 2801 2802 2803 2804 2805 2806 2807 2808 2809 2810 2811 2812 2813 2814 2815 2816 2817 2818 2819 2820 2821 2822 2823 2824 2825 2826 2827 2828 2829 2830 2831 2832 2833 2834 2835 2836 2837 2838 2839 2840 2841 2842 2843 2844 2845 2846 2847 2848 2849 2850 2851 2852 2853 2854 2855 2856 2857 2858 2859 2860 2861 2862 2863 2864 2865 2866 2867 2868 2869 2870 2871 2872 2873 2874 2875 2876 2877 2878 2879 2880 2881 2882 2883 2884 2885 2886 2887 2888 2889 2890 2891 2892 2893 2894 2895 2896 2897 2898 2899 2900 2901 2902 2903 2904 2905 2906 2907 2908 2909 2910 2911 2912 2913 2914 2915 2916 2917 2918 2919 2920 2921 2922 2923 2924 2925 2926 2927 2928 2929 2930 2931 2932 2933 2934 2935 2936 2937 2938 2939 2940 2941 2942 2943 2944 2945 2946 2947 2948 2949 2950 2951 2952 2953 2954 2955 2956 2957 2958 2959 2960 2961 2962 2963 2964 2965 2966 2967 2968 2969 2970 2971 2972 2973 2974 2975 2976 2977 2978 2979 2980 2981 2982 2983 2984 2985 2986 2987 2988 2989 2990 2991 2992 2993 2994 2995 2996 2997 2998 2999 3000 3001 3002 3003 3004 3005 3006 3007 3008 3009 3010 3011 3012 3013 3014 3015 3016 3017 3018 3019 3020 3021 3022 3023 3024 3025 3026 3027 3028 3029 3030 3031 3032 3033 3034 3035 3036 3037 3038 3039 3040 3041 3042 3043 3044 3045 3046 3047 3048 3049 3050 3051 3052 3053 3054 3055 3056 3057 3058 3059 3060 3061 3062 3063 3064 3065 3066 3067 3068 3069 3070 3071 3072 3073 3074 3075 3076 3077 3078 3079 3080 3081 3082 3083 3084 3085 3086 3087 3088 3089 3090 3091 3092 3093 3094 3095 3096 3097 3098 3099 3100 3101 3102 3103 3104 3105 3106 3107 3108 3109 3110 3111 3112 3113 3114 3115 3116 3117 3118 3119 3120 3121 3122 3123 3124 3125 3126 3127 3128 3129 3130 3131 3132 3133 3134 3135 3136 3137 3138 3139 3140 3141 
</DataArray>
<DataArray type="UInt32" Name="offsets" format="ascii">
2 4 6 8 10 12 14 16 18 20 22 24 26 28 30 32 34 36 38 40 43 46 49 52 55 58 61 64 67 70 73 76 79 82 85 88 91 94 97 100 103 106 109 112 115 118 121 124 127 130 133 136 139 142 145 148 151 154 157 160 163 166 169 172 175 178 181 184 187 190 193 196 199 202 205 208 211 214 217 220 223 226 229 232 235 238 241 244 247 250 253 256 259 262 265 268 271 274 277 280 283 286 289 292 295 298 301 304 307 310 313 316 319 322 325 328 331 334 337 340 343 346 349 352 355 358 361 364 367 370 373 376 379 382 385 388 391 394 397 400 403 406 409 412 415 418 421 424 427 430 433 436 439 442 445 448 451 454 457 460 463 466 469 472 475 478 481 484 487 490 493 496 499 502 505 508 511 514 517 520 523 526 529 532 535 538 541 544 547 550 553 556 559 562 565 568 571 574 577 580 583 586 589 592 595 598 601 604 607 610 613 616 619 622 625 628 631 634 637 640 643 646 649 652 655 658 661 664 667 670 673 676 679 682 685 688 691 694 697 700 703 706 709 712 715 718 721 724 727 730 733 736 739 742 745 748 751 754 757 760 763 766 769 772 775 778 781 784 787 790 793 796 799 802 805 808 811 814 817 820 823 826 829 832 835 838 841 844 847 850 853 856 859 862 865 868 871 874 877 880 883 886 889 892 895 898 901 904 907 910 913 916 919 922 925 928 931 934 937 940 943 946 949 952 955 958 961 964 967 970 973 976 979 982 985 988 991 994 997 1000 1003 1006 1009 1012 1015 1018 1021 1024 1027 1030 1033 1036 1039 1042 1045 1048 1051 1054 1057 1060 1063 1066 1069 1072 1075 1078 1081 1084 1087 1090 1093 1096 1099 1102 1105 1108 1111 1114 1117 1120 1123 1126 1129 1132 1135 1138 1141 1144 1147 1150 1153 1156 1159 1162 1165 1168 1171 1174 1177 1180 1183 1186 1189 1192 1195 1198 1201 1204 1207 1210 1213 1216 1219 1222 1225 1228 1231 1234 1237 1240 1243 1246 1249 1252 1255 1258 1261 1264 1267 1270 1273 1276 1279 1282 1285 1288 1291 1294 1297 1300 1303 1306 1309 1312 1315 1318 1321 1324 1327 1330 1333 1336 1339 1342 1345 1348 1351 1354 1357 1360 1363 1366 1369 1372 1375 1378 1381 1384 1387 1390 1393 1396 1399 1402 1405 1408 1411 1414 1417 1420 1423 1426 1429 1432 1435 1438 1441 1444 1447 1450 1453 1456 1459 1462 1465 1468 1471 1474 1477 1480 1483 1486 1489 1492 1495 1498 1501 1504 1507 1510 1513 1516 1519 1522 1525 1528 1531 1534 1537 1540 1543 1546 1549 1552 1555 1558 1561 1564 1567 1570 1573 1576 1579 1582 1585 1588 1591 1594 1597 1600 1603 1606 1609 1612 1615 1618 1621 1624 1627 1630 1633 1636 1639 1642 1645 1648 1651 1654 1657 1660 1663 1666 1669 1672 1675 1678 1681 1684 1687 1690 1693 1696 1699 1702 1705 1708 1711 1714 1717 1720 1723 1726 1729 1732 1735 1738 1741 1744 1747 1750 1753 1756 1759 1762 1765 1768 1771 1774 1777 1780 1783 1786 1789 1792 1795 1798 1801 1804 1807 1810 1813 1816 1819 1822 1825 1828 1831 1834 1837 1840 1843 1846 1849 1852 1855 1858 1861 1864 1867 1870 1873 1876 1879 1882 1885 1888 1891 1894 1897 1900 1903 1906 1909 1912 1915 1918 1921 1924 1927 1930 1933 1936 1939 1942 1945 1948 1951 1954 1957 1960 1963 1966 1969 1972 1975 1978 1981 1984 1987 1990 1993 1996 1999 2002 2005 2008 2011 2014 2017 2020 2023 2026 2029 2032 2035 2038 2041 2044 2047 2050 2053 2056 2059 2062 2065 2068 2071 2074 2077 2080 2083 2086 2089 2092 2095 2098 2101 2104 2107 2110 2113 2116 2119 2122 2125 2128 2131 2134 2137 2140 2143 2146 2149 2152 2155 2158 2161 2164 2167 2170 2173 2176 2179 2182 2185 2188 2191 2194 2197 2200 2203 2206 2209 2212 2215 2218 2221 2224 2227 2230 2233 2236 2239 2242 2245 2248 2251 2254 2257 2260 2263 2266 2269 2272 2275 2278 2281 2284 2287 2290 2293 2296 2299 2302 2305 2308 2311 2314 2317 2320 2323 2326 2329 2332 2335 2338 2341 2344 2347 2350 2353 2356 2359 2362 2365 2368 2371 2374 2377 2380 2383 2386 2389 2392 2395 2398 2401 2404 2407 2410 2413 2416 2419 2422 2425 2428 2431 2434 2437 2440 2443 2446 2449 2452 2455 2458 2461 2464 2467 2470 2473 2476 2479 2482 2485 2488 2491 2494 2497 2500 2503 2506 2509 2512 2515 2518 2521 2524 2527 2530 2533 2536 2539 2542 2545 2548 2551 2554 2557 2560 2563 2566 2569 2572 2575 2578 2581 2584 2587 2590 2593 2596 2599 2602 2605 2608 2611 2614 2617 2620 2623 2626 2629 2632 2635 2638 2641 2644 2647 2650 2653 2656 2659 2662 2665 2668 2671 2674 2677 2680 2683 2686 2689 2692 2695 2698 2701 2704 2707 2710 2713 2716 2719 2722 2725 2728 2731 2734 2737 2740 2743 2746 2749 2752 2755 2758 2761 2764 2767 2770 2773 2776 2779 2782 2785 2788 2791 2794 2797 2800 2803 2806 2809 2812 2815 2818 2821 2824 2827 2830 2833 2836 2839 2842 2845 2848 2851 2854 2857 2860 2863 2866 2869 2872 2875 2878 2881 2884 2887 2890 2893 2896 2899 2902 2905 2908 2911 2914 2917 2920 2923 2926 2929 2932 2935 2938 2941 2944 2947 2950 2953 2956 2959 2962 2965 2968 2971 2974 2977 2980 2983 2986 2989 2992 2995 2998 3001 3004 3007 3010 3013 3016 3019 3022 3025 3028 3031 3034 3037 3040 3043 3046 3049 3052 3055 3058 3061 3064 3067 3070 3073 3076 3079 3082 3085 3088 3091 3094 3097 3100 3103 3106 3109 3112 3115 3118 3121 3124 3127 3130 3133 3136 3139 3142 
</DataArray>
<DataArray type="UInt32" Name="types" format="ascii">
3 3 3 3 3 3 3 3 3 3 3 3 3 3 3 3 3 3 3 3 5 5 5 5 5 5 5 5 5 5 5 5 5 5 5 5 5 5 5 5 5 5 5 5 5 5 5 5 5 5 5 5 5 5 5 5 5 5 5 5 5 5 5 5 5 5 5 5 5 5 5 5 5 5 5 5 5 5 5 5 5 5 5 5 5 5 5 5 5 5 5 5 5 5 5 5 5 5 5 5 5 5 5 5 5 5 5 5 5 5 5 5 5 5 5 5 5 5 5 5 5 5 5 5 5 5 5 5 5 5 5 5 5 5 5 5 5 5 5 5 5 5 5 5 5 5 5 5 5 5 5 5 5 5 5 5 5 5 5 5 5 5 5 5 5 5 5 5 5 5 5 5 5 5 5 5 5 5 5 5 5 5 5 5 5 5 5 5 5 5 5 5 5 5 5 5 5 5 5 5 5 5 5 5 5 5 5 5 5 5 5 5 5 5 5 5 5 5 5 5 5 5 5 5 5 5 5 5 5 5 5 5 5 5 5 5 5 5 5 5 5 5 5 5 5 5 5 5 5 5 5 5 5 5 5 5 5 5 5 5 5 5 5 5 5 5 5 5 5 5 5 5 5 5 5 5 5 5 5 5 5 5 5 5 5 5 5 5 5 5 5 5 5 5 5 5 5 5 5 5 5 5 5 5 5 5 5 5 5 5 5 5 5 5 5 5 5 5 5 5 5 5 5 5 5 5 5 5 5 5 5 5 5 5 5 5 5 5 5 5 5 5 5 5 5 5 5 5 5 5 5 5 5 5 5 5 5 5 5 5 5 5 5 5 5 5 5 5 5 5 5 5 5 5 5 5 5 5 5 5 5 5 5 5 5 5 5 5 5 5 5 5 5 5 5 5 5 5 5 5 5 5 5 5 5 5 5 5 5 5 5 5 5 5 5 5 5 5 5 5 5 5 5 5 5 5 5 5 5 5 5 5 5 5 5 5 5 5 5 5 5 5 5 5 5 5 5 5 5 5 5 5 5 5 5 5 5 5 5 5 5 5 5 5 5 5 5 5 5 5 5 5 5 5 5 5 5 5 5 5 5 5 5 5 5 5 5 5 5 5 5 5 5 5 5 5 5 5 5 5 5 5 5 5 5 5 5 5 5 5 5 5 5 5 5 5 5 5 5 5 5 5 5 5 5 5 5 5 5 5 5 5 5 5 5 5 5 5 5 5 5 5 5 5 5 5 5 5 5 5 5 5 5 5 5 5 5 5 5 5 5 5 5 5 5 5 5 5 5 5 5 5 5 5 5 5 5 5 5 5 5 5 5 5 5 5 5 5 5 5 5 5 5 5 5 5 5 5 5 5 5 5 5 5 5 5 5 5 5 5 5 5 5 5 5 5 5 5 5 5 5 5 5 5 5 5 5 5 5 5 5 5 5 5 5 5 5 5 5 5 5 5 5 5 5 5 5 5 5 5 5 5 5 5 5 5 5 5 5 5 5 5 5 5 5 5 5 5 5 5 5 5 5 5 5 5 5 5 5 5 5 5 5 5 5 5 5 5 5 5 5 5 5 5 5 5 5 5 5 5 5 5 5 5 5 5 5 5 5 5 5 5 5 5 5 5 5 5 5 5 5 5 5 5 5 5 5 5 5 5 5 5 5 5 5 5 5 5 5 5 5 5 5 5 5 5 5 5 5 5 5 5 5 5 5 5 5 5 5 5 5 5 5 5 5 5 5 5 5 5 5 5 5 5 5 5 5 5 5 5 5 5 5 5 5 5 5 5 5 5 5 5 5 5 5 5 5 5 5 5 5 5 5 5 5 5 5 5 5 5 5 5 5 5 5 5 5 5 5 5 5 5 5 5 5 5 5 5 5 5 5 5 5 5 5 5 5 5 5 5 5 5 5 5 5 5 5 5 5 5 5 5 5 5 5 5 5 5 5 5 5 5 5 5 5 5 5 5 5 5 5 5 5 5 5 5 5 5 5 5 5 5 5 5 5 5 5 5 5 5 5 5 5 5 5 5 5 5 5 5 5 5 5 5 5 5 5 5 5 5 5 5 5 5 5 5 5 5 5 5 5 5 5 5 5 5 5 5 5 5 5 5 5 5 5 5 5 5 5 5 5 5 5 5 5 5 5 5 5 5 5 5 5 5 5 5 5 5 5 5 5 5 5 5 5 5 5 5 5 5 5 5 5 5 5 5 5 5 5 5 5 5 5 5 5 5 5 5 5 5 5 5 5 5 5 5 5 5 5 5 5 5 5 5 5 5 5 5 5 5 5 5 5 5 5 5 5 5 5 5 5 5 5 5 5 5 5 5 5 5 5 5 5 5 5 5 5 5 5 5 5 5 5 5 5 5 5 5 5 5 5 5 5 5 
</DataArray>
</Cells>
<PointData Scalars="" Vectors="displacement," Tensors="">
<DataArray type="Float64" Name="displacement" NumberOfComponents="3" format="ascii">
-3.0114765677685446e-05 -2.728858911193236e-05 0 -3.2450093468236124e-05 -3.570175733442378e-05 0 -3.2450093468236124e-05 -3.570175733442378e-05 0 -3.5133088984663629e-05 -4.5111443901307865e-05 0 -3.5133088984663629e-05 -4.5111443901307865e-05 0 -3.8084753150609441e-05 -5.5835546322569828e-05 0 -3.8084753150609441e-05 -5.5835546322569828e-05 0 -4.0791634484295245e-05 -6.6790034204772616e-05 0 -4.0791634484295245e-05 -6.6790034204772616e-05 0 -4.3170428518274326e-05 -7.7597199676387196e-05 0 -4.3170428518274326e-05 -7.7597199676387196e-05 0 -4.5414590934236043e-05 -8.8100225724233779e-05 0 -4.5414590934236043e-05 -8.8100225724233779e-05 0 -4.7647750650062203e-05 -9.8037062117340917e-05 0 -4.7647750650062203e-05 -9.8037062117340917e-05 0 -4.9896287729736939e-05 -0.00010737169667752497 0 -4.9896287729736939e-05 -0.00010737169667752497 0 -5.1344380873479303e-05 -0.00011543239400861454 0 -5.1344380873479303e-05 -0.00011543239400861454 0 -5.5672963573077372e-05 -0.00012349071972584714 0 -5.2668905726748756e-06 2.9889693886670972e-05 0 -8.2745514954665215e-07 4.5821553203387539e-05 0 -8.2745514954665215e-07 4.5821553203387539e-05 0 -2.8087375820259654e-06 5.3818425328027849e-05 0 -2.8087375820259654e-06 5.3818425328027849e-05 0 -5.0864777795171876e-06 6.8492914155256682e-05 0 -5.0864777795171876e-06 6.8492914155256682e-05 0 -7.7421128305741428e-06 8.1700732687146598e-05 0 -7.7421128305741428e-06 8.1700732687146598e-05 0 -1.0704575114869928e-05 9.6013518423570407e-05 0 -1.0704575114869928e-05 9.6013518423570407e-05 0 -1.3958589308005912e-05 0.00011017959023193122 0 -1.3958589308005912e-05 0.00011017959023193122 0 -1.7228223360542371e-05 0.00012363345724394819 0 -1.7228223360542371e-05 0.00012363345724394819 0 -2.2103600048205322e-05 0.00013803975547954829 0 -2.2103600048205322e-05 0.00013803975547954829 0 -2.1147896699897521e-05 0.00014943447233754683 0 -2.1147896699897521e-05 0.00014943447233754683 0 -4.2898129150377331e-05 0.00016350646457034446 0 -2.4938438518083747e-05 -1.3056485348699126e-05 0 -1.9247717118377447e-05 -6.8577816470945965e-06 0 -2.2976268036741465e-05 -1.1832512041735284e-05 0 -2.2633149996456524e-05 -8.8778726001525861e-06 0 -1.9247717118377447e-05 -6.8577816470945965e-06 0 -2.4938438518083747e-05 -1.3056485348699126e-05 0 -4.1415196322418936e-05 -2.1423045675910145e-05 0 -3.6896358391052635e-05 -1.6828947979947876e-05 0 -3.7627091795560259e-05 -2.1267543792257394e-05 0 -3.7627091795560259e-05 -2.1267543792257394e-05 0 -3.6896358391052635e-05 -1.6828947979947876e-05 0 -3.3895482597732311e-05 -1.9512405995897707e-05 0 -1.8894082207811738e-05 6.6690662844419592e-06 0 -8.2339765422465544e-06 1.9768938055630922e-06 0 -1.7082691867549336e-05 4.1129283586933733e-06 0 -1.4919116039439961e-05 -7.1980118983809422e-06 0 -1.3171829373957641e-05 -5.3933040936528744e-06 0 -6.4155884175031493e-06 -2.6933965485077133e-06 0 -9.808121317343141e-06 4.7031961036751277e-06 0 -8.2339765422465544e-06 1.9768938055630922e-06 0 -1.8894082207811738e-05 6.6690662844419592e-06 0 -8.0430560222346731e-06 -4.7044524562580231e-06 0 -1.4919116039439961e-05 -7.1980118983809422e-06 0 -6.4155884175031493e-06 -2.6933965485077133e-06 0 -3.6177910481901179e-05 -1.5107393219617069e-05 0 -4.3688569835724491e-05 -1.8931654223011986e-05 0 -3.4801660970769722e-05 -1.4024523255904822e-05 0 -6.2856320418739619e-05 2.12420309561627e-05 0 -5.0406136238073426e-05 1.5328802959109894e-05 0 -4.952132021291827e-05 1.4278604381871087e-05 0 -5.8230319136999279e-06 6.2331538968068854e-07 0 -7.4704430432789992e-06 1.7182610926305333e-06 0 -7.2734339185149589e-06 5.3444527396808066e-07 0 -9.6805514704462708e-06 2.7034226010078236e-06 0 -7.2734339185149589e-06 5.3444527396808066e-07 0 -7.4704430432789992e-06 1.7182610926305333e-06 0 -8.2112351597805303e-06 -8.8761926439194542e-07 0 -1.0931743483832316e-05 -1.911745279973425e-06 0 -7.8739160240942076e-06 -5.5788916702462237e-07 0 -3.4955320230237481e-09 -6.7818950556137386e-10 0 -2.8488251057332857e-09 -4.8532092367148333e-10 0 -3.0859652099283198e-06 -1.0139423658653481e-06 0 -2.909222597991907e-09 2.0480029469274009e-10 0 -3.32537932630304e-09 1.9611427060271748e-10 0 -3.1497143501415365e-06 1.5769714487184729e-07 0 -4.6271962326033806e-05 -2.7278393567185117e-05 0 -4.6414084555385737e-05 -2.7080997322929077e-05 0 -4.1415196322418936e-05 -2.1423045675910145e-05 0 -7.1192953324996158e-06 3.3596958540515727e-05 0 -1.2773862675511763e-05 2.2167929460123084e-05 0 -1.5673469175311371e-05 2.2010811110871452e-05 0 -6.9947427387259114e-05 -0.00018908357677502067 0 -6.0026367270301395e-05 -0.00017740396577211378 0 -6.9707472457558727e-05 -0.0001736537625838574 0 -8.5450953084333152e-05 0.00038732811018803577 0 -0.00011018185648006911 0.00036224993117708046 0 -8.49385883854479e-05 0.00035179402620782291 0 -8.5450953084333152e-05 0.00038732811018803577 0 -8.49385883854479e-05 0.00035179402620782291 0 -6.1034368040540242e-05 0.00036012253474281171 0 -6.9947427387259114e-05 -0.00018908357677502067 0 -6.9707472457558727e-05 -0.0001736537625838574 0 -8.0314203307397803e-05 -0.00017820312083001823 0 -0.00011439222285318659 0.00033266535488851885 0 -8.2152661648734142e-05 0.00031755527025200374 0 -8.49385883854479e-05 0.00035179402620782291 0 -5.7493463534802e-05 -0.00016381596763826546 0 -6.9682230459619353e-05 -0.00015786247528149527 0 -6.9707472457558727e-05 -0.0001736537625838574 0 -8.2112351597805303e-06 -8.8761926439194542e-07 0 -7.8739160240942076e-06 -5.5788916702462237e-07 0 -5.5423331257427675e-06 -7.4231524246425806e-08 0 -7.1192953324996158e-06 3.3596958540515727e-05 0 -1.8795775773027406e-05 3.1073921563193689e-05 0 -1.2773862675511763e-05 2.2167929460123084e-05 0 -0.00013517478215588721 0.00010516532718500228 0 -0.00012208340886813823 7.9555374864911512e-05 0 -0.00010020071353476553 8.4840549368130449e-05 0 -7.6630561323264105e-05 -4.7885648600315905e-05 0 -8.398940381072009e-05 -5.9558466682158055e-05 0 -6.7452228680188884e-05 -5.0352985841915435e-05 0 -3.9763828399087525e-05 -2.3118603599213439e-05 0 -4.6271962326033806e-05 -2.7278393567185117e-05 0 -4.1415196322418936e-05 -2.1423045675910145e-05 0 -7.1922961203594712e-05 6.966052946319099e-05 0 -6.2767288618249421e-05 4.3795961262602113e-05 0 -5.2585928388302479e-05 4.6175445599224393e-05 0 -3.7776047511618106e-05 1.5690644971102097e-05 0 -4.9547628257342639e-05 2.2149884239333275e-05 0 -4.6152977654603982e-05 1.4955952864099828e-05 0 -3.1385641008514326e-05 -6.3749122347415941e-06 0 -2.7542809260219703e-05 -1.3966219461163547e-06 0 -3.3507596811941212e-05 -9.901723373304906e-06 0 -6.7729467644042713e-05 -0.00014131363846551113 0 -5.8382797738625128e-05 -0.00013597519140095605 0 -6.7203354294509299e-05 -0.00012348157608652944 0 -8.1987260368011696e-05 0.00028279007494837037 0 -0.00010282169538785523 0.00027313490740778131 0 -7.6142969761122578e-05 0.0002435761152863789 0 -6.7203354294509299e-05 -0.00012348157608652944 0 -5.8382797738625128e-05 -0.00013597519140095605 0 -5.6394175329595225e-05 -0.0001205725980704478 0 -7.6142969761122578e-05 0.0002435761152863789 0 -0.00010282169538785523 0.00027313490740778131 0 -0.00010109383547756779 0.00024431226807025192 0 -3.7776047511618106e-05 1.5690644971102097e-05 0 -4.6152977654603982e-05 1.4955952864099828e-05 0 -3.3390555446981965e-05 1.046523859430045e-05 0 -3.2169534172285381e-05 -1.2017948249959027e-05 0 -2.7268793072124394e-05 1.3433232120242483e-06 0 -3.1385641008514326e-05 -6.3749122347415941e-06 0 -7.1922961203594712e-05 6.966052946319099e-05 0 -8.0810120333554096e-05 6.0528939289261436e-05 0 -6.2767288618249421e-05 4.3795961262602113e-05 0 -7.1192953324996158e-06 3.3596958540515727e-05 0 5.5405479084045652e-06 8.5827402876840738e-05 0 -2.1898880469197614e-05 8.9399596602051062e-05 0 -6.2107454975108837e-05 -6.1153177516571039e-05 0 -5.6941858557239763e-05 -5.6595786448064084e-05 0 -6.2283863511369207e-05 -5.8364920463348708e-05 0 -4.4250984739316977e-05 -5.488295215122447e-05 0 -4.2708820873545175e-05 -5.2269529214419083e-05 0 -4.4215210880849881e-05 -5.6872385922519677e-05 0 -2.362037367821172e-05 5.6480333225089587e-06 0 -2.7542809260219703e-05 -1.3966219461163547e-06 0 -3.1385641008514326e-05 -6.3749122347415941e-06 0 -3.8263380571983855e-05 -0.00017020681367123158 0 -4.6484666148022605e-05 -0.00015997978863675872 0 -5.0035945894112946e-05 -0.00017311127533066537 0 -0.00017066839346887067 0.00036018521861277064 0 -0.00014317544616454519 0.00032963008412270541 0 -0.00013764968710763465 0.00035657922986122585 0 -2.4329337499040704e-09 -3.8192171185019678e-10 0 -2.0776895090012379e-06 -4.0316685856830661e-07 0 -2.2878269210596375e-06 -7.0015617551816429e-07 0 -2.6070557393530095e-09 2.2960857578858455e-10 0 -2.5594849885116807e-06 2.6416200057103717e-07 0 -2.4323905487591145e-06 3.3963505284252031e-07 0 -7.1922961203594712e-05 6.966052946319099e-05 0 -5.3123208164242326e-05 6.6412156533651818e-05 0 -6.7841273799645936e-05 9.9757947996705645e-05 0 -4.3776514111542193e-05 8.8319328509891496e-05 0 -6.7841273799645936e-05 9.9757947996705645e-05 0 -5.3123208164242326e-05 6.6412156533651831e-05 0 -2.7144525166783107e-05 5.5771504902472301e-05 0 -7.1192953324996158e-06 3.3596958540515727e-05 0 -2.1898880469197614e-05 8.9399596602051062e-05 0 -0.00017050729388019866 0.00029916749703641721 0 -0.00013148502782353778 0.00029988745583752152 0 -0.00014317544616454519 0.00032963008412270541 0 -3.2878910892441911e-05 -0.00014136893725076954 0 -4.8907281809936035e-05 -0.00014664056187344135 0 -4.6484666148022605e-05 -0.00015997978863675872 0 -4.3583674307855158e-05 -5.0597268339648648e-05 0 -4.3745323132602675e-05 -4.7035747233046705e-05 0 -4.6577618235372393e-05 -5.080439481887573e-05 0 -3.0533169065060576e-05 -6.5287758764779377e-06 0 -3.3507596811941212e-05 -9.901723373304906e-06 0 -2.7542809260219703e-05 -1.3966219461163547e-06 0 -3.6914393229366332e-05 -1.6121228045407008e-05 0 -3.9837975149271206e-05 -2.2121674707437788e-05 0 -3.6949049402695694e-05 -2.1599720793062492e-05 0 -3.2102630003747913e-05 -3.2290178357595976e-05 0 -3.2062105423480654e-05 -2.8456556211881146e-05 0 -3.7214343544056721e-05 -3.4745366816324487e-05 0 -0.00015597930121751796 0.00016665679694539428 0 -0.00012318435811778112 0.00014508908173795673 0 -0.00013488448624736577 0.00018511237016349052 0 -0.00010664529560121539 -0.00014947248513037833 0 -9.4732359235045235e-05 -0.00016376554566251283 0 -9.0193951231092696e-05 -0.00015065283875353286 0 6.9272921576885619e-07 0.00028554750869960261 0 -2.8270843015187824e-05 0.00032346869448024332 0 -3.4159505104316482e-05 0.00029661839858985601 0 -3.557001485246961e-05 -0.00015573526531749123 0 -4.6484666148022605e-05 -0.00015997978863675872 0 -3.8263380571983855e-05 -0.00017020681367123158 0 -0.00017066839346887067 0.00036018521861277064 0 -0.0001707934000442869 0.00033015026313022776 0 -0.00014317544616454519 0.00032963008412270541 0 -5.356245864587486e-05 -5.0054384460534052e-05 0 -5.4085495616230647e-05 -4.6336290168781897e-05 0 -5.6769453496646985e-05 -5.105092612066597e-05 0 -3.038002071719174e-05 -2.7548201310525136e-05 0 -3.4377261456658312e-05 -3.2846197691117799e-05 0 -3.5961140926384335e-05 -4.5717807241823201e-05 0 -5.356245864587486e-05 -5.0054384460534052e-05 0 -5.1464999136435466e-05 -4.6336539026725278e-05 0 -5.4085495616230647e-05 -4.6336290168781897e-05 0 -3.6036337730388955e-05 -2.9027263606640946e-05 0 -3.7214343544056721e-05 -3.4745366816324487e-05 0 -3.2062105423480654e-05 -2.8456556211881146e-05 0 -5.8489274127976072e-05 -7.504165580855918e-05 0 -6.2782394729580954e-05 -9.4559679441678159e-05 0 -5.1187269013525434e-05 -7.9190494611909703e-05 0 -4.7972403568482601e-09 3.1152383852696449e-10 0 -6.4155884175031493e-06 -2.6933965485077133e-06 0 -4.4606871861207854e-06 -1.1542754706176584e-06 0 -6.2629136617478823e-09 -7.5197869578901274e-10 0 -5.6275760778375653e-06 1.6085115215927034e-07 0 -8.2339765422465544e-06 1.9768938055630922e-06 0 -6.2107454975108837e-05 -6.1153177516571039e-05 0 -5.7095794816337605e-05 -6.0264948091232995e-05 0 -5.6941858557239763e-05 -5.6595786448064084e-05 0 -4.4895506282552756e-05 -5.8006276508072352e-05 0 -4.4250984739316977e-05 -5.488295215122447e-05 0 -4.4215210880849881e-05 -5.6872385922519677e-05 0 -4.8427101094525049e-09 -1.0450194368474143e-09 0 -7.3635355304476584e-06 -4.6119604552124944e-07 0 -5.6275760778375645e-06 1.6085115215926987e-07 0 -4.038807229730497e-09 3.1517809411338712e-10 0 -4.4606871861207854e-06 -1.1542754706176584e-06 0 -6.0655181959929943e-06 -1.093740235892037e-06 0 -7.2734339185149589e-06 5.3444527396808066e-07 0 -5.3247238040658623e-06 -8.4036109575355931e-07 0 -5.2266018233193064e-06 -1.2309577603750327e-07 0 -2.1724905827845794e-05 -9.4990896156352099e-06 0 -1.8024232244907427e-05 -6.6262481195168645e-06 0 -1.3171829373957641e-05 -5.3933040936528744e-06 0 -2.8480419493072019e-05 8.641040417824055e-06 0 -1.7082691867549339e-05 4.1129283586933733e-06 0 -2.3661989901043578e-05 4.7471816592001011e-06 0 -4.1703849902038345e-05 -3.491387039309581e-05 0 -3.9437104214287125e-05 -2.978684168180696e-05 0 -4.3518401978458589e-05 -3.2439276364728688e-05 0 -4.0875044360616686e-05 -2.7076815135409918e-05 0 -3.6949049402695694e-05 -2.1599720793062492e-05 0 -3.9837975149271206e-05 -2.2121674707437788e-05 0 -6.8274103085598496e-06 0.00034603291866780678 0 -3.6010798858112754e-05 0.00035093284844935063 0 -2.8270843015187824e-05 0.00032346869448024332 0 -0.00010687954708356061 -0.00017727044880785014 0 -9.2207197598196655e-05 -0.00017564082121953917 0 -9.4732359235045235e-05 -0.00016376554566251283 0 -4.0875044360616686e-05 -2.7076815135409918e-05 0 -4.3518401978458589e-05 -3.2439276364728688e-05 0 -3.9437104214287125e-05 -2.978684168180696e-05 0 -4.3745323132602675e-05 -4.7035747233046705e-05 0 -4.0406451615726958e-05 -4.5087926150331621e-05 0 -4.2217981143849514e-05 -4.1390991679184606e-05 0 -0.00010154663954866683 0.00021425651703346139 0 -9.0188313336274446e-05 0.00017173006471028816 0 -7.3321586054869915e-05 0.00018671067450216 0 -6.2629136617478823e-09 -7.5197869578901274e-10 0 -6.7381090313919167e-09 5.3746808973600849e-10 0 -5.6275760778375645e-06 1.6085115215926987e-07 0 -5.3326147068291338e-09 -8.0580454678784701e-10 0 -4.7972403568482601e-09 3.1152383852696449e-10 0 -4.4606871861207854e-06 -1.1542754706176584e-06 0 -7.2734339185149589e-06 5.3444527396808066e-07 0 -8.430239529229595e-06 9.2241544868931687e-08 0 -5.3247238040658623e-06 -8.4036109575355931e-07 0 -5.5334438227327984e-05 0.00032970852266307808 0 -8.49385883854479e-05 0.00035179402620782291 0 -8.2152661648734142e-05 0.00031755527025200374 0 -8.2024162289878895e-05 -0.00016454937195037721 0 -6.9707472457558727e-05 -0.0001736537625838574 0 -6.9682230459619353e-05 -0.00015786247528149527 0 -6.2782394729580954e-05 -9.4559679441678159e-05 0 -5.2963347642978763e-05 -9.4387402517654708e-05 0 -5.1187269013525434e-05 -7.9190494611909703e-05 0 -3.1890666699229265e-06 1.6583086412835176e-07 0 -4.5458865337468223e-06 4.2172935974227753e-07 0 -4.2065404584333178e-06 2.1235650457228675e-07 0 -2.1611580768120224e-05 3.732078392136093e-06 0 -1.7526585026795228e-05 3.2616363510300443e-06 0 -2.4834829091297024e-05 6.4921258339412942e-06 0 -4.0406451615726958e-05 -4.5087926150331621e-05 0 -3.8514990085468395e-05 -4.0445049268719939e-05 0 -4.2217981143849514e-05 -4.1390991679184606e-05 0 -4.2065404584333178e-06 2.1235650457228675e-07 0 -4.5458865337468223e-06 4.2172935974227753e-07 0 -5.3909915663397032e-06 6.2811554548701306e-07 0 -4.5458865337468223e-06 4.2172935974227753e-07 0 -2.6594052828294881e-06 2.5731067864205043e-07 0 -4.6119985982922715e-06 3.6535882128655802e-07 0 -3.3568151377719739e-06 3.5547989035865707e-07 0 -4.6119985982922715e-06 3.6535882128655802e-07 0 -2.6594052828294881e-06 2.5731067864205043e-07 0 -5.7182482816810514e-05 -4.9260272725219916e-05 0 -5.4085495616230647e-05 -4.6336290168781897e-05 0 -5.6222474366079076e-05 -4.5309350533432355e-05 0 -3.6914393229366332e-05 -1.6121228045407008e-05 0 -3.6949049402695688e-05 -2.1599720793062489e-05 0 -3.4557075869910087e-05 -1.4011382020558242e-05 0 -4.3583674307855158e-05 -5.0597268339648648e-05 0 -4.0406451615726958e-05 -4.5087926150331621e-05 0 -4.3745323132602675e-05 -4.7035747233046705e-05 0 -2.362037367821172e-05 5.6480333225089587e-06 0 -3.1385641008514326e-05 -6.3749122347415924e-06 0 -2.7268793072124394e-05 1.3433232120242483e-06 0 -2.9941333136536963e-06 0.0003155956744040413 0 -6.8274103085598496e-06 0.00034603291866780678 0 -2.8270843015187824e-05 0.00032346869448024332 0 -0.00010693297752432276 -0.00016371599115753901 0 -0.00010687954708356061 -0.00017727044880785014 0 -9.4732359235045235e-05 -0.00016376554566251283 0 -0.00010664529560121539 -0.00014947248513037833 0 -0.00010693297752432276 -0.00016371599115753901 0 -9.4732359235045235e-05 -0.00016376554566251283 0 6.9272921576885619e-07 0.00028554750869960261 0 -2.9941333136536963e-06 0.0003155956744040413 0 -2.8270843015187824e-05 0.00032346869448024332 0 -1.7913731236873423e-05 1.1587573059672155e-05 0 -1.7391417730547005e-05 8.7756572875861259e-06 0 -2.362037367821172e-05 5.6480333225089587e-06 0 -8.0697595676921587e-06 -3.9319220761929633e-07 0 -5.3215765689018992e-06 1.8176177222600248e-07 0 -7.8739160240942076e-06 -5.5788916702462237e-07 0 -4.5774739367834344e-06 1.964771756804471e-07 0 -7.8739160240942076e-06 -5.5788916702462237e-07 0 -5.3215765689018992e-06 1.8176177222600248e-07 0 -2.4084630672935908e-05 0.0001873640072608527 0 -1.7145771885599755e-05 0.00020903806976447115 0 -4.8369053252807739e-05 0.00021199963138950132 0 -1.7145771885599755e-05 0.00020903806976447115 0 -2.629515653791539e-05 0.00023243937833308814 0 -4.8369053252807739e-05 0.00021199963138950132 0 -3.2169534172285381e-05 -1.2017948249959027e-05 0 -3.1385641008514326e-05 -6.3749122347415958e-06 0 -3.4557075869910087e-05 -1.4011382020558242e-05 0 -4.5861147731673459e-05 -5.9821092126208269e-05 0 -4.4215210880849888e-05 -5.6872385922519677e-05 0 -4.5375390328998288e-05 -5.6263406009543422e-05 0 -5.2159475146913913e-05 -5.9960546588022715e-05 0 -5.277563872341284e-05 -5.5228155211208388e-05 0 -5.6941858557239763e-05 -5.6595786448064084e-05 0 -1.7391417730547005e-05 8.7756572875861259e-06 0 -2.1335417963408036e-05 3.6984862602162987e-06 0 -2.362037367821172e-05 5.6480333225089587e-06 0 -0.0001707934000442869 0.00033015026313022776 0 -0.00017050729388019866 0.00029916749703641721 0 -0.00014317544616454519 0.00032963008412270541 0 -3.2878910892441911e-05 -0.00014136893725076954 0 -4.6484666148022605e-05 -0.00015997978863675872 0 -3.557001485246961e-05 -0.00015573526531749123 0 -4.3688569835724491e-05 -1.8931654223011986e-05 0 -4.3030768403729812e-05 -1.887962874720297e-05 0 -3.4801660970769722e-05 -1.4024523255904822e-05 0 -6.2856320418739619e-05 2.12420309561627e-05 0 -4.952132021291827e-05 1.4278604381871087e-05 0 -6.101695718462554e-05 2.1413973381152674e-05 0 -3.2169534172285381e-05 -1.2017948249959027e-05 0 -3.6949049402695694e-05 -2.1599720793062492e-05 0 -3.2566077907579828e-05 -2.2423680550321767e-05 0 -3.038002071719174e-05 -2.7548201310525136e-05 0 -3.5961140926384335e-05 -4.5717807241823201e-05 0 -2.5405839293890048e-05 -4.7789334027631211e-05 0 -3.6036337730388955e-05 -2.9027263606640946e-05 0 -3.6949049402695694e-05 -2.1599720793062492e-05 0 -3.9437104214287125e-05 -2.978684168180696e-05 0 -4.0875044360616686e-05 -2.7076815135409918e-05 0 -3.9437104214287125e-05 -2.978684168180696e-05 0 -3.6949049402695694e-05 -2.1599720793062492e-05 0 -6.9947427387259114e-05 -0.00018908357677502067 0 -5.9552432097852448e-05 -0.00018784486109234803 0 -6.0026367270301395e-05 -0.00017740396577211378 0 -8.5450953084333152e-05 0.00038732811018803577 0 -0.00011284676926758779 0.00038837406242240533 0 -0.0001101818564800691 0.00036224993117708046 0 -5.9692274526515185e-05 0.00038480661974955518 0 -8.5450953084333152e-05 0.00038732811018803577 0 -6.1034368040540242e-05 0.00036012253474281171 0 -8.1497753795277116e-05 -0.00018958184938358804 0 -6.9947427387259114e-05 -0.00018908357677502067 0 -8.0314203307397803e-05 -0.00017820312083001823 0 -3.4161471046409601e-05 4.236211444082277e-05 0 -5.3123208164242326e-05 6.6412156533651831e-05 0 -5.2585928388302479e-05 4.6175445599224393e-05 0 -4.6272567637338907e-05 -3.2283296910954077e-05 0 -4.9848964422226264e-05 -3.7406714177033512e-05 0 -4.7395624698400088e-05 -3.7597344463415256e-05 0 -3.6036337730388955e-05 -2.9027263606640946e-05 0 -3.9437104214287125e-05 -2.978684168180696e-05 0 -3.7214343544056721e-05 -3.4745366816324487e-05 0 -4.1703849902038345e-05 -3.491387039309581e-05 0 -3.7214343544056721e-05 -3.4745366816324487e-05 0 -3.9437104214287125e-05 -2.978684168180696e-05 0 -4.3247345277849146e-05 -8.2621743395103553e-05 0 -4.0143891580640783e-05 -6.4339705648564275e-05 0 -5.1187269013525434e-05 -7.9190494611909703e-05 0 -0.00013517478215588721 0.00010516532718500228 0 -0.00010020071353476553 8.4840549368130449e-05 0 -0.00012110143643785618 0.00011633051586049965 0 -3.7137626670972534e-05 -2.1816407447285871e-05 0 -4.4775756606195282e-05 -2.9754854083297043e-05 0 -3.5773180715701136e-05 -2.4484331191871475e-05 0 -4.1093173235152136e-05 -3.281526482097536e-05 0 -3.5773180715701136e-05 -2.4484331191871475e-05 0 -4.4775756606195282e-05 -2.9754854083297043e-05 0 -5.5125230279364904e-05 -5.2981838827014352e-05 0 -5.0952666058372575e-05 -5.1673542674340054e-05 0 -5.356245864587486e-05 -5.0054384460534052e-05 0 -0.00011146593598694419 0.00016683072177435667 0 -0.00013488448624736577 0.00018511237016349052 0 -0.00012318435811778112 0.00014508908173795673 0 -4.2245445711362823e-05 -1.9943135453439194e-05 0 -5.1358078456741821e-05 -2.6576132215912749e-05 0 -4.4184484173554754e-05 -2.4334625347815446e-05 0 -5.3188380095092505e-05 -3.1693809724680145e-05 0 -4.4184484173554754e-05 -2.4334625347815446e-05 0 -5.1358078456741821e-05 -2.6576132215912749e-05 0 -7.5474767407343729e-05 4.621818984620003e-05 0 -7.4260348411332985e-05 3.5806461584469773e-05 0 -6.0403373898906029e-05 3.2344405139325267e-05 0 -5.9329813678288742e-05 2.4509790928319616e-05 0 -6.0403373898906029e-05 3.2344405139325267e-05 0 -7.4260348411332985e-05 3.5806461584469773e-05 0 -5.1972315080403659e-05 -4.244898122791697e-05 0 -4.8680188273625146e-05 -4.2418478657761924e-05 0 -4.7395624698400088e-05 -3.7597344463415256e-05 0 -8.398940381072009e-05 -5.9558466682158055e-05 0 -7.8292292297249612e-05 -6.4303108747375523e-05 0 -6.7452228680188884e-05 -5.0352985841915435e-05 0 -3.4840041353519294e-05 0.00015774485758935429 0 -5.2301385563343459e-05 0.0001273317828850927 0 -2.8270748204291457e-05 0.00012119760174581839 0 -3.0533169065060576e-05 -6.5287758764779377e-06 0 -3.2172549366042406e-05 -1.0880028688624749e-05 0 -3.6067579589577712e-05 -1.3797756769726861e-05 0 -1.1767766214933087e-05 1.5241240784568856e-06 0 -1.0887114754473118e-05 4.0322105419490048e-06 0 -9.3367003808259401e-06 2.3466281824350451e-06 0 -0.0001242793120583428 0.00026380984817564901 0 -0.00010282169538785523 0.00027313490740778131 0 -0.00013148502782353778 0.00029988745583752152 0 -4.8816100606910276e-05 -0.00012942678665640173 0 -5.8382797738625128e-05 -0.00013597519140095605 0 -4.8907281809936028e-05 -0.00014664056187344135 0 -3.2169534172285381e-05 -1.2017948249959027e-05 0 -3.455707586991008e-05 -1.4011382020558242e-05 0 -3.6949049402695694e-05 -2.1599720793062492e-05 0 -5.277563872341284e-05 -5.5228155211208388e-05 0 -5.0952666058372575e-05 -5.1673542674340054e-05 0 -5.5125230279364904e-05 -5.2981838827014352e-05 0 -4.1703849902038345e-05 -3.491387039309581e-05 0 -4.4852074239480459e-05 -3.7896384822318655e-05 0 -4.2217981143849514e-05 -4.1390991679184606e-05 0 -2.8488251057332857e-09 -4.8532092367148333e-10 0 -2.2878269210596375e-06 -7.0015617551816429e-07 0 -3.0859652099283198e-06 -1.0139423658653481e-06 0 -2.909222597991907e-09 2.0480029469274009e-10 0 -3.1497143501415365e-06 1.5769714487184729e-07 0 -2.5594849885116807e-06 2.6416200057103717e-07 0 -4.0143891580640783e-05 -6.4339705648564275e-05 0 -4.975744451216026e-05 -6.487127912794295e-05 0 -5.1187269013525434e-05 -7.9190494611909703e-05 0 -2.1611580768120224e-05 3.732078392136093e-06 0 -2.4834829091297024e-05 6.4921258339412942e-06 0 -2.8825749906729679e-05 6.2047804403815236e-06 0 -4.4066156628324671e-05 2.6997106835544239e-05 0 -5.2585928388302472e-05 4.6175445599224393e-05 0 -6.2767288618249421e-05 4.3795961262602113e-05 0 -3.7775281748512166e-06 -5.7329811598384997e-07 0 -2.0776895090012379e-06 -4.0316685856830661e-07 0 -3.9708847404582919e-06 -1.7384290705462284e-07 0 -2.9146261755394187e-06 -5.45407427361657e-08 0 -3.9708847404582919e-06 -1.7384290705462284e-07 0 -2.0776895090012379e-06 -4.0316685856830661e-07 0 -3.3568151377719739e-06 3.5547989035865707e-07 0 -2.4323905487591145e-06 3.3963505284252026e-07 0 -5.3215765689018992e-06 1.8176177222600248e-07 0 -4.5774739367834344e-06 1.964771756804471e-07 0 -5.3215765689018992e-06 1.8176177222600248e-07 0 -2.4323905487591145e-06 3.3963505284252031e-07 0 -3.7776047511618106e-05 1.5690644971102097e-05 0 -3.2218657450989804e-05 1.7530092150457763e-05 0 -4.4066156628324671e-05 2.6997106835544239e-05 0 -1.1767766214933087e-05 1.5241240784568856e-06 0 -1.4243857882362368e-05 2.8987468214833049e-06 0 -1.0887114754473118e-05 4.0322105419490048e-06 0 -9.6805514704462708e-06 2.7034226010078236e-06 0 -1.0171798605605631e-05 1.3543979175056245e-06 0 -7.2734339185149589e-06 5.3444527396808066e-07 0 -2.4834829091297024e-05 6.4921258339412942e-06 0 -1.7526585026795228e-05 3.2616363510300443e-06 0 -2.0931656805521605e-05 7.1719121286353923e-06 0 -1.8690882642925056e-05 1.7879415848070288e-06 0 -1.582722364027668e-05 5.8193325194903104e-06 0 -1.4243857882362368e-05 2.8987468214833045e-06 0 -1.7846010891135888e-05 -5.8731312694864175e-06 0 -1.9965845756931706e-05 -7.8333828637922321e-06 0 -1.5384414211671134e-05 -4.3748594504432976e-06 0 -1.8190822692424612e-05 -6.6688319147719316e-06 0 -1.5384414211671134e-05 -4.3748594504432976e-06 0 -1.9965845756931706e-05 -7.8333828637922321e-06 0 -6.7381090313918116e-09 5.374680897360057e-10 0 -4.8427101094525049e-09 -1.0450194368474143e-09 0 -5.6275760778375645e-06 1.6085115215926987e-07 0 -4.038807229730497e-09 3.1517809411338712e-10 0 -5.3326147068291338e-09 -8.0580454678784701e-10 0 -4.4606871861207854e-06 -1.1542754706176584e-06 0 8.4569013580974761e-06 0.00012261655915049563 0 -2.8270748204291457e-05 0.00012119760174581839 0 -2.1898880469197614e-05 8.9399596602051062e-05 0 -8.0697595676921587e-06 -3.9319220761929633e-07 0 -1.1582474773236317e-05 -1.8762635751605833e-06 0 -8.6949681094745172e-06 -2.622502068553405e-07 0 -3.6896358391052635e-05 -1.6828947979947876e-05 0 -3.0806877564097741e-05 -1.3573130373773043e-05 0 -3.3895482597732311e-05 -1.9512405995897707e-05 0 -4.8616658501639708e-05 -5.4395270306992904e-05 0 -5.0952666058372575e-05 -5.1673542674340054e-05 0 -5.277563872341284e-05 -5.5228155211208388e-05 0 -3.6177910481901179e-05 -1.5107393219617069e-05 0 -3.4801660970769722e-05 -1.4024523255904822e-05 0 -2.9475622925768803e-05 -1.1448660238032931e-05 0 -5.0406136238073426e-05 1.5328802959109894e-05 0 -4.0637747490436909e-05 1.031288233240952e-05 0 -4.952132021291827e-05 1.4278604381871087e-05 0 -4.5641800747635644e-05 -4.2194365612509014e-05 0 -4.2217981143849514e-05 -4.1390991679184606e-05 0 -4.4852074239480459e-05 -3.7896384822318655e-05 0 -3.4801660970769722e-05 -1.4024523255904822e-05 0 -2.969508499712503e-05 -1.1632690403585437e-05 0 -2.8278216738521007e-05 -1.059590909829029e-05 0 -3.6506242643597427e-05 9.8468767993780773e-06 0 -3.3390555446981965e-05 1.046523859430045e-05 0 -4.6152977654603982e-05 1.4955952864099828e-05 0 -3.6836087530327087e-05 -1.5722259024083638e-05 0 -2.969508499712503e-05 -1.1632690403585437e-05 0 -3.4801660970769722e-05 -1.4024523255904822e-05 0 -1.3394037475277412e-05 -3.0669599035654313e-06 0 -1.5629994563039925e-05 -4.167843992455462e-06 0 -1.7640710689723821e-05 -5.3191035853428148e-06 0 -1.2845905383444416e-05 1.0078557903694625e-06 0 -1.7526585026795228e-05 3.2616363510300443e-06 0 -1.7416686914959698e-05 1.4912493029041917e-06 0 -4.9547628257342639e-05 2.2149884239333275e-05 0 -3.7776047511618106e-05 1.5690644971102097e-05 0 -4.4066156628324671e-05 2.6997106835544239e-05 0 -5.1972315080403659e-05 -4.244898122791697e-05 0 -4.7395624698400088e-05 -3.7597344463415256e-05 0 -4.9848964422226264e-05 -3.7406714177033512e-05 0 -3.979239827687524e-05 0.0002629730160594931 0 -3.4159505104316482e-05 0.00029661839858985601 0 -6.0012967947704764e-05 0.00029471474267090563 0 -8.505099377988188e-05 -0.0001342398579174661 0 -9.0193951231092696e-05 -0.00015065283875353286 0 -7.809177019514633e-05 -0.00014804810330213853 0 -3.7775281748512166e-06 -5.7329811598384997e-07 0 -2.2878269210596375e-06 -7.0015617551816429e-07 0 -2.0776895090012379e-06 -4.0316685856830661e-07 0 -4.5774739367834344e-06 1.964771756804471e-07 0 -2.4323905487591141e-06 3.3963505284252031e-07 0 -2.5594849885116807e-06 2.6416200057103717e-07 0 -3.4955320230237481e-09 -6.7818950556137386e-10 0 -3.0859652099283198e-06 -1.0139423658653481e-06 0 -3.4037225449654987e-06 -1.0025488461248017e-06 0 -3.32537932630304e-09 1.9611427060271748e-10 0 -3.1934695559388481e-06 -1.9578566267997238e-08 0 -3.1497143501415365e-06 1.5769714487184729e-07 0 -3.6896358391052635e-05 -1.6828947979947876e-05 0 -4.1415196322418936e-05 -2.1423045675910145e-05 0 -4.056710867867559e-05 -1.9622666612279702e-05 0 -4.3842489092968157e-05 -2.410582075884998e-05 0 -4.056710867867559e-05 -1.9622666612279702e-05 0 -4.1415196322418936e-05 -2.1423045675910145e-05 0 -7.5016047311558928e-05 0.00013633144986985093 0 -6.7841273799645936e-05 9.9757947996705645e-05 0 -5.2301385563343459e-05 0.0001273317828850927 0 -4.3776514111542193e-05 8.8319328509891496e-05 0 -5.2301385563343459e-05 0.0001273317828850927 0 -6.7841273799645936e-05 9.9757947996705645e-05 0 -1.8314386571273789e-05 2.0964783274048169e-05 0 -1.3681821116108799e-05 1.3795125859329244e-05 0 -1.2773862675511763e-05 2.2167929460123084e-05 0 -3.6896358391052635e-05 -1.6828947979947876e-05 0 -3.2172549366042406e-05 -1.0880028688624749e-05 0 -3.0806877564097741e-05 -1.3573130373773043e-05 0 -5.8230319136999279e-06 6.2331538968068854e-07 0 -4.2065404584333178e-06 2.1235650457228675e-07 0 -5.3909915663397032e-06 6.2811554548701306e-07 0 -4.6272567637338907e-05 -3.2283296910954077e-05 0 -4.7395624698400088e-05 -3.7597344463415256e-05 0 -4.3518401978458589e-05 -3.2439276364728688e-05 0 -0.00010154663954866683 0.00021425651703346139 0 -0.00011409472449088271 0.00019057914662795291 0 -9.0188313336274446e-05 0.00017173006471028816 0 -5.7182482816810514e-05 -4.9260272725219916e-05 0 -5.6222474366079076e-05 -4.5309350533432355e-05 0 -5.9366706372626089e-05 -5.0415457487832933e-05 0 -4.3745323132602675e-05 -4.7035747233046705e-05 0 -4.5855812995877624e-05 -4.5806414200311475e-05 0 -4.6577618235372393e-05 -5.080439481887573e-05 0 -1.1748750360085376e-05 -2.22969527676656e-06 0 -7.8739160240942076e-06 -5.5788916702462237e-07 0 -1.0931743483832316e-05 -1.911745279973425e-06 0 -7.1922961203594712e-05 6.966052946319099e-05 0 -5.2585928388302479e-05 4.6175445599224393e-05 0 -5.3123208164242326e-05 6.6412156533651831e-05 0 -1.4919116039439961e-05 -7.1980118983809422e-06 0 -2.1724905827845794e-05 -9.4990896156352099e-06 0 -1.3171829373957641e-05 -5.3933040936528744e-06 0 -2.8480419493072019e-05 8.641040417824055e-06 0 -1.8894082207811738e-05 6.6690662844419592e-06 0 -1.7082691867549336e-05 4.1129283586933733e-06 0 -3.6036337730388955e-05 -2.9027263606640946e-05 0 -3.2566077907579828e-05 -2.2423680550321767e-05 0 -3.6949049402695694e-05 -2.1599720793062492e-05 0 -6.6731920963074332e-06 -7.9890413553166835e-07 0 -1.1105898458218127e-05 -2.1733341528735275e-06 0 -6.6793057863131627e-06 -5.2896047762657116e-07 0 -7.4203943397791738e-06 -9.717144307453155e-07 0 -6.4337445528621327e-06 -1.1260771541208693e-06 0 -1.2071518133060061e-05 -1.6055253542713804e-07 0 -0.00012208340886813823 7.9555374864911512e-05 0 -9.5559197620533935e-05 6.2589213268273301e-05 0 -0.00010020071353476553 8.4840549368130449e-05 0 -7.6630561323264105e-05 -4.7885648600315905e-05 0 -6.7452228680188884e-05 -5.0352985841915435e-05 0 -6.3530580879621093e-05 -3.9472660962480756e-05 0 -3.4161471046409601e-05 4.236211444082277e-05 0 -1.8795775773027406e-05 3.1073921563193689e-05 0 -2.7144525166783107e-05 5.5771504902472301e-05 0 -7.1192953324996158e-06 3.3596958540515727e-05 0 -2.7144525166783107e-05 5.5771504902472301e-05 0 -1.8795775773027406e-05 3.1073921563193689e-05 0 -4.4414244432089233e-05 -5.1432501708389397e-05 0 -5.400833885184776e-05 -5.6392238106805951e-05 0 -4.975744451216026e-05 -6.487127912794295e-05 0 -5.8489274127976072e-05 -7.504165580855918e-05 0 -4.975744451216026e-05 -6.487127912794295e-05 0 -5.400833885184776e-05 -5.6392238106805951e-05 0 -3.2169534172285381e-05 -1.2017948249959027e-05 0 -2.6921994918262724e-05 -3.1483034560719709e-06 0 -2.7268793072124394e-05 1.3433232120242483e-06 0 -4.8616658501639708e-05 -5.4395270306992904e-05 0 -5.2775638723412846e-05 -5.5228155211208395e-05 0 -4.9800412392375068e-05 -5.7440182992621794e-05 0 -5.8230319136999279e-06 6.2331538968068854e-07 0 -7.2734339185149589e-06 5.3444527396808066e-07 0 -5.2266018233193064e-06 -1.2309577603750327e-07 0 -4.4775756606195282e-05 -2.9754854083297043e-05 0 -5.5963735215798452e-05 -3.8827659251564546e-05 0 -4.8764769823432413e-05 -3.768532816563034e-05 0 -4.5861147731673459e-05 -5.9821092126208269e-05 0 -4.5375390328998288e-05 -5.6263406009543422e-05 0 -4.7423235795551138e-05 -5.7406313306484325e-05 0 -0.00010126957838839256 0.0001157009630289676 0 -0.00012110143643785618 0.00011633051586049965 0 -0.00010020071353476553 8.4840549368130449e-05 0 -0.00013148502782353778 0.00029988745583752152 0 -0.00010282169538785523 0.00027313490740778131 0 -0.00010253721356180783 0.00030222047425616219 0 -4.8907281809936028e-05 -0.00014664056187344135 0 -5.8382797738625128e-05 -0.00013597519140095605 0 -6.056054657739555e-05 -0.00014963493283255298 0 -1.483355223756728e-05 -3.330612431741401e-06 0 -1.433723247639674e-05 -1.7671398879172718e-06 0 -1.167937521990614e-05 -1.3147957774187338e-06 0 -4.3842489092968157e-05 -2.410582075884998e-05 0 -4.1415196322418936e-05 -2.1423045675910145e-05 0 -4.6414084555385737e-05 -2.7080997322929077e-05 0 -7.3808235047936684e-06 1.2271134901203641e-06 0 -9.3367003808259401e-06 2.3466281824350451e-06 0 -8.0428106747203683e-06 2.357353065081147e-06 0 -9.5286670088837058e-06 3.9409517179283067e-06 0 -8.0428106747203683e-06 2.357353065081147e-06 0 -9.3367003808259401e-06 2.3466281824350451e-06 0 -2.4834829091297024e-05 6.4921258339412942e-06 0 -3.3390555446981965e-05 1.046523859430045e-05 0 -2.8825749906729679e-05 6.2047804403815236e-06 0 -5.8489274127976072e-05 -7.504165580855918e-05 0 -6.7632404916149647e-05 -8.5292858360655715e-05 0 -6.2782394729580954e-05 -9.4559679441678159e-05 0 -3.0728966794089672e-05 6.1849955563586656e-06 0 -2.4754495749175991e-05 3.7576988053058668e-06 0 -3.699115946229554e-05 8.6566189369089218e-06 0 -4.8369053252807739e-05 0.00021199963138950132 0 -7.6142969761122578e-05 0.0002435761152863789 0 -8.0336880756492124e-05 0.0002160194845865519 0 -4.8369053252807739e-05 0.00021199963138950132 0 -8.0336880756492124e-05 0.0002160194845865519 0 -7.3321586054869915e-05 0.00018671067450216 0 -0.00010154663954866683 0.00021425651703346139 0 -7.3321586054869915e-05 0.00018671067450216002 0 -8.0336880756492124e-05 0.0002160194845865519 0 -7.4497927933622074e-05 -0.00010902093260409239 0 -6.7203354294509299e-05 -0.00012348157608652944 0 -6.1055326462340292e-05 -0.0001082132422979527 0 -7.4497927933622074e-05 -0.00010902093260409239 0 -6.1055326462340292e-05 -0.0001082132422979527 0 -6.2782394729580954e-05 -9.4559679441678159e-05 0 -1.3681821116108799e-05 1.3795125859329244e-05 0 -1.316695120254591e-05 1.5428386859779737e-05 0 -1.2773862675511763e-05 2.2167929460123084e-05 0 -2.4329337499040704e-09 -3.8192171185019678e-10 0 -2.0238684278606535e-09 -3.6900334588832179e-11 0 -2.0776895090012379e-06 -4.0316685856830661e-07 0 -2.2966845167471398e-09 1.6641119347231295e-10 0 -2.6070557393530095e-09 2.2960857578858455e-10 0 -2.4323905487591145e-06 3.3963505284252031e-07 0 -1.1582474773236317e-05 -1.8762635751605833e-06 0 -1.1679375219906142e-05 -1.314795777418734e-06 0 -8.6949681094745172e-06 -2.622502068553405e-07 0 -3.038002071719174e-05 -2.7548201310525136e-05 0 -2.9992809631204005e-05 -2.4148409193076426e-05 0 -3.4377261456658312e-05 -3.2846197691117799e-05 0 -2.4754495749175991e-05 3.7576988053058672e-06 0 -2.8825749906729679e-05 6.2047804403815236e-06 0 -3.699115946229554e-05 8.6566189369089218e-06 0 -2.0065859350607672e-09 1.2725944758143213e-10 0 -2.6594052828294881e-06 2.5731067864205043e-07 0 -1.7037442394525466e-06 3.626753753362034e-08 0 -2.8480419493072019e-05 8.641040417824055e-06 0 -2.3661989901043578e-05 4.7471816592001011e-06 0 -3.2678359028293391e-05 7.9785209979912706e-06 0 -2.1724905827845794e-05 -9.4990896156352099e-06 0 -2.4310522679342271e-05 -9.4509305132726401e-06 0 -1.8024232244907427e-05 -6.6262481195168637e-06 0 -6.9332371734879593e-05 -6.3394753138456449e-05 0 -6.7452228680188884e-05 -5.0352985841915435e-05 0 -7.8292292297249612e-05 -6.4303108747375523e-05 0 -4.6119985982922715e-06 3.6535882128655802e-07 0 -3.3568151377719739e-06 3.5547989035865707e-07 0 -6.0851054554859263e-06 2.0378025377904355e-07 0 -5.1972315080403659e-05 -4.244898122791697e-05 0 -5.6222474366079076e-05 -4.5309350533432355e-05 0 -5.4085495616230647e-05 -4.6336290168781897e-05 0 -1.8690882642925056e-05 1.7879415848070288e-06 0 -1.4243857882362368e-05 2.8987468214833045e-06 0 -1.7088334847454529e-05 -5.0055237016358357e-08 0 -3.4840041353519294e-05 0.00015774485758935429 0 -6.2437802388168318e-05 0.00016064925305091804 0 -5.2301385563343459e-05 0.0001273317828850927 0 -5.8230319136999279e-06 6.2331538968068854e-07 0 -3.9708847404582919e-06 -1.7384290705462284e-07 0 -4.2065404584333178e-06 2.1235650457228675e-07 0 -0.00011439222285318659 0.00033266535488851885 0 -0.00010253721356180783 0.00030222047425616219 0 -8.2152661648734142e-05 0.00031755527025200374 0 -5.7493463534802e-05 -0.00016381596763826546 0 -6.056054657739555e-05 -0.00014963493283255298 0 -6.9682230459619353e-05 -0.00015786247528149527 0 -3.3568151377719739e-06 3.5547989035865707e-07 0 -5.3215765689018992e-06 1.8176177222600248e-07 0 -6.0851054554859263e-06 2.0378025377904355e-07 0 -1.8690882642925056e-05 1.7879415848070288e-06 0 -2.1254079461419385e-05 -2.6099982116155176e-06 0 -2.4631073671450994e-05 -1.9286004060395069e-06 0 -5.5334438227327984e-05 0.00032970852266307808 0 -6.1034368040540242e-05 0.00036012253474281171 0 -8.49385883854479e-05 0.00035179402620782291 0 -0.00011439222285318659 0.00033266535488851885 0 -8.49385883854479e-05 0.00035179402620782286 0 -0.0001101818564800691 0.00036224993117708046 0 -8.2024162289878895e-05 -0.00016454937195037721 0 -8.0314203307397803e-05 -0.00017820312083001823 0 -6.9707472457558727e-05 -0.0001736537625838574 0 -5.7493463534802e-05 -0.00016381596763826546 0 -6.9707472457558727e-05 -0.0001736537625838574 0 -6.0026367270301395e-05 -0.00017740396577211378 0 -4.4066156628324671e-05 2.6997106835544239e-05 0 -6.2767288618249421e-05 4.3795961262602113e-05 0 -6.0403373898906029e-05 3.2344405139325267e-05 0 -5.4814751738941597e-05 -4.4500587412184464e-05 0 -6.7452228680188884e-05 -5.0352985841915435e-05 0 -6.1181346924513554e-05 -5.5124320042914577e-05 0 -6.9332371734879593e-05 -6.3394753138456449e-05 0 -6.1181346924513554e-05 -5.5124320042914577e-05 0 -6.7452228680188884e-05 -5.0352985841915435e-05 0 -0.00010126957838839256 0.0001157009630289676 0 -0.00010020071353476553 8.4840549368130449e-05 0 -8.4193968525476845e-05 9.6540402796299089e-05 0 -7.1922961203594712e-05 6.966052946319099e-05 0 -8.4193968525476845e-05 9.6540402796299089e-05 0 -0.00010020071353476553 8.4840549368130449e-05 0 -4.5774739367834344e-06 1.964771756804471e-07 0 -5.5423331257427675e-06 -7.4231524246425806e-08 0 -7.8739160240942076e-06 -5.5788916702462237e-07 0 5.5405479084045652e-06 8.5827402876840738e-05 0 8.4569013580974761e-06 0.00012261655915049563 0 -2.1898880469197614e-05 8.9399596602051062e-05 0 -7.4203943397791738e-06 -9.717144307453155e-07 0 -1.1362342198065779e-05 -2.5226618930518429e-07 0 -7.3635355304476576e-06 -4.6119604552124928e-07 0 -6.6731920963074332e-06 -7.9890413553166835e-07 0 -6.0655181959929943e-06 -1.093740235892037e-06 0 -9.6087931729488976e-06 -1.9489863288995158e-06 0 -3.6896358391052635e-05 -1.6828947979947876e-05 0 -3.6067579589577712e-05 -1.3797756769726861e-05 0 -3.2172549366042406e-05 -1.0880028688624749e-05 0 -1.1105898458218127e-05 -2.1733341528735275e-06 0 -1.0370867381642176e-05 -1.7529949164672809e-06 0 -6.6793057863131627e-06 -5.2896047762657116e-07 0 -1.2071518133060061e-05 -1.6055253542713804e-07 0 -6.4337445528621336e-06 -1.1260771541208693e-06 0 -1.0099412840034207e-05 -1.1850072476486576e-07 0 -3.6506242643597427e-05 9.8468767993780773e-06 0 -4.6152977654603982e-05 1.4955952864099828e-05 0 -3.699115946229554e-05 8.6566189369089218e-06 0 -4.952132021291827e-05 1.4278604381871087e-05 0 -3.699115946229554e-05 8.6566189369089218e-06 0 -4.6152977654603982e-05 1.4955952864099828e-05 0 -5.5334438227327984e-05 0.00032970852266307808 0 -6.0012967947704764e-05 0.00029471474267090563 0 -3.4159505104316482e-05 0.00029661839858985601 0 -8.2024162289878895e-05 -0.00016454937195037721 0 -7.809177019514633e-05 -0.00014804810330213853 0 -9.0193951231092696e-05 -0.00015065283875353286 0 -4.5861147731673459e-05 -5.9821092126208269e-05 0 -4.4895506282552756e-05 -5.8006276508072352e-05 0 -4.4215210880849881e-05 -5.6872385922519677e-05 0 -5.7095794816337605e-05 -6.0264948091232995e-05 0 -5.2159475146913913e-05 -5.9960546588022715e-05 0 -5.6941858557239763e-05 -5.6595786448064084e-05 0 -2.1619331860489322e-05 -8.3348493145261228e-06 0 -1.7846010891135888e-05 -5.8731312694864175e-06 0 -1.7640710689723821e-05 -5.3191035853428148e-06 0 -6.207327456245979e-05 -5.4881483379783071e-05 0 -6.0324214734891998e-05 -5.3395025762957319e-05 0 -5.9366706372626089e-05 -5.0415457487832933e-05 0 -3.4073588679185521e-05 -3.7451472210132708e-05 0 -3.5157963193334379e-05 -4.0033996405178311e-05 0 -3.8956302931578664e-05 -4.6145150521300481e-05 0 -4.3583674307855158e-05 -5.0597268339648648e-05 0 -4.1374346684106154e-05 -4.9298516283980141e-05 0 -4.0406451615726958e-05 -4.5087926150331621e-05 0 -5.3188380095092505e-05 -3.1693809724680145e-05 0 -5.5963735215798452e-05 -3.8827659251564546e-05 0 -4.4775756606195282e-05 -2.9754854083297043e-05 0 -5.2159475146913913e-05 -5.9960546588022715e-05 0 -4.9800412392375068e-05 -5.7440182992621794e-05 0 -5.277563872341284e-05 -5.5228155211208388e-05 0 -5.9329813678288742e-05 2.4509790928319616e-05 0 -4.6152977654603982e-05 1.4955952864099828e-05 0 -4.9547628257342639e-05 2.2149884239333275e-05 0 -1.433723247639674e-05 -1.767139887917272e-06 0 -1.160794735492815e-05 -1.3848034558100636e-07 0 -1.167937521990614e-05 -1.3147957774187338e-06 0 -5.4814751738941597e-05 -4.4500587412184464e-05 0 -5.400833885184776e-05 -5.6392238106805951e-05 0 -4.7493475366554416e-05 -4.3616659463073766e-05 0 -4.4414244432089233e-05 -5.1432501708389397e-05 0 -4.7493475366554416e-05 -4.3616659463073766e-05 0 -5.400833885184776e-05 -5.6392238106805951e-05 0 -2.2749641789845269e-05 -8.3865153366272963e-06 0 -2.1619331860489322e-05 -8.3348493145261228e-06 0 -1.7640710689723821e-05 -5.3191035853428148e-06 0 -5.4814751738941597e-05 -4.4500587412184464e-05 0 -4.8764769823432413e-05 -3.768532816563034e-05 0 -5.5963735215798452e-05 -3.8827659251564546e-05 0 -1.9471212775285486e-05 -6.1399277611200623e-06 0 -2.2749641789845269e-05 -8.3865153366272963e-06 0 -1.7640710689723821e-05 -5.3191035853428148e-06 0 -1.2845905383444416e-05 1.0078557903694625e-06 0 -1.2672583633280385e-05 2.8640698807960253e-06 0 -1.7526585026795228e-05 3.2616363510300443e-06 0 -5.4814751738941597e-05 -4.4500587412184464e-05 0 -5.5963735215798452e-05 -3.8827659251564546e-05 0 -6.7452228680188884e-05 -5.0352985841915435e-05 0 -7.1922961203594712e-05 6.966052946319099e-05 0 -0.00010020071353476553 8.4840549368130449e-05 0 -8.0810120333554096e-05 6.0528939289261436e-05 0 -4.8427101094525049e-09 -1.0450194368474143e-09 0 -3.6077011633458765e-06 -7.3914681581177174e-07 0 -7.3635355304476576e-06 -4.6119604552124928e-07 0 -4.038807229730497e-09 3.1517809411338712e-10 0 -6.0655181959929943e-06 -1.093740235892037e-06 0 -3.1383975445439873e-06 -2.5238900755597824e-07 0 -1.9471212775285486e-05 -6.1399277611200623e-06 0 -1.7640710689723821e-05 -5.3191035853428148e-06 0 -1.5629994563039925e-05 -4.167843992455462e-06 0 -2.1611580768120224e-05 3.732078392136093e-06 0 -1.7416686914959698e-05 1.4912493029041917e-06 0 -1.7526585026795228e-05 3.2616363510300443e-06 0 -7.4702608288844143e-06 -6.5622378606457976e-07 0 -5.3247238040658623e-06 -8.4036109575355931e-07 0 -8.430239529229595e-06 9.2241544868931687e-08 0 -3.4377261456658312e-05 -3.2846197691117799e-05 0 -4.0982049699882761e-05 -3.8848499802169613e-05 0 -3.5961140926384335e-05 -4.5717807241823201e-05 0 -5.8230319136999279e-06 6.2331538968068854e-07 0 -5.3909915663397032e-06 6.2811554548701316e-07 0 -6.5815272268523496e-06 1.2117350246654676e-06 0 -0.00011439222285318659 0.00033266535488851885 0 -0.00013148502782353778 0.00029988745583752152 0 -0.00010253721356180783 0.00030222047425616219 0 -5.7493463534802e-05 -0.00016381596763826546 0 -4.8907281809936028e-05 -0.00014664056187344135 0 -6.056054657739555e-05 -0.00014963493283255298 0 -1.3394037475277412e-05 -3.0669599035654313e-06 0 -1.1105898458218127e-05 -2.1733341528735275e-06 0 -1.5629994563039925e-05 -4.167843992455462e-06 0 -1.2845905383444416e-05 1.0078557903694625e-06 0 -1.7416686914959698e-05 1.4912493029041917e-06 0 -1.2071518133060061e-05 -1.6055253542713804e-07 0 -4.5458865337468223e-06 4.2172935974227753e-07 0 -6.4873068041694746e-06 3.5378431220106636e-07 0 -6.2833028599265117e-06 6.5813803041016214e-07 0 -4.0982049699882761e-05 -3.8848499802169613e-05 0 -4.4414244432089233e-05 -5.1432501708389397e-05 0 -3.5961140926384335e-05 -4.5717807241823201e-05 0 -0.00016694944754185715 0.00023365487396086599 0 -0.0001626120433344621 0.00020010327188453323 0 -0.00013342279928545091 0.00021551907965523573 0 -2.5924259800376766e-05 -9.4116516236841731e-05 0 -4.0201570785392018e-05 -0.00010493346727311062 0 -2.7794067149818497e-05 -0.00010985955756660255 0 -7.4497927933622074e-05 -0.00010902093260409239 0 -6.278239472958094e-05 -9.4559679441678159e-05 0 -7.2768377566269081e-05 -9.5404444873275259e-05 0 -2.6341884587295433e-05 -7.4031350421523467e-06 0 -3.0806877564097734e-05 -1.3573130373773042e-05 0 -3.2172549366042406e-05 -1.0880028688624749e-05 0 -3.0728966794089672e-05 6.1849955563586656e-06 0 -2.3661989901043574e-05 4.7471816592001002e-06 0 -2.2739887400268546e-05 3.3619220103943137e-06 0 -2.3274528352872261e-05 -8.2329620791897523e-06 0 -1.77812659874729e-05 -5.7605788164100281e-06 0 -1.8024232244907427e-05 -6.6262481195168637e-06 0 -1.3810244284961278e-05 8.9791284344219568e-06 0 -1.271577687029047e-05 5.1854858858580233e-06 0 -1.0585299293427057e-05 5.6217120160154027e-06 0 -4.5458865337468223e-06 4.2172935974227753e-07 0 -4.6119985982922715e-06 3.6535882128655802e-07 0 -6.4873068041694746e-06 3.5378431220106636e-07 0 -4.3842489092968157e-05 -2.410582075884998e-05 0 -4.8160748681249584e-05 -3.0428957672267111e-05 0 -4.4560192491446739e-05 -2.6702427138775775e-05 0 -3.0728966794089672e-05 6.1849955563586656e-06 0 -3.2678359028293391e-05 7.9785209979912706e-06 0 -2.3661989901043578e-05 4.7471816592001011e-06 0 -2.3274528352872261e-05 -8.2329620791897523e-06 0 -1.8024232244907427e-05 -6.6262481195168628e-06 0 -2.4310522679342274e-05 -9.4509305132726417e-06 0 -1.8690882642925056e-05 1.7879415848070288e-06 0 -1.7088334847454529e-05 -5.0055237016358357e-08 0 -2.1254079461419385e-05 -2.6099982116155176e-06 0 -6.7729467644042713e-05 -0.00014131363846551113 0 -6.7203354294509285e-05 -0.00012348157608652941 0 -7.4861763965756745e-05 -0.00013340127651222043 0 -8.1987260368011696e-05 0.00028279007494837037 0 -7.6142969761122578e-05 0.0002435761152863789 0 -6.2383791528984001e-05 0.00026394887847103318 0 -5.3188380095092505e-05 -3.1693809724680145e-05 0 -4.4775756606195282e-05 -2.9754854083297043e-05 0 -4.4184484173554754e-05 -2.4334625347815446e-05 0 -3.7137626670972534e-05 -2.1816407447285871e-05 0 -4.4184484173554754e-05 -2.4334625347815446e-05 0 -4.4775756606195282e-05 -2.9754854083297043e-05 0 -2.2976268036741465e-05 -1.1832512041735284e-05 0 -2.5970842120096885e-05 -1.509173900903354e-05 0 -2.6630928451623289e-05 -1.7398123680035355e-05 0 -3.0104235695387156e-05 -2.0993118575752516e-05 0 -2.6630928451623289e-05 -1.7398123680035355e-05 0 -2.5970842120096885e-05 -1.509173900903354e-05 0 -3.0859652099283198e-06 -1.0139423658653481e-06 0 -5.3247238040658623e-06 -8.4036109575355931e-07 0 -6.4337445528621336e-06 -1.1260771541208693e-06 0 -7.4702608288844143e-06 -6.5622378606457976e-07 0 -6.4337445528621336e-06 -1.1260771541208693e-06 0 -5.3247238040658623e-06 -8.4036109575355931e-07 0 -8.2112351597805303e-06 -8.8761926439194542e-07 0 -5.5423331257427675e-06 -7.4231524246425806e-08 0 -6.6793057863131627e-06 -5.2896047762657116e-07 0 -3.1497143501415365e-06 1.5769714487184729e-07 0 -6.6793057863131627e-06 -5.2896047762657116e-07 0 -5.5423331257427675e-06 -7.4231524246425806e-08 0 -5.1972315080403659e-05 -4.244898122791697e-05 0 -5.1464999136435466e-05 -4.6336539026725278e-05 0 -4.8680188273625146e-05 -4.2418478657761924e-05 0 -2.6341884587295433e-05 -7.4031350421523467e-06 0 -2.4631073671450994e-05 -1.9286004060395069e-06 0 -2.1254079461419385e-05 -2.6099982116155176e-06 0 -9.5286670088837058e-06 3.9409517179283067e-06 0 -9.1637030217783706e-06 3.648183654696388e-06 0 -8.0428106747203683e-06 2.357353065081147e-06 0 -4.8369053252807739e-05 0.00021199963138950132 0 -5.0798227809007746e-05 0.00024336024851887619 0 -7.6142969761122578e-05 0.0002435761152863789 0 -7.4497927933622074e-05 -0.00010902093260409239 0 -7.804920620118541e-05 -0.00012339105124062696 0 -6.7203354294509299e-05 -0.00012348157608652944 0 -4.8369053252807739e-05 0.00021199963138950132 0 -7.3321586054869915e-05 0.00018671067450216 0 -4.8883252099393037e-05 0.00018100215987096752 0 -1.3810244284961278e-05 8.9791284344219568e-06 0 -1.7293113432131125e-05 8.319196595303001e-06 0 -1.271577687029047e-05 5.1854858858580233e-06 0 -1.3810244284961278e-05 8.9791284344219568e-06 0 -1.8310744973160606e-05 1.4121926729556746e-05 0 -1.7293113432131125e-05 8.319196595303001e-06 0 -7.5016047311558928e-05 0.00013633144986985093 0 -6.2437802388168318e-05 0.00016064925305091807 0 -9.0188313336274446e-05 0.00017173006471028816 0 -7.3321586054869915e-05 0.00018671067450216 0 -9.0188313336274446e-05 0.00017173006471028816 0 -6.2437802388168318e-05 0.00016064925305091807 0 -1.1601649519849863e-05 1.2898774904076793e-06 0 -7.3635355304476584e-06 -4.6119604552124923e-07 0 -1.3029713315127409e-05 5.5230967543589484e-07 0 -9.1011724973499795e-06 -2.8565659288390467e-06 0 -1.0523483888851186e-05 -2.6737413848467273e-06 0 -6.0655181959929943e-06 -1.093740235892037e-06 0 -4.4414244432089233e-05 -5.1432501708389397e-05 0 -4.975744451216026e-05 -6.487127912794295e-05 0 -4.0143891580640783e-05 -6.4339705648564275e-05 0 -6.207327456245979e-05 -5.4881483379783071e-05 0 -6.3382330037245021e-05 -5.8534394005192546e-05 0 -6.0324214734891998e-05 -5.3395025762957319e-05 0 -3.4073588679185521e-05 -3.7451472210132708e-05 0 -3.8956302931578664e-05 -4.6145150521300481e-05 0 -3.7027549653975556e-05 -4.1181174084902971e-05 0 -1.7790379335284688e-05 -2.7444542411948278e-06 0 -2.1254079461419385e-05 -2.6099982116155176e-06 0 -1.7088334847454529e-05 -5.0055237016358357e-08 0 -9.5286670088837058e-06 3.9409517179283067e-06 0 -1.1243540618823666e-05 6.82306200322344e-06 0 -1.0585299293427057e-05 5.6217120160154027e-06 0 -4.8616658501639708e-05 -5.4395270306992904e-05 0 -4.6577618235372393e-05 -5.080439481887573e-05 0 -5.0952666058372575e-05 -5.1673542674340054e-05 0 -4.8481977087629019e-05 -4.8723492104031591e-05 0 -5.0952666058372575e-05 -5.1673542674340054e-05 0 -4.6577618235372393e-05 -5.080439481887573e-05 0 -4.1703849902038345e-05 -3.491387039309581e-05 0 -4.2217981143849514e-05 -4.1390991679184606e-05 0 -3.7214343544056721e-05 -3.4745366816324487e-05 0 -0.00011439222285318659 0.00033266535488851885 0 -0.00014317544616454519 0.00032963008412270541 0 -0.00013148502782353778 0.00029988745583752152 0 -5.7493463534802e-05 -0.00016381596763826546 0 -4.6484666148022605e-05 -0.00015997978863675872 0 -4.8907281809936028e-05 -0.00014664056187344135 0 -5.9175666276245956e-05 -5.4598004160369824e-05 0 -6.2283863511369207e-05 -5.8364920463348708e-05 0 -5.6941858557239763e-05 -5.6595786448064084e-05 0 -4.2160355183787787e-05 -5.2166076556053097e-05 0 -4.4215210880849881e-05 -5.6872385922519677e-05 0 -4.2708820873545175e-05 -5.2269529214419083e-05 0 -5.5334438227327984e-05 0.00032970852266307808 0 -8.2152661648734142e-05 0.00031755527025200374 0 -6.0012967947704764e-05 0.00029471474267090563 0 -8.2024162289878895e-05 -0.00016454937195037721 0 -6.9682230459619353e-05 -0.00015786247528149527 0 -7.809177019514633e-05 -0.00014804810330213853 0 -4.5458865337468223e-06 4.2172935974227753e-07 0 -6.2833028599265117e-06 6.5813803041016214e-07 0 -5.3909915663397032e-06 6.2811554548701306e-07 0 -7.3808235047936684e-06 1.2271134901203641e-06 0 -5.3909915663397032e-06 6.2811554548701306e-07 0 -6.2833028599265117e-06 6.5813803041016214e-07 0 -3.979239827687524e-05 0.0002629730160594931 0 -6.0012967947704764e-05 0.00029471474267090563 0 -6.2383791528984001e-05 0.00026394887847103318 0 -8.505099377988188e-05 -0.0001342398579174661 0 -7.809177019514633e-05 -0.00014804810330213853 0 -7.4861763965756745e-05 -0.00013340127651222043 0 -7.4203943397791738e-06 -9.717144307453155e-07 0 -7.3635355304476576e-06 -4.6119604552124923e-07 0 -3.6077011633458765e-06 -7.3914681581177174e-07 0 -6.6731920963074332e-06 -7.9890413553166835e-07 0 -3.1383975445439873e-06 -2.5238900755597824e-07 0 -6.0655181959929943e-06 -1.093740235892037e-06 0 -4.3776514111542193e-05 8.8319328509891496e-05 0 -2.8270748204291457e-05 0.00012119760174581839 0 -5.2301385563343459e-05 0.0001273317828850927 0 -1.1601649519849863e-05 1.2898774904076793e-06 0 -5.6275760778375645e-06 1.6085115215926987e-07 0 -7.3635355304476576e-06 -4.6119604552124928e-07 0 -9.1011724973499795e-06 -2.8565659288390467e-06 0 -6.0655181959929943e-06 -1.093740235892037e-06 0 -4.4606871861207854e-06 -1.1542754706176584e-06 0 -0.00017050729388019866 0.00029916749703641721 0 -0.00014695254865539133 0.0002761601588085419 0 -0.00013148502782353778 0.00029988745583752152 0 -3.2878910892441911e-05 -0.00014136893725076954 0 -4.0556708259016108e-05 -0.00013329542720386946 0 -4.8907281809936028e-05 -0.00014664056187344135 0 -3.4161471046409601e-05 4.236211444082277e-05 0 -5.2585928388302479e-05 4.6175445599224393e-05 0 -3.6551930625232966e-05 3.1951718088145417e-05 0 -4.4066156628324671e-05 2.6997106835544239e-05 0 -3.6551930625232966e-05 3.1951718088145423e-05 0 -5.2585928388302479e-05 4.6175445599224393e-05 0 -5.8489274127976072e-05 -7.504165580855918e-05 0 -5.400833885184776e-05 -5.6392238106805951e-05 0 -6.2248156218221103e-05 -6.4492486654096651e-05 0 -3.2169534172285381e-05 -1.2017948249959027e-05 0 -3.2566077907579828e-05 -2.2423680550321767e-05 0 -2.7886285007552827e-05 -1.5909122467580015e-05 0 -7.5016047311558928e-05 0.00013633144986985093 0 -8.5236225547541291e-05 0.00011752351803994194 0 -6.7841273799645936e-05 9.9757947996705645e-05 0 -7.1922961203594712e-05 6.966052946319099e-05 0 -6.7841273799645936e-05 9.9757947996705645e-05 0 -8.4193968525476845e-05 9.6540402796299089e-05 0 -5.4814751738941597e-05 -4.4500587412184464e-05 0 -6.1181346924513554e-05 -5.5124320042914577e-05 0 -5.400833885184776e-05 -5.6392238106805951e-05 0 -4.4414244432089233e-05 -5.1432501708389397e-05 0 -4.0143891580640783e-05 -6.4339705648564275e-05 0 -3.5961140926384335e-05 -4.5717807241823201e-05 0 -5.7182482816810514e-05 -4.9260272725219916e-05 0 -5.9366706372626089e-05 -5.0415457487832933e-05 0 -6.0324214734891998e-05 -5.3395025762957319e-05 0 -3.8697028233402804e-05 -4.4871584424627607e-05 0 -3.8956302931578664e-05 -4.6145150521300481e-05 0 -3.5157963193334379e-05 -4.0033996405178311e-05 0 -3.0533169065060576e-05 -6.5287758764779377e-06 0 -3.6067579589577712e-05 -1.3797756769726861e-05 0 -3.3507596811941212e-05 -9.901723373304906e-06 0 -3.6896358391052635e-05 -1.6828947979947876e-05 0 -4.056710867867559e-05 -1.9622666612279702e-05 0 -3.6067579589577712e-05 -1.3797756769726861e-05 0 -1.7391417730547005e-05 8.7756572875861259e-06 0 -1.582722364027668e-05 5.8193325194903104e-06 0 -2.1335417963408039e-05 3.6984862602162983e-06 0 -3.4377261456658312e-05 -3.2846197691117799e-05 0 -2.9992809631204005e-05 -2.4148409193076426e-05 0 -3.4930940426213776e-05 -2.8308127206458611e-05 0 -5.5334438227327984e-05 0.00032970852266307808 0 -3.4159505104316482e-05 0.00029661839858985601 0 -2.8270843015187824e-05 0.00032346869448024332 0 -8.2024162289878895e-05 -0.00016454937195037721 0 -9.0193951231092696e-05 -0.00015065283875353286 0 -9.4732359235045235e-05 -0.00016376554566251283 0 -1.8690882642925056e-05 1.7879415848070288e-06 0 -2.1335417963408039e-05 3.6984862602162983e-06 0 -1.582722364027668e-05 5.8193325194903104e-06 0 -3.2102630003747913e-05 -3.2290178357595976e-05 0 -3.7214343544056721e-05 -3.4745366816324487e-05 0 -3.447929505230173e-05 -3.6530254996116098e-05 0 -4.8481977087629019e-05 -4.8723492104031591e-05 0 -4.6577618235372393e-05 -5.080439481887573e-05 0 -4.5855812995877624e-05 -4.5806414200311475e-05 0 -1.2750177769610115e-05 5.7449870016782987e-06 0 -1.4243857882362366e-05 2.8987468214833045e-06 0 -1.582722364027668e-05 5.8193325194903104e-06 0 -3.7775281748512166e-06 -5.7329811598384997e-07 0 -5.2266018233193064e-06 -1.2309577603750327e-07 0 -5.3247238040658623e-06 -8.4036109575355931e-07 0 -9.0845756503113423e-05 -7.3071938856649602e-05 0 -9.6346949385250064e-05 -8.7655519209035114e-05 0 -8.054157586124389e-05 -7.6938921795192966e-05 0 -1.2845905383444416e-05 1.0078557903694625e-06 0 -1.0099412840034207e-05 -1.1850072476486576e-07 0 -8.430239529229595e-06 9.2241544868931687e-08 0 -8.0428106747203683e-06 2.357353065081147e-06 0 -9.1637030217783706e-06 3.648183654696388e-06 0 -7.4704430432789992e-06 1.7182610926305333e-06 0 -1.8690882642925056e-05 1.7879415848070288e-06 0 -2.4631073671450994e-05 -1.9286004060395069e-06 0 -2.1335417963408039e-05 3.6984862602162983e-06 0 -0.00015597930121751796 0.00016665679694539428 0 -0.00014704275131307551 0.00013487096205487794 0 -0.00012318435811778112 0.00014508908173795673 0 -3.3568151377719739e-06 3.5547989035865707e-07 0 -2.6594052828294881e-06 2.5731067864205043e-07 0 -1.3753527599108618e-06 2.0483379548801821e-07 0 -9.6805514704462708e-06 2.7034226010078236e-06 0 -1.0585299293427057e-05 5.6217120160154027e-06 0 -1.271577687029047e-05 5.1854858858580233e-06 0 -4.6272567637338907e-05 -3.2283296910954077e-05 0 -4.8304517990413302e-05 -3.2530799306091179e-05 0 -4.9848964422226264e-05 -3.7406714177033512e-05 0 -7.4497927933622074e-05 -0.00010902093260409239 0 -8.46763640423234e-05 -0.00010212180023414462 0 -8.8605473757117029e-05 -0.000118851967943133 0 -1.2845905383444416e-05 1.0078557903694625e-06 0 -8.430239529229595e-06 9.2241544868931687e-08 0 -1.0171798605605629e-05 1.3543979175056243e-06 0 -4.5458865337468223e-06 4.2172935974227753e-07 0 -3.1890666699229265e-06 1.6583086412835176e-07 0 -2.6594052828294881e-06 2.5731067864205043e-07 0 -1.5817001667090803e-05 5.0086478289677682e-06 0 -1.271577687029047e-05 5.1854858858580233e-06 0 -1.7293113432131125e-05 8.319196595303001e-06 0 -4.8160748681249584e-05 -3.0428957672267115e-05 0 -4.8304517990413302e-05 -3.2530799306091179e-05 0 -4.4560192491446739e-05 -2.6702427138775775e-05 0 -5.7182482816810514e-05 -4.9260272725219916e-05 0 -5.6769453496646985e-05 -5.105092612066597e-05 0 -5.4085495616230647e-05 -4.6336290168781897e-05 0 -3.6506242643597427e-05 9.8468767993780773e-06 0 -2.8825749906729679e-05 6.2047804403815236e-06 0 -3.3390555446981965e-05 1.046523859430045e-05 0 6.9272921576885619e-07 0.00028554750869960261 0 -3.4159505104316482e-05 0.00029661839858985601 0 -1.8354830690553173e-05 0.00027054432155105456 0 -0.00010664529560121539 -0.00014947248513037833 0 -9.0193951231092696e-05 -0.00015065283875353286 0 -9.5933509753052585e-05 -0.00013977417732853779 0 -6.5815272268523496e-06 1.2117350246654676e-06 0 -7.4704430432789992e-06 1.7182610926305333e-06 0 -5.8230319136999279e-06 6.2331538968068854e-07 0 -8.0428106747203683e-06 2.357353065081147e-06 0 -7.4704430432789992e-06 1.7182610926305333e-06 0 -6.5815272268523496e-06 1.2117350246654676e-06 0 -0.0001242793120583428 0.00026380984817564901 0 -0.00013148502782353778 0.00029988745583752152 0 -0.00014695254865539133 0.0002761601588085419 0 -4.8816100606910276e-05 -0.00012942678665640173 0 -4.8907281809936035e-05 -0.00014664056187344135 0 -4.0556708259016108e-05 -0.00013329542720386946 0 -7.3808235047936684e-06 1.2271134901203641e-06 0 -9.7540030888737766e-06 9.1391581114653248e-07 0 -9.3367003808259401e-06 2.3466281824350451e-06 0 -1.1767766214933087e-05 1.5241240784568856e-06 0 -9.3367003808259401e-06 2.3466281824350451e-06 0 -9.7540030888737766e-06 9.1391581114653248e-07 0 -7.3808235047936684e-06 1.2271134901203641e-06 0 -6.5815272268523496e-06 1.2117350246654676e-06 0 -5.3909915663397032e-06 6.2811554548701306e-07 0 -2.3274528352872261e-05 -8.2329620791897523e-06 0 -2.3883607321597216e-05 -8.3319893129692897e-06 0 -1.8520921978287304e-05 -5.6922919589596963e-06 0 -2.5373046426140973e-05 -1.2454711114837327e-05 0 -3.0648332915609646e-05 -1.8291064589874253e-05 0 -2.5970842120096885e-05 -1.509173900903354e-05 0 -3.0104235695387156e-05 -2.0993118575752516e-05 0 -2.5970842120096885e-05 -1.509173900903354e-05 0 -3.0648332915609646e-05 -1.8291064589874253e-05 0 -2.3274528352872261e-05 -8.2329620791897523e-06 0 -1.8520921978287304e-05 -5.6922919589596963e-06 0 -1.77812659874729e-05 -5.7605788164100281e-06 0 -4.3776514111542193e-05 8.8319328509891496e-05 0 -2.1898880469197614e-05 8.9399596602051062e-05 0 -2.8270748204291457e-05 0.00012119760174581839 0 -8.1987260368011696e-05 0.00028279007494837037 0 -8.2152661648734142e-05 0.00031755527025200374 0 -0.00010253721356180783 0.00030222047425616219 0 -6.7729467644042713e-05 -0.00014131363846551113 0 -6.9682230459619353e-05 -0.00015786247528149527 0 -6.056054657739555e-05 -0.00014963493283255298 0 -1.483355223756728e-05 -3.330612431741401e-06 0 -1.1582474773236317e-05 -1.8762635751605835e-06 0 -1.480760329879277e-05 -3.9321835900737768e-06 0 -2.0065859350607672e-09 1.2725944758143213e-10 0 -1.3753527599108618e-06 2.0483379548801821e-07 0 -2.6594052828294881e-06 2.5731067864205043e-07 0 -1.3810244284961278e-05 8.9791284344219568e-06 0 -1.3681821116108799e-05 1.3795125859329244e-05 0 -1.8310744973160606e-05 1.4121926729556746e-05 0 -3.8514990085468395e-05 -4.0445049268719939e-05 0 -3.7214343544056721e-05 -3.4745366816324487e-05 0 -4.2217981143849514e-05 -4.1390991679184606e-05 0 -4.1703849902038345e-05 -3.491387039309581e-05 0 -4.3518401978458589e-05 -3.2439276364728688e-05 0 -4.4852074239480459e-05 -3.7896384822318655e-05 0 -6.4873068041694746e-06 3.5378431220106636e-07 0 -8.6949681094745172e-06 -2.622502068553405e-07 0 -7.9580136163500441e-06 4.5494612497503122e-07 0 -6.9332371734879593e-05 -6.3394753138456449e-05 0 -8.054157586124389e-05 -7.6938921795192966e-05 0 -6.7429161289388144e-05 -7.5167180951936927e-05 0 -7.7109094463727025e-05 -8.6739992589783598e-05 0 -6.7429161289388144e-05 -7.5167180951936927e-05 0 -8.054157586124389e-05 -7.6938921795192966e-05 0 -1.9901064042193755e-09 -1.1056366443932004e-10 0 -2.0065859350608602e-09 1.2725944758143412e-10 0 -1.7037442394525466e-06 3.626753753362034e-08 0 -0.00011146593598694419 0.00016683072177435667 0 -0.00012318435811778112 0.00014508908173795673 0 -9.7505307402761404e-05 0.00014163550594341329 0 -0.00010126957838839256 0.0001157009630289676 0 -9.7505307402761404e-05 0.00014163550594341329 0 -0.00012318435811778112 0.00014508908173795673 0 -5.9175666276245956e-05 -5.4598004160369824e-05 0 -5.6769453496646985e-05 -5.105092612066597e-05 0 -6.0324214734891998e-05 -5.3395025762957319e-05 0 -4.2160355183787787e-05 -5.2166076556053097e-05 0 -3.8956302931578664e-05 -4.6145150521300481e-05 0 -4.1374346684106154e-05 -4.9298516283980141e-05 0 -2.3829021753152951e-05 1.2555701280676353e-05 0 -1.7293113432131125e-05 8.319196595303001e-06 0 -1.8310744973160606e-05 1.4121926729556746e-05 0 -5.356245864587486e-05 -5.0054384460534052e-05 0 -5.0857525816376562e-05 -4.875937655996018e-05 0 -5.1464999136435466e-05 -4.6336539026725278e-05 0 -1.4830094249337605e-05 1.7048874524929595e-05 0 -1.5673469175311371e-05 2.2010811110871452e-05 0 -1.2773862675511763e-05 2.2167929460123084e-05 0 -1.2845905383444416e-05 1.0078557903694625e-06 0 -1.0171798605605629e-05 1.3543979175056243e-06 0 -1.2672583633280385e-05 2.8640698807960253e-06 0 -4.4066156628324671e-05 2.6997106835544239e-05 0 -2.7649150135437074e-05 2.0909509010956637e-05 0 -3.6551930625232966e-05 3.1951718088145417e-05 0 8.4569013580974761e-06 0.00012261655915049563 0 -1.2155403031333589e-05 0.00014603891325685087 0 -2.8270748204291457e-05 0.00012119760174581839 0 -1.483355223756728e-05 -3.330612431741401e-06 0 -1.167937521990614e-05 -1.314795777418734e-06 0 -1.1582474773236317e-05 -1.8762635751605833e-06 0 -8.1987260368011696e-05 0.00028279007494837037 0 -6.0012967947704764e-05 0.00029471474267090563 0 -8.2152661648734142e-05 0.00031755527025200374 0 -6.7729467644042713e-05 -0.00014131363846551113 0 -7.809177019514633e-05 -0.00014804810330213853 0 -6.9682230459619353e-05 -0.00015786247528149527 0 -8.0697595676921587e-06 -3.9319220761929633e-07 0 -9.9414531393337699e-06 -1.3074213925618919e-06 0 -1.1582474773236317e-05 -1.8762635751605833e-06 0 -2.8329191321938556e-05 -1.5729115181073983e-05 0 -3.3895482597732311e-05 -1.9512405995897707e-05 0 -3.0806877564097741e-05 -1.3573130373773043e-05 0 -3.979239827687524e-05 0.0002629730160594931 0 -1.8354830690553173e-05 0.00027054432155105456 0 -3.4159505104316482e-05 0.00029661839858985601 0 -8.505099377988188e-05 -0.0001342398579174661 0 -9.5933509753052585e-05 -0.00013977417732853777 0 -9.0193951231092696e-05 -0.00015065283875353286 0 -4.3688569835724491e-05 -1.8931654223011986e-05 0 -5.169580155283894e-05 -2.3787358431874863e-05 0 -4.3030768403729812e-05 -1.887962874720297e-05 0 -7.6588681199711797e-05 2.9887198470068282e-05 0 -6.2856320418739619e-05 2.12420309561627e-05 0 -6.101695718462554e-05 2.1413973381152674e-05 0 -3.4161471046409601e-05 4.236211444082277e-05 0 -3.9432635698195721e-05 6.1811810736479505e-05 0 -5.3123208164242326e-05 6.6412156533651831e-05 0 -1.9471212775285486e-05 -6.1399277611200623e-06 0 -2.445393827366568e-05 -8.9398856708910868e-06 0 -2.2749641789845269e-05 -8.3865153366272963e-06 0 -6.5838157024324277e-05 -6.4530587598295996e-05 0 -6.2107454975108837e-05 -6.1153177516571039e-05 0 -6.2283863511369207e-05 -5.8364920463348708e-05 0 -6.5838157024324277e-05 -6.4530587598295996e-05 0 -6.2283863511369207e-05 -5.8364920463348708e-05 0 -6.4702180489219902e-05 -6.1621272326474222e-05 0 -4.275444469145959e-05 -4.767955736605083e-05 0 -4.0118230315456313e-05 -4.4609103558928e-05 0 -4.2708820873545175e-05 -5.2269529214419083e-05 0 -4.275444469145959e-05 -4.767955736605083e-05 0 -4.2708820873545175e-05 -5.2269529214419083e-05 0 -4.4250984739316977e-05 -5.488295215122447e-05 0 -5.9175666276245956e-05 -5.4598004160369824e-05 0 -5.5125230279364904e-05 -5.2981838827014352e-05 0 -5.6769453496646985e-05 -5.105092612066597e-05 0 -4.2160355183787787e-05 -5.2166076556053097e-05 0 -4.1374346684106154e-05 -4.9298516283980141e-05 0 -4.376120825141289e-05 -5.3799992775207628e-05 0 -2.7462624615653815e-05 -2.9258300261703369e-05 0 -3.2403436189758244e-05 -3.5822200231730024e-05 0 -3.0800110450542345e-05 -3.33636360361556e-05 0 -5.8347363915843914e-05 -4.5319951110687276e-05 0 -6.0417837895028691e-05 -5.0555037648424959e-05 0 -5.6222474366079076e-05 -4.5309350533432355e-05 0 -9.3968923530772743e-06 -1.9565730734879289e-07 0 -2.0945683701423063e-05 -9.3815196540173271e-06 0 -1.4781624408452104e-05 -1.2458949274805367e-05 0 -5.5334438227327984e-05 0.00032970852266307808 0 -3.6010798858112754e-05 0.00035093284844935069 0 -6.1034368040540242e-05 0.00036012253474281171 0 -0.00011439222285318659 0.00033266535488851885 0 -0.0001101818564800691 0.00036224993117708046 0 -0.00013764968710763465 0.00035657922986122585 0 -8.2024162289878895e-05 -0.00016454937195037721 0 -9.2207197598196655e-05 -0.00017564082121953917 0 -8.0314203307397803e-05 -0.00017820312083001823 0 -5.7493463534802e-05 -0.00016381596763826546 0 -6.0026367270301395e-05 -0.00017740396577211378 0 -5.0035945894112946e-05 -0.00017311127533066537 0 -9.8354187171340175e-06 -1.6921602708727279e-07 0 -7.9580136163500441e-06 4.5494612497503122e-07 0 -8.6949681094745172e-06 -2.622502068553405e-07 0 -5.5334438227327984e-05 0.00032970852266307808 0 -2.8270843015187821e-05 0.00032346869448024332 0 -3.6010798858112754e-05 0.00035093284844935069 0 -8.2024162289878895e-05 -0.00016454937195037721 0 -9.4732359235045235e-05 -0.00016376554566251283 0 -9.2207197598196655e-05 -0.00017564082121953917 0 -3.0533169065060576e-05 -6.5287758764779377e-06 0 -2.7542809260219703e-05 -1.3966219461163547e-06 0 -2.4631073671450994e-05 -1.9286004060395069e-06 0 -0.00011439222285318659 0.00033266535488851885 0 -0.00013764968710763465 0.00035657922986122585 0 -0.00014317544616454519 0.00032963008412270541 0 -5.7493463534802e-05 -0.00016381596763826546 0 -5.0035945894112946e-05 -0.00017311127533066537 0 -4.6484666148022605e-05 -0.00015997978863675872 0 -4.3247345277849146e-05 -8.2621743395103553e-05 0 -3.3345627211425334e-05 -7.2586368255009927e-05 0 -4.0143891580640783e-05 -6.4339705648564275e-05 0 -4.3842489092968157e-05 -2.410582075884998e-05 0 -4.4560192491446739e-05 -2.6702427138775775e-05 0 -4.056710867867559e-05 -1.9622666612279702e-05 0 -4.1423692601904979e-05 -2.2629816174404574e-05 0 -4.056710867867559e-05 -1.9622666612279702e-05 0 -4.4560192491446739e-05 -2.6702427138775775e-05 0 -1.5817001667090803e-05 5.0086478289677682e-06 0 -1.7526585026795228e-05 3.2616363510300443e-06 0 -1.2672583633280385e-05 2.8640698807960253e-06 0 -7.5016047311558928e-05 0.00013633144986985093 0 -5.2301385563343459e-05 0.0001273317828850927 0 -6.2437802388168318e-05 0.00016064925305091807 0 -9.6346949385250064e-05 -8.7655519209035114e-05 0 -8.7439988428551695e-05 -9.0810034185020001e-05 0 -8.054157586124389e-05 -7.6938921795192966e-05 0 -1.8314386571273789e-05 2.0964783274048169e-05 0 -2.7649150135437074e-05 2.0909509010956634e-05 0 -1.8310744973160606e-05 1.4121926729556746e-05 0 -2.3829021753152951e-05 1.2555701280676353e-05 0 -1.8310744973160606e-05 1.4121926729556746e-05 0 -2.7649150135437074e-05 2.0909509010956634e-05 0 -9.5286670088837058e-06 3.9409517179283067e-06 0 -1.0887114754473118e-05 4.0322105419490048e-06 0 -1.1243540618823666e-05 6.82306200322344e-06 0 -4.5641800747635644e-05 -4.2194365612509014e-05 0 -4.5855812995877624e-05 -4.5806414200311475e-05 0 -4.2217981143849514e-05 -4.1390991679184606e-05 0 -4.3745323132602675e-05 -4.7035747233046705e-05 0 -4.2217981143849514e-05 -4.1390991679184606e-05 0 -4.5855812995877624e-05 -4.5806414200311475e-05 0 -0.00012208340886813823 7.9555374864911512e-05 0 -0.00010718607258964098 5.8250068498061315e-05 0 -9.5559197620533935e-05 6.2589213268273301e-05 0 -6.8478831107334447e-05 -3.7986265935354499e-05 0 -7.6630561323264105e-05 -4.7885648600315905e-05 0 -6.3530580879621093e-05 -3.9472660962480756e-05 0 -2.8488251057332857e-09 -4.8532092367148333e-10 0 -2.4329337499040704e-09 -3.8192171185019678e-10 0 -2.2878269210596375e-06 -7.0015617551816429e-07 0 -2.6070557393530095e-09 2.2960857578858455e-10 0 -2.909222597991907e-09 2.0480029469274009e-10 0 -2.5594849885116807e-06 2.6416200057103717e-07 0 -1.3810244284961278e-05 8.9791284344219568e-06 0 -1.0585299293427055e-05 5.6217120160154027e-06 0 -1.1942388622310874e-05 8.8240293673888449e-06 0 -1.2750177769610115e-05 5.7449870016782987e-06 0 -1.1243540618823666e-05 6.82306200322344e-06 0 -1.0887114754473118e-05 4.0322105419490048e-06 0 -9.5286670088837058e-06 3.9409517179283067e-06 0 -1.0585299293427057e-05 5.6217120160154019e-06 0 -9.1637030217783706e-06 3.648183654696388e-06 0 -1.6927458840118094e-05 1.1692730169880522e-06 0 -2.2739887400268546e-05 3.3619220103943137e-06 0 -1.7670211874333821e-05 2.2753417030756627e-06 0 -1.3856312649817539e-05 -3.6741315193674905e-06 0 -1.3762737216739582e-05 -4.3874789706439742e-06 0 -1.77812659874729e-05 -5.7605788164100281e-06 0 -3.4840041353519294e-05 0.00015774485758935429 0 -2.8270748204291457e-05 0.00012119760174581839 0 -1.2155403031333589e-05 0.00014603891325685087 0 -1.6927458840118094e-05 1.1692730169880522e-06 0 -1.7670211874333818e-05 2.2753417030756623e-06 0 -1.3029713315127409e-05 5.5230967543589484e-07 0 -1.3856312649817539e-05 -3.6741315193674905e-06 0 -1.0523483888851186e-05 -2.6737413848467273e-06 0 -1.3762737216739582e-05 -4.3874789706439742e-06 0 -5.1972315080403659e-05 -4.244898122791697e-05 0 -5.4085495616230647e-05 -4.6336290168781897e-05 0 -5.1464999136435466e-05 -4.6336539026725278e-05 0 -4.3776514111542193e-05 8.8319328509891496e-05 0 -2.7144525166783107e-05 5.5771504902472301e-05 0 -2.1898880469197614e-05 8.9399596602051062e-05 0 -9.6805514704462708e-06 2.7034226010078236e-06 0 -9.1637030217783706e-06 3.648183654696388e-06 0 -1.0585299293427057e-05 5.6217120160154027e-06 0 -3.8514990085468395e-05 -4.0445049268719939e-05 0 -3.447929505230173e-05 -3.6530254996116098e-05 0 -3.7214343544056721e-05 -3.4745366816324487e-05 0 -4.3908680591136555e-09 -4.1442673862411124e-10 0 -3.4955320230237481e-09 -6.7818950556137386e-10 0 -3.4037225449654987e-06 -1.0025488461248017e-06 0 -3.32537932630304e-09 1.9611427060271748e-10 0 -3.8787864482512311e-09 -6.6312078071405616e-11 0 -3.1934695559388481e-06 -1.9578566267997238e-08 0 -2.8811583700754918e-05 -1.203903737436156e-05 0 -3.6177910481901179e-05 -1.5107393219617069e-05 0 -2.9475622925768803e-05 -1.1448660238032931e-05 0 -5.0406136238073426e-05 1.5328802959109894e-05 0 -3.8932890751927939e-05 1.1385591933483763e-05 0 -4.0637747490436909e-05 1.031288233240952e-05 0 -4.1093173235152136e-05 -3.281526482097536e-05 0 -4.4775756606195282e-05 -2.9754854083297043e-05 0 -4.8764769823432413e-05 -3.768532816563034e-05 0 -2.4001210479842447e-05 -6.3060114527115882e-05 0 -3.1476873611785372e-05 -5.7374157000642403e-05 0 -3.3345627211425328e-05 -7.2586368255009914e-05 0 -2.6341884587295433e-05 -7.4031350421523467e-06 0 -2.6138796652208986e-05 -1.0811858347555451e-05 0 -3.0806877564097741e-05 -1.3573130373773043e-05 0 -1.4441385485865257e-05 -8.4411323580775176e-08 0 -1.4243857882362368e-05 2.8987468214833045e-06 0 -1.1767766214933087e-05 1.5241240784568856e-06 0 -1.7088334847454529e-05 -5.0055237016358357e-08 0 -1.4243857882362368e-05 2.8987468214833045e-06 0 -1.4441385485865257e-05 -8.4411323580775176e-08 0 -1.2483315972098819e-05 1.0774895999818398e-05 0 -1.3681821116108799e-05 1.3795125859329244e-05 0 -1.1942388622310874e-05 8.8240293673888449e-06 0 -1.3810244284961278e-05 8.9791284344219568e-06 0 -1.1942388622310874e-05 8.8240293673888449e-06 0 -1.3681821116108799e-05 1.3795125859329244e-05 0 -4.3583674307855158e-05 -5.0597268339648648e-05 0 -4.6224612730571864e-05 -5.4166316874533106e-05 0 -4.376120825141289e-05 -5.3799992775207628e-05 0 -5.1579017706412774e-05 -3.3075583313033805e-05 0 -4.8160748681249584e-05 -3.0428957672267115e-05 0 -4.6414084555385737e-05 -2.7080997322929077e-05 0 -2.8329191321938556e-05 -1.5729115181073983e-05 0 -2.9226304918682528e-05 -2.1311368144317971e-05 0 -3.3895482597732311e-05 -1.9512405995897707e-05 0 -3.038002071719174e-05 -2.7548201310525136e-05 0 -3.3895482597732311e-05 -1.9512405995897707e-05 0 -2.9226304918682528e-05 -2.1311368144317971e-05 0 -2.1724905827845794e-05 -9.4990896156352099e-06 0 -2.8811583700754922e-05 -1.2039037374361562e-05 0 -2.4310522679342274e-05 -9.4509305132726417e-06 0 -3.8932890751927939e-05 1.1385591933483763e-05 0 -2.8480419493072019e-05 8.641040417824055e-06 0 -3.2678359028293391e-05 7.9785209979912706e-06 0 -4.8505104705189151e-05 -6.004817512552929e-05 0 -4.5861147731673459e-05 -5.9821092126208269e-05 0 -4.7423235795551138e-05 -5.7406313306484325e-05 0 -2.7649150135437074e-05 2.0909509010956634e-05 0 -2.604061177680533e-05 2.8139782099116918e-05 0 -3.6551930625232966e-05 3.1951718088145417e-05 0 -7.3808235047936684e-06 1.2271134901203641e-06 0 -8.0428106747203683e-06 2.357353065081147e-06 0 -6.5815272268523496e-06 1.2117350246654676e-06 0 -7.3635355304476576e-06 -4.6119604552124928e-07 0 -1.1362342198065778e-05 -2.5226618930518445e-07 0 -1.3029713315127409e-05 5.5230967543589484e-07 0 -6.0655181959929943e-06 -1.093740235892037e-06 0 -1.0523483888851186e-05 -2.6737413848467273e-06 0 -9.6087931729488976e-06 -1.9489863288995158e-06 0 -8.0697595676921587e-06 -3.9319220761929633e-07 0 -7.8739160240942076e-06 -5.5788916702462237e-07 0 -9.9414531393337699e-06 -1.3074213925618919e-06 0 -2.6341884587295433e-05 -7.4031350421523467e-06 0 -2.8435020177575801e-05 -6.6125119346397548e-06 0 -2.4631073671450994e-05 -1.9286004060395069e-06 0 -3.8697028233402804e-05 -4.4871584424627607e-05 0 -4.0406451615726958e-05 -4.5087926150331621e-05 0 -4.1374346684106154e-05 -4.9298516283980141e-05 0 -1.1748750360085376e-05 -2.22969527676656e-06 0 -9.9414531393337682e-06 -1.3074213925618917e-06 0 -7.8739160240942076e-06 -5.5788916702462237e-07 0 -0.00016694944754185715 0.00023365487396086599 0 -0.00013342279928545091 0.00021551907965523573 0 -0.00014240510635591891 0.00024684455766675064 0 -2.7794067149818497e-05 -0.00010985955756660255 0 -4.0201570785392018e-05 -0.00010493346727311062 0 -3.9648499141433634e-05 -0.00011931735459348394 0 -2.5924259800376766e-05 -9.4116516236841731e-05 0 -3.6145579862909358e-05 -8.9677297308005542e-05 0 -4.0201570785392018e-05 -0.00010493346727311062 0 -3.6914393229366332e-05 -1.6121228045407008e-05 0 -3.3507596811941212e-05 -9.901723373304906e-06 0 -3.6067579589577712e-05 -1.3797756769726861e-05 0 -5.1579017706412774e-05 -3.3075583313033805e-05 0 -5.1856248743814791e-05 -3.5620696307597933e-05 0 -4.8160748681249584e-05 -3.0428957672267115e-05 0 -1.483355223756728e-05 -3.330612431741401e-06 0 -1.9247717118377447e-05 -6.8577816470945965e-06 0 -1.6999251399937053e-05 -4.0530255946335911e-06 0 -3.0533169065060576e-05 -6.5287758764779377e-06 0 -2.4631073671450994e-05 -1.9286004060395069e-06 0 -2.8435020177575801e-05 -6.6125119346397539e-06 0 -6.8274103085598496e-06 0.00034603291866780678 0 -2.5497670024389591e-05 0.00036369033124196171 0 -3.6010798858112754e-05 0.00035093284844935069 0 -0.00010687954708356061 -0.00017727044880785014 0 -9.8141903961037298e-05 -0.00018287107893942862 0 -9.2207197598196655e-05 -0.00017564082121953917 0 -3.8263380571983855e-05 -0.00017020681367123158 0 -5.0035945894112939e-05 -0.00017311127533066537 0 -4.6040686794542596e-05 -0.00017857401151187959 0 -0.00017066839346887067 0.00036018521861277064 0 -0.00013764968710763465 0.00035657922986122585 0 -0.00015099463886767892 0.00037283529561709674 0 -1.7790379335284688e-05 -2.7444542411948278e-06 0 -1.433723247639674e-05 -1.767139887917272e-06 0 -1.6999251399937053e-05 -4.0530255946335911e-06 0 -1.483355223756728e-05 -3.330612431741401e-06 0 -1.6999251399937053e-05 -4.0530255946335911e-06 0 -1.433723247639674e-05 -1.767139887917272e-06 0 -2.2976268036741465e-05 -1.1832512041735284e-05 0 -1.9247717118377447e-05 -6.8577816470945956e-06 0 -2.0033594262974702e-05 -8.3697823909699355e-06 0 -5.9329813678288742e-05 2.4509790928319616e-05 0 -6.101695718462554e-05 2.1413973381152674e-05 0 -4.6152977654603982e-05 1.4955952864099828e-05 0 -4.952132021291827e-05 1.4278604381871087e-05 0 -4.6152977654603982e-05 1.4955952864099828e-05 0 -6.101695718462554e-05 2.1413973381152674e-05 0 -2.3829021753152951e-05 1.2555701280676353e-05 0 -2.8493494430182038e-05 1.0942875660337068e-05 0 -2.0931656805521605e-05 7.1719121286353923e-06 0 -2.5373046426140973e-05 -1.2454711114837327e-05 0 -1.9965845756931706e-05 -7.8333828637922321e-06 0 -2.1619331860489322e-05 -8.3348493145261228e-06 0 -2.8329191321938556e-05 -1.5729115181073983e-05 0 -2.6630928451623289e-05 -1.7398123680035355e-05 0 -2.9226304918682528e-05 -2.1311368144317971e-05 0 -1.3856312649817539e-05 -3.6741315193674905e-06 0 -1.1105898458218125e-05 -2.1733341528735271e-06 0 -9.6087931729488976e-06 -1.9489863288995158e-06 0 -6.6731920963074332e-06 -7.9890413553166835e-07 0 -9.6087931729488976e-06 -1.9489863288995158e-06 0 -1.1105898458218127e-05 -2.1733341528735275e-06 0 -7.4203943397791738e-06 -9.717144307453155e-07 0 -1.2071518133060061e-05 -1.6055253542713804e-07 0 -1.1362342198065779e-05 -2.5226618930518429e-07 0 -1.6927458840118094e-05 1.1692730169880522e-06 0 -1.1362342198065778e-05 -2.522661893051845e-07 0 -1.2071518133060061e-05 -1.6055253542713804e-07 0 -7.7109094463727025e-05 -8.6739992589783598e-05 0 -8.46763640423234e-05 -0.00010212180023414462 0 -7.2768377566269081e-05 -9.5404444873275259e-05 0 -7.4497927933622074e-05 -0.00010902093260409239 0 -7.2768377566269081e-05 -9.5404444873275259e-05 0 -8.46763640423234e-05 -0.00010212180023414462 0 -3.0859652099283198e-06 -1.0139423658653481e-06 0 -2.2878269210596375e-06 -7.0015617551816429e-07 0 -5.3247238040658623e-06 -8.4036109575355931e-07 0 -3.7775281748512166e-06 -5.7329811598384997e-07 0 -5.3247238040658623e-06 -8.4036109575355931e-07 0 -2.2878269210596375e-06 -7.0015617551816429e-07 0 -4.5774739367834344e-06 1.964771756804471e-07 0 -2.5594849885116807e-06 2.6416200057103717e-07 0 -5.5423331257427675e-06 -7.4231524246425806e-08 0 -3.1497143501415365e-06 1.5769714487184729e-07 0 -5.5423331257427675e-06 -7.4231524246425806e-08 0 -2.5594849885116807e-06 2.6416200057103717e-07 0 -8.1987260368011696e-05 0.00028279007494837037 0 -6.2383791528984001e-05 0.00026394887847103318 0 -6.0012967947704764e-05 0.00029471474267090563 0 -6.7729467644042713e-05 -0.00014131363846551113 0 -7.4861763965756745e-05 -0.00013340127651222043 0 -7.809177019514633e-05 -0.00014804810330213853 0 -1.3394037475277412e-05 -3.0669599035654313e-06 0 -1.0370867381642174e-05 -1.7529949164672809e-06 0 -1.1105898458218127e-05 -2.1733341528735275e-06 0 -1.2845905383444416e-05 1.0078557903694625e-06 0 -1.2071518133060061e-05 -1.6055253542713804e-07 0 -1.0099412840034207e-05 -1.1850072476486576e-07 0 -2.5373046426140973e-05 -1.2454711114837327e-05 0 -2.5970842120096885e-05 -1.509173900903354e-05 0 -2.2034031061368294e-05 -1.0354248165359545e-05 0 -1.3856312649817539e-05 -3.6741315193674905e-06 0 -1.5629994563039925e-05 -4.167843992455462e-06 0 -1.1105898458218127e-05 -2.1733341528735275e-06 0 -1.6927458840118094e-05 1.1692730169880522e-06 0 -1.2071518133060061e-05 -1.6055253542713804e-07 0 -1.7416686914959698e-05 1.4912493029041917e-06 0 -3.038002071719174e-05 -2.7548201310525136e-05 0 -3.7627091795560259e-05 -2.1267543792257394e-05 0 -3.3895482597732311e-05 -1.9512405995897707e-05 0 -1.483355223756728e-05 -3.330612431741401e-06 0 -1.7135028873727395e-05 -5.588037594526245e-06 0 -1.9247717118377447e-05 -6.8577816470945965e-06 0 -4.8427101094525049e-09 -1.0450194368474143e-09 0 -4.3908680591136555e-09 -4.1442673862411124e-10 0 -3.6077011633458765e-06 -7.3914681581177174e-07 0 -3.8787864482512311e-09 -6.6312078071405616e-11 0 -4.038807229730497e-09 3.1517809411338712e-10 0 -3.1383975445439873e-06 -2.5238900755597824e-07 0 -1.8314386571273789e-05 2.0964783274048169e-05 0 -1.8310744973160606e-05 1.4121926729556746e-05 0 -1.3681821116108799e-05 1.3795125859329244e-05 0 -4.8616658501639708e-05 -5.4395270306992904e-05 0 -4.9800412392375068e-05 -5.7440182992621794e-05 0 -4.7423235795551138e-05 -5.7406313306484325e-05 0 -2.5373046426140973e-05 -1.2454711114837327e-05 0 -2.6554004194206204e-05 -1.1748270891363493e-05 0 -3.1270370782696935e-05 -1.6215038579979275e-05 0 -4.0143891580640783e-05 -6.4339705648564275e-05 0 -3.3345627211425328e-05 -7.2586368255009914e-05 0 -3.1476873611785372e-05 -5.7374157000642403e-05 0 -1.7790379335284688e-05 -2.7444542411948278e-06 0 -1.4441385485865257e-05 -8.4411323580775176e-08 0 -1.433723247639674e-05 -1.767139887917272e-06 0 -2.2633149996456524e-05 -8.8778726001525861e-06 0 -1.9721313788225441e-05 -5.778524497679456e-06 0 -1.9247717118377447e-05 -6.8577816470945965e-06 0 -1.1601649519849863e-05 1.2898774904076793e-06 0 -1.7082691867549336e-05 4.1129283586933733e-06 0 -8.2339765422465544e-06 1.9768938055630922e-06 0 -9.1011724973499795e-06 -2.8565659288390467e-06 0 -6.4155884175031493e-06 -2.6933965485077133e-06 0 -1.3171829373957641e-05 -5.3933040936528744e-06 0 -3.0104235695387156e-05 -2.0993118575752516e-05 0 -2.9992809631204005e-05 -2.4148409193076429e-05 0 -2.6630928451623289e-05 -1.7398123680035355e-05 0 -1.1767766214933087e-05 1.5241240784568856e-06 0 -1.160794735492815e-05 -1.3848034558100636e-07 0 -1.4441385485865257e-05 -8.4411323580775176e-08 0 -1.8190822692424612e-05 -6.6688319147719316e-06 0 -1.9965845756931706e-05 -7.8333828637922321e-06 0 -2.2034031061368294e-05 -1.0354248165359545e-05 0 -4.2245445711362823e-05 -1.9943135453439194e-05 0 -4.4184484173554754e-05 -2.4334625347815446e-05 0 -3.6858735993473596e-05 -1.8686387525343243e-05 0 -0.00016261204333446213 0.00020010327188453323 0 -0.00013488448624736577 0.00018511237016349052 0 -0.00013342279928545091 0.00021551907965523573 0 -3.0104235695387156e-05 -2.0993118575752516e-05 0 -3.0648332915609646e-05 -1.8291064589874253e-05 0 -3.5773180715701136e-05 -2.4484331191871475e-05 0 -3.6067579589577712e-05 -1.3797756769726861e-05 0 -4.056710867867559e-05 -1.9622666612279702e-05 0 -3.8764870039494683e-05 -1.8188140735066893e-05 0 -2.5373046426140973e-05 -1.2454711114837327e-05 0 -3.1270370782696935e-05 -1.6215038579979275e-05 0 -3.0648332915609646e-05 -1.8291064589874253e-05 0 -1.433723247639674e-05 -1.767139887917272e-06 0 -1.4441385485865257e-05 -8.4411323580775176e-08 0 -1.160794735492815e-05 -1.3848034558100636e-07 0 -4.3842489092968157e-05 -2.410582075884998e-05 0 -4.6414084555385737e-05 -2.7080997322929077e-05 0 -4.8160748681249584e-05 -3.0428957672267115e-05 0 -1.8314386571273789e-05 2.0964783274048169e-05 0 -1.2773862675511763e-05 2.2167929460123084e-05 0 -1.8795775773027406e-05 3.1073921563193689e-05 0 -2.5373046426140973e-05 -1.2454711114837327e-05 0 -2.1619331860489322e-05 -8.3348493145261228e-06 0 -2.6554004194206204e-05 -1.1748270891363493e-05 0 -0.00016949716880415702 0.00026681522971029717 0 -0.00016694944754185715 0.00023365487396086599 0 -0.00014240510635591891 0.00024684455766675064 0 -2.7794067149818497e-05 -0.00010985955756660255 0 -3.9648499141433634e-05 -0.00011931735459348394 0 -3.0100925406107636e-05 -0.00012563095277999797 0 -2.4546480282713741e-05 -7.8529296535800695e-05 0 -3.6145579862909358e-05 -8.9677297308005542e-05 0 -2.5924259800376766e-05 -9.4116516236841731e-05 0 -4.4066156628324671e-05 2.6997106835544239e-05 0 -6.0403373898906029e-05 3.2344405139325267e-05 0 -4.9547628257342639e-05 2.2149884239333275e-05 0 -9.3968923530772743e-06 -1.9565730734879289e-07 0 -2.0585592597695873e-05 9.6364497842361764e-06 0 -2.0945683701423063e-05 -9.3815196540173271e-06 0 -4.2245445711362823e-05 -1.9943135453439194e-05 0 -4.3030768403729812e-05 -1.887962874720297e-05 0 -4.9340281318140724e-05 -2.3232525444878231e-05 0 -5.9329813678288742e-05 2.4509790928319616e-05 0 -7.1743101829343346e-05 2.9116972805004324e-05 0 -6.101695718462554e-05 2.1413973381152674e-05 0 -4.2245445711362823e-05 -1.9943135453439194e-05 0 -4.9340281318140724e-05 -2.3232525444878231e-05 0 -5.1358078456741821e-05 -2.6576132215912749e-05 0 -5.9329813678288742e-05 2.4509790928319616e-05 0 -7.4260348411332985e-05 3.5806461584469773e-05 0 -7.1743101829343346e-05 2.9116972805004324e-05 0 -9.1011724973499795e-06 -2.8565659288390467e-06 0 -4.4606871861207854e-06 -1.1542754706176584e-06 0 -6.4155884175031493e-06 -2.6933965485077133e-06 0 -1.1601649519849863e-05 1.2898774904076793e-06 0 -8.2339765422465544e-06 1.9768938055630922e-06 0 -5.6275760778375645e-06 1.6085115215926987e-07 0 -2.2633149996456524e-05 -8.8778726001525861e-06 0 -2.4938438518083747e-05 -1.3056485348699126e-05 0 -2.6138796652208986e-05 -1.0811858347555451e-05 0 -2.8329191321938556e-05 -1.5729115181073983e-05 0 -2.6138796652208986e-05 -1.0811858347555451e-05 0 -2.4938438518083747e-05 -1.3056485348699126e-05 0 -6.0417837895028691e-05 -5.0555037648424959e-05 0 -5.9366706372626089e-05 -5.0415457487832933e-05 0 -5.6222474366079076e-05 -4.5309350533432355e-05 0 -3.0800110450542345e-05 -3.33636360361556e-05 0 -3.2403436189758244e-05 -3.5822200231730024e-05 0 -3.5157963193334379e-05 -4.0033996405178311e-05 0 -1.4781624408452104e-05 -1.2458949274805367e-05 0 -2.0945683701423063e-05 -9.3815196540173271e-06 0 -2.2608170977372466e-05 -1.9012617467851867e-05 0 -2.7462624615653815e-05 -2.9258300261703369e-05 0 -2.886844657923358e-05 -3.0635424297053567e-05 0 -3.2403436189758244e-05 -3.5822200231730024e-05 0 -5.8347363915843914e-05 -4.5319951110687276e-05 0 -5.6222474366079076e-05 -4.5309350533432355e-05 0 -5.4455160382921712e-05 -4.0624857953628229e-05 0 -2.5373046426140973e-05 -1.2454711114837327e-05 0 -2.2034031061368294e-05 -1.0354248165359545e-05 0 -1.9965845756931706e-05 -7.8333828637922321e-06 0 -2.2976268036741465e-05 -1.1832512041735284e-05 0 -2.6630928451623289e-05 -1.7398123680035355e-05 0 -2.4938438518083747e-05 -1.3056485348699126e-05 0 -2.8329191321938556e-05 -1.5729115181073983e-05 0 -2.4938438518083747e-05 -1.3056485348699126e-05 0 -2.6630928451623289e-05 -1.7398123680035355e-05 0 -1.7790379335284688e-05 -2.7444542411948278e-06 0 -2.2283823510246232e-05 -6.3230648842137527e-06 0 -2.1254079461419385e-05 -2.6099982116155176e-06 0 -0.00016261204333446213 0.00020010327188453323 0 -0.00015597930121751796 0.00016665679694539428 0 -0.00013488448624736577 0.00018511237016349052 0 -3.0533169065060576e-05 -6.5287758764779377e-06 0 -2.8435020177575801e-05 -6.6125119346397531e-06 0 -3.2172549366042406e-05 -1.0880028688624749e-05 0 -3.4161471046409601e-05 4.236211444082277e-05 0 -2.604061177680533e-05 2.8139782099116918e-05 0 -1.8795775773027406e-05 3.1073921563193689e-05 0 -1.8314386571273789e-05 2.0964783274048169e-05 0 -1.8795775773027406e-05 3.1073921563193689e-05 0 -2.604061177680533e-05 2.8139782099116918e-05 0 -2.4001210479842447e-05 -6.3060114527115882e-05 0 -3.3345627211425328e-05 -7.2586368255009914e-05 0 -2.4546480282713741e-05 -7.8529296535800695e-05 0 -9.1590946081093386e-05 4.1649798567559912e-05 0 -7.1743101829343346e-05 2.9116972805004324e-05 0 -7.4260348411332985e-05 3.5806461584469773e-05 0 -6.0037758486086325e-05 -2.9951929881668968e-05 0 -5.1358078456741821e-05 -2.6576132215912749e-05 0 -4.9340281318140724e-05 -2.3232525444878231e-05 0 -2.6341884587295433e-05 -7.4031350421523467e-06 0 -3.21725493660424e-05 -1.0880028688624748e-05 0 -2.8435020177575801e-05 -6.6125119346397539e-06 0 -0.00010154663954866683 0.00021425651703346139 0 -0.00013342279928545091 0.00021551907965523573 0 -0.00011409472449088271 0.00019057914662795291 0 -0.00010154663954866683 0.00021425651703346139 0 -0.00012045901005375417 0.00023698034565856118 0 -0.00013342279928545091 0.00021551907965523573 0 -5.263486562250198e-05 -0.00010682735294663642 0 -4.7628442276931101e-05 -0.00011634307133054293 0 -4.0201570785392018e-05 -0.00010493346727311062 0 -5.263486562250198e-05 -0.00010682735294663642 0 -4.0201570785392018e-05 -0.00010493346727311062 0 -4.5134137917321306e-05 -9.5779450235317418e-05 0 -3.0100925406107636e-05 -0.00012563095277999797 0 -4.0556708259016108e-05 -0.00013329542720386946 0 -3.2878910892441911e-05 -0.00014136893725076954 0 -0.00017050729388019866 0.00029916749703641721 0 -0.00016949716880415702 0.00026681522971029717 0 -0.00014695254865539133 0.0002761601588085419 0 -8.2112351597805303e-06 -8.8761926439194542e-07 0 -6.6793057863131627e-06 -5.2896047762657116e-07 0 -1.0370867381642176e-05 -1.7529949164672809e-06 0 -7.4702608288844143e-06 -6.5622378606457976e-07 0 -1.0099412840034207e-05 -1.1850072476486576e-07 0 -6.4337445528621336e-06 -1.1260771541208693e-06 0 -5.263486562250198e-05 -0.00010682735294663642 0 -6.1055326462340292e-05 -0.0001082132422979527 0 -5.6394175329595225e-05 -0.0001205725980704478 0 -5.263486562250198e-05 -0.00010682735294663642 0 -5.2963347642978763e-05 -9.4387402517654708e-05 0 -6.1055326462340292e-05 -0.0001082132422979527 0 -6.7203354294509299e-05 -0.00012348157608652944 0 -5.6394175329595225e-05 -0.0001205725980704478 0 -6.1055326462340292e-05 -0.0001082132422979527 0 -6.2782394729580954e-05 -9.4559679441678159e-05 0 -6.1055326462340292e-05 -0.0001082132422979527 0 -5.2963347642978763e-05 -9.4387402517654708e-05 0 -0.00010154663954866683 0.00021425651703346139 0 -8.0336880756492124e-05 0.0002160194845865519 0 -0.00010109383547756779 0.00024431226807025192 0 -7.6142969761122578e-05 0.0002435761152863789 0 -0.00010109383547756779 0.00024431226807025192 0 -8.0336880756492124e-05 0.0002160194845865519 0 -3.8787864482512311e-09 -6.6312078071405616e-11 0 -3.1383975445439873e-06 -2.5238900755597824e-07 0 -3.1934695559388481e-06 -1.9578566267997238e-08 0 -4.3908680591136555e-09 -4.1442673862411124e-10 0 -3.4037225449654987e-06 -1.0025488461248017e-06 0 -3.6077011633458765e-06 -7.3914681581177174e-07 0 -6.7452228680188884e-05 -5.0352985841915435e-05 0 -5.5963735215798452e-05 -3.8827659251564546e-05 0 -6.3530580879621093e-05 -3.9472660962480756e-05 0 -0.00010020071353476553 8.4840549368130449e-05 0 -9.5559197620533935e-05 6.2589213268273301e-05 0 -8.0810120333554096e-05 6.0528939289261436e-05 0 -2.969508499712503e-05 -1.1632690403585437e-05 0 -3.6836087530327087e-05 -1.5722259024083638e-05 0 -3.456240281522078e-05 -1.5323386444069875e-05 0 -9.8354187171340175e-06 -1.6921602708727279e-07 0 -1.167937521990614e-05 -1.3147957774187338e-06 0 -1.160794735492815e-05 -1.3848034558100636e-07 0 -4.5375390328998288e-05 -5.6263406009543422e-05 0 -4.376120825141289e-05 -5.3799992775207628e-05 0 -4.6224612730571864e-05 -5.4166316874533106e-05 0 -3.0728966794089672e-05 6.1849955563586656e-06 0 -3.699115946229554e-05 8.6566189369089218e-06 0 -4.0637747490436909e-05 1.031288233240952e-05 0 -4.952132021291827e-05 1.4278604381871087e-05 0 -4.0637747490436909e-05 1.031288233240952e-05 0 -3.699115946229554e-05 8.6566189369089218e-06 0 -5.8230319136999279e-06 6.2331538968068854e-07 0 -5.2266018233193064e-06 -1.2309577603750327e-07 0 -3.9708847404582919e-06 -1.7384290705462284e-07 0 -1.9695900182399308e-05 -1.9634744160737747e-05 0 -2.6870945894832098e-05 -2.6313787426088875e-05 0 -2.3691092587072392e-05 -2.4796000783930576e-05 0 -6.0037758486086325e-05 -2.9951929881668968e-05 0 -5.9321093070257057e-05 -3.2963167751628346e-05 0 -5.1358078456741821e-05 -2.6576132215912749e-05 0 -9.1590946081093386e-05 4.1649798567559912e-05 0 -7.4260348411332971e-05 3.5806461584469766e-05 0 -8.884665849953296e-05 4.7997367381702501e-05 0 -3.9763828399087525e-05 -2.3118603599213439e-05 0 -4.1415196322418929e-05 -2.1423045675910141e-05 0 -3.7627091795560259e-05 -2.1267543792257394e-05 0 -1.6927458840118094e-05 1.1692730169880522e-06 0 -1.7416686914959698e-05 1.4912493029041917e-06 0 -2.4754495749175991e-05 3.7576988053058672e-06 0 -2.1611580768120224e-05 3.732078392136093e-06 0 -2.4754495749175991e-05 3.7576988053058677e-06 0 -1.7416686914959698e-05 1.4912493029041917e-06 0 -4.3776514111542193e-05 8.8319328509891496e-05 0 -3.9432635698195721e-05 6.1811810736479519e-05 0 -2.7144525166783107e-05 5.5771504902472301e-05 0 -3.8932890751927939e-05 1.1385591933483763e-05 0 -3.2678359028293391e-05 7.9785209979912706e-06 0 -4.0637747490436909e-05 1.031288233240952e-05 0 -2.8811583700754918e-05 -1.203903737436156e-05 0 -2.9475622925768803e-05 -1.1448660238032931e-05 0 -2.4310522679342274e-05 -9.4509305132726417e-06 0 -4.5641800747635644e-05 -4.2194365612509014e-05 0 -4.4852074239480459e-05 -3.7896384822318655e-05 0 -4.8680188273625146e-05 -4.2418478657761924e-05 0 -4.7395624698400088e-05 -3.7597344463415256e-05 0 -4.8680188273625146e-05 -4.2418478657761924e-05 0 -4.4852074239480459e-05 -3.7896384822318655e-05 0 -1.7790379335284688e-05 -2.7444542411948278e-06 0 -1.7088334847454529e-05 -5.0055237016358357e-08 0 -1.4441385485865257e-05 -8.4411323580775176e-08 0 -2.3829021753152951e-05 1.2555701280676353e-05 0 -2.0931656805521605e-05 7.1719121286353914e-06 0 -1.7293113432131125e-05 8.319196595303001e-06 0 -9.5286670088837058e-06 3.9409517179283067e-06 0 -9.3367003808259401e-06 2.3466281824350451e-06 0 -1.0887114754473118e-05 4.0322105419490048e-06 0 -3.4161471046409601e-05 4.236211444082277e-05 0 -2.7144525166783107e-05 5.5771504902472301e-05 0 -3.9432635698195721e-05 6.1811810736479519e-05 0 -4.2245445711362823e-05 -1.9943135453439194e-05 0 -3.6858735993473596e-05 -1.8686387525343243e-05 0 -3.456240281522078e-05 -1.5323386444069875e-05 0 -1.8190822692424612e-05 -6.6688319147719316e-06 0 -1.480760329879277e-05 -3.9321835900737768e-06 0 -1.5384414211671134e-05 -4.3748594504432976e-06 0 8.4569013580974761e-06 0.00012261655915049563 0 9.2175286687605175e-06 0.00015566687344846923 0 -1.2155403031333589e-05 0.00014603891325685087 0 -0.00010061710317854327 -0.00010314645526454663 0 -8.46763640423234e-05 -0.00010212180023414462 0 -8.7439988428551695e-05 -9.0810034185020001e-05 0 -9.1590946081093386e-05 4.1649798567559912e-05 0 -7.6588681199711797e-05 2.9887198470068282e-05 0 -7.1743101829343346e-05 2.9116972805004324e-05 0 -5.169580155283894e-05 -2.3787358431874863e-05 0 -6.0037758486086325e-05 -2.9951929881668968e-05 0 -4.9340281318140724e-05 -2.3232525444878231e-05 0 -2.4631073671450994e-05 -1.9286004060395069e-06 0 -2.7542809260219703e-05 -1.3966219461163547e-06 0 -2.1335417963408039e-05 3.6984862602162983e-06 0 -1.6927458840118094e-05 1.1692730169880522e-06 0 -2.4754495749175991e-05 3.7576988053058672e-06 0 -2.2739887400268546e-05 3.3619220103943137e-06 0 -3.0728966794089672e-05 6.1849955563586656e-06 0 -2.2739887400268546e-05 3.3619220103943137e-06 0 -2.4754495749175991e-05 3.7576988053058672e-06 0 -1.2483315972098819e-05 1.0774895999818398e-05 0 -1.316695120254591e-05 1.5428386859779741e-05 0 -1.3681821116108799e-05 1.3795125859329244e-05 0 -8.8605473757117029e-05 -0.000118851967943133 0 -8.46763640423234e-05 -0.00010212180023414462 0 -9.4429037108972294e-05 -0.00011095371332206574 0 -5.1571260761705324e-05 -3.7324903110806865e-05 0 -4.9848964422226264e-05 -3.7406714177033512e-05 0 -4.8304517990413302e-05 -3.2530799306091179e-05 0 4.0740411514306385e-06 0.00025338530335297687 0 6.9272921576885619e-07 0.00028554750869960261 0 -1.8354830690553173e-05 0.00027054432155105456 0 -0.00010574031131557214 -0.00013442328150372156 0 -0.00010664529560121539 -0.00014947248513037833 0 -9.5933509753052585e-05 -0.00013977417732853779 0 -4.4066156628324671e-05 2.6997106835544239e-05 0 -3.2218657450989804e-05 1.7530092150457763e-05 0 -2.7649150135437074e-05 2.0909509010956634e-05 0 -3.0104235695387156e-05 -2.0993118575752516e-05 0 -3.4930940426213776e-05 -2.8308127206458611e-05 0 -2.9992809631204005e-05 -2.4148409193076426e-05 0 -3.7137626670972534e-05 -2.1816407447285871e-05 0 -3.5773180715701136e-05 -2.4484331191871475e-05 0 -3.0648332915609646e-05 -1.8291064589874253e-05 0 -0.00016949716880415702 0.00026681522971029717 0 -0.00014240510635591891 0.00024684455766675064 0 -0.00014695254865539133 0.0002761601588085419 0 -3.0100925406107636e-05 -0.00012563095277999797 0 -3.9648499141433634e-05 -0.00011931735459348394 0 -4.0556708259016108e-05 -0.00013329542720386946 0 -1.7846010891135888e-05 -5.8731312694864175e-06 0 -1.4341025278125635e-05 -3.6317888057095858e-06 0 -1.7640710689723821e-05 -5.3191035853428148e-06 0 -1.8314386571273789e-05 2.0964783274048169e-05 0 -2.604061177680533e-05 2.8139782099116918e-05 0 -2.7649150135437074e-05 2.0909509010956634e-05 0 -4.2245445711362823e-05 -1.9943135453439194e-05 0 -3.6836087530327087e-05 -1.5722259024083638e-05 0 -4.3030768403729812e-05 -1.887962874720297e-05 0 -4.6271962326033806e-05 -2.7278393567185117e-05 0 -5.1579017706412774e-05 -3.3075583313033805e-05 0 -4.6414084555385737e-05 -2.7080997322929077e-05 0 -1.9471212775285486e-05 -6.1399277611200623e-06 0 -1.8520921978287304e-05 -5.6922919589596963e-06 0 -2.3883607321597216e-05 -8.3319893129692897e-06 0 -9.6346949385250064e-05 -8.7655519209035114e-05 0 -0.00010061710317854327 -0.00010314645526454663 0 -8.7439988428551695e-05 -9.0810034185020001e-05 0 -3.4801660970769722e-05 -1.4024523255904822e-05 0 -2.8278216738521007e-05 -1.059590909829029e-05 0 -2.9475622925768803e-05 -1.1448660238032931e-05 0 -2.3274528352872261e-05 -8.2329620791897523e-06 0 -2.9475622925768803e-05 -1.1448660238032931e-05 0 -2.8278216738521007e-05 -1.059590909829029e-05 0 -0.00011146593598694419 0.00016683072177435667 0 -9.0188313336274446e-05 0.00017173006471028816 0 -0.00011409472449088271 0.00019057914662795291 0 -3.0859652099283198e-06 -1.0139423658653481e-06 0 -6.4337445528621336e-06 -1.1260771541208693e-06 0 -3.4037225449654987e-06 -1.0025488461248017e-06 0 -7.4203943397791738e-06 -9.717144307453155e-07 0 -3.4037225449654987e-06 -1.0025488461248017e-06 0 -6.4337445528621336e-06 -1.1260771541208693e-06 0 -6.6731920963074332e-06 -7.9890413553166835e-07 0 -6.6793057863131627e-06 -5.2896047762657116e-07 0 -3.1934695559388481e-06 -1.9578566267997238e-08 0 -3.1497143501415365e-06 1.5769714487184729e-07 0 -3.1934695559388481e-06 -1.9578566267997238e-08 0 -6.6793057863131627e-06 -5.2896047762657116e-07 0 -2.2976268036741465e-05 -1.1832512041735284e-05 0 -2.2034031061368294e-05 -1.0354248165359543e-05 0 -2.5970842120096885e-05 -1.509173900903354e-05 0 -3.1385641008514326e-05 -6.3749122347415941e-06 0 -3.3507596811941212e-05 -9.901723373304906e-06 0 -3.4557075869910087e-05 -1.4011382020558242e-05 0 -3.6914393229366332e-05 -1.6121228045407008e-05 0 -3.4557075869910087e-05 -1.4011382020558242e-05 0 -3.3507596811941212e-05 -9.901723373304906e-06 0 -5.1579017706412774e-05 -3.3075583313033805e-05 0 -5.5527094299798038e-05 -3.9450466110784101e-05 0 -5.1856248743814791e-05 -3.5620696307597933e-05 0 -3.6914393229366332e-05 -1.6121228045407008e-05 0 -3.6067579589577712e-05 -1.3797756769726861e-05 0 -3.8764870039494683e-05 -1.8188140735066893e-05 0 -3.2403436189758244e-05 -3.5822200231730024e-05 0 -2.886844657923358e-05 -3.0635424297053567e-05 0 -3.447929505230173e-05 -3.6530254996116098e-05 0 -5.6222474366079076e-05 -4.5309350533432355e-05 0 -5.2975306956086343e-05 -4.0716733534463525e-05 0 -5.4455160382921712e-05 -4.0624857953628229e-05 0 -6.0037758486086325e-05 -2.9951929881668968e-05 0 -6.8478831107334447e-05 -3.7986265935354499e-05 0 -5.9321093070257057e-05 -3.2963167751628346e-05 0 -0.00010718607258964098 5.8250068498061315e-05 0 -9.1590946081093386e-05 4.1649798567559912e-05 0 -8.884665849953296e-05 4.7997367381702501e-05 0 -2.0945683701423063e-05 -9.3815196540173271e-06 0 -2.7886285007552827e-05 -1.5909122467580015e-05 0 -2.2608170977372466e-05 -1.9012617467851867e-05 0 -3.2403436189758244e-05 -3.5822200231730024e-05 0 -3.6974586735637014e-05 -4.1405711222846039e-05 0 -3.5157963193334379e-05 -4.0033996405178311e-05 0 -3.7137626670972534e-05 -2.1816407447285871e-05 0 -3.6858735993473596e-05 -1.8686387525343243e-05 0 -4.4184484173554754e-05 -2.4334625347815446e-05 0 -3.3568151377719739e-06 3.5547989035865707e-07 0 -1.3753527599108618e-06 2.0483379548801821e-07 0 -1.555315447500812e-06 2.489816420146114e-07 0 -1.5817001667090803e-05 5.0086478289677682e-06 0 -2.0931656805521605e-05 7.1719121286353923e-06 0 -1.7526585026795228e-05 3.2616363510300443e-06 0 -9.6805514704462708e-06 2.7034226010078236e-06 0 -1.2672583633280385e-05 2.8640698807960253e-06 0 -1.0171798605605629e-05 1.3543979175056243e-06 0 -2.3151904937889989e-05 8.6590880757932623e-06 0 -2.7268793072124394e-05 1.3433232120242483e-06 0 -2.6921994918262724e-05 -3.1483034560719731e-06 0 -1.8024232244907427e-05 -6.6262481195168637e-06 0 -1.3762737216739582e-05 -4.3874789706439742e-06 0 -1.3171829373957641e-05 -5.3933040936528744e-06 0 -9.1011724973499795e-06 -2.8565659288390467e-06 0 -1.3171829373957641e-05 -5.3933040936528744e-06 0 -1.3762737216739582e-05 -4.3874789706439742e-06 0 -1.1601649519849863e-05 1.2898774904076793e-06 0 -1.7670211874333821e-05 2.2753417030756627e-06 0 -1.7082691867549336e-05 4.1129283586933733e-06 0 -2.3661989901043578e-05 4.7471816592001011e-06 0 -1.7082691867549336e-05 4.1129283586933733e-06 0 -1.7670211874333821e-05 2.2753417030756627e-06 0 -8.398940381072009e-05 -5.9558466682158055e-05 0 -9.0845756503113423e-05 -7.3071938856649602e-05 0 -7.8292292297249612e-05 -6.4303108747375523e-05 0 -4.3776514111542193e-05 8.8319328509891496e-05 0 -5.3123208164242326e-05 6.6412156533651831e-05 0 -3.9432635698195721e-05 6.1811810736479519e-05 0 -2.4546480282713741e-05 -7.8529296535800695e-05 0 -3.3345627211425328e-05 -7.2586368255009914e-05 0 -3.6145579862909358e-05 -8.9677297308005542e-05 0 -4.3583674307855158e-05 -5.0597268339648648e-05 0 -4.6577618235372393e-05 -5.080439481887573e-05 0 -4.6224612730571864e-05 -5.4166316874533106e-05 0 -1.3394037475277412e-05 -3.0669599035654313e-06 0 -1.7640710689723821e-05 -5.3191035853428148e-06 0 -1.4341025278125635e-05 -3.6317888057095858e-06 0 -2.6341884587295433e-05 -7.4031350421523467e-06 0 -2.1254079461419385e-05 -2.6099982116155176e-06 0 -2.2283823510246232e-05 -6.3230648842137527e-06 0 -2.969508499712503e-05 -1.1632690403585437e-05 0 -2.3883607321597216e-05 -8.3319893129692897e-06 0 -2.8278216738521007e-05 -1.059590909829029e-05 0 -3.4840041353519294e-05 0.00015774485758935429 0 -1.0843761620015198e-05 0.0001676190963337102 0 -2.4084630672935908e-05 0.0001873640072608527 0 -2.2966845167471398e-09 1.6641119347231295e-10 0 -2.4323905487591145e-06 3.3963505284252031e-07 0 -1.555315447500812e-06 2.489816420146114e-07 0 -4.7395624698400088e-05 -3.7597344463415256e-05 0 -4.4852074239480459e-05 -3.7896384822318655e-05 0 -4.3518401978458589e-05 -3.2439276364728688e-05 0 -2.0945683701423063e-05 -9.3815196540173271e-06 0 -2.0585592597695873e-05 9.6364497842361764e-06 0 -2.6921994918262724e-05 -3.1483034560719731e-06 0 -0.00014704275131307551 0.00013487096205487794 0 -0.00013517478215588721 0.00010516532718500228 0 -0.00012110143643785618 0.00011633051586049965 0 -2.6594052828294881e-06 2.5731067864205043e-07 0 -3.1890666699229265e-06 1.6583086412835176e-07 0 -1.7037442394525466e-06 3.626753753362034e-08 0 -6.6731920963074332e-06 -7.9890413553166835e-07 0 -3.1934695559388481e-06 -1.9578566267997238e-08 0 -3.1383975445439873e-06 -2.5238900755597824e-07 0 -7.4203943397791738e-06 -9.717144307453155e-07 0 -3.6077011633458765e-06 -7.3914681581177174e-07 0 -3.4037225449654987e-06 -1.0025488461248017e-06 0 -1.1767766214933087e-05 1.5241240784568856e-06 0 -9.7540030888737766e-06 9.1391581114653248e-07 0 -1.160794735492815e-05 -1.3848034558100636e-07 0 -5.3188380095092505e-05 -3.1693809724680145e-05 0 -5.1358078456741821e-05 -2.6576132215912749e-05 0 -5.9321093070257057e-05 -3.2963167751628346e-05 0 -7.5474767407343729e-05 4.621818984620003e-05 0 -8.884665849953296e-05 4.7997367381702501e-05 0 -7.4260348411332985e-05 3.5806461584469773e-05 0 -3.979239827687524e-05 0.0002629730160594931 0 -2.629515653791539e-05 0.00023243937833308814 0 -1.4913005726157722e-05 0.00024864759763913269 0 -8.505099377988188e-05 -0.0001342398579174661 0 -8.8605473757117015e-05 -0.000118851967943133 0 -9.5866050119427753e-05 -0.00012907621190611459 0 -1.9695900182399308e-05 -1.9634744160737747e-05 0 -2.2608170977372466e-05 -1.9012617467851867e-05 0 -2.6870945894832098e-05 -2.6313787426088875e-05 0 -2.3829021753152951e-05 1.2555701280676353e-05 0 -2.7649150135437074e-05 2.0909509010956634e-05 0 -3.2218657450989804e-05 1.7530092150457763e-05 0 -2.8672310643031764e-05 -2.3063370009339698e-05 0 -2.6870945894832098e-05 -2.6313787426088875e-05 0 -2.2608170977372466e-05 -1.9012617467851867e-05 0 -9.8354187171340175e-06 -1.6921602708727279e-07 0 -8.6949681094745172e-06 -2.622502068553405e-07 0 -1.167937521990614e-05 -1.3147957774187338e-06 0 -2.9146261755394187e-06 -5.45407427361657e-08 0 -2.0776895090012379e-06 -4.0316685856830661e-07 0 -1.3596302721873728e-06 -1.3974199116398304e-07 0 -1.7846010891135888e-05 -5.8731312694864175e-06 0 -1.5384414211671134e-05 -4.3748594504432976e-06 0 -1.4341025278125635e-05 -3.6317888057095858e-06 0 -2.362037367821172e-05 5.6480333225089587e-06 0 -2.7268793072124394e-05 1.3433232120242483e-06 0 -2.0432454580531539e-05 1.2401531470872532e-05 0 -2.3151904937889989e-05 8.6590880757932623e-06 0 -2.0432454580531539e-05 1.2401531470872532e-05 0 -2.7268793072124394e-05 1.3433232120242483e-06 0 -7.4497927933622074e-05 -0.00010902093260409239 0 -8.8605473757117029e-05 -0.000118851967943133 0 -7.804920620118541e-05 -0.00012339105124062696 0 -8.505099377988188e-05 -0.0001342398579174661 0 -7.804920620118541e-05 -0.00012339105124062696 0 -8.8605473757117029e-05 -0.000118851967943133 0 -4.8369053252807739e-05 0.00021199963138950132 0 -2.629515653791539e-05 0.00023243937833308814 0 -5.0798227809007746e-05 0.00024336024851887619 0 -3.979239827687524e-05 0.0002629730160594931 0 -5.0798227809007746e-05 0.00024336024851887619 0 -2.629515653791539e-05 0.00023243937833308814 0 -4.8369053252807739e-05 0.00021199963138950132 0 -4.8883252099393037e-05 0.00018100215987096752 0 -2.4084630672935908e-05 0.0001873640072608527 0 -3.4840041353519294e-05 0.00015774485758935429 0 -2.4084630672935908e-05 0.0001873640072608527 0 -4.8883252099393037e-05 0.00018100215987096752 0 -2.0065859350607672e-09 1.2725944758143213e-10 0 -2.0946575992337213e-09 1.3677354148264066e-10 0 -1.3753527599108618e-06 2.0483379548801821e-07 0 -2.3691092587072392e-05 -2.4796000783930576e-05 0 -2.6870945894832098e-05 -2.6313787426088875e-05 0 -2.886844657923358e-05 -3.0635424297053567e-05 0 -3.2102630003747913e-05 -3.2290178357595976e-05 0 -2.886844657923358e-05 -3.0635424297053567e-05 0 -2.6870945894832098e-05 -2.6313787426088875e-05 0 -7.7109094463727025e-05 -8.6739992589783598e-05 0 -8.054157586124389e-05 -7.6938921795192966e-05 0 -8.7439988428551695e-05 -9.0810034185020001e-05 0 -9.0845756503113423e-05 -7.3071938856649602e-05 0 -8.054157586124389e-05 -7.6938921795192966e-05 0 -7.8292292297249612e-05 -6.4303108747375523e-05 0 -0.00014704275131307551 0.00013487096205487794 0 -0.00012110143643785618 0.00011633051586049965 0 -0.00012318435811778112 0.00014508908173795673 0 -1.2750177769610115e-05 5.7449870016782987e-06 0 -1.3418776587688434e-05 8.3467410694437909e-06 0 -1.1243540618823666e-05 6.82306200322344e-06 0 -1.2483315972098819e-05 1.0774895999818398e-05 0 -1.1243540618823666e-05 6.82306200322344e-06 0 -1.3418776587688434e-05 8.3467410694437909e-06 0 -6.4873068041694746e-06 3.5378431220106636e-07 0 -7.9580136163500441e-06 4.5494612497503122e-07 0 -6.2833028599265117e-06 6.5813803041016214e-07 0 -3.3568151377719739e-06 3.5547989035865707e-07 0 -1.5553154475008118e-06 2.4898164201461134e-07 0 -2.4323905487591145e-06 3.3963505284252031e-07 0 -3.0728966794089672e-05 6.1849955563586656e-06 0 -4.0637747490436909e-05 1.031288233240952e-05 0 -3.2678359028293391e-05 7.9785209979912706e-06 0 -2.3274528352872261e-05 -8.2329620791897523e-06 0 -2.4310522679342274e-05 -9.4509305132726417e-06 0 -2.9475622925768803e-05 -1.1448660238032931e-05 0 -2.3274528352872261e-05 -8.2329620791897523e-06 0 -2.8278216738521007e-05 -1.059590909829029e-05 0 -2.3883607321597216e-05 -8.3319893129692897e-06 0 6.6185937027287819e-06 0.00022126065617747041 0 -1.4913005726157722e-05 0.00024864759763913269 0 -2.629515653791539e-05 0.00023243937833308814 0 -0.000103773856295126 -0.00011879240019120862 0 -9.5866050119427766e-05 -0.00012907621190611459 0 -8.8605473757117029e-05 -0.000118851967943133 0 -2.0238684278606535e-09 -3.6900334588832179e-11 0 -1.3596302721873728e-06 -1.3974199116398307e-07 0 -2.0776895090012379e-06 -4.0316685856830661e-07 0 -9.6805514704462708e-06 2.7034226010078236e-06 0 -1.271577687029047e-05 5.1854858858580241e-06 0 -1.2672583633280385e-05 2.8640698807960253e-06 0 -5.8489274127976072e-05 -7.504165580855918e-05 0 -6.2248156218221103e-05 -6.4492486654096651e-05 0 -6.7429161289388144e-05 -7.5167180951936927e-05 0 -2.4834829091297024e-05 6.4921258339412942e-06 0 -2.0931656805521602e-05 7.1719121286353914e-06 0 -2.8493494430182038e-05 1.0942875660337068e-05 0 -3.0104235695387156e-05 -2.0993118575752516e-05 0 -3.5773180715701136e-05 -2.4484331191871475e-05 0 -3.4930940426213776e-05 -2.8308127206458611e-05 0 -1.0585299293427057e-05 5.6217120160154027e-06 0 -1.1243540618823666e-05 6.82306200322344e-06 0 -1.1942388622310874e-05 8.8240293673888449e-06 0 -7.5016047311558928e-05 0.00013633144986985093 0 -9.7505307402761404e-05 0.00014163550594341329 0 -8.5236225547541291e-05 0.00011752351803994194 0 -5.3188380095092505e-05 -3.1693809724680145e-05 0 -6.3530580879621093e-05 -3.9472660962480756e-05 0 -5.5963735215798452e-05 -3.8827659251564546e-05 0 -7.5474767407343729e-05 4.621818984620003e-05 0 -8.0810120333554096e-05 6.0528939289261436e-05 0 -9.5559197620533935e-05 6.2589213268273301e-05 0 -4.8616658501639708e-05 -5.4395270306992904e-05 0 -4.7423235795551138e-05 -5.7406313306484325e-05 0 -4.6224612730571864e-05 -5.4166316874533106e-05 0 -4.5375390328998288e-05 -5.6263406009543422e-05 0 -4.6224612730571864e-05 -5.4166316874533106e-05 0 -4.7423235795551138e-05 -5.7406313306484325e-05 0 -2.969508499712503e-05 -1.1632690403585437e-05 0 -2.445393827366568e-05 -8.9398856708910868e-06 0 -2.3883607321597216e-05 -8.3319893129692897e-06 0 -1.9471212775285486e-05 -6.1399277611200623e-06 0 -2.3883607321597216e-05 -8.3319893129692897e-06 0 -2.445393827366568e-05 -8.9398856708910868e-06 0 -1.8190822692424612e-05 -6.6688319147719316e-06 0 -2.2034031061368294e-05 -1.0354248165359545e-05 0 -2.0033594262974702e-05 -8.3697823909699355e-06 0 -3.4801660970769722e-05 -1.4024523255904822e-05 0 -4.3030768403729812e-05 -1.887962874720297e-05 0 -3.6836087530327087e-05 -1.5722259024083638e-05 0 -3.6506242643597427e-05 9.8468767993780773e-06 0 -3.699115946229554e-05 8.6566189369089218e-06 0 -2.8825749906729679e-05 6.2047804403815236e-06 0 -5.2159475146913913e-05 -5.9960546588022715e-05 0 -4.8505104705189151e-05 -6.004817512552929e-05 0 -4.9800412392375068e-05 -5.7440182992621794e-05 0 -7.5016047311558928e-05 0.00013633144986985093 0 -9.0188313336274446e-05 0.00017173006471028816 0 -9.7505307402761404e-05 0.00014163550594341329 0 -2.0946575992337213e-09 1.3677354148264066e-10 0 -2.2966845167471398e-09 1.6641119347231295e-10 0 -1.555315447500812e-06 2.489816420146114e-07 0 8.3737176498175672e-06 0.00018859238996295129 0 -2.4084630672935908e-05 0.0001873640072608527 0 -1.0843761620015198e-05 0.0001676190963337102 0 -1.4830094249337605e-05 1.7048874524929595e-05 0 -1.2773862675511763e-05 2.2167929460123084e-05 0 -1.316695120254591e-05 1.5428386859779737e-05 0 -7.5474767407343729e-05 4.621818984620003e-05 0 -6.2767288618249421e-05 4.3795961262602113e-05 0 -8.0810120333554096e-05 6.0528939289261436e-05 0 -1.4830094249337605e-05 1.7048874524929595e-05 0 -1.4480162211796699e-05 1.2180284131582845e-05 0 -1.7913731236873423e-05 1.1587573059672155e-05 0 -1.4830094249337605e-05 1.7048874524929595e-05 0 -1.316695120254591e-05 1.5428386859779737e-05 0 -1.4480162211796699e-05 1.2180284131582845e-05 0 -2.2749641789845269e-05 -8.3865153366272963e-06 0 -2.8128326704849774e-05 -1.1570376284079005e-05 0 -2.6554004194206204e-05 -1.1748270891363493e-05 0 -1.1748750360085376e-05 -2.22969527676656e-06 0 -1.4341025278125635e-05 -3.6317888057095858e-06 0 -1.5384414211671134e-05 -4.3748594504432976e-06 0 -0.00010126957838839256 0.0001157009630289676 0 -0.00012318435811778112 0.00014508908173795673 0 -0.00012110143643785618 0.00011633051586049965 0 -2.8329191321938556e-05 -1.5729115181073983e-05 0 -3.0806877564097741e-05 -1.3573130373773043e-05 0 -2.6138796652208986e-05 -1.0811858347555451e-05 0 -2.362037367821172e-05 5.6480333225089587e-06 0 -2.0432454580531539e-05 1.2401531470872532e-05 0 -1.7913731236873423e-05 1.1587573059672155e-05 0 -4.6272567637338907e-05 -3.2283296910954077e-05 0 -4.2976689993363806e-05 -2.7311008680069646e-05 0 -4.4560192491446739e-05 -2.6702427138775775e-05 0 -5.3188380095092505e-05 -3.1693809724680145e-05 0 -5.9321093070257057e-05 -3.2963167751628346e-05 0 -6.3530580879621093e-05 -3.9472660962480756e-05 0 -7.5474767407343729e-05 4.621818984620003e-05 0 -9.5559197620533935e-05 6.2589213268273301e-05 0 -8.884665849953296e-05 4.7997367381702501e-05 0 -0.0001242793120583428 0.00026380984817564901 0 -0.00014695254865539133 0.0002761601588085419 0 -0.00014240510635591891 0.00024684455766675064 0 -4.8816100606910276e-05 -0.00012942678665640173 0 -4.0556708259016108e-05 -0.00013329542720386946 0 -3.9648499141433634e-05 -0.00011931735459348394 0 -5.1571260761705324e-05 -3.7324903110806865e-05 0 -4.8304517990413302e-05 -3.2530799306091179e-05 0 -5.1856248743814791e-05 -3.5620696307597933e-05 0 -1.2483315972098819e-05 1.0774895999818398e-05 0 -1.1942388622310874e-05 8.8240293673888449e-06 0 -1.1243540618823666e-05 6.82306200322344e-06 0 -2.1611580768120224e-05 3.732078392136093e-06 0 -2.8825749906729679e-05 6.2047804403815236e-06 0 -2.4754495749175991e-05 3.7576988053058672e-06 0 -4.2245445711362823e-05 -1.9943135453439194e-05 0 -3.456240281522078e-05 -1.5323386444069875e-05 0 -3.6836087530327087e-05 -1.5722259024083638e-05 0 -5.9329813678288742e-05 2.4509790928319616e-05 0 -4.9547628257342639e-05 2.2149884239333275e-05 0 -6.0403373898906029e-05 3.2344405139325267e-05 0 -2.6630928451623289e-05 -1.7398123680035355e-05 0 -2.9992809631204005e-05 -2.4148409193076426e-05 0 -2.9226304918682528e-05 -2.1311368144317971e-05 0 -3.1375321562989862e-05 -1.4609415962642384e-05 0 -3.456240281522078e-05 -1.5323386444069875e-05 0 -3.6858735993473596e-05 -1.8686387525343243e-05 0 -2.362037367821172e-05 5.6480333225089587e-06 0 -2.1335417963408039e-05 3.6984862602162983e-06 0 -2.7542809260219703e-05 -1.3966219461163547e-06 0 -2.0238684278606535e-09 -3.6900334588832179e-11 0 -1.9901064042191265e-09 -1.1056366443929444e-10 0 -1.3596302721873728e-06 -1.3974199116398304e-07 0 -5.1972315080403659e-05 -4.244898122791697e-05 0 -5.2975306956086343e-05 -4.0716733534463525e-05 0 -5.6222474366079076e-05 -4.5309350533432355e-05 0 -5.169580155283894e-05 -2.3787358431874863e-05 0 -4.9340281318140724e-05 -2.3232525444878231e-05 0 -4.3030768403729812e-05 -1.887962874720297e-05 0 -7.6588681199711797e-05 2.9887198470068282e-05 0 -6.101695718462554e-05 2.1413973381152674e-05 0 -7.1743101829343346e-05 2.9116972805004324e-05 0 -6.9332371734879593e-05 -6.3394753138456449e-05 0 -7.8292292297249612e-05 -6.4303108747375523e-05 0 -8.054157586124389e-05 -7.6938921795192966e-05 0 -4.1093173235152136e-05 -3.281526482097536e-05 0 -4.0982049699882761e-05 -3.8848499802169613e-05 0 -3.4930940426213776e-05 -2.8308127206458611e-05 0 -3.4377261456658312e-05 -3.2846197691117799e-05 0 -3.4930940426213776e-05 -2.8308127206458611e-05 0 -4.0982049699882761e-05 -3.8848499802169613e-05 0 -3.1375321562989862e-05 -1.4609415962642384e-05 0 -3.1270370782696935e-05 -1.6215038579979275e-05 0 -2.6554004194206204e-05 -1.1748270891363493e-05 0 -4.6272567637338907e-05 -3.2283296910954077e-05 0 -4.4560192491446739e-05 -2.6702427138775775e-05 0 -4.8304517990413302e-05 -3.2530799306091179e-05 0 -7.7109094463727025e-05 -8.6739992589783598e-05 0 -6.7632404916149647e-05 -8.5292858360655715e-05 0 -6.7429161289388144e-05 -7.5167180951936927e-05 0 -3.1375321562989862e-05 -1.4609415962642384e-05 0 -2.6554004194206204e-05 -1.1748270891363493e-05 0 -2.8128326704849774e-05 -1.1570376284079005e-05 0 -4.1423692601904979e-05 -2.2629816174404574e-05 0 -4.4560192491446739e-05 -2.6702427138775775e-05 0 -4.2976689993363806e-05 -2.7311008680069646e-05 0 -3.7775281748512166e-06 -5.7329811598384997e-07 0 -3.9708847404582928e-06 -1.7384290705462278e-07 0 -5.2266018233193064e-06 -1.2309577603750327e-07 0 -6.8478831107334447e-05 -3.7986265935354499e-05 0 -6.3530580879621093e-05 -3.9472660962480756e-05 0 -5.9321093070257057e-05 -3.2963167751628346e-05 0 -0.00010718607258964098 5.8250068498061315e-05 0 -8.884665849953296e-05 4.7997367381702501e-05 0 -9.5559197620533935e-05 6.2589213268273301e-05 0 -0.000103773856295126 -0.00011879240019120862 0 -8.8605473757117029e-05 -0.000118851967943133 0 -9.4429037108972294e-05 -0.00011095371332206574 0 6.6185937027287819e-06 0.00022126065617747041 0 -2.629515653791539e-05 0.00023243937833308814 0 -1.7145771885599755e-05 0.00020903806976447115 0 8.3737176498175672e-06 0.00018859238996295129 0 -1.7145771885599755e-05 0.00020903806976447115 0 -2.4084630672935908e-05 0.0001873640072608527 0 -0.000103773856295126 -0.00011879240019120862 0 -0.00010574031131557213 -0.00013442328150372156 0 -9.5866050119427753e-05 -0.00012907621190611459 0 6.6185937027287819e-06 0.00022126065617747041 0 4.0740411514306385e-06 0.00025338530335297687 0 -1.4913005726157722e-05 0.00024864759763913269 0 -2.8672310643031764e-05 -2.3063370009339698e-05 0 -2.7886285007552827e-05 -1.5909122467580015e-05 0 -3.2566077907579828e-05 -2.2423680550321767e-05 0 -4.8160748681249584e-05 -3.0428957672267115e-05 0 -5.1856248743814791e-05 -3.5620696307597933e-05 0 -4.8304517990413302e-05 -3.2530799306091179e-05 0 -6.3382330037245021e-05 -5.8534394005192546e-05 0 -6.4702180489219902e-05 -6.1621272326474222e-05 0 -6.2190517050667227e-05 -5.6931909781652338e-05 0 -3.7027549653975556e-05 -4.1181174084902971e-05 0 -4.0493701501089991e-05 -4.822828379028544e-05 0 -4.0118230315456313e-05 -4.4609103558928e-05 0 -7.5474767407343729e-05 4.621818984620003e-05 0 -6.0403373898906029e-05 3.2344405139325267e-05 0 -6.2767288618249421e-05 4.3795961262602113e-05 0 -1.9471212775285486e-05 -6.1399277611200623e-06 0 -1.5629994563039925e-05 -4.167843992455462e-06 0 -1.8520921978287304e-05 -5.6922919589596963e-06 0 -7.3808235047936684e-06 1.2271134901203641e-06 0 -7.9580136163500441e-06 4.5494612497503122e-07 0 -9.7540030888737766e-06 9.1391581114653248e-07 0 -0.00011146593598694419 0.00016683072177435667 0 -9.7505307402761404e-05 0.00014163550594341329 0 -9.0188313336274446e-05 0.00017173006471028816 0 -4.3247345277849146e-05 -8.2621743395103553e-05 0 -3.6145579862909358e-05 -8.9677297308005542e-05 0 -3.3345627211425328e-05 -7.2586368255009914e-05 0 -2.9146261755394187e-06 -5.45407427361657e-08 0 -1.3596302721873728e-06 -1.3974199116398304e-07 0 -1.7037442394525466e-06 3.626753753362034e-08 0 -3.7137626670972534e-05 -2.1816407447285871e-05 0 -3.0648332915609646e-05 -1.8291064589874253e-05 0 -3.1270370782696935e-05 -1.6215038579979275e-05 0 9.2175286687605175e-06 0.00015566687344846923 0 8.3737176498175705e-06 0.00018859238996295129 0 -1.0843761620015198e-05 0.0001676190963337102 0 -7.4702608288844143e-06 -6.5622378606457976e-07 0 -8.430239529229595e-06 9.2241544868931687e-08 0 -1.0099412840034207e-05 -1.1850072476486576e-07 0 -2.8672310643031764e-05 -2.3063370009339698e-05 0 -3.2566077907579828e-05 -2.2423680550321767e-05 0 -3.2062105423480654e-05 -2.8456556211881146e-05 0 -3.6036337730388955e-05 -2.9027263606640946e-05 0 -3.2062105423480654e-05 -2.8456556211881146e-05 0 -3.2566077907579828e-05 -2.2423680550321767e-05 0 -5.9175666276245956e-05 -5.4598004160369824e-05 0 -6.0324214734891998e-05 -5.3395025762957319e-05 0 -6.2190517050667227e-05 -5.6931909781652338e-05 0 -6.3382330037245021e-05 -5.8534394005192546e-05 0 -6.2190517050667227e-05 -5.6931909781652338e-05 0 -6.0324214734891998e-05 -5.3395025762957319e-05 0 -3.7027549653975556e-05 -4.1181174084902971e-05 0 -3.8956302931578664e-05 -4.6145150521300481e-05 0 -4.0493701501089991e-05 -4.822828379028544e-05 0 -4.2160355183787787e-05 -5.2166076556053097e-05 0 -4.0493701501089991e-05 -4.822828379028544e-05 0 -3.8956302931578664e-05 -4.6145150521300481e-05 0 -1.2750177769610115e-05 5.7449870016782987e-06 0 -1.0887114754473118e-05 4.0322105419490048e-06 0 -1.4243857882362368e-05 2.8987468214833045e-06 0 -2.0945683701423063e-05 -9.3815196540173271e-06 0 -2.6921994918262724e-05 -3.1483034560719731e-06 0 -2.7886285007552827e-05 -1.5909122467580015e-05 0 -3.2169534172285381e-05 -1.2017948249959027e-05 0 -2.7886285007552827e-05 -1.5909122467580015e-05 0 -2.6921994918262724e-05 -3.1483034560719731e-06 0 -7.7109094463727025e-05 -8.6739992589783598e-05 0 -8.7439988428551695e-05 -9.0810034185020001e-05 0 -8.46763640423234e-05 -0.00010212180023414462 0 -2.969508499712503e-05 -1.1632690403585437e-05 0 -3.456240281522078e-05 -1.5323386444069875e-05 0 -2.8128326704849774e-05 -1.1570376284079005e-05 0 -3.1375321562989862e-05 -1.4609415962642384e-05 0 -2.8128326704849774e-05 -1.1570376284079005e-05 0 -3.456240281522078e-05 -1.5323386444069875e-05 0 -3.038002071719174e-05 -2.7548201310525136e-05 0 -3.9763828399087525e-05 -2.3118603599213439e-05 0 -3.7627091795560259e-05 -2.1267543792257394e-05 0 -5.7182482816810514e-05 -4.9260272725219916e-05 0 -6.0324214734891998e-05 -5.3395025762957319e-05 0 -5.6769453496646985e-05 -5.105092612066597e-05 0 -3.8697028233402804e-05 -4.4871584424627607e-05 0 -4.1374346684106154e-05 -4.9298516283980141e-05 0 -3.8956302931578664e-05 -4.6145150521300481e-05 0 -9.8354187171340175e-06 -1.6921602708727279e-07 0 -9.7540030888737749e-06 9.1391581114653248e-07 0 -7.9580136163500441e-06 4.5494612497503122e-07 0 -4.8505104705189151e-05 -6.004817512552929e-05 0 -4.7423235795551138e-05 -5.7406313306484325e-05 0 -4.9800412392375068e-05 -5.7440182992621794e-05 0 -8.0697595676921587e-06 -3.9319220761929633e-07 0 -6.0851054554859263e-06 2.0378025377904355e-07 0 -5.3215765689018992e-06 1.8176177222600248e-07 0 -4.1423692601904979e-05 -2.2629816174404574e-05 0 -3.8764870039494683e-05 -1.8188140735066893e-05 0 -4.056710867867559e-05 -1.9622666612279702e-05 0 -2.9146261755394187e-06 -5.45407427361657e-08 0 -4.2065404584333178e-06 2.1235650457228675e-07 0 -3.9708847404582919e-06 -1.7384290705462284e-07 0 -7.3321586054869915e-05 0.00018671067450216 0 -6.2437802388168318e-05 0.00016064925305091807 0 -4.8883252099393037e-05 0.00018100215987096752 0 -7.6142969761122578e-05 0.0002435761152863789 0 -5.0798227809007746e-05 0.00024336024851887619 0 -6.2383791528984001e-05 0.00026394887847103318 0 -6.7203354294509299e-05 -0.00012348157608652944 0 -7.804920620118541e-05 -0.00012339105124062696 0 -7.4861763965756745e-05 -0.00013340127651222043 0 -7.1192953324996158e-06 3.3596958540515727e-05 0 -2.0585592597695873e-05 9.6364497842361764e-06 0 -9.3968923530772743e-06 -1.9565730734879289e-07 0 -2.9146261755394187e-06 -5.45407427361657e-08 0 -1.7037442394525466e-06 3.626753753362034e-08 0 -3.1890666699229265e-06 1.6583086412835176e-07 0 -0.00010061710317854327 -0.00010314645526454663 0 -9.4429037108972281e-05 -0.00011095371332206574 0 -8.46763640423234e-05 -0.00010212180023414462 0 -0.00010677974769618168 -0.0001901714826209644 0 -9.8141903961037298e-05 -0.00018287107893942862 0 -0.00010687954708356061 -0.00017727044880785014 0 -1.0556221061637727e-05 0.00037223374414727421 0 -2.5497670024389588e-05 0.00036369033124196171 0 -6.8274103085598496e-06 0.00034603291866780678 0 -1.0556221061637727e-05 0.00037223374414727421 0 -3.4965023781936728e-05 0.00038037020851392617 0 -2.5497670024389591e-05 0.00036369033124196171 0 -4.045544874784851e-05 -0.00018140777378656902 0 -4.6040686794542596e-05 -0.00017857401151187959 0 -4.9887712705720218e-05 -0.00018564170145081907 0 -0.00017051535538300253 0.00038935795197445739 0 -0.00017066839346887067 0.00036018521861277064 0 -0.00015099463886767892 0.00037283529561709674 0 -0.00010677974769618168 -0.0001901714826209644 0 -9.3888829673652107e-05 -0.00019005025639561027 0 -9.8141903961037298e-05 -0.00018287107893942862 0 -4.045544874784851e-05 -0.00018140777378656902 0 -3.8263380571983855e-05 -0.00017020681367123158 0 -4.6040686794542596e-05 -0.00017857401151187959 0 -0.00017051535538300253 0.00038935795197445739 0 -0.00015099463886767892 0.00037283529561709674 0 -0.00014133806728425282 0.00038917153064986433 0 -1.9901064042193755e-09 -1.1056366443932004e-10 0 -1.7037442394525466e-06 3.626753753362034e-08 0 -1.3596302721873728e-06 -1.3974199116398304e-07 0 -4.6272567637338907e-05 -3.2283296910954077e-05 0 -4.3518401978458589e-05 -3.2439276364728688e-05 0 -4.2976689993363806e-05 -2.7311008680069646e-05 0 -3.1375321562989862e-05 -1.4609415962642384e-05 0 -3.6858735993473596e-05 -1.8686387525343243e-05 0 -3.1270370782696935e-05 -1.6215038579979275e-05 0 -7.7109094463727025e-05 -8.6739992589783598e-05 0 -7.2768377566269081e-05 -9.5404444873275259e-05 0 -6.7632404916149647e-05 -8.5292858360655715e-05 0 -7.2734339185149589e-06 5.3444527396808066e-07 0 -1.0171798605605629e-05 1.3543979175056243e-06 0 -8.430239529229595e-06 9.2241544868931687e-08 0 -8.1987260368011696e-05 0.00028279007494837037 0 -0.00010253721356180783 0.00030222047425616219 0 -0.00010282169538785523 0.00027313490740778131 0 -6.7729467644042713e-05 -0.00014131363846551113 0 -6.056054657739555e-05 -0.00014963493283255298 0 -5.8382797738625128e-05 -0.00013597519140095605 0 -6.0417837895028691e-05 -5.0555037648424959e-05 0 -6.207327456245979e-05 -5.4881483379783071e-05 0 -5.9366706372626089e-05 -5.0415457487832933e-05 0 -3.0800110450542345e-05 -3.33636360361556e-05 0 -3.5157963193334379e-05 -4.0033996405178311e-05 0 -3.4073588679185521e-05 -3.7451472210132708e-05 0 -1.4781624408452104e-05 -1.2458949274805367e-05 0 -2.2608170977372466e-05 -1.9012617467851867e-05 0 -1.9695900182399308e-05 -1.9634744160737747e-05 0 -3.7137626670972534e-05 -2.1816407447285871e-05 0 -3.1270370782696935e-05 -1.6215038579979275e-05 0 -3.6858735993473596e-05 -1.8686387525343243e-05 0 -5.5527094299798038e-05 -3.9450466110784101e-05 0 -5.8347363915843914e-05 -4.5319951110687276e-05 0 -5.4455160382921712e-05 -4.0624857953628229e-05 0 -2.3691092587072392e-05 -2.4796000783930576e-05 0 -2.886844657923358e-05 -3.0635424297053567e-05 0 -2.7462624615653815e-05 -2.9258300261703369e-05 0 -5.8489274127976072e-05 -7.504165580855918e-05 0 -5.1187269013525441e-05 -7.9190494611909703e-05 0 -4.975744451216026e-05 -6.487127912794295e-05 0 -7.3808235047936684e-06 1.2271134901203641e-06 0 -6.2833028599265117e-06 6.5813803041016204e-07 0 -7.9580136163500441e-06 4.5494612497503122e-07 0 -4.8816100606910276e-05 -0.00012942678665640173 0 -5.6394175329595225e-05 -0.0001205725980704478 0 -5.8382797738625128e-05 -0.00013597519140095605 0 -0.0001242793120583428 0.00026380984817564901 0 -0.00010109383547756779 0.00024431226807025192 0 -0.00010282169538785523 0.00027313490740778131 0 -3.2102630003747913e-05 -3.2290178357595976e-05 0 -2.6870945894832098e-05 -2.6313787426088875e-05 0 -3.2062105423480654e-05 -2.8456556211881146e-05 0 -2.8672310643031764e-05 -2.3063370009339698e-05 0 -3.2062105423480654e-05 -2.8456556211881142e-05 0 -2.6870945894832098e-05 -2.6313787426088875e-05 0 -1.1748750360085376e-05 -2.22969527676656e-06 0 -1.0931743483832316e-05 -1.911745279973425e-06 0 -1.4341025278125635e-05 -3.6317888057095858e-06 0 -4.1093173235152136e-05 -3.281526482097536e-05 0 -3.4930940426213776e-05 -2.8308127206458607e-05 0 -3.5773180715701136e-05 -2.4484331191871475e-05 0 -4.0143891580640783e-05 -6.4339705648564275e-05 0 -3.1476873611785372e-05 -5.7374157000642403e-05 0 -3.5961140926384335e-05 -4.5717807241823201e-05 0 -4.0875044360616686e-05 -2.7076815135409918e-05 0 -4.2976689993363806e-05 -2.7311008680069646e-05 0 -4.3518401978458589e-05 -3.2439276364728688e-05 0 -2.5405839293890048e-05 -4.7789334027631211e-05 0 -3.1476873611785372e-05 -5.7374157000642403e-05 0 -2.4001210479842447e-05 -6.3060114527115882e-05 0 -3.2403436189758244e-05 -3.5822200231730024e-05 0 -3.447929505230173e-05 -3.6530254996116098e-05 0 -3.6974586735637014e-05 -4.1405711222846039e-05 0 -3.8514990085468395e-05 -4.0445049268719939e-05 0 -3.6974586735637014e-05 -4.1405711222846039e-05 0 -3.447929505230173e-05 -3.6530254996116098e-05 0 -1.3856312649817539e-05 -3.6741315193674905e-06 0 -1.77812659874729e-05 -5.7605788164100281e-06 0 -1.8520921978287304e-05 -5.6922919589596963e-06 0 -2.2633149996456524e-05 -8.8778726001525861e-06 0 -2.6138796652208986e-05 -1.0811858347555451e-05 0 -2.2283823510246232e-05 -6.3230648842137527e-06 0 -2.6341884587295433e-05 -7.4031350421523467e-06 0 -2.2283823510246232e-05 -6.3230648842137527e-06 0 -2.6138796652208986e-05 -1.0811858347555451e-05 0 -1.4830094249337605e-05 1.7048874524929595e-05 0 -2.0432454580531539e-05 1.2401531470872532e-05 0 -1.5673469175311371e-05 2.2010811110871452e-05 0 -2.3151904937889989e-05 8.6590880757932623e-06 0 -1.5673469175311371e-05 2.2010811110871452e-05 0 -2.0432454580531539e-05 1.2401531470872532e-05 0 8.3737176498175672e-06 0.00018859238996295129 0 6.6185937027287819e-06 0.00022126065617747041 0 -1.7145771885599755e-05 0.00020903806976447115 0 -1.7391417730547005e-05 8.7756572875861259e-06 0 -1.3418776587688434e-05 8.3467410694437909e-06 0 -1.582722364027668e-05 5.8193325194903104e-06 0 -0.00010061710317854327 -0.00010314645526454663 0 -0.000103773856295126 -0.00011879240019120862 0 -9.4429037108972294e-05 -0.00011095371332206574 0 -1.3394037475277412e-05 -3.0669599035654313e-06 0 -1.4341025278125635e-05 -3.6317888057095858e-06 0 -1.0931743483832316e-05 -1.911745279973425e-06 0 -1.6927458840118094e-05 1.1692730169880522e-06 0 -1.3029713315127409e-05 5.5230967543589484e-07 0 -1.1362342198065779e-05 -2.5226618930518429e-07 0 -1.3856312649817539e-05 -3.6741315193674905e-06 0 -9.6087931729488976e-06 -1.9489863288995158e-06 0 -1.0523483888851186e-05 -2.6737413848467273e-06 0 -9.6805514704462708e-06 2.7034226010078236e-06 0 -7.4704430432789992e-06 1.7182610926305333e-06 0 -9.1637030217783706e-06 3.648183654696388e-06 0 -8.0430560222346731e-06 -4.7044524562580231e-06 0 -6.4155884175031493e-06 -2.6933965485077133e-06 0 -3.3214983131183818e-06 -1.6158338922847595e-06 0 -4.7972403568482601e-09 3.1152383852696449e-10 0 -3.3214983131183818e-06 -1.6158338922847593e-06 0 -6.4155884175031493e-06 -2.6933965485077133e-06 0 -9.808121317343141e-06 4.7031961036751277e-06 0 -4.1278853942121988e-06 1.4359879058200939e-06 0 -8.2339765422465544e-06 1.9768938055630922e-06 0 -6.2629136617478823e-09 -7.5197869578901274e-10 0 -8.2339765422465544e-06 1.9768938055630922e-06 0 -4.1278853942121988e-06 1.4359879058200939e-06 0 -4.1093173235152136e-05 -3.281526482097536e-05 0 -4.8764769823432413e-05 -3.768532816563034e-05 0 -4.7493475366554416e-05 -4.3616659463073766e-05 0 -2.9146261755394187e-06 -5.45407427361657e-08 0 -3.1890666699229265e-06 1.6583086412835176e-07 0 -4.2065404584333178e-06 2.1235650457228675e-07 0 -3.4840041353519294e-05 0.00015774485758935429 0 -1.2155403031333591e-05 0.00014603891325685087 0 -1.0843761620015198e-05 0.0001676190963337102 0 -3.4161471046409601e-05 4.236211444082277e-05 0 -3.6551930625232966e-05 3.195171808814541e-05 0 -2.604061177680533e-05 2.8139782099116918e-05 0 -1.7391417730547005e-05 8.7756572875861259e-06 0 -1.4480162211796699e-05 1.2180284131582845e-05 0 -1.3418776587688434e-05 8.3467410694437909e-06 0 -4.4414244432089233e-05 -5.1432501708389397e-05 0 -4.0982049699882761e-05 -3.8848499802169613e-05 0 -4.7493475366554416e-05 -4.3616659463073766e-05 0 -0.00011284676926758779 0.00038837406242240533 0 -0.00014133806728425282 0.00038917153064986433 0 -0.0001268569252588895 0.00037417960794839842 0 -5.9552432097852448e-05 -0.00018784486109234803 0 -4.9887712705720218e-05 -0.00018564170145081907 0 -5.4372066976341845e-05 -0.00018138627946440974 0 -3.4965023781936728e-05 0.00038037020851392617 0 -5.9692274526515185e-05 0.00038480661974955518 0 -4.6612284903016028e-05 0.00036953910310451245 0 -9.3888829673652107e-05 -0.00019005025639561027 0 -8.1497753795277116e-05 -0.00018958184938358804 0 -8.7536049257598987e-05 -0.0001834380229958059 0 -5.356245864587486e-05 -5.0054384460534052e-05 0 -5.6769453496646985e-05 -5.105092612066597e-05 0 -5.5125230279364904e-05 -5.2981838827014352e-05 0 -4.3583674307855158e-05 -5.0597268339648648e-05 0 -4.376120825141289e-05 -5.3799992775207628e-05 0 -4.1374346684106154e-05 -4.9298516283980141e-05 0 -9.5581640453138536e-09 -4.0909266598835351e-09 0 -3.3214983131183826e-06 -1.61583389228476e-06 0 -4.7972403568482601e-09 3.1152383852696449e-10 0 -1.1085151285587979e-08 4.7327799594274919e-09 0 -6.2629136617478823e-09 -7.5197869578901274e-10 0 -4.1278853942121988e-06 1.4359879058200939e-06 0 -1.1085151285587979e-08 4.7327799594274919e-09 0 -4.1278853942121988e-06 1.4359879058200939e-06 0 -9.808121317343141e-06 4.7031961036751277e-06 0 -9.5581640453138536e-09 -4.0909266598835351e-09 0 -8.0430560222346731e-06 -4.7044524562580231e-06 0 -3.3214983131183818e-06 -1.6158338922847595e-06 0 -4.3247345277849146e-05 -8.2621743395103553e-05 0 -5.1187269013525434e-05 -7.919049461190969e-05 0 -5.2963347642978763e-05 -9.4387402517654708e-05 0 -1.7846010891135888e-05 -5.8731312694864175e-06 0 -2.1619331860489322e-05 -8.3348493145261228e-06 0 -1.9965845756931706e-05 -7.8333828637922321e-06 0 -4.1423692601904979e-05 -2.2629816174404574e-05 0 -4.2976689993363799e-05 -2.7311008680069646e-05 0 -3.9837975149271206e-05 -2.2121674707437788e-05 0 -4.0875044360616686e-05 -2.7076815135409918e-05 0 -3.9837975149271206e-05 -2.2121674707437788e-05 0 -4.2976689993363806e-05 -2.7311008680069646e-05 0 -1.1748750360085376e-05 -2.22969527676656e-06 0 -1.5384414211671134e-05 -4.3748594504432976e-06 0 -1.2991974614384949e-05 -2.8569343664209555e-06 0 -6.4873068041694746e-06 3.5378431220106636e-07 0 -6.0851054554859263e-06 2.0378025377904355e-07 0 -8.6949681094745172e-06 -2.622502068553405e-07 0 -8.0697595676921587e-06 -3.9319220761929633e-07 0 -8.6949681094745172e-06 -2.622502068553405e-07 0 -6.0851054554859263e-06 2.0378025377904355e-07 0 -2.3151904937889989e-05 8.6590880757932623e-06 0 -2.0585592597695873e-05 9.6364497842361764e-06 0 -1.5673469175311371e-05 2.2010811110871452e-05 0 -7.1192953324996158e-06 3.3596958540515727e-05 0 -1.5673469175311371e-05 2.2010811110871456e-05 0 -2.0585592597695873e-05 9.6364497842361764e-06 0 -5.4814751738941597e-05 -4.4500587412184464e-05 0 -4.7493475366554416e-05 -4.3616659463073766e-05 0 -4.8764769823432413e-05 -3.768532816563034e-05 0 -3.2102630003747913e-05 -3.2290178357595976e-05 0 -3.447929505230173e-05 -3.6530254996116098e-05 0 -2.886844657923358e-05 -3.0635424297053567e-05 0 -5.1571260761705324e-05 -3.7324903110806865e-05 0 -5.4455160382921712e-05 -4.0624857953628229e-05 0 -5.2975306956086343e-05 -4.0716733534463525e-05 0 -9.8354187171340175e-06 -1.6921602708727279e-07 0 -1.160794735492815e-05 -1.3848034558100636e-07 0 -9.7540030888737766e-06 9.1391581114653248e-07 0 -3.979239827687524e-05 0.0002629730160594931 0 -1.4913005726157722e-05 0.00024864759763913269 0 -1.8354830690553173e-05 0.00027054432155105456 0 -8.505099377988188e-05 -0.0001342398579174661 0 -9.5866050119427753e-05 -0.00012907621190611459 0 -9.5933509753052585e-05 -0.00013977417732853779 0 -3.038002071719174e-05 -2.7548201310525136e-05 0 -2.9226304918682528e-05 -2.1311368144317971e-05 0 -2.9992809631204005e-05 -2.4148409193076426e-05 0 -2.8672310643031764e-05 -2.3063370009339698e-05 0 -2.2608170977372466e-05 -1.9012617467851867e-05 0 -2.7886285007552827e-05 -1.5909122467580015e-05 0 -0.0001242793120583428 0.00026380984817564901 0 -0.00014240510635591891 0.00024684455766675064 0 -0.00012045901005375417 0.00023698034565856118 0 -4.8816100606910276e-05 -0.00012942678665640173 0 -3.9648499141433634e-05 -0.00011931735459348394 0 -4.7628442276931101e-05 -0.00011634307133054293 0 -4.3247345277849146e-05 -8.2621743395103553e-05 0 -4.5134137917321306e-05 -9.5779450235317418e-05 0 -3.6145579862909358e-05 -8.9677297308005542e-05 0 -5.1464999136435466e-05 -4.6336539026725278e-05 0 -5.0857525816376562e-05 -4.875937655996018e-05 0 -4.8502449968063858e-05 -4.5713283864885693e-05 0 -3.8697028233402804e-05 -4.4871584424627607e-05 0 -3.5157963193334379e-05 -4.0033996405178311e-05 0 -3.6974586735637014e-05 -4.1405711222846039e-05 0 -1.5817001667090803e-05 5.0086478289677682e-06 0 -1.2672583633280385e-05 2.8640698807960253e-06 0 -1.271577687029047e-05 5.1854858858580233e-06 0 -4.8616658501639708e-05 -5.4395270306992904e-05 0 -4.6224612730571864e-05 -5.4166316874533106e-05 0 -4.6577618235372393e-05 -5.080439481887573e-05 0 -1.3394037475277412e-05 -3.0669599035654313e-06 0 -1.0931743483832316e-05 -1.911745279973425e-06 0 -1.0370867381642176e-05 -1.7529949164672809e-06 0 -8.2112351597805303e-06 -8.8761926439194542e-07 0 -1.0370867381642176e-05 -1.7529949164672809e-06 0 -1.0931743483832316e-05 -1.911745279973425e-06 0 -1.7790379335284688e-05 -2.7444542411948278e-06 0 -1.9721313788225441e-05 -5.7785244976794552e-06 0 -2.2283823510246232e-05 -6.3230648842137527e-06 0 -4.1093173235152136e-05 -3.281526482097536e-05 0 -4.7493475366554416e-05 -4.3616659463073766e-05 0 -4.0982049699882761e-05 -3.8848499802169613e-05 0 -1.1748750360085376e-05 -2.22969527676656e-06 0 -1.2991974614384949e-05 -2.8569343664209555e-06 0 -9.9414531393337699e-06 -1.3074213925618919e-06 0 -1.1582474773236317e-05 -1.8762635751605833e-06 0 -9.9414531393337699e-06 -1.3074213925618919e-06 0 -1.2991974614384949e-05 -2.8569343664209555e-06 0 -1.5384414211671134e-05 -4.3748594504432976e-06 0 -1.480760329879277e-05 -3.9321835900737768e-06 0 -1.2991974614384949e-05 -2.8569343664209555e-06 0 -5.277563872341284e-05 -5.5228155211208388e-05 0 -5.5125230279364904e-05 -5.2981838827014352e-05 0 -5.6941858557239763e-05 -5.6595786448064084e-05 0 -5.9175666276245956e-05 -5.4598004160369824e-05 0 -5.6941858557239757e-05 -5.6595786448064084e-05 0 -5.5125230279364904e-05 -5.2981838827014352e-05 0 -4.2160355183787787e-05 -5.2166076556053097e-05 0 -4.376120825141289e-05 -5.3799992775207628e-05 0 -4.4215210880849881e-05 -5.6872385922519677e-05 0 -4.5375390328998288e-05 -5.6263406009543422e-05 0 -4.4215210880849881e-05 -5.6872385922519677e-05 0 -4.376120825141289e-05 -5.3799992775207628e-05 0 -2.3151904937889989e-05 8.6590880757932623e-06 0 -2.6921994918262724e-05 -3.1483034560719731e-06 0 -2.0585592597695873e-05 9.6364497842361764e-06 0 -3.6010798858112754e-05 0.00035093284844935069 0 -4.6612284903016028e-05 0.00036953910310451245 0 -6.1034368040540242e-05 0.00036012253474281171 0 -9.2207197598196655e-05 -0.00017564082121953917 0 -8.7536049257598987e-05 -0.0001834380229958059 0 -8.0314203307397803e-05 -0.00017820312083001823 0 -5.0035945894112946e-05 -0.00017311127533066537 0 -6.0026367270301395e-05 -0.00017740396577211378 0 -5.4372066976341845e-05 -0.00018138627946440974 0 -0.00013764968710763465 0.00035657922986122585 0 -0.0001101818564800691 0.00036224993117708046 0 -0.0001268569252588895 0.00037417960794839842 0 -0.0001242793120583428 0.00026380984817564901 0 -0.00012045901005375415 0.00023698034565856118 0 -0.00010109383547756779 0.00024431226807025192 0 -4.8816100606910276e-05 -0.00012942678665640173 0 -4.7628442276931101e-05 -0.00011634307133054293 0 -5.6394175329595225e-05 -0.0001205725980704478 0 -4.3247345277849146e-05 -8.2621743395103553e-05 0 -5.2963347642978763e-05 -9.4387402517654708e-05 0 -4.5134137917321306e-05 -9.5779450235317418e-05 0 -2.2633149996456524e-05 -8.8778726001525861e-06 0 -2.2283823510246232e-05 -6.3230648842137527e-06 0 -1.9721313788225441e-05 -5.7785244976794552e-06 0 -5.9692274526515185e-05 0.00038480661974955518 0 -6.1034368040540242e-05 0.00036012253474281171 0 -4.6612284903016028e-05 0.00036953910310451245 0 -8.1497753795277116e-05 -0.00018958184938358804 0 -8.0314203307397803e-05 -0.00017820312083001823 0 -8.7536049257598987e-05 -0.0001834380229958059 0 -0.00011284676926758779 0.00038837406242240533 0 -0.0001268569252588895 0.00037417960794839842 0 -0.0001101818564800691 0.00036224993117708046 0 -5.9552432097852448e-05 -0.00018784486109234803 0 -5.4372066976341845e-05 -0.00018138627946440974 0 -6.0026367270301395e-05 -0.00017740396577211378 0 -4.8481977087629019e-05 -4.8723492104031591e-05 0 -4.8502449968063858e-05 -4.5713283864885693e-05 0 -5.0857525816376562e-05 -4.875937655996018e-05 0 -2.5405839293890048e-05 -4.7789334027631211e-05 0 -3.5961140926384335e-05 -4.5717807241823201e-05 0 -3.1476873611785372e-05 -5.7374157000642403e-05 0 -6.4702180489219902e-05 -6.1621272326474222e-05 0 -6.2283863511369207e-05 -5.8364920463348708e-05 0 -6.2190517050667227e-05 -5.6931909781652338e-05 0 -4.0118230315456313e-05 -4.4609103558928e-05 0 -4.0493701501089991e-05 -4.822828379028544e-05 0 -4.2708820873545175e-05 -5.2269529214419083e-05 0 -6.4873068041694746e-06 3.5378431220106636e-07 0 -4.6119985982922715e-06 3.6535882128655802e-07 0 -6.0851054554859263e-06 2.0378025377904355e-07 0 -0.00013342279928545091 0.00021551907965523573 0 -0.00013488448624736577 0.00018511237016349052 0 -0.00011409472449088271 0.00019057914662795291 0 -0.00011146593598694419 0.00016683072177435667 0 -0.00011409472449088271 0.00019057914662795291 0 -0.00013488448624736577 0.00018511237016349052 0 -4.5641800747635644e-05 -4.2194365612509014e-05 0 -4.8680188273625146e-05 -4.2418478657761924e-05 0 -4.8502449968063858e-05 -4.5713283864885693e-05 0 -1.483355223756728e-05 -3.330612431741401e-06 0 -1.480760329879277e-05 -3.9321835900737768e-06 0 -1.7135028873727395e-05 -5.588037594526245e-06 0 -4.1423692601904979e-05 -2.2629816174404574e-05 0 -3.9837975149271206e-05 -2.2121674707437788e-05 0 -3.8764870039494683e-05 -1.8188140735066893e-05 0 -3.6914393229366332e-05 -1.6121228045407008e-05 0 -3.8764870039494683e-05 -1.8188140735066893e-05 0 -3.9837975149271206e-05 -2.2121674707437788e-05 0 -0.00010154663954866683 0.00021425651703346139 0 -0.00010109383547756779 0.00024431226807025192 0 -0.00012045901005375417 0.00023698034565856118 0 -5.263486562250198e-05 -0.00010682735294663642 0 -5.6394175329595225e-05 -0.0001205725980704478 0 -4.7628442276931101e-05 -0.00011634307133054293 0 -5.263486562250198e-05 -0.00010682735294663642 0 -4.5134137917321306e-05 -9.5779450235317418e-05 0 -5.2963347642978763e-05 -9.4387402517654708e-05 0 -9.1011724973499795e-06 -2.8565659288390467e-06 0 -1.3762737216739584e-05 -4.3874789706439742e-06 0 -1.0523483888851186e-05 -2.6737413848467273e-06 0 -1.1601649519849863e-05 1.2898774904076793e-06 0 -1.3029713315127409e-05 5.5230967543589484e-07 0 -1.7670211874333821e-05 2.2753417030756627e-06 0 -2.3661989901043578e-05 4.7471816592001011e-06 0 -1.7670211874333821e-05 2.2753417030756627e-06 0 -2.2739887400268546e-05 3.3619220103943137e-06 0 -1.8024232244907427e-05 -6.6262481195168637e-06 0 -1.77812659874729e-05 -5.7605788164100281e-06 0 -1.3762737216739582e-05 -4.3874789706439742e-06 0 -1.9247717118377447e-05 -6.8577816470945965e-06 0 -1.9721313788225441e-05 -5.7785244976794552e-06 0 -1.6999251399937053e-05 -4.0530255946335911e-06 0 -0.00013342279928545091 0.00021551907965523573 0 -0.00012045901005375417 0.00023698034565856118 0 -0.00014240510635591891 0.00024684455766675064 0 -4.0201570785392018e-05 -0.00010493346727311062 0 -4.7628442276931101e-05 -0.00011634307133054293 0 -3.9648499141433634e-05 -0.00011931735459348394 0 -4.0201570785392018e-05 -0.00010493346727311062 0 -3.6145579862909358e-05 -8.9677297308005542e-05 0 -4.5134137917321306e-05 -9.5779450235317418e-05 0 -5.8489274127976072e-05 -7.504165580855918e-05 0 -6.7429161289388144e-05 -7.5167180951936927e-05 0 -6.7632404916149647e-05 -8.5292858360655715e-05 0 -5.1464999136435466e-05 -4.6336539026725278e-05 0 -4.8502449968063858e-05 -4.5713283864885693e-05 0 -4.8680188273625146e-05 -4.2418478657761924e-05 0 -1.5817001667090803e-05 5.0086478289677682e-06 0 -1.7293113432131125e-05 8.319196595303001e-06 0 -2.0931656805521605e-05 7.1719121286353923e-06 0 -2.2976268036741465e-05 -1.1832512041735284e-05 0 -2.0033594262974702e-05 -8.3697823909699355e-06 0 -2.2034031061368294e-05 -1.0354248165359545e-05 0 -1.3856312649817539e-05 -3.6741315193674905e-06 0 -1.8520921978287308e-05 -5.6922919589596955e-06 0 -1.5629994563039925e-05 -4.167843992455462e-06 0 -0.00010126957838839256 0.0001157009630289676 0 -8.5236225547541291e-05 0.00011752351803994194 0 -9.7505307402761404e-05 0.00014163550594341329 0 -6.9332371734879593e-05 -6.3394753138456449e-05 0 -6.7429161289388144e-05 -7.5167180951936927e-05 0 -6.2248156218221103e-05 -6.4492486654096651e-05 0 -3.979239827687524e-05 0.0002629730160594931 0 -6.2383791528984001e-05 0.00026394887847103318 0 -5.0798227809007746e-05 0.00024336024851887619 0 -8.505099377988188e-05 -0.0001342398579174661 0 -7.4861763965756745e-05 -0.00013340127651222043 0 -7.804920620118541e-05 -0.00012339105124062696 0 -3.4840041353519294e-05 0.00015774485758935429 0 -4.8883252099393037e-05 0.00018100215987096752 0 -6.2437802388168318e-05 0.00016064925305091807 0 -2.2749641789845269e-05 -8.3865153366272963e-06 0 -2.445393827366568e-05 -8.9398856708910851e-06 0 -2.8128326704849774e-05 -1.1570376284079005e-05 0 -1.8190822692424612e-05 -6.6688319147719316e-06 0 -1.7135028873727395e-05 -5.588037594526245e-06 0 -1.480760329879277e-05 -3.9321835900737768e-06 0 -6.2782394729580954e-05 -9.4559679441678159e-05 0 -6.7632404916149647e-05 -8.5292858360655715e-05 0 -7.2768377566269081e-05 -9.5404444873275259e-05 0 -5.9175666276245956e-05 -5.4598004160369824e-05 0 -6.2190517050667227e-05 -5.6931909781652338e-05 0 -6.2283863511369207e-05 -5.8364920463348708e-05 0 -4.2160355183787787e-05 -5.2166076556053097e-05 0 -4.2708820873545168e-05 -5.2269529214419083e-05 0 -4.0493701501089991e-05 -4.822828379028544e-05 0 -1.1582474773236317e-05 -1.8762635751605833e-06 0 -1.2991974614384949e-05 -2.8569343664209555e-06 0 -1.480760329879277e-05 -3.9321835900737768e-06 0 -0.00014133806728425282 0.00038917153064986433 0 -0.00015099463886767892 0.00037283529561709674 0 -0.0001268569252588895 0.00037417960794839842 0 -0.00013764968710763465 0.00035657922986122585 0 -0.0001268569252588895 0.00037417960794839842 0 -0.00015099463886767892 0.00037283529561709674 0 -5.0035945894112946e-05 -0.00017311127533066537 0 -5.4372066976341845e-05 -0.00018138627946440974 0 -4.6040686794542596e-05 -0.00017857401151187959 0 -4.9887712705720218e-05 -0.00018564170145081907 0 -4.6040686794542596e-05 -0.00017857401151187959 0 -5.4372066976341845e-05 -0.00018138627946440974 0 -3.4965023781936728e-05 0.00038037020851392617 0 -4.6612284903016028e-05 0.00036953910310451245 0 -2.5497670024389591e-05 0.00036369033124196171 0 -9.3888829673652107e-05 -0.00019005025639561027 0 -8.7536049257598987e-05 -0.0001834380229958059 0 -9.8141903961037298e-05 -0.00018287107893942862 0 -3.6010798858112754e-05 0.00035093284844935069 0 -2.5497670024389591e-05 0.00036369033124196171 0 -4.6612284903016028e-05 0.00036953910310451245 0 -9.2207197598196655e-05 -0.00017564082121953917 0 -9.8141903961037298e-05 -0.00018287107893942862 0 -8.7536049257598987e-05 -0.0001834380229958059 0 -4.5641800747635644e-05 -4.2194365612509014e-05 0 -4.8502449968063858e-05 -4.5713283864885693e-05 0 -4.5855812995877624e-05 -4.5806414200311475e-05 0 -5.1972315080403659e-05 -4.244898122791697e-05 0 -4.9848964422226264e-05 -3.7406714177033512e-05 0 -5.2975306956086343e-05 -4.0716733534463525e-05 0 -5.1571260761705324e-05 -3.7324903110806865e-05 0 -5.2975306956086343e-05 -4.0716733534463525e-05 0 -4.9848964422226264e-05 -3.7406714177033512e-05 0 -4.8481977087629019e-05 -4.8723492104031591e-05 0 -5.0857525816376562e-05 -4.875937655996018e-05 0 -5.0952666058372575e-05 -5.1673542674340054e-05 0 -5.356245864587486e-05 -5.0054384460534052e-05 0 -5.0952666058372575e-05 -5.1673542674340054e-05 0 -5.0857525816376562e-05 -4.875937655996018e-05 0 -1.4830094249337605e-05 1.7048874524929595e-05 0 -1.7913731236873423e-05 1.1587573059672155e-05 0 -2.0432454580531539e-05 1.2401531470872532e-05 0 -2.3829021753152951e-05 1.2555701280676353e-05 0 -3.2218657450989804e-05 1.7530092150457763e-05 0 -2.8493494430182038e-05 1.0942875660337068e-05 0 -3.7776047511618106e-05 1.5690644971102097e-05 0 -2.8493494430182038e-05 1.0942875660337068e-05 0 -3.2218657450989804e-05 1.7530092150457763e-05 0 -2.2749641789845269e-05 -8.3865153366272963e-06 0 -2.6554004194206204e-05 -1.1748270891363493e-05 0 -2.1619331860489322e-05 -8.3348493145261228e-06 0 -0.00010126957838839256 0.0001157009630289676 0 -8.4193968525476845e-05 9.6540402796299089e-05 0 -8.5236225547541291e-05 0.00011752351803994194 0 -6.7841273799645936e-05 9.9757947996705645e-05 0 -8.5236225547541291e-05 0.00011752351803994194 0 -8.4193968525476845e-05 9.6540402796299089e-05 0 -1.7391417730547005e-05 8.7756572875861259e-06 0 -1.7913731236873423e-05 1.1587573059672155e-05 0 -1.4480162211796699e-05 1.2180284131582845e-05 0 -3.8514990085468395e-05 -4.0445049268719939e-05 0 -4.0406451615726958e-05 -4.5087926150331621e-05 0 -3.6974586735637014e-05 -4.1405711222846039e-05 0 -3.8697028233402804e-05 -4.4871584424627607e-05 0 -3.6974586735637014e-05 -4.1405711222846039e-05 0 -4.0406451615726958e-05 -4.5087926150331621e-05 0 -1.2483315972098819e-05 1.0774895999818398e-05 0 -1.4480162211796699e-05 1.2180284131582845e-05 0 -1.316695120254591e-05 1.5428386859779737e-05 0 -5.400833885184776e-05 -5.6392238106805951e-05 0 -6.1181346924513554e-05 -5.5124320042914577e-05 0 -6.2248156218221103e-05 -6.4492486654096651e-05 0 -6.9332371734879593e-05 -6.3394753138456449e-05 0 -6.2248156218221103e-05 -6.4492486654096651e-05 0 -6.1181346924513554e-05 -5.5124320042914577e-05 0 -1.2750177769610115e-05 5.7449870016782987e-06 0 -1.582722364027668e-05 5.8193325194903104e-06 0 -1.3418776587688434e-05 8.3467410694437909e-06 0 -1.2483315972098819e-05 1.0774895999818398e-05 0 -1.3418776587688434e-05 8.3467410694437909e-06 0 -1.4480162211796699e-05 1.2180284131582845e-05 0 -5.1571260761705324e-05 -3.7324903110806865e-05 0 -5.1856248743814791e-05 -3.5620696307597933e-05 0 -5.4455160382921712e-05 -4.0624857953628229e-05 0 -1.8190822692424612e-05 -6.6688319147719316e-06 0 -2.0033594262974702e-05 -8.3697823909699355e-06 0 -1.7135028873727395e-05 -5.588037594526245e-06 0 -1.9247717118377447e-05 -6.8577816470945965e-06 0 -1.7135028873727395e-05 -5.588037594526245e-06 0 -2.0033594262974702e-05 -8.3697823909699355e-06 0 -1.7790379335284688e-05 -2.7444542411948278e-06 0 -1.6999251399937053e-05 -4.0530255946335911e-06 0 -1.9721313788225441e-05 -5.7785244976794552e-06 0 4.0740411514306385e-06 0.00025338530335297687 0 -1.8354830690553173e-05 0.00027054432155105456 0 -1.4913005726157722e-05 0.00024864759763913269 0 -0.00010574031131557214 -0.00013442328150372156 0 -9.5933509753052585e-05 -0.00013977417732853779 0 -9.5866050119427753e-05 -0.00012907621190611459 0 -2.969508499712503e-05 -1.1632690403585437e-05 0 -2.8128326704849774e-05 -1.1570376284079005e-05 0 -2.445393827366568e-05 -8.9398856708910868e-06 0 -2.0946575992337213e-09 1.3677354148264066e-10 0 -1.5553154475008122e-06 2.489816420146114e-07 0 -1.3753527599108618e-06 2.0483379548801821e-07 0 9.2175286687605175e-06 0.00015566687344846923 0 -1.0843761620015198e-05 0.0001676190963337102 0 -1.2155403031333589e-05 0.00014603891325685087 0 -4.8481977087629019e-05 -4.8723492104031591e-05 0 -4.5855812995877624e-05 -4.5806414200311475e-05 0 -4.8502449968063858e-05 -4.5713283864885693e-05 0 -2.4834829091297024e-05 6.4921258339412942e-06 0 -2.8493494430182038e-05 1.0942875660337068e-05 0 -3.3390555446981965e-05 1.046523859430045e-05 0 -3.7776047511618106e-05 1.5690644971102097e-05 0 -3.3390555446981965e-05 1.046523859430045e-05 0 -2.8493494430182038e-05 1.0942875660337068e-05 0 -5.5527094299798038e-05 -3.9450466110784101e-05 0 -5.4455160382921712e-05 -4.0624857953628229e-05 0 -5.1856248743814791e-05 -3.5620696307597933e-05 0 
</DataArray>
</PointData>
<CellData Scalars="region_id,cross_section_updated," Vectors="" Tensors="stress,">
<DataArray type="Float64" Name="region_id" format="ascii">
2 2 2 2 2 2 2 2 2 2 3 3 3 3 3 3 3 3 3 3 1 1 1 1 1 1 1 1 1 1 1 1 1 1 1 1 1 1 1 1 1 1 1 1 1 1 1 1 1 1 1 1 1 1 1 1 1 1 1 1 1 1 1 1 1 1 1 1 1 1 1 1 1 1 1 1 1 1 1 1 1 1 1 1 1 1 1 1 1 1 1 1 1 1 1 1 1 1 1 1 1 1 1 1 1 1 1 1 1 1 1 1 1 1 1 1 1 1 1 1 1 1 1 1 1 1 1 1 1 1 1 1 1 1 1 1 1 1 1 1 1 1 1 1 1 1 1 1 1 1 1 1 1 1 1 1 1 1 1 1 1 1 1 1 1 1 1 1 1 1 1 1 1 1 1 1 1 1 1 1 1 1 1 1 1 1 1 1 1 1 1 1 1 1 1 1 1 1 1 1 1 1 1 1 1 1 1 1 1 1 1 1 1 1 1 1 1 1 1 1 1 1 1 1 1 1 1 1 1 1 1 1 1 1 1 1 1 1 1 1 1 1 1 1 1 1 1 1 1 1 1 1 1 1 1 1 1 1 1 1 1 1 1 1 1 1 1 1 1 1 1 1 1 1 1 1 1 1 1 1 1 1 1 1 1 1 1 1 1 1 1 1 1 1 1 1 1 1 1 1 1 1 1 1 1 1 1 1 1 1 1 1 1 1 1 1 1 1 1 1 1 1 1 1 1 1 1 1 1 1 1 1 1 1 1 1 1 1 1 1 1 1 1 1 1 1 1 1 1 1 1 1 1 1 1 1 1 1 1 1 1 1 1 1 1 1 1 1 1 1 1 1 1 1 1 1 1 1 1 1 1 1 1 1 1 1 1 1 1 1 1 1 1 1 1 1 1 1 1 1 1 1 1 1 1 1 1 1 1 1 1 1 1 1 1 1 1 1 1 1 1 1 1 1 1 1 1 1 1 1 1 1 1 1 1 1 1 1 1 1 1 1 1 1 1 1 1 1 1 1 1 1 1 1 1 1 1 1 1 1 1 1 1 1 1 1 1 1 1 1 1 1 1 1 1 1 1 1 1 1 1 1 1 1 1 1 1 1 1 1 1 1 1 1 1 1 1 1 1 1 1 1 1 1 1 1 1 1 1 1 1 1 1 1 1 1 1 1 1 1 1 1 1 1 1 1 1 1 1 1 1 1 1 1 1 1 1 1 1 1 1 1 1 1 1 1 1 1 1 1 1 1 1 1 1 1 1 1 1 1 1 1 1 1 1 1 1 1 1 1 1 1 1 1 1 1 1 1 1 1 1 1 1 1 1 1 1 1 1 1 1 1 1 1 1 1 1 1 1 1 1 1 1 1 1 1 1 1 1 1 1 1 1 1 1 1 1 1 1 1 1 1 1 1 1 1 1 1 1 1 1 1 1 1 1 1 1 1 1 1 1 1 1 1 1 1 1 1 1 1 1 1 1 1 1 1 1 1 1 1 1 1 1 1 1 1 1 1 1 1 1 1 1 1 1 1 1 1 1 1 1 1 1 1 1 1 1 1 1 1 1 1 1 1 1 1 1 1 1 1 1 1 1 1 1 1 1 1 1 1 1 1 1 1 1 1 1 1 1 1 1 1 1 1 1 1 1 1 1 1 1 1 1 1 1 1 1 1 1 1 1 1 1 1 1 1 1 1 1 1 1 1 1 1 1 1 1 1 1 1 1 1 1 1 1 1 1 1 1 1 1 1 1 1 1 1 1 1 1 1 1 1 1 1 1 1 1 1 1 1 1 1 1 1 1 1 1 1 1 1 1 1 1 1 1 1 1 1 1 1 1 1 1 1 1 1 1 1 1 1 1 1 1 1 1 1 1 1 1 1 1 1 1 1 1 1 1 1 1 1 1 1 1 1 1 1 1 1 1 1 1 1 1 1 1 1 1 1 1 1 1 1 1 1 1 1 1 1 1 1 1 1 1 1 1 1 1 1 1 1 1 1 1 1 1 1 1 1 1 1 1 1 1 1 1 1 1 1 1 1 1 1 1 1 1 1 1 1 1 1 1 1 1 1 1 1 1 1 1 1 1 1 1 1 1 1 1 1 1 1 1 1 1 1 1 1 1 1 1 1 1 1 1 1 1 1 1 1 1 1 1 1 1 1 1 1 1 1 1 1 1 1 1 1 1 1 1 1 1 1 1 1 1 1 1 1 1 1 1 1 1 1 1 1 1 1 1 1 1 1 1 1 1 1 1 1 1 1 1 1 1 1 1 1 1 1 1 1 1 1 1 1 1 1 1 1 1 1 1 1 1 1 1 1 1 1 1 1 1 1 1 1 1 1 1 1 1 1 1 1 1 1 1 1 1 1 1 1 1 1 1 1 1 1 
</DataArray>
<DataArray type="Float64" Name="stress" NumberOfComponents="9" format="ascii">
-5.604786697321635e-05 -6.7305345779931442e-05 0 -6.7305345779931442e-05 -1.8682622324405423e-05 0 0 0 -1.8682622324405423e-05 -6.4391892394260282e-05 -7.5277492535072953e-05 0 -7.5277492535072953e-05 -2.1463964131420094e-05 0 0 0 -2.1463964131420094e-05 -7.0839939982699374e-05 -8.5792819370095652e-05 0 -8.5792819370095652e-05 -2.3613313327566494e-05 0 0 0 -2.3613313327566494e-05 -6.4965152008459258e-05 -8.7635903057622249e-05 0 -8.7635903057622249e-05 -2.1655050669486438e-05 0 0 0 -2.1655050669486438e-05 -5.7091056815497835e-05 -8.6457323772916534e-05 0 -8.6457323772916534e-05 -1.9030352271832594e-05 0 0 0 -1.9030352271832594e-05 -5.3859897983081191e-05 -8.4024208382772769e-05 0 -8.4024208382772769e-05 -1.795329932769373e-05 0 0 0 -1.795329932769373e-05 -5.3595833179827896e-05 -7.9494691144857106e-05 0 -7.9494691144857106e-05 -1.7865277726609281e-05 0 0 0 -1.7865277726609281e-05 -5.396488991219351e-05 -7.4677076481472295e-05 0 -7.4677076481472295e-05 -1.7988296637397837e-05 0 0 0 -1.7988296637397837e-05 -3.4754235449816666e-05 -6.4485578648716484e-05 0 -6.4485578648716484e-05 -1.1584745149938907e-05 0 0 0 -1.1584745149938907e-05 -0.00010388598479035361 -6.4466605737860806e-05 0 -6.4466605737860806e-05 -3.4628661596784553e-05 0 0 0 -3.4628661596784553e-05 0.00010654645015507751 0.00012745487453373275 0 0.00012745487453373275 3.5515483385025842e-05 0 0 0 3.5515483385025842e-05 -4.7550778379503692e-05 6.3974976997122697e-05 0 6.3974976997122697e-05 -1.5850259459834564e-05 0 0 0 -1.5850259459834564e-05 -5.4665764739789282e-05 0.00011739591061783061 0 0.00011739591061783061 -1.8221921579929764e-05 0 0 0 -1.8221921579929764e-05 -6.3735241225366869e-05 0.00010566254825511922 0 0.00010566254825511922 -2.1245080408455621e-05 0 0 0 -2.1245080408455621e-05 -7.1099094823098786e-05 0.00011450228589139036 0 0.00011450228589139036 -2.3699698274366258e-05 0 0 0 -2.3699698274366258e-05 -7.8096340635263749e-05 0.00011332857446688671 0 0.00011332857446688671 -2.6032113545087907e-05 0 0 0 -2.6032113545087907e-05 -7.8471217260874969e-05 0.00010763093609613566 0 0.00010763093609613566 -2.6157072420291634e-05 0 0 0 -2.6157072420291634e-05 -0.00011700904050391072 0.00011525038588480058 0 0.00011525038588480058 -3.9003013501303583e-05 0 0 0 -3.9003013501303583e-05 2.2936880359387263e-05 9.1157734863988368e-05 0 9.1157734863988368e-05 7.6456267864624119e-06 0 0 0 7.6456267864624119e-06 -0.00052200557881151508 0.00011257593786238103 0 0.00011257593786238103 -0.00017400185960383832 0 0 0 -0.00017400185960383832 -0.071890850960446104 -0.020909570313024393 0 -0.020909570313024393 0.030413354897920519 0 0 0 -0.010369374015631358 -0.066589992605208009 -0.021456054855509766 0 -0.021456054855509766 0.051832195743824361 0 0 0 -0.0036894492153459052 -0.086450755987601852 -0.01359888695766498 0 -0.01359888695766498 0.045033554907845497 0 0 0 -0.010354300269939054 -0.090269513667355639 -0.0012907739728214573 0 -0.0012907739728214573 0.046252352360241847 0 0 0 -0.011004290326778465 -0.18569905739851017 -0.0049790923904535142 0 -0.0049790923904535142 0.0018208942396320121 0 0 0 -0.045969540789719522 -0.14187471511487684 -0.0016183513068230466 0 -0.0016183513068230466 -0.00077342649511261347 0 0 0 -0.03566203540249737 -0.19440451496181577 -0.0019836312010025753 0 -0.0019836312010025753 -0.0017120478978764082 0 0 0 -0.049029140714923022 -0.14704217483472748 -0.002920508506985808 0 -0.002920508506985808 -0.001058683402295979 0 0 0 -0.037025214559255872 -0.16039205375474058 0.0034401345680718787 0 0.0034401345680718787 -0.00049396261812872932 0 0 0 -0.040221504093217272 -0.26576583329834347 -0.01166353823331432 0 -0.01166353823331432 -0.00048571233570970929 0 0 0 -0.066562886408513308 -0.039809316812511375 0.0031379256495320928 0 0.0031379256495320928 -0.018797968689043577 0 0 0 -0.01465182137538874 -0.044608915053796355 0.0046129273409825896 0 0.0046129273409825896 -0.013125556282575352 0 0 0 -0.014433617834092922 -0.075610302647756894 -0.0006769958256479284 0 -0.0006769958256479284 -0.011773234083226199 0 0 0 -0.021845884182745766 -0.074424849698328313 -0.0081598611026812828 0 -0.0081598611026812828 -0.024812397762523111 0 0 0 -0.024809311865212853 -0.075963536411214935 0.0012707308234085153 0 0.0012707308234085153 -0.025320993501891056 0 0 0 -0.025321132478276498 -0.082201449661958734 -0.022067009380957098 0 -0.022067009380957098 0.030277054229401884 0 0 0 -0.012981098858139237 0.15947226052658373 0.13030822328915637 0 0.13030822328915637 0.28302082252811478 0 0 0 0.11062327076367459 -0.00077616125082236032 -0.012578856963145757 0 -0.012578856963145757 0.0098163984161017126 0 0 0 0.0022600592913197826 -0.0025506159771344628 0.0057634770360093235 0 0.0057634770360093235 0.018280559068072577 0 0 0 0.0039324857727347506 0.0014132820576340244 0.015066300453521498 0 0.015066300453521498 0.030172253172167984 0 0 0 0.0078963838074508352 -0.0012521719123343988 -0.0056532016179427873 0 -0.0056532016179427873 0.0083883664312391915 0 0 0 0.0017840486297262537 -0.015034529944816688 0.022965969418129895 0 0.022965969418129895 0.011132749582611456 0 0 0 -0.00097544509055125239 -0.011291809885089266 -0.026244468881034377 0 -0.026244468881034377 0.0081094338052889459 0 0 0 -0.0007955940199501077 -0.069906192261234498 0.0027975848960615697 0 0.0027975848960615697 -0.012952832641063984 0 0 0 -0.020714756225574622 0.17432922289016234 -0.0083939488010126989 0 -0.0083939488010126989 0.17839442657787841 0 0 0 0.088180912367010145 -0.27639644797903656 0.01916761288723634 0 0.01916761288723634 0.0086585464842745541 0 0 0 -0.066934475373690461 -0.15584759195712544 -0.0079114992482047942 0 -0.0079114992482047942 0.0034231433246685317 0 0 0 -0.038106112158114325 -0.13154290413811559 -0.027623760575793535 0 -0.027623760575793535 0.021891858910216999 0 0 0 -0.02741276130697462 -0.14156764560476809 0.034773127136659962 0 0.034773127136659962 0.082554399681733504 0 0 0 -0.014753311480758646 -0.15989354337849593 -0.021855354385731066 0 -0.021855354385731066 0.015615749923192035 0 0 0 -0.036069448363826043 -0.075025546482597252 -0.029898478174483531 0 -0.029898478174483531 0.060885726518339761 0 0 0 -0.0035349549910643902 -0.034516388307820167 -0.037662778525300533 0 -0.037662778525300533 0.0088211510687106198 0 0 0 -0.0064238093097773175 -0.038815958238063941 0.046954575793896947 0 0.046954575793896947 0.0085483848545320207 0 0 0 -0.0075668933458831189 -0.037170144127289806 -0.03831780108565197 0 -0.03831780108565197 0.012958283953030225 0 0 0 -0.0060529650435647842 -0.047565200784179584 0.050412807472703047 0 0.050412807472703047 0.0031155287469237791 0 0 0 -0.011112418009313618 -0.12577440208770663 -0.031837677576374207 0 -0.031837677576374207 0.0068220410252815278 0 0 0 -0.029738090265606323 -0.044103526980282734 -0.057269185064255157 0 -0.057269185064255157 0.085300620993619167 0 0 0 0.010299273503334087 -0.16265602248871294 0.020925975594551061 0 0.020925975594551061 0.022708269947801174 0 0 0 -0.034986938135227991 0.30174007239801315 0.15698170788243485 0 0.15698170788243485 0.094990249776170543 0 0 0 0.099182580543546117 -0.0029329962776102891 0.0081917718992388089 0 0.0081917718992388089 0.032816402944489953 0 0 0 0.0074708516667199576 -0.0065347870455077506 -0.0086402339105059317 0 -0.0086402339105059317 0.08205963724036347 0 0 0 0.018881212548713999 -0.066390584823081258 -0.030534859088314499 0 -0.030534859088314499 0.10279196923793429 0 0 0 0.0091003461037132312 -0.0056689839335410941 -0.024087725008814065 0 -0.024087725008814065 0.084746797923235029 0 0 0 0.019769453497423539 -0.0084017398455631387 0.0039849365663338077 0 0.0039849365663338077 -0.002602221272596239 0 0 0 -0.0027509902795395114 -0.057652973214392389 -0.0074603241946512005 0 -0.0074603241946512005 -0.025423014832440312 0 0 0 -0.020768997011708177 -0.062251872544361687 0.0048013780140975359 0 0.0048013780140975359 -0.019846066162190347 0 0 0 -0.020524484676638005 -0.093884448849849061 0.086601156013837888 0 0.086601156013837888 0.085056992914761431 0 0 0 -0.0022068639837719839 -0.087401605047518871 0.078726932751440715 0 0.078726932751440715 0.059630866089855961 0 0 0 -0.0069426847394156721 0.13399536194435679 0.18323932042438196 0 0.18323932042438196 0.3240662857024994 0 0 0 0.1145154119117141 -0.013679261157628922 0.007934895580386403 0 0.007934895580386403 0.001280824387136309 0 0 0 -0.0030996091926230457 -0.023772708565905847 -0.025000498842837615 0 -0.025000498842837615 0.070712538827137031 0 0 0 0.011734957565307853 -0.029288300900677244 -0.012304453870372711 0 -0.012304453870372711 -0.0045242708628807637 0 0 0 -0.0084531429408894465 -0.069823475529771487 -0.028025859758562848 0 -0.028025859758562848 0.077101834402576619 0 0 0 0.0018195897182012605 -0.053470797497292444 -0.035581776474016627 0 -0.035581776474016627 0.0050271952176202395 0 0 0 -0.012110900569918037 -0.035938852310693825 -0.0076251881839498187 0 -0.0076251881839498187 0.029555793196621716 0 0 0 -0.0015957647785179718 -0.13343970151950091 0.023140584769496542 0 0.023140584769496542 -0.00048879786068400932 0 0 0 -0.033482124845046202 -0.011225873197481251 -0.0058824035609333913 0 -0.0058824035609333913 0.00054834983102525214 0 0 0 -0.0026693808416140552 -0.01655437930111292 0.025269096708056438 0 0.025269096708056438 0.1354145131468254 0 0 0 0.029715033461428231 -0.025245498828591222 -0.020553128824293054 0 -0.020553128824293054 0.096638909563137212 0 0 0 0.017848352683636666 0.0022216513316903885 0.00052021757505317338 0 0.00052021757505317338 -0.0013354668315344043 0 0 0 0.00022154612503877402 -0.030369459879844518 -0.00072380053254700316 0 -0.00072380053254700316 0.0076646253374486051 0 0 0 -0.0056762086355989227 0.0036976609908017273 -0.082122824239781622 0 -0.082122824239781622 0.13333284833293615 0 0 0 0.034257627330934418 -0.028409105786367961 -0.0021176703721612483 0 -0.0021176703721612483 0.005688575944289731 0 0 0 -0.0056801324605196268 -0.040049528259743394 -0.01214405951251156 0 -0.01214405951251156 0.0087360168665189253 0 0 0 -0.0078283778483060895 -0.056128752188313702 -0.044893702497884588 0 -0.044893702497884588 0.012423411891392178 0 0 0 -0.010926335074230353 -0.13599039730807755 -0.013238465192182927 0 -0.013238465192182927 -0.02328648714915638 0 0 0 -0.039819221114308481 -0.17381431395393643 0.0050796753125529667 0 0.0050796753125529667 -0.027939612431045299 0 0 0 -0.050438481596245428 0.0028207392210085765 0.0045518370687096521 0 0.0045518370687096521 0.019889140814271945 0 0 0 0.0056774700088201447 0.0052731433511458148 -0.0057523756368216272 0 -0.0057523756368216272 0.06838863406296336 0 0 0 0.018415444353527266 -0.12955459000186317 -0.0087730278416251559 0 -0.0087730278416251559 -0.031985412250517951 0 0 0 -0.040385000563095283 -0.10687783336041666 -0.0033212466233476347 0 -0.0033212466233476347 -0.025862238200357768 0 0 0 -0.033185017890193604 -0.049705276051946162 -9.9473591408912715e-05 0 -9.9473591408912715e-05 -0.022846533200058888 0 0 0 -0.018137952313001266 -0.1413515373675685 0.0022479229147599061 0 0.0022479229147599061 -0.00075663877291603197 0 0 0 -0.035527044035121157 -0.18935357226652555 -0.011218666005626533 0 -0.011218666005626533 0.0014045868969632669 0 0 0 -0.046987246342390543 -0.043733173670709335 -0.024713563226379423 0 -0.024713563226379423 -0.0076704362708372997 0 0 0 -0.012850902485386728 -0.048493983384641809 -0.032720518635785373 0 -0.032720518635785373 0.0059951436296319938 0 0 0 -0.010624709938752447 0.002887635363186758 0.02451402300321659 0 0.02451402300321659 0.16147724951563447 0 0 0 0.041091221219704932 -0.0074350250668204498 -0.0034386742721752572 0 -0.0034386742721752572 -0.0023098924987351999 0 0 0 -0.002436229391389072 -0.045869370280293198 -0.02700806163963855 0 -0.02700806163963855 -0.01039758295441795 0 0 0 -0.014066738308677718 -0.033286287502805281 -0.01334488459643618 0 -0.01334488459643618 0.0083877809987783492 0 0 0 -0.0062246266260067157 -0.075265261767668568 0.069870132121442385 0 0.069870132121442385 0.00059449401312505756 0 0 0 -0.018667691938635711 -0.15223105008395743 0.0014506546329509846 0 0.0014506546329509846 -0.05077119155941022 0 0 0 -0.050750560410841909 -0.12066651079345761 -0.010416586597842413 0 -0.010416586597842413 -0.040246006603372492 0 0 0 -0.040228129349207525 -0.058425992840544866 -0.0069486507513519188 0 -0.0069486507513519188 -0.024369329159023408 0 0 0 -0.02069883049989207 -0.01195957118922153 0.031297693118673475 0 0.031297693118673475 0.024362469482797522 0 0 0 0.0031007245733938316 -0.013630678034724397 -0.019077941053040615 0 -0.019077941053040615 0.0044010516777919229 0 0 0 -0.0023074065892330076 -0.043447905067570194 -0.0421270446546822 0 -0.0421270446546822 0.010606596068403543 0 0 0 -0.0082103272497916074 -0.044688274133785323 0.0027330184456991779 0 0.0027330184456991779 -0.018033715435840147 0 0 0 -0.015680497392406362 -0.10060648681696399 -0.018351127421919647 0 -0.018351127421919647 -0.0091946164246122924 0 0 0 -0.027450275810394061 -0.041914018003803011 -0.011830511261712643 0 -0.011830511261712643 0.0093377638541122243 0 0 0 -0.0081440635374227521 -0.041607632031385088 0.0053134782268281153 0 0.0053134782268281153 -0.016341334016377711 0 0 0 -0.0144872415119407 -0.045966947451892962 0.0045497651316986909 0 0.0045497651316986909 -0.014519604389932045 0 0 0 -0.015121637960456251 -0.048905929781802374 0.002867020682479769 0 0.002867020682479769 -0.017927182537597473 0 0 0 -0.016708278079849963 -0.034348970862606576 -0.0054434564169028588 0 -0.0054434564169028588 0.023625937398294994 0 0 0 -0.0026807583660778955 -0.044964318794522271 -0.043895028809474657 0 -0.043895028809474657 0.032336671557246899 0 0 0 -0.0031569118093188187 -0.029323832505553926 -0.011464912909143837 0 -0.011464912909143837 0.010797889947885331 0 0 0 -0.0046314856394171211 -0.069378763571352003 -0.033078816994543389 0 -0.033078816994543389 0.10168425222898494 0 0 0 0.008076372164408251 -0.022418542744840675 0.020245916586030255 0 0.020245916586030255 0.17807409943947228 0 0 0 0.03891388917365779 0.0008247029887122892 -0.00067851828220599742 0 -0.00067851828220599742 -0.00094543924263135182 0 0 0 -3.0184063479765655e-05 -0.0073630082852362833 -0.0061914075440358037 0 -0.0061914075440358037 -0.0036773817768853689 0 0 0 -0.002760097515530413 -0.018905168444759646 0.017133503689160001 0 0.017133503689160001 0.17924369654876493 0 0 0 0.040084632026001099 -0.051625720145161133 0.022215351041749209 0 0.022215351041749209 0.14087349325706119 0 0 0 0.022311943277975047 -0.058640306493802738 0.0029753435826366894 0 0.0029753435826366894 -0.011422022705669898 0 0 0 -0.017515582299868153 -0.063505857650890382 0.0017587209068698423 0 0.0017587209068698423 -0.013551561143600961 0 0 0 -0.019264354698622848 -0.0003626735384651969 0.039679004704988197 0 0.039679004704988197 0.057911882222001942 0 0 0 0.01438730217088402 -0.028499470983255559 0.042626482562234669 0 0.042626482562234669 0.048534752251736535 0 0 0 0.0050088203171201329 -0.057569434687963272 -0.045437612849009434 0 -0.045437612849009434 0.032825619474221301 0 0 0 -0.0061859538034354511 0.001414087618782145 -0.009886432101770315 0 -0.009886432101770315 0.015056085664450825 0 0 0 0.0041175433208082146 -0.00038296106467600177 0.0074851297718468504 0 0.0074851297718468504 -0.0049062173486587035 0 0 0 -0.001322294603333718 -0.073620185848335296 0.0082445088605711536 0 0.0082445088605711536 0.091550900176586208 0 0 0 0.0044826785820627178 -0.0078121140720384119 0.0081751645722122866 0 0.0081751645722122866 -0.0051255477144422912 0 0 0 -0.0032344154466197317 -0.025209762568549232 -0.01971176518242812 0 -0.01971176518242812 0.096601365736123324 0 0 0 0.017847900791893911 -0.14688214098456681 0.0027757843508280089 0 0.0027757843508280089 0.0010415688281141533 0 0 0 -0.036460143039113151 -0.23055735144670914 -0.010253503400083464 0 -0.010253503400083464 0.0015970706011846914 0 0 0 -0.057240070211381056 -0.025798085593098263 -0.040822722091243407 0 -0.040822722091243407 0.013468789869087117 0 0 0 -0.003082323931002745 0.12746382278778073 -0.08014057852118478 0 -0.08014057852118478 0.064043857272033655 0 0 0 0.047876920014953528 -0.035966616008990537 -0.025957784716896026 0 -0.025957784716896026 -0.0015104671945135317 0 0 0 -0.0093692708008760173 -0.038018135180516582 -0.033241126890933004 0 -0.033241126890933004 0.00091082789434049349 0 0 0 -0.0092768268215440985 -0.00025563239644437255 -0.0083595508273561769 0 -0.0083595508273561769 0.02634072376479921 0 0 0 0.0065212728420887649 -0.0017103189881080283 0.0068324342990564446 0 0.0068324342990564446 0.021743541337176708 0 0 0 0.0050083055872676141 -0.00051274756099095598 0.0097636464648136467 0 0.0097636464648136467 0.053620880167247975 0 0 0 0.013277033151564144 -0.0018705577821674767 -0.0058962095138901383 0 -0.0058962095138901383 0.010006296388743887 0 0 0 0.0020339346516439361 -0.090968442704458807 0.045860446323055803 0 0.045860446323055803 0.1150889750035895 0 0 0 0.0060301330747827286 -0.049685748769300236 -0.022859665871922008 0 -0.022859665871922008 0.0033992968482795538 0 0 0 -0.011571612980255108 -0.040869628657186283 -0.018973824222463742 0 -0.018973824222463742 -0.001996979888194611 0 0 0 -0.010716652136345196 -0.038240306391739726 -0.019189433418447144 0 -0.019189433418447144 -0.0030384019967270859 0 0 0 -0.010319677097116757 -0.022131117987573834 -0.043778468484530556 0 -0.043778468484530556 0.021522453569563282 0 0 0 -0.00015216610450252688 -0.19884797614024496 0.028256831280633055 0 0.028256831280633055 0.0039451568313828567 0 0 0 -0.048725704827215499 -0.093406988899328289 -0.0059164554248883477 0 -0.0059164554248883477 0.028093078367548263 0 0 0 -0.016328477632944899 -0.078745641844213898 -0.015712355349415924 0 -0.015712355349415924 0.02596568754437778 0 0 0 -0.013194988574958988 -0.023315960526649304 0.0037584958261082102 0 0.0037584958261082102 -0.01004521841146333 0 0 0 -0.0083402947345282419 -0.14267361876574469 0.049655194878344577 0 0.049655194878344577 -0.0032422270036800427 0 0 0 -0.03647896144235574 -0.13005180294689064 0.0046642563306954071 0 0.0046642563306954071 0.0060089517356229916 0 0 0 -0.031010712802816864 -0.1279237037898712 -0.0061212838152312488 0 -0.0061212838152312488 0.0079330073604407803 0 0 0 -0.029997674107357569 -0.20544084562808804 0.0033547708182819214 0 0.0033547708182819214 0.017484502490612508 0 0 0 -0.046989085784368861 -0.20103757519960536 -0.022309189791660744 0 -0.022309189791660744 0.017138949328268538 0 0 0 -0.045974656467834218 -0.042422111197420932 -0.016381851885060639 0 -0.016381851885060639 0.00052762735652801818 0 0 0 -0.010473620960223175 -0.12139264792809351 -0.012752928071705361 0 -0.012752928071705361 0.0023865889457185263 0 0 0 -0.029751514745593788 0.018396233758177005 0.086537661642159702 0 0.086537661642159702 0.038558324594505144 0 0 0 0.014238639588170399 -0.075325689956185757 -0.022700828032208686 0 -0.022700828032208686 0.069527765192179444 0 0 0 -0.0014494811910015538 -0.042910891784309735 0.018186520686196216 0 0.018186520686196216 0.028361921095324261 0 0 0 -0.0036372426722463629 -0.040025488273595089 0.0343182035779237 0 0.0343182035779237 -0.003227753841775538 0 0 0 -0.010813310528842823 -0.033442818105415717 -0.035104537827417182 0 -0.035104537827417182 0.028393419469622039 0 0 0 -0.0012623496589485583 -0.043217746776542908 -0.042283527428011752 0 -0.042283527428011752 0.037657279625561993 0 0 0 -0.0013901167877452781 -0.0084178383828867887 0.0065792653464652184 0 0.0065792653464652184 -0.004206716503008634 0 0 0 -0.0031561387214739112 -0.03967550613191112 -0.018877196034731369 0 -0.018877196034731369 -0.0082973039383981151 0 0 0 -0.011993202517577295 -0.069357956710134228 -0.011878968463678776 0 -0.011878968463678776 -0.028288605194832686 0 0 0 -0.024411640476241725 -0.070464084717379041 0.004788848309355687 0 0.004788848309355687 -0.020982850821718663 0 0 0 -0.022861733884774433 -0.041136766438263687 -0.047210453633449001 0 -0.047210453633449001 0.023036242196106504 0 0 0 -0.0045251310605393044 -0.1032917632613435 -0.028852360329224266 0 -0.028852360329224266 -0.0055548244953083914 0 0 0 -0.027211646939163017 -0.12561863585773347 -0.004536955266193134 0 -0.004536955266193134 0.036208355106882362 0 0 0 -0.022352570187712806 -0.048231380463857221 -0.0028642407265906012 0 -0.0028642407265906012 -0.025519290145849895 0 0 0 -0.018437667652426781 -0.046094237506034655 -5.6690779188513056e-05 0 -5.6690779188513056e-05 -0.021297018401176107 0 0 0 -0.016847813976802687 -0.05644143141866708 0.0022436979870175842 0 0.0022436979870175842 -0.016822292699501744 0 0 0 -0.01831593102954221 -0.056815361096311599 0.0033704959535342336 0 0.0033704959535342336 -0.017523366062306978 0 0 0 -0.018584681789654646 -0.11080734777524626 -0.020330187892452889 0 -0.020330187892452889 0.037361536026920661 0 0 0 -0.018361452937081413 -0.055319812180145714 0.014091058724162588 0 0.014091058724162588 0.025960997535566431 0 0 0 -0.0073397036611448155 -0.043389036543352244 -0.0031332966124714961 0 -0.0031332966124714961 -0.017842893535679152 0 0 0 -0.015307982519757853 -0.074269872416774532 -0.025691990762847332 0 -0.025691990762847332 -0.0059594835832095239 0 0 0 -0.020057338999996031 -0.058678777914075005 0.01714275607719359 0 0.01714275607719359 0.074371629669173558 0 0 0 0.0039232129387746315 -0.073127384708259413 -0.0048026757430212601 0 -0.0048026757430212601 0.0025166352907370487 0 0 0 -0.017652687354380615 -0.070713633950290247 -0.0033422816616638235 0 -0.0033422816616638235 0.0094222173160931066 0 0 0 -0.015322854158549282 -0.15220988826630877 0.0014324222833365856 0 0.0014324222833365856 -0.05070286968820243 0 0 0 -0.050728189488627805 -0.12065000374679698 -0.010402523960444636 0 -0.010402523960444636 -0.04019275361925987 0 0 0 -0.040210689341514207 0.10330160849277498 0.04900825940597231 0 0.04900825940597231 0.056979899358141656 0 0 0 0.040070376962729019 -0.059607560602556321 0.001044743945164143 0 0.001044743945164143 -0.00028140696586502999 0 0 0 -0.014972241892105343 -0.086504284287433064 -0.016252049382465633 0 -0.016252049382465633 0.084305387458002978 0 0 0 -0.00054972420735754923 -0.017686660426015133 0.00045836805636051414 0 0.00045836805636051414 -0.019880326771048229 0 0 0 -0.0093917467992657433 -0.14201743586725896 0.0044909100281125408 0 0.0044909100281125408 0.0014218871754507478 0 0 0 -0.035148887172952073 -0.21513595565614929 -0.012399755397906984 0 -0.012399755397906984 0.0018287351074669778 0 0 0 -0.053326805137170585 -0.040848016357684779 -0.016370110188291487 0 -0.016370110188291487 -0.012788748421451779 0 0 0 -0.013409191194784197 -0.13012016507776844 0.0076161444168772185 0 0.0076161444168772185 0.00036138466086872408 0 0 0 -0.032439695104224911 -0.15911200469009901 -0.034625023249102035 0 -0.034625023249102035 0.001281430609048867 0 0 0 -0.039457643520262486 -0.13035365342122196 0.0035822854762197487 0 0.0035822854762197487 0.00023626782387242695 0 0 0 -0.032529346399337425 -0.088566650084847057 0.00028603403278839451 0 0.00028603403278839451 -0.0064656328627500943 0 0 0 -0.023758070736899287 -0.081272997584302092 -0.014375526180293797 0 -0.014375526180293797 -0.01421686491428974 0 0 0 -0.023872465624647957 -0.11860189339047376 -0.025242634424410049 0 -0.025242634424410049 0.015947402718355819 0 0 0 -0.02566362266802942 -0.049192770981625611 -0.017552481919089868 0 -0.017552481919089868 0.00082068850268735005 0 0 0 -0.012093020619734662 -0.026252410666632642 0.041378859434133886 0 0.041378859434133886 0.060227916509426827 0 0 0 0.0084938764606983241 -0.0328202579772221 -0.02367368685359883 0 -0.02367368685359883 -0.0054348516516422585 0 0 0 -0.0095637774072159232 -0.0518180902394157 -0.0024196299524986281 0 -0.0024196299524986281 -0.022703633399417542 0 0 0 -0.018630430909708312 -0.062485927585886357 0.0013594581764255547 0 0.0013594581764255547 -0.019266533434741932 0 0 0 -0.020438115255157072 -0.084296650953907717 -0.014507559706039116 0 -0.014507559706039116 -0.030532552022402563 0 0 0 -0.028707300744077575 -0.079928978593188621 0.0040855038534186143 0 0.0040855038534186143 -0.022885653831208757 0 0 0 -0.025703658106099349 -0.077451748720340885 -0.016848466927768563 0 -0.016848466927768563 0.014881194926541164 0 0 0 -0.01564263844844993 -0.076026253939352612 -0.0285976220025915 0 -0.0285976220025915 0.019870226033018967 0 0 0 -0.014039006976583362 -0.07328256223365659 0.085202829282185005 0 0.085202829282185005 0.019741011505702399 0 0 0 -0.013385387681988714 -0.015796992540820343 0.1110847355937932 0 0.1110847355937932 0.064127930816837431 0 0 0 0.012082734569004216 0.041230136068828749 0.0012715824913712426 0 0.0012715824913712426 0.077839714865276854 0 0 0 0.029767462733526401 -0.092384833392565258 -0.011890216306627885 0 -0.011890216306627885 0.064452898510958534 0 0 0 -0.0069829837204017087 -0.044217182636844966 0.0035289071375873195 0 0.0035289071375873195 -0.016534074674917507 0 0 0 -0.015187814327940618 -0.050160990711656084 -0.024252271665503436 0 -0.024252271665503436 -0.0061146871413597648 0 0 0 -0.014068919463254059 -0.068373395101614332 0.059843210638896971 0 0.059843210638896971 0.0034311038574212915 0 0 0 -0.016235572811048371 -0.025003839712644305 -0.0073518438573233202 0 -0.0073518438573233202 0.055372078665558933 0 0 0 0.0075920597382287403 -0.026768006487583734 -0.011547921439812869 0 -0.011547921439812869 -0.0068936597207671091 0 0 0 -0.008415416552087801 -0.068769962421491387 0.0003360372397344354 0 0.0003360372397344354 -0.0096293092492235124 0 0 0 -0.019599817917678727 -0.11818755491548488 0.02884573615311814 0 0.02884573615311814 0.064604365236482275 0 0 0 -0.013395797419750666 -0.14602008446462122 0.00055452488488489022 0 0.00055452488488489022 -0.0024897069349229251 0 0 0 -0.037127447849886065 -0.20615940179302905 -0.0050967240239157179 0 -0.0050967240239157179 -0.0049526191249827656 0 0 0 -0.052778005229502933 -0.039903816535563796 -0.023930234782589918 0 -0.023930234782589918 0.00053850393044191369 0 0 0 -0.0098413281512804984 -0.094346358612710068 -0.0015603069342970182 0 -0.0015603069342970182 -0.017645162939197157 0 0 0 -0.027997880387976813 -0.10150765372105867 -0.0092992073170526032 0 -0.0092992073170526032 -0.027143013063626462 0 0 0 -0.032162666696171294 -0.23934367227361245 0.0072432749788816642 0 0.0072432749788816642 0.0046413980459276694 0 0 0 -0.058675568556921187 -0.14104927238855566 -0.0035737496619563935 0 -0.0035737496619563935 0.0012316715521066279 0 0 0 -0.034954400209112196 -0.010647259321791974 0.037269457114741722 0 0.037269457114741722 0.16353355678941395 0 0 0 0.03822157436690557 0.076477288500849061 0.0010261605479357228 0 0.0010261605479357228 0.39119409622536777 0 0 0 0.11691784618155421 -0.048347427436547075 -0.051895642854111967 0 -0.051895642854111967 0.02969325764829206 0 0 0 -0.0046635424470636844 -0.065130620202991152 -0.045069501374030041 0 -0.045069501374030041 0.018647998793489884 0 0 0 -0.011620655352375275 -0.044085489507687661 -0.052332668097311283 0 -0.052332668097311283 0.071711846889467162 0 0 0 0.0069065893454449004 -0.0039540069141183465 0.0025915586576538141 0 0.0025915586576538141 -0.014944373660010113 0 0 0 -0.0047245951435320177 -0.049123364179470663 -0.00039990278580776428 0 -0.00039990278580776428 -0.020514363066861573 0 0 0 -0.017409431811583068 -0.10046906638614611 -0.012265406843414928 0 -0.012265406843414928 0.016160736836512313 0 0 0 -0.021077082387408463 8.9718816260853096e-05 -0.0026400756892392685 0 -0.0026400756892392685 0.0018430217655109882 0 0 0 0.00048318514544298807 -0.20290766899357995 0.030993934382419153 0 0.030993934382419153 -0.00089609575684176934 0 0 0 -0.050950941187605375 -0.036806396885546544 0.033398338283136653 0 0.033398338283136653 -0.0021017444647748462 0 0 0 -0.0097270353375797924 -0.027043634160000662 -0.035046505168478959 0 -0.035046505168478959 0.025482764982699191 0 0 0 -0.00039021729432531238 -0.060423152763516425 0.00073303488943609642 0 0.00073303488943609642 0.020413440719811334 0 0 0 -0.010002428010926268 -0.086369888561500685 -0.023824622715534094 0 -0.023824622715534094 0.019514729507592032 0 0 0 -0.016713789763477177 -0.0435326618217175 0.010049158176797499 0 0.010049158176797499 -0.0007478576530566966 0 0 0 -0.011070129868693549 -0.038538839147861992 0.015720144930406629 0 0.015720144930406629 0.010764405669266619 0 0 0 -0.0069436083696488311 -0.12309237366964726 -0.024782470092115046 0 -0.024782470092115046 -0.0016924453562033454 0 0 0 -0.031196204756462648 -0.057350825713275766 -0.041342162549637074 0 -0.041342162549637074 0.0066777457654871863 0 0 0 -0.012668269986947145 -0.17466389713263661 -0.02018590991880001 0 -0.02018590991880001 -0.0086160401328454171 0 0 0 -0.045819984316370466 -0.041878240078802476 0.058801156208911021 0 0.058801156208911021 0.01354639392360113 0 0 0 -0.007082961538800614 -0.045147315139910313 0.062198970001688503 0 0.062198970001688503 0.011905186375501253 0 0 0 -0.0083105321911022129 -0.048955063458187675 0.06496972879581131 0 0.06496972879581131 0.0045539323221763794 0 0 0 -0.011100282784002991 -0.044157343138695349 -0.038961547723111223 0 -0.038961547723111223 0.0068132087517733808 0 0 0 -0.0093360335967304087 -0.053034713092039512 -0.038553921375729772 0 -0.038553921375729772 0.0038364081588062662 0 0 0 -0.012299576233308313 0.044741235665956433 0.048718075640594133 0 0.048718075640594133 0.090810539731951023 0 0 0 0.033887943849476854 -0.049746967626113518 -0.0032231107589267768 0 -0.0032231107589267768 -0.016589682998086139 0 0 0 -0.016584162656049919 -0.057647392643304929 0.0026867383059383247 0 0.0026867383059383247 -0.019217145758591053 0 0 0 -0.019216134600473996 -0.058076952040435913 0.0029442292518615386 0 0.0029442292518615386 0.0026615612940593335 0 0 0 -0.013853847686594145 -0.02023142107705389 -0.026118164098286073 0 -0.026118164098286073 0.11630904071236281 0 0 0 0.02401940490882723 -0.14374796685655597 -0.031851585252048141 0 -0.031851585252048141 -0.0037008936490415811 0 0 0 -0.036862215126399395 -0.047516333132664769 0.0014933222078112446 0 0.0014933222078112446 -0.019115640671665702 0 0 0 -0.016657993451082619 -0.20681169794670093 -0.0079493250722808134 0 -0.0079493250722808134 -0.0048949126728575383 0 0 0 -0.052926652654889592 -0.14233633646076485 0.0015934923586155836 0 0.0015934923586155836 -0.0011890548928588235 0 0 0 -0.035881347838405901 -0.12426811501837598 -0.014758156532282324 0 -0.014758156532282324 0.00010231595507192992 0 0 0 -0.031041449765825901 -0.052064311514714384 0.0034579688339750579 0 0.0034579688339750579 -0.014185207834709571 0 0 0 -0.016562379837355989 -0.03514679006474053 -0.0083873063238986689 0 -0.0083873063238986689 0.029633488190596247 0 0 0 -0.0013783254685360014 -0.069435113974775739 0.010421487083923544 0 0.010421487083923544 0.050745264640489673 0 0 0 -0.0046724623335715225 -0.012625557014993606 0.072122624790789347 0 0.072122624790789347 0.018689264386988369 0 0 0 0.0015159268429986925 -0.042657885172466471 0.0037327823287127185 0 0.0037327823287127185 -0.019434057406649132 0 0 0 -0.0155229856447789 -0.026503368982629727 0.030998156583064818 0 0.030998156583064818 -0.00010442033358426528 0 0 0 -0.0066519473290536091 -0.023352423557850166 -0.031719783281808245 0 -0.031719783281808245 0.012215826567433474 0 0 0 -0.0027841492476041729 -0.052392415316613178 0.0033792201139652418 0 0.0033792201139652418 -0.015131041443995311 0 0 0 -0.016880864190152126 -0.08373091548417215 -0.00031615897090893526 0 -0.00031615897090893526 0.065765283191594082 0 0 0 -0.004491408073144504 -0.012484065920594922 0.024550339825162415 0 0.024550339825162415 0.037223819290140625 0 0 0 0.0061849383423862037 -0.0063160485201605443 0.019024480996894244 0 0.019024480996894244 0.0036475068533414756 0 0 0 -0.00066713541670471166 -0.0060772618671043332 -0.015500352966311109 0 -0.015500352966311109 -0.0028580895893641767 0 0 0 -0.0022338378641173495 -0.0099445478990600744 -0.021305909458873007 0 -0.021305909458873007 0.017082342752906321 0 0 0 0.0017844487134613951 -0.15550242073826662 0.0041471221963698679 0 0.0041471221963698679 0.038183312773507727 0 0 0 -0.029329776991189688 -0.097449549151736731 -0.028052758867651018 0 -0.028052758867651018 0.011454407731131822 0 0 0 -0.021498785355151345 -0.10882661364277268 -0.027814246694758571 0 -0.027814246694758571 0.010767501810515667 0 0 0 -0.024514777958064227 -0.16859700846866621 0.060743402209734287 0 0.060743402209734287 0.02506295794814406 0 0 0 -0.035883512630130565 -0.1429190906728387 0.061336125814078241 0 0.061336125814078241 0.02678907370160899 0 0 0 -0.029032504242807233 -0.065606784701657817 0.00039371059823113241 0 0.00039371059823113241 -0.017357766431518585 0 0 0 -0.020741137783294103 0.078229871720788657 0.039971900928672609 0 0.039971900928672609 0.048042994382018644 0 0 0 0.031568216525701853 -0.12828171083651807 -0.0095253181928540345 0 -0.0095253181928540345 -0.029168861712762541 0 0 0 -0.039362643137320151 -0.10772304704718176 -0.0031695336044914764 0 -0.0031695336044914764 -0.020865316132358293 0 0 0 -0.032147090794885008 -0.083482563505270238 -0.020017023457390218 0 -0.020017023457390218 0.042549185865445455 0 0 0 -0.010233344409956168 -0.084798654669159715 0.0019137595605744958 0 0.0019137595605744958 -0.013209157346681087 0 0 0 -0.02450195300396019 -0.084431460491740884 -0.015133664976691637 0 -0.015133664976691637 -0.026687748150657772 0 0 0 -0.027779802160599675 -0.17602249367238826 -0.025359622741398739 0 -0.025359622741398739 0.0039459320940997133 0 0 0 -0.043019140394572136 -0.17796009081999134 -0.026558623214308907 0 -0.026558623214308907 -0.00085553909171581788 0 0 0 -0.044703907477926769 -0.01733337757588238 0.037747732624359598 0 0.037747732624359598 0.061429016045508433 0 0 0 0.011023909617406513 -0.016020564647472701 -0.017397560165257786 0 -0.017397560165257786 0.002484844496580596 0 0 0 -0.0033839300377231929 -0.0051742417039614434 -0.003211512138869943 0 -0.003211512138869943 0.036991319285495171 0 0 0 0.007954269395383377 -0.0018527349986230957 0.0039417492449886904 0 0.0039417492449886904 0.0058763204022977966 0 0 0 0.0010058963509185781 -0.084163574062752988 -0.0020212747301966705 0 -0.0020212747301966705 0.002081746529008846 0 0 0 -0.020520456883436039 -0.0058899383069798694 -0.0061649505067840615 0 -0.0061649505067840615 0.08706521714449611 0 0 0 0.020293819709379213 -0.0068402747324800839 -0.0022622051379643238 0 -0.0022622051379643238 0.15693131839274987 0 0 0 0.037522760915067427 -0.029743158876026351 -0.013897374799412221 0 -0.013897374799412221 0.028077207500910605 0 0 0 -0.00041648784377895307 -0.11610947592378146 -0.014714729660539577 0 -0.014714729660539577 0.014647885433819674 0 0 0 -0.025365397622490377 -0.00070545640422503553 0.00054067915065492134 0 0.00054067915065492134 -0.011181881045485786 0 0 0 -0.0029718343624277055 -0.17473757019858979 -0.034764914688000623 0 -0.034764914688000623 0.01166895932117229 0 0 0 -0.040767152719354355 -0.062583475514213546 0.001736540958933561 0 0.001736540958933561 0.014739579373580889 0 0 0 -0.011960974035158159 -0.075125371966487275 -0.040265180477833173 0 -0.040265180477833173 0.032852423951158283 0 0 0 -0.010568237003832248 -0.072143917332849195 -0.037028960065231098 0 -0.037028960065231098 0.029392150717380439 0 0 0 -0.010687941653867161 -0.087074793964506514 0.0030639267205028117 0 0.0030639267205028117 -0.00057532549698003504 0 0 0 -0.021912529865371625 -0.097297227558954313 -0.023680001732639899 0 -0.023680001732639899 0.020865083926649874 0 0 0 -0.019108035908076082 -0.094593731060213626 -0.00027145310206717552 0 -0.00027145310206717552 -0.0017025184432376828 0 0 0 -0.024074062375862827 -0.07874076986735902 -0.016840351699852856 0 -0.016840351699852856 -0.018837665205625298 0 0 0 -0.02439460876824608 -0.12000086535621091 -0.014517187640864987 0 -0.014517187640864987 0.012671068810074626 0 0 0 -0.026832449136533931 -0.1944309841266722 0.025505475310942827 0 0.025505475310942827 0.044729928701569888 0 0 0 -0.037425263856275592 -0.12824784230054337 -0.011030988460580133 0 -0.011030988460580133 -0.029438199762728545 0 0 0 -0.039421510515817978 -0.10598148782106889 -0.001701765734378022 0 -0.001701765734378022 -0.024160018186436323 0 0 0 -0.032535376501876302 -0.098698057147362017 0.0038733135345418793 0 0.0038733135345418793 -0.0046173438753320771 0 0 0 -0.025828850255673517 -0.11013735035184294 -0.024415173935250563 0 -0.024415173935250563 -0.014876814844746802 0 0 0 -0.031253541299147453 -0.060574488494533715 -0.0052583012656148833 0 -0.0052583012656148833 -0.026487178900379577 0 0 0 -0.02176541684872834 -0.02138469425590063 -0.056999594911462059 0 -0.056999594911462059 0.066097142091717964 0 0 0 0.011178111958954309 -0.03949083980076859 0.0063593707052080305 0 0.0063593707052080305 -0.016102138862301892 0 0 0 -0.013898244665767622 -0.017608646736293476 0.023462870329624241 0 0.023462870329624241 0.0019307230329186353 0 0 0 -0.0039194809258438212 -0.019683640900241661 -0.032343688699713158 0 -0.032343688699713158 0.028499865739414432 0 0 0 0.0022040562097931371 -0.096708485089211094 0.0024166881524035899 0 0.0024166881524035899 -0.0089377344635299949 0 0 0 -0.026411554888185272 -0.10194409637272907 -0.019521246520129477 0 -0.019521246520129477 -0.022122158973428722 0 0 0 -0.031016563836539453 -0.044570121372712802 0.0066174404682116739 0 0.0066174404682116739 -0.008858351675207727 0 0 0 -0.01335711826198014 -0.047031240764892179 -0.04557929654591801 0 -0.04557929654591801 0.04515871444454933 0 0 0 -0.00046813158008579547 -0.093257608121011248 0.018468161562824686 0 0.018468161562824686 -0.0021789550878281716 0 0 0 -0.023859140802209966 -0.021398246393406151 -0.01959605845051382 0 -0.01959605845051382 0.055472931184052054 0 0 0 0.008518671197661476 -0.058367894077796523 -0.039396830062381927 0 -0.039396830062381927 0.0058515902422073829 0 0 0 -0.01312907595889734 -0.08714195399589153 -0.0163789252992552 0 -0.0163789252992552 0.071565229145525433 0 0 0 -0.003894181212591552 -0.18026307144128947 -0.015835782236693123 0 -0.015835782236693123 -0.0047739021549798172 0 0 0 -0.046259243399067292 -0.13055936878736102 0.0010324767979044865 0 0.0010324767979044865 -0.0032091041856094904 0 0 0 -0.03344211824324262 -0.025394491371454886 0.011010479168956857 0 0.011010479168956857 0.0052412691233267028 0 0 0 -0.0050383055620320596 -0.049588496125127605 0.0035602212657622713 0 0.0035602212657622713 -0.015132538353893443 0 0 0 -0.016180258619755264 -0.070030983040949818 -0.029111618414373597 0 -0.029111618414373597 0.013292346801621169 0 0 0 -0.0141846590598321 -0.18408921208457213 -0.019830075461267947 0 -0.019830075461267947 -0.0020132690344802223 0 0 0 -0.046525620279763098 -0.13564750978633111 0.0051979378867561474 0 0.0051979378867561474 -0.0013106537627101122 0 0 0 -0.034239540887260306 -0.067911953175939205 0.0051479558343599068 0 0.0051479558343599068 0.073243942655712685 0 0 0 0.0013329973699433874 -0.036729188295137494 -0.033546297422776122 0 -0.033546297422776122 0.0057962005800895611 0 0 0 -0.0077332469287618721 -0.037418911411388311 0.05046782161540625 0 0.05046782161540625 0.016115828439712487 0 0 0 -0.0053257707429184009 -0.11562890595106629 -0.0011478026438214162 0 -0.0011478026438214162 0.011279469902477815 0 0 0 -0.026087359012147145 -0.099307043634453945 -0.0092950839987216982 0 -0.0092950839987216982 0.01521705376632553 0 0 0 -0.021022497467032056 -0.053753138399433187 -0.019032241012510193 0 -0.019032241012510193 0.029027672679667313 0 0 0 -0.0061813664299414511 -0.057812508972690385 -0.019882780170882464 0 -0.019882780170882464 0.039937663140853771 0 0 0 -0.0044687114579591049 -0.073240690980261869 -0.010983917763690435 0 -0.010983917763690435 -0.029129669971485063 0 0 0 -0.025592590237936731 -0.071215111875268577 -0.0058111640091119757 0 -0.0058111640091119757 -0.026051236887969641 0 0 0 -0.024316587190809546 -0.078130967054083789 -0.00053272041436226887 0 -0.00053272041436226887 -0.01848035500512045 0 0 0 -0.024152830514801073 -0.076463477378701683 0.0027750793464398566 0 0.0027750793464398566 -0.017709651739079027 0 0 0 -0.023543282279445181 -0.037520803737313757 -0.0095673153386844623 0 -0.0095673153386844623 -9.2750734345337094e-05 0 0 0 -0.0094033886179148984 -0.077741238223125841 -0.0038189473581592519 0 -0.0038189473581592519 0.077503958052648092 0 0 0 -5.9320042619439737e-05 -0.035906563845168923 0.010550928188395085 0 0.010550928188395085 0.0006803358834090445 0 0 0 -0.0088065569904399489 -0.03296683899642705 0.053857919355493118 0 0.053857919355493118 0.02408592940036236 0 0 0 -0.0022202273990168386 -0.0512108079921334 -0.035626248720026177 0 -0.035626248720026177 0.0010369222681463341 0 0 0 -0.012543471430996656 -0.025745120823140288 0.066074967963155595 0 0.066074967963155595 0.015499007843521095 0 0 0 -0.0025615282449047427 -0.029441167376055517 -0.008237235595761852 0 -0.008237235595761852 0.0031768292181942187 0 0 0 -0.0065660845394653125 -0.021436491111156697 0.0039568538936411157 0 0.0039568538936411157 0.017455833290617312 0 0 0 -0.00099516445513485319 -0.073835393943211924 0.075147095555401777 0 0.075147095555401777 0.0037025893162003776 0 0 0 -0.017533201156752831 -0.04809132626818613 0.075915635025024519 0 0.075915635025024519 0.010126444395608392 0 0 0 -0.0094912204681445456 -0.14082153082487148 -0.008517919022083759 0 -0.008517919022083759 -0.018045519322196547 0 0 0 -0.039716762536767015 -0.11475159676782749 -0.0037333922190888481 0 -0.0037333922190888481 -0.014881972825393393 0 0 0 -0.032408392398305237 -0.041325424336366656 -0.045018881924868026 0 -0.045018881924868026 0.022535150281478344 0 0 0 -0.0046975685137220502 0.00074980011809089309 -0.0057003455931865865 0 -0.0057003455931865865 0.08602895074052741 0 0 0 0.021694687714654659 -0.0087126742660827983 0.00074187530202685092 0 0.00074187530202685092 0.16291547958831321 0 0 0 0.038550701330557657 -0.078990767529670838 -0.00068130213890763469 0 -0.00068130213890763469 0.048571397803540875 0 0 0 -0.0076048424315324709 -0.030248263569517826 0.016491802333603485 0 0.016491802333603485 0.0090055979973826666 0 0 0 -0.0053106663930337986 -0.013797277458307111 -0.0025100066179013225 0 -0.0025100066179013225 -0.012946949053083801 0 0 0 -0.0066860566278476585 -0.027065156913921362 -0.0050258787283733453 0 -0.0050258787283733453 -0.018350758047560811 0 0 0 -0.011353978740370585 -0.042246514220485976 -0.015647369866386387 0 -0.015647369866386387 -0.0048266682677438055 0 0 0 -0.011768295622057473 -0.026268944831172258 0.018604869907444144 0 0.018604869907444144 -0.0041209923629144107 0 0 0 -0.0075974842985221391 -0.020932636559899701 -0.032794618729560687 0 -0.032794618729560687 0.041955382306194444 0 0 0 0.0052556864365735229 -0.0037061208581904426 0.0082971347459682709 0 0.0082971347459682709 0.032554448654163348 0 0 0 0.0072120819489933097 -0.0059231016632743105 -0.012456799647131533 0 -0.012456799647131533 0.082109297792214209 0 0 0 0.019046549032234961 -0.025565813876462284 0.038634680319402204 0 0.038634680319402204 0.031268064603700019 0 0 0 0.0014255626818093781 -0.022435806067046427 -0.024960914036965542 0 -0.024960914036965542 -0.0042099250006453204 0 0 0 -0.0066614327669231033 -0.046255131155613027 0.004267565766646878 0 0.004267565766646878 -0.013980199235758488 0 0 0 -0.015058832597842884 -0.042292198758292959 0.0078001833121105479 0 0.0078001833121105479 -0.0094048978400808423 0 0 0 -0.012924274149593452 -0.028657154429217346 0.044412136741053043 0 0.044412136741053043 0.040843027750905314 0 0 0 0.003046468330422325 -0.029457866422739398 -0.025977297961609747 0 -0.025977297961609747 0.0031075172868759715 0 0 0 -0.0065875872839660232 -0.11174550968659741 -0.012807594786080602 0 -0.012807594786080602 -0.028140482962994685 0 0 0 -0.034971498162398015 -0.097805461266303143 0.00014620336970620935 0 0.00014620336970620935 -0.021443898939372753 0 0 0 -0.029812340051418966 -0.0026437937788919008 0.084558060247872269 0 0.084558060247872269 0.032591746746698735 0 0 0 0.0074869882419518197 -0.16275777965397906 -0.0033201756471800121 0 -0.0033201756471800121 -0.027895156503274246 0 0 0 -0.047663234039313329 -0.12810026438846955 -0.0078707821219280213 0 -0.0078707821219280213 -0.021756244710470433 0 0 0 -0.037464127274735019 -0.038498527566494856 0.016276533139932159 0 0.016276533139932159 -0.0063850827277791566 0 0 0 -0.011220902573568781 -0.020029476996448192 -0.023552285521420635 0 -0.023552285521420635 0.072060635941578965 0 0 0 0.013007789736282693 -0.071103462662328198 -0.0070603044431697959 0 -0.0070603044431697959 0.099275484448519219 0 0 0 0.0070430054465476857 -0.10645455682252961 -0.00052718959937486654 0 -0.00052718959937486654 0.094803974414780279 0 0 0 -0.0029126456019373526 -0.066733958105906654 -0.041807856849344169 0 -0.041807856849344169 0.013021354507903649 0 0 0 -0.013428150899500779 -0.033939049952001213 -0.0311895402508185 0 -0.0311895402508185 0.0073462447873899883 0 0 0 -0.0066482012911527888 -0.072495975057127904 0.087584050581604012 0 0.087584050581604012 0.024713498678599954 0 0 0 -0.011945619094631765 -0.13980921482091313 0.058644002508349391 0 0.058644002508349391 0.030228982241207181 0 0 0 -0.027395058144926487 -0.096960466610939322 -0.027810355017422739 0 -0.027810355017422739 0.012610717925798376 0 0 0 -0.02108743717128525 -0.0075860716976011711 -0.062078273666187622 0 -0.062078273666187622 0.047285741246095192 0 0 0 0.009924917387123644 -0.019951679247890347 -0.00019463157633331507 0 -0.00019463157633331507 0.05074105806732504 0 0 0 0.007697344704858694 -0.026822545350799865 -0.0067893415601769092 0 -0.0067893415601769092 0.097494149568735367 0 0 0 0.017667901054483903 -0.078004468769424865 -0.025691904810467479 0 -0.025691904810467479 0.046497368392815597 0 0 0 -0.0078767750941523135 -0.07028228046965887 -0.01837344775924566 0 -0.01837344775924566 0.045247841407525025 0 0 0 -0.006258609765533496 -0.053276435560901156 0.02241454997889419 0 0.02241454997889419 0.11193395703820674 0 0 0 0.01466438036932639 -0.027288342331074328 -0.035522870934910411 0 -0.035522870934910411 0.064949238454248048 0 0 0 0.0094152240307933954 -0.018715334284326701 0.035628370014156863 0 0.035628370014156863 0.086214183164541325 0 0 0 0.016874712220053212 -0.020521962512100478 -0.014725036722202489 0 -0.014725036722202489 -0.0049543430326455251 0 0 0 -0.0063690763861867783 -0.073145733028368604 0.011925682617284456 0 0.011925682617284456 0.067123903850812225 0 0 0 -0.0015054572943891328 -0.047228627787382092 -0.0066278398208037825 0 -0.0066278398208037825 0.026065455939828328 0 0 0 -0.0052907929618884394 -0.030397010431560401 -0.0074751078299918339 0 -0.0074751078299918339 -0.01309475713665742 0 0 0 -0.010872941892054566 -0.053474733207928248 0.020515322888543644 0 0.020515322888543644 0.044786559342615745 0 0 0 -0.0021720434663281456 -0.051198426017888446 -0.0033283708385740524 0 -0.0033283708385740524 -0.027162974322347037 0 0 0 -0.019590350085058873 -0.11685813914193477 -0.011370271744356397 0 -0.011370271744356397 0.0015019270300136167 0 0 0 -0.028839053027980399 -0.077594774957435109 -0.0098597596882801786 0 -0.0098597596882801786 -0.024073556865409691 0 0 0 -0.025417082955711205 -0.037173871708356843 0.012170149357903951 0 0.012170149357903951 -0.0014845925820011034 0 0 0 -0.0096646160725894804 -0.069092204039603672 0.0082677808982835159 0 0.0082677808982835159 0.093735375063639464 0 0 0 0.0061607927560089482 -0.19007878855469129 0.023503861609406453 0 0.023503861609406453 0.0017028282242117498 0 0 0 -0.047093990082620163 -0.049290835618504308 0.0032325497953555361 0 0.0032325497953555361 -0.01787234521791177 0 0 0 -0.01679079520910402 -0.038649029607634437 0.0012681550275720002 0 0.0012681550275720002 -0.005675198225292083 0 0 0 -0.011081056958231632 -0.055605678946592879 -0.025078492729716406 0 -0.025078492729716406 0.0064625614222080519 0 0 0 -0.012285779381096179 -0.06179523752398941 -0.028938358065840553 0 -0.028938358065840553 1.8554219022526297e-05 0 0 0 -0.015444170826241777 -0.060034214981971652 -0.011694178186183143 0 -0.011694178186183143 -0.021698950113669277 0 0 0 -0.020433291273910213 -0.04504528779387014 0.0024840208255282382 0 0.0024840208255282382 -0.018942840921075708 0 0 0 -0.015997032178736461 -0.043347055781405075 -0.003478202932525265 0 -0.003478202932525265 -0.0027664996505835371 0 0 0 -0.011528388857997146 -0.058800164910103273 -0.027715983812073325 0 -0.027715983812073325 0.017282697647573397 0 0 0 -0.010379366815632535 -0.023320995898826635 -0.00073974375284599492 0 -0.00073974375284599492 0.032072692035814754 0 0 0 0.0021879240342470574 -0.1295755460894098 -0.036330897396516126 0 -0.036330897396516126 -0.0046351913639993136 0 0 0 -0.033552684363352306 -0.0093091284177542755 0.021775756594533568 0 0.021775756594533568 0.13854994481507432 0 0 0 0.032310204099330109 -0.028694596355616331 -0.010951329324349057 0 -0.010951329324349057 -0.0040626017145229953 0 0 0 -0.0081892995175348871 -0.042653852684318476 0.0070946769723218709 0 0.0070946769723218709 -0.011321240671671938 0 0 0 -0.0134937733389976 -0.039664943608062969 0.0075664331502412873 0 0.0075664331502412873 -0.011087827881983873 0 0 0 -0.012688192872511713 -0.031303177428687157 0.020500848792747717 0 0.020500848792747717 0.0050014861751250805 0 0 0 -0.006575422813390297 -0.029848805102729248 -0.030405977977695398 0 -0.030405977977695398 0.0468571473541326 0 0 0 0.004252085562850727 -0.042804305308059898 0.013031476585240696 0 0.013031476585240696 0.011367957860166547 0 0 0 -0.0078590868619733256 -0.052430778991973633 0.010219963940765081 0 0.010219963940765081 0.010226406551598784 0 0 0 -0.010551093110093715 -0.043248237647919539 0.0068514817984230399 0 0.0068514817984230399 -0.0095443695083058666 0 0 0 -0.01319815178905636 -0.11510855707733955 0.0036699623875147275 0 0.0036699623875147275 -0.0022974499805352433 0 0 0 -0.029351501764468709 -0.07250292411020863 -0.0089051400278977247 0 -0.0089051400278977247 0.02202222420636335 0 0 0 -0.012620174975961337 -0.051624899836274496 -0.013281377555339313 0 -0.013281377555339313 0.026118220835689987 0 0 0 -0.0063766697501461134 -0.12685628928455572 0.0038955552028674401 0 0.0038955552028674401 -0.0055212393128557247 0 0 0 -0.03309438214935282 0.044887594016680382 0.11027450698079411 0 0.11027450698079411 0.082642934841259508 0 0 0 0.031882632214484924 -0.028118863115558668 0.036940988899981902 0 0.036940988899981902 0.012139399412937735 0 0 0 -0.0039948659256556773 -0.024282116201083559 -0.033595584883270996 0 -0.033595584883270996 0.008507827895976483 0 0 0 -0.0039435720762768245 -0.063499260764354554 -0.0014476060623785873 0 -0.0014476060623785873 0.010771041917307572 0 0 0 -0.013182054711761731 -0.046901775974040875 0.0022882115162350877 0 0.0022882115162350877 -0.018279454357623997 0 0 0 -0.016295307582916217 -0.0095052728197567438 -0.0024896544062047235 0 -0.0024896544062047235 0.03167570257605401 0 0 0 0.0055426074390743235 -0.040413280824944386 -0.013571240773816426 0 -0.013571240773816426 0.0099689826470522602 0 0 0 -0.0076110745444731287 -0.046102222071298771 -0.02147780593694254 0 -0.02147780593694254 -0.01289375804926407 0 0 0 -0.014748995030140655 -0.050754340060689559 0.0055387210399480517 0 0.0055387210399480517 -0.0019983817270836264 0 0 0 -0.013188180446943297 -0.10033585265827921 -0.025499482264892626 0 -0.025499482264892626 0.0005302643090618897 0 0 0 -0.024951397087304206 -0.080829622971842041 -0.030891015849480508 0 -0.030891015849480508 0.0070719577532869504 0 0 0 -0.018439416304638745 -0.04581341734983406 0.00032593133237847073 0 0.00032593133237847073 -0.015276212676334496 0 0 0 -0.015272407506542138 -0.11184604253514974 0.062223212439190045 0 0.062223212439190045 0.011200309394412855 0 0 0 -0.025161433285183943 -0.15073582914507955 0.051895764544301226 0 0.051895764544301226 -0.00071433860702541097 0 0 0 -0.037862541938026295 -0.012095135363461684 0.007200071696819299 0 0.007200071696819299 0.043727299511251205 0 0 0 0.0079080410369474219 -0.014334807583166131 -0.013666207321484936 0 -0.013666207321484936 0.083752052263861287 0 0 0 0.017354311170173775 -0.027020323779376833 -0.020907339592484586 0 -0.020907339592484586 0.015219487565021117 0 0 0 -0.0029502090535888925 -0.032644818888052207 -0.0024653215769117054 0 -0.0024653215769117054 -0.0088040341352466633 0 0 0 -0.010362213255824704 0.011906948362988168 0.051491918834158351 0 0.051491918834158351 0.14228989266334091 0 0 0 0.038549210256582284 -0.053743793226329287 -0.0072443124658188481 0 -0.0072443124658188481 -0.017791616953966794 0 0 0 -0.017883852545074037 -0.068353610617953628 -0.011215564536239619 0 -0.011215564536239619 0.046695802627417543 0 0 0 -0.0054144519976340039 0.031691368189355251 0.035576213777395282 0 0.035576213777395282 0.031154618313139704 0 0 0 0.015711496625623877 -0.063755541000317606 -0.0019674596924057434 0 -0.0019674596924057434 0.0085735585964178823 0 0 0 -0.013795495600974938 -0.024605623394533982 0.041876647421251523 0 0.041876647421251523 0.020805680495414425 0 0 0 -0.00094998572478011134 -0.024416500221565718 -0.027891796748128916 0 -0.027891796748128916 0.0058591834451056091 0 0 0 -0.0046393291941149162 -0.062149010033079571 -0.00018780695727205546 0 -0.00018780695727205546 -0.0063617862445548845 0 0 0 -0.017127699069408628 -0.093577472567798456 -0.022646495109735966 0 -0.022646495109735966 0.073661656054413771 0 0 0 -0.0049789541283461747 -0.025412373508713948 0.032647650619360924 0 0.032647650619360924 0.087925905623762457 0 0 0 0.015628383028762016 -0.023358045957679208 -0.013941265471325792 0 -0.013941265471325792 0.0028581075214244578 0 0 0 -0.005124984609063965 -0.17036148741340751 0.0020740863567179904 0 0.0020740863567179904 0.0013783676565957692 0 0 0 -0.042245779939202963 -0.29211462060888593 -0.0090618793957546635 0 -0.0090618793957546635 0.002527228151904648 0 0 0 -0.072396848114245335 -0.046008838654005846 0.030765875850153127 0 0.030765875850153127 0.13170419855991922 0 0 0 0.021423839976478343 -0.099079792623633187 0.0057562676308207661 0 0.0057562676308207661 -0.00047305006997278021 0 0 0 -0.024888210673401509 0.015393035616077924 -0.0016111935596033744 0 -0.0016111935596033744 0.077182426948918401 0 0 0 0.023143865641249109 0.0079447831347021491 0.001354459689461629 0 0.001354459689461629 0.096536847650786406 0 0 0 0.02612040769637225 0.0049170333539440003 -0.0038717171073717194 0 -0.0038717171073717194 0.18346882012604193 0 0 0 0.047096463369996511 0.020472967038722978 -0.002049980035143617 0 -0.002049980035143617 0.16049674442954553 0 0 0 0.04524242786706717 -0.018724818139017468 0.0077761399789725294 0 0.0077761399789725294 0.01422657740113259 0 0 0 -0.0011245601844712405 -0.019724254282178832 -0.015713747582223131 0 -0.015713747582223131 0.046083076998560291 0 0 0 0.0065897056790953368 -0.027168143138092127 0.0055452475913944643 0 0.0055452475913944643 0.1320946640185896 0 0 0 0.026231630220124397 -0.022616339629912996 -0.01379463140532361 0 -0.01379463140532361 0.06466131577808687 0 0 0 0.010511244037043399 -0.093145560706108396 0.0054794419951314371 0 0.0054794419951314371 0.065186169425664908 0 0 0 -0.0069898478201108616 -0.0028468264974916835 0.028650464651061469 0 0.028650464651061469 0.074487841848472236 0 0 0 0.017910253837745138 -0.011467660021116544 0.009100664895121624 0 0.009100664895121624 0.0014345337862984309 0 0 0 -0.0025082815587040841 -0.0088584766275381366 -0.0080246438919133745 0 -0.0080246438919133745 -0.00095336219858799254 0 0 0 -0.0024529597065316988 -0.0065135786482637403 -0.025365098986117468 0 -0.025365098986117468 0.034145707161252759 0 0 0 0.0069080321282473101 -0.054632960674296335 0.0041844019672357046 0 0.0041844019672357046 -0.0029875324827538996 0 0 0 -0.014405123289262585 -0.019606749055258776 0.027154684522699313 0 0.027154684522699313 0.087271045917223011 0 0 0 0.01691607421549074 -0.0047492855907296377 -0.0069353664160183293 0 -0.0069353664160183293 -0.00098895537453752569 0 0 0 -0.0014345602413168429 -0.077123044208754918 -0.01086323918033349 0 -0.01086323918033349 0.091792602919707922 0 0 0 0.0036673896777382597 -0.0053352464548379608 0.008001532899301278 0 0.008001532899301278 -0.0003013517967138668 0 0 0 -0.0014091495628871797 -0.017855185267175777 -0.025256440308955463 0 -0.025256440308955463 0.045052679071489354 0 0 0 0.0067993734510782833 -0.016838527021558747 -0.033627501289337336 0 -0.033627501289337336 0.026941241359246026 0 0 0 0.0025256785844218754 -0.062998444577791968 -0.029728359111497876 0 -0.029728359111497876 0.0087771374648502043 0 0 0 -0.01355532677823551 -0.062517135455811085 -0.028716335145616334 0 -0.028716335145616334 0.0096136664543592376 0 0 0 -0.013225867250362927 -0.054062747499569644 -0.011315554700329817 0 -0.011315554700329817 -0.010800468397527407 0 0 0 -0.016215803974274287 -0.033260642588031963 0.092972624417252403 0 0.092972624417252403 0.026806923367328594 0 0 0 -0.001613429805175759 -0.093158719949679586 -0.011218610427061071 0 -0.011218610427061071 -0.0005624506416886943 0 0 0 -0.023430292647842105 0.001403252984103591 -0.021527204699805305 0 -0.021527204699805305 0.053800301413078511 0 0 0 0.013800888599295548 -0.042949348921767799 -0.0095541787027931258 0 -0.0095541787027931258 0.035560985673425666 0 0 0 -0.0018470908120855334 -0.032284748297423595 0.023844671615720788 0 0.023844671615720788 0.026146315960232022 0 0 0 -0.0015346080842978879 -0.036861894413692475 -0.01254699790631085 0 -0.01254699790631085 -0.0099838701766370441 0 0 0 -0.01171144114758238 -0.038648156164838243 -0.012997212273977557 0 -0.012997212273977557 -0.0078855657976839577 0 0 0 -0.011633430490630536 -0.31469483771291418 0.0084987901719704943 0 0.0084987901719704943 0.0093450086815274336 0 0 0 -0.076337457257846686 -0.17250789961795304 -0.0042143506676045883 0 -0.0042143506676045883 0.0041870349670460882 0 0 0 -0.04208021616272678 -0.058803828801240049 -0.0060051266721379126 0 -0.0060051266721379126 -0.019603482116932223 0 0 0 -0.019601827729543071 -0.066137804002379397 0.0022783294127368967 0 0.0022783294127368967 -0.02204540542412976 0 0 0 -0.02204580235662729 -0.022754162892561686 0.0079047633044367349 0 0.0079047633044367349 0.012324016173363872 0 0 0 -0.0026075366797994465 -0.044156020116961549 0.020084805563037128 0 0.020084805563037128 0.030597963681563096 0 0 0 -0.0033895141088496269 -0.036341934828805295 0.014878643004548026 0 0.014878643004548026 0.0081941997889907678 0 0 0 -0.0070369337599536438 -0.16416730416677175 -0.016505110791018473 0 -0.016505110791018473 -0.014615364286675283 0 0 0 -0.044695667113361745 -0.12686893959567247 0.00017414743920009246 0 0.00017414743920009246 -0.0089714441263934463 0 0 0 -0.033960095930516486 0.050114235076174518 0.044648793263414144 0 0.044648793263414144 0.040322203348270413 0 0 0 0.022609109606111399 -0.13958251142481298 -0.01532913229907831 0 -0.01532913229907831 -0.0090885735691555742 0 0 0 -0.037167771248492146 -0.11457080872234755 -9.1775731278220807e-05 0 -9.1775731278220807e-05 -0.0063514468315685468 0 0 0 -0.030230563888479015 -0.0427473804264073 -0.0073866509042228856 0 -0.0073866509042228856 0.0038312559187665407 0 0 0 -0.0097290311269101482 0.034005939534215823 0.13315547551685991 0 0.13315547551685991 0.086427783676225278 0 0 0 0.030108430802610275 -0.027676875567409949 0.011902328472464217 0 0.011902328472464217 -0.0014230516697436579 0 0 0 -0.0072749818092884069 -0.037652650423578043 -0.0090131361753766348 0 -0.0090131361753766348 0.029633159775262874 0 0 0 -0.0020048726620787993 -0.092548581833161433 -0.0090993185930442477 0 -0.0090993185930442477 -0.030843900338692446 0 0 0 -0.030848120542963466 -0.086833925678838492 -0.00017391953661877697 0 -0.00017391953661877697 -0.028939043464174474 0 0 0 -0.028943242285753241 -0.15736808348307443 0.0039365304692267284 0 0.0039365304692267284 -0.00065933645448784661 0 0 0 -0.039506854984390556 -0.24520414218478981 -0.012372709916702598 0 -0.012372709916702598 -0.0013247154441138331 0 0 0 -0.061632214407225897 -0.09435620484842569 -0.01833312758931166 0 -0.01833312758931166 0.033383424721144195 0 0 0 -0.015243195031820395 0.0049619991505526206 -0.021815364335302401 0 -0.021815364335302401 0.033995262927987158 0 0 0 0.0097393155196349168 -0.088497729394371227 -0.017440177927513914 0 -0.017440177927513914 0.069229534395648343 0 0 0 -0.0048170487496807697 -0.052739650774178547 0.014324464160320674 0 0.014324464160320674 0.041102789444438848 0 0 0 -0.0029092153324349525 -0.066313400562858546 0.0071864641124824314 0 0.0071864641124824314 0.046995248728501547 0 0 0 -0.004829537958589274 -0.012963208047231488 0.024772335109244009 0 0.024772335109244009 0.045119153501912812 0 0 0 0.0080389863636703401 0.0013584227472935757 0.020130559345286528 0 0.020130559345286528 0.026425022080815597 0 0 0 0.0069458612070272853 -0.023063926699542492 -0.012518801243896649 0 -0.012518801243896649 0.0040680607539809177 0 0 0 -0.0047489664863903935 -0.078507993500056175 -0.022830523723974205 0 -0.022830523723974205 0.035100175247709337 0 0 0 -0.010851954563086696 -0.095324781724898833 -0.042258205787461894 0 -0.042258205787461894 0.08495171987500566 0 0 0 -0.0025932654624732931 -0.030233914883532269 -0.070444437242179414 0 -0.070444437242179414 0.135679478931645 0 0 0 0.026361391012028175 -0.15154613194601327 0.003331823751109686 0 0.003331823751109686 -0.0010910119705345167 0 0 0 -0.038159285979136981 -0.22358591159936547 -0.010571317572485093 0 -0.010571317572485093 -0.0017995742341019305 0 0 0 -0.056346371458366871 -0.0013559098638248742 -0.0022804543258082566 0 -0.0022804543258082566 0.0043924673642275923 0 0 0 0.00075913937510059624 -0.033563356031817371 -0.031306900128354187 0 -0.031306900128354187 0.10640355255864786 0 0 0 0.018210049131707651 -0.039254268544188425 0.012181651563938363 0 0.012181651563938363 -0.0032305493259728209 0 0 0 -0.010621204467540311 -0.134021697541646 -0.014741969248356092 0 -0.014741969248356092 -0.019850061235945137 0 0 0 -0.038467939694397775 -0.11072614444831852 -0.00035657805405467022 0 -0.00035657805405467022 -0.013853815487786345 0 0 0 -0.031144989984026216 -0.064427339339713063 -0.00093514971026032942 0 -0.00093514971026032942 -0.00765914473474541 0 0 0 -0.018021621018614629 -0.088323383428391286 -0.012874910558712808 0 -0.012874910558712808 0.075074718843146676 0 0 0 -0.0033121661463111716 -0.025757061539428583 -0.012211753396798641 0 -0.012211753396798641 0.053001572546351738 0 0 0 0.0068111277517307611 -0.066691900326564649 0.0013494035908385021 0 0.0013494035908385021 -0.0046495699756760652 0 0 0 -0.017835367575560181 -0.070287667324432368 0.017913451492486576 0 0.017913451492486576 0.00075697504390115355 0 0 0 -0.017382673070132748 -0.025532994987433999 -0.023609400266930258 0 -0.023609400266930258 0.060901395093734711 0 0 0 0.0088421000265751504 -0.01869761210655857 -0.02208300830122667 0 -0.02208300830122667 0.052121925947339554 0 0 0 0.0083560784601952043 -0.061179049052956069 -0.036307835312115691 0 -0.036307835312115691 0.049127612142850663 0 0 0 -0.0030128592275263932 -0.060193209494842081 -0.020922937053274332 0 -0.020922937053274332 0.040652718431498092 0 0 0 -0.0048851227658360252 -0.065050384979438672 -0.0072306108868449952 0 -0.0072306108868449952 0.032473037041200331 0 0 0 -0.0081443369845595956 -0.084725849489997687 -0.013652291208253828 0 -0.013652291208253828 0.070690747583219388 0 0 0 -0.0035087754766945922 -0.0008601129492027404 0.022920202894457731 0 0.022920202894457731 0.15980898317127856 0 0 0 0.039737217555518622 0.00023432886369301187 0.00065153045648647101 0 0.00065153045648647101 0.0013418655491701514 0 0 0 0.00039404860321545776 -0.0042270433617918046 -0.019783439307289541 0 -0.019783439307289541 0.0839772257250887 0 0 0 0.019937545590824501 0.00057322063012377189 -0.0013279434500992338 0 -0.0013279434500992338 0.0018222810997954308 0 0 0 0.0005988754324796064 -0.066102860348273049 -0.0016817599132051744 0 -0.0016817599132051744 0.035094509616037037 0 0 0 -0.007752087683059003 -0.068179937088575643 -0.0055063132846755822 0 -0.0055063132846755822 0.022637642612081274 0 0 0 -0.011385573619123603 -0.063431335612699979 -0.019275359578899739 0 -0.019275359578899739 0.032523925462441039 0 0 0 -0.0077268525375646935 -0.19697570571730186 -0.016321375298399096 0 -0.016321375298399096 0.0032944153529059494 0 0 0 -0.048420322591098935 -0.22545078478892028 -0.026091487899584653 0 -0.026091487899584653 0.0042634502640256922 0 0 0 -0.055296833631223591 -0.059859779359116481 -0.027082814433623197 0 -0.027082814433623197 0.0027549824881051288 0 0 0 -0.014276199217752895 -0.075617069105854431 -0.0068725780588839713 0 -0.0068725780588839713 0.0091609174684357531 0 0 0 -0.016614037909354645 -0.036440904571479971 -0.04901863470418813 0 -0.04901863470418813 0.075445981000930445 0 0 0 0.0097512691073626395 -0.10757272468800208 0.00082567306528141121 0 0.00082567306528141121 -0.01191002567477065 0 0 0 -0.029870687590693175 -0.09390726739415052 0.000287831556393673 0 0.000287831556393673 -0.015474831150349141 0 0 0 -0.027345524636124913 -0.10105637647265839 -0.014202930010318271 0 -0.014202930010318271 -0.023316939038671176 0 0 0 -0.031093328877832376 -0.12679025193526502 -0.016999122867182994 0 -0.016999122867182994 -0.021383917590158109 0 0 0 -0.037043542381355772 -0.076683254916853572 -0.029961992120127345 0 -0.029961992120127345 0.00056755606997027641 0 0 0 -0.019028924711720796 -0.06101329735455463 -0.030603386553160854 0 -0.030603386553160854 0.0026192098322717072 0 0 0 -0.014598521880570647 -0.062319690990767958 -0.0049079670612160115 0 -0.0049079670612160115 -0.027034881018351498 0 0 0 -0.022338643002279866 -0.060023459952540492 -0.0067750851485902661 0 -0.0067750851485902661 -0.025951745916497831 0 0 0 -0.021493801467259582 -0.066261545463211155 0.0034135331977901999 0 0.0034135331977901999 -0.016438947719627225 0 0 0 -0.020675123295709599 -0.070725116508758415 0.00049301715191167063 0 0.00049301715191167063 -0.021808492867325158 0 0 0 -0.023133402344020899 -0.032543445681294969 0.046102996954529463 0 0.046102996954529463 0.025889847123425014 0 0 0 -0.0016633996394674888 -0.033042484534569816 -0.031656611928452483 0 -0.031656611928452483 -0.00034217810273151628 0 0 0 -0.0083461656593253331 -0.08656561751226298 -0.0012074580860759092 0 -0.0012074580860759092 -0.0124505559342762 0 0 0 -0.024754043361634809 -0.07693067631426645 -0.011174402837671715 0 -0.011174402837671715 -0.022970993519606658 0 0 0 -0.024975417458468274 -0.061744509544448399 -0.012205952012460247 0 -0.012205952012460247 0.016695261701133196 0 0 0 -0.011262311960828802 -0.098742105690583504 0.0003633818940425599 0 0.0003633818940425599 -0.0091797781299114145 0 0 0 -0.026980470955123716 -0.10688700656221164 -0.016373012794038508 0 -0.016373012794038508 -0.015149867406264936 0 0 0 -0.030509218492119163 -0.12094859441755587 -0.020762295401899833 0 -0.020762295401899833 0.13157934484629352 0 0 0 0.0026576876071844474 -0.069341295463715868 -0.008477716997013697 0 -0.008477716997013697 0.017996887738492715 0 0 0 -0.012836101931305806 -0.11227579037535763 -0.0076742659382281371 0 -0.0076742659382281371 -0.037438716102681409 0 0 0 -0.037428626619509762 -0.097669609852734124 -0.0026206529149640123 0 -0.0026206529149640123 -0.032564675074584611 0 0 0 -0.032558571231829682 0.0080225117520552613 0.016364375032573954 0 0.016364375032573954 0.049822214454641911 0 0 0 0.014461181551674307 -0.0085697588542630321 -0.0023424417954888144 0 -0.0023424417954888144 -0.014324031531419479 0 0 0 -0.0057234475964205167 -0.086478694903964579 -0.0029250207479145363 0 -0.0029250207479145363 0.012807087842364617 0 0 0 -0.018417901765399966 -0.0021861269780987791 -0.036825958451894847 0 -0.036825958451894847 0.027656640745264527 0 0 0 0.0063676284417914508 -0.06724725477951457 0.00042753491127960931 0 0.00042753491127960931 0.035389972893938991 0 0 0 -0.0079643204713938827 -0.075438031726410754 -0.015969365500705615 0 -0.015969365500705615 0.038547043486467147 0 0 0 -0.0092227470599858946 -0.1917643496955819 -0.0027940454816334712 0 -0.0027940454816334712 -0.015342712676617951 0 0 0 -0.051776765593049966 -0.14695390811940312 -0.007553427699714052 0 -0.007553427699714052 -0.01271560499556397 0 0 0 -0.039917378278741769 -0.027596767816884679 -0.027022610502498851 0 -0.027022610502498851 0.04824401892779917 0 0 0 0.0051618127777286055 -0.060189418753862356 0.0070755490782091193 0 0.0070755490782091193 0.023271498638259013 0 0 0 -0.0092294800289008331 -0.067612564405493139 -0.010190507210324787 0 -0.010190507210324787 0.01139828180327479 0 0 0 -0.014053570650554587 -0.11724121699234613 -0.0025156860179599422 0 -0.0025156860179599422 0.0076227084994064387 0 0 0 -0.027404627123234937 -0.10653217535051474 0.02144342535775734 0 0.02144342535775734 0.0008975510426316724 0 0 0 -0.026408656076970849 -0.070850169165319526 -0.009300167226063083 0 -0.009300167226063083 0.035299777900606899 0 0 0 -0.0088875978161781499 -0.067064727334510008 -0.026438498317986836 0 -0.026438498317986836 0.016415526721066775 0 0 0 -0.012662300153360839 -0.070190794523254496 -0.0051856728804449137 0 -0.0051856728804449137 0.013525929647587226 0 0 0 -0.014166216218916783 -0.057784216603789136 0.005977632607219327 0 0.005977632607219327 0.029243729846206622 0 0 0 -0.0071351216893956364 -0.069776117562613899 -0.029329366452709116 0 -0.029329366452709116 0.019932842208516099 0 0 0 -0.012460818838524401 0.045489360758799099 0.021301967057535093 0 0.021301967057535093 0.12269868733444073 0 0 0 0.042047012023309946 -0.07945390462949134 0.0005379702140263648 0 0.0005379702140263648 0.0056356121810881565 0 0 0 -0.018454573112100803 -0.055475692981025393 0.014318375772070893 0 0.014318375772070893 -0.0033729181547546006 0 0 0 -0.014712152783944887 -0.026843642625796305 -0.01935716912237917 0 -0.01935716912237917 0.067108000525117006 0 0 0 0.010066089474830009 -0.013435827352228702 -0.018904764242946626 0 -0.018904764242946626 0.0478704070737479 0 0 0 0.0086086449303796053 -0.15444800664233213 -0.025902535730401771 0 -0.025902535730401771 0.041892985822592127 0 0 0 -0.028138755204935001 -0.0067932426677125846 -0.020838763689822348 0 -0.020838763689822348 -0.016716782066887592 0 0 0 -0.0058775061836500719 -0.14837636848347047 0.0055957412680569529 0 0.0055957412680569529 0.0024363933440618712 0 0 0 -0.036484993784852177 -0.24199482048610024 -0.0235913134959507 0 -0.0235913134959507 0.0073465376254316095 0 0 0 -0.058662070715167269 -0.14217190476495523 -0.0015688952368572151 0 -0.0015688952368572151 0.00101701392957676 0 0 0 -0.03528872270884463 -0.23706262611733808 -0.0035859378427495203 0 -0.0035859378427495203 0.0039163627243340438 0 0 0 -0.058286565848250982 -0.12677361990038138 -0.0074432271308341961 0 -0.0074432271308341961 -0.017875190115603262 0 0 0 -0.036162202503996169 -0.16199715117262667 -0.0021664959651876356 0 -0.0021664959651876356 -0.021082993939516657 0 0 0 -0.045770036278035831 -0.077651245043526246 -0.020521419433915528 0 -0.020521419433915528 0.052269783580108559 0 0 0 -0.0063453653658544287 -0.072013616129874239 -0.031103796510515092 0 -0.031103796510515092 0.06594783260103862 0 0 0 -0.0015164458822088528 -0.020512865513557604 -0.0060085232166590674 0 -0.0060085232166590674 0.073365421100466621 0 0 0 0.013213138896727317 -0.016240160757301031 -0.00029027787729957177 0 -0.00029027787729957177 0.14327186903876477 0 0 0 0.031757927070365899 -0.032556391393810197 0.0066249005520823967 0 0.0066249005520823967 0.047274729252623604 0 0 0 0.0036795844647033449 -0.024808164875477351 0.0025577230102954984 0 0.0025577230102954984 0.12434975667122539 0 0 0 0.024885397948936988 -0.035551198835534481 -0.012555284029032054 0 -0.012555284029032054 0.063419393292879045 0 0 0 0.0069670486143360577 -0.072761704103523589 -0.0051313054996932062 0 -0.0051313054996932062 0.014397599254252557 0 0 0 -0.014591026212317728 -0.052174777670219247 -0.031768607344705796 0 -0.031768607344705796 0.055285681686417565 0 0 0 0.00077772600404960035 -0.074199438708220933 -0.033423220521119706 0 -0.033423220521119706 0.050394291549289205 0 0 0 -0.0059512867897329458 -0.071670660151813559 -0.0048183583523262637 0 -0.0048183583523262637 0.063696767298857468 0 0 0 -0.0019934732132390366 -0.14237306035379538 0.021287041943922926 0 0.021287041943922926 -0.0026236855740187082 0 0 0 -0.036249186481953188 -0.084795194584508335 -0.012786374987928756 0 -0.012786374987928756 0.065140568093343815 0 0 0 -0.0049136566227910849 -0.0068041833355869108 -0.014451695364519263 0 -0.014451695364519263 0.19472201542948231 0 0 0 0.046979458023473863 0.052090340178236938 -0.021037071537229529 0 -0.021037071537229529 0.10641459434820288 0 0 0 0.039626233631609997 0.0019258741445570271 -0.019551643128426721 0 -0.019551643128426721 0.040674889817434501 0 0 0 0.010650190990497799 -0.26332794993445474 -0.017871697703352618 0 -0.017871697703352618 0.0059356415793783146 0 0 0 -0.064348077088769107 -0.15539947281405106 0.0054453687262416284 0 0.0054453687262416284 0.001594159679361308 0 0 0 -0.03845132828367246 -0.087480326516957099 -0.01209583599410771 0 -0.01209583599410771 0.07071359031770913 0 0 0 -0.0041916840498120028 -0.092563012978782666 0.049180084799035129 0 0.049180084799035129 -0.0068339112989947992 0 0 0 -0.024849231069444366 -0.064464434031862528 0.045718439897548535 0 0.045718439897548535 0.0025322816833108774 0 0 0 -0.015483038087137801 -0.037056542635773515 -0.03682031389625684 0 -0.03682031389625684 0.02645599488658501 0 0 0 -0.0026501369372972094 -0.028430456670468493 -0.034359268314237523 0 -0.034359268314237523 0.02933135687502068 0 0 0 0.00022522505113810255 -0.03419655527946952 -0.021189561720266425 0 -0.021189561720266425 0.075201405286984935 0 0 0 0.010251212501878881 -0.021292593898387224 0.010410217275743375 0 0.010410217275743375 0.00077022317195130086 0 0 0 -0.0051305926816089809 -0.084907017177485444 0.00049923749379841495 0 0.00049923749379841495 -0.013220707194135248 0 0 0 -0.024531931092905173 -0.082915127469807767 -0.0088778763501145309 0 -0.0088778763501145309 -0.022893455047099737 0 0 0 -0.026452145629226872 -0.040147823103163338 -0.041082509055589522 0 -0.041082509055589522 0.013947106281087418 0 0 0 -0.0065501792055189245 -0.041044514323274273 -0.040724288680269505 0 -0.040724288680269505 0.013684399002980463 0 0 0 -0.006840028830073841 -0.043726888636062194 -0.039196765429561742 0 -0.039196765429561742 0.010572676671196601 0 0 0 -0.0082885529912164191 -0.046477171718006027 -0.043470098263104773 0 -0.043470098263104773 0.0098218591450152104 0 0 0 -0.0091638281432478985 -0.059482903773757784 0.059731988857604446 0 0.059731988857604446 -0.00015571711076467487 0 0 0 -0.014909655221130663 -0.047358211902399874 0.055124405340962301 0 0.055124405340962301 0.0032138557343930011 0 0 0 -0.011036089042001828 -0.090968805118334439 0.0018932178340078847 0 0.0018932178340078847 -0.023931724626939228 0 0 0 -0.028725132436318416 -0.10304759497661685 -0.014689449260438421 0 -0.014689449260438421 -0.030633277619327069 0 0 0 -0.033420218148985985 -0.1275069324473781 -0.017698138746389147 0 -0.017698138746389147 0.01099116985624593 0 0 0 -0.029128940647783097 -0.21284687113002942 0.036233061761455132 0 0.036233061761455132 0.016770194651866133 0 0 0 -0.04901916911954074 -0.11693649676472756 0.0078257758744791073 0 0.0078257758744791073 0.0022982437934479516 0 0 0 -0.028659563242819958 -0.056146528051996589 0.0060758476758873128 0 0.0060758476758873128 0.011018398881685541 0 0 0 -0.011282032292577777 -0.0071372259938015103 -0.013743467977948565 0 -0.013743467977948565 0.0095004670899403454 0 0 0 0.00059081027403473652 -0.17523759126827348 -0.026088657722815566 0 -0.026088657722815566 0.0020448466689457212 0 0 0 -0.043298186149831899 -0.21990765479290009 -0.021447517230291997 0 -0.021447517230291997 -0.0034950970612694088 0 0 0 -0.055850687963542381 -0.043809391621387375 5.9295987653045076e-05 0 5.9295987653045076e-05 -0.022318890976598699 0 0 0 -0.016532070649496512 -0.055201435377464386 0.010236133134278236 0 0.010236133134278236 0.090088007766683686 0 0 0 0.0087216430973048042 -0.15293352330399029 -0.0034616038833376606 0 -0.0034616038833376606 0.00070061148933686646 0 0 0 -0.038058227953663371 -0.26724070461118771 0.0050220036441256388 0 0.0050220036441256388 0.00075809297099964368 0 0 0 -0.066620652910046846 -0.095609497936992194 -0.0093134901375389045 0 -0.0093134901375389045 0.011881103178815466 0 0 0 -0.020932098689544154 -0.13890799181694408 -0.022658611797167126 0 -0.022658611797167126 -0.0152150973953845 0 0 0 -0.038530772303082175 -0.10877505405132586 -0.022240417384343143 0 -0.022240417384343143 -0.010142481594833552 0 0 0 -0.029729383911539842 -0.013842092204511269 0.11283839497691153 0 0.11283839497691153 0.22207620211541945 0 0 0 0.05205852747772699 -0.20745422536206323 -0.0097609678416803736 0 -0.0097609678416803736 0.00016470736845353162 0 0 0 -0.051822379498402488 -0.141416498248776 0.0031793422867418958 0 0.0031793422867418958 0.00057593455913240721 0 0 0 -0.035210140922410892 -0.040338102729970349 -0.016525988793994167 0 -0.016525988793994167 -0.011356304599225986 0 0 0 -0.01292360183229907 -0.045050793081285012 -0.017761508991078055 0 -0.017761508991078055 -0.0099593923583729538 0 0 0 -0.013752546359914575 -0.06366877853572292 0.00493257562625615 0 0.00493257562625615 0.050470577604626671 0 0 0 -0.0032995502327740392 -0.05783772256593029 -0.012344652569231885 0 -0.012344652569231885 0.0080008196113472985 0 0 0 -0.012459225738645774 -0.042461442796368959 0.016115340430636459 0 0.016115340430636459 0.0094396130083291008 0 0 0 -0.008255457447009968 -0.023257015435380279 0.034785959865701266 0 0.034785959865701266 0.20615457354124178 0 0 0 0.045724389526465514 -0.11508688905451751 0.0060313174021776605 0 0.0060313174021776605 0.0043778727445815679 0 0 0 -0.027677254077483986 -0.068324083032053159 -0.0068385002588623248 0 -0.0068385002588623248 0.009018477935770014 0 0 0 -0.014826401274070811 0.042941206147364408 0.019231223229334675 0 0.019231223229334675 0.080143470559659313 0 0 0 0.030771169176755819 -0.087181846618560932 -0.013529545227121131 0 -0.013529545227121131 -0.0036994219951551263 0 0 0 -0.022720317153428878 -0.3200530548978564 -0.00037290108166179725 0 -0.00037290108166179725 -1.4212289141002366e-05 0 0 0 -0.080016816796749352 -0.17806332458683261 -0.0014349100515763575 0 -0.0014349100515763575 -0.00030473003110897956 0 0 0 -0.044592013654485396 -0.084480499298538222 -0.006742191986128257 0 -0.006742191986128257 0.081917679941893862 0 0 0 -0.00064070483916109713 -0.13985546021979917 -0.018172826005297411 0 -0.018172826005297411 -0.0085205413295719873 0 0 0 -0.037094000387342785 -0.1636127714124877 -0.025812330553807768 0 -0.025812330553807768 -0.0044618610847876328 0 0 0 -0.04201865812431882 0.010021233536113588 0.029855723655574908 0 0.029855723655574908 0.050348923737165485 0 0 0 0.015092539318319803 -0.059002156526826832 -0.013811687639052508 0 -0.013811687639052508 -0.00033553955358733845 0 0 0 -0.014834424020103265 -0.05573466976156051 -0.022456363029010828 0 -0.022456363029010828 0.01853649399237578 0 0 0 -0.0092995439422962206 -0.023612253219927215 0.021383746615013906 0 0.021383746615013906 0.14556720422257285 0 0 0 0.030488737750661521 -0.018795913740374148 -0.0073347107819286992 0 -0.0073347107819286992 0.0015312530598929897 0 0 0 -0.0043161651701202342 -0.084129090887312422 -0.032242521196641616 0 -0.032242521196641616 0.050991260342164668 0 0 0 -0.0082844576362868794 -0.051746002742123653 -0.018571652951237527 0 -0.018571652951237527 0.060405261907028329 0 0 0 0.0021648147912261551 -0.071762572818261872 -0.0087624885649376372 0 -0.0087624885649376372 0.021748213938445171 0 0 0 -0.012503589719954133 -0.049084176162374149 0.012871187718662469 0 0.012871187718662469 -0.0014255972672128081 0 0 0 -0.012627443357396739 -0.022839497370113815 -0.023158435987703063 0 -0.023158435987703063 0.075001322326434749 0 0 0 0.013040456239080234 -0.079226069410182801 -0.00017606068424239237 0 -0.00017606068424239237 -0.0036903323068532279 0 0 0 -0.020729100429259004 -0.010691118340482988 -0.00050814823641637252 0 -0.00050814823641637252 0.072092164846152718 0 0 0 0.015350261626417408 -0.13112705291497467 0.0047134980662790604 0 0.0047134980662790604 0.00074997030679968546 0 0 0 -0.032594270652043705 -0.10159922808273719 -0.026155803912888027 0 -0.026155803912888027 0.034853860096041966 0 0 0 -0.016686341996673792 -0.11495208676186255 0.0046182967227870464 0 0.0046182967227870464 -0.0043621315014186202 0 0 0 -0.029828554565820294 -0.090488504712591289 -0.012972173769759343 0 -0.012972173769759343 0.0018243286322707775 0 0 0 -0.022166044020080045 -0.14188240712816952 0.003648556281102916 0 0.003648556281102916 -0.00079067789056586069 0 0 0 -0.035668271254683845 -0.12974363452810744 0.0054073442367796321 0 0.0054073442367796321 3.8889979143724718e-05 0 0 0 -0.03242618613724095 -0.10092216551602912 0.063375576659753463 0 0.063375576659753463 -0.0010420553245100717 0 0 0 -0.025491055210134672 -0.083822063299832522 -0.0069710116767043731 0 -0.0069710116767043731 -0.028020013810791167 0 0 0 -0.027960519277655922 -0.091710334956067591 -0.015267809427110809 0 -0.015267809427110809 -0.027068668531092344 0 0 0 -0.029694750871789979 -0.086491687857755489 0.0026890671258352527 0 0.0026890671258352527 -0.018664673046016763 0 0 0 -0.02628909022594306 -0.083599043876557005 -0.0010040693873259545 0 -0.0010040693873259545 -0.022470381490995058 0 0 0 -0.02651735634188801 -0.064837341258482506 -0.016584565999666456 0 -0.016584565999666456 0.028003145408308561 0 0 0 -0.0092085489625434586 -0.047682456450100684 -0.047295252850883332 0 -0.047295252850883332 0.069063714700686202 0 0 0 0.0053453145626463985 -0.067189572674631395 -0.033527121084049025 0 -0.033527121084049025 0.026151149865270049 0 0 0 -0.010259605702340316 -0.068203303120970671 -0.020249891871284731 0 -0.020249891871284731 0.048066992613744697 0 0 0 -0.0050340776268064658 -0.064686965863749279 -0.027442766265456608 0 -0.027442766265456608 0.023062444850606878 0 0 0 -0.010406130253285684 -0.042121209304314566 -0.00046935995149537113 0 -0.00046935995149537113 0.073492555349286226 0 0 0 0.007842836511242901 -0.041811698207398051 -0.014863718842323181 0 -0.014863718842323181 0.036196421445527038 0 0 0 -0.001403819190467781 -0.17978439198460164 0.0011745614605972775 0 0.0011745614605972775 0.0008754718076491308 0 0 0 -0.04472723004423812 -0.33087978247906413 -0.0046080808567936166 0 -0.0046080808567936166 0.0054487491057031434 0 0 0 -0.081357758343340136 -0.031550915037750815 -0.013695783111875109 0 -0.013695783111875109 0.041168167406731904 0 0 0 0.0024043130922452582 -0.03448882491226149 -0.0019172413271526523 0 -0.0019172413271526523 0.087556340043125735 0 0 0 0.013266878782716068 -0.10610624934645699 0.0024192710166816289 0 0.0024192710166816289 0.013076752933890212 0 0 0 -0.02325737410314177 -0.051368641092443421 0.00216892094523912 0 0.00216892094523912 -0.018288528129136405 0 0 0 -0.017414292305394957 -0.074023586389064519 -0.014448876591122317 0 -0.014448876591122317 -0.0081002245990098448 0 0 0 -0.020530952747018598 -0.056119602171036571 -0.0052832987018959984 0 -0.0052832987018959984 -0.016489307483460076 0 0 0 -0.018152227413624149 -0.039975464916678471 -0.066852451789980533 0 -0.066852451789980533 0.13417453124492076 0 0 0 0.023549766582060597 -0.13871113304745525 -0.0009537188565724164 0 -0.0009537188565724164 -0.0063038497073726329 0 0 0 -0.036253745688706977 -0.13072461572223093 -0.0021345978494034176 0 -0.0021345978494034176 -0.0035394802494640304 0 0 0 -0.033566023992923744 -0.16843658521585797 -0.0093409051160433555 0 -0.0093409051160433555 -0.0036558259292035211 0 0 0 -0.04302310278626538 -0.19127153377102937 -0.011135357894177432 0 -0.011135357894177432 -0.0095820346039700646 0 0 0 -0.050213392093749809 -0.14582136423110115 -0.011015831185996961 0 -0.011015831185996961 0.0013424796187151422 0 0 0 -0.036119721153096473 -0.040100704291763267 0.1078508367255202 0 0.1078508367255202 0.13945627788062476 0 0 0 0.024838893397215345 -0.0092514605414575346 -0.020267772472198131 0 -0.020267772472198131 0.043783800708215859 0 0 0 0.00863308504168947 -0.015618880177279377 -0.011015316487430926 0 -0.011015316487430926 -2.1971756027881761e-06 0 0 0 -0.0039052693382204025 -0.087204763665357801 0.0013409990788193944 0 0.0013409990788193944 -0.0043921897314006392 0 0 0 -0.02289923834918961 -0.086901276937818656 -0.0095380617824550665 0 -0.0095380617824550665 0.059723413325556862 0 0 0 -0.0067944659030654622 -0.1178258104844153 0.0040783139107884066 0 0.0040783139107884066 -0.00078742946086640675 0 0 0 -0.029653309986320417 -0.0045065671253887718 0.038797244604549697 0 0.038797244604549697 0.04198155620121824 0 0 0 0.0093687472689574225 -0.056122864569763543 0.0043492993115824856 0 0.0043492993115824856 -0.018395163259265025 0 0 0 -0.018629506957257146 -0.044137336846213786 -0.022722818215954677 0 -0.022722818215954677 -0.008223035991196434 0 0 0 -0.013090093209352442 0.032256295924122456 -0.088280743363112243 0 -0.088280743363112243 0.11050263258182594 0 0 0 0.035689732126487121 -0.25256271197094549 0.024703014561995418 0 0.024703014561995418 0.0018618901524805054 0 0 0 -0.062675205454616245 -0.044604568791940816 0.0019212020968906581 0 0.0019212020968906581 -0.018260662232095336 0 0 0 -0.015716307756009035 -0.096163269628497472 -0.0021463788114049966 0 -0.0021463788114049966 -0.024170866339949623 0 0 0 -0.03008353399211177 -0.1073360384202172 -0.0079566691195068068 0 -0.0079566691195068068 -0.02964194288439137 0 0 0 -0.034244495326152133 -0.050789958709650002 0.010810636858949819 0 0.010810636858949819 0.018795047819983521 0 0 0 -0.0079987277224166254 -0.14300235685008406 0.0026825398065741524 0 0.0026825398065741524 0.0024981760704351208 0 0 0 -0.035126045194912248 -0.234240541650242 -0.013555140217668515 0 -0.013555140217668515 0.0095520063491570384 0 0 0 -0.056172133825271406 -0.010178470499025316 0.031144725431893727 0 0.031144725431893727 0.091370551073486794 0 0 0 0.020298020143615592 -0.052048100574948686 -0.017870040778398377 0 -0.017870040778398377 -0.0032765732285326976 0 0 0 -0.01383116845087029 -0.038448190923061454 0.0045358764759426129 0 0.0045358764759426129 0.077773814556430232 0 0 0 0.0098314059083421668 -0.041633512252173044 -0.026128642854056874 0 -0.026128642854056874 0.024802125239876127 0 0 0 -0.0042078467530742292 -0.050645992838587645 0.0033251486596528185 0 0.0033251486596528185 0.039931931336396553 0 0 0 -0.0026785153755477797 -0.056207943525885345 0.0036991580228308667 0 0.0036991580228308667 0.0075691752685328115 0 0 0 -0.012159692064338134 -0.046418859744160254 -0.0010176159633242959 0 -0.0010176159633242959 -0.02313786805338815 0 0 0 -0.0173891819493871 -0.077795696570285372 -0.00091258169716402354 0 -0.00091258169716402354 0.0030168664106642283 0 0 0 -0.018694707539905289 -0.062700614962621026 -0.030659933551091027 0 -0.030659933551091027 0.16577130631776363 0 0 0 0.025767672838785644 -0.065392533134711314 -0.031483971428841039 0 -0.031483971428841039 0.15402658961683058 0 0 0 0.022158514120529816 -0.048723678528434178 -0.028756344009346346 0 -0.028756344009346346 0.00077862842938625221 0 0 0 -0.011986262524761981 -0.040954427207711697 -0.026371125120768335 0 -0.026371125120768335 7.3305203671658603e-06 0 0 0 -0.010236774171836216 -0.022833614353216181 0.044966964436748302 0 0.044966964436748302 0.052660752568114866 0 0 0 0.0074567845537247823 -0.032089923031155543 0.043752762416101376 0 0.043752762416101376 0.051309674684492101 0 0 0 0.0048049379133336956 -0.023741659649089364 0.053499393185091532 0 0.053499393185091532 0.029437091152230366 0 0 0 0.0014238578757852505 0.01275312610908208 0.052877777587926444 0 0.052877777587926444 0.039021465249246212 0 0 0 0.012943647839581907 -0.049118592186620055 0.0024412192504499482 0 0.0024412192504499482 -0.016373067029543237 0 0 0 -0.016372914804040819 -0.035764095146687824 0.0043769195908883174 0 0.0043769195908883174 0.10007038919160632 0 0 0 0.016076573511229653 -0.04439744126244527 0.001036708679711118 0 0.001036708679711118 0.064486407891397951 0 0 0 0.0050222416572381356 -0.10069041609159712 -0.022039628423191737 0 -0.022039628423191737 -0.0015251551220778481 0 0 0 -0.025553892803418687 -0.1162000040370329 -0.0093755377674407114 0 -0.0093755377674407114 -0.00069742470857181438 0 0 0 -0.029224357186401151 -0.18819044020662357 0.020578468678604134 0 0.020578468678604134 -0.0016015527468247193 0 0 0 -0.047447998238361877 -0.03293339646091481 0.029091225517321441 0 0.029091225517321441 0.043390235568220137 0 0 0 0.0026142097768263248 -0.027374088309827974 0.03201571770184846 0 0.03201571770184846 0.055857958534332841 0 0 0 0.0071209675561262342 -0.05059575093676829 0.0047045778902321004 0 0.0047045778902321004 -0.0097920186176450145 0 0 0 -0.015096942388603336 -0.051953489439251231 0.0032850196584660041 0 0.0032850196584660041 -0.018613129913467558 0 0 0 -0.017641654838179699 -0.21287603827495061 -0.017780102555312205 0 -0.017780102555312205 -0.007109503476006418 0 0 0 -0.054996385437739256 -0.14233006411030161 0.0036960417448613087 0 0.0036960417448613087 -0.0016313020544577728 0 0 0 -0.035990341541189852 -0.13072088407378088 0.0052767150927846371 0 0.0052767150927846371 -0.0030111113577442061 0 0 0 -0.033432998857881237 -0.019644751297823948 0.028925165008963027 0 0.028925165008963027 0.10221754783026782 0 0 0 0.020643199133111079 -0.040361870023846058 -0.011920780273866338 0 -0.011920780273866338 0.0032164978498507857 0 0 0 -0.0092863430434988459 -0.050700032057409493 -0.0035822493932715451 0 -0.0035822493932715451 -0.021048171561661194 0 0 0 -0.017937050904767673 -0.036912803719451534 0.0011638678492129594 0 0.0011638678492129594 -0.010497932662690487 0 0 0 -0.011852684095535516 -0.079564519351610685 -0.036256345955865243 0 -0.036256345955865243 0.0061516045578819956 0 0 0 -0.018353228698432367 -0.09211257233833052 -0.020458260412915236 0 -0.020458260412915236 -0.00039214062812722994 0 0 0 -0.023126178241614448 -0.05298335307004718 -0.018868028801849623 0 -0.018868028801849623 0.038446577470545279 0 0 0 -0.0036341938998755499 -0.022642992654217056 0.023397574647705588 0 0.023397574647705588 0.026346055120974682 0 0 0 0.00092576561668941681 -0.10910337402942188 0.072596327806328853 0 0.072596327806328853 0.0039274453822987221 0 0 0 -0.026293982161780971 -0.12744081263198331 -0.0043797855509653538 0 -0.0043797855509653538 0.0049124168777747723 0 0 0 -0.030632098938552121 -0.20622875214897984 0.0062595559344772178 0 0.0062595559344772178 0.013662471574948265 0 0 0 -0.04814157014350795 -0.0059713989772945952 -0.0039203579106951714 0 -0.0039203579106951714 -0.011554469781718701 0 0 0 -0.0043814671897534074 -0.011276317560435012 -0.0094940620657535391 0 -0.0094940620657535391 -0.0087517838966155725 0 0 0 -0.0050070253642627849 -0.11684307328624635 0.0053486183988933622 0 0.0053486183988933622 -0.00047083286437063498 0 0 0 -0.029328476537654233 -0.10349380461669651 0.0032193249493159964 0 0.0032193249493159964 -0.0019100518991616161 0 0 0 -0.026350964128964493 -0.066689642515148792 -0.0094828640374058706 0 -0.0094828640374058706 0.022710464042332623 0 0 0 -0.010994794618204032 -0.14214571882600546 0.0083454883130449631 0 0.0083454883130449631 0.0028457146009739365 0 0 0 -0.034825001056257882 -0.15330649273693145 -0.024256215933894106 0 -0.024256215933894106 -0.0088990916021005617 0 0 0 -0.040551396084758023 -0.0011958334720819381 0.0019078769190530309 0 0.0019078769190530309 -0.0022680199575060059 0 0 0 -0.00086596335739705539 -0.080586441993512725 0.08094197498940936 0 0.08094197498940936 0.010444330250667377 0 0 0 -0.017535527935711448 -0.052554934635633231 0.0028082645325863574 0 0.0028082645325863574 -0.017518943815120185 0 0 0 -0.017518469612688353 0.02167787388787451 0.022095251146023287 0 0.022095251146023287 0.091849355772271268 0 0 0 0.028381807415036431 0.015557341076347601 0.046529675275136045 0 0.046529675275136045 0.14183762862733834 0 0 0 0.039348742425921485 -0.19200978580236727 0.024610794014886084 0 0.024610794014886084 0.036338208169342495 0 0 0 -0.038917894408256097 -0.015451381780487355 0.048137219047979754 0 0.048137219047979754 0.14723785010172524 0 0 0 0.032946617080309437 -0.00039169307412034726 0.040514616794831898 0 0.040514616794831898 0.098969084427751375 0 0 0 0.024644347838407771 -0.092572264911989915 0.0037024506756918318 0 0.0037024506756918318 0.0020398292656704786 0 0 0 -0.022633108911579825 -0.07119704312622821 -0.0011879385285209904 0 -0.0011879385285209904 -0.0039388565318486737 0 0 0 -0.018783974914519219 -0.1613057198282577 0.054912493553214259 0 0.054912493553214259 0.018006428038586098 0 0 0 -0.035824822947417845 -0.085769211764818887 -0.024026371250640832 0 -0.024026371250640832 0.075599274379965886 0 0 0 -0.0025424843462132571 -0.043865244398744563 0.028336387283523529 0 0.028336387283523529 0.15596352668131735 0 0 0 0.02802457057064317 -0.056931437083065695 -0.030162322936963526 0 -0.030162322936963526 0.0015413903567724763 0 0 0 -0.013847511681573277 -0.14487656996002965 -0.0079535890836083811 0 -0.0079535890836083811 0.0051917905413420007 0 0 0 -0.034921194854671857 -0.24699522641324551 0.015668352740354496 0 0.015668352740354496 0.016067537386344588 0 0 0 -0.057731922256725243 -0.054695595243592576 0.027680336396713745 0 0.027680336396713745 -0.0075673141792593768 0 0 0 -0.015565727355712822 -0.030505475598346599 -0.03006991698005379 0 -0.03006991698005379 0.046312046149709962 0 0 0 0.0039516426378408687 -0.054096582407086757 -0.021415561379881043 0 -0.021415561379881043 0.029209757121692714 0 0 0 -0.0062217063213486079 -0.013578104600384194 0.024350841289644539 0 0.024350841289644539 0.028731812484810604 0 0 0 0.0037884269711066024 -0.14065290594501451 -0.022886178998473283 0 -0.022886178998473283 -0.01562558660115506 0 0 0 -0.039069623136542352 -0.13020561812020626 0.003277031224924204 0 0.003277031224924204 0.003654189026505994 0 0 0 -0.031637857273425038 -0.179080087312564 -0.0092536829353581651 0 -0.0092536829353581651 0.01219112564783217 0 0 0 -0.041722240416182915 -0.049629896151048708 -0.035992379380742262 0 -0.035992379380742262 0.063365071986020927 0 0 0 0.0034337939587430755 -0.10643521549287997 -0.00052947241134454481 0 -0.00052947241134454481 0.0060200483677201044 0 0 0 -0.025103791781290033 -0.066940277688197783 0.001790477699084375 0 0.001790477699084375 0.12375420683466939 0 0 0 0.014203482286617924 -0.047383375544712877 -0.0016251545264702716 0 -0.0016251545264702716 -0.01579288703053414 0 0 0 -0.015794065643811757 -0.042963093047990064 -0.016292405921621844 0 -0.016292405921621844 0.024118700842896579 0 0 0 -0.0047110980512734546 -0.15088142384453671 0.0022940887726514703 0 0.0022940887726514703 0.0028055919267943596 0 0 0 -0.037018957979435642 -0.25166744994390056 -0.010466331376396076 0 -0.010466331376396076 0.006473178255075096 0 0 0 -0.061298567922206337 -0.10332959718489634 -0.025893293862882638 0 -0.025893293862882638 0.0089456503921905572 0 0 0 -0.023595986698176336 -0.06340573605556854 -0.032026553071310054 0 -0.032026553071310054 0.044256506980085653 0 0 0 -0.0047873072688706664 -0.050188809788120348 -0.025131552663599149 0 -0.025131552663599149 0.079496344881996306 0 0 0 0.0073268837734689618 -0.086104101112143089 0.00023414304997738944 0 0.00023414304997738944 0.0065071352076158662 0 0 0 -0.019899241476131785 -0.058812117993124524 -0.027723437080843294 0 -0.027723437080843294 0.0065429166884736212 0 0 0 -0.013067300326162767 -0.0803200802131398 -0.031728058950238891 0 -0.031728058950238891 0.0017667752561772582 0 0 0 -0.019638326239240715 -0.09979219595053529 0.00047831356699308547 0 0.00047831356699308547 0.0057915402388439008 0 0 0 -0.023500163927922833 -0.056763408278046906 -0.031061953766037709 0 -0.031061953766037709 0.0022258529352435219 0 0 0 -0.013634388835700756 -0.048944481836084505 5.7409993833493602e-05 0 5.7409993833493602e-05 -0.022166304980732628 0 0 0 -0.017777696704204281 -0.14940957474240679 -0.00037898585259982243 0 -0.00037898585259982243 0.0020747966170862053 0 0 0 -0.03683369453133023 -0.25986173853472588 -0.00042561355879566776 0 -0.00042561355879566776 0.0030388911083572001 0 0 0 -0.064205711856592018 -0.061785405011993727 -0.012252642856153573 0 -0.012252642856153573 -0.0038250159554453766 0 0 0 -0.016402605241859797 0.0061569222584670902 0.022401929587113845 0 0.022401929587113845 0.1129824265619741 0 0 0 0.029784837205110049 -0.0057867763771244363 0.03001119894851656 0 0.03001119894851656 0.086583830111584437 0 0 0 0.020199263433614778 -0.043125269961368229 -0.0096557473242145728 0 -0.0096557473242145728 -0.0035226885758854465 0 0 0 -0.01166198963431353 -0.0076702746184467152 0.017551381246683918 0 0.017551381246683918 0.13984053942774111 0 0 0 0.033042566202323265 -0.022881641143411513 -0.024020323181361086 0 -0.024020323181361086 0.024533813411210859 0 0 0 0.00041304306694983639 -0.070478435408730666 -0.026882845929954019 0 -0.026882845929954019 0.021856250856177595 0 0 0 -0.012155546138138296 0.004754655211108072 -0.0026303050066438815 0 -0.0026303050066438815 0.098734394559715888 0 0 0 0.025872262442706018 -0.0043646120683228373 -0.00024511168988095022 0 -0.00024511168988095022 0.18470972612980008 0 0 0 0.045086278515369227 -0.17374244999246222 -0.013516670449819801 0 -0.013516670449819801 0.033828825846480726 0 0 0 -0.03497840603649538 -0.099537230674931809 0.0019307092528772548 0 0.0019307092528772548 -0.0037830263120329499 0 0 0 -0.025830064246741204 -0.050488035418336824 0.0078308280231434123 0 0.0078308280231434123 -0.0021996475630935786 0 0 0 -0.013171920745357587 -0.11090270343087028 0.061116071856318843 0 0.061116071856318843 -0.0052675842738629797 0 0 0 -0.029042571926183314 -0.017740599962336734 -0.032697363464459728 0 -0.032697363464459728 0.029241230022231335 0 0 0 0.0028751575149736364 -0.04481337822925005 0.00038534179405867557 0 0.00038534179405867557 -0.019362077389781247 0 0 0 -0.016043863904757826 -0.087962257308969394 -0.0025104599834065988 0 -0.0025104599834065988 0.019962097866836698 0 0 0 -0.017000039860533174 0.011284878074770521 0.018161412201577454 0 0.018161412201577454 0.087858539436660443 0 0 0 0.024785854377857852 -0.069860424832822093 -0.011077249185895057 0 -0.011077249185895057 -0.02261525102261485 0 0 0 -0.023118918963859227 -0.039805311263347312 -0.010540861267669954 0 -0.010540861267669954 0.0099919427604391042 0 0 0 -0.0074533421257271387 -0.030143194688302857 -0.017956974733108338 0 -0.017956974733108338 0.012805158344161092 0 0 0 -0.0043345090860354551 -0.0078030617062689878 0.0042548348198573338 0 0.0042548348198573338 0.05715515142523464 0 0 0 0.012338022429741247 0.00075645950942720974 -0.00083116872806215936 0 -0.00083116872806215936 0.095526385756480425 0 0 0 0.024070711316476923 0.00099535539383949212 -0.0056953966688464419 0 -0.0056953966688464419 0.17355217278956969 0 0 0 0.043636882045852365 -0.012178238342833755 -0.010720942263524769 0 -0.010720942263524769 0.11441084963425285 0 0 0 0.025558152822854743 -0.041160364954934255 0.023169547415553961 0 0.023169547415553961 0.048987771118530435 0 0 0 0.0019568515408990537 -0.021814719329805457 -0.03294160503316157 0 -0.03294160503316157 -7.9106923829452835e-05 0 0 0 -0.0054734565634086962 -0.0018630756673583063 -0.062555650811174118 0 -0.062555650811174118 0.058630789309718163 0 0 0 0.014191928410589937 -0.069671535796700435 -0.024106560650161035 0 -0.024106560650161035 0.0055313881886955851 0 0 0 -0.016035036902001309 -0.11593617549070098 0.0031045038878658518 0 0.0031045038878658518 0.0024041792073069557 0 0 0 -0.028382999070848514 -0.10177781436429348 0.00552651918617106 0 0.00552651918617106 0.0038986750021390848 0 0 0 -0.02446978484053855 -0.17673398214199587 0.0091680797995230823 0 0.0091680797995230823 0.070361745215343441 0 0 0 -0.02659305923166308 -0.021621615205489053 -0.0017521822606447746 0 -0.0017521822606447746 0.037556489848717955 0 0 0 0.0039837186608073227 -0.020622063725076634 -0.0093604945858353772 0 -0.0093604945858353772 0.080302354562306277 0 0 0 0.014920072709307342 -0.04928691813657661 0.0084976884939880915 0 0.0084976884939880915 0.0077275340101693605 0 0 0 -0.010389846031601816 -0.00040180551878499227 0.00063494100486666261 0 0.00063494100486666261 -0.010480051525964651 0 0 0 -0.0027204642611875496 -0.058425079424945674 0.0019821915717533299 0 0.0019821915717533299 -0.010716607238051309 0 0 0 -0.017285421665749257 -0.060460837989312788 -0.031271676455305458 0 -0.031271676455305458 0.019246193484166674 0 0 0 -0.010303661126286473 -0.044314571369098915 0.00054773577993559065 0 0.00054773577993559065 -0.022671246900579749 0 0 0 -0.016746454567419664 -0.034905499668317574 0.066771662974329349 0 0.066771662974329349 0.012347652985829072 0 0 0 -0.0056394616706219036 -0.036243466611161651 0.052084306971494687 0 0.052084306971494687 0.022802715634695547 0 0 0 -0.0033601877441161998 -0.037283361975180743 -0.033798644601349848 0 -0.033798644601349848 0.0053560196353586442 0 0 0 -0.007981835584955313 0.023193160471414818 -0.12298152168916207 0 -0.12298152168916207 0.21534569073121507 0 0 0 0.05963471280065747 -0.045633731496076461 0.0010286882887837112 0 0.0010286882887837112 -0.021055843872990879 0 0 0 -0.01667239384226683 -0.06413455173888305 -0.013469980298620565 0 -0.013469980298620565 0.0039733947982005802 0 0 0 -0.015040289235170756 0.0022685919808946853 0.0010063098595636255 0 0.0010063098595636255 0.00041861515044905317 0 0 0 0.00067180178283576808 -0.013923277213194307 0.0051838740435812269 0 0.0051838740435812269 0.19687405655740253 0 0 0 0.045737694836051279 0.007937484855331781 0.0019975870362856085 0 0.0019975870362856085 0.17622373477391207 0 0 0 0.046040304907310849 0.0037993904010058532 -0.0044377323323159246 0 -0.0044377323323159246 0.091590253637440888 0 0 0 0.023847411009611852 0.0035600401081241628 -0.0016408469483956815 0 -0.0016408469483956815 0.00088568282884793348 0 0 0 0.0011114307342436902 -0.00047646262266441193 0.0012103558864828834 0 0.0012103558864828834 0.0024273386000052701 0 0 0 0.00048771899433521453 -0.010492079235762564 -0.0077708188595880957 0 -0.0077708188595880957 0.10881612554805198 0 0 0 0.024581011578072243 -0.00050446481145982602 -0.0019258273128897052 0 -0.0019258273128897052 0.0038088333208303737 0 0 0 0.00082609212734219284 -0.048229243842977873 -0.0008221643471995829 0 -0.0008221643471995829 -0.021154085041525734 0 0 0 -0.017345832221125904 -0.050521021654657015 -0.028713206580167627 0 -0.028713206580167627 -0.0049194908793946529 0 0 0 -0.013860128133512915 -0.099220868487395794 0.0030263734129846176 0 0.0030263734129846176 0.01067748907745758 0 0 0 -0.022135844852484543 -0.063925473579322212 -0.035091352263813991 0 -0.035091352263813991 0.006958438638747122 0 0 0 -0.014241758735143772 -0.058424528724761268 -0.001511085934300954 0 -0.001511085934300954 -0.020597283530686548 0 0 0 -0.01975545306386195 -0.033722417552871198 0.041115906497941168 0 0.041115906497941168 0.0028638045826516745 0 0 0 -0.0077146532425549363 -0.03094227566007457 -0.034223622761485606 0 -0.034223622761485606 0.0130984776563281 0 0 0 -0.0044609495009366729 -0.0091305789116044034 -0.0096452013221851041 0 -0.0096452013221851041 0.078556209980777059 0 0 0 0.017356407767293081 -0.019706512952753941 0.0020091916155961509 0 0.0020091916155961509 0.15038306777490185 0 0 0 0.032669138705537004 -0.079552141539615151 0.011292663523703256 0 0.011292663523703256 0.075857224913775112 0 0 0 -0.00092372915645999587 -0.090501510234854005 -0.0037707773935035105 0 -0.0037707773935035105 0.011477039558156821 0 0 0 -0.019756117669174261 -0.041158017987003748 -0.016516753800046663 0 -0.016516753800046663 0.057023201465923767 0 0 0 0.0039662958697300743 -0.042039611565215879 0.0085240877153146544 0 0.0085240877153146544 0.11525921513356285 0 0 0 0.018304900892086723 -0.04500341270518346 -0.043971258894271559 0 -0.043971258894271559 0.013193270869994222 0 0 0 -0.007952535458797344 -0.045677781086838842 0.0081263678681417102 0 0.0081263678681417102 -0.00068912053230937333 0 0 0 -0.011591725404787047 -0.033139749775441096 -0.038009738718486119 0 -0.038009738718486119 0.025019883154203004 0 0 0 -0.002029966655309412 -0.048100596204226687 0.040865368568662852 0 0.040865368568662852 0.0022155814660793638 0 0 0 -0.01147125368453672 -0.043266642870224858 -0.00066095757013226453 0 -0.00066095757013226453 0.037609294723050746 0 0 0 -0.0014143370367935559 -0.028978108213331216 -0.0053065409038908634 0 -0.0053065409038908634 0.042361685795185844 0 0 0 0.0033458943954635945 -0.077204034280982048 -8.3806965182068455e-05 0 -8.3806965182068455e-05 -0.0045422280637118645 0 0 0 -0.020436565586173489 -0.070970474237030651 -0.014676177843932492 0 -0.014676177843932492 0.052632590797672907 0 0 0 -0.0045844708598394499 0.0094222239644603523 -0.03781138440108045 0 -0.03781138440108045 0.027245390111316881 0 0 0 0.009166903518944336 -0.048009433967583531 -0.030159176440488211 0 -0.030159176440488211 -0.0019330813834725 0 0 0 -0.01248562883776402 0.042004699950899838 -0.026203300107287997 0 -0.026203300107287997 0.036117855753652783 0 0 0 0.019530638926138155 -0.029311528422967137 -0.0049294168329562238 0 -0.0049294168329562238 0.08114781811184435 0 0 0 0.012959072422219359 -0.044066847092976869 -0.006334573928880205 0 -0.006334573928880205 0.036603941479106394 0 0 0 -0.0018657264034676047 -0.111457922742527 0.0022200874987741287 0 0.0022200874987741287 -0.0040577073540862124 0 0 0 -0.02887890752415332 -0.078591071766786216 -0.016609107369260811 0 -0.016609107369260811 0.057810826851183383 0 0 0 -0.0051950612289007048 -0.079219218013570444 -0.014971403341722957 0 -0.014971403341722957 0.07017058811421395 0 0 0 -0.0022621574748391549 0.020187444658552711 0.074155756730576255 0 0.074155756730576255 0.24322656858484448 0 0 0 0.065853503310849326 -0.045872684631012628 -0.027447727848669112 0 -0.027447727848669112 0.27809480610039522 0 0 0 0.05805553036734562 -0.0017682400277485577 0.01900874957616357 0 0.01900874957616357 0.10702321253043667 0 0 0 0.026313743125671696 -0.051316662105158325 0.025474463266169763 0 0.025474463266169763 0.065213979728363541 0 0 0 0.0034743294058013213 -0.067266572809524083 -0.011739974378829518 0 -0.011739974378829518 0.00023248103219053462 0 0 0 -0.016758522944333665 -0.077758631672039516 0.00040623114886169723 0 0.00040623114886169723 -0.0081472288127849013 0 0 0 -0.021476465121206136 -0.13621162854469765 -0.010836954751626538 0 -0.010836954751626538 -0.020050811198398695 0 0 0 -0.039065609935774057 -0.11267885208578818 -0.0024486436783106354 0 -0.0024486436783106354 -0.014257455274797937 0 0 0 -0.031734076840146522 -0.036539307347677061 0.0050155169522437953 0 0.0050155169522437953 -0.01280121055587885 0 0 0 -0.012335129475888969 -0.16230233934026075 -0.014630222769644683 0 -0.014630222769644683 -0.0040992490454674867 0 0 0 -0.041600397096432061 -0.13960237100411088 -0.016807842912990825 0 -0.016807842912990825 -0.033149170646120392 0 0 0 -0.043187885412557817 -0.20240286013800765 0.011216143763305103 0 0.011216143763305103 -0.0021048514547489586 0 0 0 -0.051126927898189151 -0.17808209065585681 0.012572741011257408 0 0.012572741011257408 -0.038666860830934249 0 0 0 -0.054187237871697769 -0.076336690916796235 -0.029733315159116702 0 -0.029733315159116702 0.030793094676757449 0 0 0 -0.011385899060009641 -0.042860200657424304 0.0027659685022798672 0 0.0027659685022798672 -0.019215550128955691 0 0 0 -0.015518937696594992 0.017182241851494973 0.036495688963962269 0 0.036495688963962269 0.043149708145904686 0 0 0 0.015082987499349554 -0.049371580782580526 0.008590038406088657 0 0.008590038406088657 0.10312819139212992 0 0 0 0.013439152652387321 -0.033665606086237559 0.037585434715239271 0 0.037585434715239271 0.099267813669991115 0 0 0 0.01640055189593841 -0.048052271177929484 -0.04681794594639508 0 -0.04681794594639508 0.043128720212871619 0 0 0 -0.0012308877412645081 -0.004640112838330347 -0.00030172995331767538 0 -0.00030172995331767538 0.015465951239635164 0 0 0 0.0027064596003262041 0.0013404180354945258 -0.0062422635986028041 0 -0.0062422635986028041 0.047447545030999135 0 0 0 0.012196990766623247 0.0019691375278930424 0.0057288124259615714 0 0.0057288124259615714 0.095299818869601954 0 0 0 0.024317239099374079 -0.0036108808538572626 -0.00035769456565848401 0 -0.00035769456565848401 0.0087890559718840685 0 0 0 0.0012945437795064793 -0.014752425842112997 0.006152040192080821 0 0.006152040192080821 0.014763475497521134 0 0 0 2.7624138521156749e-06 -0.015479003897908017 -0.014244718260716882 0 -0.014244718260716882 0.032846947757055656 0 0 0 0.0043419859647868542 -0.15431922899620051 -0.025016465221396941 0 -0.025016465221396941 -0.051345824054767786 0 0 0 -0.051416263262742068 -0.19179639688282984 0.022222289548952574 0 0.022222289548952574 -0.063815124109632484 0 0 0 -0.063902880248115579 -0.21898762724399407 0.022394184362529851 0 0.022394184362529851 -0.029952567106907163 0 0 0 -0.062235048587725314 -0.17958954886069114 -0.024103983162121402 0 -0.024103983162121402 -0.024624783656922514 0 0 0 -0.051053583129403418 -0.041440378115606191 -0.042886113732328535 0 -0.042886113732328535 0.016480493125617279 0 0 0 -0.0062399712474970892 -0.077400366665572776 8.3608618094074827e-05 0 8.3608618094074827e-05 0.003678886851730151 0 0 0 -0.018430369953460646 -0.054702741356573492 -0.031973544869407247 0 -0.031973544869407247 0.0074708004290620078 0 0 0 -0.011807985231877871 -0.051481612562917445 -0.031571917789524409 0 -0.031571917789524409 -0.002863803694703515 0 0 0 -0.013586354064405226 -0.069326991719455389 -0.0010476565039199085 0 -0.0010476565039199085 0.0030001295253249266 0 0 0 -0.016581715548532605 -0.05422417952272944 0.0031008562099954363 0 0.0031008562099954363 -0.0081707942053107704 0 0 0 -0.015598743432010051 -0.054069705562198513 0.0037196040564416218 0 0.0037196040564416218 -0.0076628575936821906 0 0 0 -0.015433140788970182 -0.074357580638222509 -0.058300979427989619 0 -0.058300979427989619 0.17873112903120894 0 0 0 0.026093387098246573 0.010152853755868288 -0.015583624184227207 0 -0.015583624184227207 0.49710578176907194 0 0 0 0.126814658881235 -0.092862001550126888 -0.022194720453227013 0 -0.022194720453227013 0.020644759399920498 0 0 0 -0.01805431053755166 -0.031570932321259904 -0.0021744271134328877 0 -0.0021744271134328877 0.070337709867070108 0 0 0 0.0096916943864525096 -0.045645293818351057 -0.017801608828220294 0 -0.017801608828220294 0.039825365198487783 0 0 0 -0.0014549821549658948 -0.055967275226808923 0.0055027944121897026 0 0.0055027944121897026 0.0093768528331387609 0 0 0 -0.011647605598417541 -0.027121327529277872 0.032129742284669582 0 0.032129742284669582 0.087021893512414294 0 0 0 0.014975141495783939 -0.034456303300651303 -0.016496662971767106 0 -0.016496662971767106 -0.002013281983997306 0 0 0 -0.0091173963211623743 0.0055299570382041641 -0.042951346807983709 0 -0.042951346807983709 0.082477286588761189 0 0 0 0.022001810906741331 -0.025176072549235998 -0.0080146711621588707 0 -0.0080146711621588707 0.029055594325210654 0 0 0 0.00096988044399369533 -0.052791539940134191 0.032471072884623808 0 0.032471072884623808 0.004649232471040321 0 0 0 -0.012035576867273745 -0.032336710249646461 -0.032722294621829517 0 -0.032722294621829517 0.039848460921819484 0 0 0 0.001877937668043117 -0.025529697472488344 -0.032749697657119124 0 -0.032749697657119124 0.032071623282361017 0 0 0 0.0016354814524681682 -0.028973048299529625 -0.004480205574706575 0 -0.004480205574706575 -0.0057729171789078215 0 0 0 -0.008686491369609306 -0.022469133305002165 -0.007544219135613317 0 -0.007544219135613317 0.097661688486320786 0 0 0 0.018798138795329711 -0.055292499643519781 -0.01056800600745092 0 -0.01056800600745092 -0.010095837411668168 0 0 0 -0.016347084263796989 -0.022184467026565499 -0.0082318477679871882 0 -0.0082318477679871882 -0.018752655273066354 0 0 0 -0.010234280574907925 -0.083887678264990301 0.0013513257602156964 0 0.0013513257602156964 -0.0092464442891045228 0 0 0 -0.023283530638523717 -0.07688769628116221 0.0019083434306669551 0 0.0019083434306669551 -0.011454171916007942 0 0 0 -0.022085467049292557 -0.07978200846512247 -0.0089213529963742821 0 -0.0089213529963742821 0.041883463236696596 0 0 0 -0.0094746363071064859 -0.070892986828089533 -0.027702384382221362 0 -0.027702384382221362 0.049859524174590941 0 0 0 -0.0052583656633746201 -0.067648880683552751 -0.0011533383518093831 0 -0.0011533383518093831 -0.0071624880345367362 0 0 0 -0.018702842179522384 -0.063003884041437877 0.0011811291149857253 0 0.0011811291149857253 0.0040181447224385269 0 0 0 -0.014746434829749831 -0.066987117833729889 -0.00088719584586996469 0 -0.00088719584586996469 0.0033754234079375542 0 0 0 -0.015902923606448058 -0.013179495218881454 0.0082183372602647187 0 0.0082183372602647187 -0.0055337753994211258 0 0 0 -0.0046783176545757699 -0.0049786232309886325 0.010181428282788896 0 0.010181428282788896 0.019669924930230787 0 0 0 0.0036728254248105108 -0.0051735169463784231 -0.015381431329536233 0 -0.015381431329536233 0.050548479986982003 0 0 0 0.011343740760150919 -0.01550185851833813 -0.012905713766183546 0 -0.012905713766183546 0.018511424147068078 0 0 0 0.00075239140718247333 -0.023361192011821547 -0.056625859963925704 0 -0.056625859963925704 0.17742076916880015 0 0 0 0.038514894289244664 -0.0030947769885507626 0.020755848133235055 0 0.020755848133235055 0.078792104662030127 0 0 0 0.018924331918370285 -0.0012231230790531455 -0.0036851311595482716 0 -0.0036851311595482716 -0.001103815358169058 0 0 0 -0.00058173460930577292 -0.002778211647686768 -0.017784517527228871 0 -0.017784517527228871 0.039472661956013066 0 0 0 0.0091736125770814914 -0.0011682556059999794 0.0040553253426542923 0 0.0040553253426542923 0.0016615779950019949 0 0 0 0.0001233305972501153 -0.057579371328927653 0.043945437464834647 0 0.043945437464834647 -0.0027750186756119177 0 0 0 -0.015088597501134782 -0.036914668191918798 -0.03710740017523069 0 -0.03710740017523069 0.024122353099717664 0 0 0 -0.003198078773050117 -0.030257200266980755 -0.039484681392780496 0 -0.039484681392780496 0.02070511339646286 0 0 0 -0.0023880217176293073 -0.072239421337488743 -0.013148167885015771 0 -0.013148167885015771 0.058227118202986788 0 0 0 -0.0035030757836255373 0.0029284290868343277 0.013523212439090992 0 0.013523212439090992 0.061400621598910021 0 0 0 0.016082262671436531 -0.0016699880217414531 -0.00032820350172418911 0 -0.00032820350172418911 0.00651597732264797 0 0 0 0.0012114973252264072 -0.0029687153111037645 -0.00059217215528706291 0 -0.00059217215528706291 0.012391876510168487 0 0 0 0.0023557902997666247 0.0002623596689883545 -0.011754713171834741 0 -0.011754713171834741 0.025417633186108901 0 0 0 0.0064199982137744804 -0.033767759801789698 -0.0072314385380664314 0 -0.0072314385380664314 -0.01592599385398441 0 0 0 -0.012423438413943555 0.011758726055747099 -0.040072519096831072 0 -0.040072519096831072 0.011148305197121899 0 0 0 0.0057267578132172148 0.011404613185160062 -0.0010944249544867501 0 -0.0010944249544867501 0.098806964008754605 0 0 0 0.027552894298478736 0.013436507130272168 -0.0042295958799379862 0 -0.0042295958799379862 0.18586717039366629 0 0 0 0.049825919380984574 -0.048200578100267746 0.0050029503977471112 0 0.0050029503977471112 -0.011468664294013213 0 0 0 -0.014917310598570236 -0.091315670657061254 0.047265774388122184 0 0.047265774388122184 0.0026910501819328303 0 0 0 -0.022156155118781662 -0.10267912858344408 0.045953411182469914 0 0.045953411182469914 -0.0013384333806278903 0 0 0 -0.026004390491018103 -0.037238104265269051 -0.011196474333678652 0 -0.011196474333678652 -0.0099106499275097987 0 0 0 -0.011787188548194685 -0.066209374260302267 -0.0078995856601535921 0 -0.0078995856601535921 0.019112192894683563 0 0 0 -0.011774295341404666 -0.063193903054501982 -0.031940024490146546 0 -0.031940024490146546 0.0046903220902979326 0 0 0 -0.01462589524105104 -0.053012251321935884 -0.038031890867591817 0 -0.038031890867591817 0.024285548734564191 0 0 0 -0.0071816756468429735 -0.064360517100417347 0.046622114047360552 0 0.046622114047360552 -0.0019080965412179296 0 0 0 -0.016567153410409041 -0.034802429561846759 -0.037274573612458339 0 -0.037274573612458339 0.024581193031852244 0 0 0 -0.0025553091324987953 -0.040092208203629021 -0.040160783339502681 0 -0.040160783339502681 0.018193521479254127 0 0 0 -0.0054746716810936125 -0.13306592687522473 -0.0044551189718470283 0 -0.0044551189718470283 -0.014050717913622474 0 0 0 -0.036779161197211814 -0.17354384414260224 -0.0093894495579204124 0 -0.0093894495579204124 -0.019781449235981512 0 0 0 -0.048331323344645932 -0.16047009599480075 -0.016668179244597181 0 -0.016668179244597181 -0.0018274910438494524 0 0 0 -0.04057439675966254 -0.12587385189215614 0.0015487016242940535 0 0.0015487016242940535 -0.0027441999813509338 0 0 0 -0.032154512968376792 -0.073706681592082157 -0.0089381427985145354 0 -0.0089381427985145354 0.028917606411493879 0 0 0 -0.011197268795147035 -0.083382849142111137 0.037509474310200908 0 0.037509474310200908 -0.006803861352436158 0 0 0 -0.022546677623636935 -0.027561807637109359 -0.031474921340631679 0 -0.031474921340631679 0.039280649595399009 0 0 0 0.0029297104895722459 -0.031449175720051237 -0.033424988976102826 0 -0.033424988976102826 0.03028688522682943 0 0 0 -0.00029057262330556277 -0.069519883892293174 -0.042050860662280476 0 -0.042050860662280476 0.010861082772231745 0 0 0 -0.01466470028001525 -0.039140472300060625 -0.010029151327498764 0 -0.010029151327498764 -0.011176998605224614 0 0 0 -0.012579367726321233 -0.045648587711549185 -0.018991805771790039 0 -0.018991805771790039 -0.0027777588675424458 0 0 0 -0.012106586644772904 -0.064203562046613247 -0.015437795571977126 0 -0.015437795571977126 0.020651370466115426 0 0 0 -0.010888047895124445 -0.11253981457582377 0.0026677810268871524 0 0.0026677810268871524 -0.0077407995433588783 0 0 0 -0.030070153529795675 -0.11464454241662236 0.077415773441595892 0 0.077415773441595892 0.022411513920473358 0 0 0 -0.023058257124037307 -0.079067303377800546 -0.03737245500556402 0 -0.03737245500556402 0.013541891659713645 0 0 0 -0.016381352929521698 -0.025526150990442073 0.0457974868743527 0 0.0457974868743527 0.042013329039163883 0 0 0 0.004121794512180102 -0.045854366216850462 -0.028826889632255215 0 -0.028826889632255215 -0.0025506641032266852 0 0 0 -0.012101257580019009 -0.024455472253640309 0.070383254949487717 0 0.070383254949487717 0.014990241495749235 0 0 0 -0.0023663076894728796 -0.10369337155642611 0.0015402024009208842 0 0.0015402024009208842 0.0011403711509763576 0 0 0 -0.02563825010136251 -0.068613544211386712 -0.0059853409530753673 0 -0.0059853409530753673 0.013936089168274338 0 0 0 -0.013669363760778094 -0.067817166077678626 -0.037614224683977904 0 -0.037614224683977904 0.0026373629889699934 0 0 0 -0.016294950772177352 -0.0068475579589181157 0.0087898268045915051 0 0.0087898268045915051 0.058291145467147434 0 0 0 0.012860896877057382 -0.01155767094410376 -0.012360719418702926 0 -0.012360719418702926 0.11497226574843022 0 0 0 0.025853648701081644 -0.065904900543900691 -0.0031909257312939254 0 -0.0031909257312939254 0.0011677441940158816 0 0 0 -0.016184289087471188 0.002713301953470193 -8.7279931148209755e-05 0 -8.7279931148209755e-05 0.0064212502066745003 0 0 0 0.0022836380400361733 -0.0069515346727979654 0.0011031528230973642 0 0.0011031528230973642 0.0034410754546723155 0 0 0 -0.00087761480453130147 -0.0012009903633474206 -0.016417963879001407 0 -0.016417963879001407 0.055111339654690283 0 0 0 0.01347758732283566 -0.0014634018604193777 -0.0076627512593021585 0 -0.0076627512593021585 0.056536150365472437 0 0 0 0.013768187126263376 -0.0028800269577073934 0.0085666515545463895 0 0.0085666515545463895 0.11262408052856898 0 0 0 0.027436013392715175 0.0018740771116343424 -0.00012806453205027601 0 -0.00012806453205027601 0.0036838643401901905 0 0 0 0.0013894853629561332 0.0022248655623098301 0.016796203138867316 0 0.016796203138867316 0.11288615735097807 0 0 0 0.028777755728321974 -0.0056878211669360024 -0.0014460553412865007 0 -0.0014460553412865007 0.0014188661046450335 0 0 0 -0.0010672387655725757 -0.038278268267437687 -0.012026947496716955 0 -0.012026947496716955 -0.014215610731710626 0 0 0 -0.013123469749787064 -0.042660675232658818 -0.015182443378282945 0 -0.015182443378282945 0.02089946976743895 0 0 0 -0.0054403013663050226 -0.05274302611448517 -0.018314221193190303 0 -0.018314221193190303 0.015791781101622382 0 0 0 -0.0092378112532155998 -0.023463563460025698 -0.0029128471127595201 0 -0.0029128471127595201 -0.011816120000365513 0 0 0 -0.0088199208650978009 -0.023086091398816844 0.00025678117717553572 0 0.00025678117717553572 -0.0039756358091653787 0 0 0 -0.0067654318019954585 -0.050797245715964418 0.031774661374188329 0 0.031774661374188329 0.13915654207400663 0 0 0 0.022089824089510546 -0.080868667883308765 -0.019699611528935249 0 -0.019699611528935249 0.019991293910061186 0 0 0 -0.015219343493311929 -0.084464434124367938 -0.031571781173843155 0 -0.031571781173843155 0.011327571350391474 0 0 0 -0.018284215693494116 -0.089847446565295919 -0.0021321013041826972 0 -0.0021321013041826972 0.0054184909627090772 0 0 0 -0.021107238900646724 -0.14045728857828932 0.057917726906512756 0 0.057917726906512756 0.0058225291103002341 0 0 0 -0.033658689866997493 -0.11438675432089906 0.078949472615490124 0 0.078949472615490124 0.051564287148019972 0 0 0 -0.015705616793219801 -0.045408503440897433 0.03015817420868136 0 0.03015817420868136 0.089992874245935273 0 0 0 0.01114609270125945 -0.030255815617521609 -0.011047151716543432 0 -0.011047151716543432 0.044275749636164097 0 0 0 0.0035049835046606637 -0.038617308723999377 -0.0089218379848807206 0 -0.0089218379848807206 0.047143489362132085 0 0 0 0.0021315451595331769 -0.0068455201865073034 0.044200496608559611 0 0.044200496608559611 0.096722095664950991 0 0 0 0.022469143869610936 -0.082532207201274355 -0.037835943819584328 0 -0.037835943819584328 0.023966622539552396 0 0 0 -0.01464139616543042 -0.096703703344650421 -0.027164702585923295 0 -0.027164702585923295 0.0022830140609841898 0 0 0 -0.02360517232091644 -0.042308856629811403 0.026725125355117389 0 0.026725125355117389 0.068287896913894058 0 0 0 0.0064947600710206499 -0.025768338840749201 0.033978404825533298 0 0.033978404825533298 0.056259357949783276 0 0 0 0.0076227547772585082 -0.056215317810073551 -0.022074211067381222 0 -0.022074211067381222 0.032518932615792751 0 0 0 -0.0059240962985701029 -0.066362782680412624 -0.011169153842077263 0 -0.011169153842077263 0.015824122260314905 0 0 0 -0.01263466510502443 -0.066146519692662747 -0.0097321128223108316 0 -0.0097321128223108316 0.028147590366988495 0 0 0 -0.00949973233141857 -0.067756926412071067 -0.0072657958263618455 0 -0.0072657958263618455 0.046343231619948355 0 0 0 -0.0053534236980306571 -0.0055518695450054167 0.022091719798125631 0 0.022091719798125631 0.14574592321900681 0 0 0 0.035048513418500349 -0.03638815326719258 -0.0073883257848670336 0 -0.0073883257848670336 0.00038870958390857524 0 0 0 -0.0089998609208210567 -0.10375885141001347 0.0053519755664671043 0 0.0053519755664671043 0.0010823373431245176 0 0 0 -0.02566912851672222 -0.050718756331543005 0.0036885063504608555 0 0.0036885063504608555 -0.017856491430516368 0 0 0 -0.017143811940514841 0.028419853892326263 0.022825906271284113 0 0.022825906271284113 0.084514864168331982 0 0 0 0.028233679515164423 -0.032160245670847187 -0.0080645849217705345 0 -0.0080645849217705345 -0.012291344577449292 0 0 0 -0.011112897562074286 -0.093537328916493453 -0.032044433583834929 0 -0.032044433583834929 0.0012085989210414705 0 0 0 -0.023082182498862999 -0.12439509858584405 -0.024678623038442239 0 -0.024678623038442239 0.0066768862701560572 0 0 0 -0.029429553078922005 -0.048313774257302378 -0.015371560799895267 0 -0.015371560799895267 0.05709816702827808 0 0 0 0.0021960981927438561 
</DataArray>
<DataArray type="Float64" Name="cross_section_updated" format="ascii">
0.001012335365214209 0.0010302262256941743 0.0010406177170913489 0.0010500598816744122 0.0010596028282909866 0.0010698077607937441 0.0010807816845012797 0.0010918441625916426 0.001102893206328528 0.0011127313637665152 0.0020430115300920947 0.0021105492843047453 0.0021551885630172541 0.0021943450041780445 0.0022319536735930278 0.0022686339479141534 0.0023048739601494337 0.0023398879146993398 0.0023737094353578395 0.0024052776618700301 1 1 1 1 1 1 1 1 1 1 1 1 1 1 1 1 1 1 1 1 1 1 1 1 1 1 1 1 1 1 1 1 1 1 1 1 1 1 1 1 1 1 1 1 1 1 1 1 1 1 1 1 1 1 1 1 1 1 1 1 1 1 1 1 1 1 1 1 1 1 1 1 1 1 1 1 1 1 1 1 1 1 1 1 1 1 1 1 1 1 1 1 1 1 1 1 1 1 1 1 1 1 1 1 1 1 1 1 1 1 1 1 1 1 1 1 1 1 1 1 1 1 1 1 1 1 1 1 1 1 1 1 1 1 1 1 1 1 1 1 1 1 1 1 1 1 1 1 1 1 1 1 1 1 1 1 1 1 1 1 1 1 1 1 1 1 1 1 1 1 1 1 1 1 1 1 1 1 1 1 1 1 1 1 1 1 1 1 1 1 1 1 1 1 1 1 1 1 1 1 1 1 1 1 1 1 1 1 1 1 1 1 1 1 1 1 1 1 1 1 1 1 1 1 1 1 1 1 1 1 1 1 1 1 1 1 1 1 1 1 1 1 1 1 1 1 1 1 1 1 1 1 1 1 1 1 1 1 1 1 1 1 1 1 1 1 1 1 1 1 1 1 1 1 1 1 1 1 1 1 1 1 1 1 1 1 1 1 1 1 1 1 1 1 1 1 1 1 1 1 1 1 1 1 1 1 1 1 1 1 1 1 1 1 1 1 1 1 1 1 1 1 1 1 1 1 1 1 1 1 1 1 1 1 1 1 1 1 1 1 1 1 1 1 1 1 1 1 1 1 1 1 1 1 1 1 1 1 1 1 1 1 1 1 1 1 1 1 1 1 1 1 1 1 1 1 1 1 1 1 1 1 1 1 1 1 1 1 1 1 1 1 1 1 1 1 1 1 1 1 1 1 1 1 1 1 1 1 1 1 1 1 1 1 1 1 1 1 1 1 1 1 1 1 1 1 1 1 1 1 1 1 1 1 1 1 1 1 1 1 1 1 1 1 1 1 1 1 1 1 1 1 1 1 1 1 1 1 1 1 1 1 1 1 1 1 1 1 1 1 1 1 1 1 1 1 1 1 1 1 1 1 1 1 1 1 1 1 1 1 1 1 1 1 1 1 1 1 1 1 1 1 1 1 1 1 1 1 1 1 1 1 1 1 1 1 1 1 1 1 1 1 1 1 1 1 1 1 1 1 1 1 1 1 1 1 1 1 1 1 1 1 1 1 1 1 1 1 1 1 1 1 1 1 1 1 1 1 1 1 1 1 1 1 1 1 1 1 1 1 1 1 1 1 1 1 1 1 1 1 1 1 1 1 1 1 1 1 1 1 1 1 1 1 1 1 1 1 1 1 1 1 1 1 1 1 1 1 1 1 1 1 1 1 1 1 1 1 1 1 1 1 1 1 1 1 1 1 1 1 1 1 1 1 1 1 1 1 1 1 1 1 1 1 1 1 1 1 1 1 1 1 1 1 1 1 1 1 1 1 1 1 1 1 1 1 1 1 1 1 1 1 1 1 1 1 1 1 1 1 1 1 1 1 1 1 1 1 1 1 1 1 1 1 1 1 1 1 1 1 1 1 1 1 1 1 1 1 1 1 1 1 1 1 1 1 1 1 1 1 1 1 1 1 1 1 1 1 1 1 1 1 1 1 1 1 1 1 1 1 1 1 1 1 1 1 1 1 1 1 1 1 1 1 1 1 1 1 1 1 1 1 1 1 1 1 1 1 1 1 1 1 1 1 1 1 1 1 1 1 1 1 1 1 1 1 1 1 1 1 1 1 1 1 1 1 1 1 1 1 1 1 1 1 1 1 1 1 1 1 1 1 1 1 1 1 1 1 1 1 1 1 1 1 1 1 1 1 1 1 1 1 1 1 1 1 1 1 1 1 1 1 1 1 1 1 1 1 1 1 1 1 1 1 1 1 1 1 1 1 1 1 1 1 1 1 1 1 1 1 1 1 1 1 1 1 1 1 1 1 1 1 1 1 1 1 1 1 1 1 1 1 1 1 1 1 1 1 1 1 1 1 1 1 1 1 1 1 1 1 1 1 1 1 1 1 1 1 1 1 1 1 1 1 1 1 1 1 1 1 1 1 1 1 1 1 1 1 1 1 1 1 1 1 1 1 1 1 1 1 1 1 1 1 1 1 1 1 1 1 1 1 1 1 1 1 1 1 1 1 1 1 1 1 1 1 1 1 1 1 1 1 1 1 1 1 1 1 1 1 1 1 1 1 1 1 1 1 1 1 1 1 1 1 1 1 1 1 1 1 1 1 1 1 1 1 1 1 1 1 1 1 1 1 1 1 1 1 1 1 1 1 1 1 
</DataArray>
</CellData>
</Piece>
</UnstructuredGrid>
</VTKFile>
