<?xml version="1.0"?>
<VTKFile type="UnstructuredGrid" version="0.1" byte_order="LittleEndian">
<UnstructuredGrid>
<Piece NumberOfPoints="3142" NumberOfCells="1054">
<Points>
<DataArray type="Float64" NumberOfComponents="3" format="ascii">
0.5 0.29999999999999999 0 0.54999999999999993 0.29999999999999999 0 0.54999999999999993 0.29999999999999999 0 0.59999999999999976 0.29999999999999999 0 0.59999999999999976 0.29999999999999999 0 0.6499999999999998 0.29999999999999999 0 0.6499999999999998 0.29999999999999999 0 0.69999999999999984 0.29999999999999999 0 0.69999999999999984 0.29999999999999999 0 0.74999999999999989 0.29999999999999999 0 0.74999999999999989 0.29999999999999999 0 0.79999999999999982 0.29999999999999999 0 0.79999999999999982 0.29999999999999999 0 0.84999999999999987 0.29999999999999999 0 0.84999999999999987 0.29999999999999999 0 0.89999999999999991 0.29999999999999999 0 0.89999999999999991 0.29999999999999999 0 0.94999999999999996 0.29999999999999999 0 0.94999999999999996 0.29999999999999999 0 1 0.29999999999999999 0 0.5 0.69999999999999996 0 0.54999999999999993 0.69999999999999996 0 0.54999999999999993 0.69999999999999996 0 0.59999999999999976 0.69999999999999996 0 0.59999999999999976 0.69999999999999996 0 0.6499999999999998 0.69999999999999996 0 0.6499999999999998 0.69999999999999996 0 0.69999999999999984 0.69999999999999996 0 0.69999999999999984 0.69999999999999996 0 0.74999999999999989 0.69999999999999996 0 0.74999999999999989 0.69999999999999996 0 0.79999999999999982 0.69999999999999996 0 0.79999999999999982 0.69999999999999996 0 0.84999999999999987 0.69999999999999996 0 0.84999999999999987 0.69999999999999996 0 0.89999999999999991 0.69999999999999996 0 0.89999999999999991 0.69999999999999996 0 0.94999999999999996 0.69999999999999996 0 0.94999999999999996 0.69999999999999996 0 1 0.69999999999999996 0 0.40076539126862748 0.34589349467022118 0 0.33277555741076909 0.36432196682010132 0 0.36575549820117997 0.31677992835137742 0 0.38083244760691543 0.38531983672244652 0 0.33277555741076909 0.36432196682010132 0 0.40076539126862748 0.34589349467022118 0 0.56836770495988642 0.3523062350852913 0 0.52289427570932567 0.3932284363388488 0 0.52752007115234678 0.33170632466418198 0 0.52752007115234678 0.33170632466418198 0 0.52289427570932567 0.3932284363388488 0 0.49077833859261139 0.35229981449445641 0 0.10000000000041601 1 0 0.053064897599294662 0.95186845269532028 0 0.10266856499240549 0.95548163909968886 0 0.099999999999814668 0 0 0.10266856499169109 0.044518360900210059 0 0.053064897599215843 0.048131547304697528 0 0.050000000000207989 1 0 0.053064897599294662 0.95186845269532028 0 0.10000000000041601 1 0 0.049999999999899652 0 0 0.099999999999814668 0 0 0.053064897599215843 0.048131547304697528 0 0.24999999999941211 0 0 0.29999999999926641 0 0 0.27499999999933927 0.060310814194988557 0 0.30000000000124832 1 0 0.25000000000104028 1 0 0.27609987656793722 0.94991445621608572 0 0.15720202157091859 0.60665697304410315 0 0.19914261668318661 0.62286739485272158 0 0.16500388252850301 0.66612077714085194 0 0.2236846579037573 0.67380363126050236 0 0.16500388252850301 0.66612077714085194 0 0.19914261668318661 0.62286739485272158 0 0.1247745017231483 0.27198077544791172 0 0.168349569971391 0.28054490850913671 0 0.14223753364722069 0.3341983344262433 0 0 0.75000000000034661 0 0 0.7000000000006934 0 0.049706944316475897 0.72477277076253799 0 0 0.30000000000124832 0 0 0.25000000000104028 0 0.049706944316556423 0.27522722923869108 0 0.59999999999999976 0.29999999999999999 0 0.61959173890754571 0.33832250091341232 0 0.56836770495988642 0.3523062350852913 0 0.5 0.69999999999999996 0 0.43323420005758778 0.6913544522562407 0 0.47913475093885149 0.66010775372412711 0 1 0.14999999999961891 0 0.95391631417672862 0.19584263333809451 0 0.93677536231883773 0.14999999999999089 0 1 0.84999999999982645 0 0.95391631417670719 0.89584263333814784 0 0.93677536231884972 0.85000000000000286 0 1 0.84999999999982645 0 0.93677536231884972 0.85000000000000286 0 0.95386563387742829 0.80414874155775029 0 1 0.14999999999961891 0 0.93677536231883773 0.14999999999999089 0 0.95386563387744361 0.1041487415577465 0 0.90416666666660628 0.9041666666666166 0 0.88088768115933802 0.84674609810493673 0 0.93677536231884972 0.85000000000000286 0 0.90416666666668166 0.20416666666667119 0 0.88088768115941807 0.14674609810479519 0 0.93677536231883773 0.14999999999999089 0 0.1247745017231483 0.27198077544791172 0 0.14223753364722069 0.3341983344262433 0 0.093851963071650835 0.30582068233324772 0 0.5 0.69999999999999996 0 0.45582236402875981 0.73896743678908217 0 0.43323420005758778 0.6913544522562407 0 0.55000000000173355 1 0 0.50000000000205869 1 0 0.52122150208832174 0.94089974453840242 0 0.49999999999869432 0 0 0.5499999999988151 0 0 0.52375890611712683 0.059318771819432882 0 0.54999999999999993 0.29999999999999999 0 0.59999999999999976 0.29999999999999999 0 0.56836770495988642 0.3523062350852913 0 0.50202631463681879 0.87892870825713787 0 0.44003836461056539 0.88093474584252718 0 0.45677673713123867 0.84253684404072415 0 0.33403534827021109 0.84402799729020661 0 0.35864759629805099 0.87963482415279515 0 0.30864387279288652 0.89906554525974958 0 0.53245488764484505 0.55078124999999989 0 0.47793794143994173 0.52940715638744962 0 0.53330375813596242 0.50827942741749099 0 0.82709327591102189 0.14937141670914489 0 0.81283102246527783 0.1881007222486438 0 0.77144070960558853 0.14311854477243749 0 0.82709327591091286 0.84937141670920724 0 0.81159157511211755 0.88795995483179491 0 0.76901770135486491 0.84293557325473656 0 0.77144070960558853 0.14311854477243749 0 0.81283102246527783 0.1881007222486438 0 0.76587607630038135 0.18880039518954719 0 0.76901770135486491 0.84293557325473656 0 0.81159157511211755 0.88795995483179491 0 0.76891166905518427 0.88835469571185499 0 0.33403534827021109 0.84402799729020661 0 0.30864387279288652 0.89906554525974958 0 0.29209212897034281 0.84715728365233667 0 0.57412547362576272 0.58273804879550706 0 0.5166924242153631 0.59825134841919447 0 0.53245488764484505 0.55078124999999989 0 0.50202631463681879 0.87892870825713787 0 0.47401147028110507 0.91529957330468115 0 0.44003836461056539 0.88093474584252718 0 0.5 0.69999999999999996 0 0.54999999999999993 0.69999999999999996 0 0.55363780716230748 0.74348740161571747 0 1 0.34999999999993492 0 0.95871855522754235 0.40006508612975411 0 0.95780851984364423 0.34215720972155339 0 1 0.64999999999986979 0 0.9578014258160763 0.65787212321113708 0 0.95867599106212187 0.60011091146651041 0 0.46666084890304671 0.57634471035397938 0 0.47793794143994173 0.52940715638744962 0 0.53245488764484505 0.55078124999999989 0 0.94999999999999996 0.29999999999999999 0 0.89898474358614167 0.25391965591104898 0 0.94399509803921056 0.24399509803922639 0 0.94999999999979179 1 0 0.89898474358632463 0.95391965591118966 0 0.94399509803919068 0.9439950980391687 0 0 0.65000000000104008 0 0.050069554451969707 0.61308520079857043 0 0.046634677244967337 0.671418230738282 0 0 0.35000000000145642 0 0.046389130980076937 0.32668781832131749 0 0.050583896093752537 0.38543522283434112 0 0.50202631463681879 0.87892870825713787 0 0.50627822638148745 0.8263979829520941 0 0.55899371797446828 0.85003102233514438 0 0.54782696902220018 0.79245182748204157 0 0.55899371797446828 0.85003102233514438 0 0.50627822638148745 0.8263979829520941 0 0.50945740445113552 0.75476055527778108 0 0.5 0.69999999999999996 0 0.55363780716230748 0.74348740161571747 0 0.84999999999965292 1 0 0.85170973911348691 0.93569607295217616 0 0.89898474358632463 0.95391965591118966 0 0.84999999999999987 0.29999999999999999 0 0.8517097391133297 0.2356960729520409 0 0.89898474358614167 0.25391965591104898 0 0.86956835336234861 0.571283299838105 0 0.82862096804812391 0.55037090955459045 0 0.86907294890112186 0.52008116128001669 0 0.49102375406324739 0.49123754822244059 0 0.53330375813596242 0.50827942741749099 0 0.47793794143994173 0.52940715638744962 0 0.57611405284611883 0.50165903596042916 0 0.61547661924074692 0.48539576058873962 0 0.62042975506801734 0.54295974692364424 0 0.71406021706547751 0.63292083137662503 0 0.67529834988829951 0.61613270668143583 0 0.71809016091162536 0.58185040402320831 0 0.65000000000104008 1 0 0.62065498684670595 0.95224934003983619 0 0.68015064798562208 0.95924320340003011 0 0.84999999999960507 0 0 0.899991664607802 0.045289349238254978 0 0.85491058998398861 0.060047533455626502 0 0.84999999999999987 0.69999999999999996 0 0.89999166460796554 0.74528934923809909 0 0.85491058998424563 0.76004753345552634 0 0.89999999999999991 0.29999999999999999 0 0.89898474358614167 0.25391965591104898 0 0.94999999999999996 0.29999999999999999 0 0.94999999999979179 1 0 0.89999999999958358 1 0 0.89898474358632463 0.95391965591118966 0 0.86411095495256451 0.42388805655111889 0 0.81308179852519835 0.39754945808726527 0 0.86844634540301924 0.38530937474099819 0 0.5 0.29999999999999999 0 0.49695729691142171 0.25014895411178018 0 0.54248833945060504 0.2520322959927106 0 0.86411095495256451 0.42388805655111889 0 0.81973119833356312 0.43505687159469048 0 0.81308179852519835 0.39754945808726527 0 0.67323294229744413 0.57556450033612505 0 0.71809016091162536 0.58185040402320831 0 0.67529834988829951 0.61613270668143583 0 0.6236733212988993 0.14864538214901801 0 0.68391457121233579 0.14440470121196541 0 0.64011864159029941 0.18789607982138171 0 0 0.050000000000207989 0 0.053064897599215843 0.048131547304697528 0 0.044310582753132287 0.101412518374475 0 0 0.94999999999979179 0 0.0443105827531413 0.89858748162559932 0 0.053064897599294662 0.95186845269532028 0 1 0.34999999999993492 0 1 0.39999999999978308 0 0.95871855522754235 0.40006508612975411 0 1 0.59999999999973963 0 1 0.64999999999986979 0 0.95867599106212187 0.60011091146651041 0 0 0.84999999999965292 0 0.065374659239661639 0.8551091961254178 0 0.0443105827531413 0.89858748162559932 0 0 0.15000000000062411 0 0.044310582753132287 0.101412518374475 0 0.065374659239632718 0.1448908038746782 0 0.16500388252850301 0.66612077714085194 0 0.1020579365089687 0.69352219419301997 0 0.1241190223511371 0.64391885572885044 0 0.14999999999970359 0 0 0.14618258501891079 0.062070108745602003 0 0.10266856499169109 0.044518360900210059 0 0.15000000000062411 1 0 0.10266856499240549 0.95548163909968886 0 0.14617343800780541 0.93808063414349496 0 0.7152569930854884 0.5237994455134295 0 0.67569444444444449 0.53500863336860327 0 0.69385896817107129 0.48377516041410151 0 0.6541250972820879 0.49999999999999989 0 0.62042975506801734 0.54295974692364424 0 0.61547661924074692 0.48539576058873962 0 0.94999999999999996 0.69999999999999996 0 0.94399509803918602 0.75600490196082126 0 0.89999166460796554 0.74528934923809909 0 0.94999999999986839 0 0 0.94399509803922566 0.056004901960802607 0 0.899991664607802 0.045289349238254978 0 0.6541250972820879 0.49999999999999989 0 0.69385896817107129 0.48377516041410151 0 0.67569444444444449 0.53500863336860327 0 0.82862096804812391 0.55037090955459045 0 0.81723410853263523 0.59419663659258926 0 0.77151014687832564 0.54436834383023036 0 0.7250000000005199 0.89375000000045834 0 0.66412543161245952 0.88015090885499059 0 0.68697391633157634 0.84450604838764298 0 0 0.94999999999979179 0 0 0.89999999999958358 0 0.0443105827531413 0.89858748162559932 0 0 0.10000000000041601 0 0 0.050000000000207989 0 0.044310582753132287 0.101412518374475 0 0.16500388252850301 0.66612077714085194 0 0.15332765547575641 0.71200081858233666 0 0.1020579365089687 0.69352219419301997 0 0.90299850604011456 0.79563452813489832 0 0.93677536231884972 0.85000000000000286 0 0.88088768115933802 0.84674609810493673 0 0.90299850604006393 0.09563452813493091 0 0.93677536231883773 0.14999999999999089 0 0.88088768115941807 0.14674609810479519 0 0.68391457121233579 0.14440470121196541 0 0.6865991819015953 0.189116534044597 0 0.64011864159029941 0.18789607982138171 0 0.085622222639554768 0.53333248912060549 0 0.1216098864341134 0.50637075089503902 0 0.1154888278694548 0.56733818459978413 0 0.21858834311891909 0.81980263716112767 0 0.22556077506376701 0.77837424984191617 0 0.26104540868854792 0.81401944968719064 0 0.81723410853263523 0.59419663659258926 0 0.77293540622714185 0.59448302402785813 0 0.77151014687832564 0.54436834383023036 0 0.1154888278694548 0.56733818459978413 0 0.1216098864341134 0.50637075089503902 0 0.14934928745814749 0.55042914607228977 0 0.1216098864341134 0.50637075089503902 0 0.068743045408989428 0.48853989837882689 0 0.113541300460994 0.46208784312094731 0 0.078358742472063481 0.43365249433908948 0 0.113541300460994 0.46208784312094731 0 0.068743045408989428 0.48853989837882689 0 0.83573492347052902 0.36590755630746369 0 0.81308179852519835 0.39754945808726527 0 0.78145581580700685 0.34881365920033602 0 0.57611405284611883 0.50165903596042916 0 0.62042975506801734 0.54295974692364424 0 0.57435499076887508 0.54267261987897775 0 0.86956835336234861 0.571283299838105 0 0.81723410853263523 0.59419663659258926 0 0.82862096804812391 0.55037090955459045 0 0.46666084890304671 0.57634471035397938 0 0.53245488764484505 0.55078124999999989 0 0.5166924242153631 0.59825134841919447 0 0.89999999999999991 0.69999999999999996 0 0.94999999999999996 0.69999999999999996 0 0.89999166460796554 0.74528934923809909 0 0.89999999999973679 0 0 0.94999999999986839 0 0 0.899991664607802 0.045289349238254978 0 0.84999999999960507 0 0 0.89999999999973679 0 0 0.899991664607802 0.045289349238254978 0 0.84999999999999987 0.69999999999999996 0 0.89999999999999991 0.69999999999999996 0 0.89999166460796554 0.74528934923809909 0 0.43545892161006339 0.61093128915313821 0 0.4089290844030305 0.58728915500154233 0 0.46666084890304671 0.57634471035397938 0 0.1650278706801647 0.38791388161335733 0 0.1117088112799664 0.38831403004970022 0 0.14223753364722069 0.3341983344262433 0 0.087545339447545459 0.35122518864182262 0 0.14223753364722069 0.3341983344262433 0 0.1117088112799664 0.38831403004970022 0 0.6916490518212759 0.75387992374886192 0 0.72501250972655151 0.74067302935308721 0 0.72500000000000064 0.7952620967744265 0 0.72501250972655151 0.74067302935308721 0 0.75841349681148107 0.75422312624214749 0 0.72500000000000064 0.7952620967744265 0 0.57412547362576272 0.58273804879550706 0 0.53245488764484505 0.55078124999999989 0 0.57435499076887508 0.54267261987897775 0 1 0.54999999999963112 0 0.95867599106212187 0.60011091146651041 0 0.93732437411268477 0.55911392101136159 0 1 0.44999999999963131 0 0.93814194660195893 0.44426664081746747 0 0.95871855522754235 0.40006508612975411 0 0.4089290844030305 0.58728915500154233 0 0.42644501560315817 0.54603747078095544 0 0.46666084890304671 0.57634471035397938 0 0.89999999999958358 1 0 0.84999999999965292 1 0 0.89898474358632463 0.95391965591118966 0 0.84999999999999987 0.29999999999999999 0 0.89898474358614167 0.25391965591104898 0 0.89999999999999991 0.29999999999999999 0 0.29999999999926641 0 0 0.32541448401678508 0.046215317981507749 0 0.27499999999933927 0.060310814194988557 0 0.30000000000124832 1 0 0.27609987656793722 0.94991445621608572 0 0.32544832635163229 0.95485394099568932 0 0.57412547362576272 0.58273804879550706 0 0.62042975506801734 0.54295974692364424 0 0.63065402604362242 0.59661356661633302 0 0.5 0.29999999999999999 0 0.54248833945060504 0.2520322959927106 0 0.54999999999999993 0.29999999999999999 0 0.67323294229744413 0.57556450033612505 0 0.62042975506801734 0.54295974692364424 0 0.67569444444444449 0.53500863336860327 0 0.6541250972820879 0.49999999999999989 0 0.67569444444444449 0.53500863336860327 0 0.62042975506801734 0.54295974692364424 0 1 0.14999999999961891 0 1 0.19999999999974799 0 0.95391631417672862 0.19584263333809451 0 1 0.84999999999982645 0 1 0.8999999999998336 0 0.95391631417670719 0.89584263333814784 0 1 0.7999999999998193 0 1 0.84999999999982645 0 0.95386563387742829 0.80414874155775029 0 1 0.099999999999753911 0 1 0.14999999999961891 0 0.95386563387744361 0.1041487415577465 0 0.4656888918609538 0.78493261229743638 0 0.50627822638148745 0.8263979829520941 0 0.45677673713123867 0.84253684404072415 0 0.6879972333610942 0.43038561374960838 0 0.72622533758026719 0.40265885511101601 0 0.73483647259922602 0.44789725365921768 0 0.67323294229744413 0.57556450033612505 0 0.67569444444444449 0.53500863336860327 0 0.71809016091162536 0.58185040402320831 0 0.7152569930854884 0.5237994455134295 0 0.71809016091162536 0.58185040402320831 0 0.67569444444444449 0.53500863336860327 0 0.65394964615507722 0.22666784374016369 0 0.59814117807200873 0.23398510860739519 0 0.64011864159029941 0.18789607982138171 0 0.55000000000173355 1 0 0.52122150208832174 0.94089974453840242 0 0.57382506491224949 0.9629411906298494 0 0.39801143831225599 0.16651381068160659 0 0.44288491854585582 0.14116182884956319 0 0.42905200079338551 0.19982395548231649 0 0.47357141910802508 0.1873585799078378 0 0.42905200079338551 0.19982395548231649 0 0.44288491854585582 0.14116182884956319 0 0.90594285160987287 0.4141265964174129 0 0.88594198078881503 0.46167788676578442 0 0.86411095495256451 0.42388805655111889 0 0.65507451745379841 0.92229208810758578 0 0.68015064798562208 0.95924320340003011 0 0.62065498684670595 0.95224934003983619 0 0.35312867752657662 0.084946736076730367 0 0.39591832466117061 0.056982757562006353 0 0.39823268594401579 0.1116623613130045 0 0.43698630808430822 0.080423614171545449 0 0.39823268594401579 0.1116623613130045 0 0.39591832466117061 0.056982757562006353 0 0.4367309254023824 0.92065556789053882 0 0.39641108128798319 0.94356127926187128 0 0.39767323751400468 0.89584229130535065 0 0.35752321586431363 0.9185439911803448 0 0.39767323751400468 0.89584229130535065 0 0.39641108128798319 0.94356127926187128 0 0.77354604466818633 0.40378688774472771 0 0.77972660463949339 0.45529290596363098 0 0.73483647259922602 0.44789725365921768 0 0.5499999999988151 0 0 0.57396793757665954 0.037011367187645222 0 0.52375890611712683 0.059318771819432882 0 0.64753070846764316 0.77332939069435502 0 0.60294066490120068 0.80851322453934582 0 0.59636844454254345 0.75937156204589151 0 0.49102375406324739 0.49123754822244059 0 0.48858720058566618 0.43964267759203868 0 0.53823865529665704 0.45873898050322898 0 0.28307294598219601 0.50789252727458634 0 0.29110487519241501 0.56588143995431495 0 0.25115337790845271 0.54719303014923271 0 0.79680861578988083 0.92656778056766709 0 0.81159157511211755 0.88795995483179491 0 0.85170973911348691 0.93569607295217616 0 0.79680861578956375 0.22656778056752541 0 0.81283102246527783 0.1881007222486438 0 0.8517097391133297 0.2356960729520409 0 0.57412547362576272 0.58273804879550706 0 0.57435499076887508 0.54267261987897775 0 0.62042975506801734 0.54295974692364424 0 0.93814194660195893 0.44426664081746747 0 0.88594198078881503 0.46167788676578442 0 0.90594285160987287 0.4141265964174129 0 0.7152569930854884 0.5237994455134295 0 0.73947346780852752 0.49062440112282169 0 0.77151014687832564 0.54436834383023036 0 0 0.7000000000006934 0 0.046634677244967337 0.671418230738282 0 0.049706944316475897 0.72477277076253799 0 0 0.30000000000124832 0 0.049706944316556423 0.27522722923869108 0 0.046389130980076937 0.32668781832131749 0 0.59814117807200873 0.23398510860739519 0 0.59443395090188023 0.18455690917515069 0 0.64011864159029941 0.18789607982138171 0 0.21858834311891909 0.81980263716112767 0 0.26104540868854792 0.81401944968719064 0 0.2401283238295133 0.85648409884788523 0 0.39536230704883951 0.84069429572832477 0 0.45677673713123867 0.84253684404072415 0 0.44003836461056539 0.88093474584252718 0 0.086179601630648681 0.64647209519980475 0 0.050069554451969707 0.61308520079857043 0 0.1024350934457823 0.60772393977513839 0 0.077693244765132896 0.56932317963405099 0 0.1024350934457823 0.60772393977513839 0 0.050069554451969707 0.61308520079857043 0 0.078358742472063481 0.43365249433908948 0 0.050583896093752537 0.38543522283434112 0 0.1117088112799664 0.38831403004970022 0 0.087545339447545459 0.35122518864182262 0 0.1117088112799664 0.38831403004970022 0 0.050583896093752537 0.38543522283434112 0 0.33403534827021109 0.84402799729020661 0 0.35642984951668422 0.80994399665655703 0 0.39536230704883951 0.84069429572832477 0 0.28307294598219601 0.50789252727458634 0 0.33190227185843768 0.52715113583864037 0 0.29110487519241501 0.56588143995431495 0 0.2236846579037573 0.67380363126050236 0 0.19068556247388771 0.71028988922845504 0 0.16500388252850301 0.66612077714085194 0 0.26104540868854792 0.81401944968719064 0 0.22556077506376701 0.77837424984191617 0 0.2792923945214143 0.77665808831789485 0 0.38244435121258652 0.51653317813019495 0 0.37272913873093971 0.56192925302619479 0 0.33190227185843768 0.52715113583864037 0 0.25195515620380449 0.25883339815888678 0 0.29132859388405002 0.27203693976649962 0 0.24432083401701241 0.3006253385567515 0 0.29348325746214782 0.31350119524708198 0 0.24432083401701241 0.3006253385567515 0 0.29132859388405002 0.27203693976649962 0 0 0.89999999999958358 0 0 0.84999999999965292 0 0.0443105827531413 0.89858748162559932 0 0 0.15000000000062411 0 0 0.10000000000041601 0 0.044310582753132287 0.101412518374475 0 0.59999999999999976 0.69999999999999996 0 0.59636844454254345 0.75937156204589151 0 0.55363780716230748 0.74348740161571747 0 0.1650278706801647 0.38791388161335733 0 0.22033343844674469 0.36963382230740238 0 0.191953871957803 0.42546416763755879 0 0.52289427570932567 0.3932284363388488 0 0.46655310992796922 0.39650496622958609 0 0.49077833859261139 0.35229981449445641 0 0.91696753777131557 0.497780560203536 0 0.88594198078881503 0.46167788676578442 0 0.93814194660195893 0.44426664081746747 0 0.24999999999941211 0 0 0.27499999999933927 0.060310814194988557 0 0.22668068146512929 0.045875643423131329 0 0.25000000000104028 1 0 0.22850979588452081 0.95594428570238643 0 0.27609987656793722 0.94991445621608572 0 0.77846603114747959 0.49850927265137401 0 0.77151014687832564 0.54436834383023036 0 0.73947346780852752 0.49062440112282169 0 0.27499999999933927 0.060310814194988557 0 0.27474541102162192 0.11822029332053539 0 0.24218496799700481 0.089025544070598317 0 0.27270076654418179 0.87751467830216623 0 0.29209212897034281 0.84715728365233667 0 0.30864387279288652 0.89906554525974958 0 0.3096713403101819 0.085471541595262421 0 0.27474541102162192 0.11822029332053539 0 0.27499999999933927 0.060310814194988557 0 0.17933913398461551 0.2350063570234002 0 0.18124454140915969 0.18790916706335251 0 0.224700362040408 0.22206622194729711 0 0.18269480424590959 0.75905448272264375 0 0.22556077506376701 0.77837424984191617 0 0.17777405986036951 0.81832336108265358 0 0.35864759629805099 0.87963482415279515 0 0.33403534827021109 0.84402799729020661 0 0.39536230704883951 0.84069429572832477 0 0.77354604466818633 0.40378688774472771 0 0.73483647259922602 0.44789725365921768 0 0.72622533758026719 0.40265885511101601 0 0.80185942888539485 0.77452061303608133 0 0.85491058998424563 0.76004753345552634 0 0.84725310900444062 0.80779732082917555 0 0.80185942888501827 0.074520613036224564 0 0.85491058998398861 0.060047533455626502 0 0.84725310900442086 0.10779732082922661 0 0.086179601630648681 0.64647209519980475 0 0.046634677244967337 0.671418230738282 0 0.050069554451969707 0.61308520079857043 0 0.087545339447545459 0.35122518864182262 0 0.050583896093752537 0.38543522283434112 0 0.046389130980076937 0.32668781832131749 0 0 0.75000000000034661 0 0.049706944316475897 0.72477277076253799 0 0.04408157711937423 0.7728941757575627 0 0 0.25000000000104028 0 0.044081577119474857 0.2271058242433576 0 0.049706944316556423 0.27522722923869108 0 0.52289427570932567 0.3932284363388488 0 0.56836770495988642 0.3523062350852913 0 0.57744073070774993 0.41535148636609359 0 0.6084546825910605 0.37989672713932537 0 0.57744073070774993 0.41535148636609359 0 0.56836770495988642 0.3523062350852913 0 0.61343887413683884 0.856862479058357 0 0.55899371797446828 0.85003102233514438 0 0.60294066490120068 0.80851322453934582 0 0.54782696902220018 0.79245182748204157 0 0.60294066490120068 0.80851322453934582 0 0.55899371797446828 0.85003102233514438 0 0.40326160981139969 0.73346192995102844 0 0.36622285152418499 0.69092437780804039 0 0.43323420005758778 0.6913544522562407 0 0.52289427570932567 0.3932284363388488 0 0.48858720058566618 0.43964267759203868 0 0.46655310992796922 0.39650496622958609 0 0.15720202157091859 0.60665697304410315 0 0.1154888278694548 0.56733818459978413 0 0.14934928745814749 0.55042914607228977 0 0.6879972333610942 0.43038561374960838 0 0.73483647259922602 0.44789725365921768 0 0.69385896817107129 0.48377516041410151 0 0.7250000000005199 0.89375000000045834 0 0.68987011941058407 0.92105047536677087 0 0.66412543161245952 0.88015090885499059 0 0.83573492347052902 0.36590755630746369 0 0.78145581580700685 0.34881365920033602 0 0.82500000000000062 0.33010209762754811 0 0.82862096804812391 0.55037090955459045 0 0.81441713509985358 0.51161854125224959 0 0.86907294890112186 0.52008116128001669 0 0.19670163708476801 0.31472518408333222 0 0.14223753364722069 0.3341983344262433 0 0.168349569971391 0.28054490850913671 0 0.50202631463681879 0.87892870825713787 0 0.45677673713123867 0.84253684404072415 0 0.50627822638148745 0.8263979829520941 0 0.099999999999814668 0 0 0.14999999999970359 0 0 0.10266856499169109 0.044518360900210059 0 0.15000000000062411 1 0 0.10000000000041601 1 0 0.10266856499240549 0.95548163909968886 0 0.67323294229744413 0.57556450033612505 0 0.63065402604362242 0.59661356661633302 0 0.62042975506801734 0.54295974692364424 0 0.083105206071467416 0.20007701332709979 0 0.13737030665753211 0.20313708640667491 0 0.095326043202144745 0.24554465089224409 0 0.083105206071452636 0.79992298667296435 0 0.090953281884486245 0.7564451946902494 0 0.1382744753146134 0.79650574229207483 0 0.50000000000205869 1 0 0.47135117303824892 0.95556877749289892 0 0.52122150208832174 0.94089974453840242 0 0.49999999999869432 0 0 0.52375890611712683 0.059318771819432882 0 0.47040171442036788 0.044141676406503738 0 0.4656888918609538 0.78493261229743638 0 0.45582236402875981 0.73896743678908217 0 0.50945740445113552 0.75476055527778108 0 0.5 0.69999999999999996 0 0.50945740445113552 0.75476055527778108 0 0.45582236402875981 0.73896743678908217 0 0.55306006949600994 0.20198184231352201 0 0.56202748619534593 0.15054058349222879 0 0.59443395090188023 0.18455690917515069 0 0.6236733212988993 0.14864538214901801 0 0.59443395090188023 0.18455690917515069 0 0.56202748619534593 0.15054058349222879 0 0.57412547362576272 0.58273804879550706 0 0.5498280205245758 0.6290146943450976 0 0.5166924242153631 0.59825134841919447 0 0.91696753777131557 0.497780560203536 0 0.93814194660195893 0.44426664081746747 0 0.96228564064454991 0.48206450662049471 0 0.15720202157091859 0.60665697304410315 0 0.16500388252850301 0.66612077714085194 0 0.1241190223511371 0.64391885572885044 0 0.44288491854585582 0.14116182884956319 0 0.47881186583059909 0.093591717165689425 0 0.48466639505193998 0.1421439844745814 0 1 0.54999999999963112 0 0.93732437411268477 0.55911392101136159 0 0.95631871884947484 0.51827533208233789 0 0.57724883562309992 0.92155686857100794 0 0.57382506491224949 0.9629411906298494 0 0.52122150208832174 0.94089974453840242 0 0.85170973911348691 0.93569607295217616 0 0.81159157511211755 0.88795995483179491 0 0.85600844944837662 0.88483418979512773 0 0.8517097391133297 0.2356960729520409 0 0.81283102246527783 0.1881007222486438 0 0.85600844944842547 0.1848341897950983 0 0.27866744612395528 0.38416094670951489 0 0.29124338931648802 0.43334555462578611 0 0.24049127783545701 0.41270748208749802 0 0.6084546825910605 0.37989672713932537 0 0.56836770495988642 0.3523062350852913 0 0.61959173890754571 0.33832250091341232 0 0.20050006573841939 0.53248514016039872 0 0.25115337790845271 0.54719303014923271 0 0.22549374774072969 0.58452645269293457 0 0.26573297623774761 0.59828298563722948 0 0.22549374774072969 0.58452645269293457 0 0.25115337790845271 0.54719303014923271 0 0.26104540868854792 0.81401944968719064 0 0.29209212897034281 0.84715728365233667 0 0.2401283238295133 0.85648409884788523 0 0.6236733212988993 0.14864538214901801 0 0.65290632656860115 0.11434202593454081 0 0.68391457121233579 0.14440470121196541 0 0.19901705110390991 0.9175543425573498 0 0.19741632902693801 0.86755867406447229 0 0.24536017905392571 0.90704567837671446 0 0.72500000000000064 0.7952620967744265 0 0.76901770135486491 0.84293557325473656 0 0.72863726579783861 0.85390518901155588 0 0.72500000000000064 0.7952620967744265 0 0.72863726579783861 0.85390518901155588 0 0.68697391633157634 0.84450604838764298 0 0.7250000000005199 0.89375000000045834 0 0.68697391633157634 0.84450604838764298 0 0.72863726579783861 0.85390518901155588 0 0.72525833953073282 0.1032114801687094 0 0.77144070960558853 0.14311854477243749 0 0.72634814642510737 0.16106886917518889 0 0.72525833953073282 0.1032114801687094 0 0.72634814642510737 0.16106886917518889 0 0.68391457121233579 0.14440470121196541 0 0.36622285152418499 0.69092437780804039 0 0.3977710372045391 0.65868194622830212 0 0.43323420005758778 0.6913544522562407 0 0 0.65000000000104008 0 0 0.60000000000138687 0 0.050069554451969707 0.61308520079857043 0 0 0.40000000000166441 0 0 0.35000000000145642 0 0.050583896093752537 0.38543522283434112 0 0.22033343844674469 0.36963382230740238 0 0.24049127783545701 0.41270748208749802 0 0.191953871957803 0.42546416763755879 0 0.5 0.29999999999999999 0 0.4604742573284204 0.27846934318264788 0 0.49695729691142171 0.25014895411178018 0 0.19741632902693801 0.86755867406447229 0 0.2401283238295133 0.85648409884788523 0 0.24536017905392571 0.90704567837671446 0 0 0.50000000000205869 0 0.068743045408989428 0.48853989837882689 0 0.044576108720083309 0.53509043209532614 0 0.15000000000062411 1 0 0.14617343800780541 0.93808063414349496 0 0.18474005699953849 0.96231585248064622 0 0.14999999999970359 0 0 0.184418230509967 0.038773194583122873 0 0.14618258501891079 0.062070108745602003 0 0.57667858002728545 0.078486105337742612 0 0.52375890611712683 0.059318771819432882 0 0.57396793757665954 0.037011367187645222 0 0.113541300460994 0.46208784312094731 0 0.078358742472063481 0.43365249433908948 0 0.13773355295499351 0.42497777642586831 0 0.77354604466818633 0.40378688774472771 0 0.78145581580700685 0.34881365920033602 0 0.81308179852519835 0.39754945808726527 0 0.38244435121258652 0.51653317813019495 0 0.33190227185843768 0.52715113583864037 0 0.35024835142131061 0.48654922671676981 0 0.64753070846764316 0.77332939069435502 0 0.65005442820240822 0.82644988530054031 0 0.60294066490120068 0.80851322453934582 0 0.15720202157091859 0.60665697304410315 0 0.1024350934457823 0.60772393977513839 0 0.1154888278694548 0.56733818459978413 0 0.90416666666660628 0.9041666666666166 0 0.85600844944837662 0.88483418979512773 0 0.88088768115933802 0.84674609810493673 0 0.90416666666668166 0.20416666666667119 0 0.85600844944842547 0.1848341897950983 0 0.88088768115941807 0.14674609810479519 0 0.078358742472063481 0.43365249433908948 0 0.1117088112799664 0.38831403004970022 0 0.13773355295499351 0.42497777642586831 0 0.38244435121258652 0.51653317813019495 0 0.3908716102680424 0.47010282357248828 0 0.43507373378304309 0.49699695397193322 0 0.90299850604011456 0.79563452813489832 0 0.95386563387742829 0.80414874155775029 0 0.93677536231884972 0.85000000000000286 0 0.90416666666660628 0.9041666666666166 0 0.93677536231884972 0.85000000000000286 0 0.95391631417670719 0.89584263333814784 0 0.90299850604006393 0.09563452813493091 0 0.95386563387744361 0.1041487415577465 0 0.93677536231883773 0.14999999999999089 0 0.90416666666668166 0.20416666666667119 0 0.93677536231883773 0.14999999999999089 0 0.95391631417672862 0.19584263333809451 0 0.39536230704883951 0.84069429572832477 0 0.44003836461056539 0.88093474584252718 0 0.39767323751400468 0.89584229130535065 0 0.51076801031701946 0.1202837388510348 0 0.52375890611712683 0.059318771819432882 0 0.54979595918804436 0.1060565713905809 0 0.57667858002728545 0.078486105337742612 0 0.54979595918804436 0.1060565713905809 0 0.52375890611712683 0.059318771819432882 0 0.57724883562309992 0.92155686857100794 0 0.52122150208832174 0.94089974453840242 0 0.54783390826260769 0.89287767010860219 0 0.50202631463681879 0.87892870825713787 0 0.54783390826260769 0.89287767010860219 0 0.52122150208832174 0.94089974453840242 0 0.087545339447545459 0.35122518864182262 0 0.093851963071650835 0.30582068233324772 0 0.14223753364722069 0.3341983344262433 0 0.54999999999999993 0.69999999999999996 0 0.59999999999999976 0.69999999999999996 0 0.55363780716230748 0.74348740161571747 0 0.083105206071452636 0.79992298667296435 0 0.1074251789111534 0.83564394292147814 0 0.065374659239661639 0.8551091961254178 0 0.083105206071467416 0.20007701332709979 0 0.065374659239632718 0.1448908038746782 0 0.106902708054812 0.16453234188234539 0 0.52289427570932567 0.3932284363388488 0 0.53823865529665704 0.45873898050322898 0 0.48858720058566618 0.43964267759203868 0 0.13737030665753211 0.20313708640667491 0 0.14377654328998779 0.2442024734791064 0 0.095326043202144745 0.24554465089224409 0 0.1382744753146134 0.79650574229207483 0 0.090953281884486245 0.7564451946902494 0 0.14335651144331049 0.75565258250209677 0 0.27270076654418179 0.87751467830216623 0 0.30864387279288652 0.89906554525974958 0 0.24536017905392571 0.90704567837671446 0 0.27609987656793722 0.94991445621608572 0 0.24536017905392571 0.90704567837671446 0 0.30864387279288652 0.89906554525974958 0 0.90299850604011456 0.79563452813489832 0 0.84725310900444062 0.80779732082917555 0 0.85491058998424563 0.76004753345552634 0 0.90299850604006393 0.09563452813493091 0 0.84725310900442086 0.10779732082922661 0 0.85491058998398861 0.060047533455626502 0 1 0.54999999999963112 0 1 0.59999999999973963 0 0.95867599106212187 0.60011091146651041 0 1 0.39999999999978308 0 1 0.44999999999963131 0 0.95871855522754235 0.40006508612975411 0 0.28040350263641872 0.23054717217092141 0 0.25195515620380449 0.25883339815888678 0 0.224700362040408 0.22206622194729711 0 0.84999999999999987 0.29999999999999999 0 0.87430060258887643 0.34056085888204451 0 0.82500000000000062 0.33010209762754811 0 0.84999999999999987 0.69999999999999996 0 0.82457059160610424 0.66831947184359608 0 0.87712158428786946 0.65709029563313581 0 0.86956835336234861 0.571283299838105 0 0.87159648282691515 0.61285406320581504 0 0.81723410853263523 0.59419663659258926 0 0.43698630808430822 0.080423614171545449 0 0.47881186583059909 0.093591717165689425 0 0.44288491854585582 0.14116182884956319 0 1 0.44999999999963131 0 0.96228564064454991 0.48206450662049471 0 0.93814194660195893 0.44426664081746747 0 0.35752321586431363 0.9185439911803448 0 0.30864387279288652 0.89906554525974958 0 0.35864759629805099 0.87963482415279515 0 0.29124338931648802 0.43334555462578611 0 0.25982634974572738 0.46097799597715272 0 0.24049127783545701 0.41270748208749802 0 0.51076801031701946 0.1202837388510348 0 0.56202748619534593 0.15054058349222879 0 0.51729576145820033 0.1683240575987815 0 0.55306006949600994 0.20198184231352201 0 0.51729576145820033 0.1683240575987815 0 0.56202748619534593 0.15054058349222879 0 0.26429849586623999 0.19346700179430079 0 0.28040350263641872 0.23054717217092141 0 0.224700362040408 0.22206622194729711 0 0.51076801031701946 0.1202837388510348 0 0.48466639505193998 0.1421439844745814 0 0.47881186583059909 0.093591717165689425 0 0.2185883431182947 0.18019736283949719 0 0.26429849586623999 0.19346700179430079 0 0.224700362040408 0.22206622194729711 0 0.18269480424590959 0.75905448272264375 0 0.2248999640082178 0.72584299459689172 0 0.22556077506376701 0.77837424984191617 0 0.51076801031701946 0.1202837388510348 0 0.47881186583059909 0.093591717165689425 0 0.52375890611712683 0.059318771819432882 0 0.50202631463681879 0.87892870825713787 0 0.52122150208832174 0.94089974453840242 0 0.47401147028110507 0.91529957330468115 0 0 0.84999999999965292 0 0.038512288486097702 0.8155852717111195 0 0.065374659239661639 0.8551091961254178 0 0 0.15000000000062411 0 0.065374659239632718 0.1448908038746782 0 0.038512288486115001 0.1844147282893184 0 0.2185883431182947 0.18019736283949719 0 0.224700362040408 0.22206622194729711 0 0.18124454140915969 0.18790916706335251 0 0.21858834311891909 0.81980263716112767 0 0.17777405986036951 0.81832336108265358 0 0.22556077506376701 0.77837424984191617 0 0.1215415378367805 0.72939333680004137 0 0.1020579365089687 0.69352219419301997 0 0.15332765547575641 0.71200081858233666 0 0.49695729691142171 0.25014895411178018 0 0.50760557329222289 0.20700468884612061 0 0.54248833945060504 0.2520322959927106 0 0.15720202157091859 0.60665697304410315 0 0.14934928745814749 0.55042914607228977 0 0.18381867841758909 0.57774125163628387 0 0.90416666666660628 0.9041666666666166 0 0.85170973911348691 0.93569607295217616 0 0.85600844944837662 0.88483418979512773 0 0.90416666666668166 0.20416666666667119 0 0.8517097391133297 0.2356960729520409 0 0.85600844944842547 0.1848341897950983 0 0.17933913398461551 0.2350063570234002 0 0.13737030665753211 0.20313708640667491 0 0.18124454140915969 0.18790916706335251 0 0.18269480424590959 0.75905448272264375 0 0.17777405986036951 0.81832336108265358 0 0.1382744753146134 0.79650574229207483 0 0.1216098864341134 0.50637075089503902 0 0.15801167086041079 0.46008690540259539 0 0.16618607197337229 0.50652878253548905 0 0.50760557329222289 0.20700468884612061 0 0.55306006949600994 0.20198184231352201 0 0.54248833945060504 0.2520322959927106 0 0.75000000000034661 1 0 0.7000000000006934 1 0 0.7250000000005199 0.94981617647078953 0 0.69999999999999984 0.29999999999999999 0 0.72500000000000064 0.2498161764706 0 0.74999999999999989 0.29999999999999999 0 0.72525833953073282 0.1032114801687094 0 0.68391457121233579 0.14440470121196541 0 0.68330259535470161 0.10038702501083881 0 0.43249999999999988 0.43937499999999979 0 0.46655310992796922 0.39650496622958609 0 0.48858720058566618 0.43964267759203868 0 0.19901705110390991 0.9175543425573498 0 0.14617343800780541 0.93808063414349496 0 0.16206583317966519 0.89685560785156404 0 0.19922788606653311 0.085920220746880993 0 0.16141998738593399 0.10404039647458049 0 0.14618258501891079 0.062070108745602003 0 0.31378396441836959 0.70157213313026345 0 0.26439878998046262 0.7048065392091396 0 0.27820712747429932 0.65530134213254643 0 0.1216098864341134 0.50637075089503902 0 0.113541300460994 0.46208784312094731 0 0.15801167086041079 0.46008690540259539 0 0.6084546825910605 0.37989672713932537 0 0.65481233915350323 0.35652751921065562 0 0.63912439215427275 0.41063340167983359 0 0.19901705110390991 0.9175543425573498 0 0.18474005699953849 0.96231585248064622 0 0.14617343800780541 0.93808063414349496 0 0.19922788606653311 0.085920220746880993 0 0.14618258501891079 0.062070108745602003 0 0.184418230509967 0.038773194583122873 0 0.38244435121258652 0.51653317813019495 0 0.35024835142131061 0.48654922671676981 0 0.3908716102680424 0.47010282357248828 0 0.82709327591102189 0.14937141670914489 0 0.77144070960558853 0.14311854477243749 0 0.80076557130237269 0.1154587552654202 0 0.82709327591091286 0.84937141670920724 0 0.76901770135486491 0.84293557325473656 0 0.80041942726660109 0.81543261647703358 0 0.43698630808430822 0.080423614171545449 0 0.44288491854585582 0.14116182884956319 0 0.39823268594401579 0.1116623613130045 0 0.39801143831225599 0.16651381068160659 0 0.39823268594401579 0.1116623613130045 0 0.44288491854585582 0.14116182884956319 0 0.36575549820117997 0.31677992835137742 0 0.3786248352540974 0.27082301512024259 0 0.41914690343363781 0.30688979866601612 0 0.42377727103934271 0.25099357235810238 0 0.41914690343363781 0.30688979866601612 0 0.3786248352540974 0.27082301512024259 0 0.049706944316475897 0.72477277076253799 0 0.1020579365089687 0.69352219419301997 0 0.090953281884486245 0.7564451946902494 0 0.1215415378367805 0.72939333680004137 0 0.090953281884486245 0.7564451946902494 0 0.1020579365089687 0.69352219419301997 0 0.1247745017231483 0.27198077544791172 0 0.093851963071650835 0.30582068233324772 0 0.095326043202144745 0.24554465089224409 0 0.049706944316556423 0.27522722923869108 0 0.095326043202144745 0.24554465089224409 0 0.093851963071650835 0.30582068233324772 0 0.77354604466818633 0.40378688774472771 0 0.81973119833356312 0.43505687159469048 0 0.77972660463949339 0.45529290596363098 0 0.43249999999999988 0.43937499999999979 0 0.43507373378304309 0.49699695397193322 0 0.3908716102680424 0.47010282357248828 0 0.26573297623774761 0.59828298563722948 0 0.2459498854893499 0.63248470766216769 0 0.22549374774072969 0.58452645269293457 0 0.72500000000000064 0.7952620967744265 0 0.77094201086366854 0.79647480515688507 0 0.76901770135486491 0.84293557325473656 0 0.72525833953073282 0.1032114801687094 0 0.76878382444651716 0.097147941686331368 0 0.77144070960558853 0.14311854477243749 0 0.72500000000000064 0.7952620967744265 0 0.68697391633157634 0.84450604838764298 0 0.68024162096458085 0.79868546898116533 0 0.31378396441836959 0.70157213313026345 0 0.29904318922293632 0.74132814928635593 0 0.26439878998046262 0.7048065392091396 0 0.31378396441836959 0.70157213313026345 0 0.35415581127540569 0.73730480045900215 0 0.29904318922293632 0.74132814928635593 0 0.61343887413683884 0.856862479058357 0 0.65005442820240822 0.82644988530054031 0 0.66412543161245952 0.88015090885499059 0 0.68697391633157634 0.84450604838764298 0 0.66412543161245952 0.88015090885499059 0 0.65005442820240822 0.82644988530054031 0 0.083411279318375747 0.91030024466934134 0 0.065374659239661639 0.8551091961254178 0 0.10562472963403439 0.87143394428979881 0 0.083411279318303222 0.089699755330707398 0 0.1053400320299198 0.12877248826361379 0 0.065374659239632718 0.1448908038746782 0 0.55306006949600994 0.20198184231352201 0 0.59443395090188023 0.18455690917515069 0 0.59814117807200873 0.23398510860739519 0 0.84999999999999987 0.29999999999999999 0 0.89999999999999991 0.29999999999999999 0 0.87430060258887643 0.34056085888204451 0 0.84999999999999987 0.69999999999999996 0 0.87712158428786946 0.65709029563313581 0 0.89999999999999991 0.69999999999999996 0 0.34258405725730701 0.4444034294386992 0 0.3908716102680424 0.47010282357248828 0 0.35024835142131061 0.48654922671676981 0 0.26573297623774761 0.59828298563722948 0 0.31502927232353312 0.6134992213375432 0 0.27820712747429932 0.65530134213254643 0 0.91696753777131557 0.497780560203536 0 0.86907294890112186 0.52008116128001669 0 0.88594198078881503 0.46167788676578442 0 0.84723782639812573 0.48638347960178252 0 0.88594198078881503 0.46167788676578442 0 0.86907294890112186 0.52008116128001669 0 0.7152569930854884 0.5237994455134295 0 0.77151014687832564 0.54436834383023036 0 0.71809016091162536 0.58185040402320831 0 0.90416666666660628 0.9041666666666166 0 0.89898474358632463 0.95391965591118966 0 0.85170973911348691 0.93569607295217616 0 0.90416666666668166 0.20416666666667119 0 0.89898474358614167 0.25391965591104898 0 0.8517097391133297 0.2356960729520409 0 0.91750694127107502 0.36982372220068471 0 0.95780851984364423 0.34215720972155339 0 0.95871855522754235 0.40006508612975411 0 0.91750694127105259 0.63017627779935648 0 0.95867599106212187 0.60011091146651041 0 0.9578014258160763 0.65787212321113708 0 0.90299850604011456 0.79563452813489832 0 0.88088768115933802 0.84674609810493673 0 0.84725310900444062 0.80779732082917555 0 0.90299850604006393 0.09563452813493091 0 0.88088768115941807 0.14674609810479519 0 0.84725310900442086 0.10779732082922661 0 0.1216098864341134 0.50637075089503902 0 0.16618607197337229 0.50652878253548905 0 0.14934928745814749 0.55042914607228977 0 0.20050006573841939 0.53248514016039872 0 0.14934928745814749 0.55042914607228977 0 0.16618607197337229 0.50652878253548905 0 0.80185942888539485 0.77452061303608133 0 0.84725310900444062 0.80779732082917555 0 0.80041942726660109 0.81543261647703358 0 0.80185942888501827 0.074520613036224564 0 0.84725310900442086 0.10779732082922661 0 0.80076557130237269 0.1154587552654202 0 0.083105206071452636 0.79992298667296435 0 0.065374659239661639 0.8551091961254178 0 0.038512288486097702 0.8155852717111195 0 0.083105206071467416 0.20007701332709979 0 0.038512288486115001 0.1844147282893184 0 0.065374659239632718 0.1448908038746782 0 0.54782696902220018 0.79245182748204157 0 0.59636844454254345 0.75937156204589151 0 0.60294066490120068 0.80851322453934582 0 0.083411279318375747 0.91030024466934134 0 0.0443105827531413 0.89858748162559932 0 0.065374659239661639 0.8551091961254178 0 0.083411279318303222 0.089699755330707398 0 0.065374659239632718 0.1448908038746782 0 0.044310582753132287 0.101412518374475 0 0.84999999999965292 1 0 0.81486180804382891 0.96321394949790495 0 0.85170973911348691 0.93569607295217616 0 0.84999999999999987 0.29999999999999999 0 0.81486180804364938 0.26321394949780091 0 0.8517097391133297 0.2356960729520409 0 0.4656888918609538 0.78493261229743638 0 0.45677673713123867 0.84253684404072415 0 0.42609163930740518 0.80361684430568059 0 0.39536230704883951 0.84069429572832477 0 0.42609163930740518 0.80361684430568059 0 0.45677673713123867 0.84253684404072415 0 0.6236733212988993 0.14864538214901801 0 0.56202748619534593 0.15054058349222879 0 0.58516465772821369 0.11653801664834119 0 0.57412547362576272 0.58273804879550706 0 0.63065402604362242 0.59661356661633302 0 0.5991018319127801 0.62925360607495295 0 0.61343887413683884 0.856862479058357 0 0.5832743223239254 0.88483152652961872 0 0.55899371797446828 0.85003102233514438 0 0.50202631463681879 0.87892870825713787 0 0.55899371797446828 0.85003102233514438 0 0.54783390826260769 0.89287767010860219 0 0.51076801031701946 0.1202837388510348 0 0.54979595918804436 0.1060565713905809 0 0.56202748619534593 0.15054058349222879 0 0.55306006949600994 0.20198184231352201 0 0.59814117807200873 0.23398510860739519 0 0.54248833945060504 0.2520322959927106 0 0.83573492347052902 0.36590755630746369 0 0.82500000000000062 0.33010209762754811 0 0.87430060258887643 0.34056085888204451 0 0.83758014339878906 0.63222013025741819 0 0.87712158428786946 0.65709029563313581 0 0.82457059160610424 0.66831947184359608 0 0.49102375406324739 0.49123754822244059 0 0.53823865529665704 0.45873898050322898 0 0.53330375813596242 0.50827942741749099 0 0.52289427570932567 0.3932284363388488 0 0.57744073070774993 0.41535148636609359 0 0.53823865529665704 0.45873898050322898 0 0.4089290844030305 0.58728915500154233 0 0.37272913873093971 0.56192925302619479 0 0.42644501560315817 0.54603747078095544 0 0.49695729691142171 0.25014895411178018 0 0.4604742573284204 0.27846934318264788 0 0.46429753744194407 0.22870891180733599 0 0.90299850604011456 0.79563452813489832 0 0.85491058998424563 0.76004753345552634 0 0.89999166460796554 0.74528934923809909 0 0.90299850604006393 0.09563452813493091 0 0.85491058998398861 0.060047533455626502 0 0.899991664607802 0.045289349238254978 0 0.38244435121258652 0.51653317813019495 0 0.42644501560315817 0.54603747078095544 0 0.37272913873093971 0.56192925302619479 0 0.71406021706547751 0.63292083137662503 0 0.71809016091162536 0.58185040402320831 0 0.74994237037456724 0.62775548192980357 0 0.84723782639812573 0.48638347960178252 0 0.86907294890112186 0.52008116128001669 0 0.81441713509985358 0.51161854125224959 0 0.33122374654748771 0.57588941099433744 0 0.33190227185843768 0.52715113583864037 0 0.37272913873093971 0.56192925302619479 0 0.086179601630648681 0.64647209519980475 0 0.1241190223511371 0.64391885572885044 0 0.1020579365089687 0.69352219419301997 0 0.59999999999894682 0 0 0.64999999999907843 0 0 0.61940220174112337 0.047251958781050582 0 0.18269480424590959 0.75905448272264375 0 0.14335651144331049 0.75565258250209677 0 0.15332765547575641 0.71200081858233666 0 0.22549374774072969 0.58452645269293457 0 0.2459498854893499 0.63248470766216769 0 0.19914261668318661 0.62286739485272158 0 0.38244435121258652 0.51653317813019495 0 0.43507373378304309 0.49699695397193322 0 0.42644501560315817 0.54603747078095544 0 0.65000000000104008 1 0 0.60000000000138687 1 0 0.62065498684670595 0.95224934003983619 0 0.078358742472063481 0.43365249433908948 0 0.068743045408989428 0.48853989837882689 0 0.033550201249889847 0.46247875832467239 0 0.2236846579037573 0.67380363126050236 0 0.27820712747429932 0.65530134213254643 0 0.26439878998046262 0.7048065392091396 0 0.6879972333610942 0.43038561374960838 0 0.68128176404677243 0.38629093627004979 0 0.72622533758026719 0.40265885511101601 0 0.72525833953073282 0.1032114801687094 0 0.7010294155333181 0.056779085686491267 0 0.7527966693318906 0.053051678021508272 0 0.18269480424590959 0.75905448272264375 0 0.15332765547575641 0.71200081858233666 0 0.19068556247388771 0.71028988922845504 0 0.1216098864341134 0.50637075089503902 0 0.085622222639554768 0.53333248912060549 0 0.068743045408989428 0.48853989837882689 0 0.25676291524611189 0.7436741304886243 0 0.26439878998046262 0.7048065392091396 0 0.29904318922293632 0.74132814928635593 0 0.65481233915350323 0.35652751921065562 0 0.68128176404677243 0.38629093627004979 0 0.63912439215427275 0.41063340167983359 0 0.83573492347052902 0.36590755630746369 0 0.86844634540301924 0.38530937474099819 0 0.81308179852519835 0.39754945808726527 0 0.27270076654418179 0.87751467830216623 0 0.2401283238295133 0.85648409884788523 0 0.29209212897034281 0.84715728365233667 0 0.84999999999999987 0.69999999999999996 0 0.85491058998424563 0.76004753345552634 0 0.81864958914779962 0.73589050177899629 0 0.84999999999960507 0 0 0.85491058998398861 0.060047533455626502 0 0.81864958914740749 0.035890501779055867 0 0.18381867841758909 0.57774125163628387 0 0.19914261668318661 0.62286739485272158 0 0.15720202157091859 0.60665697304410315 0 0.22549374774072969 0.58452645269293457 0 0.19914261668318661 0.62286739485272158 0 0.18381867841758909 0.57774125163628387 0 0.79680861578988083 0.92656778056766709 0 0.85170973911348691 0.93569607295217616 0 0.81486180804382891 0.96321394949790495 0 0.79680861578956375 0.22656778056752541 0 0.8517097391133297 0.2356960729520409 0 0.81486180804364938 0.26321394949780091 0 0.20050006573841939 0.53248514016039872 0 0.23975172658309729 0.49475499200540818 0 0.25115337790845271 0.54719303014923271 0 0.28307294598219601 0.50789252727458634 0 0.25115337790845271 0.54719303014923271 0 0.23975172658309729 0.49475499200540818 0 0.20050006573841939 0.53248514016039872 0 0.18381867841758909 0.57774125163628387 0 0.14934928745814749 0.55042914607228977 0 0.19922788606653311 0.085920220746880993 0 0.22985637510995899 0.1298347970200906 0 0.18652628422869419 0.14162325200928061 0 0.33758650185219202 0.23837101504325639 0 0.38831533174504851 0.2189834941785925 0 0.3786248352540974 0.27082301512024259 0 0.42377727103934271 0.25099357235810238 0 0.3786248352540974 0.27082301512024259 0 0.38831533174504851 0.2189834941785925 0 0.19922788606653311 0.085920220746880993 0 0.18652628422869419 0.14162325200928061 0 0.16141998738593399 0.10404039647458049 0 0.54782696902220018 0.79245182748204157 0 0.55363780716230748 0.74348740161571747 0 0.59636844454254345 0.75937156204589151 0 0.82709327591091286 0.84937141670920724 0 0.88088768115933802 0.84674609810493673 0 0.85600844944837662 0.88483418979512773 0 0.82709327591102189 0.14937141670914489 0 0.88088768115941807 0.14674609810479519 0 0.85600844944842547 0.1848341897950983 0 0.27866744612395528 0.38416094670951489 0 0.22033343844674469 0.36963382230740238 0 0.25966125648670141 0.34351016742083729 0 0 0.50000000000205869 0 0.033550201249889847 0.46247875832467239 0 0.068743045408989428 0.48853989837882689 0 0.31378396441836959 0.70157213313026345 0 0.36622285152418499 0.69092437780804039 0 0.35415581127540569 0.73730480045900215 0 0.77293540622714185 0.59448302402785813 0 0.71809016091162536 0.58185040402320831 0 0.77151014687832564 0.54436834383023036 0 0.7152569930854884 0.5237994455134295 0 0.69385896817107129 0.48377516041410151 0 0.73947346780852752 0.49062440112282169 0 0.15801167086041079 0.46008690540259539 0 0.191953871957803 0.42546416763755879 0 0.19604738184454831 0.47787523520405789 0 0.57667858002728545 0.078486105337742612 0 0.61940220174112337 0.047251958781050582 0 0.61956000905586006 0.1043312481793135 0 0.65408113592120842 0.073941773121567966 0 0.61956000905586006 0.1043312481793135 0 0.61940220174112337 0.047251958781050582 0 0 0.55000000000173355 0 0 0.50000000000205869 0 0.044576108720083309 0.53509043209532614 0 0.65507451745379841 0.92229208810758578 0 0.62065498684670595 0.95224934003983619 0 0.61885627562261258 0.90282959257498208 0 0.57724883562309992 0.92155686857100794 0 0.61885627562261258 0.90282959257498208 0 0.62065498684670595 0.95224934003983619 0 0.91750694127107502 0.36982372220068471 0 0.86844634540301924 0.38530937474099819 0 0.87430060258887643 0.34056085888204451 0 0.91750694127105259 0.63017627779935648 0 0.87712158428786946 0.65709029563313581 0 0.87159648282691515 0.61285406320581504 0 0.33123028043633618 0.77629643437932982 0 0.29904318922293632 0.74132814928635593 0 0.35415581127540569 0.73730480045900215 0 0.86411095495256451 0.42388805655111889 0 0.84925632466077294 0.45359738909549091 0 0.81973119833356312 0.43505687159469048 0 0.43846182030517877 0.64845797726506715 0 0.47913475093885149 0.66010775372412711 0 0.43323420005758778 0.6913544522562407 0 0.18269480424590959 0.75905448272264375 0 0.19068556247388771 0.71028988922845504 0 0.2248999640082178 0.72584299459689172 0 0.39536230704883951 0.84069429572832477 0 0.38586766253264881 0.78219501014812498 0 0.42609163930740518 0.80361684430568059 0 0.59999999999999976 0.69999999999999996 0 0.63221990677827677 0.73442891067859706 0 0.59636844454254345 0.75937156204589151 0 0.27866744612395528 0.38416094670951489 0 0.24049127783545701 0.41270748208749802 0 0.22033343844674469 0.36963382230740238 0 0.82709327591091286 0.84937141670920724 0 0.84725310900444062 0.80779732082917555 0 0.88088768115933802 0.84674609810493673 0 0.82709327591102189 0.14937141670914489 0 0.84725310900442086 0.10779732082922661 0 0.88088768115941807 0.14674609810479519 0 0.1650278706801647 0.38791388161335733 0 0.18434624290945251 0.35208838264196463 0 0.22033343844674469 0.36963382230740238 0 0.4409427642593301 0.35743108089689513 0 0.49077833859261139 0.35229981449445641 0 0.46655310992796922 0.39650496622958609 0 0.80185942888539485 0.77452061303608133 0 0.81864958914779962 0.73589050177899629 0 0.85491058998424563 0.76004753345552634 0 0.80185942888501827 0.074520613036224564 0 0.81864958914740749 0.035890501779055867 0 0.85491058998398861 0.060047533455626502 0 0.29999999999926641 0 0 0.34999999999912063 0 0 0.32541448401678508 0.046215317981507749 0 0.35000000000145642 1 0 0.30000000000124832 1 0 0.32544832635163229 0.95485394099568932 0 0.4656888918609538 0.78493261229743638 0 0.50731287292894423 0.78963574450233831 0 0.50627822638148745 0.8263979829520941 0 0.2185883431182947 0.18019736283949719 0 0.25557216766470708 0.15874861286892261 0 0.26429849586623999 0.19346700179430079 0 1 0.29999999999999999 0 1 0.34999999999993492 0 0.95780851984364423 0.34215720972155339 0 1 0.29999999999999999 0 0.95780851984364423 0.34215720972155339 0 0.94999999999999996 0.29999999999999999 0 1 0.69999999999999996 0 0.94999999999999996 0.69999999999999996 0 0.9578014258160763 0.65787212321113708 0 1 0.69999999999999996 0 0.9578014258160763 0.65787212321113708 0 1 0.64999999999986979 0 0.91750694127107502 0.36982372220068471 0 0.90594285160987287 0.4141265964174129 0 0.86844634540301924 0.38530937474099819 0 0.91750694127105259 0.63017627779935648 0 0.87159648282691515 0.61285406320581504 0 0.91143117093204207 0.58709913730335972 0 0.74999999999999989 0.69999999999999996 0 0.7750489929959945 0.66593931409600093 0 0.79999999999999982 0.69999999999999996 0 0.74999999999999989 0.29999999999999999 0 0.79999999999999982 0.29999999999999999 0 0.78145581580700685 0.34881365920033602 0 0.54999999999999993 0.69999999999999996 0 0.57484956128872922 0.66573805030881994 0 0.59999999999999976 0.69999999999999996 0 0.90299850604011456 0.79563452813489832 0 0.94399509803918602 0.75600490196082126 0 0.95386563387742829 0.80414874155775029 0 0.90416666666660628 0.9041666666666166 0 0.95391631417670719 0.89584263333814784 0 0.94399509803919068 0.9439950980391687 0 0.90299850604006393 0.09563452813493091 0 0.94399509803922566 0.056004901960802607 0 0.95386563387744361 0.1041487415577465 0 0.90416666666668166 0.20416666666667119 0 0.95391631417672862 0.19584263333809451 0 0.94399509803921056 0.24399509803922639 0 0.22278230690790279 0.44824268025881547 0 0.19604738184454831 0.47787523520405789 0 0.191953871957803 0.42546416763755879 0 0.90299850604011456 0.79563452813489832 0 0.89999166460796554 0.74528934923809909 0 0.94399509803918602 0.75600490196082126 0 0.90299850604006393 0.09563452813493091 0 0.899991664607802 0.045289349238254978 0 0.94399509803922566 0.056004901960802607 0 0.49102375406324739 0.49123754822244059 0 0.47793794143994173 0.52940715638744962 0 0.43507373378304309 0.49699695397193322 0 0.90416666666660628 0.9041666666666166 0 0.94399509803919068 0.9439950980391687 0 0.89898474358632463 0.95391965591118966 0 0.90416666666668166 0.20416666666667119 0 0.94399509803921056 0.24399509803922639 0 0.89898474358614167 0.25391965591104898 0 0.65394964615507722 0.22666784374016369 0 0.62657463266645097 0.26524202571255862 0 0.59814117807200873 0.23398510860739519 0 0.6084546825910605 0.37989672713932537 0 0.63912439215427275 0.41063340167983359 0 0.57744073070774993 0.41535148636609359 0 0.61209567303293111 0.44669033081290321 0 0.57744073070774993 0.41535148636609359 0 0.63912439215427275 0.41063340167983359 0 0.25676291524611189 0.7436741304886243 0 0.22556077506376701 0.77837424984191617 0 0.2248999640082178 0.72584299459689172 0 0.61343887413683884 0.856862479058357 0 0.60294066490120068 0.80851322453934582 0 0.65005442820240822 0.82644988530054031 0 0.64999999999907843 0 0 0.66369801598854572 0.036327466368102787 0 0.61940220174112337 0.047251958781050582 0 0.40326160981139969 0.73346192995102844 0 0.38586766253264881 0.78219501014812498 0 0.35415581127540569 0.73730480045900215 0 0.33123028043633618 0.77629643437932982 0 0.35415581127540569 0.73730480045900215 0 0.38586766253264881 0.78219501014812498 0 0.26573297623774761 0.59828298563722948 0 0.29110487519241501 0.56588143995431495 0 0.31502927232353312 0.6134992213375432 0 0.77846603114747959 0.49850927265137401 0 0.81441713509985358 0.51161854125224959 0 0.77151014687832564 0.54436834383023036 0 0.82862096804812391 0.55037090955459045 0 0.77151014687832564 0.54436834383023036 0 0.81441713509985358 0.51161854125224959 0 0.50000000000205869 1 0 0.45000000000187229 1 0 0.47135117303824892 0.95556877749289892 0 0.44999999999882923 0 0 0.49999999999869432 0 0 0.47040171442036788 0.044141676406503738 0 0 0.7000000000006934 0 0 0.65000000000104008 0 0.046634677244967337 0.671418230738282 0 0 0.35000000000145642 0 0 0.30000000000124832 0 0.046389130980076937 0.32668781832131749 0 0.31378396441836959 0.70157213313026345 0 0.27820712747429932 0.65530134213254643 0 0.32263089806001177 0.66003674931826484 0 0.33122374654748771 0.57588941099433744 0 0.31502927232353312 0.6134992213375432 0 0.29110487519241501 0.56588143995431495 0 0.26573297623774761 0.59828298563722948 0 0.27820712747429932 0.65530134213254643 0 0.2459498854893499 0.63248470766216769 0 0.14474682429600511 0.85524784522713515 0 0.16206583317966519 0.89685560785156404 0 0.1241151115713819 0.9045666525468371 0 0.14332333627550789 0.14578431753966009 0 0.12372429750337779 0.095814237875728972 0 0.16141998738593399 0.10404039647458049 0 0.64753070846764316 0.77332939069435502 0 0.59636844454254345 0.75937156204589151 0 0.63221990677827677 0.73442891067859706 0 0.14474682429600511 0.85524784522713515 0 0.1241151115713819 0.9045666525468371 0 0.10562472963403439 0.87143394428979881 0 0.14332333627550789 0.14578431753966009 0 0.1053400320299198 0.12877248826361379 0 0.12372429750337779 0.095814237875728972 0 0.77354604466818633 0.40378688774472771 0 0.81308179852519835 0.39754945808726527 0 0.81973119833356312 0.43505687159469048 0 0.54782696902220018 0.79245182748204157 0 0.50945740445113552 0.75476055527778108 0 0.55363780716230748 0.74348740161571747 0 0.2236846579037573 0.67380363126050236 0 0.2459498854893499 0.63248470766216769 0 0.27820712747429932 0.65530134213254643 0 0.77293540622714185 0.59448302402785813 0 0.74994237037456724 0.62775548192980357 0 0.71809016091162536 0.58185040402320831 0 0 0.79999999999999982 0 0 0.75000000000034661 0 0.04408157711937423 0.7728941757575627 0 0 0.25000000000104028 0 0 0.20000000000083221 0 0.044081577119474857 0.2271058242433576 0 0.19999999999955789 0 0 0.24999999999941211 0 0 0.22668068146512929 0.045875643423131329 0 0.25000000000104028 1 0 0.20000000000083221 1 0 0.22850979588452081 0.95594428570238643 0 0.47357141910802508 0.1873585799078378 0 0.44288491854585582 0.14116182884956319 0 0.48466639505193998 0.1421439844745814 0 0.59999999999999976 0.29999999999999999 0 0.5794309697024993 0.27124795968204829 0 0.62657463266645097 0.26524202571255862 0 0.43249999999999988 0.43937499999999979 0 0.42161023666869668 0.39493916313643851 0 0.46655310992796922 0.39650496622958609 0 0.31068898841644388 0.47541502461811092 0 0.33190227185843768 0.52715113583864037 0 0.28307294598219601 0.50789252727458634 0 0.35024835142131061 0.48654922671676981 0 0.33190227185843768 0.52715113583864037 0 0.31068898841644388 0.47541502461811092 0 0.35864735590330371 0.63903383440414463 0 0.36622285152418499 0.69092437780804039 0 0.32263089806001177 0.66003674931826484 0 0.31378396441836959 0.70157213313026345 0 0.32263089806001177 0.66003674931826484 0 0.36622285152418499 0.69092437780804039 0 0.86956835336234861 0.571283299838105 0 0.90900154012161016 0.53607784105648792 0 0.91143117093204207 0.58709913730335972 0 0.6499999999999998 0.29999999999999999 0 0.65481233915350323 0.35652751921065562 0 0.61959173890754571 0.33832250091341232 0 0.4409427642593301 0.35743108089689513 0 0.46226845272279993 0.31901800744800313 0 0.49077833859261139 0.35229981449445641 0 0.5 0.29999999999999999 0 0.49077833859261139 0.35229981449445641 0 0.46226845272279993 0.31901800744800313 0 0.14999999999970359 0 0 0.19999999999955789 0 0 0.184418230509967 0.038773194583122873 0 0.20000000000083221 1 0 0.15000000000062411 1 0 0.18474005699953849 0.96231585248064622 0 1 0.49999999999950101 0 1 0.54999999999963112 0 0.95631871884947484 0.51827533208233789 0 0.38586766253264881 0.78219501014812498 0 0.42676259796334498 0.76772545931379299 0 0.42609163930740518 0.80361684430568059 0 0.20050006573841939 0.53248514016039872 0 0.22549374774072969 0.58452645269293457 0 0.18381867841758909 0.57774125163628387 0 0.065374659239661639 0.8551091961254178 0 0.1074251789111534 0.83564394292147814 0 0.10562472963403439 0.87143394428979881 0 0.065374659239632718 0.1448908038746782 0 0.1053400320299198 0.12877248826361379 0 0.106902708054812 0.16453234188234539 0 0.1650278706801647 0.38791388161335733 0 0.14223753364722069 0.3341983344262433 0 0.18434624290945251 0.35208838264196463 0 0.43249999999999988 0.43937499999999979 0 0.46111841286828259 0.46690301029591341 0 0.43507373378304309 0.49699695397193322 0 0.83758014339878906 0.63222013025741819 0 0.81723410853263523 0.59419663659258926 0 0.87159648282691515 0.61285406320581504 0 0.19670163708476801 0.31472518408333222 0 0.18434624290945251 0.35208838264196463 0 0.14223753364722069 0.3341983344262433 0 0.75000000000034661 1 0 0.7250000000005199 0.94981617647078953 0 0.770759834363826 0.95919399014344442 0 0.74999999999999989 0.29999999999999999 0 0.72500000000000064 0.2498161764706 0 0.77075983436335049 0.25919399014334171 0 0.69999999999999984 0.29999999999999999 0 0.67933712972090698 0.25920070958121938 0 0.72500000000000064 0.2498161764706 0 0.57611405284611883 0.50165903596042916 0 0.53330375813596242 0.50827942741749099 0 0.53823865529665704 0.45873898050322898 0 0.6499999999999998 0.29999999999999999 0 0.68887083591306764 0.33632058575757479 0 0.65481233915350323 0.35652751921065562 0 0.27866744612395528 0.38416094670951489 0 0.33277555741076909 0.36432196682010132 0 0.31778888742534622 0.40581751814196781 0 0.49102375406324739 0.49123754822244059 0 0.43507373378304309 0.49699695397193322 0 0.46111841286828259 0.46690301029591341 0 0.94999999999999996 0.69999999999999996 0 0.97166519676947294 0.73337114490064459 0 0.94399509803918602 0.75600490196082126 0 0.94999999999986839 0 0 0.97166519676946894 0.033371144900598393 0 0.94399509803922566 0.056004901960802607 0 0.94999999999999996 0.29999999999999999 0 0.94399509803921056 0.24399509803922639 0 0.97166519676951801 0.26662885509932011 0 0.94999999999979179 1 0 0.94399509803919068 0.9439950980391687 0 0.97166519676946206 0.96662885509935492 0 0.34258405725730701 0.4444034294386992 0 0.29124338931648802 0.43334555462578611 0 0.31778888742534622 0.40581751814196781 0 0.27866744612395528 0.38416094670951489 0 0.31778888742534622 0.40581751814196781 0 0.29124338931648802 0.43334555462578611 0 0.36575549820117997 0.31677992835137742 0 0.33277555741076909 0.36432196682010132 0 0.32752639306529541 0.32610012995269699 0 0.35752321586431363 0.9185439911803448 0 0.32544832635163229 0.95485394099568932 0 0.30864387279288652 0.89906554525974958 0 0.27609987656793722 0.94991445621608572 0 0.30864387279288652 0.89906554525974958 0 0.32544832635163229 0.95485394099568932 0 0.33123028043633618 0.77629643437932982 0 0.30857225866488791 0.81101973481716805 0 0.2792923945214143 0.77665808831789485 0 0.33758650185219202 0.23837101504325639 0 0.29132859388405002 0.27203693976649962 0 0.28040350263641872 0.23054717217092141 0 0.4409427642593301 0.35743108089689513 0 0.41914690343363781 0.30688979866601612 0 0.46226845272279993 0.31901800744800313 0 0.14332333627550789 0.14578431753966009 0 0.13737030665753211 0.20313708640667491 0 0.106902708054812 0.16453234188234539 0 0.083105206071467416 0.20007701332709979 0 0.106902708054812 0.16453234188234539 0 0.13737030665753211 0.20313708640667491 0 0.083105206071452636 0.79992298667296435 0 0.1382744753146134 0.79650574229207483 0 0.1074251789111534 0.83564394292147814 0 0.14474682429600511 0.85524784522713515 0 0.1074251789111534 0.83564394292147814 0 0.1382744753146134 0.79650574229207483 0 0.65408113592120842 0.073941773121567966 0 0.7010294155333181 0.056779085686491267 0 0.68330259535470161 0.10038702501083881 0 0.72525833953073282 0.1032114801687094 0 0.68330259535470161 0.10038702501083881 0 0.7010294155333181 0.056779085686491267 0 0.049706944316475897 0.72477277076253799 0 0.046634677244967337 0.671418230738282 0 0.1020579365089687 0.69352219419301997 0 0.086179601630648681 0.64647209519980475 0 0.1020579365089687 0.69352219419301997 0 0.046634677244967337 0.671418230738282 0 0.087545339447545459 0.35122518864182262 0 0.046389130980076937 0.32668781832131749 0 0.093851963071650835 0.30582068233324772 0 0.049706944316556423 0.27522722923869108 0 0.093851963071650835 0.30582068233324772 0 0.046389130980076937 0.32668781832131749 0 0.82709327591091286 0.84937141670920724 0 0.80041942726660109 0.81543261647703358 0 0.84725310900444062 0.80779732082917555 0 0.82709327591102189 0.14937141670914489 0 0.80076557130237269 0.1154587552654202 0 0.84725310900442086 0.10779732082922661 0 0.17933913398461551 0.2350063570234002 0 0.14377654328998779 0.2442024734791064 0 0.13737030665753211 0.20313708640667491 0 0.18269480424590959 0.75905448272264375 0 0.1382744753146134 0.79650574229207483 0 0.14335651144331049 0.75565258250209677 0 0.33758650185219202 0.23837101504325639 0 0.3786248352540974 0.27082301512024259 0 0.33402499257867951 0.28911035184473982 0 0.14332333627550789 0.14578431753966009 0 0.18124454140915969 0.18790916706335251 0 0.13737030665753211 0.20313708640667491 0 0.14474682429600511 0.85524784522713515 0 0.1382744753146134 0.79650574229207483 0 0.17777405986036951 0.81832336108265358 0 0.5 0.29999999999999999 0 0.52752007115234678 0.33170632466418198 0 0.49077833859261139 0.35229981449445641 0 0.27866744612395528 0.38416094670951489 0 0.29644548887253103 0.34914008784168082 0 0.33277555741076909 0.36432196682010132 0 0 0.84999999999965292 0 0 0.79999999999999982 0 0.038512288486097702 0.8155852717111195 0 0 0.20000000000083221 0 0 0.15000000000062411 0 0.038512288486115001 0.1844147282893184 0 0.40326160981139969 0.73346192995102844 0 0.35415581127540569 0.73730480045900215 0 0.36622285152418499 0.69092437780804039 0 0.91696753777131557 0.497780560203536 0 0.96228564064454991 0.48206450662049471 0 0.95631871884947484 0.51827533208233789 0 0.33758650185219202 0.23837101504325639 0 0.31255190597181792 0.19850845631528771 0 0.3572130504031617 0.1874703368446563 0 0.59814117807200873 0.23398510860739519 0 0.62657463266645097 0.26524202571255862 0 0.5794309697024993 0.27124795968204829 0 0.34258405725730701 0.4444034294386992 0 0.31068898841644388 0.47541502461811092 0 0.29124338931648802 0.43334555462578611 0 0.38083244760691543 0.38531983672244652 0 0.35221190152536241 0.40457127605439203 0 0.33277555741076909 0.36432196682010132 0 0.083411279318375747 0.91030024466934134 0 0.10266856499240549 0.95548163909968886 0 0.053064897599294662 0.95186845269532028 0 0.083411279318303222 0.089699755330707398 0 0.053064897599215843 0.048131547304697528 0 0.10266856499169109 0.044518360900210059 0 0.42377727103934271 0.25099357235810238 0 0.4604742573284204 0.27846934318264788 0 0.41914690343363781 0.30688979866601612 0 0.28307294598219601 0.50789252727458634 0 0.25982634974572738 0.46097799597715272 0 0.31068898841644388 0.47541502461811092 0 0.29348325746214782 0.31350119524708198 0 0.29132859388405002 0.27203693976649962 0 0.33402499257867951 0.28911035184473982 0 0.35312867752657662 0.084946736076730367 0 0.39823268594401579 0.1116623613130045 0 0.36246644853392812 0.1399454205365751 0 0.7000000000006934 1 0 0.68015064798562208 0.95924320340003011 0 0.7250000000005199 0.94981617647078953 0 0.42377727103934271 0.25099357235810238 0 0.38831533174504851 0.2189834941785925 0 0.42905200079338551 0.19982395548231649 0 0.53823865529665704 0.45873898050322898 0 0.57744073070774993 0.41535148636609359 0 0.57975577671020095 0.46172033326338591 0 0.33758650185219202 0.23837101504325639 0 0.3572130504031617 0.1874703368446563 0 0.38831533174504851 0.2189834941785925 0 0.29124338931648802 0.43334555462578611 0 0.31068898841644388 0.47541502461811092 0 0.25982634974572738 0.46097799597715272 0 0.6084546825910605 0.37989672713932537 0 0.61959173890754571 0.33832250091341232 0 0.65481233915350323 0.35652751921065562 0 0.40326160981139969 0.73346192995102844 0 0.43323420005758778 0.6913544522562407 0 0.45582236402875981 0.73896743678908217 0 0.33758650185219202 0.23837101504325639 0 0.28040350263641872 0.23054717217092141 0 0.31255190597181792 0.19850845631528771 0 0.79999999999999982 1 0 0.75000000000034661 1 0 0.770759834363826 0.95919399014344442 0 0.74999999999999989 0.29999999999999999 0 0.77075983436335049 0.25919399014334171 0 0.79999999999999982 0.29999999999999999 0 0.6499999999999998 0.29999999999999999 0 0.67933712972090698 0.25920070958121938 0 0.69999999999999984 0.29999999999999999 0 0.39536230704883951 0.84069429572832477 0 0.39767323751400468 0.89584229130535065 0 0.35864759629805099 0.87963482415279515 0 0.54999999999999993 0.69999999999999996 0 0.52584555706968406 0.66664215091846768 0 0.57484956128872922 0.66573805030881994 0 0.35312867752657662 0.084946736076730367 0 0.32541448401678508 0.046215317981507749 0 0.3615861437013822 0.03582617922508851 0 0.35752321586431363 0.9185439911803448 0 0.36184234618600131 0.96443954459096326 0 0.32544832635163229 0.95485394099568932 0 0.35312867752657662 0.084946736076730367 0 0.3615861437013822 0.03582617922508851 0 0.39591832466117061 0.056982757562006353 0 0.35752321586431363 0.9185439911803448 0 0.39641108128798319 0.94356127926187128 0 0.36184234618600131 0.96443954459096326 0 0.083411279318303222 0.089699755330707398 0 0.044310582753132287 0.101412518374475 0 0.053064897599215843 0.048131547304697528 0 0.083411279318375747 0.91030024466934134 0 0.053064897599294662 0.95186845269532028 0 0.0443105827531413 0.89858748162559932 0 0.38083244760691543 0.38531983672244652 0 0.40076539126862748 0.34589349467022118 0 0.42161023666869668 0.39493916313643851 0 0.4409427642593301 0.35743108089689513 0 0.42161023666869668 0.39493916313643851 0 0.40076539126862748 0.34589349467022118 0 0.79999999999999982 0.29999999999999999 0 0.82500000000000062 0.33010209762754811 0 0.78145581580700685 0.34881365920033602 0 0.79999999999999982 0.69999999999999996 0 0.7750489929959945 0.66593931409600093 0 0.82457059160610424 0.66831947184359608 0 0.59999999999999976 0.69999999999999996 0 0.57484956128872922 0.66573805030881994 0 0.62460753523532009 0.66851202781000296 0 0.74999999999999989 0.69999999999999996 0 0.72500000000000064 0.67022701834392062 0 0.7750489929959945 0.66593931409600093 0 0.74999999999999989 0.29999999999999999 0 0.78145581580700685 0.34881365920033602 0 0.73090396928863699 0.33699297293167962 0 0.33758650185219202 0.23837101504325639 0 0.33402499257867951 0.28911035184473982 0 0.29132859388405002 0.27203693976649962 0 0.36575549820117997 0.31677992835137742 0 0.41914690343363781 0.30688979866601612 0 0.40076539126862748 0.34589349467022118 0 0.4409427642593301 0.35743108089689513 0 0.40076539126862748 0.34589349467022118 0 0.41914690343363781 0.30688979866601612 0 0.34258405725730701 0.4444034294386992 0 0.38707855792647411 0.42299362914874578 0 0.3908716102680424 0.47010282357248828 0 0.7000000000006934 1 0 0.65000000000104008 1 0 0.68015064798562208 0.95924320340003011 0 0.49102375406324739 0.49123754822244059 0 0.46111841286828259 0.46690301029591341 0 0.48858720058566618 0.43964267759203868 0 0.4656888918609538 0.78493261229743638 0 0.42676259796334498 0.76772545931379299 0 0.45582236402875981 0.73896743678908217 0 0.40326160981139969 0.73346192995102844 0 0.45582236402875981 0.73896743678908217 0 0.42676259796334498 0.76772545931379299 0 0.59999999999999976 0.29999999999999999 0 0.62657463266645097 0.26524202571255862 0 0.6499999999999998 0.29999999999999999 0 0.40000000000166441 1 0 0.36184234618600131 0.96443954459096326 0 0.39641108128798319 0.94356127926187128 0 0.3999999999989749 0 0 0.39591832466117061 0.056982757562006353 0 0.3615861437013822 0.03582617922508851 0 0.43249999999999988 0.43937499999999979 0 0.48858720058566618 0.43964267759203868 0 0.46111841286828259 0.46690301029591341 0 0.7250000000005199 0.89375000000045834 0 0.7250000000005199 0.94981617647078953 0 0.68987011941058407 0.92105047536677087 0 0.7250000000005199 0.89375000000045834 0 0.75729602384198635 0.92353652857884294 0 0.7250000000005199 0.94981617647078953 0 0.72500000000001008 0.19776155966387679 0 0.75668890529066124 0.2244279804069782 0 0.72500000000000064 0.2498161764706 0 0.72500000000001008 0.19776155966387679 0 0.72500000000000064 0.2498161764706 0 0.69397719155551807 0.2245125647000914 0 0.79999999999999982 0.29999999999999999 0 0.81486180804364938 0.26321394949780091 0 0.84999999999999987 0.29999999999999999 0 0.84999999999965292 1 0 0.79999999999999982 1 0 0.81486180804382891 0.96321394949790495 0 0.1247745017231483 0.27198077544791172 0 0.095326043202144745 0.24554465089224409 0 0.14377654328998779 0.2442024734791064 0 0.1215415378367805 0.72939333680004137 0 0.14335651144331049 0.75565258250209677 0 0.090953281884486245 0.7564451946902494 0 0.72500000000001008 0.19776155966387679 0 0.72634814642510737 0.16106886917518889 0 0.76587607630038135 0.18880039518954719 0 0.72500000000001008 0.19776155966387679 0 0.6865991819015953 0.189116534044597 0 0.72634814642510737 0.16106886917518889 0 0.77144070960558853 0.14311854477243749 0 0.76587607630038135 0.18880039518954719 0 0.72634814642510737 0.16106886917518889 0 0.68391457121233579 0.14440470121196541 0 0.72634814642510737 0.16106886917518889 0 0.6865991819015953 0.189116534044597 0 0.7250000000005199 0.89375000000045834 0 0.72863726579783861 0.85390518901155588 0 0.76891166905518427 0.88835469571185499 0 0.76901770135486491 0.84293557325473656 0 0.76891166905518427 0.88835469571185499 0 0.72863726579783861 0.85390518901155588 0 0 0.20000000000083221 0 0.038512288486115001 0.1844147282893184 0 0.044081577119474857 0.2271058242433576 0 0 0.79999999999999982 0 0.04408157711937423 0.7728941757575627 0 0.038512288486097702 0.8155852717111195 0 0.52375890611712683 0.059318771819432882 0 0.47881186583059909 0.093591717165689425 0 0.47040171442036788 0.044141676406503738 0 0.52122150208832174 0.94089974453840242 0 0.47135117303824892 0.95556877749289892 0 0.47401147028110507 0.91529957330468115 0 0.27474541102162192 0.11822029332053539 0 0.3096713403101819 0.085471541595262421 0 0.32215584939770009 0.1218492143506909 0 0.22278230690790279 0.44824268025881547 0 0.24049127783545701 0.41270748208749802 0 0.25982634974572738 0.46097799597715272 0 0.93732437411268477 0.55911392101136159 0 0.91143117093204207 0.58709913730335972 0 0.90900154012161016 0.53607784105648792 0 0.19901705110390991 0.9175543425573498 0 0.24536017905392571 0.90704567837671446 0 0.22850979588452081 0.95594428570238643 0 0.27609987656793722 0.94991445621608572 0 0.22850979588452081 0.95594428570238643 0 0.24536017905392571 0.90704567837671446 0 0.15720202157091859 0.60665697304410315 0 0.1241190223511371 0.64391885572885044 0 0.1024350934457823 0.60772393977513839 0 0.6499999999999998 0.69999999999999996 0 0.675261390228442 0.65996937624687813 0 0.69999999999999984 0.69999999999999996 0 0.3999999999989749 0 0 0.4320097814748517 0.037406712692169303 0 0.39591832466117061 0.056982757562006353 0 0.40000000000166441 1 0 0.39641108128798319 0.94356127926187128 0 0.4308986359464303 0.96395712492906194 0 0.54999999999999993 0.29999999999999999 0 0.56836770495988642 0.3523062350852913 0 0.52752007115234678 0.33170632466418198 0 0.14474682429600511 0.85524784522713515 0 0.17777405986036951 0.81832336108265358 0 0.19741632902693801 0.86755867406447229 0 0.21858834311891909 0.81980263716112767 0 0.19741632902693801 0.86755867406447229 0 0.17777405986036951 0.81832336108265358 0 0.54782696902220018 0.79245182748204157 0 0.50731287292894423 0.78963574450233831 0 0.50945740445113552 0.75476055527778108 0 0.20000000000083221 1 0 0.18474005699953849 0.96231585248064622 0 0.22850979588452081 0.95594428570238643 0 0.19999999999955789 0 0 0.22668068146512929 0.045875643423131329 0 0.184418230509967 0.038773194583122873 0 0.77846603114747959 0.49850927265137401 0 0.73947346780852752 0.49062440112282169 0 0.77972660463949339 0.45529290596363098 0 0.73483647259922602 0.44789725365921768 0 0.77972660463949339 0.45529290596363098 0 0.73947346780852752 0.49062440112282169 0 0.34258405725730701 0.4444034294386992 0 0.35024835142131061 0.48654922671676981 0 0.31068898841644388 0.47541502461811092 0 0.33123028043633618 0.77629643437932982 0 0.2792923945214143 0.77665808831789485 0 0.29904318922293632 0.74132814928635593 0 0.26573297623774761 0.59828298563722948 0 0.25115337790845271 0.54719303014923271 0 0.29110487519241501 0.56588143995431495 0 0.4656888918609538 0.78493261229743638 0 0.50945740445113552 0.75476055527778108 0 0.50731287292894423 0.78963574450233831 0 0.35312867752657662 0.084946736076730367 0 0.36246644853392812 0.1399454205365751 0 0.32215584939770009 0.1218492143506909 0 0.29348325746214782 0.31350119524708198 0 0.25966125648670141 0.34351016742083729 0 0.24432083401701241 0.3006253385567515 0 0.59999999999999976 0.69999999999999996 0 0.6499999999999998 0.69999999999999996 0 0.63221990677827677 0.73442891067859706 0 0.69999999999921003 0 0 0.7010294155333181 0.056779085686491267 0 0.66369801598854572 0.036327466368102787 0 0.40000000000166441 1 0 0.35000000000145642 1 0 0.36184234618600131 0.96443954459096326 0 0.34999999999912063 0 0 0.3999999999989749 0 0 0.3615861437013822 0.03582617922508851 0 0.43507373378304309 0.49699695397193322 0 0.47793794143994173 0.52940715638744962 0 0.42644501560315817 0.54603747078095544 0 0.14474682429600511 0.85524784522713515 0 0.19741632902693801 0.86755867406447229 0 0.16206583317966519 0.89685560785156404 0 0.19901705110390991 0.9175543425573498 0 0.16206583317966519 0.89685560785156404 0 0.19741632902693801 0.86755867406447229 0 0.35864735590330371 0.63903383440414463 0 0.3977710372045391 0.65868194622830212 0 0.36622285152418499 0.69092437780804039 0 0.7527966693318906 0.053051678021508272 0 0.7010294155333181 0.056779085686491267 0 0.72683645290270404 0.027797073151180601 0 0.71508799138962864 0.36622814920737751 0 0.72622533758026719 0.40265885511101601 0 0.68128176404677243 0.38629093627004979 0 0.79999999999999982 0.69999999999999996 0 0.84999999999999987 0.69999999999999996 0 0.81864958914779962 0.73589050177899629 0 0.79999999999947335 0 0 0.84999999999960507 0 0 0.81864958914740749 0.035890501779055867 0 0.39536230704883951 0.84069429572832477 0 0.35642984951668422 0.80994399665655703 0 0.38586766253264881 0.78219501014812498 0 0.42377727103934271 0.25099357235810238 0 0.46429753744194407 0.22870891180733599 0 0.4604742573284204 0.27846934318264788 0 0.39801143831225599 0.16651381068160659 0 0.42905200079338551 0.19982395548231649 0 0.38831533174504851 0.2189834941785925 0 0.79999999999999982 1 0 0.770759834363826 0.95919399014344442 0 0.81486180804382891 0.96321394949790495 0 0.79999999999999982 0.29999999999999999 0 0.77075983436335049 0.25919399014334171 0 0.81486180804364938 0.26321394949780091 0 0.25195515620380449 0.25883339815888678 0 0.21049769590865089 0.26857363548218488 0 0.224700362040408 0.22206622194729711 0 0.40326160981139969 0.73346192995102844 0 0.42676259796334498 0.76772545931379299 0 0.38586766253264881 0.78219501014812498 0 0.35312867752657662 0.084946736076730367 0 0.3096713403101819 0.085471541595262421 0 0.32541448401678508 0.046215317981507749 0 0.59999999999999976 0.29999999999999999 0 0.6499999999999998 0.29999999999999999 0 0.61959173890754571 0.33832250091341232 0 0.2185883431182947 0.18019736283949719 0 0.18652628422869419 0.14162325200928061 0 0.22985637510995899 0.1298347970200906 0 0.64999999999907843 0 0 0.69999999999921003 0 0 0.66369801598854572 0.036327466368102787 0 0.27499999999933927 0.060310814194988557 0 0.24218496799700481 0.089025544070598317 0 0.22668068146512929 0.045875643423131329 0 0.19922788606653311 0.085920220746880993 0 0.22668068146512929 0.045875643423131329 0 0.24218496799700481 0.089025544070598317 0 0.65507451745379841 0.92229208810758578 0 0.66412543161245952 0.88015090885499059 0 0.68987011941058407 0.92105047536677087 0 0.049706944316475897 0.72477277076253799 0 0.090953281884486245 0.7564451946902494 0 0.04408157711937423 0.7728941757575627 0 0.083105206071452636 0.79992298667296435 0 0.04408157711937423 0.7728941757575627 0 0.090953281884486245 0.7564451946902494 0 0.083105206071467416 0.20007701332709979 0 0.095326043202144745 0.24554465089224409 0 0.044081577119474857 0.2271058242433576 0 0.049706944316556423 0.27522722923869108 0 0.044081577119474857 0.2271058242433576 0 0.095326043202144745 0.24554465089224409 0 0.36575549820117997 0.31677992835137742 0 0.33402499257867951 0.28911035184473982 0 0.3786248352540974 0.27082301512024259 0 0.53245488764484505 0.55078124999999989 0 0.53330375813596242 0.50827942741749099 0 0.57435499076887508 0.54267261987897775 0 0.57611405284611883 0.50165903596042916 0 0.57435499076887508 0.54267261987897775 0 0.53330375813596242 0.50827942741749099 0 0.6499999999999998 0.29999999999999999 0 0.69999999999999984 0.29999999999999999 0 0.68887083591306764 0.33632058575757479 0 0.57611405284611883 0.50165903596042916 0 0.53823865529665704 0.45873898050322898 0 0.57975577671020095 0.46172033326338591 0 0.7750489929959945 0.66593931409600093 0 0.72500000000000064 0.67022701834392062 0 0.74994237037456724 0.62775548192980357 0 0.78145581580700685 0.34881365920033602 0 0.74764719760526988 0.3719647154012321 0 0.73090396928863699 0.33699297293167962 0 0.3999999999989749 0 0 0.44999999999882923 0 0 0.4320097814748517 0.037406712692169303 0 0.45000000000187229 1 0 0.40000000000166441 1 0 0.4308986359464303 0.96395712492906194 0 0.57484956128872922 0.66573805030881994 0 0.5991018319127801 0.62925360607495295 0 0.62460753523532009 0.66851202781000296 0 0.7750489929959945 0.66593931409600093 0 0.79884539758237771 0.62875045078114233 0 0.82457059160610424 0.66831947184359608 0 0.39801143831225599 0.16651381068160659 0 0.36246644853392812 0.1399454205365751 0 0.39823268594401579 0.1116623613130045 0 0.078358742472063481 0.43365249433908948 0 0.033550201249889847 0.46247875832467239 0 0.035463093262830522 0.42673416072819947 0 0.25676291524611189 0.7436741304886243 0 0.2792923945214143 0.77665808831789485 0 0.22556077506376701 0.77837424984191617 0 0.2236846579037573 0.67380363126050236 0 0.2248999640082178 0.72584299459689172 0 0.19068556247388771 0.71028988922845504 0 0.50715858906372158 0.63295939104129484 0 0.5166924242153631 0.59825134841919447 0 0.5498280205245758 0.6290146943450976 0 0.14618258501891079 0.062070108745602003 0 0.12372429750337779 0.095814237875728972 0 0.10266856499169109 0.044518360900210059 0 0.083411279318303222 0.089699755330707398 0 0.10266856499169109 0.044518360900210059 0 0.12372429750337779 0.095814237875728972 0 0.083411279318375747 0.91030024466934134 0 0.1241151115713819 0.9045666525468371 0 0.10266856499240549 0.95548163909968886 0 0.14617343800780541 0.93808063414349496 0 0.10266856499240549 0.95548163909968886 0 0.1241151115713819 0.9045666525468371 0 0.5499999999988151 0 0 0.59999999999894682 0 0 0.57396793757665954 0.037011367187645222 0 0.54782696902220018 0.79245182748204157 0 0.50627822638148745 0.8263979829520941 0 0.50731287292894423 0.78963574450233831 0 0.6499999999999998 0.29999999999999999 0 0.62657463266645097 0.26524202571255862 0 0.67933712972090698 0.25920070958121938 0 0.86956835336234861 0.571283299838105 0 0.86907294890112186 0.52008116128001669 0 0.90900154012161016 0.53607784105648792 0 0.17933913398461551 0.2350063570234002 0 0.224700362040408 0.22206622194729711 0 0.21049769590865089 0.26857363548218488 0 0.43249999999999988 0.43937499999999979 0 0.3908716102680424 0.47010282357248828 0 0.38707855792647411 0.42299362914874578 0 0.27474541102162192 0.11822029332053539 0 0.22985637510995899 0.1298347970200906 0 0.24218496799700481 0.089025544070598317 0 0.64753070846764316 0.77332939069435502 0 0.66427993341343905 0.73232764502436276 0 0.6916490518212759 0.75387992374886192 0 0 0.40000000000166441 0 0.050583896093752537 0.38543522283434112 0 0.035463093262830522 0.42673416072819947 0 0.73483647259922602 0.44789725365921768 0 0.73947346780852752 0.49062440112282169 0 0.69385896817107129 0.48377516041410151 0 0.57484956128872922 0.66573805030881994 0 0.52584555706968406 0.66664215091846768 0 0.5498280205245758 0.6290146943450976 0 0.60000000000138687 1 0 0.55000000000173355 1 0 0.57382506491224949 0.9629411906298494 0 0.068743045408989428 0.48853989837882689 0 0.085622222639554768 0.53333248912060549 0 0.044576108720083309 0.53509043209532614 0 0.083105206071467416 0.20007701332709979 0 0.044081577119474857 0.2271058242433576 0 0.038512288486115001 0.1844147282893184 0 0.083105206071452636 0.79992298667296435 0 0.038512288486097702 0.8155852717111195 0 0.04408157711937423 0.7728941757575627 0 0.28307294598219601 0.50789252727458634 0 0.23975172658309729 0.49475499200540818 0 0.25982634974572738 0.46097799597715272 0 0.43698630808430822 0.080423614171545449 0 0.39591832466117061 0.056982757562006353 0 0.4320097814748517 0.037406712692169303 0 0.4367309254023824 0.92065556789053882 0 0.4308986359464303 0.96395712492906194 0 0.39641108128798319 0.94356127926187128 0 0.80185942888539485 0.77452061303608133 0 0.75841349681148107 0.75422312624214749 0 0.78578450296893509 0.73292684821144505 0 0.80185942888501827 0.074520613036224564 0 0.7527966693318906 0.053051678021508272 0 0.78393852574753176 0.032039079577822822 0 0.6499999999999998 0.69999999999999996 0 0.62460753523532009 0.66851202781000296 0 0.675261390228442 0.65996937624687813 0 0.33123028043633618 0.77629643437932982 0 0.38586766253264881 0.78219501014812498 0 0.35642984951668422 0.80994399665655703 0 0.6405463747586706 0.63290524857395714 0 0.675261390228442 0.65996937624687813 0 0.62460753523532009 0.66851202781000296 0 0.22278230690790279 0.44824268025881547 0 0.191953871957803 0.42546416763755879 0 0.24049127783545701 0.41270748208749802 0 0.077693244765132896 0.56932317963405099 0 0.050069554451969707 0.61308520079857043 0 0.034381862692950467 0.57372682250960894 0 0.25195515620380449 0.25883339815888678 0 0.24432083401701241 0.3006253385567515 0 0.21049769590865089 0.26857363548218488 0 0.46666084890304671 0.57634471035397938 0 0.5166924242153631 0.59825134841919447 0 0.47095389620662098 0.61892551373708504 0 0.50715858906372158 0.63295939104129484 0 0.47095389620662098 0.61892551373708504 0 0.5166924242153631 0.59825134841919447 0 0.72525833953073282 0.1032114801687094 0 0.7527966693318906 0.053051678021508272 0 0.76878382444651716 0.097147941686331368 0 0.80185942888501827 0.074520613036224564 0 0.76878382444651716 0.097147941686331368 0 0.7527966693318906 0.053051678021508272 0 0.72500000000000064 0.7952620967744265 0 0.75841349681148107 0.75422312624214749 0 0.77094201086366854 0.79647480515688507 0 0.80185942888539485 0.77452061303608133 0 0.77094201086366854 0.79647480515688507 0 0.75841349681148107 0.75422312624214749 0 0.72500000000000064 0.7952620967744265 0 0.68024162096458085 0.79868546898116533 0 0.6916490518212759 0.75387992374886192 0 0.64753070846764316 0.77332939069435502 0 0.6916490518212759 0.75387992374886192 0 0.68024162096458085 0.79868546898116533 0 0 0.50000000000205869 0 0 0.45000000000187229 0 0.033550201249889847 0.46247875832467239 0 0.69999999999999984 0.69999999999999996 0 0.675261390228442 0.65996937624687813 0 0.72500000000000064 0.67022701834392062 0 0.71406021706547751 0.63292083137662503 0 0.72500000000000064 0.67022701834392062 0 0.675261390228442 0.65996937624687813 0 0.65408113592120842 0.073941773121567966 0 0.61940220174112337 0.047251958781050582 0 0.66369801598854572 0.036327466368102787 0 0.59999999999894682 0 0 0.61940220174112337 0.047251958781050582 0 0.57396793757665954 0.037011367187645222 0 0.60000000000138687 1 0 0.57382506491224949 0.9629411906298494 0 0.62065498684670595 0.95224934003983619 0 0.33122374654748771 0.57588941099433744 0 0.35765792684946668 0.6000687869219653 0 0.31502927232353312 0.6134992213375432 0 0.35864735590330371 0.63903383440414463 0 0.31502927232353312 0.6134992213375432 0 0.35765792684946668 0.6000687869219653 0 0.15801167086041079 0.46008690540259539 0 0.19604738184454831 0.47787523520405789 0 0.16618607197337229 0.50652878253548905 0 0.078358742472063481 0.43365249433908948 0 0.035463093262830522 0.42673416072819947 0 0.050583896093752537 0.38543522283434112 0 0.19901705110390991 0.9175543425573498 0 0.22850979588452081 0.95594428570238643 0 0.18474005699953849 0.96231585248064622 0 0.19922788606653311 0.085920220746880993 0 0.184418230509967 0.038773194583122873 0 0.22668068146512929 0.045875643423131329 0 0.19922788606653311 0.085920220746880993 0 0.24218496799700481 0.089025544070598317 0 0.22985637510995899 0.1298347970200906 0 0.74999999999999989 0.69999999999999996 0 0.78578450296893509 0.73292684821144505 0 0.75841349681148107 0.75422312624214749 0 0.74999999999934175 0 0 0.78393852574753176 0.032039079577822822 0 0.7527966693318906 0.053051678021508272 0 0 0.60000000000138687 0 0.034381862692950467 0.57372682250960894 0 0.050069554451969707 0.61308520079857043 0 0.2236846579037573 0.67380363126050236 0 0.26439878998046262 0.7048065392091396 0 0.2248999640082178 0.72584299459689172 0 0.6236733212988993 0.14864538214901801 0 0.58516465772821369 0.11653801664834119 0 0.61956000905586006 0.1043312481793135 0 0.26104540868854792 0.81401944968719064 0 0.2792923945214143 0.77665808831789485 0 0.30857225866488791 0.81101973481716805 0 0.42377727103934271 0.25099357235810238 0 0.42905200079338551 0.19982395548231649 0 0.46429753744194407 0.22870891180733599 0 0.27820712747429932 0.65530134213254643 0 0.31502927232353312 0.6134992213375432 0 0.32263089806001177 0.66003674931826484 0 0.61343887413683884 0.856862479058357 0 0.61885627562261258 0.90282959257498208 0 0.5832743223239254 0.88483152652961872 0 0.43698630808430822 0.080423614171545449 0 0.47040171442036788 0.044141676406503738 0 0.47881186583059909 0.093591717165689425 0 0.4367309254023824 0.92065556789053882 0 0.47401147028110507 0.91529957330468115 0 0.47135117303824892 0.95556877749289892 0 0.91696753777131557 0.497780560203536 0 0.95631871884947484 0.51827533208233789 0 0.90900154012161016 0.53607784105648792 0 0.93732437411268477 0.55911392101136159 0 0.90900154012161016 0.53607784105648792 0 0.95631871884947484 0.51827533208233789 0 0.27474541102162192 0.11822029332053539 0 0.25557216766470708 0.15874861286892261 0 0.22985637510995899 0.1298347970200906 0 0.2185883431182947 0.18019736283949719 0 0.22985637510995899 0.1298347970200906 0 0.25557216766470708 0.15874861286892261 0 0.29348325746214782 0.31350119524708198 0 0.33402499257867951 0.28911035184473982 0 0.32752639306529541 0.32610012995269699 0 0.27499999999933927 0.060310814194988557 0 0.32541448401678508 0.046215317981507749 0 0.3096713403101819 0.085471541595262421 0 0.27270076654418179 0.87751467830216623 0 0.24536017905392571 0.90704567837671446 0 0.2401283238295133 0.85648409884788523 0 1 0.44999999999963131 0 1 0.49999999999950101 0 0.96228564064454991 0.48206450662049471 0 0.61343887413683884 0.856862479058357 0 0.66412543161245952 0.88015090885499059 0 0.61885627562261258 0.90282959257498208 0 0 0.45000000000187229 0 0 0.40000000000166441 0 0.035463093262830522 0.42673416072819947 0 0.69999999999999984 0.69999999999999996 0 0.6916490518212759 0.75387992374886192 0 0.66427993341343905 0.73232764502436276 0 0.43846182030517877 0.64845797726506715 0 0.43323420005758778 0.6913544522562407 0 0.3977710372045391 0.65868194622830212 0 0.4367309254023824 0.92065556789053882 0 0.44003836461056539 0.88093474584252718 0 0.47401147028110507 0.91529957330468115 0 0.43846182030517877 0.64845797726506715 0 0.39743091024207589 0.6239520004230239 0 0.43545892161006339 0.61093128915313821 0 0.43846182030517877 0.64845797726506715 0 0.3977710372045391 0.65868194622830212 0 0.39743091024207589 0.6239520004230239 0 0.26429849586623999 0.19346700179430079 0 0.29336099386129338 0.15892013001050981 0 0.31255190597181792 0.19850845631528771 0 0.19670163708476801 0.31472518408333222 0 0.21049769590865089 0.26857363548218488 0 0.24432083401701241 0.3006253385567515 0 0.57724883562309992 0.92155686857100794 0 0.62065498684670595 0.95224934003983619 0 0.57382506491224949 0.9629411906298494 0 0.4409427642593301 0.35743108089689513 0 0.46655310992796922 0.39650496622958609 0 0.42161023666869668 0.39493916313643851 0 0.46666084890304671 0.57634471035397938 0 0.47095389620662098 0.61892551373708504 0 0.43545892161006339 0.61093128915313821 0 0.6879972333610942 0.43038561374960838 0 0.65178832218679827 0.45929119821019959 0 0.63912439215427275 0.41063340167983359 0 0.43698630808430822 0.080423614171545449 0 0.4320097814748517 0.037406712692169303 0 0.47040171442036788 0.044141676406503738 0 0.4367309254023824 0.92065556789053882 0 0.47135117303824892 0.95556877749289892 0 0.4308986359464303 0.96395712492906194 0 0.79680861578988083 0.92656778056766709 0 0.81486180804382891 0.96321394949790495 0 0.770759834363826 0.95919399014344442 0 0.79680861578956375 0.22656778056752541 0 0.81486180804364938 0.26321394949780091 0 0.77075983436335049 0.25919399014334171 0 0.71508799138962864 0.36622814920737751 0 0.68128176404677243 0.38629093627004979 0 0.68887083591306764 0.33632058575757479 0 0.35864735590330371 0.63903383440414463 0 0.32263089806001177 0.66003674931826484 0 0.31502927232353312 0.6134992213375432 0 0.21858834311891909 0.81980263716112767 0 0.2401283238295133 0.85648409884788523 0 0.19741632902693801 0.86755867406447229 0 0.35312867752657662 0.084946736076730367 0 0.32215584939770009 0.1218492143506909 0 0.3096713403101819 0.085471541595262421 0 0.35752321586431363 0.9185439911803448 0 0.35864759629805099 0.87963482415279515 0 0.39767323751400468 0.89584229130535065 0 0.41914690343363781 0.30688979866601612 0 0.4604742573284204 0.27846934318264788 0 0.46226845272279993 0.31901800744800313 0 0.33084213324567391 0.16272720141332131 0 0.32215584939770009 0.1218492143506909 0 0.36246644853392812 0.1399454205365751 0 0.46666084890304671 0.57634471035397938 0 0.42644501560315817 0.54603747078095544 0 0.47793794143994173 0.52940715638744962 0 0 0.60000000000138687 0 0 0.55000000000173355 0 0.034381862692950467 0.57372682250960894 0 0.77354604466818633 0.40378688774472771 0 0.74764719760526988 0.3719647154012321 0 0.78145581580700685 0.34881365920033602 0 0.34999999999912063 0 0 0.3615861437013822 0.03582617922508851 0 0.32541448401678508 0.046215317981507749 0 0.35000000000145642 1 0 0.32544832635163229 0.95485394099568932 0 0.36184234618600131 0.96443954459096326 0 0.57667858002728545 0.078486105337742612 0 0.57396793757665954 0.037011367187645222 0 0.61940220174112337 0.047251958781050582 0 0.47357141910802508 0.1873585799078378 0 0.50760557329222289 0.20700468884612061 0 0.46429753744194407 0.22870891180733599 0 0.49695729691142171 0.25014895411178018 0 0.46429753744194407 0.22870891180733599 0 0.50760557329222289 0.20700468884612061 0 0.33084213324567391 0.16272720141332131 0 0.3572130504031617 0.1874703368446563 0 0.31255190597181792 0.19850845631528771 0 0.6879972333610942 0.43038561374960838 0 0.63912439215427275 0.41063340167983359 0 0.68128176404677243 0.38629093627004979 0 0.65408113592120842 0.073941773121567966 0 0.65290632656860115 0.11434202593454081 0 0.61956000905586006 0.1043312481793135 0 0.33084213324567391 0.16272720141332131 0 0.31255190597181792 0.19850845631528771 0 0.29336099386129338 0.15892013001050981 0 0.61209567303293111 0.44669033081290321 0 0.63912439215427275 0.41063340167983359 0 0.65178832218679827 0.45929119821019959 0 0.086179601630648681 0.64647209519980475 0 0.1024350934457823 0.60772393977513839 0 0.1241190223511371 0.64391885572885044 0 0.44999999999882923 0 0 0.47040171442036788 0.044141676406503738 0 0.4320097814748517 0.037406712692169303 0 0.45000000000187229 1 0 0.4308986359464303 0.96395712492906194 0 0.47135117303824892 0.95556877749289892 0 0.74999999999934175 0 0 0.7527966693318906 0.053051678021508272 0 0.72683645290270404 0.027797073151180601 0 0.74999999999999989 0.69999999999999996 0 0.75841349681148107 0.75422312624214749 0 0.72501250972655151 0.74067302935308721 0 0.69999999999999984 0.69999999999999996 0 0.72501250972655151 0.74067302935308721 0 0.6916490518212759 0.75387992374886192 0 0.74999999999934175 0 0 0.79999999999947335 0 0 0.78393852574753176 0.032039079577822822 0 0.74999999999999989 0.69999999999999996 0 0.79999999999999982 0.69999999999999996 0 0.78578450296893509 0.73292684821144505 0 0.6405463747586706 0.63290524857395714 0 0.5991018319127801 0.62925360607495295 0 0.63065402604362242 0.59661356661633302 0 0.65481233915350323 0.35652751921065562 0 0.68887083591306764 0.33632058575757479 0 0.68128176404677243 0.38629093627004979 0 0.89999999999999991 0.29999999999999999 0 0.94999999999999996 0.29999999999999999 0 0.92012390126144183 0.33123581297173937 0 0.89999999999999991 0.69999999999999996 0 0.92057473616084773 0.66770436535372446 0 0.94999999999999996 0.69999999999999996 0 0.4367309254023824 0.92065556789053882 0 0.39767323751400468 0.89584229130535065 0 0.44003836461056539 0.88093474584252718 0 0.2185883431182947 0.18019736283949719 0 0.18124454140915969 0.18790916706335251 0 0.18652628422869419 0.14162325200928061 0 0.20050006573841939 0.53248514016039872 0 0.19604738184454831 0.47787523520405789 0 0.23975172658309729 0.49475499200540818 0 0.65507451745379841 0.92229208810758578 0 0.61885627562261258 0.90282959257498208 0 0.66412543161245952 0.88015090885499059 0 0.65394964615507722 0.22666784374016369 0 0.67933712972090698 0.25920070958121938 0 0.62657463266645097 0.26524202571255862 0 0.077693244765132896 0.56932317963405099 0 0.034381862692950467 0.57372682250960894 0 0.044576108720083309 0.53509043209532614 0 0.39801143831225599 0.16651381068160659 0 0.38831533174504851 0.2189834941785925 0 0.3572130504031617 0.1874703368446563 0 0.6499999999999998 0.69999999999999996 0 0.69999999999999984 0.69999999999999996 0 0.66427993341343905 0.73232764502436276 0 0.1215415378367805 0.72939333680004137 0 0.15332765547575641 0.71200081858233666 0 0.14335651144331049 0.75565258250209677 0 0.6405463747586706 0.63290524857395714 0 0.63065402604362242 0.59661356661633302 0 0.67529834988829951 0.61613270668143583 0 0.67323294229744413 0.57556450033612505 0 0.67529834988829951 0.61613270668143583 0 0.63065402604362242 0.59661356661633302 0 0.91750694127107502 0.36982372220068471 0 0.87430060258887643 0.34056085888204451 0 0.92012390126144183 0.33123581297173937 0 0.89999999999999991 0.29999999999999999 0 0.92012390126144183 0.33123581297173937 0 0.87430060258887643 0.34056085888204451 0 0.89999999999999991 0.69999999999999996 0 0.87712158428786946 0.65709029563313581 0 0.92057473616084773 0.66770436535372446 0 0.91750694127105259 0.63017627779935648 0 0.92057473616084773 0.66770436535372446 0 0.87712158428786946 0.65709029563313581 0 0.33122374654748771 0.57588941099433744 0 0.29110487519241501 0.56588143995431495 0 0.33190227185843768 0.52715113583864037 0 0.57484956128872922 0.66573805030881994 0 0.5498280205245758 0.6290146943450976 0 0.5991018319127801 0.62925360607495295 0 0.57412547362576272 0.58273804879550706 0 0.5991018319127801 0.62925360607495295 0 0.5498280205245758 0.6290146943450976 0 0.65408113592120842 0.073941773121567966 0 0.66369801598854572 0.036327466368102787 0 0.7010294155333181 0.056779085686491267 0 0.27474541102162192 0.11822029332053539 0 0.32215584939770009 0.1218492143506909 0 0.29336099386129338 0.15892013001050981 0 0.33084213324567391 0.16272720141332131 0 0.29336099386129338 0.15892013001050981 0 0.32215584939770009 0.1218492143506909 0 0.5 0.29999999999999999 0 0.54999999999999993 0.29999999999999999 0 0.52752007115234678 0.33170632466418198 0 0.83573492347052902 0.36590755630746369 0 0.87430060258887643 0.34056085888204451 0 0.86844634540301924 0.38530937474099819 0 0.83758014339878906 0.63222013025741819 0 0.87159648282691515 0.61285406320581504 0 0.87712158428786946 0.65709029563313581 0 0.22278230690790279 0.44824268025881547 0 0.23975172658309729 0.49475499200540818 0 0.19604738184454831 0.47787523520405789 0 1 0.49999999999950101 0 0.95631871884947484 0.51827533208233789 0 0.96228564064454991 0.48206450662049471 0 0.1650278706801647 0.38791388161335733 0 0.13773355295499351 0.42497777642586831 0 0.1117088112799664 0.38831403004970022 0 0.61209567303293111 0.44669033081290321 0 0.57975577671020095 0.46172033326338591 0 0.57744073070774993 0.41535148636609359 0 0.077693244765132896 0.56932317963405099 0 0.1154888278694548 0.56733818459978413 0 0.1024350934457823 0.60772393977513839 0 0.68697391633157634 0.84450604838764298 0 0.65005442820240822 0.82644988530054031 0 0.68024162096458085 0.79868546898116533 0 0.76901770135486491 0.84293557325473656 0 0.77094201086366854 0.79647480515688507 0 0.80041942726660109 0.81543261647703358 0 0.77144070960558853 0.14311854477243749 0 0.76878382444651716 0.097147941686331368 0 0.80076557130237269 0.1154587552654202 0 0.5 0.69999999999999996 0 0.52584555706968406 0.66664215091846768 0 0.54999999999999993 0.69999999999999996 0 0.077693244765132896 0.56932317963405099 0 0.044576108720083309 0.53509043209532614 0 0.085622222639554768 0.53333248912060549 0 0.69999999999921003 0 0 0.72683645290270404 0.027797073151180601 0 0.7010294155333181 0.056779085686491267 0 1 0 0 0.97166519676946894 0.033371144900598393 0 0.94999999999986839 0 0 1 0.69999999999999996 0 0.97166519676947294 0.73337114490064459 0 0.94999999999999996 0.69999999999999996 0 1 0.69999999999999996 0 1 0.74999999999993494 0 0.97166519676947294 0.73337114490064459 0 1 0.29999999999999999 0 0.97166519676951801 0.26662885509932011 0 1 0.24999999999987299 0 1 1 0 0.94999999999979179 1 0 0.97166519676946206 0.96662885509935492 0 1 0 0 1 0.049999999999896842 0 0.97166519676946894 0.033371144900598393 0 1 0.29999999999999999 0 0.94999999999999996 0.29999999999999999 0 0.97166519676951801 0.26662885509932011 0 1 1 0 0.97166519676946206 0.96662885509935492 0 1 0.94999999999997109 0 0 0.55000000000173355 0 0.044576108720083309 0.53509043209532614 0 0.034381862692950467 0.57372682250960894 0 0.6879972333610942 0.43038561374960838 0 0.69385896817107129 0.48377516041410151 0 0.65178832218679827 0.45929119821019959 0 0.33084213324567391 0.16272720141332131 0 0.36246644853392812 0.1399454205365751 0 0.3572130504031617 0.1874703368446563 0 0.65408113592120842 0.073941773121567966 0 0.68330259535470161 0.10038702501083881 0 0.65290632656860115 0.11434202593454081 0 0.16500388252850301 0.66612077714085194 0 0.19068556247388771 0.71028988922845504 0 0.15332765547575641 0.71200081858233666 0 0.82709327591091286 0.84937141670920724 0 0.85600844944837662 0.88483418979512773 0 0.81159157511211755 0.88795995483179491 0 0.82709327591102189 0.14937141670914489 0 0.85600844944842547 0.1848341897950983 0 0.81283102246527783 0.1881007222486438 0 0.79999999999999982 0.29999999999999999 0 0.84999999999999987 0.29999999999999999 0 0.82500000000000062 0.33010209762754811 0 0.79999999999999982 0.69999999999999996 0 0.82457059160610424 0.66831947184359608 0 0.84999999999999987 0.69999999999999996 0 0.59999999999999976 0.69999999999999996 0 0.62460753523532009 0.66851202781000296 0 0.6499999999999998 0.69999999999999996 0 0.39801143831225599 0.16651381068160659 0 0.3572130504031617 0.1874703368446563 0 0.36246644853392812 0.1399454205365751 0 0.69999999999999984 0.29999999999999999 0 0.74999999999999989 0.29999999999999999 0 0.73090396928863699 0.33699297293167962 0 0.69999999999999984 0.69999999999999996 0 0.72500000000000064 0.67022701834392062 0 0.74999999999999989 0.69999999999999996 0 0.6236733212988993 0.14864538214901801 0 0.64011864159029941 0.18789607982138171 0 0.59443395090188023 0.18455690917515069 0 0.20050006573841939 0.53248514016039872 0 0.16618607197337229 0.50652878253548905 0 0.19604738184454831 0.47787523520405789 0 0.79680861578956375 0.22656778056752541 0 0.76587607630038135 0.18880039518954719 0 0.81283102246527783 0.1881007222486438 0 0.79680861578988083 0.92656778056766709 0 0.76891166905518427 0.88835469571185499 0 0.81159157511211755 0.88795995483179491 0 0.71406021706547751 0.63292083137662503 0 0.675261390228442 0.65996937624687813 0 0.67529834988829951 0.61613270668143583 0 0.6405463747586706 0.63290524857395714 0 0.67529834988829951 0.61613270668143583 0 0.675261390228442 0.65996937624687813 0 0.19670163708476801 0.31472518408333222 0 0.168349569971391 0.28054490850913671 0 0.21049769590865089 0.26857363548218488 0 0.47357141910802508 0.1873585799078378 0 0.46429753744194407 0.22870891180733599 0 0.42905200079338551 0.19982395548231649 0 0.59814117807200873 0.23398510860739519 0 0.5794309697024993 0.27124795968204829 0 0.54248833945060504 0.2520322959927106 0 0.6541250972820879 0.49999999999999989 0 0.65178832218679827 0.45929119821019959 0 0.69385896817107129 0.48377516041410151 0 0.54999999999999993 0.29999999999999999 0 0.5794309697024993 0.27124795968204829 0 0.59999999999999976 0.29999999999999999 0 0.7750489929959945 0.66593931409600093 0 0.74994237037456724 0.62775548192980357 0 0.79884539758237771 0.62875045078114233 0 0.77293540622714185 0.59448302402785813 0 0.79884539758237771 0.62875045078114233 0 0.74994237037456724 0.62775548192980357 0 0.14332333627550789 0.14578431753966009 0 0.16141998738593399 0.10404039647458049 0 0.18652628422869419 0.14162325200928061 0 0.38083244760691543 0.38531983672244652 0 0.42161023666869668 0.39493916313643851 0 0.38707855792647411 0.42299362914874578 0 0.43249999999999988 0.43937499999999979 0 0.38707855792647411 0.42299362914874578 0 0.42161023666869668 0.39493916313643851 0 0.43846182030517877 0.64845797726506715 0 0.47095389620662098 0.61892551373708504 0 0.47913475093885149 0.66010775372412711 0 0.50715858906372158 0.63295939104129484 0 0.47913475093885149 0.66010775372412711 0 0.47095389620662098 0.61892551373708504 0 0.69999999999999984 0.69999999999999996 0 0.74999999999999989 0.69999999999999996 0 0.72501250972655151 0.74067302935308721 0 0.4089290844030305 0.58728915500154233 0 0.35765792684946668 0.6000687869219653 0 0.37272913873093971 0.56192925302619479 0 0.69999999999921003 0 0 0.74999999999934175 0 0 0.72683645290270404 0.027797073151180601 0 0.17933913398461551 0.2350063570234002 0 0.21049769590865089 0.26857363548218488 0 0.168349569971391 0.28054490850913671 0 0.14474682429600511 0.85524784522713515 0 0.10562472963403439 0.87143394428979881 0 0.1074251789111534 0.83564394292147814 0 0.14332333627550789 0.14578431753966009 0 0.106902708054812 0.16453234188234539 0 0.1053400320299198 0.12877248826361379 0 0.2236846579037573 0.67380363126050236 0 0.19914261668318661 0.62286739485272158 0 0.2459498854893499 0.63248470766216769 0 0.049999999999899652 0 0 0.053064897599215843 0.048131547304697528 0 0.02576622439977887 0.024532886826226379 0 0 0.050000000000207989 0 0.02576622439977887 0.024532886826226379 0 0.053064897599215843 0.048131547304697528 0 0.050000000000207989 1 0 0.025766224399875661 0.97546711317377799 0 0.053064897599294662 0.95186845269532028 0 0 0.94999999999979179 0 0.053064897599294662 0.95186845269532028 0 0.025766224399875661 0.97546711317377799 0 0.47357141910802508 0.1873585799078378 0 0.48466639505193998 0.1421439844745814 0 0.51729576145820033 0.1683240575987815 0 0.077693244765132896 0.56932317963405099 0 0.085622222639554768 0.53333248912060549 0 0.1154888278694548 0.56733818459978413 0 0.64753070846764316 0.77332939069435502 0 0.63221990677827677 0.73442891067859706 0 0.66427993341343905 0.73232764502436276 0 0.4656888918609538 0.78493261229743638 0 0.42609163930740518 0.80361684430568059 0 0.42676259796334498 0.76772545931379299 0 0.4089290844030305 0.58728915500154233 0 0.39743091024207589 0.6239520004230239 0 0.35765792684946668 0.6000687869219653 0 0.55306006949600994 0.20198184231352201 0 0.50760557329222289 0.20700468884612061 0 0.51729576145820033 0.1683240575987815 0 1 0.8999999999998336 0 1 0.94999999999997109 0 0.97435614836744289 0.92499999999990257 0 1 0.19999999999974799 0 1 0.24999999999987299 0 0.97435614836740092 0.22499999999981049 0 1 0.74999999999993494 0 1 0.7999999999998193 0 0.97435614836745565 0.77499999999987745 0 1 0.049999999999896842 0 1 0.099999999999753911 0 0.97435614836748241 0.074999999999825387 0 0.86411095495256451 0.42388805655111889 0 0.86844634540301924 0.38530937474099819 0 0.90594285160987287 0.4141265964174129 0 0.86956835336234861 0.571283299838105 0 0.91143117093204207 0.58709913730335972 0 0.87159648282691515 0.61285406320581504 0 0 0 0 0.02576622439977887 0.024532886826226379 0 0 0.050000000000207989 0 0 1 0 0 0.94999999999979179 0 0.025766224399875661 0.97546711317377799 0 0 1 0 0.025766224399875661 0.97546711317377799 0 0.050000000000207989 1 0 0 0 0 0.049999999999899652 0 0 0.02576622439977887 0.024532886826226379 0 0.65394964615507722 0.22666784374016369 0 0.64011864159029941 0.18789607982138171 0 0.6865991819015953 0.189116534044597 0 0.25195515620380449 0.25883339815888678 0 0.28040350263641872 0.23054717217092141 0 0.29132859388405002 0.27203693976649962 0 0.61209567303293111 0.44669033081290321 0 0.65178832218679827 0.45929119821019959 0 0.61547661924074692 0.48539576058873962 0 0.6541250972820879 0.49999999999999989 0 0.61547661924074692 0.48539576058873962 0 0.65178832218679827 0.45929119821019959 0 0.19670163708476801 0.31472518408333222 0 0.24432083401701241 0.3006253385567515 0 0.22615676742807109 0.33458786033114157 0 0.15801167086041079 0.46008690540259539 0 0.13773355295499351 0.42497777642586831 0 0.191953871957803 0.42546416763755879 0 0.1650278706801647 0.38791388161335733 0 0.191953871957803 0.42546416763755879 0 0.13773355295499351 0.42497777642586831 0 0.50715858906372158 0.63295939104129484 0 0.52584555706968406 0.66664215091846768 0 0.47913475093885149 0.66010775372412711 0 0.5 0.69999999999999996 0 0.47913475093885149 0.66010775372412711 0 0.52584555706968406 0.66664215091846768 0 0.51076801031701946 0.1202837388510348 0 0.51729576145820033 0.1683240575987815 0 0.48466639505193998 0.1421439844745814 0 0.71406021706547751 0.63292083137662503 0 0.74994237037456724 0.62775548192980357 0 0.72500000000000064 0.67022701834392062 0 0.71508799138962864 0.36622814920737751 0 0.73090396928863699 0.33699297293167962 0 0.74764719760526988 0.3719647154012321 0 0.22278230690790279 0.44824268025881547 0 0.25982634974572738 0.46097799597715272 0 0.23975172658309729 0.49475499200540818 0 0.80185942888539485 0.77452061303608133 0 0.78578450296893509 0.73292684821144505 0 0.81864958914779962 0.73589050177899629 0 0.80185942888501827 0.074520613036224564 0 0.78393852574753176 0.032039079577822822 0 0.81864958914740749 0.035890501779055867 0 0.5 0.29999999999999999 0 0.46226845272279993 0.31901800744800313 0 0.4604742573284204 0.27846934318264788 0 0.6405463747586706 0.63290524857395714 0 0.62460753523532009 0.66851202781000296 0 0.5991018319127801 0.62925360607495295 0 0.79680861578988083 0.92656778056766709 0 0.770759834363826 0.95919399014344442 0 0.75729602384198635 0.92353652857884294 0 0.79680861578956375 0.22656778056752541 0 0.77075983436335049 0.25919399014334171 0 0.75668890529066124 0.2244279804069782 0 0.65394964615507722 0.22666784374016369 0 0.69397719155551807 0.2245125647000914 0 0.67933712972090698 0.25920070958121938 0 0.81973119833356312 0.43505687159469048 0 0.84925632466077294 0.45359738909549091 0 0.81400510706333218 0.47357325943904899 0 0.83758014339878906 0.63222013025741819 0 0.82457059160610424 0.66831947184359608 0 0.79884539758237771 0.62875045078114233 0 0.25676291524611189 0.7436741304886243 0 0.2248999640082178 0.72584299459689172 0 0.26439878998046262 0.7048065392091396 0 0.91696753777131557 0.497780560203536 0 0.90900154012161016 0.53607784105648792 0 0.86907294890112186 0.52008116128001669 0 0.17933913398461551 0.2350063570234002 0 0.168349569971391 0.28054490850913671 0 0.14377654328998779 0.2442024734791064 0 0.1247745017231483 0.27198077544791172 0 0.14377654328998779 0.2442024734791064 0 0.168349569971391 0.28054490850913671 0 0.34258405725730701 0.4444034294386992 0 0.35221190152536241 0.40457127605439203 0 0.38707855792647411 0.42299362914874578 0 0.47357141910802508 0.1873585799078378 0 0.51729576145820033 0.1683240575987815 0 0.50760557329222289 0.20700468884612061 0 0.19670163708476801 0.31472518408333222 0 0.22615676742807109 0.33458786033114157 0 0.18434624290945251 0.35208838264196463 0 0.22033343844674469 0.36963382230740238 0 0.18434624290945251 0.35208838264196463 0 0.22615676742807109 0.33458786033114157 0 0.24432083401701241 0.3006253385567515 0 0.25966125648670141 0.34351016742083729 0 0.22615676742807109 0.33458786033114157 0 0.93814194660195893 0.44426664081746747 0 0.90594285160987287 0.4141265964174129 0 0.95871855522754235 0.40006508612975411 0 0.91750694127107502 0.36982372220068471 0 0.95871855522754235 0.40006508612975411 0 0.90594285160987287 0.4141265964174129 0 0.91750694127105259 0.63017627779935648 0 0.91143117093204207 0.58709913730335972 0 0.95867599106212187 0.60011091146651041 0 0.93732437411268477 0.55911392101136159 0 0.95867599106212187 0.60011091146651041 0 0.91143117093204207 0.58709913730335972 0 0.50715858906372158 0.63295939104129484 0 0.5498280205245758 0.6290146943450976 0 0.52584555706968406 0.66664215091846768 0 0.94399509803918602 0.75600490196082126 0 0.97435614836745565 0.77499999999987745 0 0.95386563387742829 0.80414874155775029 0 0.94399509803922566 0.056004901960802607 0 0.97435614836748241 0.074999999999825387 0 0.95386563387744361 0.1041487415577465 0 0.94399509803921056 0.24399509803922639 0 0.95391631417672862 0.19584263333809451 0 0.97435614836740092 0.22499999999981049 0 0.94399509803919068 0.9439950980391687 0 0.95391631417670719 0.89584263333814784 0 0.97435614836744289 0.92499999999990257 0 0.79680861578988083 0.92656778056766709 0 0.75729602384198635 0.92353652857884294 0 0.76891166905518427 0.88835469571185499 0 0.79680861578956375 0.22656778056752541 0 0.75668890529066124 0.2244279804069782 0 0.76587607630038135 0.18880039518954719 0 0.65394964615507722 0.22666784374016369 0 0.6865991819015953 0.189116534044597 0 0.69397719155551807 0.2245125647000914 0 0.38083244760691543 0.38531983672244652 0 0.38707855792647411 0.42299362914874578 0 0.35221190152536241 0.40457127605439203 0 1 0.7999999999998193 0 0.95386563387742829 0.80414874155775029 0 0.97435614836745565 0.77499999999987745 0 1 0.099999999999753911 0 0.95386563387744361 0.1041487415577465 0 0.97435614836748241 0.074999999999825387 0 1 0.8999999999998336 0 0.97435614836744289 0.92499999999990257 0 0.95391631417670719 0.89584263333814784 0 1 0.19999999999974799 0 0.97435614836740092 0.22499999999981049 0 0.95391631417672862 0.19584263333809451 0 0.84723782639812573 0.48638347960178252 0 0.81400510706333218 0.47357325943904899 0 0.84925632466077294 0.45359738909549091 0 0.54999999999999993 0.29999999999999999 0 0.54248833945060504 0.2520322959927106 0 0.5794309697024993 0.27124795968204829 0 0.94999999999999996 0.29999999999999999 0 0.95780851984364423 0.34215720972155339 0 0.92012390126144183 0.33123581297173937 0 0.94999999999999996 0.69999999999999996 0 0.92057473616084773 0.66770436535372446 0 0.9578014258160763 0.65787212321113708 0 0.15801167086041079 0.46008690540259539 0 0.113541300460994 0.46208784312094731 0 0.13773355295499351 0.42497777642586831 0 0.7250000000005199 0.94981617647078953 0 0.68015064798562208 0.95924320340003011 0 0.68987011941058407 0.92105047536677087 0 0.65507451745379841 0.92229208810758578 0 0.68987011941058407 0.92105047536677087 0 0.68015064798562208 0.95924320340003011 0 0.77846603114747959 0.49850927265137401 0 0.77972660463949339 0.45529290596363098 0 0.81400510706333218 0.47357325943904899 0 0.27866744612395528 0.38416094670951489 0 0.25966125648670141 0.34351016742083729 0 0.29644548887253103 0.34914008784168082 0 0.61209567303293111 0.44669033081290321 0 0.61547661924074692 0.48539576058873962 0 0.57975577671020095 0.46172033326338591 0 0.57611405284611883 0.50165903596042916 0 0.57975577671020095 0.46172033326338591 0 0.61547661924074692 0.48539576058873962 0 0.7250000000005199 0.89375000000045834 0 0.76891166905518427 0.88835469571185499 0 0.75729602384198635 0.92353652857884294 0 0.72500000000001008 0.19776155966387679 0 0.76587607630038135 0.18880039518954719 0 0.75668890529066124 0.2244279804069782 0 0.72500000000001008 0.19776155966387679 0 0.69397719155551807 0.2245125647000914 0 0.6865991819015953 0.189116534044597 0 0.083411279318303222 0.089699755330707398 0 0.12372429750337779 0.095814237875728972 0 0.1053400320299198 0.12877248826361379 0 0.083411279318375747 0.91030024466934134 0 0.10562472963403439 0.87143394428979881 0 0.1241151115713819 0.9045666525468371 0 0.14617343800780541 0.93808063414349496 0 0.1241151115713819 0.9045666525468371 0 0.16206583317966519 0.89685560785156404 0 0.14618258501891079 0.062070108745602003 0 0.16141998738593399 0.10404039647458049 0 0.12372429750337779 0.095814237875728972 0 0.33277555741076909 0.36432196682010132 0 0.35221190152536241 0.40457127605439203 0 0.31778888742534622 0.40581751814196781 0 0.7250000000005199 0.94981617647078953 0 0.75729602384198635 0.92353652857884294 0 0.770759834363826 0.95919399014344442 0 0.72500000000000064 0.2498161764706 0 0.75668890529066124 0.2244279804069782 0 0.77075983436335049 0.25919399014334171 0 0.72500000000000064 0.2498161764706 0 0.67933712972090698 0.25920070958121938 0 0.69397719155551807 0.2245125647000914 0 0.6236733212988993 0.14864538214901801 0 0.61956000905586006 0.1043312481793135 0 0.65290632656860115 0.11434202593454081 0 0.81973119833356312 0.43505687159469048 0 0.81400510706333218 0.47357325943904899 0 0.77972660463949339 0.45529290596363098 0 0.25676291524611189 0.7436741304886243 0 0.29904318922293632 0.74132814928635593 0 0.2792923945214143 0.77665808831789485 0 0.36575549820117997 0.31677992835137742 0 0.32752639306529541 0.32610012995269699 0 0.33402499257867951 0.28911035184473982 0 0.14332333627550789 0.14578431753966009 0 0.18652628422869419 0.14162325200928061 0 0.18124454140915969 0.18790916706335251 0 0.57724883562309992 0.92155686857100794 0 0.5832743223239254 0.88483152652961872 0 0.61885627562261258 0.90282959257498208 0 0.57667858002728545 0.078486105337742612 0 0.61956000905586006 0.1043312481793135 0 0.58516465772821369 0.11653801664834119 0 0.80185942888539485 0.77452061303608133 0 0.80041942726660109 0.81543261647703358 0 0.77094201086366854 0.79647480515688507 0 0.80185942888501827 0.074520613036224564 0 0.80076557130237269 0.1154587552654202 0 0.76878382444651716 0.097147941686331368 0 0.64753070846764316 0.77332939069435502 0 0.68024162096458085 0.79868546898116533 0 0.65005442820240822 0.82644988530054031 0 0.26429849586623999 0.19346700179430079 0 0.25557216766470708 0.15874861286892261 0 0.29336099386129338 0.15892013001050981 0 0.29348325746214782 0.31350119524708198 0 0.29644548887253103 0.34914008784168082 0 0.25966125648670141 0.34351016742083729 0 0.68391457121233579 0.14440470121196541 0 0.65290632656860115 0.11434202593454081 0 0.68330259535470161 0.10038702501083881 0 0.91750694127107502 0.36982372220068471 0 0.92012390126144183 0.33123581297173937 0 0.95780851984364423 0.34215720972155339 0 0.91750694127105259 0.63017627779935648 0 0.9578014258160763 0.65787212321113708 0 0.92057473616084773 0.66770436535372446 0 0.22033343844674469 0.36963382230740238 0 0.22615676742807109 0.33458786033114157 0 0.25966125648670141 0.34351016742083729 0 1 0.94999999999997109 0 0.97166519676946206 0.96662885509935492 0 0.97435614836744289 0.92499999999990257 0 0.94399509803919068 0.9439950980391687 0 0.97435614836744289 0.92499999999990257 0 0.97166519676946206 0.96662885509935492 0 0.94399509803921056 0.24399509803922639 0 0.97435614836740092 0.22499999999981049 0 0.97166519676951801 0.26662885509932011 0 1 0.24999999999987299 0 0.97166519676951801 0.26662885509932011 0 0.97435614836740092 0.22499999999981049 0 1 0.74999999999993494 0 0.97435614836745565 0.77499999999987745 0 0.97166519676947294 0.73337114490064459 0 1 0.049999999999896842 0 0.97435614836748241 0.074999999999825387 0 0.97166519676946894 0.033371144900598393 0 0.94399509803918602 0.75600490196082126 0 0.97166519676947294 0.73337114490064459 0 0.97435614836745565 0.77499999999987745 0 0.94399509803922566 0.056004901960802607 0 0.97166519676946894 0.033371144900598393 0 0.97435614836748241 0.074999999999825387 0 0.77846603114747959 0.49850927265137401 0 0.81400510706333218 0.47357325943904899 0 0.81441713509985358 0.51161854125224959 0 0.77354604466818633 0.40378688774472771 0 0.72622533758026719 0.40265885511101601 0 0.74764719760526988 0.3719647154012321 0 0.71508799138962864 0.36622814920737751 0 0.74764719760526988 0.3719647154012321 0 0.72622533758026719 0.40265885511101601 0 0.84723782639812573 0.48638347960178252 0 0.84925632466077294 0.45359738909549091 0 0.88594198078881503 0.46167788676578442 0 0.86411095495256451 0.42388805655111889 0 0.88594198078881503 0.46167788676578442 0 0.84925632466077294 0.45359738909549091 0 0.43846182030517877 0.64845797726506715 0 0.43545892161006339 0.61093128915313821 0 0.47095389620662098 0.61892551373708504 0 0.33123028043633618 0.77629643437932982 0 0.35642984951668422 0.80994399665655703 0 0.30857225866488791 0.81101973481716805 0 0.33403534827021109 0.84402799729020661 0 0.30857225866488791 0.81101973481716805 0 0.35642984951668422 0.80994399665655703 0 0.26429849586623999 0.19346700179430079 0 0.31255190597181792 0.19850845631528771 0 0.28040350263641872 0.23054717217092141 0 0.57724883562309992 0.92155686857100794 0 0.54783390826260769 0.89287767010860219 0 0.5832743223239254 0.88483152652961872 0 0.55899371797446828 0.85003102233514438 0 0.5832743223239254 0.88483152652961872 0 0.54783390826260769 0.89287767010860219 0 0.4089290844030305 0.58728915500154233 0 0.43545892161006339 0.61093128915313821 0 0.39743091024207589 0.6239520004230239 0 0.77293540622714185 0.59448302402785813 0 0.81723410853263523 0.59419663659258926 0 0.79884539758237771 0.62875045078114233 0 0.83758014339878906 0.63222013025741819 0 0.79884539758237771 0.62875045078114233 0 0.81723410853263523 0.59419663659258926 0 0.35864735590330371 0.63903383440414463 0 0.39743091024207589 0.6239520004230239 0 0.3977710372045391 0.65868194622830212 0 0.56202748619534593 0.15054058349222879 0 0.54979595918804436 0.1060565713905809 0 0.58516465772821369 0.11653801664834119 0 0.57667858002728545 0.078486105337742612 0 0.58516465772821369 0.11653801664834119 0 0.54979595918804436 0.1060565713905809 0 0.33122374654748771 0.57588941099433744 0 0.37272913873093971 0.56192925302619479 0 0.35765792684946668 0.6000687869219653 0 0.35864735590330371 0.63903383440414463 0 0.35765792684946668 0.6000687869219653 0 0.39743091024207589 0.6239520004230239 0 0.71508799138962864 0.36622814920737751 0 0.68887083591306764 0.33632058575757479 0 0.73090396928863699 0.33699297293167962 0 0.29348325746214782 0.31350119524708198 0 0.32752639306529541 0.32610012995269699 0 0.29644548887253103 0.34914008784168082 0 0.33277555741076909 0.36432196682010132 0 0.29644548887253103 0.34914008784168082 0 0.32752639306529541 0.32610012995269699 0 0.34258405725730701 0.4444034294386992 0 0.31778888742534622 0.40581751814196781 0 0.35221190152536241 0.40457127605439203 0 0.79999999999999982 0.69999999999999996 0 0.81864958914779962 0.73589050177899629 0 0.78578450296893509 0.73292684821144505 0 0.79999999999947335 0 0 0.81864958914740749 0.035890501779055867 0 0.78393852574753176 0.032039079577822822 0 0.27474541102162192 0.11822029332053539 0 0.29336099386129338 0.15892013001050981 0 0.25557216766470708 0.15874861286892261 0 0 0.45000000000187229 0 0.035463093262830522 0.42673416072819947 0 0.033550201249889847 0.46247875832467239 0 0.6499999999999998 0.69999999999999996 0 0.66427993341343905 0.73232764502436276 0 0.63221990677827677 0.73442891067859706 0 0.84723782639812573 0.48638347960178252 0 0.81441713509985358 0.51161854125224959 0 0.81400510706333218 0.47357325943904899 0 0.26104540868854792 0.81401944968719064 0 0.30857225866488791 0.81101973481716805 0 0.29209212897034281 0.84715728365233667 0 0.33403534827021109 0.84402799729020661 0 0.29209212897034281 0.84715728365233667 0 0.30857225866488791 0.81101973481716805 0 0.69999999999999984 0.29999999999999999 0 0.73090396928863699 0.33699297293167962 0 0.68887083591306764 0.33632058575757479 0 
</DataArray>
</Points>
<Cells>
<DataArray type="UInt32" Name="connectivity" format="ascii">
0 1 2 3 4 5 6 7 8 9 10 11 12 13 14 15 16 17 18 19 20 21 22 23 24 25 26 27 28 29 30 31 32 33 34 35 36 37 38 39 40 41 42 43 44 45 46 47 48 49 50 51 52 53 54 55 56 57 58 59 60 61 62 63 64 65 66 67 68 69 70 71 72 73 74 75 76 77 78 79 80 81 82 83 84 85 86 87 88 89 90 91 92 93 94 95 96 97 98 99 100 101 102 103 104 105 106 107 108 109 110 111 112 113 114 115 116 117 118 119 120 121 122 123 124 125 126 127 128 129 130 131 132 133 134 135 136 137 138 139 140 141 142 143 144 145 146 147 148 149 150 151 152 153 154 155 156 157 158 159 160 161 162 163 164 165 166 167 168 169 170 171 172 173 174 175 176 177 178 179 180 181 182 183 184 185 186 187 188 189 190 191 192 193 194 195 196 197 198 199 200 201 202 203 204 205 206 207 208 209 210 211 212 213 214 215 216 217 218 219 220 221 222 223 224 225 226 227 228 229 230 231 232 233 234 235 236 237 238 239 240 241 242 243 244 245 246 247 248 249 250 251 252 253 254 255 256 257 258 259 260 261 262 263 264 265 266 267 268 269 270 271 272 273 274 275 276 277 278 279 280 281 282 283 284 285 286 287 288 289 290 291 292 293 294 295 296 297 298 299 300 301 302 303 304 305 306 307 308 309 310 311 312 313 314 315 316 317 318 319 320 321 322 323 324 325 326 327 328 329 330 331 332 333 334 335 336 337 338 339 340 341 342 343 344 345 346 347 348 349 350 351 352 353 354 355 356 357 358 359 360 361 362 363 364 365 366 367 368 369 370 371 372 373 374 375 376 377 378 379 380 381 382 383 384 385 386 387 388 389 390 391 392 393 394 395 396 397 398 399 400 401 402 403 404 405 406 407 408 409 410 411 412 413 414 415 416 417 418 419 420 421 422 423 424 425 426 427 428 429 430 431 432 433 434 435 436 437 438 439 440 441 442 443 444 445 446 447 448 449 450 451 452 453 454 455 456 457 458 459 460 461 462 463 464 465 466 467 468 469 470 471 472 473 474 475 476 477 478 479 480 481 482 483 484 485 486 487 488 489 490 491 492 493 494 495 496 497 498 499 500 501 502 503 504 505 506 507 508 509 510 511 512 513 514 515 516 517 518 519 520 521 522 523 524 525 526 527 528 529 530 531 532 533 534 535 536 537 538 539 540 541 542 543 544 545 546 547 548 549 550 551 552 553 554 555 556 557 558 559 560 561 562 563 564 565 566 567 568 569 570 571 572 573 574 575 576 577 578 579 580 581 582 583 584 585 586 587 588 589 590 591 592 593 594 595 596 597 598 599 600 601 602 603 604 605 606 607 608 609 610 611 612 613 614 615 616 617 618 619 620 621 622 623 624 625 626 627 628 629 630 631 632 633 634 635 636 637 638 639 640 641 642 643 644 645 646 647 648 649 650 651 652 653 654 655 656 657 658 659 660 661 662 663 664 665 666 667 668 669 670 671 672 673 674 675 676 677 678 679 680 681 682 683 684 685 686 687 688 689 690 691 692 693 694 695 696 697 698 699 700 701 702 703 704 705 706 707 708 709 710 711 712 713 714 715 716 717 718 719 720 721 722 723 724 725 726 727 728 729 730 731 732 733 734 735 736 737 738 739 740 741 742 743 744 745 746 747 748 749 750 751 752 753 754 755 756 757 758 759 760 761 762 763 764 765 766 767 768 769 770 771 772 773 774 775 776 777 778 779 780 781 782 783 784 785 786 787 788 789 790 791 792 793 794 795 796 797 798 799 800 801 802 803 804 805 806 807 808 809 810 811 812 813 814 815 816 817 818 819 820 821 822 823 824 825 826 827 828 829 830 831 832 833 834 835 836 837 838 839 840 841 842 843 844 845 846 847 848 849 850 851 852 853 854 855 856 857 858 859 860 861 862 863 864 865 866 867 868 869 870 871 872 873 874 875 876 877 878 879 880 881 882 883 884 885 886 887 888 889 890 891 892 893 894 895 896 897 898 899 900 901 902 903 904 905 906 907 908 909 910 911 912 913 914 915 916 917 918 919 920 921 922 923 924 925 926 927 928 929 930 931 932 933 934 935 936 937 938 939 940 941 942 943 944 945 946 947 948 949 950 951 952 953 954 955 956 957 958 959 960 961 962 963 964 965 966 967 968 969 970 971 972 973 974 975 976 977 978 979 980 981 982 983 984 985 986 987 988 989 990 991 992 993 994 995 996 997 998 999 1000 1001 1002 1003 1004 1005 1006 1007 1008 1009 1010 1011 1012 1013 1014 1015 1016 1017 1018 1019 1020 1021 1022 1023 1024 1025 1026 1027 1028 1029 1030 1031 1032 1033 1034 1035 1036 1037 1038 1039 1040 1041 1042 1043 1044 1045 1046 1047 1048 1049 1050 1051 1052 1053 1054 1055 1056 1057 1058 1059 1060 1061 1062 1063 1064 1065 1066 1067 1068 1069 1070 1071 1072 1073 1074 1075 1076 1077 1078 1079 1080 1081 1082 1083 1084 1085 1086 1087 1088 1089 1090 1091 1092 1093 1094 1095 1096 1097 1098 1099 1100 1101 1102 1103 1104 1105 1106 1107 1108 1109 1110 1111 1112 1113 1114 1115 1116 1117 1118 1119 1120 1121 1122 1123 1124 1125 1126 1127 1128 1129 1130 1131 1132 1133 1134 1135 1136 1137 1138 1139 1140 1141 1142 1143 1144 1145 1146 1147 1148 1149 1150 1151 1152 1153 1154 1155 1156 1157 1158 1159 1160 1161 1162 1163 1164 1165 1166 1167 1168 1169 1170 1171 1172 1173 1174 1175 1176 1177 1178 1179 1180 1181 1182 1183 1184 1185 1186 1187 1188 1189 1190 1191 1192 1193 1194 1195 1196 1197 1198 1199 1200 1201 1202 1203 1204 1205 1206 1207 1208 1209 1210 1211 1212 1213 1214 1215 1216 1217 1218 1219 1220 1221 1222 1223 1224 1225 1226 1227 1228 1229 1230 1231 1232 1233 1234 1235 1236 1237 1238 1239 1240 1241 1242 1243 1244 1245 1246 1247 1248 1249 1250 1251 1252 1253 1254 1255 1256 1257 1258 1259 1260 1261 1262 1263 1264 1265 1266 1267 1268 1269 1270 1271 1272 1273 1274 1275 1276 1277 1278 1279 1280 1281 1282 1283 1284 1285 1286 1287 1288 1289 1290 1291 1292 1293 1294 1295 1296 1297 1298 1299 1300 1301 1302 1303 1304 1305 1306 1307 1308 1309 1310 1311 1312 1313 1314 1315 1316 1317 1318 1319 1320 1321 1322 1323 1324 1325 1326 1327 1328 1329 1330 1331 1332 1333 1334 1335 1336 1337 1338 1339 1340 1341 1342 1343 1344 1345 1346 1347 1348 1349 1350 1351 1352 1353 1354 1355 1356 1357 1358 1359 1360 1361 1362 1363 1364 1365 1366 1367 1368 1369 1370 1371 1372 1373 1374 1375 1376 1377 1378 1379 1380 1381 1382 1383 1384 1385 1386 1387 1388 1389 1390 1391 1392 1393 1394 1395 1396 1397 1398 1399 1400 1401 1402 1403 1404 1405 1406 1407 1408 1409 1410 1411 1412 1413 1414 1415 1416 1417 1418 1419 1420 1421 1422 1423 1424 1425 1426 1427 1428 1429 1430 1431 1432 1433 1434 1435 1436 1437 1438 1439 1440 1441 1442 1443 1444 1445 1446 1447 1448 1449 1450 1451 1452 1453 1454 1455 1456 1457 1458 1459 1460 1461 1462 1463 1464 1465 1466 1467 1468 1469 1470 1471 1472 1473 1474 1475 1476 1477 1478 1479 1480 1481 1482 1483 1484 1485 1486 1487 1488 1489 1490 1491 1492 1493 1494 1495 1496 1497 1498 1499 1500 1501 1502 1503 1504 1505 1506 1507 1508 1509 1510 1511 1512 1513 1514 1515 1516 1517 1518 1519 1520 1521 1522 1523 1524 1525 1526 1527 1528 1529 1530 1531 1532 1533 1534 1535 1536 1537 1538 1539 1540 1541 1542 1543 1544 1545 1546 1547 1548 1549 1550 1551 1552 1553 1554 1555 1556 1557 1558 1559 1560 1561 1562 1563 1564 1565 1566 1567 1568 1569 1570 1571 1572 1573 1574 1575 1576 1577 1578 1579 1580 1581 1582 1583 1584 1585 1586 1587 1588 1589 1590 1591 1592 1593 1594 1595 1596 1597 1598 1599 1600 1601 1602 1603 1604 1605 1606 1607 1608 1609 1610 1611 1612 1613 1614 1615 1616 1617 1618 1619 1620 1621 1622 1623 1624 1625 1626 1627 1628 1629 1630 1631 1632 1633 1634 1635 1636 1637 1638 1639 1640 1641 1642 1643 1644 1645 1646 1647 1648 1649 1650 1651 1652 1653 1654 1655 1656 1657 1658 1659 1660 1661 1662 1663 1664 1665 1666 1667 1668 1669 1670 1671 1672 1673 1674 1675 1676 1677 1678 1679 1680 1681 1682 1683 1684 1685 1686 1687 1688 1689 1690 1691 1692 1693 1694 1695 1696 1697 1698 1699 1700 1701 1702 1703 1704 1705 1706 1707 1708 1709 1710 1711 1712 1713 1714 1715 1716 1717 1718 1719 1720 1721 1722 1723 1724 1725 1726 1727 1728 1729 1730 1731 1732 1733 1734 1735 1736 1737 1738 1739 1740 1741 1742 1743 1744 1745 1746 1747 1748 1749 1750 1751 1752 1753 1754 1755 1756 1757 1758 1759 1760 1761 1762 1763 1764 1765 1766 1767 1768 1769 1770 1771 1772 1773 1774 1775 1776 1777 1778 1779 1780 1781 1782 1783 1784 1785 1786 1787 1788 1789 1790 1791 1792 1793 1794 1795 1796 1797 1798 1799 1800 1801 1802 1803 1804 1805 1806 1807 1808 1809 1810 1811 1812 1813 1814 1815 1816 1817 1818 1819 1820 1821 1822 1823 1824 1825 1826 1827 1828 1829 1830 1831 1832 1833 1834 1835 1836 1837 1838 1839 1840 1841 1842 1843 1844 1845 1846 1847 1848 1849 1850 1851 1852 1853 1854 1855 1856 1857 1858 1859 1860 1861 1862 1863 1864 1865 1866 1867 1868 1869 1870 1871 1872 1873 1874 1875 1876 1877 1878 1879 1880 1881 1882 1883 1884 1885 1886 1887 1888 1889 1890 1891 1892 1893 1894 1895 1896 1897 1898 1899 1900 1901 1902 1903 1904 1905 1906 1907 1908 1909 1910 1911 1912 1913 1914 1915 1916 1917 1918 1919 1920 1921 1922 1923 1924 1925 1926 1927 1928 1929 1930 1931 1932 1933 1934 1935 1936 1937 1938 1939 1940 1941 1942 1943 1944 1945 1946 1947 1948 1949 1950 1951 1952 1953 1954 1955 1956 1957 1958 1959 1960 1961 1962 1963 1964 1965 1966 1967 1968 1969 1970 1971 1972 1973 1974 1975 1976 1977 1978 1979 1980 1981 1982 1983 1984 1985 1986 1987 1988 1989 1990 1991 1992 1993 1994 1995 1996 1997 1998 1999 2000 2001 2002 2003 2004 2005 2006 2007 2008 2009 2010 2011 2012 2013 2014 2015 2016 2017 2018 2019 2020 2021 2022 2023 2024 2025 2026 2027 2028 2029 2030 2031 2032 2033 2034 2035 2036 2037 2038 2039 2040 2041 2042 2043 2044 2045 2046 2047 2048 2049 2050 2051 2052 2053 2054 2055 2056 2057 2058 2059 2060 2061 2062 2063 2064 2065 2066 2067 2068 2069 2070 2071 2072 2073 2074 2075 2076 2077 2078 2079 2080 2081 2082 2083 2084 2085 2086 2087 2088 2089 2090 2091 2092 2093 2094 2095 2096 2097 2098 2099 2100 2101 2102 2103 2104 2105 2106 2107 2108 2109 2110 2111 2112 2113 2114 2115 2116 2117 2118 2119 2120 2121 2122 2123 2124 2125 2126 2127 2128 2129 2130 2131 2132 2133 2134 2135 2136 2137 2138 2139 2140 2141 2142 2143 2144 2145 2146 2147 2148 2149 2150 2151 2152 2153 2154 2155 2156 2157 2158 2159 2160 2161 2162 2163 2164 2165 2166 2167 2168 2169 2170 2171 2172 2173 2174 2175 2176 2177 2178 2179 2180 2181 2182 2183 2184 2185 2186 2187 2188 2189 2190 2191 2192 2193 2194 2195 2196 2197 2198 2199 2200 2201 2202 2203 2204 2205 2206 2207 2208 2209 2210 2211 2212 2213 2214 2215 2216 2217 2218 2219 2220 2221 2222 2223 2224 2225 2226 2227 2228 2229 2230 2231 2232 2233 2234 2235 2236 2237 2238 2239 2240 2241 2242 2243 2244 2245 2246 2247 2248 2249 2250 2251 2252 2253 2254 2255 2256 2257 2258 2259 2260 2261 2262 2263 2264 2265 2266 2267 2268 2269 2270 2271 2272 2273 2274 2275 2276 2277 2278 2279 2280 2281 2282 2283 2284 2285 2286 2287 2288 2289 2290 2291 2292 2293 2294 2295 2296 2297 2298 2299 2300 2301 2302 2303 2304 2305 2306 2307 2308 2309 2310 2311 2312 2313 2314 2315 2316 2317 2318 2319 2320 2321 2322 2323 2324 2325 2326 2327 2328 2329 2330 2331 2332 2333 2334 2335 2336 2337 2338 2339 2340 2341 2342 2343 2344 2345 2346 2347 2348 2349 2350 2351 2352 2353 2354 2355 2356 2357 2358 2359 2360 2361 2362 2363 2364 2365 2366 2367 2368 2369 2370 2371 2372 2373 2374 2375 2376 2377 2378 2379 2380 2381 2382 2383 2384 2385 2386 2387 2388 2389 2390 2391 2392 2393 2394 2395 2396 2397 2398 2399 2400 2401 2402 2403 2404 2405 2406 2407 2408 2409 2410 2411 2412 2413 2414 2415 2416 2417 2418 2419 2420 2421 2422 2423 2424 2425 2426 2427 2428 2429 2430 2431 2432 2433 2434 2435 2436 2437 2438 2439 2440 2441 2442 2443 2444 2445 2446 2447 2448 2449 2450 2451 2452 2453 2454 2455 2456 2457 2458 2459 2460 2461 2462 2463 2464 2465 2466 2467 2468 2469 2470 2471 2472 2473 2474 2475 2476 2477 2478 2479 2480 2481 2482 2483 2484 2485 2486 2487 2488 2489 2490 2491 2492 2493 2494 2495 2496 2497 2498 2499 2500 2501 2502 2503 2504 2505 2506 2507 2508 2509 2510 2511 2512 2513 2514 2515 2516 2517 2518 2519 2520 2521 2522 2523 2524 2525 2526 2527 2528 2529 2530 2531 2532 2533 2534 2535 2536 2537 2538 2539 2540 2541 2542 2543 2544 2545 2546 2547 2548 2549 2550 2551 2552 2553 2554 2555 2556 2557 2558 2559 2560 2561 2562 2563 2564 2565 2566 2567 2568 2569 2570 2571 2572 2573 2574 2575 2576 2577 2578 2579 2580 2581 2582 2583 2584 2585 2586 2587 2588 2589 2590 2591 2592 2593 2594 2595 2596 2597 2598 2599 2600 2601 2602 2603 2604 2605 2606 2607 2608 2609 2610 2611 2612 2613 2614 2615 2616 2617 2618 2619 2620 2621 2622 2623 2624 2625 2626 2627 2628 2629 2630 2631 2632 2633 2634 2635 2636 2637 2638 2639 2640 2641 2642 2643 2644 2645 2646 2647 2648 2649 2650 2651 2652 2653 2654 2655 2656 2657 2658 2659 2660 2661 2662 2663 2664 2665 2666 2667 2668 2669 2670 2671 2672 2673 2674 2675 2676 2677 2678 2679 2680 2681 2682 2683 2684 2685 2686 2687 2688 2689 2690 2691 2692 2693 2694 2695 2696 2697 2698 2699 2700 2701 2702 2703 2704 2705 2706 2707 2708 2709 2710 2711 2712 2713 2714 2715 2716 2717 2718 2719 2720 2721 2722 2723 2724 2725 2726 2727 2728 2729 2730 2731 2732 2733 2734 2735 2736 2737 2738 2739 2740 2741 2742 2743 2744 2745 2746 2747 2748 2749 2750 2751 2752 2753 2754 2755 2756 2757 2758 2759 2760 2761 2762 2763 2764 2765 2766 2767 2768 2769 2770 2771 2772 2773 2774 2775 2776 2777 2778 2779 2780 2781 2782 2783 2784 2785 2786 2787 2788 2789 2790 2791 2792 2793 2794 2795 2796 2797 2798 2799 2800 2801 2802 2803 2804 2805 2806 2807 2808 2809 2810 2811 2812 2813 2814 2815 2816 2817 2818 2819 2820 2821 2822 2823 2824 2825 2826 2827 2828 2829 2830 2831 2832 2833 2834 2835 2836 2837 2838 2839 2840 2841 2842 2843 2844 2845 2846 2847 2848 2849 2850 2851 2852 2853 2854 2855 2856 2857 2858 2859 2860 2861 2862 2863 2864 2865 2866 2867 2868 2869 2870 2871 2872 2873 2874 2875 2876 2877 2878 2879 2880 2881 2882 2883 2884 2885 2886 2887 2888 2889 2890 2891 2892 2893 2894 2895 2896 2897 2898 2899 2900 2901 2902 2903 2904 2905 2906 2907 2908 2909 2910 2911 2912 2913 2914 2915 2916 2917 2918 2919 2920 2921 2922 2923 2924 2925 2926 2927 2928 2929 2930 2931 2932 2933 2934 2935 2936 2937 2938 2939 2940 2941 2942 2943 2944 2945 2946 2947 2948 2949 2950 2951 2952 2953 2954 2955 2956 2957 2958 2959 2960 2961 2962 2963 2964 2965 2966 2967 2968 2969 2970 2971 2972 2973 2974 2975 2976 2977 2978 2979 2980 2981 2982 2983 2984 2985 2986 2987 2988 2989 2990 2991 2992 2993 2994 2995 2996 2997 2998 2999 3000 3001 3002 3003 3004 3005 3006 3007 3008 3009 3010 3011 3012 3013 3014 3015 3016 3017 3018 3019 3020 3021 3022 3023 3024 3025 3026 3027 3028 3029 3030 3031 3032 3033 3034 3035 3036 3037 3038 3039 3040 3041 3042 3043 3044 3045 3046 3047 3048 3049 3050 3051 3052 3053 3054 3055 3056 3057 3058 3059 3060 3061 3062 3063 3064 3065 3066 3067 3068 3069 3070 3071 3072 3073 3074 3075 3076 3077 3078 3079 3080 3081 3082 3083 3084 3085 3086 3087 3088 3089 3090 3091 3092 3093 3094 3095 3096 3097 3098 3099 3100 3101 3102 3103 3104 3105 3106 3107 3108 3109 3110 3111 3112 3113 3114 3115 3116 3117 3118 3119 3120 3121 3122 3123 3124 3125 3126 3127 3128 3129 3130 3131 3132 3133 3134 3135 3136 3137 3138 3139 3140 3141 
</DataArray>
<DataArray type="UInt32" Name="offsets" format="ascii">
2 4 6 8 10 12 14 16 18 20 22 24 26 28 30 32 34 36 38 40 43 46 49 52 55 58 61 64 67 70 73 76 79 82 85 88 91 94 97 100 103 106 109 112 115 118 121 124 127 130 133 136 139 142 145 148 151 154 157 160 163 166 169 172 175 178 181 184 187 190 193 196 199 202 205 208 211 214 217 220 223 226 229 232 235 238 241 244 247 250 253 256 259 262 265 268 271 274 277 280 283 286 289 292 295 298 301 304 307 310 313 316 319 322 325 328 331 334 337 340 343 346 349 352 355 358 361 364 367 370 373 376 379 382 385 388 391 394 397 400 403 406 409 412 415 418 421 424 427 430 433 436 439 442 445 448 451 454 457 460 463 466 469 472 475 478 481 484 487 490 493 496 499 502 505 508 511 514 517 520 523 526 529 532 535 538 541 544 547 550 553 556 559 562 565 568 571 574 577 580 583 586 589 592 595 598 601 604 607 610 613 616 619 622 625 628 631 634 637 640 643 646 649 652 655 658 661 664 667 670 673 676 679 682 685 688 691 694 697 700 703 706 709 712 715 718 721 724 727 730 733 736 739 742 745 748 751 754 757 760 763 766 769 772 775 778 781 784 787 790 793 796 799 802 805 808 811 814 817 820 823 826 829 832 835 838 841 844 847 850 853 856 859 862 865 868 871 874 877 880 883 886 889 892 895 898 901 904 907 910 913 916 919 922 925 928 931 934 937 940 943 946 949 952 955 958 961 964 967 970 973 976 979 982 985 988 991 994 997 1000 1003 1006 1009 1012 1015 1018 1021 1024 1027 1030 1033 1036 1039 1042 1045 1048 1051 1054 1057 1060 1063 1066 1069 1072 1075 1078 1081 1084 1087 1090 1093 1096 1099 1102 1105 1108 1111 1114 1117 1120 1123 1126 1129 1132 1135 1138 1141 1144 1147 1150 1153 1156 1159 1162 1165 1168 1171 1174 1177 1180 1183 1186 1189 1192 1195 1198 1201 1204 1207 1210 1213 1216 1219 1222 1225 1228 1231 1234 1237 1240 1243 1246 1249 1252 1255 1258 1261 1264 1267 1270 1273 1276 1279 1282 1285 1288 1291 1294 1297 1300 1303 1306 1309 1312 1315 1318 1321 1324 1327 1330 1333 1336 1339 1342 1345 1348 1351 1354 1357 1360 1363 1366 1369 1372 1375 1378 1381 1384 1387 1390 1393 1396 1399 1402 1405 1408 1411 1414 1417 1420 1423 1426 1429 1432 1435 1438 1441 1444 1447 1450 1453 1456 1459 1462 1465 1468 1471 1474 1477 1480 1483 1486 1489 1492 1495 1498 1501 1504 1507 1510 1513 1516 1519 1522 1525 1528 1531 1534 1537 1540 1543 1546 1549 1552 1555 1558 1561 1564 1567 1570 1573 1576 1579 1582 1585 1588 1591 1594 1597 1600 1603 1606 1609 1612 1615 1618 1621 1624 1627 1630 1633 1636 1639 1642 1645 1648 1651 1654 1657 1660 1663 1666 1669 1672 1675 1678 1681 1684 1687 1690 1693 1696 1699 1702 1705 1708 1711 1714 1717 1720 1723 1726 1729 1732 1735 1738 1741 1744 1747 1750 1753 1756 1759 1762 1765 1768 1771 1774 1777 1780 1783 1786 1789 1792 1795 1798 1801 1804 1807 1810 1813 1816 1819 1822 1825 1828 1831 1834 1837 1840 1843 1846 1849 1852 1855 1858 1861 1864 1867 1870 1873 1876 1879 1882 1885 1888 1891 1894 1897 1900 1903 1906 1909 1912 1915 1918 1921 1924 1927 1930 1933 1936 1939 1942 1945 1948 1951 1954 1957 1960 1963 1966 1969 1972 1975 1978 1981 1984 1987 1990 1993 1996 1999 2002 2005 2008 2011 2014 2017 2020 2023 2026 2029 2032 2035 2038 2041 2044 2047 2050 2053 2056 2059 2062 2065 2068 2071 2074 2077 2080 2083 2086 2089 2092 2095 2098 2101 2104 2107 2110 2113 2116 2119 2122 2125 2128 2131 2134 2137 2140 2143 2146 2149 2152 2155 2158 2161 2164 2167 2170 2173 2176 2179 2182 2185 2188 2191 2194 2197 2200 2203 2206 2209 2212 2215 2218 2221 2224 2227 2230 2233 2236 2239 2242 2245 2248 2251 2254 2257 2260 2263 2266 2269 2272 2275 2278 2281 2284 2287 2290 2293 2296 2299 2302 2305 2308 2311 2314 2317 2320 2323 2326 2329 2332 2335 2338 2341 2344 2347 2350 2353 2356 2359 2362 2365 2368 2371 2374 2377 2380 2383 2386 2389 2392 2395 2398 2401 2404 2407 2410 2413 2416 2419 2422 2425 2428 2431 2434 2437 2440 2443 2446 2449 2452 2455 2458 2461 2464 2467 2470 2473 2476 2479 2482 2485 2488 2491 2494 2497 2500 2503 2506 2509 2512 2515 2518 2521 2524 2527 2530 2533 2536 2539 2542 2545 2548 2551 2554 2557 2560 2563 2566 2569 2572 2575 2578 2581 2584 2587 2590 2593 2596 2599 2602 2605 2608 2611 2614 2617 2620 2623 2626 2629 2632 2635 2638 2641 2644 2647 2650 2653 2656 2659 2662 2665 2668 2671 2674 2677 2680 2683 2686 2689 2692 2695 2698 2701 2704 2707 2710 2713 2716 2719 2722 2725 2728 2731 2734 2737 2740 2743 2746 2749 2752 2755 2758 2761 2764 2767 2770 2773 2776 2779 2782 2785 2788 2791 2794 2797 2800 2803 2806 2809 2812 2815 2818 2821 2824 2827 2830 2833 2836 2839 2842 2845 2848 2851 2854 2857 2860 2863 2866 2869 2872 2875 2878 2881 2884 2887 2890 2893 2896 2899 2902 2905 2908 2911 2914 2917 2920 2923 2926 2929 2932 2935 2938 2941 2944 2947 2950 2953 2956 2959 2962 2965 2968 2971 2974 2977 2980 2983 2986 2989 2992 2995 2998 3001 3004 3007 3010 3013 3016 3019 3022 3025 3028 3031 3034 3037 3040 3043 3046 3049 3052 3055 3058 3061 3064 3067 3070 3073 3076 3079 3082 3085 3088 3091 3094 3097 3100 3103 3106 3109 3112 3115 3118 3121 3124 3127 3130 3133 3136 3139 3142 
</DataArray>
<DataArray type="UInt32" Name="types" format="ascii">
3 3 3 3 3 3 3 3 3 3 3 3 3 3 3 3 3 3 3 3 5 5 5 5 5 5 5 5 5 5 5 5 5 5 5 5 5 5 5 5 5 5 5 5 5 5 5 5 5 5 5 5 5 5 5 5 5 5 5 5 5 5 5 5 5 5 5 5 5 5 5 5 5 5 5 5 5 5 5 5 5 5 5 5 5 5 5 5 5 5 5 5 5 5 5 5 5 5 5 5 5 5 5 5 5 5 5 5 5 5 5 5 5 5 5 5 5 5 5 5 5 5 5 5 5 5 5 5 5 5 5 5 5 5 5 5 5 5 5 5 5 5 5 5 5 5 5 5 5 5 5 5 5 5 5 5 5 5 5 5 5 5 5 5 5 5 5 5 5 5 5 5 5 5 5 5 5 5 5 5 5 5 5 5 5 5 5 5 5 5 5 5 5 5 5 5 5 5 5 5 5 5 5 5 5 5 5 5 5 5 5 5 5 5 5 5 5 5 5 5 5 5 5 5 5 5 5 5 5 5 5 5 5 5 5 5 5 5 5 5 5 5 5 5 5 5 5 5 5 5 5 5 5 5 5 5 5 5 5 5 5 5 5 5 5 5 5 5 5 5 5 5 5 5 5 5 5 5 5 5 5 5 5 5 5 5 5 5 5 5 5 5 5 5 5 5 5 5 5 5 5 5 5 5 5 5 5 5 5 5 5 5 5 5 5 5 5 5 5 5 5 5 5 5 5 5 5 5 5 5 5 5 5 5 5 5 5 5 5 5 5 5 5 5 5 5 5 5 5 5 5 5 5 5 5 5 5 5 5 5 5 5 5 5 5 5 5 5 5 5 5 5 5 5 5 5 5 5 5 5 5 5 5 5 5 5 5 5 5 5 5 5 5 5 5 5 5 5 5 5 5 5 5 5 5 5 5 5 5 5 5 5 5 5 5 5 5 5 5 5 5 5 5 5 5 5 5 5 5 5 5 5 5 5 5 5 5 5 5 5 5 5 5 5 5 5 5 5 5 5 5 5 5 5 5 5 5 5 5 5 5 5 5 5 5 5 5 5 5 5 5 5 5 5 5 5 5 5 5 5 5 5 5 5 5 5 5 5 5 5 5 5 5 5 5 5 5 5 5 5 5 5 5 5 5 5 5 5 5 5 5 5 5 5 5 5 5 5 5 5 5 5 5 5 5 5 5 5 5 5 5 5 5 5 5 5 5 5 5 5 5 5 5 5 5 5 5 5 5 5 5 5 5 5 5 5 5 5 5 5 5 5 5 5 5 5 5 5 5 5 5 5 5 5 5 5 5 5 5 5 5 5 5 5 5 5 5 5 5 5 5 5 5 5 5 5 5 5 5 5 5 5 5 5 5 5 5 5 5 5 5 5 5 5 5 5 5 5 5 5 5 5 5 5 5 5 5 5 5 5 5 5 5 5 5 5 5 5 5 5 5 5 5 5 5 5 5 5 5 5 5 5 5 5 5 5 5 5 5 5 5 5 5 5 5 5 5 5 5 5 5 5 5 5 5 5 5 5 5 5 5 5 5 5 5 5 5 5 5 5 5 5 5 5 5 5 5 5 5 5 5 5 5 5 5 5 5 5 5 5 5 5 5 5 5 5 5 5 5 5 5 5 5 5 5 5 5 5 5 5 5 5 5 5 5 5 5 5 5 5 5 5 5 5 5 5 5 5 5 5 5 5 5 5 5 5 5 5 5 5 5 5 5 5 5 5 5 5 5 5 5 5 5 5 5 5 5 5 5 5 5 5 5 5 5 5 5 5 5 5 5 5 5 5 5 5 5 5 5 5 5 5 5 5 5 5 5 5 5 5 5 5 5 5 5 5 5 5 5 5 5 5 5 5 5 5 5 5 5 5 5 5 5 5 5 5 5 5 5 5 5 5 5 5 5 5 5 5 5 5 5 5 5 5 5 5 5 5 5 5 5 5 5 5 5 5 5 5 5 5 5 5 5 5 5 5 5 5 5 5 5 5 5 5 5 5 5 5 5 5 5 5 5 5 5 5 5 5 5 5 5 5 5 5 5 5 5 5 5 5 5 5 5 5 5 5 5 5 5 5 5 5 5 5 5 5 5 5 5 5 5 5 5 5 5 5 5 5 5 5 5 5 5 5 5 5 5 5 5 5 5 5 5 5 5 5 5 5 5 5 5 5 5 5 5 5 5 5 5 5 5 5 5 5 5 5 5 5 5 5 5 5 5 5 5 5 5 5 5 5 5 5 5 5 5 5 5 5 5 5 5 5 5 5 5 5 5 5 5 5 5 5 5 5 5 5 5 5 5 5 5 5 5 5 5 5 5 5 5 5 5 5 5 5 5 5 5 5 5 5 5 5 5 5 5 5 5 5 5 5 5 5 5 5 
</DataArray>
</Cells>
<PointData Scalars="" Vectors="displacement," Tensors="">
<DataArray type="Float64" Name="displacement" NumberOfComponents="3" format="ascii">
-2.4526104227083949e-05 -2.2552906487814747e-05 0 -2.6437677694821709e-05 -2.9998468998804036e-05 0 -2.6437677694821709e-05 -2.9998468998804036e-05 0 -2.8670558703793562e-05 -3.8403920225956543e-05 0 -2.8670558703793562e-05 -3.8403920225956543e-05 0 -3.1162757983642362e-05 -4.8025386451586723e-05 0 -3.1162757983642362e-05 -4.8025386451586723e-05 0 -3.3462222469438744e-05 -5.790682722940135e-05 0 -3.3462222469438744e-05 -5.790682722940135e-05 0 -3.5501719492037534e-05 -6.7701901416846854e-05 0 -3.5501719492037534e-05 -6.7701901416846854e-05 0 -3.7448695581473996e-05 -7.7276005588068525e-05 0 -3.7448695581473996e-05 -7.7276005588068525e-05 0 -3.9431596930125842e-05 -8.6323884840605266e-05 0 -3.9431596930125842e-05 -8.6323884840605266e-05 0 -4.1454217708854803e-05 -9.4967076101023623e-05 0 -4.1454217708854803e-05 -9.4967076101023623e-05 0 -4.2764950782073114e-05 -0.00010227248825869832 0 -4.2764950782073114e-05 -0.00010227248825869832 0 -4.6742438129690325e-05 -0.00010981534328361355 0 -1.8153245101385661e-06 2.7825579009380283e-05 0 2.4191631564979214e-06 4.2577356365323849e-05 0 2.4191631564979214e-06 4.2577356365323849e-05 0 9.2554696343002144e-07 4.9969374718598228e-05 0 9.2554696343002144e-07 4.9969374718598228e-05 0 -8.5778171142028145e-07 6.3704896050478579e-05 0 -8.5778171142028145e-07 6.3704896050478579e-05 0 -3.0258961092344467e-06 7.5976045797565873e-05 0 -3.0258961092344467e-06 7.5976045797565873e-05 0 -5.5115232867705989e-06 8.9386191176620149e-05 0 -5.5115232867705989e-06 8.9386191176620149e-05 0 -8.3044752518802442e-06 0.00010274976464363963 0 -8.3044752518802442e-06 0.00010274976464363963 0 -1.1175818472505427e-05 0.00011522183467248404 0 -1.1175818472505427e-05 0.00011522183467248404 0 -1.5564288359411895e-05 0.00012905237990910241 0 -1.5564288359411895e-05 0.00012905237990910241 0 -1.4617218442470225e-05 0.00013941647963165311 0 -1.4617218442470225e-05 0.00013941647963165311 0 -3.4658720106126095e-05 0.00015295162604132348 0 -2.0245782703823744e-05 -1.0119282745071685e-05 0 -1.5490167679661418e-05 -4.8243921212962519e-06 0 -1.8706231812713424e-05 -9.0691231742966891e-06 0 -1.8243288140829042e-05 -6.522398321988278e-06 0 -1.5490167679661418e-05 -4.8243921212962519e-06 0 -2.0245782703823744e-05 -1.0119282745071685e-05 0 -3.4319291388820382e-05 -1.7331424314038787e-05 0 -3.0379236935220638e-05 -1.3339751561770472e-05 0 -3.1058748880719792e-05 -1.7230651197724914e-05 0 -3.1058748880719792e-05 -1.7230651197724914e-05 0 -3.0379236935220641e-05 -1.3339751561770472e-05 0 -2.7834605852972501e-05 -1.5724509955776524e-05 0 -1.6587974249937529e-05 5.7102625434659371e-06 0 -7.2161817563919729e-06 1.6356680324707838e-06 0 -1.4991443879937139e-05 3.4512900240324017e-06 0 -1.2501188360325167e-05 -5.6832841897110643e-06 0 -1.1127680513859745e-05 -4.1317626866285801e-06 0 -5.4132181552085802e-06 -2.0628585306287601e-06 0 -8.5854608736421467e-06 4.0413877588001241e-06 0 -7.2161817563919729e-06 1.6356680324707838e-06 0 -1.6587974249937529e-05 5.7102625434659371e-06 0 -6.6887619209725431e-06 -3.7737716306793085e-06 0 -1.2501188360325167e-05 -5.6832841897110643e-06 0 -5.4132181552085802e-06 -2.0628585306287601e-06 0 -3.0849437334286612e-05 -1.1976506182972028e-05 0 -3.7418117031960552e-05 -1.5194512088126847e-05 0 -2.9730631774697683e-05 -1.0967461405381308e-05 0 -5.5682823701629067e-05 1.8804938270849228e-05 0 -4.456448624246217e-05 1.344064050318109e-05 0 -4.3646267093100182e-05 1.25500900106249e-05 0 -4.3972592552185586e-06 8.2029241481888818e-07 0 -5.6309723741906264e-06 1.8613095260800983e-06 0 -5.6828353888118388e-06 6.3716079643382423e-07 0 -7.4962584492930904e-06 2.6717819731245186e-06 0 -5.6828353888118388e-06 6.3716079643382423e-07 0 -5.6309723741906264e-06 1.8613095260800983e-06 0 -6.769715465337171e-06 -2.0345433269755162e-07 0 -8.9847917474524128e-06 -9.2488974691844089e-07 0 -6.3640307189530089e-06 1.112254540858357e-07 0 -2.9383125038605863e-09 -6.2647497490883606e-10 0 -2.3446277552967829e-09 -4.3604275000782407e-10 0 -2.5543216422725119e-06 -9.2308380447708169e-07 0 -2.3820267850949611e-09 2.5899246895178948e-10 0 -2.757861661325699e-09 2.5716363477946851e-10 0 -2.5953285416551665e-06 3.7512811363448282e-07 0 -3.8550868835478282e-05 -2.244276905796238e-05 0 -3.8665126787449324e-05 -2.2262528841231374e-05 0 -3.4319291388820382e-05 -1.7331424314038787e-05 0 -3.4780964624088144e-06 3.1209299105863313e-05 0 -8.9361412242938513e-06 2.0710882469820054e-05 0 -1.130593173554963e-05 2.0889517354273143e-05 0 -6.0168129071096175e-05 -0.00017015567119882272 0 -5.108547860152781e-05 -0.00015955675283986005 0 -6.0032293667665337e-05 -0.0001558487063338244 0 -7.4371363281087297e-05 0.00035858101427730776 0 -9.7644599354592746e-05 0.00033479324867788769 0 -7.4046322010701431e-05 0.00032522885641603845 0 -7.4371363281087297e-05 0.00035858101427730776 0 -7.4046322010701431e-05 0.00032522885641603845 0 -5.1638894763640407e-05 0.00033346083322380955 0 -6.0168129071096175e-05 -0.00017015567119882272 0 -6.0032293667665337e-05 -0.0001558487063338244 0 -6.9807126453137869e-05 -0.00015992826358809538 0 -0.0001016517315227284 0.00030697950964043492 0 -7.1564319142520944e-05 0.00029307431165009483 0 -7.4046322010701431e-05 0.00032522885641603845 0 -4.8830365054138372e-05 -0.00014693776729316505 0 -6.0069271768746135e-05 -0.00014116273136018597 0 -6.0032293667665337e-05 -0.0001558487063338244 0 -6.769715465337171e-06 -2.0345433269755162e-07 0 -6.3640307189530089e-06 1.112254540858357e-07 0 -4.5250918827378107e-06 3.5775101107793201e-07 0 -3.4780964624088144e-06 3.1209299105863313e-05 0 -1.4325800201695146e-05 2.8572789292153554e-05 0 -8.9361412242938513e-06 2.0710882469820054e-05 0 -0.0001211304863010763 9.5439590704819808e-05 0 -0.00010916648229357788 7.1971734538670535e-05 0 -8.9009388145114317e-05 7.6831484955762109e-05 0 -6.6702441568500405e-05 -4.0625889626997013e-05 0 -7.3329217150958418e-05 -5.1090075567606995e-05 0 -5.8445297838905266e-05 -4.282486990974091e-05 0 -3.2893631440125764e-05 -1.8814949440170513e-05 0 -3.8550868835478282e-05 -2.244276905796238e-05 0 -3.4319291388820382e-05 -1.7331424314038787e-05 0 -6.2969080051678475e-05 6.305883078250928e-05 0 -5.4859646106294691e-05 3.949137615419213e-05 0 -4.5360712811612029e-05 4.1769635720189821e-05 0 -3.2539472379887188e-05 1.4043521318480339e-05 0 -4.3193135456400035e-05 1.9816454402342042e-05 0 -4.0387423205621993e-05 1.3245438572851422e-05 0 -2.5305034261314081e-05 -4.1130805031808887e-06 0 -2.205591142543811e-05 2.2281233426212299e-07 0 -2.724272828228125e-05 -7.2133766747737715e-06 0 -5.8321841753973212e-05 -0.00012582029112999927 0 -4.97544416689994e-05 -0.00012098109417176939 0 -5.7892194735510372e-05 -0.00010932867639220708 0 -7.1516023929380678e-05 0.00026041672720292225 0 -9.0953470286560394e-05 0.00025121646340643428 0 -6.6177070548779451e-05 0.00022372186860567412 0 -5.7892194735510372e-05 -0.00010932867639220708 0 -4.97544416689994e-05 -0.00012098109417176939 0 -4.7981993788264775e-05 -0.00010674425045334816 0 -6.6177070548779451e-05 0.00022372186860567412 0 -9.0953470286560394e-05 0.00025121646340643428 0 -8.9393035854733139e-05 0.00022426822550301184 0 -3.2539472379887188e-05 1.4043521318480339e-05 0 -4.0387423205621993e-05 1.3245438572851422e-05 0 -2.8788350949465211e-05 9.2890556748576247e-06 0 -2.5887996057169133e-05 -9.1315308743037449e-06 0 -2.1620216126199809e-05 2.65772010172165e-06 0 -2.5305034261314081e-05 -4.1130805031808887e-06 0 -6.2969080051678475e-05 6.305883078250928e-05 0 -7.1315517608485564e-05 5.4661934226227395e-05 0 -5.4859646106294698e-05 3.949137615419213e-05 0 -3.4780964624088144e-06 3.1209299105863313e-05 0 8.3966724906943794e-06 7.8471279188030294e-05 0 -1.6558141882919679e-05 8.1516607124993234e-05 0 -5.2365044625023665e-05 -5.1825276163562897e-05 0 -4.771387366267585e-05 -4.8040069596772309e-05 0 -5.261835012187535e-05 -4.9282062969674756e-05 0 -3.6043873276746991e-05 -4.8878378864133739e-05 0 -3.4790084101452037e-05 -4.6523777009094329e-05 0 -3.6107512604955978e-05 -5.0133918126587197e-05 0 -1.8538221807673578e-05 6.4128334891840091e-06 0 -2.205591142543811e-05 2.2281233426212299e-07 0 -2.5305034261314081e-05 -4.1130805031808887e-06 0 -3.0950985176317241e-05 -0.00015335172488178711 0 -3.8678441294145714e-05 -0.00014360694309737603 0 -4.1895955080357342e-05 -0.00015583697043953485 0 -0.00015436593619643142 0.00033272150361064018 0 -0.00012858767843014016 0.00030405731390083701 0 -0.00012340235498971831 0.00032935274105229693 0 -1.9624266705137181e-09 -3.3747892164962686e-10 0 -1.625101821482044e-06 -3.0003646849203538e-07 0 -1.83755062446154e-06 -6.0564155800039043e-07 0 -2.1114060650685418e-09 2.795492551568757e-10 0 -2.0783286676030298e-06 4.3860188825771691e-07 0 -1.9410136017245247e-06 5.0244795497660754e-07 0 -6.2969080051678475e-05 6.305883078250928e-05 0 -4.5554754805013364e-05 6.025269976400956e-05 0 -5.8935622796179073e-05 9.0613655346372609e-05 0 -3.6704484683253879e-05 8.0335603164681865e-05 0 -5.8935622796179073e-05 9.0613655346372609e-05 0 -4.5554754805013364e-05 6.025269976400956e-05 0 -2.159969480400369e-05 5.0946055721220528e-05 0 -3.4780964624088144e-06 3.1209299105863313e-05 0 -1.6558141882919679e-05 8.1516607124993234e-05 0 -0.00015415764858644782 0.00027548661495111929 0 -0.00011765960811411763 0.00027617937367323747 0 -0.00012858767843014016 0.00030405731390083701 0 -2.6115126559462762e-05 -0.00012637341861056233 0 -4.0991377988620466e-05 -0.00013107016106252579 0 -3.8678441294145707e-05 -0.000143606943097376 0 -3.5768319465179408e-05 -4.3943626422383985e-05 0 -3.5986793961727625e-05 -4.0488527964864701e-05 0 -3.8464622018372088e-05 -4.37358802369178e-05 0 -2.4723157050074077e-05 -4.2852654451231969e-06 0 -2.724272828228125e-05 -7.2133766747737715e-06 0 -2.205591142543811e-05 2.2281233426212299e-07 0 -3.0198632310605694e-05 -1.2681219700968143e-05 0 -3.2761209695618786e-05 -1.7968123060626351e-05 0 -3.0126715905556271e-05 -1.7559736921875168e-05 0 -2.5626478389487876e-05 -2.7419923730681043e-05 0 -2.5645962258673143e-05 -2.3872593260507134e-05 0 -3.0244770697569474e-05 -2.9424532121722528e-05 0 -0.00014037182265752777 0.00015207183281023778 0 -0.00011003543575064202 0.00013214417106631576 0 -0.00012085073696348198 0.00016913947149036087 0 -9.4158993825499667e-05 -0.00013323485939972351 0 -8.3155739917850012e-05 -0.00014647543139589101 0 -7.8971036656361906e-05 -0.00013433565227554539 0 5.84325953833913e-06 0.00026416029113673711 0 -2.1169918798859505e-05 0.00029956386995498747 0 -2.683463705940751e-05 0.00027410113828600652 0 -2.8512345737011426e-05 -0.00013977506738468797 0 -3.8678441294145707e-05 -0.000143606943097376 0 -3.0950985176317241e-05 -0.00015335172488178711 0 -0.00015436593619643142 0.00033272150361064018 0 -0.00015446252023068304 0.00030455069618261552 0 -0.00012858767843014016 0.00030405731390083701 0 -4.4815628732838833e-05 -4.2465619872322506e-05 0 -4.5353517283815376e-05 -3.9125524562750796e-05 0 -4.7718771101376537e-05 -4.3156706317813995e-05 0 -2.4761716380624339e-05 -2.2772206913059113e-05 0 -2.8466941674655636e-05 -2.7398650769093098e-05 0 -2.9745233628044472e-05 -3.88509019620014e-05 0 -4.4815628732838833e-05 -4.2465619872322506e-05 0 -4.2977073545573649e-05 -3.9262720134863015e-05 0 -4.5353517283815376e-05 -3.9125524562750796e-05 0 -2.9229521986174785e-05 -2.4254283079107666e-05 0 -3.0244770697569474e-05 -2.9424532121722528e-05 0 -2.5645962258673143e-05 -2.3872593260507134e-05 0 -5.0111840256185751e-05 -6.5081681751513799e-05 0 -5.3939739817407666e-05 -8.2811753544808126e-05 0 -4.3408764865569679e-05 -6.8884646424366848e-05 0 -4.0531851039443407e-09 2.9614874161573797e-10 0 -5.4132181552085802e-06 -2.0628585306287601e-06 0 -3.7688326324819736e-06 -7.8219326128394621e-07 0 -5.4988929439645378e-09 -6.9743479149421945e-10 0 -4.9090166046085436e-06 5.1354417857953176e-08 0 -7.2161817563919729e-06 1.6356680324707838e-06 0 -5.2365044625023665e-05 -5.1825276163562897e-05 0 -4.7746968138184238e-05 -5.1388198351475527e-05 0 -4.771387366267585e-05 -4.8040069596772309e-05 0 -3.6573712709614162e-05 -5.1172282662956562e-05 0 -3.6043873276746991e-05 -4.8878378864133739e-05 0 -3.6107512604955978e-05 -5.0133918126587197e-05 0 -4.1836479837557261e-09 -9.741934532180866e-10 0 -6.3783222740952536e-06 -5.1988982386968105e-07 0 -4.9090166046085428e-06 5.1354417857952779e-08 0 -3.3954741856083835e-09 3.5218819844526931e-10 0 -3.7688326324819736e-06 -7.8219326128394621e-07 0 -5.120573746094019e-06 -6.2287876171836974e-07 0 -5.6828353888118388e-06 6.3716079643382423e-07 0 -4.296836898752692e-06 -7.1777740070566188e-07 0 -4.0671551457823349e-06 2.7784180968380549e-08 0 -1.832445494614484e-05 -7.4473567411511841e-06 0 -1.528748842528957e-05 -5.0047571800569774e-06 0 -1.1127680513859745e-05 -4.1317626866285801e-06 0 -2.5070088526234661e-05 7.4261011527559209e-06 0 -1.4991443879937141e-05 3.4512900240324017e-06 0 -2.07621934703154e-05 3.992733619802191e-06 0 -3.4294055406137964e-05 -2.9387704873372603e-05 0 -3.2297932773107126e-05 -2.4831308550490638e-05 0 -3.596177321020357e-05 -2.7095582960733513e-05 0 -3.3629355329259471e-05 -2.236499140728189e-05 0 -3.0126715905556271e-05 -1.7559736921875168e-05 0 -3.2761209695618786e-05 -1.7968123060626351e-05 0 -8.7973001101662254e-07 0.0003212449637782827 0 -2.8270665685167944e-05 0.00032534646522641491 0 -2.1169918798859505e-05 0.00029956386995498747 0 -9.4401659112593083e-05 -0.00015898797349348399 0 -8.0815828140227473e-05 -0.00015748595576360681 0 -8.3155739917850012e-05 -0.00014647543139589101 0 -3.3629355329259471e-05 -2.236499140728189e-05 0 -3.596177321020357e-05 -2.7095582960733513e-05 0 -3.2297932773107126e-05 -2.4831308550490638e-05 0 -3.5986793961727625e-05 -4.0488527964864701e-05 0 -3.300129633972683e-05 -3.899198370268257e-05 0 -3.4697959610799734e-05 -3.5294963746543891e-05 0 -8.9864139590492369e-05 0.00019623960100322558 0 -7.9399153404308533e-05 0.00015679788273246145 0 -6.3707959325758878e-05 0.00017075727303845925 0 -5.4988929439645378e-09 -6.9743479149421945e-10 0 -5.878979515530829e-09 4.4461850618929642e-10 0 -4.9090166046085428e-06 5.1354417857952779e-08 0 -4.5097566894810681e-09 -6.01676018761409e-10 0 -4.0531851039443407e-09 2.9614874161573797e-10 0 -3.7688326324819736e-06 -7.8219326128394621e-07 0 -5.6828353888118388e-06 6.3716079643382423e-07 0 -6.8211720588069675e-06 1.4180494315745768e-07 0 -4.296836898752692e-06 -7.1777740070566188e-07 0 -4.6468365047059078e-05 0.00030492183075678632 0 -7.4046322010701431e-05 0.00032522885641603845 0 -7.1564319142520944e-05 0.00029307431165009483 0 -7.1423986270222403e-05 -0.00014724280102193748 0 -6.0032293667665337e-05 -0.0001558487063338244 0 -6.0069271768746135e-05 -0.00014116273136018597 0 -5.3939739817407666e-05 -8.2811753544808126e-05 0 -4.4954195986424711e-05 -8.2714155419618413e-05 0 -4.3408764865569679e-05 -6.8884646424366848e-05 0 -2.430516000585054e-06 3.5025148186198512e-07 0 -3.4499690633054787e-06 7.1036460411564439e-07 0 -3.1799285365963353e-06 4.2421345923004018e-07 0 -1.8474720007060984e-05 3.2421767310379331e-06 0 -1.4687241172385875e-05 2.9097361711079576e-06 0 -2.1150177470229785e-05 5.7637288733282519e-06 0 -3.300129633972683e-05 -3.899198370268257e-05 0 -3.1346390283436822e-05 -3.4698911892355523e-05 0 -3.4697959610799734e-05 -3.5294963746543891e-05 0 -3.1799285365963353e-06 4.2421345923004018e-07 0 -3.4499690633054787e-06 7.1036460411564439e-07 0 -4.0483765167783919e-06 9.0407712655381808e-07 0 -3.4499690633054787e-06 7.1036460411564439e-07 0 -2.0440162214715683e-06 4.2660775108444646e-07 0 -3.5593469353118471e-06 6.8805820736936273e-07 0 -2.6246587665234699e-06 5.8806889072823991e-07 0 -3.5593469353118471e-06 6.8805820736936273e-07 0 -2.0440162214715683e-06 4.2660775108444646e-07 0 -4.8114976143764446e-05 -4.1573125749101226e-05 0 -4.5353517283815376e-05 -3.9125524562750796e-05 0 -4.7272319167836763e-05 -3.8163929754482734e-05 0 -3.0198632310605694e-05 -1.2681219700968143e-05 0 -3.0126715905556271e-05 -1.7559736921875168e-05 0 -2.8059423722125373e-05 -1.0844843158553095e-05 0 -3.5768319465179408e-05 -4.3943626422383985e-05 0 -3.300129633972683e-05 -3.899198370268257e-05 0 -3.5986793961727625e-05 -4.0488527964864701e-05 0 -1.8538221807673578e-05 6.4128334891840091e-06 0 -2.5305034261314081e-05 -4.1130805031808879e-06 0 -2.1620216126199809e-05 2.65772010172165e-06 0 2.5759944538708749e-06 0.00029247680770579435 0 -8.7973001101662254e-07 0.0003212449637782827 0 -2.1169918798859505e-05 0.00029956386995498747 0 -9.4441871962891783e-05 -0.00014643175247199309 0 -9.4401659112593083e-05 -0.00015898797349348399 0 -8.3155739917850012e-05 -0.00014647543139589101 0 -9.4158993825499667e-05 -0.00013323485939972351 0 -9.4441871962891783e-05 -0.00014643175247199309 0 -8.3155739917850012e-05 -0.00014647543139589101 0 5.84325953833913e-06 0.00026416029113673711 0 2.5759944538708749e-06 0.00029247680770579435 0 -2.1169918798859505e-05 0.00029956386995498747 0 -1.3538858931192742e-05 1.1526219289444133e-05 0 -1.3219630552096839e-05 8.9707491431151791e-06 0 -1.8538221807673578e-05 6.4128334891840091e-06 0 -6.3986457699296072e-06 2.8633035249210931e-07 0 -4.2198866217281261e-06 5.9459187447632818e-07 0 -6.3640307189530089e-06 1.112254540858357e-07 0 -3.6848914829901933e-06 5.4131725833555193e-07 0 -6.3640307189530089e-06 1.112254540858357e-07 0 -4.2198866217281261e-06 5.9459187447632818e-07 0 -1.8028545384443991e-05 0.00017175341260367006 0 -1.1433348568945508e-05 0.00019204139491135416 0 -4.0462468066257662e-05 0.00019446461814326356 0 -1.1433348568945508e-05 0.00019204139491135416 0 -1.9817188307333431e-05 0.00021383568452500642 0 -4.0462468066257662e-05 0.00019446461814326356 0 -2.5887996057169133e-05 -9.1315308743037449e-06 0 -2.5305034261314081e-05 -4.1130805031808896e-06 0 -2.8059423722125373e-05 -1.0844843158553095e-05 0 -3.7425662912500862e-05 -5.2283021719877294e-05 0 -3.6107512604955978e-05 -5.0133918126587197e-05 0 -3.7209910351572773e-05 -4.9105648520202063e-05 0 -4.3210569892056839e-05 -5.150331320062298e-05 0 -4.394273265308762e-05 -4.716193241672159e-05 0 -4.771387366267585e-05 -4.8040069596772309e-05 0 -1.3219630552096839e-05 8.9707491431151791e-06 0 -1.669736023894002e-05 4.5856208307107065e-06 0 -1.8538221807673578e-05 6.4128334891840091e-06 0 -0.00015446252023068304 0.00030455069618261552 0 -0.00015415764858644782 0.00027548661495111929 0 -0.00012858767843014016 0.00030405731390083701 0 -2.6115126559462762e-05 -0.00012637341861056233 0 -3.8678441294145707e-05 -0.000143606943097376 0 -2.8512345737011426e-05 -0.00013977506738468797 0 -3.7418117031960552e-05 -1.5194512088126847e-05 0 -3.689748262969311e-05 -1.50897122039482e-05 0 -2.9730631774697683e-05 -1.0967461405381308e-05 0 -5.5682823701629067e-05 1.8804938270849228e-05 0 -4.3646267093100182e-05 1.25500900106249e-05 0 -5.3893742697515752e-05 1.9017628126992125e-05 0 -2.5887996057169133e-05 -9.1315308743037449e-06 0 -3.0126715905556271e-05 -1.7559736921875168e-05 0 -2.6154655718917431e-05 -1.8410456283225631e-05 0 -2.4761716380624339e-05 -2.2772206913059113e-05 0 -2.9745233628044472e-05 -3.88509019620014e-05 0 -2.0222449399349708e-05 -4.0755416292567853e-05 0 -2.9229521986174785e-05 -2.4254283079107666e-05 0 -3.0126715905556271e-05 -1.7559736921875168e-05 0 -3.2297932773107126e-05 -2.4831308550490638e-05 0 -3.3629355329259471e-05 -2.236499140728189e-05 0 -3.2297932773107126e-05 -2.4831308550490638e-05 0 -3.0126715905556271e-05 -1.7559736921875168e-05 0 -6.0168129071096175e-05 -0.00017015567119882272 0 -5.0561111175351598e-05 -0.00016927208672596562 0 -5.108547860152781e-05 -0.00015955675283986005 0 -7.4371363281087297e-05 0.00035858101427730776 0 -0.00010008206332845895 0.00035931752295418945 0 -9.7644599354592733e-05 0.00033479324867788769 0 -5.0224746044837262e-05 0.00035668771964483863 0 -7.4371363281087297e-05 0.00035858101427730776 0 -5.1638894763640407e-05 0.00033346083322380955 0 -7.0867691863043037e-05 -0.0001704780331769501 0 -6.0168129071096175e-05 -0.00017015567119882272 0 -6.9807126453137869e-05 -0.00015992826358809538 0 -2.8329127846051812e-05 3.8552096548368414e-05 0 -4.5554754805013364e-05 6.025269976400956e-05 0 -4.5360712811612029e-05 4.1769635720189821e-05 0 -3.8452958854172437e-05 -2.6881497811177716e-05 0 -4.162032906426001e-05 -3.1344450179926835e-05 0 -3.9408054071159767e-05 -3.1595661691136248e-05 0 -2.9229521986174785e-05 -2.4254283079107666e-05 0 -3.2297932773107126e-05 -2.4831308550490638e-05 0 -3.0244770697569474e-05 -2.9424532121722528e-05 0 -3.4294055406137964e-05 -2.9387704873372603e-05 0 -3.0244770697569474e-05 -2.9424532121722528e-05 0 -3.2297932773107126e-05 -2.4831308550490638e-05 0 -3.6133662238909138e-05 -7.2055812303539645e-05 0 -3.3422568528768035e-05 -5.5518910300445678e-05 0 -4.3408764865569679e-05 -6.8884646424366848e-05 0 -0.0001211304863010763 9.5439590704819808e-05 0 -8.9009388145114317e-05 7.6831484955762109e-05 0 -0.00010816246208037262 0.00010568469641646634 0 -3.1437571191846897e-05 -1.7608614813156899e-05 0 -3.8162013791303235e-05 -2.4552062595923326e-05 0 -3.005622350597828e-05 -1.9960702191819846e-05 0 -3.4694151372862687e-05 -2.7290051234783605e-05 0 -3.005622350597828e-05 -1.9960702191819846e-05 0 -3.8162013791303235e-05 -2.4552062595923326e-05 0 -4.6164827449302877e-05 -4.4956353301842407e-05 0 -4.2400099367182655e-05 -4.411982637159879e-05 0 -4.4815628732838833e-05 -4.2465619872322506e-05 0 -9.9148144764354523e-05 0.00015223602520079621 0 -0.00012085073696348198 0.00016913947149036087 0 -0.00011003543575064202 0.00013214417106631576 0 -3.6171560285803467e-05 -1.5978266743184847e-05 0 -4.4199050581029167e-05 -2.17540063606231e-05 0 -3.7781196109625612e-05 -1.9790937088919918e-05 0 -4.5757820982781496e-05 -2.6244760251524794e-05 0 -3.7781196109625612e-05 -1.9790937088919918e-05 0 -4.4199050581029167e-05 -2.17540063606231e-05 0 -6.658347542201943e-05 4.1619636074769755e-05 0 -6.5671539267521455e-05 3.2115362921391575e-05 0 -5.293490347863787e-05 2.9048285583765349e-05 0 -5.2180626587826958e-05 2.1881023798915413e-05 0 -5.293490347863787e-05 2.9048285583765349e-05 0 -6.5671539267521455e-05 3.2115362921391575e-05 0 -4.3486607478125132e-05 -3.5757094748683891e-05 0 -4.0512027125529403e-05 -3.5881159300756313e-05 0 -3.9408054071159767e-05 -3.1595661691136248e-05 0 -7.3329217150958418e-05 -5.1090075567606995e-05 0 -6.8195408298795483e-05 -5.5350042011576323e-05 0 -5.8445297838905266e-05 -4.282486990974091e-05 0 -2.8141960918965787e-05 0.00014417352292218303 0 -4.4411172599712326e-05 0.00011601379359827459 0 -2.2239732607533305e-05 0.00011055997204184954 0 -2.4723157050074077e-05 -4.2852654451231969e-06 0 -2.6237648752152242e-05 -8.1335624360557806e-06 0 -2.9557902181495483e-05 -1.0648633562134502e-05 0 -8.9649356366420269e-06 2.2108189815381935e-06 0 -8.1040619831180949e-06 4.3471515169413487e-06 0 -6.9688442416564369e-06 2.7503600809762656e-06 0 -0.0001109663050456564 0.0002424206190329403 0 -9.0953470286560394e-05 0.00025121646340643428 0 -0.00011765960811411763 0.00027617937367323747 0 -4.0978935170442454e-05 -0.00011503742884763209 0 -4.97544416689994e-05 -0.00012098109417176939 0 -4.0991377988620466e-05 -0.00013107016106252579 0 -2.5887996057169133e-05 -9.1315308743037449e-06 0 -2.8059423722125373e-05 -1.0844843158553093e-05 0 -3.0126715905556271e-05 -1.7559736921875168e-05 0 -4.394273265308762e-05 -4.7161932416721583e-05 0 -4.2400099367182655e-05 -4.411982637159879e-05 0 -4.6164827449302877e-05 -4.4956353301842407e-05 0 -3.4294055406137964e-05 -2.9387704873372603e-05 0 -3.7107366536673059e-05 -3.1965644695893346e-05 0 -3.4697959610799734e-05 -3.5294963746543891e-05 0 -2.3446277552967829e-09 -4.3604275000782407e-10 0 -1.83755062446154e-06 -6.0564155800039043e-07 0 -2.5543216422725119e-06 -9.2308380447708169e-07 0 -2.3820267850949611e-09 2.5899246895178948e-10 0 -2.5953285416551665e-06 3.7512811363448282e-07 0 -2.0783286676030298e-06 4.3860188825771691e-07 0 -3.3422568528768035e-05 -5.5518910300445678e-05 0 -4.2199805328880222e-05 -5.5940699679604981e-05 0 -4.3408764865569679e-05 -6.8884646424366848e-05 0 -1.8474720007060984e-05 3.2421767310379331e-06 0 -2.1150177470229785e-05 5.7637288733282519e-06 0 -2.4942096130317403e-05 5.40338616154987e-06 0 -3.7911387950795922e-05 2.4331572387110404e-05 0 -4.5360712811612022e-05 4.1769635720189814e-05 0 -5.4859646106294698e-05 3.949137615419213e-05 0 -2.9719871889588792e-06 -4.3587137946424205e-07 0 -1.625101821482044e-06 -3.0003646849203538e-07 0 -3.0458491550545106e-06 -5.2708126717018637e-09 0 -2.2278089368422064e-06 9.9247890058459833e-08 0 -3.0458491550545106e-06 -5.2708126717018637e-09 0 -1.625101821482044e-06 -3.0003646849203538e-07 0 -2.6246587665234699e-06 5.8806889072823991e-07 0 -1.9410136017245247e-06 5.0244795497660754e-07 0 -4.2198866217281261e-06 5.9459187447632818e-07 0 -3.6848914829901933e-06 5.4131725833555193e-07 0 -4.2198866217281261e-06 5.9459187447632818e-07 0 -1.9410136017245247e-06 5.0244795497660754e-07 0 -3.2539472379887188e-05 1.4043521318480339e-05 0 -2.7285436401018685e-05 1.5827305253350035e-05 0 -3.7911387950795922e-05 2.4331572387110404e-05 0 -8.9649356366420269e-06 2.2108189815381935e-06 0 -1.0877120949850915e-05 3.5707564750877521e-06 0 -8.1040619831180949e-06 4.3471515169413487e-06 0 -7.4962584492930904e-06 2.6717819731245186e-06 0 -8.1735296126372127e-06 1.3187152168159249e-06 0 -5.6828353888118388e-06 6.3716079643382423e-07 0 -2.1150177470229785e-05 5.7637288733282519e-06 0 -1.4687241172385875e-05 2.9097361711079576e-06 0 -1.7444753507021123e-05 6.4916659007497677e-06 0 -1.4579982118894847e-05 2.7790696289780954e-06 0 -1.2034546627153324e-05 6.2512025342047148e-06 0 -1.0877120949850915e-05 3.5707564750877517e-06 0 -1.4756360580358727e-05 -4.0635628712364849e-06 0 -1.6443283912601743e-05 -5.674220093458325e-06 0 -1.2567379318056488e-05 -2.8227507290678259e-06 0 -1.4807344886277114e-05 -4.6997551842259193e-06 0 -1.2567379318056488e-05 -2.8227507290678259e-06 0 -1.6443283912601743e-05 -5.674220093458325e-06 0 -5.8789795155307372e-09 4.4461850618929554e-10 0 -4.1836479837557261e-09 -9.741934532180866e-10 0 -4.9090166046085428e-06 5.1354417857952779e-08 0 -3.3954741856083835e-09 3.5218819844526931e-10 0 -4.5097566894810681e-09 -6.01676018761409e-10 0 -3.7688326324819736e-06 -7.8219326128394621e-07 0 1.1491323261253303e-05 0.00011207804075125141 0 -2.2239732607533305e-05 0.00011055997204184954 0 -1.6558141882919679e-05 8.1516607124993234e-05 0 -6.3986457699296072e-06 2.8633035249210931e-07 0 -9.2482007649441559e-06 -7.9646279566110334e-07 0 -6.7919254137488482e-06 4.4963527020823049e-07 0 -3.0379236935220638e-05 -1.3339751561770472e-05 0 -2.5134107603357922e-05 -1.0530139014683214e-05 0 -2.7834605852972501e-05 -1.5724509955776524e-05 0 -4.0200692373403702e-05 -4.6835525863538791e-05 0 -4.2400099367182655e-05 -4.411982637159879e-05 0 -4.394273265308762e-05 -4.7161932416721583e-05 0 -3.0849437334286612e-05 -1.1976506182972028e-05 0 -2.9730631774697683e-05 -1.0967461405381308e-05 0 -2.5103134865115349e-05 -8.867578395534909e-06 0 -4.456448624246217e-05 1.344064050318109e-05 0 -3.5785842792295856e-05 8.9565728455488574e-06 0 -4.3646267093100182e-05 1.25500900106249e-05 0 -3.7767956144572249e-05 -3.5833035087948857e-05 0 -3.4697959610799734e-05 -3.5294963746543891e-05 0 -3.7107366536673059e-05 -3.1965644695893346e-05 0 -2.9730631774697683e-05 -1.0967461405381308e-05 0 -2.5252606776929772e-05 -8.9025014246355322e-06 0 -2.4076702259592825e-05 -8.086162485760173e-06 0 -3.1770127973260003e-05 8.657597963901644e-06 0 -2.8788350949465211e-05 9.2890556748576247e-06 0 -4.0387423205621993e-05 1.3245438572851422e-05 0 -3.1469556331317622e-05 -1.2371643001040415e-05 0 -2.5252606776929772e-05 -8.9025014246355322e-06 0 -2.9730631774697683e-05 -1.0967461405381308e-05 0 -1.1145140869521539e-05 -1.8533926356589899e-06 0 -1.3135599328477191e-05 -2.7727909262900286e-06 0 -1.4723553280624013e-05 -3.6346712678847752e-06 0 -1.0680098890253233e-05 8.9262500830205853e-07 0 -1.4687241172385875e-05 2.9097361711079576e-06 0 -1.4898057264753205e-05 1.2130701379385767e-06 0 -4.3193135456400035e-05 1.9816454402342042e-05 0 -3.2539472379887188e-05 1.4043521318480339e-05 0 -3.7911387950795922e-05 2.4331572387110404e-05 0 -4.3486607478125132e-05 -3.5757094748683891e-05 0 -3.9408054071159767e-05 -3.1595661691136248e-05 0 -4.162032906426001e-05 -3.1344450179926835e-05 0 -3.2255141542648562e-05 0.00024232181238977593 0 -2.683463705940751e-05 0.00027410113828600652 0 -5.0983560676437999e-05 0.00027188559809890908 0 -7.4255644670472211e-05 -0.00011917332921613513 0 -7.8971036656361906e-05 -0.00013433565227554542 0 -6.7835305579150041e-05 -0.00013197345873569539 0 -2.9719871889588792e-06 -4.3587137946424205e-07 0 -1.8375506244615402e-06 -6.0564155800039043e-07 0 -1.625101821482044e-06 -3.0003646849203538e-07 0 -3.6848914829901933e-06 5.4131725833555193e-07 0 -1.9410136017245247e-06 5.0244795497660754e-07 0 -2.0783286676030298e-06 4.3860188825771691e-07 0 -2.9383125038605863e-09 -6.2647497490883606e-10 0 -2.5543216422725119e-06 -9.2308380447708169e-07 0 -2.8773004659288841e-06 -9.3804013704639037e-07 0 -2.757861661325699e-09 2.5716363477946851e-10 0 -2.6610553421118264e-06 2.0193121423599348e-07 0 -2.5953285416551665e-06 3.7512811363448282e-07 0 -3.0379236935220638e-05 -1.3339751561770472e-05 0 -3.4319291388820382e-05 -1.7331424314038787e-05 0 -3.3517279746288659e-05 -1.5757219353348431e-05 0 -3.639762095444922e-05 -1.9674564697351252e-05 0 -3.3517279746288659e-05 -1.5757219353348431e-05 0 -3.4319291388820382e-05 -1.7331424314038787e-05 0 -6.5428996171206381e-05 0.0001241710749175247 0 -5.8935622796179073e-05 9.0613655346372609e-05 0 -4.4411172599712326e-05 0.00011601379359827459 0 -3.6704484683253879e-05 8.0335603164681865e-05 0 -4.4411172599712333e-05 0.00011601379359827461 0 -5.8935622796179073e-05 9.0613655346372609e-05 0 -1.4199789277056744e-05 1.9328267110065717e-05 0 -1.017850498296988e-05 1.2945704340622617e-05 0 -8.9361412242938513e-06 2.0710882469820054e-05 0 -3.0379236935220638e-05 -1.3339751561770472e-05 0 -2.6237648752152242e-05 -8.1335624360557806e-06 0 -2.5134107603357922e-05 -1.0530139014683214e-05 0 -4.3972592552185586e-06 8.2029241481888818e-07 0 -3.1799285365963353e-06 4.2421345923004018e-07 0 -4.0483765167783919e-06 9.0407712655381808e-07 0 -3.8452958854172437e-05 -2.6881497811177716e-05 0 -3.9408054071159767e-05 -3.1595661691136248e-05 0 -3.596177321020357e-05 -2.7095582960733513e-05 0 -8.9864139590492369e-05 0.00019623960100322558 0 -0.00010155513977066073 0.0001742256903665526 0 -7.9399153404308533e-05 0.00015679788273246145 0 -4.8114976143764446e-05 -4.1573125749101226e-05 0 -4.7272319167836763e-05 -3.8163929754482734e-05 0 -5.0048793240571819e-05 -4.257381295339943e-05 0 -3.5986793961727625e-05 -4.0488527964864701e-05 0 -3.7913468599158826e-05 -3.9142843492751298e-05 0 -3.8464622018372088e-05 -4.37358802369178e-05 0 -9.5560091331175238e-06 -1.1272810028057713e-06 0 -6.3640307189530089e-06 1.1122545408583571e-07 0 -8.9847917474524128e-06 -9.2488974691844089e-07 0 -6.2969080051678475e-05 6.305883078250928e-05 0 -4.5360712811612029e-05 4.1769635720189821e-05 0 -4.5554754805013364e-05 6.025269976400956e-05 0 -1.2501188360325167e-05 -5.6832841897110643e-06 0 -1.832445494614484e-05 -7.4473567411511841e-06 0 -1.1127680513859745e-05 -4.1317626866285801e-06 0 -2.5070088526234661e-05 7.4261011527559209e-06 0 -1.6587974249937529e-05 5.7102625434659371e-06 0 -1.4991443879937139e-05 3.4512900240324017e-06 0 -2.9229521986174785e-05 -2.4254283079107666e-05 0 -2.6154655718917431e-05 -1.8410456283225631e-05 0 -3.0126715905556271e-05 -1.7559736921875168e-05 0 -5.5935992604224649e-06 -2.8544420830422296e-07 0 -9.3038470265407398e-06 -1.2315559599797929e-06 0 -5.5434872293202815e-06 -6.3852188889671048e-09 0 -6.3298316148255357e-06 -9.5309365966972926e-07 0 -5.3808174837412379e-06 -1.0504562264641914e-06 0 -1.025611929947978e-05 -2.379268292052557e-07 0 -0.00010916648229357788 7.1971734538670535e-05 0 -8.4897384508830927e-05 5.6497349264285433e-05 0 -8.9009388145114317e-05 7.6831484955762109e-05 0 -6.6702441568500405e-05 -4.0625889626997013e-05 0 -5.8445297838905266e-05 -4.282486990974091e-05 0 -5.4977247865340495e-05 -3.3125890571709076e-05 0 -2.8329127846051812e-05 3.8552096548368414e-05 0 -1.4325800201695146e-05 2.8572789292153558e-05 0 -2.159969480400369e-05 5.0946055721220528e-05 0 -3.4780964624088144e-06 3.1209299105863313e-05 0 -2.159969480400369e-05 5.0946055721220528e-05 0 -1.4325800201695146e-05 2.8572789292153558e-05 0 -3.7430992170477672e-05 -4.3891513331172996e-05 0 -4.6158276732800853e-05 -4.8278282068793413e-05 0 -4.2199805328880222e-05 -5.5940699679604981e-05 0 -5.0111840256185751e-05 -6.5081681751513799e-05 0 -4.2199805328880222e-05 -5.5940699679604981e-05 0 -4.6158276732800853e-05 -4.8278282068793413e-05 0 -2.5887996057169133e-05 -9.1315308743037449e-06 0 -2.120678872359782e-05 -1.3663661264464614e-06 0 -2.1620216126199809e-05 2.65772010172165e-06 0 -4.0200692373403702e-05 -4.6835525863538791e-05 0 -4.394273265308762e-05 -4.716193241672159e-05 0 -4.1156915481210951e-05 -4.9475231978855087e-05 0 -4.3972592552185586e-06 8.2029241481888818e-07 0 -5.6828353888118388e-06 6.3716079643382423e-07 0 -4.0671551457823349e-06 2.7784180968380549e-08 0 -3.8162013791303235e-05 -2.4552062595923326e-05 0 -4.8155912511927276e-05 -3.2558345311384435e-05 0 -4.1627269217322568e-05 -3.1573836028167495e-05 0 -3.7425662912500862e-05 -5.2283021719877294e-05 0 -3.7209910351572773e-05 -4.9105648520202063e-05 0 -3.9001757409102567e-05 -4.9755937610093434e-05 0 -8.9837892427761709e-05 0.00010512782180223353 0 -0.00010816246208037262 0.00010568469641646634 0 -8.9009388145114317e-05 7.6831484955762109e-05 0 -0.00011765960811411763 0.00027617937367323747 0 -9.0953470286560394e-05 0.00025121646340643428 0 -9.064096381085842e-05 0.00027849201940916468 0 -4.0991377988620466e-05 -0.00013107016106252579 0 -4.97544416689994e-05 -0.00012098109417176939 0 -5.1706165765079535e-05 -0.00013365051069064127 0 -1.1822432246095773e-05 -1.9009838670065405e-06 0 -1.1267689540798746e-05 -5.5107525803116291e-07 0 -9.1954381948446379e-06 -2.9202558105554489e-07 0 -3.639762095444922e-05 -1.9674564697351252e-05 0 -3.4319291388820382e-05 -1.7331424314038787e-05 0 -3.8665126787449324e-05 -2.2262528841231374e-05 0 -5.5293446022630185e-06 1.6196686592933487e-06 0 -6.9688442416564369e-06 2.7503600809762656e-06 0 -5.9685511452513393e-06 2.5936943237450634e-06 0 -7.0468208064614351e-06 4.09659792222162e-06 0 -5.9685511452513393e-06 2.5936943237450634e-06 0 -6.9688442416564369e-06 2.7503600809762656e-06 0 -2.1150177470229785e-05 5.7637288733282519e-06 0 -2.8788350949465211e-05 9.2890556748576247e-06 0 -2.4942096130317403e-05 5.40338616154987e-06 0 -5.0111840256185751e-05 -6.5081681751513799e-05 0 -5.8417668819963659e-05 -7.4362061114170789e-05 0 -5.3939739817407666e-05 -8.2811753544808126e-05 0 -2.6920250998768451e-05 5.2861674015031978e-06 0 -2.1483425985123678e-05 3.1711636858371799e-06 0 -3.2374701586109872e-05 7.5269318791108156e-06 0 -4.0462468066257662e-05 0.00019446461814326356 0 -6.6177070548779451e-05 0.00022372186860567412 0 -7.0147099821303653e-05 0.00019797966614178714 0 -4.0462468066257662e-05 0.00019446461814326356 0 -7.0147099821303653e-05 0.00019797966614178714 0 -6.3707959325758878e-05 0.00017075727303845925 0 -8.9864139590492369e-05 0.00019623960100322558 0 -6.3707959325758865e-05 0.00017075727303845925 0 -7.0147099821303653e-05 0.00019797966614178714 0 -6.4618478613983471e-05 -9.5997800956904543e-05 0 -5.7892194735510372e-05 -0.00010932867639220708 0 -5.230487719846282e-05 -9.5323079550718194e-05 0 -6.4618478613983471e-05 -9.5997800956904543e-05 0 -5.230487719846282e-05 -9.5323079550718194e-05 0 -5.3939739817407666e-05 -8.2811753544808126e-05 0 -1.017850498296988e-05 1.2945704340622617e-05 0 -9.4838837575243068e-06 1.4661015460901779e-05 0 -8.9361412242938513e-06 2.0710882469820054e-05 0 -1.9624266705137181e-09 -3.3747892164962686e-10 0 -1.5810099534813303e-09 -4.5783790460090256e-13 0 -1.625101821482044e-06 -3.0003646849203538e-07 0 -1.8244035854193431e-09 2.0872149119655258e-10 0 -2.1114060650685418e-09 2.795492551568757e-10 0 -1.9410136017245247e-06 5.0244795497660754e-07 0 -9.2482007649441559e-06 -7.9646279566110334e-07 0 -9.1954381948446379e-06 -2.9202558105554499e-07 0 -6.7919254137488482e-06 4.4963527020823049e-07 0 -2.4761716380624339e-05 -2.2772206913059113e-05 0 -2.4610415806527203e-05 -1.9744939377570403e-05 0 -2.8466941674655636e-05 -2.7398650769093098e-05 0 -2.1483425985123678e-05 3.1711636858371799e-06 0 -2.4942096130317403e-05 5.4033861615498691e-06 0 -3.2374701586109872e-05 7.5269318791108156e-06 0 -1.5677622174075809e-09 1.6065573000999691e-10 0 -2.0440162214715683e-06 4.2660775108444646e-07 0 -1.3123731100736747e-06 1.3588209967490949e-07 0 -2.5070088526234661e-05 7.4261011527559209e-06 0 -2.07621934703154e-05 3.992733619802191e-06 0 -2.8753157291249968e-05 6.8522912709518434e-06 0 -1.832445494614484e-05 -7.4473567411511841e-06 0 -2.0639136942452143e-05 -7.2814366748518112e-06 0 -1.528748842528957e-05 -5.0047571800569774e-06 0 -6.0071783558673736e-05 -5.4537246957552474e-05 0 -5.8445297838905266e-05 -4.282486990974091e-05 0 -6.8195408298795483e-05 -5.5350042011576323e-05 0 -3.5593469353118471e-06 6.8805820736936273e-07 0 -2.6246587665234699e-06 5.8806889072823991e-07 0 -4.7557903229905785e-06 6.7043772276498172e-07 0 -4.3486607478125132e-05 -3.5757094748683891e-05 0 -4.7272319167836763e-05 -3.8163929754482734e-05 0 -4.5353517283815376e-05 -3.9125524562750796e-05 0 -1.4579982118894847e-05 2.7790696289780954e-06 0 -1.0877120949850915e-05 3.5707564750877517e-06 0 -1.3348225758019316e-05 1.0831231296299179e-06 0 -2.8141960918965787e-05 0.00014417352292218303 0 -5.3686271409771835e-05 0.00014667481976432775 0 -4.4411172599712326e-05 0.00011601379359827459 0 -4.3972592552185586e-06 8.2029241481888818e-07 0 -3.0458491550545106e-06 -5.2708126717018637e-09 0 -3.1799285365963353e-06 4.2421345923004018e-07 0 -0.0001016517315227284 0.00030697950964043492 0 -9.064096381085842e-05 0.00027849201940916468 0 -7.1564319142520944e-05 0.00029307431165009483 0 -4.8830365054138372e-05 -0.00014693776729316505 0 -5.1706165765079535e-05 -0.00013365051069064127 0 -6.0069271768746135e-05 -0.00014116273136018597 0 -2.6246587665234699e-06 5.8806889072823991e-07 0 -4.2198866217281261e-06 5.9459187447632818e-07 0 -4.7557903229905785e-06 6.7043772276498172e-07 0 -1.4579982118894847e-05 2.7790696289780954e-06 0 -1.6872341571669248e-05 -1.0424357982970416e-06 0 -1.9655809721232963e-05 -3.3744616789621625e-07 0 -4.6468365047059078e-05 0.00030492183075678632 0 -5.1638894763640407e-05 0.00033346083322380955 0 -7.4046322010701431e-05 0.00032522885641603845 0 -0.0001016517315227284 0.00030697950964043492 0 -7.4046322010701431e-05 0.0003252288564160384 0 -9.7644599354592733e-05 0.00033479324867788769 0 -7.1423986270222403e-05 -0.00014724280102193748 0 -6.9807126453137869e-05 -0.00015992826358809538 0 -6.0032293667665337e-05 -0.0001558487063338244 0 -4.8830365054138372e-05 -0.00014693776729316505 0 -6.0032293667665337e-05 -0.0001558487063338244 0 -5.108547860152781e-05 -0.00015955675283986005 0 -3.7911387950795922e-05 2.4331572387110404e-05 0 -5.4859646106294698e-05 3.949137615419213e-05 0 -5.293490347863787e-05 2.9048285583765349e-05 0 -4.7034930808511605e-05 -3.7622115363123703e-05 0 -5.8445297838905266e-05 -4.282486990974091e-05 0 -5.2718825937129764e-05 -4.7116437290324842e-05 0 -6.0071783558673736e-05 -5.4537246957552474e-05 0 -5.2718825937129764e-05 -4.7116437290324842e-05 0 -5.8445297838905266e-05 -4.282486990974091e-05 0 -8.9837892427761709e-05 0.00010512782180223353 0 -8.9009388145114317e-05 7.6831484955762109e-05 0 -7.4129074763166355e-05 8.7593080484807485e-05 0 -6.2969080051678475e-05 6.305883078250928e-05 0 -7.4129074763166355e-05 8.7593080484807485e-05 0 -8.9009388145114317e-05 7.6831484955762109e-05 0 -3.6848914829901933e-06 5.4131725833555193e-07 0 -4.5250918827378107e-06 3.5775101107793201e-07 0 -6.3640307189530089e-06 1.112254540858357e-07 0 8.3966724906943794e-06 7.8471279188030294e-05 0 1.1491323261253303e-05 0.00011207804075125141 0 -1.6558141882919679e-05 8.1516607124993234e-05 0 -6.3298316148255357e-06 -9.5309365966972926e-07 0 -9.7919972728852306e-06 -3.5768900688678422e-07 0 -6.3783222740952528e-06 -5.1988982386968094e-07 0 -5.5935992604224649e-06 -2.8544420830422296e-07 0 -5.120573746094019e-06 -6.2287876171836974e-07 0 -8.0983791049936076e-06 -1.1632784877694377e-06 0 -3.0379236935220638e-05 -1.3339751561770472e-05 0 -2.9557902181495483e-05 -1.0648633562134502e-05 0 -2.6237648752152242e-05 -8.1335624360557806e-06 0 -9.3038470265407398e-06 -1.2315559599797929e-06 0 -8.6127117665479645e-06 -8.611620766581035e-07 0 -5.5434872293202815e-06 -6.3852188889671048e-09 0 -1.025611929947978e-05 -2.379268292052557e-07 0 -5.3808174837412379e-06 -1.0504562264641914e-06 0 -8.4141795064266308e-06 -1.3267265882434677e-07 0 -3.1770127973260003e-05 8.657597963901644e-06 0 -4.0387423205621993e-05 1.3245438572851422e-05 0 -3.2374701586109872e-05 7.5269318791108156e-06 0 -4.3646267093100182e-05 1.25500900106249e-05 0 -3.2374701586109872e-05 7.5269318791108156e-06 0 -4.0387423205621993e-05 1.3245438572851422e-05 0 -4.6468365047059078e-05 0.00030492183075678632 0 -5.0983560676437999e-05 0.00027188559809890908 0 -2.683463705940751e-05 0.00027410113828600652 0 -7.1423986270222403e-05 -0.00014724280102193748 0 -6.7835305579150041e-05 -0.00013197345873569539 0 -7.8971036656361906e-05 -0.00013433565227554539 0 -3.7425662912500862e-05 -5.2283021719877294e-05 0 -3.6573712709614162e-05 -5.1172282662956562e-05 0 -3.6107512604955978e-05 -5.0133918126587197e-05 0 -4.7746968138184238e-05 -5.1388198351475527e-05 0 -4.3210569892056839e-05 -5.150331320062298e-05 0 -4.771387366267585e-05 -4.8040069596772309e-05 0 -1.8007470641279179e-05 -6.0961034321578494e-06 0 -1.4756360580358727e-05 -4.0635628712364849e-06 0 -1.4723553280624013e-05 -3.6346712678847752e-06 0 -5.2408596955221004e-05 -4.6501303660612606e-05 0 -5.0911888670208894e-05 -4.5074623616214402e-05 0 -5.0048793240571819e-05 -4.257381295339943e-05 0 -2.7054122525128104e-05 -3.2705432724825393e-05 0 -2.8176946207967538e-05 -3.4880168271256261e-05 0 -3.1554425468373244e-05 -4.0614360456364878e-05 0 -3.5768319465179408e-05 -4.3943626422383985e-05 0 -3.3778203419612129e-05 -4.3120107593515031e-05 0 -3.300129633972683e-05 -3.899198370268257e-05 0 -4.5757820982781496e-05 -2.6244760251524794e-05 0 -4.8155912511927276e-05 -3.2558345311384435e-05 0 -3.8162013791303235e-05 -2.4552062595923326e-05 0 -4.3210569892056839e-05 -5.150331320062298e-05 0 -4.1156915481210951e-05 -4.9475231978855087e-05 0 -4.394273265308762e-05 -4.7161932416721583e-05 0 -5.2180626587826958e-05 2.1881023798915413e-05 0 -4.0387423205621993e-05 1.3245438572851422e-05 0 -4.3193135456400035e-05 1.9816454402342042e-05 0 -1.1267689540798746e-05 -5.5107525803116302e-07 0 -8.9883146918212544e-06 7.3940437725721253e-07 0 -9.1954381948446379e-06 -2.9202558105554489e-07 0 -4.7034930808511605e-05 -3.7622115363123703e-05 0 -4.6158276732800853e-05 -4.8278282068793413e-05 0 -4.035589979686705e-05 -3.6869624001847612e-05 0 -3.7430992170477672e-05 -4.3891513331172996e-05 0 -4.035589979686705e-05 -3.6869624001847612e-05 0 -4.6158276732800853e-05 -4.8278282068793413e-05 0 -1.9108804529819288e-05 -6.1551249467767049e-06 0 -1.8007470641279179e-05 -6.0961034321578494e-06 0 -1.4723553280624013e-05 -3.6346712678847752e-06 0 -4.7034930808511605e-05 -3.7622115363123703e-05 0 -4.1627269217322568e-05 -3.1573836028167495e-05 0 -4.8155912511927276e-05 -3.2558345311384435e-05 0 -1.6391166822711619e-05 -4.341277629056804e-06 0 -1.9108804529819288e-05 -6.1551249467767049e-06 0 -1.4723553280624013e-05 -3.6346712678847752e-06 0 -1.0680098890253233e-05 8.9262500830205853e-07 0 -1.0236983762348845e-05 2.6806040909288148e-06 0 -1.4687241172385875e-05 2.9097361711079576e-06 0 -4.7034930808511605e-05 -3.7622115363123703e-05 0 -4.8155912511927276e-05 -3.2558345311384435e-05 0 -5.8445297838905266e-05 -4.282486990974091e-05 0 -6.2969080051678475e-05 6.305883078250928e-05 0 -8.9009388145114317e-05 7.6831484955762109e-05 0 -7.1315517608485564e-05 5.4661934226227395e-05 0 -4.1836479837557261e-09 -9.741934532180866e-10 0 -3.0947582225501236e-06 -7.1539190355882736e-07 0 -6.3783222740952528e-06 -5.1988982386968094e-07 0 -3.3954741856083835e-09 3.5218819844526931e-10 0 -5.120573746094019e-06 -6.2287876171836974e-07 0 -2.6342525257239417e-06 -2.5838492503402766e-08 0 -1.6391166822711619e-05 -4.341277629056804e-06 0 -1.4723553280624013e-05 -3.6346712678847752e-06 0 -1.3135599328477191e-05 -2.7727909262900286e-06 0 -1.8474720007060984e-05 3.2421767310379331e-06 0 -1.4898057264753205e-05 1.2130701379385767e-06 0 -1.4687241172385875e-05 2.9097361711079576e-06 0 -6.1442442625454751e-06 -5.8699850806800334e-07 0 -4.296836898752692e-06 -7.1777740070566188e-07 0 -6.8211720588069675e-06 1.4180494315745768e-07 0 -2.8466941674655636e-05 -2.7398650769093098e-05 0 -3.4449865414071177e-05 -3.2667041775754382e-05 0 -2.9745233628044472e-05 -3.88509019620014e-05 0 -4.3972592552185586e-06 8.2029241481888818e-07 0 -4.0483765167783911e-06 9.0407712655381818e-07 0 -4.9135359344650691e-06 1.4678887809205574e-06 0 -0.0001016517315227284 0.00030697950964043492 0 -0.00011765960811411763 0.00027617937367323747 0 -9.064096381085842e-05 0.00027849201940916468 0 -4.8830365054138372e-05 -0.00014693776729316505 0 -4.0991377988620466e-05 -0.00013107016106252579 0 -5.1706165765079535e-05 -0.00013365051069064127 0 -1.1145140869521539e-05 -1.8533926356589899e-06 0 -9.3038470265407398e-06 -1.2315559599797929e-06 0 -1.3135599328477191e-05 -2.7727909262900286e-06 0 -1.0680098890253233e-05 8.9262500830205853e-07 0 -1.4898057264753205e-05 1.2130701379385767e-06 0 -1.025611929947978e-05 -2.379268292052557e-07 0 -3.4499690633054787e-06 7.1036460411564439e-07 0 -4.9943771203422665e-06 8.2826228585088394e-07 0 -4.7527209033809755e-06 1.0544375174714552e-06 0 -3.4449865414071177e-05 -3.2667041775754382e-05 0 -3.7430992170477672e-05 -4.3891513331172996e-05 0 -2.9745233628044472e-05 -3.88509019620014e-05 0 -0.00015070657598580787 0.00021426639422385347 0 -0.00014659867438329447 0.00018305696153141882 0 -0.00011949340049458844 0.00019736956361781168 0 -2.0167050658070168e-05 -8.2684084219685245e-05 0 -3.3194554740605476e-05 -9.2497325194500226e-05 0 -2.1705611504745657e-05 -9.7146734114221772e-05 0 -6.4618478613983471e-05 -9.5997800956904543e-05 0 -5.3939739817407666e-05 -8.2811753544808112e-05 0 -6.3074128644460196e-05 -8.355505943841866e-05 0 -2.1251704350444618e-05 -5.1550731933805249e-06 0 -2.5134107603357922e-05 -1.0530139014683212e-05 0 -2.6237648752152242e-05 -8.1335624360557806e-06 0 -2.6920250998768451e-05 5.2861674015031978e-06 0 -2.0762193470315396e-05 3.9927336198021902e-06 0 -1.984854003205932e-05 2.7850238712321877e-06 0 -1.978451679364543e-05 -6.184234679374049e-06 0 -1.5082453065849918e-05 -4.2012944053021077e-06 0 -1.528748842528957e-05 -5.0047571800569774e-06 0 -1.0660848679198638e-05 8.4270459753302501e-06 0 -1.0002384660401242e-05 4.8958546894815563e-06 0 -7.9412315531632646e-06 5.4724923219960939e-06 0 -3.4499690633054787e-06 7.1036460411564439e-07 0 -3.5593469353118471e-06 6.8805820736936273e-07 0 -4.9943771203422665e-06 8.2826228585088383e-07 0 -3.639762095444922e-05 -1.9674564697351252e-05 0 -4.0178814626595544e-05 -2.5195195221296518e-05 0 -3.6985944845604546e-05 -2.1960361607729051e-05 0 -2.6920250998768451e-05 5.2861674015031978e-06 0 -2.8753157291249968e-05 6.8522912709518434e-06 0 -2.07621934703154e-05 3.992733619802191e-06 0 -1.978451679364543e-05 -6.184234679374049e-06 0 -1.528748842528957e-05 -5.0047571800569774e-06 0 -2.0639136942452146e-05 -7.281436674851812e-06 0 -1.4579982118894847e-05 2.7790696289780954e-06 0 -1.3348225758019316e-05 1.0831231296299179e-06 0 -1.6872341571669248e-05 -1.0424357982970416e-06 0 -5.8321841753973212e-05 -0.00012582029112999927 0 -5.7892194735510372e-05 -0.00010932867639220708 0 -6.4896528132575809e-05 -0.00011844337054217883 0 -7.1516023929380678e-05 0.00026041672720292225 0 -6.6177070548779451e-05 0.00022372186860567412 0 -5.3306544818783872e-05 0.00024294518761258505 0 -4.5757820982781496e-05 -2.6244760251524794e-05 0 -3.8162013791303235e-05 -2.4552062595923326e-05 0 -3.7781196109625612e-05 -1.9790937088919918e-05 0 -3.1437571191846897e-05 -1.7608614813156899e-05 0 -3.7781196109625612e-05 -1.9790937088919918e-05 0 -3.8162013791303235e-05 -2.4552062595923326e-05 0 -1.8706231812713424e-05 -9.0691231742966891e-06 0 -2.1385191187029966e-05 -1.1845746454340545e-05 0 -2.1728483326240832e-05 -1.3867462372139921e-05 0 -2.4913068017821159e-05 -1.6949519239585173e-05 0 -2.1728483326240832e-05 -1.3867462372139921e-05 0 -2.1385191187029966e-05 -1.1845746454340545e-05 0 -2.5543216422725119e-06 -9.2308380447708169e-07 0 -4.296836898752692e-06 -7.1777740070566188e-07 0 -5.3808174837412379e-06 -1.0504562264641914e-06 0 -6.1442442625454751e-06 -5.8699850806800334e-07 0 -5.3808174837412379e-06 -1.0504562264641914e-06 0 -4.296836898752692e-06 -7.1777740070566188e-07 0 -6.769715465337171e-06 -2.0345433269755162e-07 0 -4.5250918827378107e-06 3.5775101107793201e-07 0 -5.5434872293202815e-06 -6.3852188889671048e-09 0 -2.5953285416551665e-06 3.7512811363448282e-07 0 -5.5434872293202815e-06 -6.3852188889671048e-09 0 -4.5250918827378107e-06 3.5775101107793201e-07 0 -4.3486607478125132e-05 -3.5757094748683891e-05 0 -4.2977073545573642e-05 -3.9262720134863015e-05 0 -4.0512027125529403e-05 -3.5881159300756313e-05 0 -2.1251704350444618e-05 -5.1550731933805249e-06 0 -1.9655809721232963e-05 -3.3744616789621625e-07 0 -1.6872341571669248e-05 -1.0424357982970416e-06 0 -7.0468208064614351e-06 4.09659792222162e-06 0 -6.8606163854334764e-06 3.6858142638493552e-06 0 -5.9685511452513393e-06 2.5936943237450634e-06 0 -4.0462468066257662e-05 0.00019446461814326356 0 -4.2594737120391532e-05 0.00022377877776540679 0 -6.6177070548779451e-05 0.00022372186860567412 0 -6.4618478613983471e-05 -9.5997800956904543e-05 0 -6.7842903732740693e-05 -0.00010919604211186681 0 -5.7892194735510372e-05 -0.00010932867639220708 0 -4.0462468066257662e-05 0.00019446461814326356 0 -6.3707959325758878e-05 0.00017075727303845925 0 -4.1054551928231509e-05 0.00016562806032556742 0 -1.0660848679198638e-05 8.4270459753302501e-06 0 -1.3966590907899087e-05 7.6638888120797974e-06 0 -1.000238466040124e-05 4.8958546894815563e-06 0 -1.0660848679198638e-05 8.4270459753302501e-06 0 -1.4519852264305699e-05 1.3017541625370841e-05 0 -1.3966590907899087e-05 7.6638888120797974e-06 0 -6.5428996171206381e-05 0.0001241710749175247 0 -5.3686271409771828e-05 0.00014667481976432778 0 -7.9399153404308533e-05 0.00015679788273246145 0 -6.3707959325758878e-05 0.00017075727303845925 0 -7.9399153404308533e-05 0.00015679788273246145 0 -5.3686271409771828e-05 0.00014667481976432778 0 -1.0138099423621966e-05 9.8909766645786873e-07 0 -6.3783222740952536e-06 -5.1988982386968083e-07 0 -1.1320493781106366e-05 3.3106934380272006e-07 0 -7.7027301103262942e-06 -2.0563374256597512e-06 0 -8.9003745938236006e-06 -1.7924624416247675e-06 0 -5.120573746094019e-06 -6.2287876171836974e-07 0 -3.7430992170477672e-05 -4.3891513331172996e-05 0 -4.2199805328880222e-05 -5.5940699679604981e-05 0 -3.3422568528768035e-05 -5.5518910300445678e-05 0 -5.2408596955221004e-05 -4.6501303660612606e-05 0 -5.358031772617401e-05 -4.9607626894961094e-05 0 -5.0911888670208894e-05 -4.5074623616214409e-05 0 -2.7054122525128104e-05 -3.2705432724825393e-05 0 -3.1554425468373244e-05 -4.0614360456364878e-05 0 -2.9637405243709064e-05 -3.6305422622412136e-05 0 -1.4056203916153947e-05 -1.2703004919148156e-06 0 -1.6872341571669248e-05 -1.0424357982970416e-06 0 -1.3348225758019316e-05 1.0831231296299179e-06 0 -7.0468208064614351e-06 4.09659792222162e-06 0 -8.2683902142342899e-06 6.7951722226803928e-06 0 -7.9412315531632646e-06 5.4724923219960939e-06 0 -4.0200692373403702e-05 -4.6835525863538791e-05 0 -3.8464622018372088e-05 -4.37358802369178e-05 0 -4.2400099367182655e-05 -4.411982637159879e-05 0 -4.0236597325915935e-05 -4.1639543697438463e-05 0 -4.2400099367182655e-05 -4.411982637159879e-05 0 -3.8464622018372088e-05 -4.37358802369178e-05 0 -3.4294055406137964e-05 -2.9387704873372603e-05 0 -3.4697959610799734e-05 -3.5294963746543891e-05 0 -3.0244770697569474e-05 -2.9424532121722528e-05 0 -0.0001016517315227284 0.00030697950964043492 0 -0.00012858767843014016 0.00030405731390083701 0 -0.00011765960811411763 0.00027617937367323747 0 -4.8830365054138372e-05 -0.00014693776729316505 0 -3.8678441294145707e-05 -0.000143606943097376 0 -4.0991377988620466e-05 -0.00013107016106252579 0 -4.9843984059998063e-05 -4.6116098838605693e-05 0 -5.261835012187535e-05 -4.9282062969674756e-05 0 -4.771387366267585e-05 -4.8040069596772309e-05 0 -3.4390216501094926e-05 -4.605424128659938e-05 0 -3.6107512604955978e-05 -5.0133918126587197e-05 0 -3.4790084101452037e-05 -4.6523777009094329e-05 0 -4.6468365047059078e-05 0.00030492183075678632 0 -7.1564319142520944e-05 0.00029307431165009483 0 -5.0983560676437999e-05 0.00027188559809890908 0 -7.1423986270222403e-05 -0.00014724280102193748 0 -6.0069271768746135e-05 -0.00014116273136018597 0 -6.7835305579150041e-05 -0.00013197345873569539 0 -3.4499690633054787e-06 7.1036460411564439e-07 0 -4.7527209033809755e-06 1.0544375174714552e-06 0 -4.0483765167783919e-06 9.0407712655381808e-07 0 -5.5293446022630185e-06 1.6196686592933487e-06 0 -4.0483765167783919e-06 9.0407712655381808e-07 0 -4.7527209033809755e-06 1.0544375174714552e-06 0 -3.2255141542648562e-05 0.00024232181238977593 0 -5.0983560676437999e-05 0.00027188559809890908 0 -5.3306544818783872e-05 0.00024294518761258505 0 -7.4255644670472211e-05 -0.00011917332921613513 0 -6.7835305579150041e-05 -0.00013197345873569539 0 -6.4896528132575809e-05 -0.00011844337054217883 0 -6.3298316148255357e-06 -9.5309365966972926e-07 0 -6.3783222740952528e-06 -5.1988982386968083e-07 0 -3.0947582225501236e-06 -7.1539190355882736e-07 0 -5.5935992604224649e-06 -2.8544420830422296e-07 0 -2.6342525257239417e-06 -2.5838492503402766e-08 0 -5.120573746094019e-06 -6.2287876171836974e-07 0 -3.6704484683253879e-05 8.0335603164681865e-05 0 -2.2239732607533305e-05 0.00011055997204184954 0 -4.4411172599712326e-05 0.00011601379359827459 0 -1.0138099423621966e-05 9.8909766645786873e-07 0 -4.9090166046085428e-06 5.1354417857952779e-08 0 -6.3783222740952528e-06 -5.1988982386968094e-07 0 -7.7027301103262942e-06 -2.0563374256597512e-06 0 -5.120573746094019e-06 -6.2287876171836974e-07 0 -3.7688326324819736e-06 -7.8219326128394621e-07 0 -0.00015415764858644782 0.00027548661495111929 0 -0.00013211580678157433 0.00025394606282718796 0 -0.00011765960811411763 0.00027617937367323747 0 -2.6115126559462762e-05 -0.00012637341861056233 0 -3.3323564716043919e-05 -0.00011875336858677007 0 -4.0991377988620466e-05 -0.00013107016106252579 0 -2.8329127846051812e-05 3.8552096548368414e-05 0 -4.5360712811612029e-05 4.1769635720189821e-05 0 -3.0793728448551379e-05 2.8984639737910574e-05 0 -3.7911387950795922e-05 2.4331572387110404e-05 0 -3.0793728448551379e-05 2.8984639737910574e-05 0 -4.5360712811612029e-05 4.1769635720189821e-05 0 -5.0111840256185751e-05 -6.5081681751513799e-05 0 -4.6158276732800853e-05 -4.8278282068793413e-05 0 -5.3615830038601519e-05 -5.5545314944135236e-05 0 -2.5887996057169133e-05 -9.1315308743037449e-06 0 -2.6154655718917431e-05 -1.8410456283225631e-05 0 -2.1989598040794403e-05 -1.2698923610826815e-05 0 -6.5428996171206381e-05 0.0001241710749175247 0 -7.4978602459746857e-05 0.00010684579559028442 0 -5.8935622796179073e-05 9.0613655346372609e-05 0 -6.2969080051678475e-05 6.305883078250928e-05 0 -5.8935622796179073e-05 9.0613655346372609e-05 0 -7.4129074763166355e-05 8.7593080484807485e-05 0 -4.7034930808511605e-05 -3.7622115363123703e-05 0 -5.2718825937129764e-05 -4.7116437290324842e-05 0 -4.6158276732800853e-05 -4.8278282068793413e-05 0 -3.7430992170477672e-05 -4.3891513331172996e-05 0 -3.3422568528768035e-05 -5.5518910300445678e-05 0 -2.9745233628044472e-05 -3.88509019620014e-05 0 -4.8114976143764446e-05 -4.1573125749101226e-05 0 -5.0048793240571819e-05 -4.257381295339943e-05 0 -5.0911888670208894e-05 -4.5074623616214409e-05 0 -3.1413625508787872e-05 -3.9129810821617032e-05 0 -3.1554425468373244e-05 -4.0614360456364878e-05 0 -2.8176946207967538e-05 -3.4880168271256261e-05 0 -2.4723157050074077e-05 -4.2852654451231969e-06 0 -2.9557902181495483e-05 -1.0648633562134502e-05 0 -2.724272828228125e-05 -7.2133766747737715e-06 0 -3.0379236935220638e-05 -1.3339751561770472e-05 0 -3.3517279746288659e-05 -1.5757219353348431e-05 0 -2.9557902181495483e-05 -1.0648633562134502e-05 0 -1.3219630552096839e-05 8.9707491431151791e-06 0 -1.2034546627153324e-05 6.2512025342047148e-06 0 -1.669736023894002e-05 4.5856208307107065e-06 0 -2.8466941674655636e-05 -2.7398650769093098e-05 0 -2.4610415806527203e-05 -1.9744939377570403e-05 0 -2.9120509047131893e-05 -2.3350556445569745e-05 0 -4.6468365047059078e-05 0.00030492183075678632 0 -2.683463705940751e-05 0.00027410113828600652 0 -2.1169918798859505e-05 0.00029956386995498747 0 -7.1423986270222403e-05 -0.00014724280102193748 0 -7.8971036656361906e-05 -0.00013433565227554539 0 -8.3155739917850012e-05 -0.00014647543139589101 0 -1.4579982118894847e-05 2.7790696289780954e-06 0 -1.669736023894002e-05 4.5856208307107065e-06 0 -1.2034546627153324e-05 6.2512025342047148e-06 0 -2.5626478389487876e-05 -2.7419923730681043e-05 0 -3.0244770697569474e-05 -2.9424532121722528e-05 0 -2.772796727861395e-05 -3.1287468484382588e-05 0 -4.0236597325915935e-05 -4.1639543697438463e-05 0 -3.8464622018372088e-05 -4.37358802369178e-05 0 -3.7913468599158826e-05 -3.9142843492751298e-05 0 -9.5195802510570891e-06 5.9945004451227111e-06 0 -1.0877120949850915e-05 3.5707564750877517e-06 0 -1.2034546627153324e-05 6.2512025342047148e-06 0 -2.9719871889588792e-06 -4.3587137946424205e-07 0 -4.0671551457823349e-06 2.7784180968380555e-08 0 -4.296836898752692e-06 -7.1777740070566188e-07 0 -7.9556003971073533e-05 -6.3267531662479994e-05 0 -8.4580994938292662e-05 -7.649087633609952e-05 0 -7.0213136801056364e-05 -6.6759819191995246e-05 0 -1.0680098890253233e-05 8.9262500830205853e-07 0 -8.4141795064266308e-06 -1.3267265882434677e-07 0 -6.8211720588069675e-06 1.4180494315745768e-07 0 -5.9685511452513393e-06 2.5936943237450634e-06 0 -6.8606163854334764e-06 3.6858142638493552e-06 0 -5.6309723741906264e-06 1.8613095260800983e-06 0 -1.4579982118894847e-05 2.7790696289780954e-06 0 -1.9655809721232963e-05 -3.3744616789621625e-07 0 -1.669736023894002e-05 4.5856208307107065e-06 0 -0.00014037182265752777 0.00015207183281023778 0 -0.00013207156675414103 0.00012273550190787475 0 -0.00011003543575064202 0.00013214417106631576 0 -2.6246587665234699e-06 5.8806889072823991e-07 0 -2.0440162214715683e-06 4.2660775108444646e-07 0 -1.0733062356023785e-06 2.9026012444378791e-07 0 -7.4962584492930904e-06 2.6717819731245186e-06 0 -7.9412315531632646e-06 5.4724923219960939e-06 0 -1.000238466040124e-05 4.8958546894815563e-06 0 -3.8452958854172437e-05 -2.6881497811177716e-05 0 -4.0280614556014057e-05 -2.7054602594933532e-05 0 -4.162032906426001e-05 -3.1344450179926835e-05 0 -6.4618478613983471e-05 -9.5997800956904543e-05 0 -7.3949443047355306e-05 -8.9668115438306262e-05 0 -7.7531697209921849e-05 -0.00010499637406317592 0 -1.0680098890253233e-05 8.9262500830205853e-07 0 -6.8211720588069675e-06 1.4180494315745768e-07 0 -8.1735296126372127e-06 1.3187152168159247e-06 0 -3.4499690633054787e-06 7.1036460411564439e-07 0 -2.430516000585054e-06 3.5025148186198512e-07 0 -2.0440162214715683e-06 4.2660775108444646e-07 0 -1.2904995736104539e-05 4.6091315686101828e-06 0 -1.000238466040124e-05 4.8958546894815563e-06 0 -1.3966590907899087e-05 7.6638888120797974e-06 0 -4.0178814626595544e-05 -2.5195195221296518e-05 0 -4.0280614556014057e-05 -2.7054602594933532e-05 0 -3.6985944845604546e-05 -2.1960361607729051e-05 0 -4.8114976143764446e-05 -4.1573125749101226e-05 0 -4.7718771101376537e-05 -4.3156706317813995e-05 0 -4.5353517283815376e-05 -3.9125524562750796e-05 0 -3.1770127973260003e-05 8.657597963901644e-06 0 -2.4942096130317403e-05 5.40338616154987e-06 0 -2.8788350949465211e-05 9.2890556748576247e-06 0 5.84325953833913e-06 0.00026416029113673711 0 -2.683463705940751e-05 0.00027410113828600652 0 -1.2162021954823994e-05 0.00024976207639459665 0 -9.4158993825499667e-05 -0.00013323485939972351 0 -7.8971036656361906e-05 -0.00013433565227554539 0 -8.4266225448304498e-05 -0.00012427053000077341 0 -4.9135359344650691e-06 1.4678887809205574e-06 0 -5.6309723741906264e-06 1.8613095260800983e-06 0 -4.3972592552185586e-06 8.2029241481888818e-07 0 -5.9685511452513393e-06 2.5936943237450634e-06 0 -5.6309723741906264e-06 1.8613095260800983e-06 0 -4.9135359344650691e-06 1.4678887809205574e-06 0 -0.0001109663050456564 0.0002424206190329403 0 -0.00011765960811411763 0.00027617937367323747 0 -0.00013211580678157433 0.00025394606282718796 0 -4.0978935170442454e-05 -0.00011503742884763209 0 -4.0991377988620466e-05 -0.00013107016106252579 0 -3.3323564716043919e-05 -0.00011875336858677007 0 -5.5293446022630185e-06 1.6196686592933487e-06 0 -7.4296364332118805e-06 1.5435647769399345e-06 0 -6.9688442416564369e-06 2.7503600809762656e-06 0 -8.9649356366420269e-06 2.2108189815381935e-06 0 -6.9688442416564369e-06 2.7503600809762656e-06 0 -7.4296364332118805e-06 1.5435647769399345e-06 0 -5.5293446022630185e-06 1.6196686592933487e-06 0 -4.9135359344650691e-06 1.4678887809205574e-06 0 -4.0483765167783919e-06 9.0407712655381808e-07 0 -1.978451679364543e-05 -6.184234679374049e-06 0 -2.0256716532718583e-05 -6.176189325238303e-06 0 -1.5672333167839737e-05 -4.0527284368411812e-06 0 -2.1084881309276805e-05 -9.5651618373467557e-06 0 -2.5600880796707578e-05 -1.4574238458207703e-05 0 -2.1385191187029966e-05 -1.1845746454340545e-05 0 -2.4913068017821159e-05 -1.6949519239585173e-05 0 -2.1385191187029966e-05 -1.1845746454340546e-05 0 -2.5600880796707578e-05 -1.4574238458207703e-05 0 -1.978451679364543e-05 -6.184234679374049e-06 0 -1.5672333167839737e-05 -4.0527284368411812e-06 0 -1.5082453065849918e-05 -4.2012944053021077e-06 0 -3.6704484683253879e-05 8.0335603164681865e-05 0 -1.6558141882919679e-05 8.1516607124993234e-05 0 -2.2239732607533305e-05 0.00011055997204184954 0 -7.1516023929380678e-05 0.00026041672720292225 0 -7.1564319142520944e-05 0.00029307431165009483 0 -9.064096381085842e-05 0.00027849201940916468 0 -5.8321841753973212e-05 -0.00012582029112999927 0 -6.0069271768746135e-05 -0.00014116273136018597 0 -5.1706165765079535e-05 -0.00013365051069064127 0 -1.1822432246095773e-05 -1.9009838670065405e-06 0 -9.2482007649441559e-06 -7.9646279566110355e-07 0 -1.1937189844865901e-05 -2.4386016836506057e-06 0 -1.5677622174075809e-09 1.6065573000999691e-10 0 -1.0733062356023785e-06 2.9026012444378791e-07 0 -2.0440162214715683e-06 4.2660775108444646e-07 0 -1.0660848679198638e-05 8.4270459753302501e-06 0 -1.017850498296988e-05 1.2945704340622617e-05 0 -1.4519852264305699e-05 1.3017541625370841e-05 0 -3.1346390283436822e-05 -3.4698911892355523e-05 0 -3.0244770697569474e-05 -2.9424532121722528e-05 0 -3.4697959610799734e-05 -3.5294963746543891e-05 0 -3.4294055406137964e-05 -2.9387704873372603e-05 0 -3.596177321020357e-05 -2.7095582960733513e-05 0 -3.7107366536673059e-05 -3.1965644695893346e-05 0 -4.9943771203422665e-06 8.2826228585088383e-07 0 -6.7919254137488482e-06 4.4963527020823049e-07 0 -6.0865503850559544e-06 1.0178606886316405e-06 0 -6.0071783558673736e-05 -5.4537246957552474e-05 0 -7.0213136801056364e-05 -6.6759819191995246e-05 0 -5.8279983392541507e-05 -6.5173194402449265e-05 0 -6.7062900861828442e-05 -7.5655177093884567e-05 0 -5.8279983392541507e-05 -6.5173194402449265e-05 0 -7.0213136801056364e-05 -6.6759819191995246e-05 0 -1.5511147821494985e-09 -7.1764693281878707e-11 0 -1.5677622174076525e-09 1.6065573001000433e-10 0 -1.3123731100736747e-06 1.3588209967490949e-07 0 -9.9148144764354523e-05 0.00015223602520079621 0 -0.00011003543575064202 0.00013214417106631576 0 -8.6266078581257038e-05 0.0001289963912401855 0 -8.9837892427761709e-05 0.00010512782180223353 0 -8.6266078581257038e-05 0.0001289963912401855 0 -0.00011003543575064202 0.00013214417106631576 0 -4.9843984059998063e-05 -4.6116098838605693e-05 0 -4.7718771101376537e-05 -4.3156706317813995e-05 0 -5.0911888670208894e-05 -4.5074623616214409e-05 0 -3.4390216501094926e-05 -4.605424128659938e-05 0 -3.1554425468373244e-05 -4.0614360456364878e-05 0 -3.3778203419612129e-05 -4.3120107593515031e-05 0 -1.9747662170403903e-05 1.1416887811508408e-05 0 -1.3966590907899087e-05 7.6638888120797974e-06 0 -1.4519852264305699e-05 1.3017541625370841e-05 0 -4.4815628732838833e-05 -4.2465619872322506e-05 0 -4.2382232582427867e-05 -4.1484945165377812e-05 0 -4.2977073545573649e-05 -3.9262720134863015e-05 0 -1.0742613806930538e-05 1.631097376462172e-05 0 -1.130593173554963e-05 2.0889517354273143e-05 0 -8.9361412242938513e-06 2.0710882469820054e-05 0 -1.0680098890253233e-05 8.9262500830205853e-07 0 -8.1735296126372127e-06 1.3187152168159247e-06 0 -1.0236983762348845e-05 2.6806040909288148e-06 0 -3.7911387950795922e-05 2.4331572387110404e-05 0 -2.2883762536239522e-05 1.9025400437059615e-05 0 -3.0793728448551379e-05 2.8984639737910574e-05 0 1.1491323261253303e-05 0.00011207804075125141 0 -7.2629829302088888e-06 0.0001335332814153303 0 -2.2239732607533305e-05 0.00011055997204184954 0 -1.1822432246095773e-05 -1.9009838670065405e-06 0 -9.1954381948446379e-06 -2.9202558105554499e-07 0 -9.2482007649441559e-06 -7.9646279566110334e-07 0 -7.1516023929380678e-05 0.00026041672720292225 0 -5.0983560676437999e-05 0.00027188559809890908 0 -7.1564319142520944e-05 0.00029307431165009483 0 -5.8321841753973212e-05 -0.00012582029112999927 0 -6.7835305579150041e-05 -0.00013197345873569539 0 -6.0069271768746135e-05 -0.00014116273136018597 0 -6.3986457699296072e-06 2.8633035249210931e-07 0 -7.9847865965177983e-06 -4.0454342279732579e-07 0 -9.2482007649441559e-06 -7.9646279566110334e-07 0 -2.3069416372368823e-05 -1.243482434105265e-05 0 -2.7834605852972501e-05 -1.5724509955776524e-05 0 -2.5134107603357922e-05 -1.0530139014683214e-05 0 -3.2255141542648562e-05 0.00024232181238977593 0 -1.2162021954823994e-05 0.00024976207639459665 0 -2.683463705940751e-05 0.00027410113828600652 0 -7.4255644670472211e-05 -0.00011917332921613513 0 -8.4266225448304484e-05 -0.00012427053000077341 0 -7.8971036656361906e-05 -0.00013433565227554539 0 -3.7418117031960552e-05 -1.5194512088126847e-05 0 -4.4473193521863925e-05 -1.9363900999036963e-05 0 -3.689748262969311e-05 -1.50897122039482e-05 0 -6.7995291843664133e-05 2.6668595024501496e-05 0 -5.5682823701629067e-05 1.8804938270849228e-05 0 -5.3893742697515752e-05 1.9017628126992125e-05 0 -2.8329127846051812e-05 3.8552096548368414e-05 0 -3.2930101127063779e-05 5.6243783905218621e-05 0 -4.5554754805013364e-05 6.025269976400956e-05 0 -1.6391166822711619e-05 -4.341277629056804e-06 0 -2.0668951485280562e-05 -6.6392221911488182e-06 0 -1.9108804529819288e-05 -6.1551249467767049e-06 0 -5.5769538611123618e-05 -5.4730401052961192e-05 0 -5.2365044625023665e-05 -5.1825276163562897e-05 0 -5.261835012187535e-05 -4.9282062969674756e-05 0 -5.5769538611123618e-05 -5.4730401052961192e-05 0 -5.261835012187535e-05 -4.9282062969674756e-05 0 -5.478256369824265e-05 -5.221770428787744e-05 0 -3.4684442190317764e-05 -4.2606001180697126e-05 0 -3.2384000824448013e-05 -3.964392952730086e-05 0 -3.4790084101452037e-05 -4.6523777009094329e-05 0 -3.4684442190317764e-05 -4.2606001180697126e-05 0 -3.4790084101452037e-05 -4.6523777009094329e-05 0 -3.6043873276746991e-05 -4.8878378864133739e-05 0 -4.9843984059998063e-05 -4.6116098838605693e-05 0 -4.6164827449302877e-05 -4.4956353301842407e-05 0 -4.7718771101376537e-05 -4.3156706317813995e-05 0 -3.4390216501094926e-05 -4.605424128659938e-05 0 -3.3778203419612129e-05 -4.3120107593515031e-05 0 -3.5831796314604802e-05 -4.7095280762644222e-05 0 -2.1291652239207241e-05 -2.4931832017815571e-05 0 -2.577854924320745e-05 -3.0876027830205358e-05 0 -2.4186796447953306e-05 -2.8790873820111945e-05 0 -4.9108663313099527e-05 -3.8242767847081569e-05 0 -5.092993073225008e-05 -4.2795643211526365e-05 0 -4.7272319167836763e-05 -3.8163929754482734e-05 0 -5.5297674419869983e-06 1.1370810243174689e-06 0 -1.5807325040373004e-05 -6.9851460167924022e-06 0 -1.0262853017017538e-05 -9.7531379714104769e-06 0 -4.6468365047059078e-05 0.00030492183075678632 0 -2.8270665685167947e-05 0.00032534646522641497 0 -5.1638894763640407e-05 0.00033346083322380955 0 -0.0001016517315227284 0.00030697950964043492 0 -9.7644599354592733e-05 0.00033479324867788769 0 -0.00012340235498971831 0.00032935274105229693 0 -7.1423986270222403e-05 -0.00014724280102193748 0 -8.0815828140227473e-05 -0.00015748595576360681 0 -6.9807126453137869e-05 -0.00015992826358809538 0 -4.8830365054138372e-05 -0.00014693776729316505 0 -5.108547860152781e-05 -0.00015955675283986005 0 -4.1895955080357342e-05 -0.00015583697043953485 0 -7.6254548150549133e-06 6.0519191523873967e-07 0 -6.0865503850559544e-06 1.0178606886316405e-06 0 -6.7919254137488482e-06 4.4963527020823049e-07 0 -4.6468365047059078e-05 0.00030492183075678632 0 -2.1169918798859501e-05 0.00029956386995498747 0 -2.8270665685167944e-05 0.00032534646522641497 0 -7.1423986270222403e-05 -0.00014724280102193748 0 -8.3155739917850012e-05 -0.00014647543139589101 0 -8.0815828140227473e-05 -0.00015748595576360681 0 -2.4723157050074077e-05 -4.2852654451231969e-06 0 -2.205591142543811e-05 2.2281233426212299e-07 0 -1.9655809721232963e-05 -3.3744616789621625e-07 0 -0.0001016517315227284 0.00030697950964043492 0 -0.00012340235498971831 0.00032935274105229693 0 -0.00012858767843014016 0.00030405731390083701 0 -4.8830365054138372e-05 -0.00014693776729316505 0 -4.1895955080357342e-05 -0.00015583697043953485 0 -3.8678441294145707e-05 -0.000143606943097376 0 -3.6133662238909138e-05 -7.2055812303539645e-05 0 -2.7180621927050889e-05 -6.3017043650209013e-05 0 -3.3422568528768035e-05 -5.5518910300445678e-05 0 -3.639762095444922e-05 -1.9674564697351252e-05 0 -3.6985944845604546e-05 -2.1960361607729051e-05 0 -3.3517279746288659e-05 -1.5757219353348431e-05 0 -3.4208019918485943e-05 -1.8399590379491786e-05 0 -3.3517279746288659e-05 -1.5757219353348431e-05 0 -3.6985944845604546e-05 -2.1960361607729051e-05 0 -1.2904995736104539e-05 4.6091315686101828e-06 0 -1.4687241172385875e-05 2.9097361711079576e-06 0 -1.0236983762348845e-05 2.6806040909288148e-06 0 -6.5428996171206381e-05 0.0001241710749175247 0 -4.4411172599712326e-05 0.00011601379359827459 0 -5.3686271409771828e-05 0.00014667481976432778 0 -8.4580994938292662e-05 -7.649087633609952e-05 0 -7.6480058941703636e-05 -7.935372094518804e-05 0 -7.0213136801056364e-05 -6.6759819191995246e-05 0 -1.4199789277056744e-05 1.9328267110065717e-05 0 -2.2883762536239525e-05 1.9025400437059615e-05 0 -1.4519852264305699e-05 1.3017541625370841e-05 0 -1.9747662170403903e-05 1.1416887811508408e-05 0 -1.4519852264305699e-05 1.3017541625370841e-05 0 -2.2883762536239525e-05 1.9025400437059615e-05 0 -7.0468208064614351e-06 4.09659792222162e-06 0 -8.1040619831180949e-06 4.3471515169413487e-06 0 -8.2683902142342899e-06 6.7951722226803928e-06 0 -3.7767956144572249e-05 -3.5833035087948857e-05 0 -3.7913468599158826e-05 -3.9142843492751298e-05 0 -3.4697959610799734e-05 -3.5294963746543891e-05 0 -3.5986793961727625e-05 -4.0488527964864701e-05 0 -3.4697959610799734e-05 -3.5294963746543891e-05 0 -3.7913468599158826e-05 -3.9142843492751298e-05 0 -0.00010916648229357788 7.1971734538670535e-05 0 -9.5619332132373965e-05 5.2506907223861331e-05 0 -8.4897384508830927e-05 5.6497349264285433e-05 0 -5.9394675653282543e-05 -3.1818470237924323e-05 0 -6.6702441568500405e-05 -4.0625889626997013e-05 0 -5.4977247865340495e-05 -3.3125890571709076e-05 0 -2.3446277552967829e-09 -4.3604275000782407e-10 0 -1.9624266705137181e-09 -3.3747892164962686e-10 0 -1.83755062446154e-06 -6.0564155800039043e-07 0 -2.1114060650685418e-09 2.795492551568757e-10 0 -2.3820267850949611e-09 2.5899246895178948e-10 0 -2.0783286676030298e-06 4.3860188825771691e-07 0 -1.0660848679198638e-05 8.4270459753302501e-06 0 -7.9412315531632629e-06 5.4724923219960939e-06 0 -8.8704439154343153e-06 8.4624804735726304e-06 0 -9.5195802510570891e-06 5.9945004451227111e-06 0 -8.2683902142342899e-06 6.7951722226803928e-06 0 -8.1040619831180949e-06 4.3471515169413487e-06 0 -7.0468208064614351e-06 4.09659792222162e-06 0 -7.9412315531632629e-06 5.4724923219960931e-06 0 -6.8606163854334764e-06 3.6858142638493552e-06 0 -1.4652224033250777e-05 8.7413804079628218e-07 0 -1.984854003205932e-05 2.7850238712321877e-06 0 -1.5440918222737667e-05 1.8255577393457921e-06 0 -1.1711662659141965e-05 -2.4855360778573473e-06 0 -1.16651076341606e-05 -3.178285417881088e-06 0 -1.5082453065849918e-05 -4.2012944053021077e-06 0 -2.8141960918965787e-05 0.00014417352292218303 0 -2.2239732607533305e-05 0.00011055997204184954 0 -7.2629829302088888e-06 0.0001335332814153303 0 -1.4652224033250777e-05 8.7413804079628218e-07 0 -1.5440918222737663e-05 1.8255577393457917e-06 0 -1.1320493781106366e-05 3.3106934380272006e-07 0 -1.1711662659141965e-05 -2.4855360778573473e-06 0 -8.9003745938236006e-06 -1.7924624416247675e-06 0 -1.16651076341606e-05 -3.178285417881088e-06 0 -4.3486607478125132e-05 -3.5757094748683891e-05 0 -4.5353517283815376e-05 -3.9125524562750796e-05 0 -4.2977073545573649e-05 -3.9262720134863015e-05 0 -3.6704484683253879e-05 8.0335603164681865e-05 0 -2.159969480400369e-05 5.0946055721220528e-05 0 -1.6558141882919679e-05 8.1516607124993234e-05 0 -7.4962584492930904e-06 2.6717819731245186e-06 0 -6.8606163854334764e-06 3.6858142638493552e-06 0 -7.9412315531632646e-06 5.4724923219960939e-06 0 -3.1346390283436822e-05 -3.4698911892355523e-05 0 -2.772796727861395e-05 -3.1287468484382588e-05 0 -3.0244770697569474e-05 -2.9424532121722528e-05 0 -3.7537890132032723e-09 -3.9587710750708219e-10 0 -2.9383125038605863e-09 -6.2647497490883606e-10 0 -2.8773004659288841e-06 -9.3804013704639037e-07 0 -2.757861661325699e-09 2.5716363477946851e-10 0 -3.2475114644124576e-09 2.9949272334789951e-11 0 -2.6610553421118264e-06 2.0193121423599348e-07 0 -2.4440847136409272e-05 -9.461746830016049e-06 0 -3.0849437334286612e-05 -1.1976506182972028e-05 0 -2.5103134865115349e-05 -8.867578395534909e-06 0 -4.456448624246217e-05 1.344064050318109e-05 0 -3.4349034505061005e-05 9.8808156251848452e-06 0 -3.5785842792295856e-05 8.9565728455488574e-06 0 -3.4694151372862687e-05 -2.7290051234783605e-05 0 -3.8162013791303235e-05 -2.4552062595923326e-05 0 -4.1627269217322568e-05 -3.1573836028167495e-05 0 -1.8798558049849754e-05 -5.4467869037889365e-05 0 -2.5614576179054056e-05 -4.9312679414107695e-05 0 -2.7180621927050889e-05 -6.3017043650209e-05 0 -2.1251704350444618e-05 -5.1550731933805249e-06 0 -2.116289612895938e-05 -8.1566875639420498e-06 0 -2.5134107603357922e-05 -1.0530139014683214e-05 0 -1.1215215470913261e-05 9.3794827030478842e-07 0 -1.0877120949850915e-05 3.5707564750877517e-06 0 -8.9649356366420269e-06 2.2108189815381935e-06 0 -1.3348225758019316e-05 1.0831231296299179e-06 0 -1.0877120949850915e-05 3.5707564750877517e-06 0 -1.1215215470913261e-05 9.3794827030478842e-07 0 -9.1054680711968939e-06 1.0407595187268142e-05 0 -1.017850498296988e-05 1.2945704340622617e-05 0 -8.8704439154343153e-06 8.4624804735726304e-06 0 -1.0660848679198638e-05 8.4270459753302501e-06 0 -8.8704439154343153e-06 8.4624804735726304e-06 0 -1.017850498296988e-05 1.2945704340622617e-05 0 -3.5768319465179408e-05 -4.3943626422383985e-05 0 -3.8054910760199671e-05 -4.6946632295319165e-05 0 -3.5831796314604802e-05 -4.7095280762644222e-05 0 -4.3182699938872786e-05 -2.7519554374050275e-05 0 -4.0178814626595544e-05 -2.5195195221296518e-05 0 -3.8665126787449324e-05 -2.2262528841231374e-05 0 -2.3069416372368823e-05 -1.243482434105265e-05 0 -2.3839337572155464e-05 -1.729991814407307e-05 0 -2.7834605852972501e-05 -1.5724509955776524e-05 0 -2.4761716380624339e-05 -2.2772206913059113e-05 0 -2.7834605852972505e-05 -1.5724509955776524e-05 0 -2.3839337572155464e-05 -1.729991814407307e-05 0 -1.832445494614484e-05 -7.4473567411511841e-06 0 -2.4440847136409276e-05 -9.461746830016049e-06 0 -2.0639136942452146e-05 -7.281436674851812e-06 0 -3.4349034505061005e-05 9.8808156251848452e-06 0 -2.5070088526234661e-05 7.4261011527559209e-06 0 -2.8753157291249968e-05 6.8522912709518434e-06 0 -3.9862489587452311e-05 -5.2014260865064895e-05 0 -3.7425662912500862e-05 -5.2283021719877294e-05 0 -3.9001757409102567e-05 -4.9755937610093434e-05 0 -2.2883762536239525e-05 1.9025400437059615e-05 0 -2.1141903511842477e-05 2.5699736955470531e-05 0 -3.0793728448551379e-05 2.8984639737910574e-05 0 -5.5293446022630185e-06 1.6196686592933487e-06 0 -5.9685511452513393e-06 2.5936943237450634e-06 0 -4.9135359344650691e-06 1.4678887809205574e-06 0 -6.3783222740952528e-06 -5.1988982386968094e-07 0 -9.7919972728852306e-06 -3.5768900688678438e-07 0 -1.1320493781106366e-05 3.3106934380272006e-07 0 -5.120573746094019e-06 -6.2287876171836974e-07 0 -8.9003745938236006e-06 -1.7924624416247677e-06 0 -8.0983791049936076e-06 -1.1632784877694377e-06 0 -6.3986457699296072e-06 2.8633035249210931e-07 0 -6.3640307189530089e-06 1.112254540858357e-07 0 -7.9847865965177983e-06 -4.0454342279732579e-07 0 -2.1251704350444618e-05 -5.1550731933805249e-06 0 -2.2975519492012869e-05 -4.4151007988513774e-06 0 -1.9655809721232963e-05 -3.3744616789621625e-07 0 -3.1413625508787872e-05 -3.9129810821617032e-05 0 -3.300129633972683e-05 -3.899198370268257e-05 0 -3.3778203419612129e-05 -4.3120107593515031e-05 0 -9.5560091331175238e-06 -1.1272810028057713e-06 0 -7.9847865965177966e-06 -4.0454342279732574e-07 0 -6.3640307189530089e-06 1.112254540858357e-07 0 -0.00015070657598580787 0.00021426639422385347 0 -0.00011949340049458844 0.00019736956361781168 0 -0.00012786227831406902 0.00022655503146053592 0 -2.1705611504745657e-05 -9.7146734114221772e-05 0 -3.3194554740605476e-05 -9.2497325194500226e-05 0 -3.258042135085561e-05 -0.00010578130790393111 0 -2.0167050658070168e-05 -8.2684084219685245e-05 0 -2.959130567276324e-05 -7.8541563686018102e-05 0 -3.3194554740605476e-05 -9.2497325194500226e-05 0 -3.0198632310605694e-05 -1.2681219700968143e-05 0 -2.724272828228125e-05 -7.2133766747737715e-06 0 -2.9557902181495483e-05 -1.0648633562134502e-05 0 -4.3182699938872786e-05 -2.7519554374050275e-05 0 -4.3419207125267816e-05 -2.9734750084728755e-05 0 -4.0178814626595544e-05 -2.5195195221296518e-05 0 -1.1822432246095773e-05 -1.9009838670065405e-06 0 -1.5490167679661418e-05 -4.8243921212962519e-06 0 -1.3522932185092689e-05 -2.4495648838384648e-06 0 -2.4723157050074077e-05 -4.2852654451231969e-06 0 -1.9655809721232963e-05 -3.3744616789621625e-07 0 -2.2975519492012866e-05 -4.4151007988513766e-06 0 -8.7973001101662254e-07 0.0003212449637782827 0 -1.8325185731971037e-05 0.00033761211919747838 0 -2.8270665685167944e-05 0.00032534646522641497 0 -9.4401659112593083e-05 -0.00015898797349348399 0 -8.630926993067047e-05 -0.00016418303914983809 0 -8.0815828140227473e-05 -0.00015748595576360681 0 -3.0950985176317241e-05 -0.00015335172488178711 0 -4.1895955080357342e-05 -0.00015583697043953485 0 -3.8147301214204281e-05 -0.00016106542565312524 0 -0.00015436593619643142 0.00033272150361064018 0 -0.00012340235498971831 0.00032935274105229693 0 -0.00013591395079615214 0.00034460064225758677 0 -1.4056203916153947e-05 -1.2703004919148156e-06 0 -1.1267689540798746e-05 -5.5107525803116302e-07 0 -1.3522932185092689e-05 -2.4495648838384648e-06 0 -1.1822432246095773e-05 -1.9009838670065405e-06 0 -1.3522932185092689e-05 -2.4495648838384648e-06 0 -1.1267689540798746e-05 -5.5107525803116302e-07 0 -1.8706231812713424e-05 -9.0691231742966891e-06 0 -1.5490167679661418e-05 -4.8243921212962511e-06 0 -1.6262787681378738e-05 -6.1198715627272528e-06 0 -5.2180626587826958e-05 2.1881023798915413e-05 0 -5.3893742697515752e-05 1.9017628126992125e-05 0 -4.0387423205621993e-05 1.3245438572851422e-05 0 -4.3646267093100182e-05 1.25500900106249e-05 0 -4.0387423205621993e-05 1.3245438572851422e-05 0 -5.3893742697515752e-05 1.9017628126992125e-05 0 -1.9747662170403903e-05 1.1416887811508408e-05 0 -2.4187308371982586e-05 9.8243874998634222e-06 0 -1.7444753507021123e-05 6.4916659007497677e-06 0 -2.1084881309276805e-05 -9.5651618373467557e-06 0 -1.6443283912601743e-05 -5.674220093458325e-06 0 -1.8007470641279179e-05 -6.0961034321578494e-06 0 -2.3069416372368823e-05 -1.243482434105265e-05 0 -2.1728483326240832e-05 -1.3867462372139921e-05 0 -2.3839337572155464e-05 -1.729991814407307e-05 0 -1.1711662659141965e-05 -2.4855360778573473e-06 0 -9.3038470265407381e-06 -1.2315559599797927e-06 0 -8.0983791049936076e-06 -1.1632784877694377e-06 0 -5.5935992604224649e-06 -2.8544420830422296e-07 0 -8.0983791049936076e-06 -1.1632784877694377e-06 0 -9.3038470265407398e-06 -1.2315559599797929e-06 0 -6.3298316148255357e-06 -9.5309365966972926e-07 0 -1.025611929947978e-05 -2.379268292052557e-07 0 -9.7919972728852306e-06 -3.5768900688678422e-07 0 -1.4652224033250777e-05 8.7413804079628218e-07 0 -9.7919972728852289e-06 -3.5768900688678443e-07 0 -1.025611929947978e-05 -2.379268292052557e-07 0 -6.7062900861828442e-05 -7.5655177093884567e-05 0 -7.394944304735532e-05 -8.9668115438306262e-05 0 -6.3074128644460196e-05 -8.355505943841866e-05 0 -6.4618478613983471e-05 -9.5997800956904543e-05 0 -6.3074128644460196e-05 -8.355505943841866e-05 0 -7.394944304735532e-05 -8.9668115438306262e-05 0 -2.5543216422725119e-06 -9.2308380447708169e-07 0 -1.83755062446154e-06 -6.0564155800039043e-07 0 -4.296836898752692e-06 -7.1777740070566188e-07 0 -2.9719871889588792e-06 -4.3587137946424205e-07 0 -4.296836898752692e-06 -7.1777740070566188e-07 0 -1.83755062446154e-06 -6.0564155800039043e-07 0 -3.6848914829901933e-06 5.4131725833555193e-07 0 -2.0783286676030298e-06 4.3860188825771691e-07 0 -4.5250918827378107e-06 3.5775101107793201e-07 0 -2.5953285416551665e-06 3.7512811363448282e-07 0 -4.5250918827378107e-06 3.5775101107793201e-07 0 -2.0783286676030298e-06 4.3860188825771691e-07 0 -7.1516023929380678e-05 0.00026041672720292225 0 -5.3306544818783879e-05 0.00024294518761258505 0 -5.0983560676437999e-05 0.00027188559809890908 0 -5.8321841753973212e-05 -0.00012582029112999927 0 -6.4896528132575809e-05 -0.00011844337054217883 0 -6.7835305579150041e-05 -0.00013197345873569539 0 -1.1145140869521539e-05 -1.8533926356589899e-06 0 -8.6127117665479628e-06 -8.6116207665810339e-07 0 -9.3038470265407398e-06 -1.2315559599797929e-06 0 -1.0680098890253233e-05 8.9262500830205853e-07 0 -1.025611929947978e-05 -2.379268292052557e-07 0 -8.4141795064266308e-06 -1.3267265882434677e-07 0 -2.1084881309276805e-05 -9.5651618373467557e-06 0 -2.1385191187029966e-05 -1.1845746454340545e-05 0 -1.8059647758242703e-05 -7.7978928397756402e-06 0 -1.1711662659141965e-05 -2.4855360778573473e-06 0 -1.3135599328477191e-05 -2.7727909262900286e-06 0 -9.3038470265407398e-06 -1.2315559599797929e-06 0 -1.4652224033250777e-05 8.7413804079628218e-07 0 -1.025611929947978e-05 -2.379268292052557e-07 0 -1.4898057264753205e-05 1.2130701379385767e-06 0 -2.4761716380624339e-05 -2.2772206913059113e-05 0 -3.1058748880719792e-05 -1.7230651197724914e-05 0 -2.7834605852972501e-05 -1.5724509955776524e-05 0 -1.1822432246095773e-05 -1.9009838670065405e-06 0 -1.3813748865283726e-05 -3.7890892083548684e-06 0 -1.5490167679661418e-05 -4.8243921212962519e-06 0 -4.1836479837557261e-09 -9.741934532180866e-10 0 -3.7537890132032723e-09 -3.9587710750708219e-10 0 -3.0947582225501236e-06 -7.1539190355882736e-07 0 -3.2475114644124576e-09 2.9949272334789951e-11 0 -3.3954741856083835e-09 3.5218819844526931e-10 0 -2.6342525257239417e-06 -2.5838492503402766e-08 0 -1.4199789277056744e-05 1.9328267110065717e-05 0 -1.4519852264305699e-05 1.3017541625370841e-05 0 -1.017850498296988e-05 1.2945704340622617e-05 0 -4.0200692373403702e-05 -4.6835525863538791e-05 0 -4.1156915481210951e-05 -4.9475231978855087e-05 0 -3.9001757409102567e-05 -4.9755937610093434e-05 0 -2.1084881309276805e-05 -9.5651618373467557e-06 0 -2.2290186406553684e-05 -8.9622479466631959e-06 0 -2.6324121410889586e-05 -1.2768358878279877e-05 0 -3.3422568528768035e-05 -5.5518910300445678e-05 0 -2.7180621927050889e-05 -6.3017043650209e-05 0 -2.5614576179054056e-05 -4.9312679414107695e-05 0 -1.4056203916153947e-05 -1.2703004919148156e-06 0 -1.1215215470913261e-05 9.3794827030478842e-07 0 -1.1267689540798746e-05 -5.5107525803116302e-07 0 -1.8243288140829042e-05 -6.522398321988278e-06 0 -1.5770155106956531e-05 -3.8766536030065442e-06 0 -1.5490167679661418e-05 -4.8243921212962519e-06 0 -1.0138099423621966e-05 9.8909766645786873e-07 0 -1.4991443879937139e-05 3.4512900240324017e-06 0 -7.2161817563919729e-06 1.6356680324707838e-06 0 -7.7027301103262942e-06 -2.0563374256597512e-06 0 -5.4132181552085802e-06 -2.0628585306287601e-06 0 -1.1127680513859745e-05 -4.1317626866285801e-06 0 -2.4913068017821159e-05 -1.6949519239585173e-05 0 -2.4610415806527203e-05 -1.9744939377570403e-05 0 -2.1728483326240832e-05 -1.3867462372139921e-05 0 -8.9649356366420269e-06 2.2108189815381935e-06 0 -8.9883146918212544e-06 7.3940437725721253e-07 0 -1.1215215470913261e-05 9.3794827030478842e-07 0 -1.4807344886277114e-05 -4.6997551842259193e-06 0 -1.6443283912601743e-05 -5.6742200934583259e-06 0 -1.8059647758242703e-05 -7.7978928397756402e-06 0 -3.6171560285803467e-05 -1.5978266743184847e-05 0 -3.7781196109625612e-05 -1.9790937088919918e-05 0 -3.1332721721340342e-05 -1.4889062105753977e-05 0 -0.00014659867438329447 0.00018305696153141882 0 -0.00012085073696348198 0.00016913947149036087 0 -0.00011949340049458844 0.00019736956361781168 0 -2.4913068017821159e-05 -1.6949519239585173e-05 0 -2.5600880796707578e-05 -1.4574238458207703e-05 0 -3.005622350597828e-05 -1.9960702191819846e-05 0 -2.9557902181495483e-05 -1.0648633562134502e-05 0 -3.3517279746288659e-05 -1.5757219353348431e-05 0 -3.1878473578595761e-05 -1.4496509598046881e-05 0 -2.1084881309276805e-05 -9.5651618373467557e-06 0 -2.6324121410889586e-05 -1.2768358878279877e-05 0 -2.5600880796707578e-05 -1.4574238458207703e-05 0 -1.1267689540798746e-05 -5.5107525803116302e-07 0 -1.1215215470913261e-05 9.3794827030478842e-07 0 -8.9883146918212544e-06 7.3940437725721253e-07 0 -3.639762095444922e-05 -1.9674564697351252e-05 0 -3.8665126787449324e-05 -2.2262528841231374e-05 0 -4.0178814626595544e-05 -2.5195195221296518e-05 0 -1.4199789277056744e-05 1.9328267110065717e-05 0 -8.9361412242938513e-06 2.0710882469820054e-05 0 -1.4325800201695146e-05 2.8572789292153558e-05 0 -2.1084881309276805e-05 -9.5651618373467557e-06 0 -1.8007470641279179e-05 -6.0961034321578494e-06 0 -2.2290186406553684e-05 -8.9622479466631959e-06 0 -0.00015315741249124674 0.00024521365172596723 0 -0.00015070657598580787 0.00021426639422385347 0 -0.00012786227831406902 0.00022655503146053592 0 -2.1705611504745657e-05 -9.7146734114221772e-05 0 -3.258042135085561e-05 -0.00010578130790393111 0 -2.3669006658743859e-05 -0.00011172922036242721 0 -1.9102849426225346e-05 -6.8467812425560616e-05 0 -2.959130567276324e-05 -7.8541563686018102e-05 0 -2.0167050658070168e-05 -8.2684084219685245e-05 0 -3.7911387950795922e-05 2.4331572387110404e-05 0 -5.293490347863787e-05 2.9048285583765349e-05 0 -4.3193135456400035e-05 1.9816454402342042e-05 0 -5.5297674419869983e-06 1.1370810243174689e-06 0 -1.5559778510218396e-05 9.9063589118358066e-06 0 -1.5807325040373004e-05 -6.9851460167924022e-06 0 -3.6171560285803467e-05 -1.5978266743184847e-05 0 -3.689748262969311e-05 -1.50897122039482e-05 0 -4.2432856947841135e-05 -1.8851649016290675e-05 0 -5.2180626587826958e-05 2.1881023798915413e-05 0 -6.3525532285397399e-05 2.6005341401886873e-05 0 -5.3893742697515752e-05 1.9017628126992125e-05 0 -3.6171560285803467e-05 -1.5978266743184847e-05 0 -4.2432856947841135e-05 -1.8851649016290675e-05 0 -4.4199050581029167e-05 -2.17540063606231e-05 0 -5.2180626587826958e-05 2.1881023798915413e-05 0 -6.5671539267521455e-05 3.2115362921391575e-05 0 -6.3525532285397399e-05 2.6005341401886873e-05 0 -7.7027301103262942e-06 -2.0563374256597512e-06 0 -3.7688326324819736e-06 -7.8219326128394621e-07 0 -5.4132181552085802e-06 -2.0628585306287601e-06 0 -1.0138099423621966e-05 9.8909766645786873e-07 0 -7.2161817563919729e-06 1.6356680324707838e-06 0 -4.9090166046085428e-06 5.1354417857952779e-08 0 -1.8243288140829042e-05 -6.522398321988278e-06 0 -2.0245782703823744e-05 -1.0119282745071685e-05 0 -2.116289612895938e-05 -8.1566875639420498e-06 0 -2.3069416372368823e-05 -1.243482434105265e-05 0 -2.116289612895938e-05 -8.1566875639420498e-06 0 -2.0245782703823744e-05 -1.0119282745071685e-05 0 -5.092993073225008e-05 -4.2795643211526365e-05 0 -5.0048793240571819e-05 -4.257381295339943e-05 0 -4.7272319167836763e-05 -3.8163929754482734e-05 0 -2.4186796447953306e-05 -2.8790873820111945e-05 0 -2.577854924320745e-05 -3.0876027830205358e-05 0 -2.8176946207967538e-05 -3.4880168271256261e-05 0 -1.0262853017017538e-05 -9.7531379714104769e-06 0 -1.5807325040373004e-05 -6.9851460167924013e-06 0 -1.721867152836404e-05 -1.5558980907201258e-05 0 -2.1291652239207241e-05 -2.4931832017815571e-05 0 -2.2671055207476371e-05 -2.6077547350795081e-05 0 -2.577854924320745e-05 -3.0876027830205358e-05 0 -4.9108663313099527e-05 -3.8242767847081569e-05 0 -4.7272319167836763e-05 -3.8163929754482734e-05 0 -4.5702219085199537e-05 -3.4105305497729998e-05 0 -2.1084881309276805e-05 -9.5651618373467557e-06 0 -1.8059647758242703e-05 -7.7978928397756385e-06 0 -1.6443283912601743e-05 -5.674220093458325e-06 0 -1.8706231812713424e-05 -9.0691231742966891e-06 0 -2.1728483326240832e-05 -1.3867462372139921e-05 0 -2.0245782703823744e-05 -1.0119282745071685e-05 0 -2.3069416372368823e-05 -1.243482434105265e-05 0 -2.0245782703823744e-05 -1.0119282745071685e-05 0 -2.1728483326240832e-05 -1.3867462372139921e-05 0 -1.4056203916153947e-05 -1.2703004919148156e-06 0 -1.785933815122063e-05 -4.2904698755174676e-06 0 -1.6872341571669248e-05 -1.0424357982970416e-06 0 -0.00014659867438329447 0.00018305696153141882 0 -0.00014037182265752777 0.00015207183281023778 0 -0.00012085073696348198 0.00016913947149036087 0 -2.4723157050074077e-05 -4.2852654451231969e-06 0 -2.2975519492012866e-05 -4.4151007988513766e-06 0 -2.6237648752152242e-05 -8.1335624360557806e-06 0 -2.8329127846051812e-05 3.8552096548368414e-05 0 -2.1141903511842477e-05 2.5699736955470531e-05 0 -1.4325800201695146e-05 2.8572789292153558e-05 0 -1.4199789277056744e-05 1.9328267110065717e-05 0 -1.4325800201695146e-05 2.8572789292153558e-05 0 -2.1141903511842477e-05 2.5699736955470531e-05 0 -1.8798558049849754e-05 -5.4467869037889365e-05 0 -2.7180621927050889e-05 -6.3017043650209e-05 0 -1.9102849426225346e-05 -6.8467812425560616e-05 0 -8.1509578198691191e-05 3.7372927742989732e-05 0 -6.3525532285397399e-05 2.6005341401886873e-05 0 -6.5671539267521455e-05 3.2115362921391575e-05 0 -5.1870882434098133e-05 -2.4730767532892954e-05 0 -4.419905058102916e-05 -2.1754006360623097e-05 0 -4.2432856947841135e-05 -1.8851649016290675e-05 0 -2.1251704350444618e-05 -5.1550731933805249e-06 0 -2.6237648752152242e-05 -8.1335624360557789e-06 0 -2.2975519492012866e-05 -4.4151007988513766e-06 0 -8.9864139590492369e-05 0.00019623960100322558 0 -0.00011949340049458844 0.00019736956361781168 0 -0.00010155513977066073 0.0001742256903665526 0 -8.9864139590492369e-05 0.00019623960100322558 0 -0.00010742756021053798 0.00021737443897082537 0 -0.00011949340049458844 0.00019736956361781168 0 -4.4592839054843978e-05 -9.4119061605957177e-05 0 -3.9949076596713449e-05 -0.00010293764897720388 0 -3.3194554740605476e-05 -9.2497325194500226e-05 0 -4.4592839054843978e-05 -9.4119061605957177e-05 0 -3.319455474060547e-05 -9.2497325194500213e-05 0 -3.7778493356451886e-05 -8.4050843929442385e-05 0 -2.3669006658743859e-05 -0.00011172922036242721 0 -3.3323564716043919e-05 -0.00011875336858677007 0 -2.6115126559462762e-05 -0.00012637341861056233 0 -0.00015415764858644782 0.00027548661495111929 0 -0.00015315741249124674 0.00024521365172596723 0 -0.00013211580678157433 0.00025394606282718796 0 -6.769715465337171e-06 -2.0345433269755162e-07 0 -5.5434872293202815e-06 -6.3852188889671205e-09 0 -8.6127117665479645e-06 -8.611620766581035e-07 0 -6.1442442625454751e-06 -5.8699850806800334e-07 0 -8.4141795064266308e-06 -1.3267265882434677e-07 0 -5.3808174837412379e-06 -1.0504562264641914e-06 0 -4.4592839054843978e-05 -9.4119061605957177e-05 0 -5.230487719846282e-05 -9.5323079550718194e-05 0 -4.7981993788264775e-05 -0.00010674425045334816 0 -4.4592839054843978e-05 -9.4119061605957177e-05 0 -4.4954195986424711e-05 -8.2714155419618413e-05 0 -5.230487719846282e-05 -9.5323079550718194e-05 0 -5.7892194735510372e-05 -0.00010932867639220708 0 -4.7981993788264775e-05 -0.00010674425045334816 0 -5.230487719846282e-05 -9.5323079550718194e-05 0 -5.3939739817407666e-05 -8.2811753544808126e-05 0 -5.230487719846282e-05 -9.5323079550718194e-05 0 -4.4954195986424711e-05 -8.2714155419618413e-05 0 -8.9864139590492369e-05 0.00019623960100322558 0 -7.0147099821303653e-05 0.00019797966614178714 0 -8.9393035854733139e-05 0.00022426822550301184 0 -6.6177070548779451e-05 0.00022372186860567412 0 -8.9393035854733139e-05 0.00022426822550301184 0 -7.0147099821303653e-05 0.00019797966614178714 0 -3.2475114644124576e-09 2.9949272334789951e-11 0 -2.6342525257239417e-06 -2.5838492503402766e-08 0 -2.6610553421118264e-06 2.0193121423599348e-07 0 -3.7537890132032723e-09 -3.9587710750708219e-10 0 -2.8773004659288841e-06 -9.3804013704639037e-07 0 -3.0947582225501236e-06 -7.1539190355882736e-07 0 -5.8445297838905266e-05 -4.282486990974091e-05 0 -4.8155912511927276e-05 -3.2558345311384435e-05 0 -5.4977247865340495e-05 -3.3125890571709076e-05 0 -8.9009388145114317e-05 7.6831484955762109e-05 0 -8.4897384508830927e-05 5.6497349264285433e-05 0 -7.1315517608485564e-05 5.4661934226227395e-05 0 -2.5252606776929772e-05 -8.9025014246355322e-06 0 -3.1469556331317622e-05 -1.2371643001040417e-05 0 -2.9421354639735596e-05 -1.2009126227357746e-05 0 -7.6254548150549133e-06 6.0519191523873967e-07 0 -9.1954381948446379e-06 -2.9202558105554489e-07 0 -8.9883146918212544e-06 7.3940437725721253e-07 0 -3.7209910351572773e-05 -4.9105648520202063e-05 0 -3.5831796314604802e-05 -4.7095280762644222e-05 0 -3.8054910760199671e-05 -4.6946632295319165e-05 0 -2.6920250998768451e-05 5.2861674015031978e-06 0 -3.2374701586109872e-05 7.5269318791108148e-06 0 -3.5785842792295856e-05 8.9565728455488574e-06 0 -4.3646267093100182e-05 1.25500900106249e-05 0 -3.5785842792295856e-05 8.9565728455488574e-06 0 -3.2374701586109872e-05 7.5269318791108156e-06 0 -4.3972592552185586e-06 8.2029241481888818e-07 0 -4.0671551457823349e-06 2.7784180968380549e-08 0 -3.0458491550545106e-06 -5.2708126717018637e-09 0 -1.4553597883041288e-05 -1.6153429144012118e-05 0 -2.0966127015813203e-05 -2.2094530276750714e-05 0 -1.8018059272518967e-05 -2.0819650636635621e-05 0 -5.1870882434098133e-05 -2.4730767532892954e-05 0 -5.1247543354462802e-05 -2.7367220273784399e-05 0 -4.4199050581029167e-05 -2.17540063606231e-05 0 -8.1509578198691191e-05 3.7372927742989732e-05 0 -6.5671539267521441e-05 3.2115362921391575e-05 0 -7.889040388381467e-05 4.3188159806084124e-05 0 -3.2893631440125764e-05 -1.8814949440170513e-05 0 -3.4319291388820375e-05 -1.7331424314038784e-05 0 -3.1058748880719792e-05 -1.7230651197724914e-05 0 -1.4652224033250777e-05 8.7413804079628218e-07 0 -1.4898057264753205e-05 1.2130701379385767e-06 0 -2.1483425985123678e-05 3.1711636858371799e-06 0 -1.8474720007060984e-05 3.2421767310379331e-06 0 -2.1483425985123678e-05 3.1711636858371804e-06 0 -1.4898057264753205e-05 1.2130701379385767e-06 0 -3.6704484683253879e-05 8.0335603164681865e-05 0 -3.2930101127063779e-05 5.6243783905218621e-05 0 -2.159969480400369e-05 5.0946055721220528e-05 0 -3.4349034505061005e-05 9.8808156251848452e-06 0 -2.8753157291249968e-05 6.8522912709518434e-06 0 -3.5785842792295856e-05 8.9565728455488574e-06 0 -2.4440847136409272e-05 -9.461746830016049e-06 0 -2.5103134865115349e-05 -8.867578395534909e-06 0 -2.0639136942452146e-05 -7.281436674851812e-06 0 -3.7767956144572249e-05 -3.5833035087948857e-05 0 -3.7107366536673059e-05 -3.1965644695893346e-05 0 -4.0512027125529403e-05 -3.5881159300756313e-05 0 -3.9408054071159767e-05 -3.1595661691136248e-05 0 -4.0512027125529403e-05 -3.5881159300756313e-05 0 -3.7107366536673059e-05 -3.1965644695893346e-05 0 -1.4056203916153947e-05 -1.2703004919148156e-06 0 -1.3348225758019316e-05 1.0831231296299179e-06 0 -1.1215215470913261e-05 9.3794827030478842e-07 0 -1.9747662170403903e-05 1.1416887811508408e-05 0 -1.7444753507021123e-05 6.4916659007497669e-06 0 -1.3966590907899087e-05 7.6638888120797974e-06 0 -7.0468208064614351e-06 4.09659792222162e-06 0 -6.9688442416564369e-06 2.7503600809762656e-06 0 -8.1040619831180949e-06 4.3471515169413487e-06 0 -2.8329127846051812e-05 3.8552096548368414e-05 0 -2.159969480400369e-05 5.0946055721220528e-05 0 -3.2930101127063779e-05 5.6243783905218621e-05 0 -3.6171560285803467e-05 -1.5978266743184847e-05 0 -3.1332721721340342e-05 -1.4889062105753977e-05 0 -2.9421354639735596e-05 -1.2009126227357746e-05 0 -1.4807344886277114e-05 -4.6997551842259193e-06 0 -1.1937189844865901e-05 -2.4386016836506057e-06 0 -1.2567379318056488e-05 -2.8227507290678259e-06 0 1.1491323261253303e-05 0.00011207804075125141 0 1.2593331001443661e-05 0.00014260042088917762 0 -7.2629829302088888e-06 0.0001335332814153303 0 -8.8517568921455756e-05 -9.060699510624226e-05 0 -7.394944304735532e-05 -8.9668115438306262e-05 0 -7.6480058941703636e-05 -7.935372094518804e-05 0 -8.1509578198691191e-05 3.7372927742989732e-05 0 -6.7995291843664133e-05 2.6668595024501496e-05 0 -6.3525532285397399e-05 2.6005341401886873e-05 0 -4.4473193521863925e-05 -1.9363900999036963e-05 0 -5.1870882434098133e-05 -2.4730767532892954e-05 0 -4.2432856947841135e-05 -1.8851649016290675e-05 0 -1.9655809721232963e-05 -3.3744616789621625e-07 0 -2.205591142543811e-05 2.2281233426212299e-07 0 -1.669736023894002e-05 4.5856208307107065e-06 0 -1.4652224033250777e-05 8.7413804079628218e-07 0 -2.1483425985123678e-05 3.1711636858371799e-06 0 -1.984854003205932e-05 2.7850238712321877e-06 0 -2.6920250998768451e-05 5.2861674015031978e-06 0 -1.984854003205932e-05 2.7850238712321877e-06 0 -2.1483425985123678e-05 3.1711636858371799e-06 0 -9.1054680711968939e-06 1.0407595187268142e-05 0 -9.4838837575243051e-06 1.4661015460901779e-05 0 -1.017850498296988e-05 1.2945704340622617e-05 0 -7.7531697209921849e-05 -0.00010499637406317592 0 -7.394944304735532e-05 -8.9668115438306262e-05 0 -8.2870490146199884e-05 -9.7751163219418768e-05 0 -4.3159890374037314e-05 -3.1233314609617198e-05 0 -4.162032906426001e-05 -3.1344450179926835e-05 0 -4.0280614556014057e-05 -2.7054602594933532e-05 0 8.7811736937992248e-06 0.00023385995191562822 0 5.84325953833913e-06 0.00026416029113673711 0 -1.2162021954823994e-05 0.00024976207639459665 0 -9.3298594080758722e-05 -0.00011933499558184776 0 -9.4158993825499667e-05 -0.00013323485939972351 0 -8.4266225448304498e-05 -0.00012427053000077341 0 -3.7911387950795922e-05 2.4331572387110404e-05 0 -2.7285436401018685e-05 1.5827305253350035e-05 0 -2.2883762536239525e-05 1.9025400437059615e-05 0 -2.4913068017821159e-05 -1.6949519239585173e-05 0 -2.9120509047131893e-05 -2.3350556445569745e-05 0 -2.4610415806527203e-05 -1.9744939377570403e-05 0 -3.1437571191846897e-05 -1.7608614813156899e-05 0 -3.005622350597828e-05 -1.9960702191819846e-05 0 -2.5600880796707578e-05 -1.4574238458207703e-05 0 -0.00015315741249124674 0.00024521365172596723 0 -0.00012786227831406902 0.00022655503146053592 0 -0.00013211580678157433 0.00025394606282718796 0 -2.3669006658743859e-05 -0.00011172922036242721 0 -3.258042135085561e-05 -0.00010578130790393111 0 -3.3323564716043919e-05 -0.00011875336858677007 0 -1.4756360580358727e-05 -4.0635628712364849e-06 0 -1.1826344227037721e-05 -2.2563937828807391e-06 0 -1.4723553280624013e-05 -3.6346712678847752e-06 0 -1.4199789277056744e-05 1.9328267110065717e-05 0 -2.1141903511842477e-05 2.5699736955470531e-05 0 -2.2883762536239525e-05 1.9025400437059615e-05 0 -3.6171560285803467e-05 -1.5978266743184847e-05 0 -3.1469556331317622e-05 -1.2371643001040415e-05 0 -3.689748262969311e-05 -1.50897122039482e-05 0 -3.8550868835478282e-05 -2.244276905796238e-05 0 -4.3182699938872786e-05 -2.7519554374050275e-05 0 -3.8665126787449324e-05 -2.2262528841231374e-05 0 -1.6391166822711619e-05 -4.341277629056804e-06 0 -1.5672333167839737e-05 -4.0527284368411812e-06 0 -2.0256716532718583e-05 -6.176189325238303e-06 0 -8.4580994938292662e-05 -7.649087633609952e-05 0 -8.8517568921455742e-05 -9.060699510624226e-05 0 -7.6480058941703636e-05 -7.935372094518804e-05 0 -2.9730631774697683e-05 -1.0967461405381308e-05 0 -2.4076702259592825e-05 -8.086162485760173e-06 0 -2.5103134865115349e-05 -8.867578395534909e-06 0 -1.978451679364543e-05 -6.184234679374049e-06 0 -2.5103134865115349e-05 -8.867578395534909e-06 0 -2.4076702259592825e-05 -8.086162485760173e-06 0 -9.9148144764354523e-05 0.00015223602520079621 0 -7.9399153404308533e-05 0.00015679788273246145 0 -0.00010155513977066073 0.0001742256903665526 0 -2.5543216422725119e-06 -9.2308380447708169e-07 0 -5.3808174837412379e-06 -1.0504562264641914e-06 0 -2.8773004659288841e-06 -9.3804013704639037e-07 0 -6.3298316148255357e-06 -9.5309365966972926e-07 0 -2.8773004659288841e-06 -9.3804013704639037e-07 0 -5.3808174837412379e-06 -1.0504562264641914e-06 0 -5.5935992604224649e-06 -2.8544420830422296e-07 0 -5.5434872293202815e-06 -6.3852188889671048e-09 0 -2.6610553421118264e-06 2.0193121423599348e-07 0 -2.5953285416551665e-06 3.7512811363448282e-07 0 -2.6610553421118264e-06 2.0193121423599348e-07 0 -5.5434872293202815e-06 -6.3852188889671048e-09 0 -1.8706231812713424e-05 -9.0691231742966891e-06 0 -1.8059647758242703e-05 -7.7978928397756402e-06 0 -2.1385191187029966e-05 -1.1845746454340545e-05 0 -2.5305034261314081e-05 -4.1130805031808887e-06 0 -2.724272828228125e-05 -7.2133766747737715e-06 0 -2.8059423722125373e-05 -1.0844843158553095e-05 0 -3.0198632310605694e-05 -1.2681219700968143e-05 0 -2.8059423722125373e-05 -1.0844843158553095e-05 0 -2.724272828228125e-05 -7.2133766747737715e-06 0 -4.3182699938872786e-05 -2.7519554374050275e-05 0 -4.6634972672211147e-05 -3.3114153771232626e-05 0 -4.3419207125267816e-05 -2.9734750084728755e-05 0 -3.0198632310605694e-05 -1.2681219700968143e-05 0 -2.9557902181495483e-05 -1.0648633562134502e-05 0 -3.1878473578595761e-05 -1.4496509598046881e-05 0 -2.577854924320745e-05 -3.0876027830205358e-05 0 -2.2671055207476371e-05 -2.6077547350795081e-05 0 -2.772796727861395e-05 -3.1287468484382588e-05 0 -4.7272319167836763e-05 -3.8163929754482734e-05 0 -4.439695528998595e-05 -3.419259022269075e-05 0 -4.5702219085199537e-05 -3.4105305497729998e-05 0 -5.1870882434098133e-05 -2.4730767532892954e-05 0 -5.9394675653282543e-05 -3.1818470237924323e-05 0 -5.1247543354462802e-05 -2.7367220273784399e-05 0 -9.5619332132373965e-05 5.2506907223861331e-05 0 -8.1509578198691191e-05 3.7372927742989732e-05 0 -7.889040388381467e-05 4.3188159806084124e-05 0 -1.5807325040373004e-05 -6.9851460167924022e-06 0 -2.1989598040794403e-05 -1.2698923610826815e-05 0 -1.721867152836404e-05 -1.5558980907201258e-05 0 -2.577854924320745e-05 -3.0876027830205358e-05 0 -2.9915597151896295e-05 -3.58267329488647e-05 0 -2.8176946207967538e-05 -3.4880168271256261e-05 0 -3.1437571191846897e-05 -1.7608614813156899e-05 0 -3.1332721721340342e-05 -1.4889062105753977e-05 0 -3.7781196109625612e-05 -1.9790937088919918e-05 0 -2.6246587665234699e-06 5.8806889072823991e-07 0 -1.0733062356023785e-06 2.9026012444378791e-07 0 -1.2247668593250371e-06 3.4977323524757293e-07 0 -1.2904995736104539e-05 4.6091315686101828e-06 0 -1.7444753507021123e-05 6.4916659007497677e-06 0 -1.4687241172385875e-05 2.9097361711079576e-06 0 -7.4962584492930904e-06 2.6717819731245186e-06 0 -1.0236983762348845e-05 2.6806040909288148e-06 0 -8.1735296126372127e-06 1.3187152168159247e-06 0 -1.7936330317984339e-05 9.0872419100548333e-06 0 -2.1620216126199809e-05 2.65772010172165e-06 0 -2.1206788723597823e-05 -1.3663661264464633e-06 0 -1.528748842528957e-05 -5.0047571800569774e-06 0 -1.16651076341606e-05 -3.178285417881088e-06 0 -1.1127680513859745e-05 -4.1317626866285801e-06 0 -7.7027301103262942e-06 -2.0563374256597512e-06 0 -1.1127680513859745e-05 -4.1317626866285801e-06 0 -1.16651076341606e-05 -3.178285417881088e-06 0 -1.0138099423621966e-05 9.8909766645786873e-07 0 -1.5440918222737667e-05 1.8255577393457921e-06 0 -1.4991443879937139e-05 3.4512900240324017e-06 0 -2.07621934703154e-05 3.992733619802191e-06 0 -1.4991443879937139e-05 3.4512900240324017e-06 0 -1.5440918222737667e-05 1.8255577393457921e-06 0 -7.3329217150958418e-05 -5.1090075567606995e-05 0 -7.9556003971073533e-05 -6.3267531662479994e-05 0 -6.8195408298795483e-05 -5.5350042011576323e-05 0 -3.6704484683253879e-05 8.0335603164681865e-05 0 -4.5554754805013364e-05 6.0252699764009567e-05 0 -3.2930101127063779e-05 5.6243783905218621e-05 0 -1.9102849426225346e-05 -6.8467812425560616e-05 0 -2.7180621927050889e-05 -6.3017043650209e-05 0 -2.959130567276324e-05 -7.8541563686018102e-05 0 -3.5768319465179408e-05 -4.3943626422383985e-05 0 -3.8464622018372088e-05 -4.37358802369178e-05 0 -3.8054910760199671e-05 -4.6946632295319165e-05 0 -1.1145140869521539e-05 -1.8533926356589899e-06 0 -1.4723553280624013e-05 -3.6346712678847752e-06 0 -1.1826344227037721e-05 -2.2563937828807391e-06 0 -2.1251704350444618e-05 -5.1550731933805249e-06 0 -1.6872341571669248e-05 -1.0424357982970416e-06 0 -1.785933815122063e-05 -4.2904698755174676e-06 0 -2.5252606776929772e-05 -8.9025014246355322e-06 0 -2.0256716532718583e-05 -6.176189325238303e-06 0 -2.4076702259592825e-05 -8.086162485760173e-06 0 -2.8141960918965787e-05 0.00014417352292218303 0 -5.8856804992697723e-06 0.00015352915483112406 0 -1.8028545384443991e-05 0.00017175341260367006 0 -1.8244035854193431e-09 2.0872149119655258e-10 0 -1.9410136017245247e-06 5.0244795497660754e-07 0 -1.2247668593250371e-06 3.4977323524757293e-07 0 -3.9408054071159767e-05 -3.1595661691136248e-05 0 -3.7107366536673059e-05 -3.1965644695893346e-05 0 -3.596177321020357e-05 -2.7095582960733513e-05 0 -1.5807325040373004e-05 -6.9851460167924022e-06 0 -1.5559778510218396e-05 9.9063589118358066e-06 0 -2.1206788723597823e-05 -1.3663661264464633e-06 0 -0.00013207156675414103 0.00012273550190787475 0 -0.0001211304863010763 9.5439590704819808e-05 0 -0.00010816246208037262 0.00010568469641646634 0 -2.0440162214715683e-06 4.2660775108444646e-07 0 -2.4305160005850544e-06 3.5025148186198512e-07 0 -1.3123731100736747e-06 1.3588209967490949e-07 0 -5.5935992604224649e-06 -2.8544420830422296e-07 0 -2.6610553421118264e-06 2.0193121423599348e-07 0 -2.6342525257239417e-06 -2.5838492503402766e-08 0 -6.3298316148255357e-06 -9.5309365966972926e-07 0 -3.0947582225501236e-06 -7.1539190355882736e-07 0 -2.8773004659288841e-06 -9.3804013704639037e-07 0 -8.9649356366420269e-06 2.2108189815381935e-06 0 -7.4296364332118805e-06 1.5435647769399345e-06 0 -8.9883146918212544e-06 7.3940437725721253e-07 0 -4.5757820982781496e-05 -2.6244760251524794e-05 0 -4.4199050581029167e-05 -2.17540063606231e-05 0 -5.1247543354462802e-05 -2.7367220273784399e-05 0 -6.658347542201943e-05 4.1619636074769755e-05 0 -7.889040388381467e-05 4.3188159806084124e-05 0 -6.5671539267521455e-05 3.2115362921391575e-05 0 -3.2255141542648562e-05 0.00024232181238977593 0 -1.9817188307333431e-05 0.00021383568452500642 0 -9.0742598381057469e-06 0.00022919452113695119 0 -7.4255644670472211e-05 -0.00011917332921613513 0 -7.7531697209921849e-05 -0.00010499637406317592 0 -8.4201430141311949e-05 -0.0001144037534940508 0 -1.4553597883041288e-05 -1.6153429144012118e-05 0 -1.721867152836404e-05 -1.5558980907201258e-05 0 -2.0966127015813203e-05 -2.2094530276750714e-05 0 -1.9747662170403903e-05 1.1416887811508408e-05 0 -2.2883762536239525e-05 1.9025400437059615e-05 0 -2.7285436401018685e-05 1.5827305253350035e-05 0 -2.2640684088822641e-05 -1.9089476412600579e-05 0 -2.0966127015813203e-05 -2.2094530276750714e-05 0 -1.721867152836404e-05 -1.5558980907201258e-05 0 -7.6254548150549133e-06 6.0519191523873967e-07 0 -6.7919254137488482e-06 4.4963527020823049e-07 0 -9.1954381948446379e-06 -2.9202558105554489e-07 0 -2.2278089368422064e-06 9.9247890058459833e-08 0 -1.625101821482044e-06 -3.0003646849203538e-07 0 -1.0549883417431613e-06 -6.5024682873055016e-08 0 -1.4756360580358727e-05 -4.0635628712364849e-06 0 -1.2567379318056489e-05 -2.8227507290678264e-06 0 -1.1826344227037721e-05 -2.2563937828807391e-06 0 -1.8538221807673578e-05 6.4128334891840091e-06 0 -2.1620216126199809e-05 2.65772010172165e-06 0 -1.5633183544971882e-05 1.2371443418048575e-05 0 -1.7936330317984339e-05 9.0872419100548333e-06 0 -1.5633183544971882e-05 1.2371443418048575e-05 0 -2.1620216126199809e-05 2.65772010172165e-06 0 -6.4618478613983471e-05 -9.5997800956904543e-05 0 -7.7531697209921849e-05 -0.00010499637406317592 0 -6.7842903732740693e-05 -0.00010919604211186681 0 -7.4255644670472211e-05 -0.00011917332921613513 0 -6.7842903732740693e-05 -0.00010919604211186681 0 -7.7531697209921849e-05 -0.00010499637406317592 0 -4.0462468066257662e-05 0.00019446461814326356 0 -1.9817188307333431e-05 0.00021383568452500642 0 -4.2594737120391532e-05 0.00022377877776540679 0 -3.2255141542648562e-05 0.00024232181238977593 0 -4.2594737120391532e-05 0.00022377877776540679 0 -1.9817188307333431e-05 0.00021383568452500642 0 -4.0462468066257662e-05 0.00019446461814326356 0 -4.1054551928231509e-05 0.00016562806032556742 0 -1.8028545384443991e-05 0.00017175341260367006 0 -2.8141960918965787e-05 0.00014417352292218303 0 -1.8028545384443991e-05 0.00017175341260367006 0 -4.1054551928231509e-05 0.00016562806032556742 0 -1.5677622174075809e-09 1.6065573000999691e-10 0 -1.6438019068011212e-09 1.7845242096987505e-10 0 -1.0733062356023785e-06 2.9026012444378791e-07 0 -1.8018059272518967e-05 -2.0819650636635621e-05 0 -2.0966127015813207e-05 -2.2094530276750718e-05 0 -2.2671055207476371e-05 -2.6077547350795081e-05 0 -2.5626478389487876e-05 -2.7419923730681043e-05 0 -2.2671055207476371e-05 -2.6077547350795081e-05 0 -2.0966127015813203e-05 -2.2094530276750714e-05 0 -6.7062900861828442e-05 -7.5655177093884567e-05 0 -7.0213136801056364e-05 -6.6759819191995246e-05 0 -7.6480058941703636e-05 -7.935372094518804e-05 0 -7.9556003971073533e-05 -6.3267531662479994e-05 0 -7.0213136801056364e-05 -6.6759819191995246e-05 0 -6.8195408298795483e-05 -5.5350042011576323e-05 0 -0.00013207156675414103 0.00012273550190787475 0 -0.00010816246208037262 0.00010568469641646634 0 -0.00011003543575064202 0.00013214417106631576 0 -9.5195802510570891e-06 5.9945004451227111e-06 0 -9.9487229542374777e-06 8.3533483151717928e-06 0 -8.2683902142342899e-06 6.7951722226803928e-06 0 -9.1054680711968939e-06 1.0407595187268142e-05 0 -8.2683902142342899e-06 6.7951722226803928e-06 0 -9.9487229542374777e-06 8.3533483151717928e-06 0 -4.9943771203422665e-06 8.2826228585088383e-07 0 -6.0865503850559544e-06 1.0178606886316405e-06 0 -4.7527209033809755e-06 1.0544375174714552e-06 0 -2.6246587665234699e-06 5.8806889072823991e-07 0 -1.2247668593250369e-06 3.4977323524757288e-07 0 -1.9410136017245247e-06 5.0244795497660754e-07 0 -2.6920250998768451e-05 5.2861674015031978e-06 0 -3.5785842792295856e-05 8.9565728455488574e-06 0 -2.8753157291249968e-05 6.8522912709518434e-06 0 -1.978451679364543e-05 -6.184234679374049e-06 0 -2.0639136942452146e-05 -7.281436674851812e-06 0 -2.5103134865115349e-05 -8.867578395534909e-06 0 -1.978451679364543e-05 -6.184234679374049e-06 0 -2.4076702259592825e-05 -8.0861624857601714e-06 0 -2.0256716532718583e-05 -6.176189325238303e-06 0 1.0864021501447073e-05 0.00020371587502107045 0 -9.0742598381057469e-06 0.00022919452113695119 0 -1.9817188307333431e-05 0.00021383568452500642 0 -9.1452824947828884e-05 -0.00010494485518206378 0 -8.4201430141311949e-05 -0.00011440375349405081 0 -7.7531697209921849e-05 -0.00010499637406317592 0 -1.5810099534813303e-09 -4.5783790460090256e-13 0 -1.0549883417431613e-06 -6.5024682873055043e-08 0 -1.625101821482044e-06 -3.0003646849203538e-07 0 -7.4962584492930904e-06 2.6717819731245186e-06 0 -1.000238466040124e-05 4.8958546894815571e-06 0 -1.0236983762348845e-05 2.6806040909288148e-06 0 -5.0111840256185751e-05 -6.5081681751513799e-05 0 -5.3615830038601519e-05 -5.5545314944135236e-05 0 -5.8279983392541507e-05 -6.5173194402449265e-05 0 -2.1150177470229785e-05 5.7637288733282519e-06 0 -1.7444753507021119e-05 6.4916659007497677e-06 0 -2.4187308371982586e-05 9.8243874998634222e-06 0 -2.4913068017821159e-05 -1.6949519239585173e-05 0 -3.005622350597828e-05 -1.9960702191819846e-05 0 -2.9120509047131893e-05 -2.3350556445569745e-05 0 -7.9412315531632646e-06 5.4724923219960939e-06 0 -8.2683902142342899e-06 6.7951722226803928e-06 0 -8.8704439154343153e-06 8.4624804735726304e-06 0 -6.5428996171206381e-05 0.0001241710749175247 0 -8.6266078581257038e-05 0.0001289963912401855 0 -7.4978602459746857e-05 0.00010684579559028442 0 -4.5757820982781496e-05 -2.6244760251524794e-05 0 -5.4977247865340495e-05 -3.3125890571709076e-05 0 -4.8155912511927276e-05 -3.2558345311384435e-05 0 -6.658347542201943e-05 4.1619636074769755e-05 0 -7.1315517608485564e-05 5.4661934226227395e-05 0 -8.4897384508830927e-05 5.6497349264285433e-05 0 -4.0200692373403702e-05 -4.6835525863538791e-05 0 -3.9001757409102567e-05 -4.9755937610093434e-05 0 -3.8054910760199671e-05 -4.6946632295319165e-05 0 -3.7209910351572773e-05 -4.9105648520202063e-05 0 -3.8054910760199671e-05 -4.6946632295319165e-05 0 -3.9001757409102567e-05 -4.9755937610093434e-05 0 -2.5252606776929772e-05 -8.9025014246355322e-06 0 -2.0668951485280562e-05 -6.6392221911488182e-06 0 -2.0256716532718583e-05 -6.176189325238303e-06 0 -1.6391166822711619e-05 -4.341277629056804e-06 0 -2.0256716532718583e-05 -6.176189325238303e-06 0 -2.0668951485280562e-05 -6.6392221911488182e-06 0 -1.4807344886277114e-05 -4.6997551842259193e-06 0 -1.8059647758242703e-05 -7.7978928397756402e-06 0 -1.6262787681378738e-05 -6.1198715627272528e-06 0 -2.9730631774697683e-05 -1.0967461405381308e-05 0 -3.689748262969311e-05 -1.50897122039482e-05 0 -3.1469556331317622e-05 -1.2371643001040415e-05 0 -3.1770127973260003e-05 8.657597963901644e-06 0 -3.2374701586109872e-05 7.5269318791108156e-06 0 -2.4942096130317403e-05 5.40338616154987e-06 0 -4.3210569892056839e-05 -5.150331320062298e-05 0 -3.9862489587452311e-05 -5.2014260865064895e-05 0 -4.1156915481210951e-05 -4.9475231978855087e-05 0 -6.5428996171206381e-05 0.0001241710749175247 0 -7.9399153404308533e-05 0.00015679788273246145 0 -8.6266078581257038e-05 0.0001289963912401855 0 -1.6438019068011212e-09 1.7845242096987505e-10 0 -1.8244035854193431e-09 2.0872149119655258e-10 0 -1.2247668593250371e-06 3.4977323524757293e-07 0 1.2171193490769332e-05 0.00017319529053092092 0 -1.8028545384443991e-05 0.00017175341260367006 0 -5.8856804992697723e-06 0.00015352915483112406 0 -1.0742613806930538e-05 1.631097376462172e-05 0 -8.9361412242938513e-06 2.0710882469820054e-05 0 -9.4838837575243068e-06 1.4661015460901779e-05 0 -6.658347542201943e-05 4.1619636074769755e-05 0 -5.4859646106294698e-05 3.949137615419213e-05 0 -7.1315517608485564e-05 5.4661934226227395e-05 0 -1.0742613806930538e-05 1.631097376462172e-05 0 -1.0657952684868687e-05 1.1868709343105689e-05 0 -1.3538858931192742e-05 1.1526219289444133e-05 0 -1.0742613806930538e-05 1.631097376462172e-05 0 -9.4838837575243051e-06 1.4661015460901777e-05 0 -1.0657952684868687e-05 1.1868709343105689e-05 0 -1.9108804529819288e-05 -6.1551249467767049e-06 0 -2.3790939918406833e-05 -8.8230533187682882e-06 0 -2.2290186406553684e-05 -8.9622479466631959e-06 0 -9.5560091331175238e-06 -1.1272810028057713e-06 0 -1.1826344227037721e-05 -2.2563937828807391e-06 0 -1.2567379318056488e-05 -2.8227507290678259e-06 0 -8.9837892427761709e-05 0.00010512782180223353 0 -0.00011003543575064202 0.00013214417106631576 0 -0.00010816246208037262 0.00010568469641646634 0 -2.3069416372368823e-05 -1.243482434105265e-05 0 -2.5134107603357922e-05 -1.0530139014683212e-05 0 -2.116289612895938e-05 -8.1566875639420498e-06 0 -1.8538221807673578e-05 6.4128334891840091e-06 0 -1.5633183544971882e-05 1.2371443418048575e-05 0 -1.3538858931192742e-05 1.1526219289444133e-05 0 -3.8452958854172437e-05 -2.6881497811177716e-05 0 -3.5535324612889504e-05 -2.2529554687577673e-05 0 -3.6985944845604546e-05 -2.1960361607729051e-05 0 -4.5757820982781496e-05 -2.6244760251524794e-05 0 -5.1247543354462802e-05 -2.7367220273784402e-05 0 -5.4977247865340495e-05 -3.3125890571709076e-05 0 -6.658347542201943e-05 4.1619636074769755e-05 0 -8.4897384508830927e-05 5.6497349264285433e-05 0 -7.889040388381467e-05 4.3188159806084124e-05 0 -0.0001109663050456564 0.0002424206190329403 0 -0.00013211580678157433 0.00025394606282718796 0 -0.00012786227831406902 0.00022655503146053592 0 -4.0978935170442454e-05 -0.00011503742884763209 0 -3.3323564716043919e-05 -0.00011875336858677007 0 -3.258042135085561e-05 -0.00010578130790393111 0 -4.3159890374037314e-05 -3.1233314609617198e-05 0 -4.0280614556014057e-05 -2.7054602594933532e-05 0 -4.3419207125267816e-05 -2.9734750084728755e-05 0 -9.1054680711968939e-06 1.0407595187268142e-05 0 -8.8704439154343153e-06 8.4624804735726304e-06 0 -8.2683902142342899e-06 6.7951722226803928e-06 0 -1.8474720007060984e-05 3.2421767310379331e-06 0 -2.4942096130317403e-05 5.40338616154987e-06 0 -2.1483425985123678e-05 3.1711636858371799e-06 0 -3.6171560285803467e-05 -1.5978266743184847e-05 0 -2.9421354639735596e-05 -1.2009126227357746e-05 0 -3.1469556331317622e-05 -1.2371643001040415e-05 0 -5.2180626587826958e-05 2.1881023798915413e-05 0 -4.3193135456400035e-05 1.9816454402342039e-05 0 -5.293490347863787e-05 2.9048285583765349e-05 0 -2.1728483326240832e-05 -1.3867462372139921e-05 0 -2.4610415806527203e-05 -1.9744939377570403e-05 0 -2.3839337572155464e-05 -1.729991814407307e-05 0 -2.6539625325088668e-05 -1.1393300529609364e-05 0 -2.9421354639735596e-05 -1.2009126227357746e-05 0 -3.1332721721340342e-05 -1.4889062105753977e-05 0 -1.8538221807673578e-05 6.4128334891840091e-06 0 -1.669736023894002e-05 4.5856208307107065e-06 0 -2.205591142543811e-05 2.2281233426212299e-07 0 -1.5810099534813303e-09 -4.5783790460090256e-13 0 -1.5511147821493054e-09 -7.176469328186679e-11 0 -1.0549883417431613e-06 -6.5024682873055016e-08 0 -4.3486607478125132e-05 -3.5757094748683891e-05 0 -4.439695528998595e-05 -3.419259022269075e-05 0 -4.7272319167836763e-05 -3.8163929754482734e-05 0 -4.4473193521863925e-05 -1.9363900999036963e-05 0 -4.2432856947841135e-05 -1.8851649016290675e-05 0 -3.689748262969311e-05 -1.50897122039482e-05 0 -6.7995291843664133e-05 2.6668595024501496e-05 0 -5.3893742697515752e-05 1.9017628126992125e-05 0 -6.3525532285397399e-05 2.6005341401886873e-05 0 -6.0071783558673736e-05 -5.4537246957552474e-05 0 -6.8195408298795483e-05 -5.5350042011576323e-05 0 -7.0213136801056364e-05 -6.6759819191995246e-05 0 -3.4694151372862687e-05 -2.7290051234783605e-05 0 -3.4449865414071177e-05 -3.2667041775754382e-05 0 -2.9120509047131893e-05 -2.3350556445569745e-05 0 -2.8466941674655636e-05 -2.7398650769093098e-05 0 -2.9120509047131893e-05 -2.3350556445569745e-05 0 -3.4449865414071177e-05 -3.2667041775754382e-05 0 -2.6539625325088668e-05 -1.1393300529609364e-05 0 -2.6324121410889586e-05 -1.2768358878279877e-05 0 -2.2290186406553684e-05 -8.9622479466631959e-06 0 -3.8452958854172437e-05 -2.6881497811177716e-05 0 -3.6985944845604546e-05 -2.1960361607729051e-05 0 -4.0280614556014057e-05 -2.7054602594933532e-05 0 -6.7062900861828442e-05 -7.5655177093884567e-05 0 -5.8417668819963659e-05 -7.4362061114170789e-05 0 -5.8279983392541507e-05 -6.5173194402449265e-05 0 -2.6539625325088668e-05 -1.1393300529609364e-05 0 -2.2290186406553684e-05 -8.9622479466631959e-06 0 -2.3790939918406833e-05 -8.8230533187682882e-06 0 -3.4208019918485943e-05 -1.8399590379491786e-05 0 -3.6985944845604546e-05 -2.1960361607729051e-05 0 -3.5535324612889504e-05 -2.2529554687577673e-05 0 -2.9719871889588792e-06 -4.3587137946424205e-07 0 -3.0458491550545106e-06 -5.2708126717018207e-09 0 -4.0671551457823349e-06 2.7784180968380549e-08 0 -5.9394675653282543e-05 -3.1818470237924323e-05 0 -5.4977247865340495e-05 -3.3125890571709076e-05 0 -5.1247543354462802e-05 -2.7367220273784399e-05 0 -9.5619332132373965e-05 5.2506907223861331e-05 0 -7.889040388381467e-05 4.3188159806084124e-05 0 -8.4897384508830927e-05 5.6497349264285433e-05 0 -9.1452824947828884e-05 -0.00010494485518206378 0 -7.7531697209921849e-05 -0.00010499637406317592 0 -8.2870490146199884e-05 -9.7751163219418768e-05 0 1.0864021501447073e-05 0.00020371587502107045 0 -1.9817188307333431e-05 0.00021383568452500642 0 -1.1433348568945508e-05 0.00019204139491135416 0 1.2171193490769332e-05 0.00017319529053092092 0 -1.1433348568945508e-05 0.00019204139491135416 0 -1.8028545384443991e-05 0.00017175341260367006 0 -9.1452824947828884e-05 -0.00010494485518206378 0 -9.3298594080758708e-05 -0.00011933499558184776 0 -8.4201430141311949e-05 -0.0001144037534940508 0 1.0864021501447073e-05 0.00020371587502107045 0 8.7811736937992248e-06 0.00023385995191562822 0 -9.0742598381057469e-06 0.00022919452113695119 0 -2.2640684088822641e-05 -1.9089476412600579e-05 0 -2.1989598040794403e-05 -1.2698923610826815e-05 0 -2.6154655718917431e-05 -1.8410456283225631e-05 0 -4.0178814626595544e-05 -2.5195195221296518e-05 0 -4.3419207125267816e-05 -2.9734750084728755e-05 0 -4.0280614556014057e-05 -2.7054602594933532e-05 0 -5.358031772617401e-05 -4.9607626894961094e-05 0 -5.478256369824265e-05 -5.221770428787744e-05 0 -5.2562375026985868e-05 -4.8075466699741403e-05 0 -2.9637405243709064e-05 -3.6305422622412136e-05 0 -3.2848680852322317e-05 -4.2755696164990773e-05 0 -3.2384000824448013e-05 -3.964392952730086e-05 0 -6.658347542201943e-05 4.1619636074769755e-05 0 -5.293490347863787e-05 2.9048285583765349e-05 0 -5.4859646106294698e-05 3.949137615419213e-05 0 -1.6391166822711619e-05 -4.341277629056804e-06 0 -1.3135599328477191e-05 -2.7727909262900286e-06 0 -1.5672333167839737e-05 -4.0527284368411812e-06 0 -5.5293446022630185e-06 1.6196686592933487e-06 0 -6.0865503850559544e-06 1.0178606886316405e-06 0 -7.4296364332118805e-06 1.5435647769399345e-06 0 -9.9148144764354523e-05 0.00015223602520079621 0 -8.6266078581257038e-05 0.0001289963912401855 0 -7.9399153404308533e-05 0.00015679788273246145 0 -3.6133662238909138e-05 -7.2055812303539645e-05 0 -2.959130567276324e-05 -7.8541563686018102e-05 0 -2.7180621927050889e-05 -6.3017043650209e-05 0 -2.2278089368422064e-06 9.9247890058459833e-08 0 -1.0549883417431613e-06 -6.5024682873055016e-08 0 -1.3123731100736747e-06 1.3588209967490949e-07 0 -3.1437571191846897e-05 -1.7608614813156899e-05 0 -2.5600880796707578e-05 -1.4574238458207701e-05 0 -2.6324121410889586e-05 -1.2768358878279877e-05 0 1.2593331001443661e-05 0.00014260042088917762 0 1.2171193490769333e-05 0.00017319529053092092 0 -5.8856804992697723e-06 0.00015352915483112406 0 -6.1442442625454751e-06 -5.8699850806800334e-07 0 -6.8211720588069675e-06 1.4180494315745768e-07 0 -8.4141795064266308e-06 -1.3267265882434677e-07 0 -2.2640684088822641e-05 -1.9089476412600579e-05 0 -2.6154655718917431e-05 -1.8410456283225631e-05 0 -2.5645962258673143e-05 -2.3872593260507134e-05 0 -2.9229521986174785e-05 -2.4254283079107666e-05 0 -2.5645962258673143e-05 -2.3872593260507134e-05 0 -2.6154655718917431e-05 -1.8410456283225631e-05 0 -4.9843984059998063e-05 -4.6116098838605693e-05 0 -5.0911888670208894e-05 -4.5074623616214409e-05 0 -5.2562375026985868e-05 -4.8075466699741403e-05 0 -5.358031772617401e-05 -4.9607626894961094e-05 0 -5.2562375026985868e-05 -4.8075466699741403e-05 0 -5.0911888670208894e-05 -4.5074623616214409e-05 0 -2.9637405243709064e-05 -3.6305422622412136e-05 0 -3.1554425468373244e-05 -4.0614360456364878e-05 0 -3.2848680852322317e-05 -4.2755696164990773e-05 0 -3.4390216501094926e-05 -4.605424128659938e-05 0 -3.2848680852322317e-05 -4.2755696164990773e-05 0 -3.1554425468373244e-05 -4.0614360456364878e-05 0 -9.5195802510570891e-06 5.9945004451227111e-06 0 -8.1040619831180949e-06 4.3471515169413487e-06 0 -1.0877120949850915e-05 3.5707564750877517e-06 0 -1.5807325040373004e-05 -6.9851460167924022e-06 0 -2.1206788723597823e-05 -1.3663661264464633e-06 0 -2.1989598040794403e-05 -1.2698923610826815e-05 0 -2.5887996057169133e-05 -9.1315308743037449e-06 0 -2.1989598040794403e-05 -1.2698923610826816e-05 0 -2.1206788723597823e-05 -1.3663661264464633e-06 0 -6.7062900861828442e-05 -7.5655177093884567e-05 0 -7.6480058941703636e-05 -7.935372094518804e-05 0 -7.394944304735532e-05 -8.9668115438306262e-05 0 -2.5252606776929772e-05 -8.9025014246355322e-06 0 -2.9421354639735596e-05 -1.2009126227357746e-05 0 -2.3790939918406833e-05 -8.8230533187682882e-06 0 -2.6539625325088668e-05 -1.1393300529609364e-05 0 -2.3790939918406833e-05 -8.8230533187682882e-06 0 -2.9421354639735596e-05 -1.2009126227357746e-05 0 -2.4761716380624339e-05 -2.2772206913059113e-05 0 -3.2893631440125764e-05 -1.8814949440170513e-05 0 -3.1058748880719792e-05 -1.7230651197724914e-05 0 -4.8114976143764446e-05 -4.1573125749101226e-05 0 -5.0911888670208894e-05 -4.5074623616214409e-05 0 -4.7718771101376537e-05 -4.3156706317813995e-05 0 -3.1413625508787872e-05 -3.9129810821617032e-05 0 -3.3778203419612129e-05 -4.3120107593515031e-05 0 -3.1554425468373244e-05 -4.0614360456364878e-05 0 -7.6254548150549133e-06 6.0519191523873967e-07 0 -7.4296364332118805e-06 1.5435647769399345e-06 0 -6.0865503850559544e-06 1.0178606886316405e-06 0 -3.9862489587452311e-05 -5.2014260865064895e-05 0 -3.9001757409102567e-05 -4.9755937610093434e-05 0 -4.1156915481210951e-05 -4.9475231978855087e-05 0 -6.3986457699296072e-06 2.8633035249210931e-07 0 -4.7557903229905785e-06 6.7043772276498172e-07 0 -4.2198866217281261e-06 5.9459187447632818e-07 0 -3.4208019918485943e-05 -1.8399590379491786e-05 0 -3.1878473578595761e-05 -1.4496509598046881e-05 0 -3.3517279746288659e-05 -1.5757219353348431e-05 0 -2.2278089368422064e-06 9.9247890058459833e-08 0 -3.1799285365963353e-06 4.2421345923004018e-07 0 -3.0458491550545106e-06 -5.2708126717018637e-09 0 -6.3707959325758878e-05 0.00017075727303845925 0 -5.3686271409771828e-05 0.00014667481976432778 0 -4.1054551928231509e-05 0.00016562806032556742 0 -6.6177070548779451e-05 0.00022372186860567412 0 -4.2594737120391525e-05 0.00022377877776540679 0 -5.3306544818783872e-05 0.00024294518761258505 0 -5.7892194735510372e-05 -0.00010932867639220708 0 -6.7842903732740693e-05 -0.00010919604211186681 0 -6.4896528132575809e-05 -0.00011844337054217883 0 -3.4780964624088144e-06 3.1209299105863313e-05 0 -1.5559778510218396e-05 9.9063589118358066e-06 0 -5.5297674419869983e-06 1.1370810243174689e-06 0 -2.2278089368422064e-06 9.9247890058459833e-08 0 -1.3123731100736747e-06 1.3588209967490949e-07 0 -2.430516000585054e-06 3.5025148186198512e-07 0 -8.8517568921455756e-05 -9.060699510624226e-05 0 -8.2870490146199884e-05 -9.7751163219418754e-05 0 -7.394944304735532e-05 -8.9668115438306262e-05 0 -9.4315920135132158e-05 -0.00017095059546116021 0 -8.630926993067047e-05 -0.00016418303914983806 0 -9.4401659112593083e-05 -0.00015898797349348399 0 -4.2461679548240255e-06 0.00034588069104096096 0 -1.8325185731971034e-05 0.00033761211919747838 0 -8.7973001101662254e-07 0.0003212449637782827 0 -4.2461679548240255e-06 0.00034588069104096096 0 -2.7083178322791386e-05 0.00035308554975940504 0 -1.8325185731971037e-05 0.00033761211919747838 0 -3.292805055122186e-05 -0.00016379753398209018 0 -3.8147301214204281e-05 -0.00016106542565312524 0 -4.1651706297896185e-05 -0.00016753819786186717 0 -0.00015423512336334112 0.00036010909244990082 0 -0.00015436593619643142 0.00033272150361064018 0 -0.00013591395079615214 0.00034460064225758677 0 -9.4315920135132158e-05 -0.00017095059546116021 0 -8.2363568664595513e-05 -0.0001708482348372595 0 -8.630926993067047e-05 -0.00016418303914983806 0 -3.292805055122186e-05 -0.00016379753398209018 0 -3.0950985176317241e-05 -0.00015335172488178711 0 -3.8147301214204281e-05 -0.00016106542565312524 0 -0.00015423512336334112 0.00036010909244990082 0 -0.00013591395079615214 0.00034460064225758677 0 -0.00012684437215756321 0.00035995246488668256 0 -1.5511147821494985e-09 -7.1764693281878707e-11 0 -1.3123731100736747e-06 1.3588209967490949e-07 0 -1.0549883417431613e-06 -6.5024682873055016e-08 0 -3.8452958854172437e-05 -2.6881497811177716e-05 0 -3.596177321020357e-05 -2.7095582960733513e-05 0 -3.5535324612889504e-05 -2.2529554687577673e-05 0 -2.6539625325088668e-05 -1.1393300529609364e-05 0 -3.1332721721340342e-05 -1.4889062105753977e-05 0 -2.6324121410889586e-05 -1.2768358878279877e-05 0 -6.7062900861828442e-05 -7.5655177093884567e-05 0 -6.3074128644460196e-05 -8.355505943841866e-05 0 -5.8417668819963659e-05 -7.4362061114170789e-05 0 -5.6828353888118388e-06 6.3716079643382423e-07 0 -8.1735296126372127e-06 1.3187152168159247e-06 0 -6.8211720588069675e-06 1.4180494315745768e-07 0 -7.1516023929380678e-05 0.00026041672720292225 0 -9.064096381085842e-05 0.00027849201940916468 0 -9.0953470286560394e-05 0.00025121646340643428 0 -5.8321841753973212e-05 -0.00012582029112999927 0 -5.1706165765079535e-05 -0.00013365051069064127 0 -4.97544416689994e-05 -0.00012098109417176939 0 -5.092993073225008e-05 -4.2795643211526365e-05 0 -5.2408596955221004e-05 -4.6501303660612606e-05 0 -5.0048793240571819e-05 -4.257381295339943e-05 0 -2.4186796447953306e-05 -2.8790873820111945e-05 0 -2.8176946207967538e-05 -3.4880168271256261e-05 0 -2.7054122525128104e-05 -3.2705432724825393e-05 0 -1.0262853017017538e-05 -9.7531379714104769e-06 0 -1.721867152836404e-05 -1.5558980907201258e-05 0 -1.4553597883041288e-05 -1.6153429144012118e-05 0 -3.1437571191846897e-05 -1.7608614813156899e-05 0 -2.6324121410889586e-05 -1.2768358878279877e-05 0 -3.1332721721340342e-05 -1.4889062105753977e-05 0 -4.6634972672211147e-05 -3.3114153771232626e-05 0 -4.9108663313099534e-05 -3.8242767847081569e-05 0 -4.5702219085199537e-05 -3.4105305497729998e-05 0 -1.8018059272518967e-05 -2.0819650636635621e-05 0 -2.2671055207476371e-05 -2.6077547350795081e-05 0 -2.1291652239207241e-05 -2.4931832017815571e-05 0 -5.0111840256185751e-05 -6.5081681751513799e-05 0 -4.3408764865569679e-05 -6.8884646424366848e-05 0 -4.2199805328880222e-05 -5.5940699679604981e-05 0 -5.5293446022630185e-06 1.6196686592933487e-06 0 -4.7527209033809746e-06 1.054437517471455e-06 0 -6.0865503850559544e-06 1.0178606886316405e-06 0 -4.0978935170442454e-05 -0.00011503742884763209 0 -4.7981993788264775e-05 -0.00010674425045334816 0 -4.97544416689994e-05 -0.00012098109417176939 0 -0.0001109663050456564 0.0002424206190329403 0 -8.9393035854733139e-05 0.00022426822550301184 0 -9.0953470286560394e-05 0.00025121646340643428 0 -2.5626478389487876e-05 -2.7419923730681043e-05 0 -2.0966127015813203e-05 -2.2094530276750714e-05 0 -2.5645962258673143e-05 -2.3872593260507134e-05 0 -2.2640684088822641e-05 -1.9089476412600579e-05 0 -2.5645962258673143e-05 -2.3872593260507134e-05 0 -2.0966127015813203e-05 -2.2094530276750714e-05 0 -9.5560091331175238e-06 -1.1272810028057713e-06 0 -8.9847917474524128e-06 -9.2488974691844089e-07 0 -1.1826344227037721e-05 -2.2563937828807391e-06 0 -3.4694151372862687e-05 -2.7290051234783605e-05 0 -2.9120509047131893e-05 -2.3350556445569741e-05 0 -3.005622350597828e-05 -1.9960702191819846e-05 0 -3.3422568528768035e-05 -5.5518910300445678e-05 0 -2.5614576179054056e-05 -4.9312679414107695e-05 0 -2.9745233628044472e-05 -3.88509019620014e-05 0 -3.3629355329259471e-05 -2.236499140728189e-05 0 -3.5535324612889504e-05 -2.2529554687577673e-05 0 -3.596177321020357e-05 -2.7095582960733513e-05 0 -2.0222449399349708e-05 -4.0755416292567853e-05 0 -2.5614576179054056e-05 -4.9312679414107695e-05 0 -1.8798558049849754e-05 -5.4467869037889365e-05 0 -2.577854924320745e-05 -3.0876027830205358e-05 0 -2.772796727861395e-05 -3.1287468484382588e-05 0 -2.9915597151896295e-05 -3.58267329488647e-05 0 -3.1346390283436822e-05 -3.4698911892355523e-05 0 -2.9915597151896295e-05 -3.58267329488647e-05 0 -2.772796727861395e-05 -3.1287468484382588e-05 0 -1.1711662659141965e-05 -2.4855360778573473e-06 0 -1.5082453065849918e-05 -4.2012944053021077e-06 0 -1.5672333167839737e-05 -4.0527284368411812e-06 0 -1.8243288140829042e-05 -6.522398321988278e-06 0 -2.116289612895938e-05 -8.1566875639420498e-06 0 -1.785933815122063e-05 -4.2904698755174676e-06 0 -2.1251704350444618e-05 -5.1550731933805249e-06 0 -1.785933815122063e-05 -4.2904698755174676e-06 0 -2.116289612895938e-05 -8.1566875639420498e-06 0 -1.0742613806930538e-05 1.631097376462172e-05 0 -1.5633183544971882e-05 1.2371443418048575e-05 0 -1.130593173554963e-05 2.0889517354273143e-05 0 -1.7936330317984339e-05 9.0872419100548333e-06 0 -1.130593173554963e-05 2.0889517354273143e-05 0 -1.5633183544971882e-05 1.2371443418048575e-05 0 1.2171193490769332e-05 0.00017319529053092092 0 1.0864021501447073e-05 0.00020371587502107045 0 -1.1433348568945508e-05 0.00019204139491135416 0 -1.3219630552096839e-05 8.9707491431151791e-06 0 -9.9487229542374777e-06 8.3533483151717928e-06 0 -1.2034546627153324e-05 6.2512025342047148e-06 0 -8.8517568921455756e-05 -9.060699510624226e-05 0 -9.1452824947828884e-05 -0.00010494485518206378 0 -8.2870490146199884e-05 -9.7751163219418768e-05 0 -1.1145140869521539e-05 -1.8533926356589899e-06 0 -1.1826344227037721e-05 -2.2563937828807391e-06 0 -8.9847917474524128e-06 -9.2488974691844089e-07 0 -1.4652224033250777e-05 8.7413804079628218e-07 0 -1.1320493781106366e-05 3.3106934380272006e-07 0 -9.7919972728852306e-06 -3.5768900688678422e-07 0 -1.1711662659141965e-05 -2.4855360778573473e-06 0 -8.0983791049936076e-06 -1.1632784877694377e-06 0 -8.9003745938236006e-06 -1.7924624416247675e-06 0 -7.4962584492930904e-06 2.6717819731245186e-06 0 -5.6309723741906264e-06 1.8613095260800983e-06 0 -6.8606163854334764e-06 3.6858142638493552e-06 0 -6.6887619209725431e-06 -3.7737716306793085e-06 0 -5.4132181552085802e-06 -2.0628585306287601e-06 0 -2.7781857773250776e-06 -1.2744530387996624e-06 0 -4.0531851039443407e-09 2.9614874161573797e-10 0 -2.7781857773250776e-06 -1.2744530387996624e-06 0 -5.4132181552085802e-06 -2.0628585306287601e-06 0 -8.5854608736421467e-06 4.0413877588001241e-06 0 -3.6136351545060089e-06 1.2155420914452513e-06 0 -7.2161817563919729e-06 1.6356680324707838e-06 0 -5.4988929439645378e-09 -6.9743479149421945e-10 0 -7.2161817563919729e-06 1.6356680324707838e-06 0 -3.6136351545060089e-06 1.2155420914452513e-06 0 -3.4694151372862687e-05 -2.7290051234783605e-05 0 -4.1627269217322568e-05 -3.1573836028167495e-05 0 -4.035589979686705e-05 -3.6869624001847612e-05 0 -2.2278089368422064e-06 9.9247890058459833e-08 0 -2.430516000585054e-06 3.5025148186198512e-07 0 -3.1799285365963353e-06 4.2421345923004018e-07 0 -2.8141960918965787e-05 0.00014417352292218303 0 -7.2629829302088888e-06 0.0001335332814153303 0 -5.8856804992697723e-06 0.00015352915483112406 0 -2.8329127846051812e-05 3.8552096548368414e-05 0 -3.0793728448551379e-05 2.8984639737910574e-05 0 -2.1141903511842477e-05 2.5699736955470531e-05 0 -1.3219630552096839e-05 8.9707491431151791e-06 0 -1.0657952684868687e-05 1.1868709343105689e-05 0 -9.9487229542374777e-06 8.3533483151717928e-06 0 -3.7430992170477672e-05 -4.3891513331172996e-05 0 -3.4449865414071177e-05 -3.2667041775754382e-05 0 -4.035589979686705e-05 -3.6869624001847612e-05 0 -0.00010008206332845895 0.00035931752295418945 0 -0.00012684437215756321 0.00035995246488668256 0 -0.00011326092416045145 0.00034591131861388101 0 -5.0561111175351598e-05 -0.00016927208672596562 0 -4.1651706297896185e-05 -0.00016753819786186717 0 -4.583952113575922e-05 -0.00016343847844250267 0 -2.7083178322791386e-05 0.00035308554975940504 0 -5.0224746044837262e-05 0.00035668771964483863 0 -3.8079488521733678e-05 0.00034263831641115995 0 -8.2363568664595526e-05 -0.00017084823483725953 0 -7.0867691863043037e-05 -0.0001704780331769501 0 -7.6480134786018555e-05 -0.00016473610472336997 0 -4.4815628732838833e-05 -4.2465619872322506e-05 0 -4.7718771101376537e-05 -4.3156706317813995e-05 0 -4.6164827449302877e-05 -4.4956353301842407e-05 0 -3.5768319465179408e-05 -4.3943626422383985e-05 0 -3.5831796314604802e-05 -4.7095280762644222e-05 0 -3.3778203419612129e-05 -4.3120107593515031e-05 0 -7.8814656527013931e-09 -3.3715493566994828e-09 0 -2.778185777325078e-06 -1.2744530387996626e-06 0 -4.0531851039443407e-09 2.9614874161573797e-10 0 -9.6554252492665474e-09 4.1200306171522762e-09 0 -5.4988929439645378e-09 -6.9743479149421945e-10 0 -3.6136351545060089e-06 1.2155420914452513e-06 0 -9.6554252492665474e-09 4.1200306171522762e-09 0 -3.6136351545060089e-06 1.2155420914452513e-06 0 -8.5854608736421467e-06 4.0413877588001241e-06 0 -7.8814656527013931e-09 -3.3715493566994828e-09 0 -6.6887619209725431e-06 -3.7737716306793085e-06 0 -2.7781857773250776e-06 -1.2744530387996624e-06 0 -3.6133662238909138e-05 -7.2055812303539645e-05 0 -4.3408764865569672e-05 -6.8884646424366834e-05 0 -4.4954195986424711e-05 -8.2714155419618413e-05 0 -1.4756360580358727e-05 -4.0635628712364849e-06 0 -1.8007470641279179e-05 -6.0961034321578494e-06 0 -1.6443283912601743e-05 -5.674220093458325e-06 0 -3.4208019918485943e-05 -1.8399590379491786e-05 0 -3.5535324612889504e-05 -2.2529554687577673e-05 0 -3.2761209695618786e-05 -1.7968123060626351e-05 0 -3.3629355329259471e-05 -2.236499140728189e-05 0 -3.2761209695618786e-05 -1.7968123060626351e-05 0 -3.5535324612889504e-05 -2.2529554687577673e-05 0 -9.5560091331175238e-06 -1.1272810028057713e-06 0 -1.2567379318056488e-05 -2.8227507290678259e-06 0 -1.0500392913690815e-05 -1.5948562344484193e-06 0 -4.9943771203422665e-06 8.2826228585088383e-07 0 -4.7557903229905785e-06 6.7043772276498172e-07 0 -6.7919254137488482e-06 4.4963527020823049e-07 0 -6.3986457699296072e-06 2.8633035249210931e-07 0 -6.7919254137488482e-06 4.4963527020823049e-07 0 -4.7557903229905785e-06 6.7043772276498172e-07 0 -1.7936330317984339e-05 9.0872419100548333e-06 0 -1.5559778510218396e-05 9.9063589118358066e-06 0 -1.130593173554963e-05 2.0889517354273143e-05 0 -3.4780964624088144e-06 3.1209299105863313e-05 0 -1.1305931735549628e-05 2.0889517354273147e-05 0 -1.5559778510218396e-05 9.9063589118358066e-06 0 -4.7034930808511605e-05 -3.7622115363123703e-05 0 -4.035589979686705e-05 -3.6869624001847612e-05 0 -4.1627269217322568e-05 -3.1573836028167495e-05 0 -2.5626478389487876e-05 -2.7419923730681043e-05 0 -2.772796727861395e-05 -3.1287468484382588e-05 0 -2.2671055207476371e-05 -2.6077547350795081e-05 0 -4.3159890374037314e-05 -3.1233314609617198e-05 0 -4.5702219085199537e-05 -3.4105305497729998e-05 0 -4.439695528998595e-05 -3.419259022269075e-05 0 -7.6254548150549133e-06 6.0519191523873967e-07 0 -8.9883146918212544e-06 7.3940437725721253e-07 0 -7.4296364332118805e-06 1.5435647769399345e-06 0 -3.2255141542648562e-05 0.00024232181238977593 0 -9.0742598381057469e-06 0.00022919452113695119 0 -1.2162021954823994e-05 0.00024976207639459665 0 -7.4255644670472211e-05 -0.00011917332921613513 0 -8.4201430141311949e-05 -0.0001144037534940508 0 -8.4266225448304498e-05 -0.00012427053000077341 0 -2.4761716380624339e-05 -2.2772206913059113e-05 0 -2.3839337572155464e-05 -1.729991814407307e-05 0 -2.4610415806527203e-05 -1.9744939377570403e-05 0 -2.2640684088822641e-05 -1.9089476412600579e-05 0 -1.721867152836404e-05 -1.5558980907201258e-05 0 -2.1989598040794403e-05 -1.2698923610826815e-05 0 -0.0001109663050456564 0.0002424206190329403 0 -0.00012786227831406902 0.00022655503146053592 0 -0.00010742756021053798 0.00021737443897082537 0 -4.0978935170442454e-05 -0.00011503742884763209 0 -3.258042135085561e-05 -0.00010578130790393111 0 -3.9949076596713449e-05 -0.00010293764897720388 0 -3.6133662238909138e-05 -7.2055812303539645e-05 0 -3.7778493356451879e-05 -8.4050843929442385e-05 0 -2.959130567276324e-05 -7.8541563686018102e-05 0 -4.2977073545573649e-05 -3.9262720134863015e-05 0 -4.2382232582427867e-05 -4.1484945165377812e-05 0 -4.0306724377091489e-05 -3.8878623729396314e-05 0 -3.1413625508787872e-05 -3.9129810821617032e-05 0 -2.8176946207967538e-05 -3.4880168271256261e-05 0 -2.9915597151896295e-05 -3.58267329488647e-05 0 -1.2904995736104539e-05 4.6091315686101828e-06 0 -1.0236983762348845e-05 2.6806040909288148e-06 0 -1.000238466040124e-05 4.8958546894815563e-06 0 -4.0200692373403702e-05 -4.6835525863538791e-05 0 -3.8054910760199671e-05 -4.6946632295319165e-05 0 -3.8464622018372088e-05 -4.37358802369178e-05 0 -1.1145140869521539e-05 -1.8533926356589899e-06 0 -8.9847917474524128e-06 -9.2488974691844089e-07 0 -8.6127117665479645e-06 -8.611620766581035e-07 0 -6.769715465337171e-06 -2.0345433269755162e-07 0 -8.6127117665479645e-06 -8.611620766581035e-07 0 -8.9847917474524128e-06 -9.2488974691844089e-07 0 -1.4056203916153947e-05 -1.2703004919148156e-06 0 -1.5770155106956531e-05 -3.8766536030065442e-06 0 -1.785933815122063e-05 -4.2904698755174676e-06 0 -3.4694151372862687e-05 -2.7290051234783605e-05 0 -4.035589979686705e-05 -3.6869624001847612e-05 0 -3.4449865414071177e-05 -3.2667041775754382e-05 0 -9.5560091331175238e-06 -1.1272810028057713e-06 0 -1.0500392913690815e-05 -1.5948562344484193e-06 0 -7.9847865965177983e-06 -4.0454342279732579e-07 0 -9.2482007649441559e-06 -7.9646279566110334e-07 0 -7.9847865965177983e-06 -4.0454342279732579e-07 0 -1.0500392913690815e-05 -1.5948562344484193e-06 0 -1.2567379318056488e-05 -2.8227507290678259e-06 0 -1.1937189844865901e-05 -2.4386016836506057e-06 0 -1.0500392913690815e-05 -1.5948562344484193e-06 0 -4.394273265308762e-05 -4.7161932416721583e-05 0 -4.6164827449302877e-05 -4.4956353301842407e-05 0 -4.771387366267585e-05 -4.8040069596772309e-05 0 -4.9843984059998063e-05 -4.6116098838605693e-05 0 -4.771387366267585e-05 -4.8040069596772309e-05 0 -4.6164827449302877e-05 -4.4956353301842407e-05 0 -3.4390216501094926e-05 -4.605424128659938e-05 0 -3.5831796314604802e-05 -4.7095280762644222e-05 0 -3.6107512604955978e-05 -5.0133918126587197e-05 0 -3.7209910351572773e-05 -4.9105648520202063e-05 0 -3.6107512604955978e-05 -5.0133918126587197e-05 0 -3.5831796314604802e-05 -4.7095280762644222e-05 0 -1.7936330317984339e-05 9.0872419100548333e-06 0 -2.1206788723597823e-05 -1.3663661264464633e-06 0 -1.5559778510218396e-05 9.9063589118358066e-06 0 -2.8270665685167944e-05 0.00032534646522641497 0 -3.8079488521733678e-05 0.00034263831641115995 0 -5.1638894763640407e-05 0.00033346083322380955 0 -8.0815828140227473e-05 -0.00015748595576360681 0 -7.6480134786018555e-05 -0.00016473610472336997 0 -6.9807126453137869e-05 -0.00015992826358809538 0 -4.1895955080357342e-05 -0.00015583697043953485 0 -5.108547860152781e-05 -0.00015955675283986005 0 -4.583952113575922e-05 -0.00016343847844250267 0 -0.00012340235498971831 0.00032935274105229693 0 -9.7644599354592733e-05 0.00033479324867788769 0 -0.00011326092416045145 0.00034591131861388101 0 -0.0001109663050456564 0.0002424206190329403 0 -0.00010742756021053798 0.00021737443897082534 0 -8.9393035854733139e-05 0.00022426822550301184 0 -4.0978935170442454e-05 -0.00011503742884763209 0 -3.9949076596713449e-05 -0.00010293764897720388 0 -4.7981993788264775e-05 -0.00010674425045334816 0 -3.6133662238909138e-05 -7.2055812303539645e-05 0 -4.4954195986424711e-05 -8.2714155419618413e-05 0 -3.7778493356451886e-05 -8.4050843929442385e-05 0 -1.8243288140829042e-05 -6.522398321988278e-06 0 -1.785933815122063e-05 -4.2904698755174676e-06 0 -1.5770155106956531e-05 -3.8766536030065442e-06 0 -5.0224746044837262e-05 0.00035668771964483863 0 -5.1638894763640407e-05 0.00033346083322380955 0 -3.8079488521733678e-05 0.00034263831641115995 0 -7.0867691863043037e-05 -0.0001704780331769501 0 -6.9807126453137869e-05 -0.00015992826358809538 0 -7.6480134786018555e-05 -0.00016473610472336997 0 -0.00010008206332845895 0.00035931752295418945 0 -0.00011326092416045145 0.00034591131861388101 0 -9.7644599354592733e-05 0.00033479324867788769 0 -5.0561111175351598e-05 -0.00016927208672596562 0 -4.5839521135759227e-05 -0.00016343847844250267 0 -5.108547860152781e-05 -0.00015955675283986005 0 -4.0236597325915935e-05 -4.1639543697438463e-05 0 -4.0306724377091489e-05 -3.8878623729396314e-05 0 -4.2382232582427867e-05 -4.1484945165377812e-05 0 -2.0222449399349708e-05 -4.0755416292567853e-05 0 -2.9745233628044472e-05 -3.88509019620014e-05 0 -2.5614576179054056e-05 -4.9312679414107695e-05 0 -5.478256369824265e-05 -5.221770428787744e-05 0 -5.261835012187535e-05 -4.9282062969674756e-05 0 -5.2562375026985868e-05 -4.8075466699741403e-05 0 -3.2384000824448013e-05 -3.964392952730086e-05 0 -3.2848680852322317e-05 -4.2755696164990773e-05 0 -3.4790084101452037e-05 -4.6523777009094329e-05 0 -4.9943771203422665e-06 8.2826228585088383e-07 0 -3.5593469353118471e-06 6.8805820736936273e-07 0 -4.7557903229905785e-06 6.7043772276498172e-07 0 -0.00011949340049458844 0.00019736956361781168 0 -0.00012085073696348198 0.00016913947149036087 0 -0.00010155513977066073 0.0001742256903665526 0 -9.9148144764354523e-05 0.00015223602520079621 0 -0.00010155513977066073 0.0001742256903665526 0 -0.00012085073696348198 0.00016913947149036087 0 -3.7767956144572249e-05 -3.5833035087948857e-05 0 -4.0512027125529403e-05 -3.5881159300756313e-05 0 -4.0306724377091489e-05 -3.8878623729396314e-05 0 -1.1822432246095773e-05 -1.9009838670065405e-06 0 -1.1937189844865901e-05 -2.4386016836506057e-06 0 -1.3813748865283728e-05 -3.7890892083548684e-06 0 -3.4208019918485943e-05 -1.8399590379491786e-05 0 -3.2761209695618786e-05 -1.7968123060626351e-05 0 -3.1878473578595761e-05 -1.4496509598046881e-05 0 -3.0198632310605694e-05 -1.2681219700968143e-05 0 -3.1878473578595761e-05 -1.4496509598046881e-05 0 -3.2761209695618786e-05 -1.7968123060626351e-05 0 -8.9864139590492369e-05 0.00019623960100322558 0 -8.9393035854733139e-05 0.00022426822550301184 0 -0.00010742756021053798 0.00021737443897082537 0 -4.4592839054843978e-05 -9.4119061605957177e-05 0 -4.7981993788264775e-05 -0.00010674425045334816 0 -3.9949076596713449e-05 -0.00010293764897720388 0 -4.4592839054843978e-05 -9.4119061605957177e-05 0 -3.7778493356451886e-05 -8.4050843929442385e-05 0 -4.4954195986424711e-05 -8.2714155419618413e-05 0 -7.7027301103262942e-06 -2.0563374256597512e-06 0 -1.1665107634160602e-05 -3.1782854178810884e-06 0 -8.9003745938236006e-06 -1.7924624416247675e-06 0 -1.0138099423621966e-05 9.8909766645786873e-07 0 -1.1320493781106366e-05 3.3106934380272006e-07 0 -1.5440918222737667e-05 1.8255577393457921e-06 0 -2.07621934703154e-05 3.992733619802191e-06 0 -1.5440918222737667e-05 1.8255577393457921e-06 0 -1.984854003205932e-05 2.7850238712321877e-06 0 -1.528748842528957e-05 -5.0047571800569774e-06 0 -1.5082453065849918e-05 -4.2012944053021077e-06 0 -1.16651076341606e-05 -3.178285417881088e-06 0 -1.5490167679661418e-05 -4.8243921212962519e-06 0 -1.5770155106956531e-05 -3.8766536030065442e-06 0 -1.3522932185092689e-05 -2.4495648838384648e-06 0 -0.00011949340049458844 0.00019736956361781168 0 -0.00010742756021053798 0.00021737443897082537 0 -0.00012786227831406902 0.00022655503146053592 0 -3.3194554740605476e-05 -9.2497325194500226e-05 0 -3.9949076596713449e-05 -0.00010293764897720388 0 -3.258042135085561e-05 -0.00010578130790393111 0 -3.3194554740605476e-05 -9.2497325194500226e-05 0 -2.959130567276324e-05 -7.8541563686018102e-05 0 -3.7778493356451886e-05 -8.4050843929442385e-05 0 -5.0111840256185751e-05 -6.5081681751513799e-05 0 -5.8279983392541507e-05 -6.5173194402449265e-05 0 -5.8417668819963659e-05 -7.4362061114170789e-05 0 -4.2977073545573649e-05 -3.9262720134863015e-05 0 -4.0306724377091489e-05 -3.8878623729396314e-05 0 -4.0512027125529403e-05 -3.5881159300756313e-05 0 -1.2904995736104539e-05 4.6091315686101828e-06 0 -1.3966590907899087e-05 7.6638888120797974e-06 0 -1.7444753507021123e-05 6.4916659007497677e-06 0 -1.8706231812713424e-05 -9.0691231742966891e-06 0 -1.6262787681378735e-05 -6.1198715627272528e-06 0 -1.8059647758242703e-05 -7.7978928397756402e-06 0 -1.1711662659141965e-05 -2.4855360778573473e-06 0 -1.567233316783974e-05 -4.0527284368411821e-06 0 -1.3135599328477191e-05 -2.7727909262900286e-06 0 -8.9837892427761709e-05 0.00010512782180223353 0 -7.4978602459746857e-05 0.00010684579559028442 0 -8.6266078581257038e-05 0.0001289963912401855 0 -6.0071783558673736e-05 -5.4537246957552474e-05 0 -5.8279983392541507e-05 -6.5173194402449265e-05 0 -5.3615830038601519e-05 -5.5545314944135236e-05 0 -3.2255141542648562e-05 0.00024232181238977593 0 -5.3306544818783872e-05 0.00024294518761258505 0 -4.2594737120391532e-05 0.00022377877776540679 0 -7.4255644670472211e-05 -0.00011917332921613513 0 -6.4896528132575809e-05 -0.00011844337054217883 0 -6.7842903732740693e-05 -0.00010919604211186681 0 -2.8141960918965787e-05 0.00014417352292218303 0 -4.1054551928231509e-05 0.00016562806032556742 0 -5.3686271409771828e-05 0.00014667481976432778 0 -1.9108804529819288e-05 -6.1551249467767049e-06 0 -2.0668951485280558e-05 -6.6392221911488182e-06 0 -2.3790939918406833e-05 -8.8230533187682882e-06 0 -1.4807344886277114e-05 -4.6997551842259193e-06 0 -1.3813748865283728e-05 -3.7890892083548684e-06 0 -1.1937189844865901e-05 -2.4386016836506057e-06 0 -5.3939739817407666e-05 -8.2811753544808126e-05 0 -5.8417668819963659e-05 -7.4362061114170789e-05 0 -6.3074128644460196e-05 -8.355505943841866e-05 0 -4.9843984059998063e-05 -4.6116098838605693e-05 0 -5.2562375026985868e-05 -4.8075466699741403e-05 0 -5.261835012187535e-05 -4.9282062969674756e-05 0 -3.4390216501094926e-05 -4.605424128659938e-05 0 -3.4790084101452037e-05 -4.6523777009094329e-05 0 -3.2848680852322317e-05 -4.2755696164990773e-05 0 -9.2482007649441559e-06 -7.9646279566110334e-07 0 -1.0500392913690815e-05 -1.5948562344484193e-06 0 -1.1937189844865901e-05 -2.4386016836506057e-06 0 -0.00012684437215756321 0.00035995246488668256 0 -0.00013591395079615214 0.00034460064225758677 0 -0.00011326092416045145 0.00034591131861388101 0 -0.00012340235498971831 0.00032935274105229693 0 -0.00011326092416045145 0.00034591131861388101 0 -0.00013591395079615214 0.00034460064225758677 0 -4.1895955080357342e-05 -0.00015583697043953485 0 -4.583952113575922e-05 -0.00016343847844250267 0 -3.8147301214204281e-05 -0.00016106542565312524 0 -4.1651706297896185e-05 -0.00016753819786186717 0 -3.8147301214204281e-05 -0.00016106542565312524 0 -4.583952113575922e-05 -0.00016343847844250267 0 -2.7083178322791386e-05 0.00035308554975940504 0 -3.8079488521733678e-05 0.00034263831641115995 0 -1.8325185731971037e-05 0.00033761211919747838 0 -8.2363568664595526e-05 -0.00017084823483725953 0 -7.6480134786018555e-05 -0.00016473610472336997 0 -8.630926993067047e-05 -0.00016418303914983806 0 -2.8270665685167944e-05 0.00032534646522641497 0 -1.8325185731971037e-05 0.00033761211919747838 0 -3.8079488521733678e-05 0.00034263831641115995 0 -8.0815828140227473e-05 -0.00015748595576360681 0 -8.630926993067047e-05 -0.00016418303914983806 0 -7.6480134786018555e-05 -0.00016473610472336997 0 -3.7767956144572249e-05 -3.5833035087948857e-05 0 -4.0306724377091489e-05 -3.8878623729396314e-05 0 -3.7913468599158826e-05 -3.9142843492751298e-05 0 -4.3486607478125132e-05 -3.5757094748683891e-05 0 -4.162032906426001e-05 -3.1344450179926835e-05 0 -4.439695528998595e-05 -3.419259022269075e-05 0 -4.3159890374037314e-05 -3.1233314609617198e-05 0 -4.439695528998595e-05 -3.419259022269075e-05 0 -4.162032906426001e-05 -3.1344450179926835e-05 0 -4.0236597325915935e-05 -4.1639543697438463e-05 0 -4.2382232582427867e-05 -4.1484945165377812e-05 0 -4.2400099367182655e-05 -4.411982637159879e-05 0 -4.4815628732838833e-05 -4.2465619872322506e-05 0 -4.2400099367182655e-05 -4.411982637159879e-05 0 -4.2382232582427867e-05 -4.1484945165377812e-05 0 -1.0742613806930538e-05 1.631097376462172e-05 0 -1.3538858931192742e-05 1.1526219289444133e-05 0 -1.5633183544971882e-05 1.2371443418048575e-05 0 -1.9747662170403903e-05 1.1416887811508408e-05 0 -2.7285436401018685e-05 1.5827305253350035e-05 0 -2.4187308371982586e-05 9.8243874998634222e-06 0 -3.2539472379887188e-05 1.4043521318480339e-05 0 -2.4187308371982586e-05 9.8243874998634222e-06 0 -2.7285436401018685e-05 1.5827305253350035e-05 0 -1.9108804529819288e-05 -6.1551249467767049e-06 0 -2.2290186406553684e-05 -8.9622479466631959e-06 0 -1.8007470641279179e-05 -6.0961034321578494e-06 0 -8.9837892427761709e-05 0.00010512782180223353 0 -7.4129074763166355e-05 8.7593080484807485e-05 0 -7.4978602459746857e-05 0.00010684579559028442 0 -5.8935622796179073e-05 9.0613655346372609e-05 0 -7.4978602459746857e-05 0.00010684579559028442 0 -7.4129074763166355e-05 8.7593080484807485e-05 0 -1.3219630552096839e-05 8.9707491431151791e-06 0 -1.3538858931192742e-05 1.1526219289444133e-05 0 -1.0657952684868687e-05 1.1868709343105689e-05 0 -3.1346390283436822e-05 -3.4698911892355523e-05 0 -3.300129633972683e-05 -3.899198370268257e-05 0 -2.9915597151896295e-05 -3.58267329488647e-05 0 -3.1413625508787872e-05 -3.9129810821617032e-05 0 -2.9915597151896295e-05 -3.58267329488647e-05 0 -3.300129633972683e-05 -3.899198370268257e-05 0 -9.1054680711968939e-06 1.0407595187268142e-05 0 -1.0657952684868687e-05 1.1868709343105689e-05 0 -9.4838837575243068e-06 1.4661015460901779e-05 0 -4.6158276732800853e-05 -4.8278282068793413e-05 0 -5.2718825937129764e-05 -4.7116437290324842e-05 0 -5.3615830038601519e-05 -5.5545314944135236e-05 0 -6.0071783558673736e-05 -5.4537246957552474e-05 0 -5.3615830038601519e-05 -5.5545314944135236e-05 0 -5.2718825937129764e-05 -4.7116437290324842e-05 0 -9.5195802510570891e-06 5.9945004451227111e-06 0 -1.2034546627153324e-05 6.2512025342047148e-06 0 -9.9487229542374777e-06 8.3533483151717928e-06 0 -9.1054680711968939e-06 1.0407595187268142e-05 0 -9.9487229542374777e-06 8.3533483151717928e-06 0 -1.0657952684868687e-05 1.1868709343105689e-05 0 -4.3159890374037314e-05 -3.1233314609617198e-05 0 -4.3419207125267816e-05 -2.9734750084728755e-05 0 -4.5702219085199537e-05 -3.4105305497729998e-05 0 -1.4807344886277114e-05 -4.6997551842259193e-06 0 -1.6262787681378738e-05 -6.1198715627272528e-06 0 -1.3813748865283728e-05 -3.7890892083548684e-06 0 -1.5490167679661418e-05 -4.8243921212962519e-06 0 -1.3813748865283728e-05 -3.7890892083548684e-06 0 -1.6262787681378738e-05 -6.1198715627272528e-06 0 -1.4056203916153947e-05 -1.2703004919148156e-06 0 -1.3522932185092689e-05 -2.4495648838384648e-06 0 -1.5770155106956531e-05 -3.8766536030065442e-06 0 8.7811736937992248e-06 0.00023385995191562822 0 -1.2162021954823994e-05 0.00024976207639459665 0 -9.0742598381057469e-06 0.00022919452113695119 0 -9.3298594080758722e-05 -0.00011933499558184776 0 -8.4266225448304484e-05 -0.00012427053000077341 0 -8.4201430141311949e-05 -0.0001144037534940508 0 -2.5252606776929772e-05 -8.9025014246355322e-06 0 -2.3790939918406833e-05 -8.8230533187682882e-06 0 -2.0668951485280562e-05 -6.6392221911488182e-06 0 -1.6438019068011212e-09 1.7845242096987505e-10 0 -1.2247668593250371e-06 3.4977323524757293e-07 0 -1.0733062356023785e-06 2.9026012444378791e-07 0 1.2593331001443661e-05 0.00014260042088917762 0 -5.8856804992697723e-06 0.00015352915483112406 0 -7.2629829302088888e-06 0.0001335332814153303 0 -4.0236597325915935e-05 -4.1639543697438463e-05 0 -3.7913468599158826e-05 -3.9142843492751298e-05 0 -4.0306724377091489e-05 -3.8878623729396314e-05 0 -2.1150177470229785e-05 5.7637288733282519e-06 0 -2.4187308371982586e-05 9.8243874998634222e-06 0 -2.8788350949465211e-05 9.2890556748576247e-06 0 -3.2539472379887188e-05 1.4043521318480339e-05 0 -2.8788350949465211e-05 9.2890556748576247e-06 0 -2.4187308371982586e-05 9.8243874998634222e-06 0 -4.6634972672211147e-05 -3.3114153771232626e-05 0 -4.5702219085199537e-05 -3.4105305497729998e-05 0 -4.3419207125267816e-05 -2.9734750084728755e-05 0 
</DataArray>
</PointData>
<CellData Scalars="region_id,cross_section_updated," Vectors="" Tensors="stress,">
<DataArray type="Float64" Name="region_id" format="ascii">
2 2 2 2 2 2 2 2 2 2 3 3 3 3 3 3 3 3 3 3 1 1 1 1 1 1 1 1 1 1 1 1 1 1 1 1 1 1 1 1 1 1 1 1 1 1 1 1 1 1 1 1 1 1 1 1 1 1 1 1 1 1 1 1 1 1 1 1 1 1 1 1 1 1 1 1 1 1 1 1 1 1 1 1 1 1 1 1 1 1 1 1 1 1 1 1 1 1 1 1 1 1 1 1 1 1 1 1 1 1 1 1 1 1 1 1 1 1 1 1 1 1 1 1 1 1 1 1 1 1 1 1 1 1 1 1 1 1 1 1 1 1 1 1 1 1 1 1 1 1 1 1 1 1 1 1 1 1 1 1 1 1 1 1 1 1 1 1 1 1 1 1 1 1 1 1 1 1 1 1 1 1 1 1 1 1 1 1 1 1 1 1 1 1 1 1 1 1 1 1 1 1 1 1 1 1 1 1 1 1 1 1 1 1 1 1 1 1 1 1 1 1 1 1 1 1 1 1 1 1 1 1 1 1 1 1 1 1 1 1 1 1 1 1 1 1 1 1 1 1 1 1 1 1 1 1 1 1 1 1 1 1 1 1 1 1 1 1 1 1 1 1 1 1 1 1 1 1 1 1 1 1 1 1 1 1 1 1 1 1 1 1 1 1 1 1 1 1 1 1 1 1 1 1 1 1 1 1 1 1 1 1 1 1 1 1 1 1 1 1 1 1 1 1 1 1 1 1 1 1 1 1 1 1 1 1 1 1 1 1 1 1 1 1 1 1 1 1 1 1 1 1 1 1 1 1 1 1 1 1 1 1 1 1 1 1 1 1 1 1 1 1 1 1 1 1 1 1 1 1 1 1 1 1 1 1 1 1 1 1 1 1 1 1 1 1 1 1 1 1 1 1 1 1 1 1 1 1 1 1 1 1 1 1 1 1 1 1 1 1 1 1 1 1 1 1 1 1 1 1 1 1 1 1 1 1 1 1 1 1 1 1 1 1 1 1 1 1 1 1 1 1 1 1 1 1 1 1 1 1 1 1 1 1 1 1 1 1 1 1 1 1 1 1 1 1 1 1 1 1 1 1 1 1 1 1 1 1 1 1 1 1 1 1 1 1 1 1 1 1 1 1 1 1 1 1 1 1 1 1 1 1 1 1 1 1 1 1 1 1 1 1 1 1 1 1 1 1 1 1 1 1 1 1 1 1 1 1 1 1 1 1 1 1 1 1 1 1 1 1 1 1 1 1 1 1 1 1 1 1 1 1 1 1 1 1 1 1 1 1 1 1 1 1 1 1 1 1 1 1 1 1 1 1 1 1 1 1 1 1 1 1 1 1 1 1 1 1 1 1 1 1 1 1 1 1 1 1 1 1 1 1 1 1 1 1 1 1 1 1 1 1 1 1 1 1 1 1 1 1 1 1 1 1 1 1 1 1 1 1 1 1 1 1 1 1 1 1 1 1 1 1 1 1 1 1 1 1 1 1 1 1 1 1 1 1 1 1 1 1 1 1 1 1 1 1 1 1 1 1 1 1 1 1 1 1 1 1 1 1 1 1 1 1 1 1 1 1 1 1 1 1 1 1 1 1 1 1 1 1 1 1 1 1 1 1 1 1 1 1 1 1 1 1 1 1 1 1 1 1 1 1 1 1 1 1 1 1 1 1 1 1 1 1 1 1 1 1 1 1 1 1 1 1 1 1 1 1 1 1 1 1 1 1 1 1 1 1 1 1 1 1 1 1 1 1 1 1 1 1 1 1 1 1 1 1 1 1 1 1 1 1 1 1 1 1 1 1 1 1 1 1 1 1 1 1 1 1 1 1 1 1 1 1 1 1 1 1 1 1 1 1 1 1 1 1 1 1 1 1 1 1 1 1 1 1 1 1 1 1 1 1 1 1 1 1 1 1 1 1 1 1 1 1 1 1 1 1 1 1 1 1 1 1 1 1 1 1 1 1 1 1 1 1 1 1 1 1 1 1 1 1 1 1 1 1 1 1 1 1 1 1 1 1 1 1 1 1 1 1 1 1 1 1 1 1 1 1 1 1 1 1 1 1 1 1 1 1 1 1 1 1 1 1 1 1 1 1 1 1 1 1 1 1 1 1 1 1 1 1 1 1 1 1 1 1 1 1 1 1 1 1 1 1 1 1 1 1 1 1 1 1 1 1 1 1 1 1 1 1 1 1 1 1 1 1 1 1 1 1 1 1 1 1 1 1 1 1 1 1 1 1 1 1 1 1 1 1 1 1 1 1 1 1 1 1 1 1 1 1 1 1 1 1 1 1 1 1 1 1 1 1 1 1 1 1 1 1 1 1 1 1 1 1 1 1 1 1 1 1 1 1 1 1 1 1 1 1 1 1 1 1 1 1 
</DataArray>
<DataArray type="Float64" Name="stress" NumberOfComponents="9" format="ascii">
-4.5877763225706208e-05 -5.9564500087914426e-05 0 -5.9564500087914426e-05 -1.5292587741902106e-05 0 0 0 -1.5292587741902106e-05 -5.3589144215324624e-05 -6.72436098172203e-05 0 -6.72436098172203e-05 -1.7863048071774875e-05 0 0 0 -1.7863048071774875e-05 -5.9812782716371117e-05 -7.6971729805041383e-05 0 -7.6971729805041383e-05 -1.9937594238790399e-05 0 0 0 -1.9937594238790399e-05 -5.5187147659113071e-05 -7.9051526222516909e-05 0 -7.9051526222516909e-05 -1.839571588637106e-05 0 0 0 -1.839571588637106e-05 -4.8947928542370954e-05 -7.8360593499564031e-05 0 -7.8360593499564031e-05 -1.6315976180790264e-05 0 0 0 -1.6315976180790264e-05 -4.6727426146475084e-05 -7.6592833369773473e-05 0 -7.6592833369773473e-05 -1.5575808715491749e-05 0 0 0 -1.5575808715491749e-05 -4.7589632367644259e-05 -7.2383034020293826e-05 0 -7.2383034020293826e-05 -1.5863210789214771e-05 0 0 0 -1.5863210789214771e-05 -4.8542898689494943e-05 -6.9145530083346849e-05 0 -6.9145530083346849e-05 -1.6180966229831684e-05 0 0 0 -1.6180966229831684e-05 -3.1457593757239482e-05 -5.84432972613975e-05 0 -5.84432972613975e-05 -1.048586458574644e-05 0 0 0 -1.048586458574644e-05 -9.5459696342813051e-05 -6.0342840199321805e-05 0 -6.0342840199321805e-05 -3.1819898780937684e-05 0 0 0 -3.1819898780937684e-05 0.00010162770399927585 0.00011801421884754872 0 0.00011801421884754872 3.3875901333091954e-05 0 0 0 3.3875901333091954e-05 -3.5846788633629723e-05 5.9136146826195243e-05 0 5.9136146826195243e-05 -1.1948929544543241e-05 0 0 0 -1.1948929544543241e-05 -4.2799888196407232e-05 0.00010988417065504276 0 0.00010988417065504276 -1.426662939880241e-05 0 0 0 -1.426662939880241e-05 -5.203474554753992e-05 9.8169197976698242e-05 0 9.8169197976698242e-05 -1.7344915182513308e-05 0 0 0 -1.7344915182513308e-05 -5.9655052260867601e-05 0.0001072811630324341 0 0.0001072811630324341 -1.9885017420289197e-05 0 0 0 -1.9885017420289197e-05 -6.703084716263159e-05 0.00010690858773615604 0 0.00010690858773615604 -2.2343615720877204e-05 0 0 0 -2.2343615720877204e-05 -6.8912237295004332e-05 9.9776560230755221e-05 0 9.9776560230755221e-05 -2.2970745765001435e-05 0 0 0 -2.2970745765001435e-05 -0.00010532327728575512 0.00011064436189294694 0 0.00011064436189294694 -3.5107759095251719e-05 0 0 0 -3.5107759095251719e-05 2.2729678006600006e-05 8.2912797780405412e-05 0 8.2912797780405412e-05 7.576559335533358e-06 0 0 0 7.576559335533358e-06 -0.00048099603992774045 0.00010828117127736295 0 0.00010828117127736295 -0.00016033201330924678 0 0 0 -0.00016033201330924678 -0.058904104367774407 -0.017021411686545175 0 -0.017021411686545175 0.026685254379942347 0 0 0 -0.0080547124969579803 -0.054083395686137015 -0.01748482406364546 0 -0.01748482406364546 0.046070608345628483 0 0 0 -0.0020031968351271467 -0.074425142276842091 -0.011298920842931354 0 -0.011298920842931354 0.039996618748777246 0 0 0 -0.0086071308820161591 -0.077055722238315236 -0.0004584527196620225 0 -0.0004584527196620225 0.041310668423740253 0 0 0 -0.0089362634536437179 -0.16307590870822783 -0.0049192354634471497 0 -0.0049192354634471497 0.0018615523640932163 0 0 0 -0.040303589086033632 -0.12008121399835567 -0.00056230171445587063 0 -0.00056230171445587063 -0.00035876424260496056 0 0 0 -0.030109994560240164 -0.1712172900189099 -0.0021051164921010446 0 -0.0021051164921010446 -0.0014910139759560081 0 0 0 -0.043177075998716459 -0.12430684834105601 -0.0017146531974795833 0 -0.0017146531974795833 -0.00092525290396783949 0 0 0 -0.031308025311255962 -0.14028460930197229 0.003458976907491737 0 0.003458976907491737 -0.0004583272535595706 0 0 0 -0.035185734138882922 -0.23736492190550029 -0.010769482285709866 0 -0.010769482285709866 -0.0005211683327803196 0 0 0 -0.059471522559570167 -0.029291475053838629 0.00347693654306003 0 0.00347693654306003 -0.016883653067079039 0 0 0 -0.011543782030229422 -0.033779056574480354 0.0046361355677572557 0 0.0046361355677572557 -0.012164159757671475 0 0 0 -0.011485804083037949 -0.062080824934264076 0.0013708387742677156 0 0.0013708387742677156 -0.0097375965896061376 0 0 0 -0.017954605380967527 -0.061602965395910328 -0.0074286893216954095 0 -0.0074286893216954095 -0.020538384352768023 0 0 0 -0.020535337437169586 -0.062593098048316365 0.0030196477735336276 0 0.0030196477735336276 -0.020864327000976447 0 0 0 -0.020864356262323205 -0.071270769731863304 -0.019161764287816088 0 -0.019161764287816088 0.026711431270682429 0 0 0 -0.01113983461529524 0.14822593678295126 0.1189399486035847 0 0.1189399486035847 0.25129245573082115 0 0 0 0.099879598128443103 -0.001088338737019523 -0.012128338959040863 0 -0.012128338959040863 0.0036100455795269326 0 0 0 0.00063042671062696343 -0.0016125869695104988 0.0058694399895897753 0 0.0058694399895897753 0.011613611589162076 0 0 0 0.0025002561549127833 0.00066549123704850999 0.014761574305325133 0 0.014761574305325133 0.018447846208639262 0 0 0 0.0047783343614220541 -0.00072662112222654507 -0.0055611632313184445 0 -0.0055611632313184445 0.0046951984235974464 0 0 0 0.00099214432534289188 -0.013435502400704014 0.022640128177030316 0 0.022640128177030316 0.0052589948019137189 0 0 0 -0.0020441268996975737 -0.01075138438246559 -0.025178125924476324 0 -0.025178125924476324 0.0029255158778949131 0 0 0 -0.0019564671261427247 -0.056980859216681168 0.0043699466128535331 0 0.0043699466128535331 -0.010709654468120866 0 0 0 -0.016922628421200507 0.16184001598461389 -0.0068697005293801017 0 -0.0068697005293801017 0.1568249702954328 0 0 0 0.079666246570011687 -0.25261365484931242 0.016948481884760724 0 0.016948481884760724 0.007855291936939901 0 0 0 -0.061189590728093157 -0.14034113477022725 -0.0067999429021524168 0 -0.0067999429021524168 0.0030902329656072869 0 0 0 -0.034312725451154991 -0.1142373010777054 -0.024032334284873544 0 -0.024032334284873544 0.01935129006944647 0 0 0 -0.023721502752064735 -0.12580856567309667 0.029968499417115484 0 0.029968499417115484 0.073182091117377279 0 0 0 -0.013156618638929862 -0.1405745307120071 -0.020812372274296456 0 -0.020812372274296456 0.013089107590465388 0 0 0 -0.031871355780385413 -0.063924302078242054 -0.025294526265524534 0 -0.025294526265524534 0.054214164227752437 0 0 0 -0.0024275344626223938 -0.031458424320831402 -0.035338263357905686 0 -0.035338263357905686 0.0057218447304205888 0 0 0 -0.0064341448976026894 -0.035586878759151008 0.045045566065451847 0 0.045045566065451847 0.0038687832678754308 0 0 0 -0.0079295238728190887 -0.033623094446665114 -0.036072597694360664 0 -0.036072597694360664 0.0097803206191762193 0 0 0 -0.0059606934568722236 -0.044146322043377317 0.048112929678429506 0 0.048112929678429506 -0.00031165627556006825 0 0 0 -0.011114494579734124 -0.1087098650723263 -0.029652493196387596 0 -0.029652493196387596 0.005515527289696065 0 0 0 -0.025798584445657601 -0.037592445480106568 -0.050001892551789329 0 -0.050001892551789329 0.074734048903920408 0 0 0 0.0092854008559534844 -0.1447152004125678 0.017424132301486428 0 0.017424132301486428 0.019561178678902946 0 0 0 -0.031288505433416269 0.28137711797799247 0.14061302213686278 0 0.14061302213686278 0.084146140935371871 0 0 0 0.091380814728341142 -0.0027377139658574801 0.008157991302830625 0 0.008157991302830625 0.023045443094556251 0 0 0 0.0050769322821747065 -0.0059023057142316704 -0.0087367819705420624 0 -0.0087367819705420624 0.063985561650375167 0 0 0 0.014520813984035874 -0.056360718811401436 -0.025813399039802024 0 -0.025813399039802024 0.091145294509051469 0 0 0 0.0086961439244125187 -0.0045598840876805991 -0.022991612343109535 0 -0.022991612343109535 0.075078871278906334 0 0 0 0.017629746797806378 -0.0078989925232435532 0.0039191298930210117 0 0.0039191298930210117 -0.002743518312431803 0 0 0 -0.0026606277089182839 -0.046373183602687072 -0.0064391745907265213 0 -0.0064391745907265213 -0.021692596881513645 0 0 0 -0.017016445121050182 -0.050327578395811784 0.0059960905327657958 0 0.0059960905327657958 -0.016351500587287057 0 0 0 -0.01666976974577471 -0.083220915229938949 0.077174991673743087 0 0.077174991673743087 0.075228585166875611 0 0 0 -0.0019980825157657617 -0.076846235774251287 0.069676150486626676 0 0.069676150486626676 0.052430754637042221 0 0 0 -0.0061038702843022319 0.12640459748242447 0.1659974198822104 0 0.1659974198822104 0.28826606304287405 0 0 0 0.10366766513132461 -0.012746396007437169 0.0079653396986336666 0 0.0079653396986336666 0.00093108929923235717 0 0 0 -0.0029538266770509775 -0.021685749691781074 -0.0240337154810919 0 -0.0240337154810919 0.06244536891351686 0 0 0 0.010189904805434004 -0.027301698368873417 -0.011938385838442395 0 -0.011938385838442395 -0.012574765444425706 0 0 0 -0.0099691159533247253 -0.05936199171907186 -0.023691068969763005 0 -0.023691068969763005 0.068646663303268518 0 0 0 0.0023211678960491596 -0.046323861236611391 -0.03090670408120666 0 -0.03090670408120666 0.0037706727760046244 0 0 0 -0.010638297115151713 -0.032474044110178846 -0.0069801569270075692 0 -0.0069801569270075692 0.022211959382309021 0 0 0 -0.0025655211819674006 -0.12335531928870458 0.021196533520320138 0 0.021196533520320138 -0.00065617347336921483 0 0 0 -0.031002873190518421 -0.010277432990219437 -0.0057522590928814621 0 -0.0057522590928814621 0.00040744569906792094 0 0 0 -0.0024674968227879068 -0.014856762540276902 0.025143028391275024 0 0.025143028391275024 0.1190449193488643 0 0 0 0.026047039202146793 -0.022871783930241443 -0.019936730790713453 0 -0.019936730790713453 0.087457572324847285 0 0 0 0.016146447098651682 0.0016354735126546949 0.00074311110906565795 0 0.00074311110906565795 -0.0012749576541155605 0 0 0 9.012896463511666e-05 -0.028107213924376095 0.00065644290677355221 0 0.00065644290677355221 0.0012754121878966185 0 0 0 -0.0067079504341198692 0.0058983811209001903 -0.071911751813035885 0 -0.071911751813035885 0.11762610997978405 0 0 0 0.030881122775171025 -0.025774374442025683 -0.00091406298739435399 0 -0.00091406298739435399 0.00073809736667529435 0 0 0 -0.0062590692688376803 -0.036160842030397738 -0.010914708013417047 0 -0.010914708013417047 0.0043586409554257077 0 0 0 -0.0079505502687430285 -0.049786990437323042 -0.040306809669566658 0 -0.040306809669566658 0.010783108742963954 0 0 0 -0.0097509704235898553 -0.11462179609289741 -0.0096234212128912776 0 -0.0096234212128912776 -0.019273266723389033 0 0 0 -0.033473765704071609 -0.15224487179830401 0.0035463678833868428 0 0.0035463678833868428 -0.024282217411664496 0 0 0 -0.044131772302492128 0.0027093529291191899 0.0045081521818579051 0 0.0045081521818579051 0.010227444300931929 0 0 0 0.0032341993075128074 0.0048474640937787306 -0.0057629872588354503 0 -0.0057629872588354503 0.050552435739352308 0 0 0 0.013849974958282774 -0.11220566020247216 -0.0086359562283700782 0 -0.0086359562283700782 -0.027850905787699668 0 0 0 -0.03501414149754295 -0.090119965501163177 -0.00093071560432185681 0 -0.00093071560432185681 -0.021527291834483035 0 0 0 -0.027911814333911555 -0.038472893956566508 0.00027735810398255587 0 0.00027735810398255587 -0.020042666798119928 0 0 0 -0.014628890188671608 -0.12017052184267712 0.0027764008438163415 0 0.0027764008438163415 -0.00038145119354727162 0 0 0 -0.030137993259056105 -0.16657882639711188 -0.010442388692632594 0 -0.010442388692632594 0.0013920104015901907 0 0 0 -0.041296703998880385 -0.038782754760565946 -0.021799187019526059 0 -0.021799187019526059 -0.008940304388868392 0 0 0 -0.011930764787358633 -0.042330758114657988 -0.028423069514335569 0 -0.028423069514335569 0.0045040695930566033 0 0 0 -0.0094566721304003704 0.0036064007569035494 0.024054118811195568 0 0.024054118811195568 0.14263763976398469 0 0 0 0.036561010130222171 -0.006900261612384051 -0.0033003035955725402 0 -0.0033003035955725402 -0.0023098657962584146 0 0 0 -0.0023025318521607274 -0.040464039811780678 -0.023530514648218717 0 -0.023530514648218717 -0.011013130291980588 0 0 0 -0.012869292525940296 -0.030628207969532112 -0.012564417410871248 0 -0.012564417410871248 0.00071353100038462625 0 0 0 -0.0074786692422868783 -0.068935270624066236 0.064730853970095537 0 0.064730853970095537 -0.00087109835033505334 0 0 0 -0.017451592243600267 -0.13279349400949436 0.00046232181924933403 0 0.00046232181924933403 -0.044288861806848601 0 0 0 -0.044270588954085741 -0.10195059413341398 -0.0070589984772065854 0 -0.0070589984772065854 -0.034002684972692633 0 0 0 -0.033988319776526651 -0.046682735021460905 -0.0061130026065725936 0 -0.0061130026065725936 -0.021940962525544141 0 0 0 -0.017155924386751262 -0.011851269831504085 0.030676411514179769 0 0.030676411514179769 0.013836671232591691 0 0 0 0.0004963503502717348 -0.012305386221544534 -0.018439890388436853 0 -0.018439890388436853 0.0013916974268082249 0 0 0 -0.0027284221986840773 -0.03827232326129975 -0.037911206378152706 0 -0.037911206378152706 0.0086602955763202816 0 0 0 -0.0074030069212450075 -0.034047937301176799 0.0034928885743146926 0 0.0034928885743146926 -0.015604136750658517 0 0 0 -0.012413018512958826 -0.08530988556904387 -0.017007580616700144 0 -0.017007580616700144 -0.0087643610582684821 0 0 0 -0.023518561656828096 -0.038443595870756464 -0.011555701435598812 0 -0.011555701435598812 0.0028091853446177151 0 0 0 -0.0089086026315347011 -0.030984940282505313 0.0057617665094871449 0 0.0057617665094871449 -0.014001179495582742 0 0 0 -0.011246529944522016 -0.035269934362081153 0.0053329658483790721 0 0.0053329658483790721 -0.012295625962188085 0 0 0 -0.011891390081067313 -0.037769801862824796 0.0039047622603286445 0 0.0039047622603286445 -0.01487333041528505 0 0 0 -0.013160783069527461 -0.031543783066106418 -0.0035941577565728189 0 -0.0035941577565728189 0.01767578395164765 0 0 0 -0.0034669997786146711 -0.038811875401996127 -0.038303343905380663 0 -0.038303343905380663 0.028144128526894518 0 0 0 -0.0026669367187753534 -0.026888781327110145 -0.011410077616317404 0 -0.011410077616317404 0.0025486555678628786 0 0 0 -0.0060850314398117611 -0.059038889404989178 -0.02805619955962467 0 -0.02805619955962467 0.089940956834085539 0 0 0 0.0077255168572740902 -0.020301396614899936 0.020413912196583617 0 0.020413912196583617 0.16026217590809999 0 0 0 0.034990194823299792 0.00056084431296787862 -0.00076947743075739239 0 -0.00076947743075739239 -0.00089108948020655276 0 0 0 -8.2561291809613024e-05 -0.0071942827043542934 -0.0058953295497065003 0 -0.0058953295497065003 -0.0034786473200152379 0 0 0 -0.0026682325060922718 -0.015779036469852681 0.016801073652974452 0 0.016801073652974452 0.16176785599641175 0 0 0 0.036497204881639433 -0.041641158064498557 0.021788855444192845 0 0.021788855444192845 0.12492131537607962 0 0 0 0.020820039327895251 -0.046607484543895537 0.0043604122957802589 0 0.0043604122957802589 -0.0094615174881876058 0 0 0 -0.01401725050802078 -0.05116937557522537 0.00334976947384107 0 0.00334976947384107 -0.011239290019293861 0 0 0 -0.01560216639862981 0.0024214370706050481 0.037576100416612301 0 0.037576100416612301 0.048309713059978776 0 0 0 0.012682787532646067 -0.024512257075878452 0.041061495114257274 0 0.041061495114257274 0.039333946186240532 0 0 0 0.0037054222775907419 -0.049616431782304182 -0.039470214136874585 0 -0.039470214136874585 0.028142719580637299 0 0 0 -0.0053684280504166793 0.0010130563234750367 -0.0095414720978393985 0 -0.0095414720978393985 0.0016476634273946411 0 0 0 0.00066517993771741946 -0.00039082283435498688 0.0072099430214598512 0 0.0072099430214598512 -0.013223734917478858 0 0 0 -0.0034036394379585166 -0.06131254064547112 0.0091495411710726532 0 0.0091495411710726532 0.081053169884608783 0 0 0 0.0049351573097844194 -0.0081569098519258532 0.0079600615048981988 0 0.0079600615048981988 -0.0049589443246969012 0 0 0 -0.0032789635441554665 -0.021908544419202425 -0.018543961679217347 0 -0.018543961679217347 0.08769639410550667 0 0 0 0.016446962421576172 -0.12820570098449352 0.0028801067993739909 0 0.0028801067993739909 0.00093227441761564722 0 0 0 -0.031818356641719503 -0.20518375334494499 -0.0095233324813545073 0 -0.0095233324813545073 0.0014412568598156927 0 0 0 -0.050935624121282337 -0.0223422879278041 -0.035804212296666971 0 -0.035804212296666971 0.0098120576862235076 0 0 0 -0.0031325575603951272 0.11558988818267396 -0.070142441810456146 0 -0.070142441810456146 0.056256577746445213 0 0 0 0.042961616482279807 -0.031864232036558082 -0.022700554727099767 0 -0.022700554727099767 -0.0039046709254595413 0 0 0 -0.0089422257405044059 -0.033373631949882007 -0.029201848471091085 0 -0.029201848471091085 -0.00072102597083076314 0 0 0 -0.008523664480178203 -7.7380022533220347e-05 -0.0081092965887716861 0 -0.0081092965887716861 0.018824008746725386 0 0 0 0.0046866571810478749 -0.0019116769390414845 0.0066501545146095964 0 0.0066501545146095964 0.01507495946045978 0 0 0 0.003290820630355018 -0.0001848457453839103 0.009573814163489569 0 0.009573814163489569 0.040328670244207387 0 0 0 0.010035956124705869 -0.0019150467590628413 -0.005641527294363291 0 -0.005641527294363291 0.0062387066137142922 0 0 0 0.0010809149636631403 -0.078908951154433971 0.040154472204103842 0 0.040154472204103842 0.10133353222764097 0 0 0 0.0056061452683017765 -0.044105642921982824 -0.019717400482959085 0 -0.019717400482959085 0.0009218251538896105 0 0 0 -0.010795954442023303 -0.036677223074447027 -0.01704254343281314 0 -0.01704254343281314 -0.0045763415369485735 0 0 0 -0.010313391152848923 -0.03436020328255894 -0.017017788190747285 0 -0.017017788190747285 -0.0062070865442956855 0 0 0 -0.010141822456713677 -0.018348103759225576 -0.039003946361694519 0 -0.039003946361694519 0.018252050619964155 0 0 0 -2.4013284815382896e-05 -0.18158635156207498 0.025312755466536663 0 0.025312755466536663 0.0034827323740165284 0 0 0 -0.044525904797014404 -0.080104871314908857 -0.003541417199536448 0 -0.003541417199536448 0.024714098743540025 0 0 0 -0.013847693142842177 -0.067247195468498028 -0.012465410359516309 0 -0.012465410359516309 0.022634941256394203 0 0 0 -0.011153063553025838 -0.02163839184985461 0.0045104952823821209 0 0.0045104952823821209 -0.016026749603838542 0 0 0 -0.0094162853634233157 -0.13159814017529814 0.045237206124866591 0 0.045237206124866591 -0.0027491705663400534 0 0 0 -0.033586827685409659 -0.11329833597064021 0.0053694528879957015 0 0.0053694528879957015 0.0054278466396192049 0 0 0 -0.026967622332755209 -0.11244426231438992 -0.0044525954003934304 0 -0.0044525954003934304 0.0068204437959807351 0 0 0 -0.026405954629602324 -0.18365465698652639 0.0019202476714194616 0 0.0019202476714194616 0.015138211508393118 0 0 0 -0.042129111369533345 -0.17871793856523849 -0.021340056329209267 0 -0.021340056329209267 0.015139718516482215 0 0 0 -0.040894555012189138 -0.038062636500432442 -0.014023792628324205 0 -0.014023792628324205 -0.0028428691533441131 0 0 0 -0.010226376413444135 -0.10910556528030091 -0.011224378637941179 0 -0.011224378637941179 0.0021058865700266383 0 0 0 -0.026749919677568679 0.019215757663349708 0.079283207787257171 0 0.079283207787257171 0.031994261969137128 0 0 0 0.012802504908121626 -0.06416683495463818 -0.019078376937753952 0 -0.019078376937753952 0.062240911411654838 0 0 0 -0.00048148088574581985 -0.031981472951678601 0.017757029414896357 0 0.017757029414896357 0.025044254163312511 0 0 0 -0.001734304697091525 -0.037442412168564476 0.032994381983394661 0 0.032994381983394661 -0.0048387690352065249 0 0 0 -0.010570295300942889 -0.030524411956286635 -0.033550018673958459 0 -0.033550018673958459 0.02262192870365265 0 0 0 -0.0019756208131587183 -0.037474611889929385 -0.03682490857483596 0 -0.03682490857483596 0.032230049236605628 0 0 0 -0.0013111406633309177 -0.0076093921613218929 0.0066681629162849421 0 0.0066681629162849421 -0.011123086179723352 0 0 0 -0.0046831195852613527 -0.03583874415122984 -0.017006668977180756 0 -0.017006668977180756 -0.01106006418181138 0 0 0 -0.011724702083260291 -0.05716714596329614 -0.010737908793310446 0 -0.010737908793310446 -0.024415777953873855 0 0 0 -0.020395730979292502 -0.057757242611464747 0.0061329080882719499 0 0.0061329080882719499 -0.017357200617913432 0 0 0 -0.018778610807344547 -0.035612548919639747 -0.041988460495895774 0 -0.041988460495895774 0.020073806403278133 0 0 0 -0.0038846856290904175 -0.087797915758862033 -0.026626986142302009 0 -0.026626986142302009 -0.0055193947132136933 0 0 0 -0.023329327618018945 -0.10944069668738649 -0.0057392920861352118 0 -0.0057392920861352118 0.031370796371520626 0 0 0 -0.019517475078966562 -0.037431672297906692 -0.0020833137151830307 0 -0.0020833137151830307 -0.022230917958696927 0 0 0 -0.014915647564150905 -0.035380380827200637 0.00057357356925437863 0 0.00057357356925437863 -0.018146226598720828 0 0 0 -0.013381651856480367 -0.044789529103483633 0.0035857949102791765 0 0.0035857949102791765 -0.013934984782418353 0 0 0 -0.014681128471475499 -0.045126378242305323 0.0046649753709321097 0 0.0046649753709321097 -0.014542215488079045 0 0 0 -0.014917148432596092 -0.095421871142079742 -0.019409311986167993 0 -0.019409311986167993 0.032227127654403886 0 0 0 -0.015798685871918933 -0.043184906657471406 0.014212527020217887 0 0.014212527020217887 0.022819660968181318 0 0 0 -0.0050913114223225323 -0.032597644817616601 -0.0024978172034629659 0 -0.0024978172034629659 -0.016326392635004169 0 0 0 -0.012231009363155194 -0.061108937134782805 -0.023649403886045903 0 -0.023649403886045903 -0.0062028950543560057 0 0 0 -0.016827958047284687 -0.046622879898733219 0.017087002439739388 0 0.017087002439739388 0.066139993825972562 0 0 0 0.0048792784818098315 -0.059932126487934896 -0.0023790755731908433 0 -0.0023790755731908433 0.0023533711358721954 0 0 0 -0.01439468883801568 -0.057665630047823269 -0.0010190403625502872 0 -0.0010190403625502872 0.0083375244559153183 0 0 0 -0.012332026397976981 -0.13277459491554869 0.00044637154987395685 0 0.00044637154987395685 -0.044227930316715486 0 0 0 -0.044250631308066037 -0.1019369824258359 -0.0070469038648127928 0 -0.0070469038648127928 -0.033958645038644979 0 0 0 -0.033973906866120222 0.098046931127452858 0.044164503724597126 0 0.044164503724597126 0.049374812702099119 0 0 0 0.036855435957387911 -0.047394542299879001 0.0026941134340137578 0 0.0026941134340137578 5.7627047480732219e-05 0 0 0 -0.011834228813099576 -0.073730577337837444 -0.013618985090879837 0 -0.013618985090879837 0.074778975726802865 0 0 0 0.00026209959724135534 -0.016426042466744867 0.00091690269207528319 0 0.00091690269207528319 -0.026316577251359607 0 0 0 -0.010685654929526139 -0.12289380753354966 0.0044704465048767267 0 0.0044704465048767267 0.0013350635323093052 0 0 0 -0.030389686000310091 -0.19073229203068326 -0.011409788252516817 0 -0.011409788252516817 0.0016682874419586824 0 0 0 -0.047266001147181172 -0.036770737907200805 -0.014429773385425393 0 -0.014429773385425393 -0.0156833898991946 0 0 0 -0.013113531951598915 -0.11187889139501798 0.0080184966005817926 0 0.0080184966005817926 0.00047622153973933545 0 0 0 -0.027850667463819642 -0.13935970453231106 -0.03217730365146021 0 -0.03217730365146021 0.00038833516106492882 0 0 0 -0.034742842342811511 -0.1129724792411608 0.0042786307595094747 0 0.0042786307595094747 6.7866306545233401e-05 0 0 0 -0.028226153233653906 -0.073876509301929863 0.0021736160746493871 0 0.0021736160746493871 -0.0052740537535131884 0 0 0 -0.019787640763860782 -0.067438191749260731 -0.013228286575244313 0 -0.013228286575244313 -0.012903392344680666 0 0 0 -0.020085396023485358 -0.10231760899524056 -0.023934546057732015 0 -0.023934546057732015 0.013360959708548614 0 0 0 -0.022239162321672973 -0.044046662273200698 -0.01474996338168133 0 -0.01474996338168133 -0.0016127362053289795 0 0 0 -0.011414849619632406 -0.024146998514749107 0.040583548767883948 0 0.040583548767883948 0.047351694545781697 0 0 0 0.0058011740077583696 -0.030178907520337583 -0.022317799916004077 0 -0.022317799916004077 -0.0060032363375617237 0 0 0 -0.0090455359644747713 -0.040687564187169123 -0.0018042288580785619 0 -0.0018042288580785619 -0.019086295281491826 0 0 0 -0.014943464867165236 -0.050292705363106857 0.0029129943874042982 0 0.0029129943874042982 -0.015751985620147346 0 0 0 -0.016511172745813554 -0.070879072318748751 -0.013363938037179944 0 -0.013363938037179944 -0.026438777361218517 0 0 0 -0.024329462419991822 -0.066264753486578884 0.0056036446035588943 0 0.0056036446035588943 -0.019006702671368003 0 0 0 -0.021317864039486725 -0.066573842641536415 -0.014207725313652733 0 -0.014207725313652733 0.013318811082650484 0 0 0 -0.013313757889721486 -0.065895740071381478 -0.024620500416637367 0 -0.024620500416637367 0.017556141607319109 0 0 0 -0.012084899616015568 -0.065494024958247632 0.07663638598230256 0 0.07663638598230256 0.016421911364060904 0 0 0 -0.012268028398546682 -0.012290141037686775 0.10020679754856823 0 0.10020679754856823 0.055773895495783599 0 0 0 0.01087093861452415 0.042873712900296124 0.0017045832008362738 0 0.0017045832008362738 0.067008601382440802 0 0 0 0.027470578570684218 -0.078749783661978462 -0.0095820918557643353 0 -0.0095820918557643353 0.057686783652235146 0 0 0 -0.0052657500024358914 -0.03354394122297398 0.0040401655358773599 0 0.0040401655358773599 -0.014640655205051459 0 0 0 -0.012046149107006358 -0.044409738150314237 -0.020959181341786523 0 -0.020959181341786523 -0.0069722640070462027 0 0 0 -0.012845500539340138 -0.062560235817366694 0.055491326513431471 0 0.055491326513431471 0.0018273199725054035 0 0 0 -0.015183228961215489 -0.022448057170044167 -0.0057186219223071821 0 -0.0057186219223071821 0.04761704470381356 0 0 0 0.0062922468834423206 -0.024286302161667203 -0.010705673763040657 0 -0.010705673763040657 -0.012532626685766879 0 0 0 -0.0092047322118585656 -0.055779401692959828 0.0021733677791679678 0 0.0021733677791679678 -0.0079467343692602582 0 0 0 -0.01593153401555502 -0.10368026508236539 0.024229526715035699 0 0.024229526715035699 0.05707524735243652 0 0 0 -0.011651254432482161 -0.12497193858678138 0.0010209790402630843 0 0.0010209790402630843 -0.0022267542670570822 0 0 0 -0.031799673213459605 -0.18245092591834522 -0.0046857554920953894 0 -0.0046857554920953894 -0.0044974640742789368 0 0 0 -0.046737097498156056 -0.035297264014852725 -0.020944029010835086 0 -0.020944029010835086 -0.001726853551308638 0 0 0 -0.0092560293915402714 -0.078989484173876051 0.0006897806432210955 0 0.0006897806432210955 -0.014606837049061927 0 0 0 -0.023399080305734503 -0.086155620632602986 -0.0087264042283169523 0 -0.0087264042283169523 -0.023778712272072851 0 0 0 -0.027483583226168961 -0.21652896303266767 0.0057602791112719709 0 0.0057602791112719709 0.0043679148898030373 0 0 0 -0.053040262035716101 -0.12551493474877379 -0.0027074186419146495 0 -0.0027074186419146495 0.0011805714845116166 0 0 0 -0.031083590816065501 -0.0043428568753075408 0.033164589847644532 0 0.033164589847644532 0.14380344978617182 0 0 0 0.034865148227716095 0.07326565714104355 0.0014789219735277248 0 0.0014789219735277248 0.34850527736492415 0 0 0 0.10544273362649192 -0.041839660941133255 -0.045651259623494256 0 -0.045651259623494256 0.02578031346061721 0 0 0 -0.0040148368701289627 -0.057222164795100894 -0.039653312495314563 0 -0.039653312495314563 0.016598424573676107 0 0 0 -0.010155935055356169 -0.037723130763204708 -0.045586682154647326 0 -0.045586682154647326 0.062030116620140047 0 0 0 0.0060767464642338467 -0.0034765367353765397 0.0025241238659545751 0 0.0025241238659545751 -0.022112217016587277 0 0 0 -0.0063971884379910027 -0.038058946412367359 6.1371980629512819e-05 0 6.1371980629512819e-05 -0.018469291311254809 0 0 0 -0.014132059430905539 -0.087348883564399987 -0.0096549956462244069 0 -0.0096549956462244069 0.014251705848232432 0 0 0 -0.018274294429041854 0.00049685427644563518 -0.0026190464828837468 0 -0.0026190464828837468 -0.0085925724912829793 0 0 0 -0.002023929553709336 -0.18435762537788364 0.027043335169049443 0 0.027043335169049443 -0.00079840234899969387 0 0 0 -0.04628900693172084 -0.034047202151410882 0.032296011088129184 0 0.032296011088129184 -0.0044479188797081903 0 0 0 -0.0096237802577801013 -0.024903955393147714 -0.033310889981341907 0 -0.033310889981341907 0.019538375516829465 0 0 0 -0.0013413949690793681 -0.047990168828976477 0.0024347002580100041 0 0.0024347002580100041 0.018229492358732526 0 0 0 -0.0074401691175609869 -0.074828265073123151 -0.02048096034615976 0 -0.02048096034615976 0.017017882779349902 0 0 0 -0.014452595573443389 -0.03249489442807111 0.010270918592588604 0 0.010270918592588604 -0.00092065899873279566 0 0 0 -0.0083538883567009642 -0.027982848156439047 0.015274818602623761 0 0.015274818602623761 0.0092199609701285323 0 0 0 -0.0046907217965776217 -0.10609550731924308 -0.023037574748942739 0 -0.023037574748942739 -0.0021953552424082978 0 0 0 -0.02707271564041288 -0.050965818624081227 -0.037146460625932964 0 -0.037146460625932964 0.0053925464041875149 0 0 0 -0.011393318054973456 -0.15341121711400954 -0.018677710978149034 0 -0.018677710978149034 -0.0079777167196243767 0 0 0 -0.040347233458408419 -0.038229418545905558 0.055656476483453732 0 0.055656476483453732 0.0086563202635998593 0 0 0 -0.0073932745705762581 -0.041238913241281261 0.058117868966540032 0 0.058117868966540032 0.0072558306070716894 0 0 0 -0.0084957706585523374 -0.044199044786702002 0.060469615689696887 0 0.060469615689696887 0.0019622319993475301 0 0 0 -0.010559203196838451 -0.039720759941865524 -0.036047147421386927 0 -0.036047147421386927 0.0053004332376449526 0 0 0 -0.0086050816760551152 -0.047527789006805952 -0.035189755447643467 0 -0.035189755447643467 0.0026574811351114391 0 0 0 -0.011217576967923545 0.046196548849538249 0.044845063856486719 0 0.044845063856486719 0.079193460288042694 0 0 0 0.031347502284395257 -0.038910675542824812 -0.0023993004249542836 0 -0.0023993004249542836 -0.012977414964061551 0 0 0 -0.012972022626721591 -0.046001900928237159 0.0039736674677193998 0 0.0039736674677193998 -0.015335477968376865 0 0 0 -0.015334344724153506 -0.045851801639783939 0.0043443473474118468 0 0.0043443473474118468 0.0026318839185377769 0 0 0 -0.010804979430311543 -0.014673947185584374 -0.021756800779588845 0 -0.021756800779588845 0.10266338711721146 0 0 0 0.021997359982906806 -0.12492190983023629 -0.029399257848338859 0 -0.029399257848338859 -0.0036296562552836642 0 0 0 -0.032137891521379996 -0.03691414027783696 0.0023886185396579636 0 0.0023886185396579636 -0.015836870881032139 0 0 0 -0.013187752789717273 -0.18293287419038334 -0.0072687235115032889 0 -0.0072687235115032889 -0.0045274288521283314 0 0 0 -0.046865075760627886 -0.12249803815812634 0.0019755584760222031 0 0.0019755584760222031 -0.0012809620622667717 0 0 0 -0.030944750055098308 -0.11101688922690633 -0.012513754314054798 0 -0.012513754314054798 0.00020840290177148724 0 0 0 -0.027702121581283712 -0.04074836726206911 0.0045529594797002687 0 0.0045529594797002687 -0.011956791972168954 0 0 0 -0.013176289808559515 -0.031738729762719547 -0.0066394871403395728 0 -0.0066394871403395728 0.023826060418452061 0 0 0 -0.0019781673360668717 -0.056234025862004253 0.011033475355337583 0 0.011033475355337583 0.045121735529814827 0 0 0 -0.0027780725830473651 -0.010269054184515528 0.065724205379679157 0 0.065724205379679157 0.014141355484797863 0 0 0 0.00096807532507035832 -0.03203981311329903 0.0041103170150668614 0 0.0041103170150668614 -0.016865231503698074 0 0 0 -0.012226261154249282 -0.025094911745000115 0.030115227536279932 0 0.030115227536279932 -0.0053750677889281562 0 0 0 -0.0076174948834819567 -0.02163739451394231 -0.030582872099742753 0 -0.030582872099742753 0.0071611776128177596 0 0 0 -0.003619054225281193 -0.040953361096935391 0.0045484347502734463 0 0.0045484347502734463 -0.012603523668937227 0 0 0 -0.013389221191468157 -0.069822161973133234 0.0013737823810011317 0 0.0013737823810011317 0.058568879183828186 0 0 0 -0.0028133206973262621 -0.011280626395266502 0.024290712091839251 0 0.024290712091839251 0.025944160422039175 0 0 0 0.0036658835066933904 -0.0064596697996106567 0.018483163472475805 0 0.018483163472475805 -0.0025620559975267909 0 0 0 -0.0022554314492846395 -0.0059007236304711164 -0.014775561837546219 0 -0.014775561837546219 -0.0059629343230422904 0 0 0 -0.0029659144883784627 -0.0090607059042034921 -0.0207313728015317 0 -0.0207313728015317 0.010989062241434144 0 0 0 0.00048208908430746877 -0.13744502814434775 0.0023966454810162297 0 0.0023966454810162297 0.03323149604191078 0 0 0 -0.026053383025609306 -0.086184138354906875 -0.024299910309720119 0 -0.024299910309720119 0.010017343065482187 0 0 0 -0.019041698822356234 -0.09714716156679834 -0.02426411807276968 0 -0.02426411807276968 0.0096769555978375443 0 0 0 -0.021867551492240206 -0.15309458928591035 0.054221417020042129 0 0.054221417020042129 0.022549210516169538 0 0 0 -0.03263634469243526 -0.12837553463371609 0.054402831493006204 0 0.054402831493006204 0.023570162805477635 0 0 0 -0.026201342957059559 -0.0529805411622764 0.002130322482640314 0 0.002130322482640314 -0.014370594487285978 0 0 0 -0.016837783912390589 0.079792569907656041 0.037247068008146561 0 0.037247068008146561 0.041320060407195935 0 0 0 0.030278157578713216 -0.11073822351663044 -0.0091485065868180324 0 -0.0091485065868180324 -0.025523852536677598 0 0 0 -0.034065519013327009 -0.090873025210314817 -0.00067836805204834864 0 -0.00067836805204834864 -0.017341541311320534 0 0 0 -0.027053641630408836 -0.071275183102092798 -0.016816235127031134 0 -0.016816235127031134 0.038306168602875737 0 0 0 -0.0082422536248042411 -0.07044452843332441 0.0037119562587148085 0 0.0037119562587148085 -0.010978929253599149 0 0 0 -0.020355864421730898 -0.070572236622978901 -0.013951326731943579 0 -0.013951326731943579 -0.023949110920805757 0 0 0 -0.023630336885946169 -0.15498148518430283 -0.023622659478072593 0 -0.023622659478072593 0.0031346595235819674 0 0 0 -0.03796170641518018 -0.15661322587521972 -0.024578014437273088 0 -0.024578014437273088 -0.00096648883628094873 0 0 0 -0.039394928677875148 -0.016333278333352741 0.037203274816541954 0 0.037203274816541954 0.048318045890493266 0 0 0 0.0079961918892847983 -0.014481244910234281 -0.016676406018901024 0 -0.016676406018901024 0.001300739268909723 0 0 0 -0.0032951264103313616 -0.0045971051606013957 -0.0032115055142425963 0 -0.0032115055142425963 0.022163398160723873 0 0 0 0.0043915732500306049 -0.0017112790203869799 0.003847761367500091 0 0.003847761367500091 -0.0030262097886155637 0 0 0 -0.0011843722022505387 -0.070051420545435616 0.00017888051605664118 0 0.00017888051605664118 0.002008590178977615 0 0 0 -0.01701070759161448 -0.0047842295004197621 -0.0049484320440178475 0 -0.0049484320440178475 0.078523409589095317 0 0 0 0.018434795022168854 -0.0047322115923938146 -0.0025326055108916834 0 -0.0025326055108916834 0.14067163013250616 0 0 0 0.033984854635028067 -0.027927487423425587 -0.013899066305648689 0 -0.013899066305648689 0.01620045172250123 0 0 0 -0.0029317589252311604 -0.10216199483677552 -0.012006356484623205 0 -0.012006356484623205 0.012740306962395476 0 0 0 -0.022355421968594941 -0.0005769827392509419 0.00069394935415262315 0 0.00069394935415262315 -0.018754675786571973 0 0 0 -0.0048329146314557425 -0.15402779032494138 -0.032597462205351202 0 -0.032597462205351202 0.0099954638257341299 0 0 0 -0.036008081624801791 -0.04984490356344172 0.0032744222747918402 0 0.0032744222747918402 0.013217276761270821 0 0 0 -0.0091569067005427256 -0.065656482742535494 -0.034975986763102845 0 -0.034975986763102845 0.029037843404044139 0 0 0 -0.0091546598346228247 -0.062742119753999848 -0.031847371449595485 0 -0.031847371449595485 0.025865800518380833 0 0 0 -0.0092190798089047399 -0.072662625817943485 0.0046584954463987013 0 0.0046584954463987013 -0.00048138970954890448 0 0 0 -0.018286003881873104 -0.085546590639849651 -0.020087412098041268 0 -0.020087412098041268 0.018199964921668088 0 0 0 -0.016836656429545349 -0.079521625304977805 0.0016406133652623264 0 0.0016406133652623264 -0.0012564787489033336 0 0 0 -0.020194526013470267 -0.065220515292312486 -0.015467731040971287 0 -0.015467731040971287 -0.017696032452487617 0 0 0 -0.020729136936200033 -0.10600599009685774 -0.011920165957083229 0 -0.011920165957083229 0.011365093917845015 0 0 0 -0.023660224044753153 -0.17499479650330638 0.021618300847791261 0 0.021618300847791261 0.040111686138470826 0 0 0 -0.033720777591208811 -0.11096846734239937 -0.010618060911101236 0 -0.010618060911101236 -0.025340129887516105 0 0 0 -0.034077149307478863 -0.089323916833880523 0.00057233708023204856 0 0.00057233708023204856 -0.020056802667066179 0 0 0 -0.027345179875236676 -0.08303732178468054 0.0054515163066302767 0 0.0054515163066302767 -0.0038554278004576861 0 0 0 -0.021723187396284541 -0.094052560209682182 -0.022560857420992887 0 -0.022560857420992887 -0.01397244439236546 0 0 0 -0.027006251150511921 -0.048485085341946836 -0.0046286631661752332 0 -0.0046286631661752332 -0.023404257396617945 0 0 0 -0.0179723356846412 -0.016392987134759909 -0.049428918095288987 0 -0.049428918095288987 0.057923519619500152 0 0 0 0.010382633121185023 -0.028930786664396215 0.0066737666432095909 0 0.0066737666432095909 -0.014170677365411074 0 0 0 -0.010775366007451803 -0.016108307487897822 0.022923348078846439 0 0.022923348078846439 -0.00069991024506510513 0 0 0 -0.0042020544332403986 -0.018239092176273841 -0.031167682610002911 0 -0.031167682610002911 0.022201765051657496 0 0 0 0.00099066821884585821 -0.081098277197931778 0.0042097053659097688 0 0.0042097053659097688 -0.0074510133626893987 0 0 0 -0.022137322640155308 -0.086502306506203816 -0.018042689072186823 0 -0.018042689072186823 -0.020209372012478209 0 0 0 -0.026677919629670505 -0.033708930499490149 0.0072240897985905127 0 0.0072240897985905127 -0.0074884097438906519 0 0 0 -0.010299335060845207 -0.039848584489993955 -0.039359699715405559 0 -0.039359699715405559 0.039743454539479139 0 0 0 -2.6282487628759288e-05 -0.088290588536503067 0.017256146795372521 0 0.017256146795372521 -0.0019660630468276707 0 0 0 -0.022564162895832851 -0.016345792642766477 -0.017994625228013206 0 -0.017994625228013206 0.049430516258931467 0 0 0 0.0082711809040412199 -0.052580127587020686 -0.035904369361023369 0 -0.035904369361023369 0.0049046399692369569 0 0 0 -0.01191887190444596 -0.073635972836693625 -0.013450667525603352 0 -0.013450667525603352 0.063863739512023676 0 0 0 -0.0024430583311675219 -0.15839710680122318 -0.014692346979434598 0 -0.014692346979434598 -0.0042096466114500825 0 0 0 -0.040651688353168333 -0.11171816007784355 0.0023046716775428945 0 0.0023046716775428945 -0.0025455613047525166 0 0 0 -0.028565930345649006 -0.016250486463105732 0.010343396219263374 0 0.010343396219263374 0.0035970246201292855 0 0 0 -0.0031633654607441247 -0.038304123418870559 0.0045725324550691619 0 0.0045725324550691619 -0.012842866505439456 0 0 0 -0.012786747481077509 -0.060993076292153392 -0.02510419338990813 0 -0.02510419338990813 0.011222573826025539 0 0 0 -0.012442625616531977 -0.16186298900784729 -0.018285556293195258 0 -0.018285556293195258 -0.0018508368010899667 0 0 0 -0.040928456452234335 -0.11575902260000087 0.0056163428853838807 0 0.0056163428853838807 -0.0010051799752755219 0 0 0 -0.029191050643819091 -0.055035836258392257 0.0063137471901932281 0 0.0063137471901932281 0.065477391056198736 0 0 0 0.0026103886994515981 -0.033296894183777015 -0.031563845433507598 0 -0.031563845433507598 0.0035396125422755276 0 0 0 -0.0074393204103757604 -0.03470956607169029 0.048421989038570645 0 0.048421989038570645 0.0096980697352755385 0 0 0 -0.0062528740841041319 -0.10053864918774519 0.00036249322186815425 0 0.00036249322186815425 0.010054455603153704 0 0 0 -0.022621048396147807 -0.085948518741722713 -0.0068995520245884734 0 -0.0068995520245884734 0.013218613055118584 0 0 0 -0.018182476421651043 -0.043104408837699837 -0.015288121585546169 0 -0.015288121585546169 0.025290485235956506 0 0 0 -0.0044534809004357946 -0.047139053810821396 -0.015905996809085624 0 -0.015905996809085624 0.034957357249815899 0 0 0 -0.0030454241402514091 -0.060493500525800006 -0.0099862959052984153 0 -0.0099862959052984153 -0.025642949845098989 0 0 0 -0.021534112592724752 -0.058391041455746071 -0.0052877061292808895 0 -0.0052877061292808895 -0.022766529755694105 0 0 0 -0.020289392802860032 -0.064403573355390445 0.0014724808275891467 0 0.0014724808275891467 -0.015333215979077731 0 0 0 -0.019934197333617055 -0.063026976332118512 0.0044235075009351459 0 0.0044235075009351459 -0.01468259372723834 0 0 0 -0.019427392514839211 -0.033744637691468793 -0.0077690492887824425 0 -0.0077690492887824425 -0.0034701884488547163 0 0 0 -0.0093037065350808912 -0.064378598520001898 -0.0018140604243678943 0 -0.0018140604243678943 0.069432007219124806 0 0 0 0.0012633521747807085 -0.025507961338386044 0.010486320650794592 0 0.010486320650794592 4.0566880310274889e-05 0 0 0 -0.0063668486145189319 -0.029503469990849185 0.051385241399232798 0 0.051385241399232798 0.017018933346421683 0 0 0 -0.003121134161107042 -0.046481547357169362 -0.032892164044501015 0 -0.032892164044501015 -2.487123228700483e-06 0 0 0 -0.011621008620099627 -0.022339577484779216 0.061902850040111534 0 0.061902850040111534 0.010780769092730846 0 0 0 -0.0028897020980120924 -0.020096509327554909 -0.0073171273875328388 0 -0.0073171273875328388 0.0012990734307745805 0 0 0 -0.0046993589741950691 -0.012952631699807288 0.0036450480039357455 0 0.0036450480039357455 0.014124835198743385 0 0 0 0.0002930508747340313 -0.066858448488389066 0.068434471088754889 0 0.068434471088754889 0.0017767346174162313 0 0 0 -0.016270428467743181 -0.043232336698702523 0.069926396700483506 0 0.069926396700483506 0.0071095950625688076 0 0 0 -0.009030685409033401 -0.12221486612254126 -0.0082739451477311828 0 -0.0082739451477311828 -0.015614099406855212 0 0 0 -0.034457241382349131 -0.097081454812702306 -0.0013417366292544945 0 -0.0013417366292544945 -0.012200670147610976 0 0 0 -0.027320531240078317 -0.035303385997543679 -0.039322923757173028 0 -0.039322923757173028 0.019641186868524008 0 0 0 -0.0039155497822548346 0.00083657521028052129 -0.0044745015613662422 0 -0.0044745015613662422 0.077499854971833537 0 0 0 0.019584107545528529 -0.0064758751670616899 8.910337626866216e-05 0 8.910337626866216e-05 0.14590246848799593 0 0 0 0.034856648330233497 -0.065011959130154062 0.0010645962512711264 0 0.0010645962512711264 0.043261103413694643 0 0 0 -0.0054377139291148548 -0.020444667169853388 0.015883994141149473 0 0.015883994141149473 0.0070889258761543394 0 0 0 -0.0033389353234247673 -0.012356014844887853 -0.0021916430630032346 0 -0.0021916430630032346 -0.019054173014272813 0 0 0 -0.0078525469647901525 -0.024811453093672886 -0.0042410331184997707 0 -0.0042410331184997707 -0.02387956294751814 0 0 0 -0.01217275401029777 -0.038106431085722259 -0.014122294185033496 0 -0.014122294185033496 -0.0078250282258541803 0 0 0 -0.011482864827894096 -0.024882764346275149 0.018023795032878986 0 0.018023795032878986 -0.0055411474522449877 0 0 0 -0.0076059779496306101 -0.01917618722496385 -0.031477418333953899 0 -0.031477418333953899 0.033937600129599621 0 0 0 0.0036903532261589461 -0.0037250762727988884 0.0086835486369427894 0 0.0086835486369427894 0.022694512610021755 0 0 0 0.0047423590843057029 -0.0057310965727053187 -0.012649929916599995 0 -0.012649929916599995 0.063884586641780539 0 0 0 0.014538372517268805 -0.023774046579304597 0.038024270268041782 0 0.038024270268041782 0.02101812394067748 0 0 0 -0.00068898065965683486 -0.020871336231330639 -0.023697203141376022 0 -0.023697203141376022 -0.006412207493631028 0 0 0 -0.0068208859312406389 -0.035276523639904737 0.0050197753529000111 0 0.0050197753529000111 -0.012253867089290587 0 0 0 -0.011882597682298832 -0.031443897623299438 0.0081937443205649559 0 0.0081937443205649559 -0.0080897966647627099 0 0 0 -0.0098834235720155431 -0.026501577421571998 0.043295156225686249 0 0.043295156225686249 0.030846577631058913 0 0 0 0.001086250052372062 -0.026743083720058181 -0.024581082568408075 0 -0.024581082568408075 0.0018573898258367194 0 0 0 -0.0062214234735555873 -0.095779833767174402 -0.012065675830951122 0 -0.012065675830951122 -0.024547522733773832 0 0 0 -0.030081839125237052 -0.082093541759346661 0.0021556477339104343 0 0.0021556477339104343 -0.017763916083785733 0 0 0 -0.024964364460783095 -0.00026895960782591377 0.07597755131177375 0 0.07597755131177375 0.026997006444171134 0 0 0 0.0066820117090864439 -0.14210245539906799 -0.0038246938989097757 0 -0.0038246938989097757 -0.024306144721139095 0 0 0 -0.041602150030051757 -0.10839549059244227 -0.0048330181307327386 0 -0.0048330181307327386 -0.0180131638040298 0 0 0 -0.031602163599118029 -0.03647719246378478 0.015581172298236856 0 0.015581172298236856 -0.0064241521082752939 0 0 0 -0.010725336143015074 -0.01707120987302424 -0.021998555541943299 0 -0.021998555541943299 0.064124980203929649 0 0 0 0.011763442582726324 -0.059794128003900479 -0.0077931891633922779 0 -0.0077931891633922779 0.087354325385825271 0 0 0 0.0068900493454811113 -0.092413760698458053 -0.0018695260683174175 0 -0.0018695260683174175 0.083505862510908524 0 0 0 -0.0022269745468874447 -0.058802106125726561 -0.036902294624622675 0 -0.036902294624622675 0.011168091640484157 0 0 0 -0.011908503621310684 -0.029680551981452821 -0.027173186787969924 0 -0.027173186787969924 0.0041677812967804706 0 0 0 -0.0063781926711680981 -0.064820139076141925 0.078925771016720936 0 0.078925771016720936 0.020944641847462142 0 0 0 -0.010968874307169751 -0.12524238509324503 0.051516099819431616 0 0.051516099819431616 0.026447017933708405 0 0 0 -0.024698841789884241 -0.08538174230644574 -0.023727645490195098 0 -0.023727645490195098 0.011067772884102656 0 0 0 -0.018578492355585841 -0.0048905401183224617 -0.054637456437503118 0 -0.054637456437503118 0.041253652007929853 0 0 0 0.0090907779724019866 -0.018683147488691279 0.0011119444752057395 0 0.0011119444752057395 0.042932188620854461 0 0 0 0.0060622602830408961 -0.024675456683912578 -0.0075682311949869518 0 -0.0075682311949869518 0.082375259970021153 0 0 0 0.014424950821527172 -0.066468811271684594 -0.021692394532410689 0 -0.021692394532410689 0.041879242018543428 0 0 0 -0.006147392313285302 -0.06028015121196667 -0.015455396304629856 0 -0.015455396304629856 0.040559175835110373 0 0 0 -0.0049302438442140745 -0.04229508368091936 0.021907535924854976 0 0.021907535924854976 0.099519186351186159 0 0 0 0.014306025667566682 -0.021144853436824929 -0.030212530386588166 0 -0.030212530386588166 0.05686017015756506 0 0 0 0.0089288291801850606 -0.017203770327691714 0.035174823689477108 0 0.035174823689477108 0.070315390514986476 0 0 0 0.01327790504682369 -0.019137887586677671 -0.014008966856841498 0 -0.014008966856841498 -0.0054995256642613732 0 0 0 -0.0061593533127348721 -0.060126774854494122 0.012433369318722035 0 0.012433369318722035 0.059500009484804023 0 0 0 -0.0001566913424225283 -0.042846554979101455 -0.0066053444452684462 0 -0.0066053444452684462 0.018891019661962979 0 0 0 -0.0059888838292846483 -0.027759194299986856 -0.0067956726077739726 0 -0.0067956726077739726 -0.018450428481125658 0 0 0 -0.011552405695278156 -0.041739402588175441 0.02006246285714109 0 0.02006246285714109 0.039473800664705447 0 0 0 -0.00056640048086750011 -0.040050223254266888 -0.0025809278653037455 0 -0.0025809278653037455 -0.023900750376707552 0 0 0 -0.015987743407743608 -0.10672562828663579 -0.010190424611778945 0 -0.010190424611778945 0.0014225370412701555 0 0 0 -0.026325772811341408 -0.064199506564438832 -0.0090389020054477409 0 -0.0090389020054477409 -0.021749535624928113 0 0 0 -0.021487260547341725 -0.02683124044728161 0.011795626957193217 0 0.011795626957193217 -0.0017581141751822488 0 0 0 -0.007147338655615963 -0.056568803475078692 0.009160353037282451 0 0.009160353037282451 0.083816139616270352 0 0 0 0.0068118340352979201 -0.17650353257553364 0.021374520869928689 0 0.021374520869928689 0.0017057800938360401 0 0 0 -0.043699438120424317 -0.03842053743035035 0.0041777328419622551 0 0.0041777328419622551 -0.01494346358925515 0 0 0 -0.013341000254901376 -0.028360765027495308 0.0015480232415750212 0 0.0015480232415750212 -0.0062961619936526547 0 0 0 -0.0086642317552869871 -0.049230184730085891 -0.021551812058021924 0 -0.021551812058021924 0.0044395901550912387 0 0 0 -0.01119764864374867 -0.0562857761104682 -0.0265419817706255 0 -0.0265419817706255 -6.4475109814665643e-05 0 0 0 -0.014087562805070675 -0.048055758373362081 -0.010571263956904461 0 -0.010571263956904461 -0.019861167401076144 0 0 0 -0.016979231443609563 -0.034266864432512763 0.0033612764883918008 0 0.0033612764883918008 -0.015976901518668193 0 0 0 -0.012560941487795243 -0.032732571838366087 -0.0031428184333062159 0 -0.0031428184333062159 -0.0035589802969457351 0 0 0 -0.0090728880338279676 -0.051638132602096265 -0.024004944232738551 0 -0.024004944232738551 0.014496086004396502 0 0 0 -0.009285511649424899 -0.021411208110562241 0.00046416819936512255 0 0.00046416819936512255 0.024830063326718887 0 0 0 0.00085471380403928654 -0.11203651417343802 -0.033640868959944031 0 -0.033640868959944031 -0.0048592297757236724 0 0 0 -0.02922393598729045 -0.0066086776282983095 0.021076243920199911 0 0.021076243920199911 0.12263398790069946 0 0 0 0.029006327568100065 -0.02667412995792838 -0.010310263122925489 0 -0.010310263122925489 -0.0039642193543490412 0 0 0 -0.0076595873280693588 -0.032010631401786178 0.007156070590795165 0 0.007156070590795165 -0.010314818198410734 0 0 0 -0.010581362400049237 -0.029060923524684517 0.0077452330695374182 0 0.0077452330695374182 -0.010200860547078177 0 0 0 -0.0098154460179406718 -0.028881424226733898 0.019841794353158582 0 0.019841794353158582 0.0038317988839438044 0 0 0 -0.0062624063356979676 -0.027194015255911586 -0.028824307044032216 0 -0.028824307044032216 0.040270615679599331 0 0 0 0.0032691501059218808 -0.031915086177333532 0.013067512007060127 0 0.013067512007060127 0.010037906054144896 0 0 0 -0.005469295030797152 -0.040532392373100287 0.010670149187802271 0 0.010670149187802271 0.0089456809987722777 0 0 0 -0.0078966778435819972 -0.032496259223354369 0.0072349009929607699 0 0.0072349009929607699 -0.0086234497676833197 0 0 0 -0.010279927247759429 -0.098110325355383637 0.0047345573615683381 0 0.0047345573615683381 -0.0018952807554711293 0 0 0 -0.025001401527713699 -0.06015908070601729 -0.0060076104820469961 0 -0.0060076104820469961 0.019205309415841365 0 0 0 -0.010238442822543978 -0.041726523334077628 -0.010111294374928498 0 -0.010111294374928498 0.022700470242492277 0 0 0 -0.0047565132728963205 -0.10807119343641035 0.0050999057623081767 0 0.0050999057623081767 -0.0045210107543645489 0 0 0 -0.028148051047693742 0.044628591852650668 0.10015100724792669 0 0.10015100724792669 0.072639203649584205 0 0 0 0.02931694887555869 -0.025754121916465422 0.035927138140165904 0 0.035927138140165904 0.0064988317156746689 0 0 0 -0.0048138225501985765 -0.022462890286706338 -0.031907214422299629 0 -0.031907214422299629 0.0045616813666136125 0 0 0 -0.004475302230023237 -0.050893177602919025 0.00055572636820339083 0 0.00055572636820339083 0.0096888844205936936 0 0 0 -0.010301073295581331 -0.03621115620905737 0.0032487652336783768 0 0.0032487652336783768 -0.014808903555104684 0 0 0 -0.012755014941040515 -0.0023039945865490769 -0.0019955747238425345 0 -0.0019955747238425345 0.026224008627958262 0 0 0 0.0059800035103522858 -0.036978855886712958 -0.012666445380832045 0 -0.012666445380832045 0.0033806400421341198 0 0 0 -0.0083995539611447789 -0.041013384399184671 -0.018732561100044065 0 -0.018732561100044065 -0.013889839692149075 0 0 0 -0.013725806022833464 -0.039263580959513759 0.0064830391400106518 0 0.0064830391400106518 -0.0015159678566411608 0 0 0 -0.010194887204038737 -0.089820146449275329 -0.022372405842261134 0 -0.022372405842261134 0.00049208991012061887 0 0 0 -0.02233201413478858 -0.072824686463510813 -0.027693995749972 0 -0.027693995749972 0.0061963615156825913 0 0 0 -0.016657081236957194 -0.03528938181811208 0.0012194819518013655 0 0.0012194819518013655 -0.011768085575067618 0 0 0 -0.011764366848294922 -0.10253564765247591 0.056874249686859724 0 0.056874249686859724 0.0097099093510455425 0 0 0 -0.023206434575357315 -0.1373861463761985 0.046532294721284895 0 0.046532294721284895 -0.00086165916592140235 0 0 0 -0.034561951385530199 -0.011438745309977849 0.0078844219352188494 0 0.0078844219352188494 0.035093257933286326 0 0 0 0.0059136281558270776 -0.013544934408326437 -0.013998357780483445 0 -0.013998357780483445 0.067829777633217958 0 0 0 0.013571210806222866 -0.018145335680630828 -0.019155878424855166 0 -0.019155878424855166 0.011854257657012257 0 0 0 -0.0015727695059046531 -0.02998065208007325 -0.0012217995896803835 0 -0.0012217995896803835 -0.013747004832152077 0 0 0 -0.010931914228056366 0.0149009827390294 0.047778477815807761 0 0.047778477815807761 0.12482471204587825 0 0 0 0.034931423696226899 -0.04208360104093898 -0.0065175028471151225 0 -0.0065175028471151225 -0.016226906693537439 0 0 0 -0.014577626933619119 -0.05648247101715631 -0.011244103091124225 0 -0.011244103091124225 0.040158446852763929 0 0 0 -0.0040810060410981785 0.03386830328532997 0.033597602223873091 0 0.033597602223873091 0.026469909783224832 0 0 0 0.015084553267138645 -0.051040732281864711 1.1714425287732456e-05 0 1.1714425287732456e-05 0.0078247200473026291 0 0 0 -0.010804003058640514 -0.023141615352450629 0.040685506607710309 0 0.040685506607710309 0.012515343666091194 0 0 0 -0.0026565679215893034 -0.022222916887803423 -0.026590149469325919 0 -0.026590149469325919 0.0031953654354621719 0 0 0 -0.0047568878630853684 -0.049621303257611264 0.0015996141467723513 0 0.0015996141467723513 -0.0052125718043073022 0 0 0 -0.013708468765479633 -0.079126209584506196 -0.019170652397691643 0 -0.019170652397691643 0.065565411711333177 0 0 0 -0.003390199468293234 -0.023334916165850705 0.032109351504915562 0 0.032109351504915562 0.07422220997583695 0 0 0 0.012721823452496839 -0.021254146523462858 -0.01329725134289772 0 -0.01329725134289772 0.0022656687577833345 0 0 0 -0.004747119441419867 -0.15007231124461284 0.0021885755726496693 0 0.0021885755726496693 0.0013079616212938738 0 0 0 -0.037191087405829715 -0.26192245555211713 -0.0084654380783864679 0 -0.0084654380783864679 0.0022305944306144632 0 0 0 -0.064922965280375611 -0.037556474512343008 0.026391946232185701 0 0.026391946232185701 0.11615163231254932 0 0 0 0.019648789450051662 -0.083526363462777586 0.0069690367961844149 0 0.0069690367961844149 -0.00032230606043223697 0 0 0 -0.020962167380802477 0.015257136529255609 -0.0011953701465746702 0 -0.0011953701465746702 0.067061709816995996 0 0 0 0.020579711586562875 0.0078901205386729401 0.0018956107549714662 0 0.0018956107549714662 0.086836756040401086 0 0 0 0.02368171914476852 0.0057246389531174779 -0.0042590987580660711 0 -0.0042590987580660711 0.16440216427501597 0 0 0 0.04253170080703339 0.020611472841522538 -0.0020829346895235856 0 -0.0020829346895235856 0.1406812148601404 0 0 0 0.040323171925415791 -0.01782178943963332 0.0085788720791673545 0 0.0085788720791673545 0.006186469532224681 0 0 0 -0.0029088299768522258 -0.01888090509258139 -0.015920390449822464 0 -0.015920390449822464 0.031088763881147452 0 0 0 0.0030519646971414738 -0.022380550608686461 0.0047874062270539253 0 0.0047874062270539253 0.11814757753368899 0 0 0 0.023941756731250652 -0.019593182696087952 -0.011986128126345363 0 -0.011986128126345363 0.057781566737371448 0 0 0 0.0095470960103209435 -0.081956814497134184 0.0054036958640845817 0 0.0054036958640845817 0.057047033310553025 0 0 0 -0.0062274452966452828 -0.0031869172075160712 0.028288886669739277 0 0.028288886669739277 0.058050847832945784 0 0 0 0.013715982656357095 -0.010217555895941199 0.009049693386557589 0 0.009049693386557589 -0.00096961971792808299 0 0 0 -0.0027967939034669875 -0.0078966009984087204 -0.0077653687146068684 0 -0.0077653687146068684 -0.002190573101935378 0 0 0 -0.0025217935250860801 -0.0062990409269905179 -0.024534471520676143 0 -0.024534471520676143 0.025506651128448077 0 0 0 0.0048019025503642787 -0.042661199916925546 0.0053509710991749872 0 0.0053509710991749872 -0.0023937823575572881 0 0 0 -0.011263745568620719 -0.018498141614732927 0.02725397961572007 0 0.02725397961572007 0.071151060286305801 0 0 0 0.013163229667893211 -0.004468212204677996 -0.0067613290060402065 0 -0.0067613290060402065 -0.0018118739870450207 0 0 0 -0.0015700215479308721 -0.0647704602197271 -0.0081157737805715498 0 -0.0081157737805715498 0.08225182871899768 0 0 0 0.0043703421248176581 -0.0052059503346586489 0.008043074777429382 0 0.008043074777429382 -0.0019547508427093518 0 0 0 -0.0017901752943423332 -0.01671616104141127 -0.02470867477521721 0 -0.02470867477521721 0.036620584261005007 0 0 0 0.0049761058048982676 -0.013410280236877015 -0.029976436195739808 0 -0.029976436195739808 0.023797577588965391 0 0 0 0.0025968243380222189 -0.054672840476473833 -0.025747753122406167 0 -0.025747753122406167 0.0075202898556984143 0 0 0 -0.011788137655193875 -0.054165871131430177 -0.024662264167772535 0 -0.024662264167772535 0.0083892651114846339 0 0 0 -0.011444151504986372 -0.042448687786191236 -0.010303860476208501 0 -0.010303860476208501 -0.010281857865952052 0 0 0 -0.013182636413035825 -0.02908276454746761 0.084851431545059253 0 0.084851431545059253 0.022176076565435965 0 0 0 -0.0017266719955080223 -0.084555204742540413 -0.010029053109631869 0 -0.010029053109631869 -0.00046952182223003458 0 0 0 -0.021256181641192584 0.0071488467087974586 -0.019686594286390136 0 -0.019686594286390136 0.045896329444872361 0 0 0 0.013261294038417477 -0.033078936567576059 -0.0090783974245740584 0 -0.0090783974245740584 0.029921216964090364 0 0 0 -0.00078942990087142728 -0.022363741649524066 0.022663778022424891 0 0.022663778022424891 0.022725654102427273 0 0 0 9.0478113225794798e-05 -0.033205640745517906 -0.011375756065166873 0 -0.011375756065166873 -0.01332366333485735 0 0 0 -0.011632326020093897 -0.035267442106624192 -0.012189366384539491 0 -0.012189366384539491 -0.013302050850809266 0 0 0 -0.012142373239358351 -0.28622656693075887 0.0071123219820176413 0 0.0071123219820176413 0.0083379095215416754 0 0 0 -0.069472164352304244 -0.15466846678276377 -0.0034093701050024504 0 -0.0034093701050024504 0.0036916182269137732 0 0 0 -0.037744212138962507 -0.047229792800184613 -0.0051945751109266428 0 -0.0051945751109266428 -0.015745366961733193 0 0 0 -0.015743789940479452 -0.053704426491596256 0.0037817738026794312 0 0.0037817738026794312 -0.017901036952426383 0 0 0 -0.017901365861005658 -0.013878279999560386 0.0077583209958123622 0 0.0077583209958123622 0.0094363858791864375 0 0 0 -0.0011104735300934837 -0.033149722886912203 0.019442059200629878 0 0.019442059200629878 0.026485917303408858 0 0 0 -0.0016659513958758414 -0.026122399467596674 0.014179183442918852 0 0.014179183442918852 0.0064525274324621629 0 0 0 -0.0049174680087836469 -0.14352007505236108 -0.01546477506168201 0 -0.01546477506168201 -0.013021856236777651 0 0 0 -0.039135482822284719 -0.10798279489593141 0.001951486304006482 0 0.001951486304006482 -0.0074060598944485287 0 0 0 -0.028847213697594999 0.048455213214813497 0.04080326284233371 0 0.04080326284233371 0.034001314634908297 0 0 0 0.020614131962430449 -0.12104546864935489 -0.014393257211638947 0 -0.014393257211638947 -0.007973619941719615 0 0 0 -0.032254772147768611 -0.09693601261581529 0.0017671720087944244 0 0.0017671720087944244 -0.0051127892610415837 0 0 0 -0.025512200469214211 -0.039000330746275513 -0.0054655137820656674 0 -0.0054655137820656674 -0.001122659097776646 0 0 0 -0.010030747461013012 0.03521755293624218 0.11875095321386298 0 0.11875095321386298 0.075534572852175241 0 0 0 0.0276880314471043 -0.018115311112303988 0.011385209373683459 0 0.011385209373683459 -0.0019412569280374825 0 0 0 -0.0050141420100853692 -0.034276736543668501 -0.0085970524791042502 0 -0.0085970524791042502 0.021768765694857972 0 0 0 -0.0031269927122026531 -0.078234614472360783 -0.0085136536408897869 0 -0.0085136536408897869 -0.026073285402948992 0 0 0 -0.026076974968827441 -0.07235693489524217 0.001834868824908473 0 0.001834868824908473 -0.024114131058681921 0 0 0 -0.024117766488481018 -0.13692506484380135 0.0039245163188737003 0 0.0039245163188737003 -0.00062542186605835104 0 0 0 -0.034387621677464904 -0.21834989063687604 -0.011361868080668316 0 -0.011361868080668316 -0.0012607607196743476 0 0 0 -0.054902662839137667 -0.081976013939765252 -0.014834508980831718 0 -0.014834508980831718 0.029418451165180048 0 0 0 -0.013139390693646419 0.0071884692786099436 -0.019322634865766464 0 -0.019322634865766464 0.030415539965383376 0 0 0 0.0094010023109983853 -0.074388561323783423 -0.014325486833812517 0 -0.014325486833812517 0.061800787906012788 0 0 0 -0.0031469433544426655 -0.040914418885269629 0.014492377781949676 0 0.014492377781949676 0.036584628051376945 0 0 0 -0.0010824477084731624 -0.05330851774052707 0.008134867194656184 0 0.008134867194656184 0.041779488529784733 0 0 0 -0.0028822573026855819 -0.0054277166187796915 0.023150486592045813 0 0.023150486592045813 0.038520910817977712 0 0 0 0.0082732985497994977 0.0078756841040270829 0.018751145324926957 0 0.018751145324926957 0.022136688298878854 0 0 0 0.0075030931007264816 -0.021695247764614733 -0.012439839315870727 0 -0.012439839315870727 -0.0065022284275151332 0 0 0 -0.0070493690480324389 -0.068254071818528966 -0.019966818328849889 0 -0.019966818328849889 0.031037088834034748 0 0 0 -0.0093042457461236273 -0.080887095237865872 -0.036490316571864925 0 -0.036490316571864925 0.074863552584926912 0 0 0 -0.0015058856632347573 -0.023267173844315654 -0.06153972728042606 0 -0.06153972728042606 0.12006622684051889 0 0 0 0.024199763249050758 -0.13077662642037768 0.0034409251604156921 0 0.0034409251604156921 -0.00088077908306896657 0 0 0 -0.032914351375861677 -0.19850046325350934 -0.0097003869591967152 0 -0.0097003869591967152 -0.0016488471181135833 0 0 0 -0.050037327592905717 -0.0013274693203173336 -0.002084947184313013 0 -0.002084947184313013 -0.0061760546760886107 0 0 0 -0.0018758809991015555 -0.025404977856916366 -0.02920572608380434 0 -0.02920572608380434 0.093082784537937169 0 0 0 0.016919451670255159 -0.028674573558922285 0.012013414149636657 0 0.012013414149636657 -0.0029132272306437654 0 0 0 -0.0078969501973915265 -0.11606698639339005 -0.013934753770118562 0 -0.013934753770118562 -0.017460270845600038 0 0 0 -0.033381814309747522 -0.093441928697461082 0.0017261112897610665 0 0.0017261112897610665 -0.011364179433972207 0 0 0 -0.026201527032858322 -0.05181689010638596 0.001001532702039328 0 0.001001532702039328 -0.0062683631202373564 0 0 0 -0.014521313306655834 -0.07446864073485962 -0.01010580185194674 0 -0.01010580185194674 0.067074842857688721 0 0 0 -0.0018484494692926879 -0.023939034995481084 -0.012392161806460134 0 -0.012392161806460134 0.040376470705136835 0 0 0 0.0041093589274138476 -0.053932836799841073 0.0031067414773912837 0 0.0031067414773912837 -0.003674371492238716 0 0 0 -0.014401802073019948 -0.065617891217554236 0.016895637862224699 0 0.016895637862224699 0.00066101778566274305 0 0 0 -0.016239218357972929 -0.021614684734609146 -0.021855138220608916 0 -0.021855138220608916 0.054532349283258341 0 0 0 0.0082294161371623265 -0.014875921582042928 -0.02012107025575649 0 -0.02012107025575649 0.046487347650589594 0 0 0 0.0079028565171366805 -0.052341946644333698 -0.031340443177060272 0 -0.031340443177060272 0.043891805969137582 0 0 0 -0.0021125351687990568 -0.052688858815451128 -0.018144000191920695 0 -0.018144000191920695 0.03571015557023216 0 0 0 -0.0042446758113047489 -0.052325408193955106 -0.0046650714307011915 0 -0.0046650714307011915 0.028931088943902061 0 0 0 -0.0058485798125132611 -0.071668702299128056 -0.010838808693389485 0 -0.010838808693389485 0.063269199608246035 0 0 0 -0.0020998756727205053 -0.0004949857292133597 0.023082159460165119 0 0.023082159460165119 0.14103360983291058 0 0 0 0.035134656025923805 0.00024384438734614822 0.00052640536134718197 0 0.00052640536134718197 0.0010965685120361002 0 0 0 0.00033510322484542332 -0.0037305219481353347 -0.019446600883237242 0 -0.019446600883237242 0.07432931913088614 0 0 0 0.017649699295687882 0.00056198867195333957 -0.0011105189825153516 0 -0.0011105189825153516 0.0014336364433791271 0 0 0 0.00049890627883264482 -0.053132902387343119 0.00022756414241573153 0 0.00022756414241573153 0.031269884978883028 0 0 0 -0.005465754352115014 -0.055029560121375373 -0.003179136264187078 0 -0.003179136264187078 0.020214209072833427 0 0 0 -0.0087038377621355082 -0.051273015697948163 -0.015439690504277459 0 -0.015439690504277459 0.028826095486869485 0 0 0 -0.0056117300527696728 -0.17461435326661706 -0.015447652604610604 0 -0.015447652604610604 0.0027057859829842934 0 0 0 -0.042977141820908171 -0.200558784849203 -0.02427068065824034 0 -0.02427068065824034 0.0035234375389324724 0 0 0 -0.049258836827567709 -0.048087937001949688 -0.025026155104647396 0 -0.025026155104647396 0.0011327275409422077 0 0 0 -0.011738802365251905 -0.062567117483151136 -0.0042264879491327664 0 -0.0042264879491327664 0.0080722919344920763 0 0 0 -0.013623706387164765 -0.028129590424530726 -0.042331797519493952 0 -0.042331797519493952 0.066702507521552185 0 0 0 0.0096432292742553716 -0.090727712463590501 0.0028036769864676001 0 0.0028036769864676001 -0.0098506399178213411 0 0 0 -0.025144588095352968 -0.078637312992115321 0.0022605334925565115 0 0.0022605334925565115 -0.012825840010887941 0 0 0 -0.022865788250750817 -0.085848454005483299 -0.013231403915798695 0 -0.013231403915798695 -0.020589324201059099 0 0 0 -0.026609444551635601 -0.10930713006156662 -0.015890529938157316 0 -0.015890529938157316 -0.019119206664364945 0 0 0 -0.032106584181482892 -0.069390417826668327 -0.027000076646530036 0 -0.027000076646530036 0.00048639951522133629 0 0 0 -0.017226004577861942 -0.054962925305417798 -0.027869301494262887 0 -0.027869301494262887 0.0020556689234210168 0 0 0 -0.013226814095499306 -0.050306571050790512 -0.0043107731900420745 0 -0.0043107731900420745 -0.023137155515755892 0 0 0 -0.018360931641636602 -0.048410482491930334 -0.0059242156610625468 0 -0.0059242156610625468 -0.022680256474922632 0 0 0 -0.017772684741713243 -0.053865457437190054 0.0048644214637221812 0 0.0048644214637221812 -0.013631037735158086 0 0 0 -0.016874123793087035 -0.057748472436347523 0.0022895791890892893 0 0.0022895791890892893 -0.01801600131663985 0 0 0 -0.018941118438246841 -0.029954574309105864 0.044798089265275287 0 0.044798089265275287 0.017559733401416366 0 0 0 -0.0030987102269224298 -0.030275017827616879 -0.029770566589608527 0 -0.029770566589608527 -0.0021248979613530672 0 0 0 -0.0080999789472425698 -0.071977596098305077 0.00091140513150048119 0 0.00091140513150048119 -0.010281952853959518 0 0 0 -0.020564887238066147 -0.063492826423324711 -0.010275793213136134 0 -0.010275793213136134 -0.020461596542604495 0 0 0 -0.020988605741482289 -0.050200973944493965 -0.0090972720059677575 0 -0.0090972720059677575 0.014523004022657132 0 0 0 -0.008919492480459229 -0.083019887818613067 0.0022314698160159751 0 0.0022314698160159751 -0.0075143992071733633 0 0 0 -0.022633571756446601 -0.091003511075509358 -0.015167531294050773 0 -0.015167531294050773 -0.013429616602951916 0 0 0 -0.026108281919615312 -0.10409669944084071 -0.017617455366580007 0 -0.017617455366580007 0.11624848252848063 0 0 0 0.0030379457719099945 -0.056188125698042837 -0.0058048897957971787 0 -0.0058048897957971787 0.015983889285682215 0 0 0 -0.010051059103090159 -0.096312705816438984 -0.0074277264454483448 0 -0.0074277264454483448 -0.032116572687521584 0 0 0 -0.032107319625990144 -0.081980325697250875 -0.00026853681000412063 0 -0.00026853681000412063 -0.027333649662840621 0 0 0 -0.027328493840022873 0.013295890945193317 0.01499605211061782 0 0.01499605211061782 0.042524602058736316 0 0 0 0.013955123250982387 -0.0079463615601199633 -0.0020774049855478149 0 -0.0020774049855478149 -0.022277483964250555 0 0 0 -0.0075559613810924908 -0.072766834314996601 -0.00069202472911934765 0 -0.00069202472911934765 0.011197708664513223 0 0 0 -0.01539228141262082 0.00043539004989207042 -0.032741053831943756 0 -0.032741053831943756 0.023610224512716771 0 0 0 0.0060114036406521687 -0.054141307625858497 0.0020969305348382647 0 0.0020969305348382647 0.031551696640237228 0 0 0 -0.0056474027464053162 -0.06192055158415849 -0.012630285305734804 0 -0.012630285305734804 0.034259919420015092 0 0 0 -0.0069151580410358598 -0.16837739973937949 -0.0032929470058736705 0 -0.0032929470058736705 -0.01330857690998221 0 0 0 -0.045421494162340419 -0.12420985947621463 -0.0048134496274913376 0 -0.0048134496274913376 -0.010405445878587716 0 0 0 -0.033653826338700586 -0.020489290767464072 -0.022524180038463473 0 -0.022524180038463473 0.042212352807929232 0 0 0 0.0054307655101162727 -0.047637142029231874 0.0080033202316132888 0 0.0080033202316132888 0.02065013534915789 0 0 0 -0.0067467516700185073 -0.055070837872923419 -0.0072364470692826977 0 -0.0072364470692826977 0.010058553765001249 0 0 0 -0.011253071026980541 -0.10194923726299751 -0.00098766908976440082 0 -0.00098766908976440082 0.0065234162860417499 0 0 0 -0.023856455244238947 -0.098931432004039088 0.019860310840500883 0 0.019860310840500883 0.00081751556397957614 0 0 0 -0.0245284791100151 -0.059303606716980845 -0.0064365875993293992 0 -0.0064365875993293992 0.03092087454721032 0 0 0 -0.0070956830424426243 -0.057598857294536121 -0.022681577192131458 0 -0.022681577192131458 0.014859577767773247 0 0 0 -0.010684819881690732 -0.058264528093988584 -0.0028554062330045371 0 -0.0028554062330045371 0.011674866084098318 0 0 0 -0.011647415502472593 -0.045497217355565098 0.0070634671195891671 0 0.0070634671195891671 0.026074379612384808 0 0 0 -0.0048557094357950751 -0.060981356265529807 -0.025442384875719259 0 -0.025442384875719259 0.01709752123434477 0 0 0 -0.010970958757796245 0.046325517874068536 0.019583985513631164 0 0.019583985513631164 0.10712335644470788 0 0 0 0.03836221857969413 -0.066028354089481281 0.0023797827174774633 0 0.0023797827174774633 0.004800661155091035 0 0 0 -0.015306923233597544 -0.053325183978204294 0.013672545083698589 0 0.013672545083698589 -0.0031220155854381204 0 0 0 -0.014111799890910603 -0.021831348087006208 -0.018050741796827308 0 -0.018050741796827308 0.060163245594866188 0 0 0 0.0095829743769650366 -0.0085556413687296051 -0.017022178174301739 0 -0.017022178174301739 0.042441954731880172 0 0 0 0.0084715783407875445 -0.13590356579388244 -0.02480102341759019 0 -0.02480102341759019 0.036783877322999745 0 0 0 -0.024779922117720656 -0.0046587886075095952 -0.01784539710283943 0 -0.01784539710283943 -0.015542108113442976 0 0 0 -0.0050502241802381498 -0.12989116625771138 0.005856994530000742 0 0.005856994530000742 0.002251035054734396 0 0 0 -0.031910032800744281 -0.21609527480749044 -0.022128711556488934 0 -0.022128711556488934 0.0064951935194152224 0 0 0 -0.052400020322018917 -0.12513901742805653 -0.00071405462854473578 0 -0.00071405462854473578 0.00066146307084320732 0 0 0 -0.031119388589303375 -0.21228973604261225 -0.0039073118175932953 0 -0.0039073118175932953 0.0031473840880008597 0 0 0 -0.05228558798865296 -0.10745312819526348 -0.0046505718034766559 0 -0.0046505718034766559 -0.01485867729140377 0 0 0 -0.030577951371666828 -0.1415647274964332 -0.0026307833559163036 0 -0.0026307833559163036 -0.018249712778860054 0 0 0 -0.039953610068823302 -0.064245817902093577 -0.01679897513963674 0 -0.01679897513963674 0.046217914477997044 0 0 0 -0.0045069758560241438 -0.059328129366887083 -0.026404189781745219 0 -0.026404189781745219 0.058600556549438493 0 0 0 -0.00018189320436215461 -0.018298891943018897 -0.0046814670768406397 0 -0.0046814670768406397 0.065812613454423685 0 0 0 0.011878430377851218 -0.013094032496523828 -0.00065829701381914241 0 -0.00065829701381914241 0.12880378154385663 0 0 0 0.028927437261833194 -0.027718279470093712 0.0061893897549004928 0 0.0061893897549004928 0.041584927669255534 0 0 0 0.0034666620497904449 -0.020662554006499162 0.0021968310629410515 0 0.0021968310629410515 0.11151486674245836 0 0 0 0.022713078183989793 -0.031185316708726402 -0.010846281471740382 0 -0.010846281471740382 0.056610420967030728 0 0 0 0.0063562760645760885 -0.0598242118033653 -0.002607258301978839 0 -0.002607258301978839 0.012574267683165557 0 0 0 -0.011812486030049939 -0.041611671721881016 -0.026616569998569737 0 -0.026616569998569737 0.048939601133729027 0 0 0 0.0018319823529620027 -0.061532490188861561 -0.028303778423679329 0 -0.028303778423679329 0.044256697228650166 0 0 0 -0.0043189482400528278 -0.058442475242022958 -0.0026448393637387105 0 -0.0026448393637387105 0.056931710627587687 0 0 0 -0.00037769115360883343 -0.13357670272092004 0.019443469172456197 0 0.019443469172456197 -0.0022115977109304907 0 0 0 -0.033947075107962466 -0.071795620134993091 -0.010082590388583362 0 -0.010082590388583362 0.058579411869556092 0 0 0 -0.0033040520663592393 -0.0016214095570966092 -0.013618996756247476 0 -0.013618996756247476 0.17179430929801942 0 0 0 0.042543224935230717 0.052488537939815838 -0.019203841226362713 0 -0.019203841226362713 0.092562707585030157 0 0 0 0.036262811381211513 0.0054515771336431373 -0.017398691732692595 0 -0.017398691732692595 0.035829379488967694 0 0 0 0.010320239155652666 -0.23604721036937382 -0.016819503314333989 0 -0.016819503314333989 0.005462795731141834 0 0 0 -0.057646103659558023 -0.13678089111847677 0.0054475606904880458 0 0.0054475606904880458 0.00158699500123409 0 0 0 -0.033798474029310611 -0.073847794600467698 -0.0094210521167240931 0 -0.0094210521167240931 0.06338209767093797 0 0 0 -0.0026164242323824458 -0.085413209168986315 0.045534552315718235 0 0.045534552315718235 -0.0069733766139190578 0 0 0 -0.023096646445726066 -0.059642694508801775 0.042940964389445169 0 0.042940964389445169 0.0016167949394754189 0 0 0 -0.014506474892331589 -0.032802920783370326 -0.034214085744534106 0 -0.034214085744534106 0.022297177200516494 0 0 0 -0.0026264358957135414 -0.024545956635076721 -0.031484026391252584 0 -0.031484026391252584 0.025049498583281839 0 0 0 0.00012588548705119568 -0.029659312885133293 -0.020078932445509734 0 -0.020078932445509734 0.067573734990609813 0 0 0 0.0094786055263690883 -0.021115350389528498 0.010151054780826257 0 0.010151054780826257 0.00066905892472846062 0 0 0 -0.0051115728662005644 -0.070504223125738938 0.0024572143183340814 0 0.0024572143183340814 -0.010879667766658944 0 0 0 -0.020345972723099473 -0.069062466901175068 -0.0081296477217972403 0 -0.0081296477217972403 -0.020121955514342149 0 0 0 -0.022296105603879301 -0.035906077344075873 -0.038122491060123886 0 -0.038122491060123886 0.011113640536548855 0 0 0 -0.0061981092018817546 -0.036426123969005353 -0.037235504603984532 0 -0.037235504603984532 0.011027859787100525 0 0 0 -0.0063495660454762071 -0.039477188557793474 -0.036249604816105507 0 -0.036249604816105507 0.0078487694091341487 0 0 0 -0.0079071047871649425 -0.04149688772049509 -0.039757375287797381 0 -0.039757375287797381 0.0078917383771885952 0 0 0 -0.0084012873358266793 -0.054863106792636979 0.056256307824278817 0 0.056256307824278817 -0.0025417419159065036 0 0 0 -0.014351212177136002 -0.043270306180301921 0.05196884158661863 0 0.05196884158661863 4.3494563384260942e-06 0 0 0 -0.010816489180991207 -0.076097478070792646 0.0037127053898266555 0 0.0037127053898266555 -0.019871439863310535 0 0 0 -0.0239922294835258 -0.08807169845268692 -0.013769121917510552 0 -0.013769121917510552 -0.026527048995768188 0 0 0 -0.028649686862113784 -0.11362058122510427 -0.015149227331699378 0 -0.015149227331699378 0.0096435355666981692 0 0 0 -0.025994261414601594 -0.19273315657091095 0.031990807383555975 0 0.031990807383555975 0.014637882205430053 0 0 0 -0.044523818591370334 -0.10034072886228776 0.0082944100867189674 0 0.0082944100867189674 0.0021039209493201039 0 0 0 -0.024559201978241935 -0.044012768737248284 0.0070994647817552367 0 0.0070994647817552367 0.0099659732269473996 0 0 0 -0.0085116988775752276 -0.0066981602166788501 -0.013194072257218026 0 -0.013194072257218026 -0.0014376018365045429 0 0 0 -0.0020339405132958066 -0.15388373261578869 -0.024010778688891392 0 -0.024010778688891392 0.001813991246795571 0 0 0 -0.038017435342248287 -0.19523096364533166 -0.019851714756537908 0 -0.019851714756537908 -0.0034447865092654406 0 0 0 -0.049668937538649281 -0.033130760636531094 0.00065553316846332535 0 0.00065553316846332535 -0.019602329077574736 0 0 0 -0.013183272428526457 -0.047338525227011846 0.0092564310590489418 0 0.0092564310590489418 0.079709953245535869 0 0 0 0.008092857004630985 -0.13555018714642314 -0.0027248145619928887 0 -0.0027248145619928887 0.00042789991083330703 0 0 0 -0.033780571808897417 -0.24075911178947626 0.0040418235769379418 0 0.0040418235769379418 0.00036684095369986236 0 0 0 -0.060098067708944075 -0.082148243456000955 -0.00777555448940348 0 -0.00777555448940348 0.010503881810895593 0 0 0 -0.017911090411276351 -0.12040247815710817 -0.021039290054070459 0 -0.021039290054070459 -0.013817539528389926 0 0 0 -0.033555004421374546 -0.092707860585186291 -0.020503686360589413 0 -0.020503686360589413 -0.0093253159421061681 0 0 0 -0.02550829413182315 -0.0092676960513824458 0.10096082577216592 0 0.10096082577216592 0.19709143884536928 0 0 0 0.046955935698496765 -0.18356899712883479 -0.0089352965958121172 0 -0.0089352965958121172 0.00015211857361900616 0 0 0 -0.045854219638803914 -0.12183584447326981 0.0032303499688289272 0 0.0032303499688289272 0.00050446072236004502 0 0 0 -0.030332845937727455 -0.036235593163864988 -0.014477011066100137 0 -0.014477011066100137 -0.01396552018466013 0 0 0 -0.012550278337131238 -0.040194825631970132 -0.015283166231786452 0 -0.015283166231786452 -0.011550457919408452 0 0 0 -0.012936320887844632 -0.050913484449221086 0.0061368769778709885 0 0.0061368769778709885 0.045054380704258816 0 0 0 -0.0014647759362405592 -0.046276842403036172 -0.011499787777027703 0 -0.011499787777027703 0.00581310981123212 0 0 0 -0.01011593314795102 -0.031463365194658581 0.015798867850513244 0 0.015798867850513244 0.0079088432887822468 0 0 0 -0.0058886304764690853 -0.01725662493881519 0.030265906896250971 0 0.030265906896250971 0.18284833338759787 0 0 0 0.041397927112195809 -0.099072345610608764 0.0067969443466739388 0 0.0067969443466739388 0.0038492630813263956 0 0 0 -0.023805770632320561 -0.055441579532663099 -0.0042071576605645887 0 -0.0042071576605645887 0.0081357395070381505 0 0 0 -0.011826460006406251 0.047206040427536511 0.018038422176191431 0 0.018038422176191431 0.071089625910427223 0 0 0 0.029573916584490823 -0.079500946684093507 -0.012122432785984794 0 -0.012122432785984794 -0.0032885398361383322 0 0 0 -0.020697371630057963 -0.28836423433426722 -0.00064743581377862958 0 -0.00064743581377862958 -0.0001783762846675474 0 0 0 -0.072135652654733595 -0.15794012439726873 -0.0010153037616176185 0 -0.0010153037616176185 -0.0003682828074375033 0 0 0 -0.039577101801176545 -0.071359694199041701 -0.0043632679360911947 0 -0.0043632679360911947 0.072885639432585664 0 0 0 0.0003814863083859768 -0.12130263599919858 -0.016848887629699601 0 -0.016848887629699601 -0.0076169311705615722 0 0 0 -0.03222989179244002 -0.14306822514238768 -0.023879388230652547 0 -0.023879388230652547 -0.0040952134442516774 0 0 0 -0.036790859646659818 0.015185049052212712 0.028007957506310494 0 0.028007957506310494 0.043093955646897775 0 0 0 0.014569751174777629 -0.053797292989469003 -0.012746500491335161 0 -0.012746500491335161 -0.00056628179736861739 0 0 0 -0.013590893696709294 -0.049273396909227413 -0.019339483451795036 0 -0.019339483451795036 0.014939037507083586 0 0 0 -0.0085835898505358943 -0.019239027364944317 0.021203490288284853 0 0.021203490288284853 0.13030942385461408 0 0 0 0.02776759912241733 -0.017874480046611296 -0.006956392843953418 0 -0.006956392843953418 0.0014421435234410751 0 0 0 -0.0041080841307925553 -0.071049551061557387 -0.030187099837811718 0 -0.030187099837811718 0.043918210735544805 0 0 0 -0.0067828350815031246 -0.042451735951452213 -0.014811095210407951 0 -0.014811095210407951 0.053031725597765644 0 0 0 0.002644997411578337 -0.060347116487795088 -0.0061323874839894349 0 -0.0061323874839894349 0.018897863407094984 0 0 0 -0.010362313270175089 -0.046059284942487233 0.012251568627341669 0 0.012251568627341669 -0.0014251525404782583 0 0 0 -0.011871109370740873 -0.019369859690493985 -0.02156544008063932 0 -0.02156544008063932 0.067731169333477226 0 0 0 0.012090327410745672 -0.065410698290896602 0.0017600023580899311 0 0.0017600023580899311 -0.0030458433476968499 0 0 0 -0.017114135409648366 -0.0042713518288948343 -0.0009083317141900249 0 -0.0009083317141900249 0.062105830445672416 0 0 0 0.014458619654194357 -0.11400364259999149 0.0051134631390550057 0 0.0051134631390550057 0.00053885545188997463 0 0 0 -0.028366196787025372 -0.088519273372246521 -0.022863305736216515 0 -0.022863305736216515 0.030879370500508152 0 0 0 -0.014409975717934564 -0.097660215216344035 0.0059579871398372161 0 0.0059579871398372161 -0.0036251817203589165 0 0 0 -0.025321349234175727 -0.083418245121656076 -0.011855002741842591 0 -0.011855002741842591 0.0016859995568072605 0 0 0 -0.020433061391212037 -0.12318371949125802 0.0041808067915803104 0 0.0041808067915803104 -0.00076269263722222869 0 0 0 -0.030986603032120044 -0.11124750534790515 0.0057925297176522339 0 0.0057925297176522339 0.00017089636905326389 0 0 0 -0.027769152244712964 -0.092796634216765039 0.058289952636626952 0 0.058289952636626952 -0.0013943408606531538 0 0 0 -0.023547743769354812 -0.070030433573790463 -0.0064498188471314574 0 -0.0064498188471314574 -0.024001038720591721 0 0 0 -0.023507868073595548 -0.07747163768925186 -0.014127474066695851 0 -0.014127474066695851 -0.02376669694898732 0 0 0 -0.025309583659559806 -0.072050413046901907 0.0044048697372811854 0 0.0044048697372811854 -0.015478902131443491 0 0 0 -0.021882328794586355 -0.069376556886315208 0.0010777687338025877 0 0.0010777687338025877 -0.018588681916425345 0 0 0 -0.021991309700685139 -0.052863349311172841 -0.01291194877376188 0 -0.01291194877376188 0.024558029224744565 0 0 0 -0.007076330021607069 -0.040559315826537816 -0.04106582868592154 0 -0.04106582868592154 0.061154113018293169 0 0 0 0.0051486992979388295 -0.057841531027308948 -0.028831741269308195 0 -0.028831741269308195 0.022916002119909594 0 0 0 -0.0087313822268498369 -0.059351186850231552 -0.017804065187528667 0 -0.017804065187528667 0.042891894382960261 0 0 0 -0.0041148231168178229 -0.055533638515811307 -0.023439200739834076 0 -0.023439200739834076 0.020699690812721216 0 0 0 -0.0087084869257725017 -0.037613422383930062 -0.0011641378129537173 0 -0.0011641378129537173 0.061999921814989145 0 0 0 0.0060966248577647431 -0.037573382289683488 -0.012390903458057739 0 -0.012390903458057739 0.030647204326387345 0 0 0 -0.0017315444908240218 -0.16024245538478576 0.0014701686554331821 0 0.0014701686554331821 0.00079539987484800179 0 0 0 -0.039861763877484413 -0.29937913067386657 -0.0047629350353310647 0 -0.0047629350353310647 0.004886859730343085 0 0 0 -0.073623067735880898 -0.027525629023896631 -0.011743438712213533 0 -0.011743438712213533 0.034094483121275831 0 0 0 0.001642213524344821 -0.031025538765125399 -0.002716735882999477 0 -0.002716735882999477 0.073878566454235184 0 0 0 0.010713256922277425 -0.091206894309981412 0.0037449266266882386 0 0.0037449266266882386 0.011580392110185189 0 0 0 -0.01990662554994907 -0.040182119462133709 0.0032973797228013388 0 0.0032973797228013388 -0.014840395804481567 0 0 0 -0.013755628816653816 -0.060914311991664805 -0.013346897808084741 0 -0.013346897808084741 -0.0082579633477719017 0 0 0 -0.017293068834859184 -0.044417824460099897 -0.0046616713296636046 0 -0.0046616713296636046 -0.01562536205949272 0 0 0 -0.015010796629898147 -0.033881154859122353 -0.058599883533673715 0 -0.058599883533673715 0.1177980579194992 0 0 0 0.020979225765094204 -0.11854305048905374 0.00057684650760217102 0 0.00057684650760217102 -0.0052261759109100414 0 0 0 -0.030942306599990973 -0.11094398108322688 -0.00033331656858467604 0 -0.00033331656858467604 -0.0028434344421001262 0 0 0 -0.028446853881331762 -0.14734980723874919 -0.0089300575217118837 0 -0.0089300575217118837 -0.0030937040715419001 0 0 0 -0.037610877827572789 -0.16844933525340494 -0.010500558024311935 0 -0.010500558024311935 -0.0084649750313357322 0 0 0 -0.044228577571185146 -0.13239510807553889 -0.0096771607031502626 0 -0.0096771607031502626 0.0013290322597010462 0 0 0 -0.032766518953959434 -0.032771915058741219 0.096226650188719343 0 0.096226650188719343 0.12298569232832524 0 0 0 0.022553444317395921 -0.0058516465303533605 -0.018194669794515228 0 -0.018194669794515228 0.039125333288096531 0 0 0 0.0083184216894358065 -0.014370855895952902 -0.01053128724184671 0 -0.01053128724184671 -0.0083018666864128083 0 0 0 -0.0056681806455913999 -0.072607112834128559 0.0032381352685112658 0 0.0032381352685112658 -0.0035865882904682275 0 0 0 -0.019048425281149195 -0.072607677048033531 -0.0069771323208514917 0 -0.0069771323208514917 0.053223981222311423 0 0 0 -0.0048459239564305479 -0.10100297079612573 0.0049287239163383935 0 0.0049287239163383935 -0.00074270844962370797 0 0 0 -0.025436419811437377 -0.0014640309508374694 0.036770868875967144 0 0.036770868875967144 0.034886269682465443 0 0 0 0.0083555596829071321 -0.044753574218544902 0.0054422769561306298 0 0.0054422769561306298 -0.014991271124561173 0 0 0 -0.014936211335776519 -0.039309431365568435 -0.019881504105367293 0 -0.019881504105367293 -0.0099286192460787959 0 0 0 -0.012309512652911768 0.029564378552360521 -0.077840134012984494 0 -0.077840134012984494 0.096084727882125048 0 0 0 0.031412276608621399 -0.23277999312976316 0.022122849294924807 0 0.022122849294924807 0.0018891696117075973 0 0 0 -0.057722705879513558 -0.034052341644618081 0.0026713881303638393 0 0.0026713881303638393 -0.015206117970619744 0 0 0 -0.012314614903809459 -0.080628156382865773 0.0001400487308255861 0 0.0001400487308255861 -0.020062784818886438 0 0 0 -0.025172735300438048 -0.091591764439145434 -0.0075694663599454957 0 -0.0075694663599454957 -0.025477800747537992 0 0 0 -0.029267391296670862 -0.039090603336889018 0.011274274486179878 0 0.011274274486179878 0.016760073762200716 0 0 0 -0.0055826323936720677 -0.12576431527154058 0.0033259763288009669 0 0.0033259763288009669 0.0023271570783823803 0 0 0 -0.030859289548289592 -0.20975679451641918 -0.013410280483388881 0 -0.013410280483388881 0.00859276617990129 0 0 0 -0.050291007084129397 -0.0075818446906259496 0.030042814939910567 0 0.030042814939910567 0.078448813022255592 0 0 0 0.017716742082908077 -0.047779593833922052 -0.01661722898571838 0 -0.01661722898571838 -0.003339253119482688 0 0 0 -0.01277971173835124 -0.033082579489074559 0.0042571795186689687 0 0.0042571795186689687 0.068942832871734472 0 0 0 0.0089650633456649781 -0.031705457366424133 -0.024340107920126142 0 -0.024340107920126142 0.020515717273755452 0 0 0 -0.0027974350231671496 -0.044783121056660505 0.002966348983838421 0 0.002966348983838421 0.032834584911276055 0 0 0 -0.0029871340363460952 -0.044227731539334646 0.0049983071792563593 0 0.0049983071792563593 0.0069017357173501029 0 0 0 -0.0093314989554961411 -0.035804038422274725 -0.00019460719394354738 0 -0.00019460719394354738 -0.019605509720593731 0 0 0 -0.013852387035717114 -0.064103433428780651 0.0011920237787454158 0 0.0011920237787454158 0.0028472220202551864 0 0 0 -0.015314052852131371 -0.053111157130775785 -0.025900226689528537 0 -0.025900226689528537 0.14689997156780404 0 0 0 0.023447203609257075 -0.055651387053868462 -0.026698450688731227 0 -0.026698450688731227 0.13600970237551996 0 0 0 0.020089578830412871 -0.044062084607951135 -0.026623514455256236 0 -0.026623514455256236 0.00023657636482798949 0 0 0 -0.010956377060780786 -0.037365560583905721 -0.024612822438514925 0 -0.024612822438514925 -0.00038253248227615444 0 0 0 -0.0094370232665456077 -0.020325815869491004 0.042946890606317956 0 0.042946890606317956 0.042817484779468451 0 0 0 0.0056229172274948613 -0.028960813423414944 0.04249595196007383 0 0.04249595196007383 0.041001733361426318 0 0 0 0.0030102299845022884 -0.020769959523255555 0.050288714535466003 0 0.050288714535466003 0.022797856806963779 0 0 0 0.00050697432092694505 0.013734498328528133 0.049256070492083914 0 0.049256070492083914 0.031550777771312433 0 0 0 0.011321319024960141 -0.038331289301615938 0.0034591403420988014 0 0.0034591403420988014 -0.012777476096612452 0 0 0 -0.012777191349557095 -0.030742657031342352 0.0037507291731423698 0 0.0037507291731423698 0.089182949000146172 0 0 0 0.01461007299220099 -0.039331101216837888 0.00075473189329949841 0 0.00075473189329949841 0.054402144068122549 0 0 0 0.0037677607128211721 -0.091174053541812183 -0.01958462089656765 0 -0.01958462089656765 -0.0012043721360872617 0 0 0 -0.023094606419474806 -0.10478543138151242 -0.0081587545107758563 0 -0.0081587545107758563 -0.00059589470487431129 0 0 0 -0.026345331521596682 -0.17252159296642222 0.01830473908487884 0 0.01830473908487884 -0.0014497299708602363 0 0 0 -0.043492830734320642 -0.023038243748364273 0.027560541800019496 0 0.027560541800019496 0.038016263948402573 0 0 0 0.0037445050500095819 -0.01825672592868495 0.030081113411590588 0 0.030081113411590588 0.048720853122635632 0 0 0 0.0076160317984876741 -0.038989967845982881 0.0056510492407173133 0 0.0056510492407173133 -0.0083557646376871686 0 0 0 -0.011836433120917516 -0.040775662146730528 0.0043608307512738543 0 0.0043608307512738543 -0.015266722021491066 0 0 0 -0.014010596042055404 -0.18858991897908825 -0.01637096975771403 0 -0.01637096975771403 -0.0065724489206754888 0 0 0 -0.048790591974940963 -0.12286801946398028 0.0041653707275970675 0 0.0041653707275970675 -0.0014734091169046892 0 0 0 -0.031085357145221277 -0.11220055403620896 0.0061700490374978221 0 0.0061700490374978221 -0.0025069259355570417 0 0 0 -0.028676869992941462 -0.015600959083610366 0.028414833096828129 0 0.028414833096828129 0.08956151447789118 0 0 0 0.018490138848570314 -0.037234223788727538 -0.011216834864934744 0 -0.011216834864934744 0.002991034675555948 0 0 0 -0.0085607972782929531 -0.039963603715453357 -0.0026758633601795825 0 -0.0026758633601795825 -0.017586987851297812 0 0 0 -0.014387647891687793 -0.026656425469399489 0.0013311056229544198 0 0.0013311056229544198 -0.010086783389884738 0 0 0 -0.0091858022148210532 -0.070678841858737962 -0.031860254461065773 0 -0.031860254461065773 0.0054036653792974843 0 0 0 -0.016318794119860036 -0.077693120460722215 -0.019058854054515101 0 -0.019058854054515101 -0.0014159491905570143 0 0 0 -0.019777267412819821 -0.043722703363666141 -0.015180325680909185 0 -0.015180325680909185 0.033554718930316849 0 0 0 -0.0025419961083373403 -0.013751761079241878 0.021969211181243731 0 0.021969211181243731 0.022374151594136277 0 0 0 0.0021555976287235962 -0.098766472524800836 0.065295567154915357 0 0.065295567154915357 0.0029285592411736339 0 0 0 -0.023959478320907029 -0.11205820907560834 -0.002902855309865976 0 -0.002902855309865976 0.0045155971087416091 0 0 0 -0.026885652991716663 -0.18474081004352083 0.004332293728309039 0 0.004332293728309039 0.012391316661384266 0 0 0 -0.043087373345534141 -0.0052254493145517111 -0.0037303314720086855 0 -0.0037303314720086855 -0.019390438338090066 0 0 0 -0.006153971913160472 -0.01076303061326489 -0.0091206673832314178 0 -0.0091206673832314178 -0.018702995022903401 0 0 0 -0.0073665064090421284 -0.099810324651775528 0.0064543741179029709 0 0.0064543741179029709 -0.00031708152674943257 0 0 0 -0.025031851544631219 -0.087757407761982209 0.004537381577473118 0 0.004537381577473118 -0.0016343321734319169 0 0 0 -0.022347934983853554 -0.054142292847312257 -0.0065493325324787396 0 -0.0065493325324787396 0.020047068849541855 0 0 0 -0.0085238059994425658 -0.12346402302998043 0.0084922399177653138 0 0.0084922399177653138 0.0026325038573857817 0 0 0 -0.030207879793148665 -0.13394070506609701 -0.022512065084425228 0 -0.022512065084425228 -0.0084569899395423448 0 0 0 -0.035599423751409842 -0.0011146091328532023 0.0017994966471597262 0 0.0017994966471597262 -0.011271753219073821 0 0 0 -0.0030965905879817143 -0.073127732620507757 0.073857334131630314 0 0.073857334131630314 0.0084535095004767413 0 0 0 -0.016168555780007976 -0.04138543135852131 0.0039444815421121352 0 0.0039444815421121352 -0.0137957895263386 0 0 0 -0.013795305221214976 0.02479749470274889 0.020561168028603305 0 0.020561168028603305 0.080935962420032315 0 0 0 0.026433364280695038 0.019168246800141907 0.043187655213583115 0 0.043187655213583115 0.12469119122190997 0 0 0 0.035964859505512967 -0.17217719515044344 0.020976858572100077 0 0.020976858572100077 0.03190064387280464 0 0 0 -0.035069137819409721 -0.0087635824010784263 0.044861274892056713 0 0.044861274892056713 0.13020298451282186 0 0 0 0.030359850527935828 0.0050608906104980811 0.037850364859927869 0 0.037850364859927869 0.086814469882991685 0 0 0 0.022968840123372414 -0.07794338954966229 0.0050823847521324628 0 0.0050823847521324628 0.0017540108411071842 0 0 0 -0.01904734467713879 -0.058013319969685943 0.00084630668673545129 0 0.00084630668673545129 -0.0031625940257139495 0 0 0 -0.015293978498849966 -0.14802348635831264 0.049733541212182653 0 0.049733541212182653 0.016108692692627269 0 0 0 -0.032978698416421537 -0.072127692231883561 -0.020235850492242191 0 -0.020235850492242191 0.066952079450904894 0 0 0 -0.0012939031952446736 -0.035023723664008459 0.027205246501706248 0 0.027205246501706248 0.13843883785857278 0 0 0 0.025853778548641078 -0.049927257024502847 -0.026079131019731916 0 -0.026079131019731916 0.00065301758731295401 0 0 0 -0.012318559859297473 -0.12867574528728506 -0.0064173275041271571 0 -0.0064173275041271571 0.0044107558943315139 0 0 0 -0.031066247348238339 -0.22292738370346293 0.01329273970594308 0 0.01329273970594308 0.014065615230528516 0 0 0 -0.052215442118233535 -0.051507515076298027 0.026302113443796404 0 0.026302113443796404 -0.0076335021566933392 0 0 0 -0.01478525430824762 -0.026876495072128526 -0.02835078485256548 0 -0.02835078485256548 0.03962511504170485 0 0 0 0.0031871549923940812 -0.047841062190797978 -0.018421647267999497 0 -0.018421647267999497 0.024923018220212145 0 0 0 -0.0057295109926464582 -0.00555242318815867 0.023018505097737549 0 0.023018505097737549 0.024449901130296603 0 0 0 0.0047243694855344937 -0.12214141558610425 -0.021252979360224855 0 -0.021252979360224855 -0.014581614742584639 0 0 0 -0.03418075758217224 -0.1131737661961851 0.0042083842701116647 0 0.0042083842701116647 0.0031169318910013177 0 0 0 -0.027514208576296023 -0.15857255248180499 -0.009359052202467355 0 -0.009359052202467355 0.010275172460099562 0 0 0 -0.037074345005426244 -0.04013080422203355 -0.030530655537038029 0 -0.030530655537038029 0.055556201008712336 0 0 0 0.0038563491966696894 -0.091506001936200634 0.001045686383780331 0 0.001045686383780331 0.0051627989072184494 0 0 0 -0.021585800757245602 -0.055531902026123812 0.0033855932039465663 0 0.0033855932039465663 0.11045261413181812 0 0 0 0.013730178026423585 -0.036766130058861979 -0.00075629774332899369 0 -0.00075629774332899369 -0.012253855473372603 0 0 0 -0.012254996383058646 -0.038512666857671352 -0.013691938267136661 0 -0.013691938267136661 0.018968839834836437 0 0 0 -0.0048859567557086869 -0.13252531938587461 0.0023956116732010146 0 0.0023956116732010146 0.0026074439206912881 0 0 0 -0.032479468866295845 -0.22507773861482605 -0.009833580290137478 0 -0.009833580290137478 0.005967923715041068 0 0 0 -0.054777453724946246 -0.09323844433332612 -0.023048555361572465 0 -0.023048555361572465 0.0079056170112034863 0 0 0 -0.021333206830530575 -0.053849095814664794 -0.027121761547293094 0 -0.027121761547293094 0.038561676383256249 0 0 0 -0.0038218548578521916 -0.041840042037583625 -0.020825055222827266 0 -0.020825055222827266 0.070063362125913131 0 0 0 0.0070558300220823766 -0.072583263191079647 0.0019052618711863784 0 0.0019052618711863784 0.0055706157076663987 0 0 0 -0.016753161870853309 -0.051593571796819171 -0.02397972571400217 0 -0.02397972571400217 0.0046946178220110824 0 0 0 -0.011724738493702036 -0.071819186550837813 -0.028272416313616433 0 -0.028272416313616433 0.0014329911968694736 0 0 0 -0.017596548838492113 -0.084913370002198021 0.0022053080875189812 0 0.0022053080875189812 0.0050456166194582097 0 0 0 -0.019966938345684943 -0.049414610084038385 -0.026954759528946687 0 -0.026954759528946687 0.0014140801412982906 0 0 0 -0.012000132485685017 -0.037951361702953899 0.00052252163259389856 0 0.00052252163259389856 -0.019220929353457056 0 0 0 -0.014293072764102738 -0.13250480259547809 7.552283928741188e-05 0 7.552283928741188e-05 0.0019239793214146372 0 0 0 -0.032645205818515877 -0.23426905266917133 -0.0010173238977743138 0 -0.0010173238977743138 0.0028161186975760311 0 0 0 -0.057863233492898819 -0.056971175395704982 -0.011206102522418382 0 -0.011206102522418382 -0.0035406599516049075 0 0 0 -0.015127958836827188 0.0089685900077272063 0.02130333267620399 0 0.02130333267620399 0.10018764351545628 0 0 0 0.027289058380795428 -0.0021739253769499367 0.028822010151805522 0 0.028822010151805522 0.07596792919052664 0 0 0 0.018448500953394342 -0.040444357241980367 -0.0089476802222438739 0 -0.0089476802222438739 -0.003203847218745004 0 0 0 -0.010912051115181232 -0.0025519221511918211 0.017048470721425849 0 0.017048470721425849 0.12564649323588739 0 0 0 0.030773642771174003 -0.020247413284692567 -0.02108182423775383 0 -0.02108182423775383 0.018737977464904465 0 0 0 -0.00037735895494706018 -0.061650922455550511 -0.023345877079670008 0 -0.023345877079670008 0.018595338957481888 0 0 0 -0.010763895874517093 0.0042191464078671359 -0.0016485884582397175 0 -0.0016485884582397175 0.08960118143599427 0 0 0 0.023455081960965352 -0.003042978144812053 -0.00093285629198930353 0 -0.00093285629198930353 0.16665318273285612 0 0 0 0.040902551147010996 -0.15402132219462855 -0.013838552214136185 0 -0.013838552214136185 0.030091926708238681 0 0 0 -0.030982348871597454 -0.083864751396425935 0.0035095032750183854 0 0.0035095032750183854 -0.0029824041615850866 0 0 0 -0.021711788889502752 -0.038812921363104894 0.0084589742120153438 0 0.0084589742120153438 -0.0018807998830344202 0 0 0 -0.010173430311534813 -0.10112233269325177 0.055511734137786095 0 0.055511734137786095 -0.0054388956216611106 0 0 0 -0.02664030707872822 -0.013857926113340802 -0.029487811341474213 0 -0.029487811341474213 0.025000450252636419 0 0 0 0.0027856310348238766 -0.034281111236730034 0.001143097442652729 0 0.001143097442652729 -0.016029652756420178 0 0 0 -0.012577690998287554 -0.074547690822633197 -0.00037774902288764678 0 -0.00037774902288764678 0.01746880771403643 0 0 0 -0.01426972077714923 0.016977137921188934 0.017604154165734413 0 0.017604154165734413 0.077948214446723618 0 0 0 0.023731338091978138 -0.057070929943785452 -0.0099977422591810052 0 -0.0099977422591810052 -0.020304220537064224 0 0 0 -0.01934378762021241 -0.035502398683155884 -0.0092856554218683218 0 -0.0092856554218683218 0.0058939498726125472 0 0 0 -0.007402112202635841 -0.027018329874024617 -0.015835423364374046 0 -0.015835423364374046 0.008053702175147566 0 0 0 -0.0047411569247192767 -0.0075896458904234354 0.0052118436264828594 0 0.0052118436264828594 0.047586310532955034 0 0 0 0.0099991661606328441 0.0010899529869990987 0.00010214000564739978 0 0.00010214000564739978 0.08640726011252442 0 0 0 0.021874303274880935 0.0021154688656217224 -0.006094327264231203 0 -0.006094327264231203 0.15607995447805112 0 0 0 0.03954885583591819 -0.011237311749548673 -0.011116872973262748 0 -0.011116872973262748 0.096304033829210101 0 0 0 0.021266680519915204 -0.03045138144843634 0.02232992611602707 0 0.02232992611602707 0.043318714189320595 0 0 0 0.0032168331852210838 -0.018499980174904507 -0.028652362600630976 0 -0.028652362600630976 -0.0022044280304141239 0 0 0 -0.0051761020513296507 -0.0008338598018812881 -0.055055629719314242 0 -0.055055629719314242 0.049773020911034575 0 0 0 0.012234790277288314 -0.063302058859800475 -0.021917429501009056 0 -0.021917429501009056 0.0048048210926044943 0 0 0 -0.014624309441799072 -0.099528676041101091 0.0043338438039043983 0 0.0043338438039043983 0.0021102141833047039 0 0 0 -0.024354615464449073 -0.086609484793968794 0.0065307431480250075 0 0.0065307431480250075 0.0034398497271704853 0 0 0 -0.020792408766699549 -0.15273309534825388 0.0086820144856676607 0 0.0086820144856676607 0.062243277763330052 0 0 0 -0.022622454396230951 -0.020084303345697996 -0.00033043874820776198 0 -0.00033043874820776198 0.029461339375565387 0 0 0 0.0023442590074669312 -0.019188885402849021 -0.0097483624574622729 0 -0.0097483624574622729 0.06460420246428944 0 0 0 0.011353829265360049 -0.037847188131935716 0.0091531942131493783 0 0.0091531942131493783 0.0069848133717556292 0 0 0 -0.0077155936900450174 -0.00029377564839250248 0.00056995278116370174 0 0.00056995278116370174 -0.018739084864001665 0 0 0 -0.0047582151280985974 -0.046450398468676213 0.003430758429393996 0 0.003430758429393996 -0.0089343641698597029 0 0 0 -0.013846190659633982 -0.052231410259713479 -0.027018726703831965 0 -0.027018726703831965 0.017214743795342879 0 0 0 -0.0087541666160926013 -0.033735174098165441 0.0013089971014081084 0 0.0013089971014081084 -0.019768909467340907 0 0 0 -0.013376020891376584 -0.031401580125541395 0.061645201873278932 0 0.061645201873278932 0.0080369326320282042 0 0 0 -0.0058411618733782422 -0.033178261228827804 0.050015046010221109 0 0.050015046010221109 0.015648187889706455 0 0 0 -0.0043825183347798446 -0.03375127214289883 -0.031588655427633228 0 -0.031588655427633228 0.0040019759214749984 0 0 0 -0.0074373240553558817 0.019808420658234148 -0.10842113667618794 0 -0.10842113667618794 0.19073220466770663 0 0 0 0.052635156331485182 -0.035060127049237846 0.0018392615075948425 0 0.0018392615075948425 -0.017957657101717955 0 0 0 -0.013254446037738949 -0.058963351388576446 -0.012465448785670685 0 -0.012465448785670685 0.0035679095775844605 0 0 0 -0.013848860452748135 0.0019185196161330964 0.00085235702061914331 0 0.00085235702061914331 0.00026826429091375559 0 0 0 0.000546695976761713 -0.012563134568313039 0.0054620070604154414 0 0.0054620070604154414 0.17776262469873405 0 0 0 0.041299872532605253 0.0083880940785381504 0.0019144742246330892 0 0.0019144742246330892 0.15649968401985143 0 0 0 0.041221944524597619 0.0043828600043955834 -0.0040240501850452581 0 -0.0040240501850452581 0.081261782769838753 0 0 0 0.021411160693558529 0.0029958075362461756 -0.0013928173293240359 0 -0.0013928173293240359 0.00061540129099135754 0 0 0 0.00090280220681027146 -0.00042525908206091914 0.0010462335458085725 0 0.0010462335458085725 0.0020419402825323676 0 0 0 0.00040417030011797314 -0.0092430215229142298 -0.0075769213586839336 0 -0.0075769213586839336 0.09880311942515263 0 0 0 0.022390024475559711 -0.00043923131744660893 -0.0016702786874898123 0 -0.0016702786874898123 0.0031949775761734855 0 0 0 0.00068893656468160813 -0.037698911695079711 9.3666235600709197e-05 0 9.3666235600709197e-05 -0.017708318574668508 0 0 0 -0.013851807567437055 -0.044426186862002837 -0.024965304142150507 0 -0.024965304142150507 -0.0057999328820751844 0 0 0 -0.012556529936019467 -0.084541909115974589 0.004450679864000065 0 0.004450679864000065 0.0093740244687832153 0 0 0 -0.018791971161797899 -0.057419838825039871 -0.031706799487841164 0 -0.031706799487841164 0.0059555542353515456 0 0 0 -0.012866071147422109 -0.046456787295216316 -0.0012200992738209775 0 -0.0012200992738209775 -0.01848509008671792 0 0 0 -0.016235469345483571 -0.031683082573104704 0.039689463422362792 0 0.039689463422362792 -0.0014856746106453045 0 0 0 -0.0082921892959377796 -0.028188229684446564 -0.032673335685217575 0 -0.032673335685217575 0.0091399374938405664 0 0 0 -0.0047620730476517492 -0.0079196715770422088 -0.0081122911319815305 0 -0.0081122911319815305 0.070875623539012667 0 0 0 0.01573898799049267 -0.016220315231110977 0.0012727808908631344 0 0.0012727808908631344 0.13484792324585437 0 0 0 0.02965690200368587 -0.069238833713229447 0.010333870823992564 0 0.010333870823992564 0.066891170285831192 0 0 0 -0.00058691585684955694 -0.077221713516907348 -0.0017738727706955587 0 -0.0017738727706955587 0.0098919231566473864 0 0 0 -0.016832447590064997 -0.035810166973404056 -0.014410984023759645 0 -0.014410984023759645 0.05088570009664295 0 0 0 0.003768883280809765 -0.035549968193274134 0.0076251877168707349 0 0.0076251877168707349 0.1028600452882269 0 0 0 0.016827519273738156 -0.039206403625414887 -0.038947514827967322 0 -0.038947514827967322 0.010943247506480791 0 0 0 -0.0070657890297335935 -0.034690044212095462 0.0086047452971685437 0 0.0086047452971685437 -0.0005626910002288002 0 0 0 -0.0088131838030810639 -0.030116102773506737 -0.035617958875824529 0 -0.035617958875824529 0.020253296777283936 0 0 0 -0.0024657014990557835 -0.044207553523236243 0.03891171702126428 0 0.03891171702126428 0.00018558864662399088 0 0 0 -0.011005491219152841 -0.038673629816574573 -0.00093036767777010532 0 -0.00093036767777010532 0.030275883761513134 0 0 0 -0.0020994365137653459 -0.0257767600989601 -0.0045523866658821049 0 -0.0045523866658821049 0.034566688706060722 0 0 0 0.0021974821517751209 -0.063519579602056842 0.0019222185820899178 0 0.0019222185820899178 -0.0036632350539713351 0 0 0 -0.016795703664007049 -0.06016249754391477 -0.011323314862654893 0 -0.011323314862654893 0.046353982269733057 0 0 0 -0.003452128818545383 0.010410684734036002 -0.03302986633745375 0 -0.03302986633745375 0.024072502210777502 0 0 0 0.0086207967362033622 -0.042160499823724745 -0.026271045302789203 0 -0.026271045302789203 -0.0027175255353360378 0 0 0 -0.011219506339765203 0.040932530039127557 -0.023023938788184428 0 -0.023023938788184428 0.031668543749385103 0 0 0 0.018150268447128193 -0.026559664460696436 -0.0050977859709246398 0 -0.0050977859709246398 0.068779880590737252 0 0 0 0.010555054032510197 -0.04041346806027446 -0.00673337159517301 0 -0.00673337159517301 0.026905985768234775 0 0 0 -0.0033768705730099491 -0.094472465648217541 0.0036274064971652045 0 0.0036274064971652045 -0.0032434940029673343 0 0 0 -0.024428989912796226 -0.064988987215352068 -0.013317348847498007 0 -0.013317348847498007 0.051478367335290653 0 0 0 -0.0033776549700153535 -0.065677963991823435 -0.011887637508212538 0 -0.011887637508212538 0.062604097159897565 0 0 0 -0.00076846670798146055 0.022325290126892938 0.06835017445139388 0 0.06835017445139388 0.21608841174304405 0 0 0 0.059603425467484261 -0.038212631465105396 -0.023044594736712928 0 -0.023044594736712928 0.24712111758320093 0 0 0 0.052227121529523884 0.0038175407805602912 0.018456098194822832 0 0.018456098194822832 0.095111629658306107 0 0 0 0.024732292609716433 -0.040207554375282381 0.024518902147736072 0 0.024518902147736072 0.05744287763233849 0 0 0 0.0043088308142640308 -0.062511812596618199 -0.010770845198086881 0 -0.010770845198086881 0.00032094789753145392 0 0 0 -0.015547716174771686 -0.064014156174439063 0.002306255418318367 0 0.002306255418318367 -0.0067193060165587383 0 0 0 -0.017683365547749456 -0.11787441862049503 -0.010273053590273558 0 -0.010273053590273558 -0.017567050338136367 0 0 0 -0.033860367239657865 -0.095380044608679784 -0.00018989676148530379 0 -0.00018989676148530379 -0.011783509351748281 0 0 0 -0.026790888490106999 -0.026240954111403141 0.005215234600663473 0 0.005215234600663473 -0.012143914226286384 0 0 0 -0.0095962170844223742 -0.13584598027826789 -0.011412912222328139 0 -0.011412912222328139 -0.0030809250898927412 0 0 0 -0.034731726342040151 -0.11762218440367635 -0.012990580982877266 0 -0.012990580982877266 -0.027352280053680948 0 0 0 -0.036243616114339322 -0.17724462921086784 0.0092049411411740424 0 0.0092049411411740424 -0.0015552502363426618 0 0 0 -0.044699969861802628 -0.15600927609721249 0.010351743941768767 0 0.010351743941768767 -0.033688772840079872 0 0 0 -0.047424512234323105 -0.065931859505601639 -0.025205171310181296 0 -0.025205171310181296 0.026965039489949993 0 0 0 -0.0097417050039128178 -0.032280057413267234 0.0033645723830759973 0 0.0033645723830759973 -0.016242046797220355 0 0 0 -0.012130526052621892 0.020038704337405511 0.034311553035545339 0 0.034311553035545339 0.035839647443444811 0 0 0 0.013969587945212192 -0.039511065793916667 0.00688114664327244 0 0.00688114664327244 0.09018431560061746 0 0 0 0.012668312451675157 -0.024438927068383527 0.03541110295120227 0 0.03541110295120227 0.087686494145374716 0 0 0 0.015811891769247792 -0.040872198422525374 -0.04059406837263569 0 -0.04059406837263569 0.037701519606768263 0 0 0 -0.00079266970393937486 -0.0043867608886056309 -3.2728820955618687e-05 0 -3.2728820955618687e-05 0.012083174263613525 0 0 0 0.0019241033437516406 0.0013821476467792313 -0.006196178653221196 0 -0.006196178653221196 0.037450344982933731 0 0 0 0.0097081231574282952 0.0019349545065999048 0.0059201669421664604 0 0.0059201669421664604 0.077491275724959188 0 0 0 0.019856557557890439 -0.0033788762699777809 -0.00048445299822752474 0 -0.00048445299822752474 0.0067713433299647994 0 0 0 0.00084811676499675452 -0.013496163943492664 0.0066818845259447035 0 0.0066818845259447035 0.0077943547164826543 0 0 0 -0.0014254523067523811 -0.014395475840017435 -0.014190603181586797 0 -0.014190603181586797 0.020720428250440959 0 0 0 0.0015812381026058531 -0.12907840710803303 -0.01972983309401518 0 -0.01972983309401518 -0.042947891476580603 0 0 0 -0.043006574646153407 -0.16790313964859174 0.018809800082701472 0 0.018809800082701472 -0.055864940620813215 0 0 0 -0.055942020067351238 -0.1916492761680722 0.019004266899648223 0 0.019004266899648223 -0.026096279809355444 0 0 0 -0.054436388994356918 -0.14938607281736888 -0.019198050187990565 0 -0.019198050187990565 -0.020581869310778628 0 0 0 -0.042491985532036876 -0.036412903809360908 -0.03871690671822825 0 -0.03871690671822825 0.014079235946357294 0 0 0 -0.0055834169657509314 -0.063845792361053921 0.0020468199312563759 0 0.0020468199312563759 0.0032174849446761355 0 0 0 -0.015157076854094439 -0.047592811116806383 -0.027682230919517388 0 -0.027682230919517388 0.0063366281489364296 0 0 0 -0.010314045741967481 -0.044930838894761627 -0.02746950372234086 0 -0.02746950372234086 -0.0034491961183609199 0 0 0 -0.012095008753280678 -0.056338487656558911 0.0010168402511487621 0 0.0010168402511487621 0.0029077128576534966 0 0 0 -0.013357693699726343 -0.04247156003575589 0.0043350232165789565 0 0.0043350232165789565 -0.0068153361689916219 0 0 0 -0.012321724051186877 -0.042315405631043149 0.0049692428507881444 0 0.0049692428507881444 -0.0063012465393271402 0 0 0 -0.012154163042592566 -0.064201159080983644 -0.050933897563468139 0 -0.050933897563468139 0.15757550548348423 0 0 0 0.023343586600625146 0.011273418922829813 -0.011852380426456546 0 -0.011852380426456546 0.44301702176489977 0 0 0 0.11357261017193246 -0.080828581261321267 -0.018466834919014963 0 -0.018466834919014963 0.018211913727719659 0 0 0 -0.015654166883400336 -0.02836165355580339 -0.0023833477994362473 0 -0.0023833477994362473 0.059721748123243934 0 0 0 0.0078400236418601499 -0.040492568386051891 -0.015261600487158467 0 -0.015261600487158467 0.034286348216929108 0 0 0 -0.0015515550422807167 -0.043843082048330151 0.0065493437071406802 0 0.0065493437071406802 0.0083794337434432084 0 0 0 -0.0088659120762217304 -0.0237654846881592 0.031643401946055416 0 0.031643401946055416 0.073579501582028417 0 0 0 0.012453504223467471 -0.031847721481101821 -0.015480302296600357 0 -0.015480302296600357 -0.0020673695198363262 0 0 0 -0.0084787727502345644 0.0086599385035487919 -0.036991745448300167 0 -0.036991745448300167 0.072497685246077859 0 0 0 0.020289405937406663 -0.022031339425913718 -0.0068071374914376315 0 -0.0068071374914376315 0.023574531244503344 0 0 0 0.00038579795464742384 -0.048881471936103926 0.030837021412050802 0 0.030837021412050802 0.0036126042558306537 0 0 0 -0.011317216920068818 -0.028884497164053613 -0.030616937332690775 0 -0.030616937332690775 0.034273955647894372 0 0 0 0.0013473646209600787 -0.021612478969326943 -0.029648963078880992 0 -0.029648963078880992 0.028103016137904113 0 0 0 0.0016226342921442649 -0.026116128295640417 -0.0033666411454102152 0 -0.0033666411454102152 -0.0098928353468590302 0 0 0 -0.0090022409106249035 -0.020586122993304395 -0.0077871208674173964 0 -0.0077871208674173964 0.083025041433863966 0 0 0 0.015609729610139927 -0.043718233969195261 -0.0095413132326876426 0 -0.0095413132326876426 -0.010234858255628421 0 0 0 -0.01348827305620591 -0.020745516390731883 -0.0077856371596271012 0 -0.0077856371596271012 -0.02624048618188829 0 0 0 -0.011746500643155161 -0.069613248378641052 0.003253724098348453 0 0.003253724098348453 -0.0076682890586934113 0 0 0 -0.019320384359333621 -0.063209095488308664 0.0036542315500361555 0 0.0036542315500361555 -0.0094560195085717173 0 0 0 -0.018166278749220097 -0.06576105058012871 -0.0063473949727146303 0 -0.0063473949727146303 0.037257572228772219 0 0 0 -0.0071258695878391436 -0.06074103274064252 -0.023141377968076138 0 -0.023141377968076138 0.044119006267061556 0 0 0 -0.0041555066183951994 -0.054673805860047379 0.00082818050485419748 0 0.00082818050485419748 -0.0059319103833116865 0 0 0 -0.015151429060839775 -0.050549068417287318 0.0029228127514523469 0 0.0029228127514523469 0.0038437358149683368 0 0 0 -0.011676333150579758 -0.054126022511016052 0.0010904541581968352 0 0.0010904541581968352 0.0031394303506382011 0 0 0 -0.012746648040094448 -0.012417367968814208 0.008455074853847222 0 0.008455074853847222 -0.013069527519173896 0 0 0 -0.0063717238719970259 -0.0046209164923664003 0.010286715423104248 0 0.010286715423104248 0.010985089847542984 0 0 0 0.0015910433387941181 -0.0049604349369283679 -0.015266833208371522 0 -0.015266833208371522 0.035233666417255727 0 0 0 0.0075683078700819056 -0.014621094229846393 -0.012832660775998206 0 -0.012832660775998206 0.005605669281914194 0 0 0 -0.0022538562369830706 -0.019074863781490134 -0.049334666766069728 0 -0.049334666766069728 0.15622320703803483 0 0 0 0.03428708581413617 -0.0029435982514574022 0.020623750223507153 0 0.020623750223507153 0.062373005436135998 0 0 0 0.014857351796169649 -0.0011651188950763114 -0.0035215671408382887 0 -0.0035215671408382887 -0.0025549937783884147 0 0 0 -0.00093002816836618152 -0.0026664296849072677 -0.017430666541495388 0 -0.017430666541495388 0.030537570123534641 0 0 0 0.0069677851096565657 -0.0011643172893558429 0.0039500931690144014 0 0.0039500931690144014 -0.0011405060753539864 0 0 0 -0.00057620584117756835 -0.053590435895464861 0.041638402724571255 0 0.041638402724571255 -0.0039917173216421631 0 0 0 -0.014395538304277089 -0.033148760628289198 -0.034896373783258244 0 -0.034896373783258244 0.019541606851192217 0 0 0 -0.0034017884442743007 -0.026039865864399547 -0.035763105012362795 0 -0.035763105012362795 0.017374096173125242 0 0 0 -0.0021664424228184931 -0.059053422655298428 -0.010103064255229749 0 -0.010103064255229749 0.051876283110817364 0 0 0 -0.0017942848861202468 0.0023598460220419781 0.013457135012106103 0 0.013457135012106103 0.045268271209920385 0 0 0 0.011907029307991479 -0.0012866639362290044 -0.0004580399440564098 0 -0.0004580399440564098 0.0043437005638908843 0 0 0 0.00076425915691524793 -0.0023364322761927347 -0.00031622477150206052 0 -0.00031622477150206052 0.0086188346490736478 0 0 0 0.0015706005932192291 4.2902737812378078e-05 -0.011472355962681702 0 -0.011472355962681702 0.016704997074242556 0 0 0 0.0041869749530139 -0.030937440756056089 -0.006129478455225934 0 -0.006129478455225934 -0.020554899282775096 0 0 0 -0.012873085009707741 0.013192055922407214 -0.035500720472504965 0 -0.035500720472504965 0.0097890046889494431 0 0 0 0.0057452651528392129 0.011191254898616346 -0.00024834128894779539 0 -0.00024834128894779539 0.088906511604240124 0 0 0 0.025024441625714114 0.014032818283670367 -0.0044710074268350941 0 -0.0044710074268350941 0.16680951562748492 0 0 0 0.04521058347778889 -0.037057380085220561 0.0059249736621946082 0 0.0059249736621946082 -0.0095721184657155938 0 0 0 -0.011657374637734034 -0.084848614185127458 0.043923912225519501 0 0.043923912225519501 0.0021573213570968974 0 0 0 -0.020672823207007474 -0.094439679047432001 0.042140356465615814 0 0.042140356465615814 -0.0017124654221882807 0 0 0 -0.024038036117405071 -0.03350075089872559 -0.0095976977700110155 0 -0.0095976977700110155 -0.012676336255337296 0 0 0 -0.011544271788515723 -0.053401980291888668 -0.0051970185602824293 0 -0.0051970185602824293 0.017114627131805969 0 0 0 -0.0090718382900206659 -0.054696566852105208 -0.027613536841727931 0 -0.027613536841727931 0.0040009705137121973 0 0 0 -0.012673899084598301 -0.045708779692751111 -0.033007297626688137 0 -0.033007297626688137 0.021568842624533124 0 0 0 -0.0060349842670545661 -0.059189330295793763 0.043839667494340151 0 0.043839667494340151 -0.0032839316074388947 0 0 0 -0.015618315475807609 -0.031057082411688253 -0.03449113253589331 0 -0.03449113253589331 0.020397376430385084 0 0 0 -0.0026649264953257923 -0.03548256259460969 -0.036819831972811246 0 -0.036819831972811246 0.015192578243287347 0 0 0 -0.0050724960878306691 -0.11304295718593348 -0.0018990785477525341 0 -0.0018990785477525341 -0.011596042751128542 0 0 0 -0.031159749984265506 -0.15195459853574514 -0.0091796849944828715 0 -0.0091796849944828715 -0.017386176435095366 0 0 0 -0.042335193742710116 -0.14013220410802563 -0.015493985758892062 0 -0.015493985758892062 -0.0015269454168722885 0 0 0 -0.035414787381224458 -0.10694074098288361 0.0028158564338801664 0 0.0028158564338801664 -0.0020561815358283719 0 0 0 -0.027249230629677997 -0.06016291519808506 -0.0063043324882749094 0 -0.0063043324882749094 0.025618078285153938 0 0 0 -0.0086362092282327701 -0.077901291187426835 0.035119400460350558 0 0.035119400460350558 -0.0067265318123377327 0 0 0 -0.02115695574994092 -0.023705036546352254 -0.029231446252096283 0 -0.029231446252096283 0.033621009812542013 0 0 0 0.0024789933165473288 -0.026881500389982271 -0.03077590311979303 0 -0.03077590311979303 0.025885208103838764 0 0 0 -0.00024907307153587688 -0.062028207505902405 -0.037637475517927399 0 -0.037637475517927399 0.0096548903979329359 0 0 0 -0.013093329276992222 -0.035571470805856528 -0.0083544204245130094 0 -0.0083544204245130094 -0.014849527584724326 0 0 0 -0.012605249597645238 -0.034882762376095666 -0.017368958806083541 0 -0.017368958806083541 -0.0036892742146126811 0 0 0 -0.0096430091476770868 -0.051989806076781164 -0.012009971761601838 0 -0.012009971761601838 0.018120006835462665 0 0 0 -0.0084674498103296109 -0.095319048909586535 0.0043407992478139796 0 0.0043407992478139796 -0.0064132836803649229 0 0 0 -0.025433083147487861 -0.1042828894719392 0.070003439396686185 0 0.070003439396686185 0.019762438759381107 0 0 0 -0.021130112678139579 -0.07051583290066743 -0.033143473569438586 0 -0.033143473569438586 0.012012667445879366 0 0 0 -0.014625791363697127 -0.023184946310211924 0.044224330883960494 0 0.044224330883960494 0.032035715950101018 0 0 0 0.0022126924099722667 -0.041835945639251151 -0.026898544904152111 0 -0.026898544904152111 -0.0033291484334242311 0 0 0 -0.011291273518168679 -0.020789465644487359 0.065310231460694035 0 0.065310231460694035 0.010708161626140633 0 0 0 -0.002520326004586515 -0.088097738629820149 0.0031431425066674179 0 0.0031431425066674179 0.001035622213458362 0 0 0 -0.021765529104090481 -0.055604517515920444 -0.0034457629489558841 0 -0.0034457629489558841 0.012369411953271559 0 0 0 -0.010808776390662222 -0.060680811411589097 -0.033800071680126775 0 -0.033800071680126775 0.0021277830183095148 0 0 0 -0.014638257098320118 -0.0067078935664695583 0.0092627742532228607 0 0.0092627742532228607 0.048610346628078283 0 0 0 0.010475613265402195 -0.010859674337913516 -0.012789900475364824 0 -0.012789900475364824 0.096793183968210794 0 0 0 0.021483377407574389 -0.053090455766992811 -0.0010133356708368242 0 -0.0010133356708368242 0.0012992480020000592 0 0 0 -0.012947801941248206 0.0023828337912452646 -6.3272104541933771e-05 0 -6.3272104541933771e-05 0.0047169779024525127 0 0 0 0.0017749529234247774 -0.0064631962728722847 0.001299036909559792 0 0.001299036909559792 0.0020363620776944202 0 0 0 -0.0011067085487943551 -0.00084497373735725745 -0.015974451772683196 0 -0.015974451772683196 0.04509556165384776 0 0 0 0.011062646979122626 -0.0014425883306379284 -0.0075663131112866377 0 -0.0075663131112866377 0.046349973632311858 0 0 0 0.011226846325418594 -0.0026447848367103788 0.0085986566071802883 0 0.0085986566071802883 0.093845921253381093 0 0 0 0.022800284104167456 0.0016524532085122612 -0.00013348598886109286 0 -0.00013348598886109286 0.0026795629650031572 0 0 0 0.0010830040433791321 0.0022373878106050071 0.016821025414462287 0 0.016821025414462287 0.094035826382652843 0 0 0 0.024068303548314685 -0.0052534330152109732 -0.0015020487031376373 0 -0.0015020487031376373 0.00063952503665909433 0 0 0 -0.0011534769946377477 -0.034899498700756593 -0.010675150907267172 0 -0.010675150907267172 -0.018002668248540132 0 0 0 -0.013225541737324098 -0.038194694089811354 -0.012797320382535945 0 -0.012797320382535945 0.01634283017037208 0 0 0 -0.0054629659798597907 -0.047174907833307855 -0.015421120154494969 0 -0.015421120154494969 0.012161490344934967 0 0 0 -0.0087533543720931806 -0.021248903733071634 -0.0021196955180337596 0 -0.0021196955180337596 -0.016698931129899147 0 0 0 -0.0094869587157426667 -0.02107381249611362 0.00092580795649999104 0 0.00092580795649999104 -0.009813496879360617 0 0 0 -0.0077218273438686147 -0.041450675187829439 0.030278143126934498 0 0.030278143126934498 0.12261224840617943 0 0 0 0.020290393304587484 -0.067731395923476906 -0.018551422496229014 0 -0.018551422496229014 0.016379610485562635 0 0 0 -0.012837946359478575 -0.070856363479719325 -0.029405235345513314 0 -0.029405235345513314 0.0089467876839679494 0 0 0 -0.015477393948937823 -0.075524350377364852 -1.6067275162264319e-06 0 -1.6067275162264319e-06 0.0048363084879267382 0 0 0 -0.017672010472359528 -0.1267776812205339 0.051553405822193143 0 0.051553405822193143 0.0046620041856102468 0 0 0 -0.030528919258731024 -0.10306871058500744 0.070740070357698914 0 0.070740070357698914 0.046131289494404815 0 0 0 -0.01423435527265049 -0.035527952593489856 0.028756013292558336 0 0.028756013292558336 0.079238077600050638 0 0 0 0.010927531251640171 -0.028222047324112265 -0.010796911152165412 0 -0.010796911152165412 0.03343800005144959 0 0 0 0.001303988181834248 -0.035811686476784121 -0.0094532954560218527 0 -0.0094532954560218527 0.035123481150129088 0 0 0 -0.0001720513316637029 -0.00024649119278874476 0.041098181016869434 0 0.041098181016869434 0.084960972623502773 0 0 0 0.021178620357678507 -0.073070977109569807 -0.03314914003885483 0 -0.03314914003885483 0.021409434162908081 0 0 0 -0.012915385736665425 -0.085775233150307273 -0.023619432607497215 0 -0.023619432607497215 0.0018527262258562494 0 0 0 -0.020980626731112728 -0.031847434170674954 0.025588266233378898 0 0.025588266233378898 0.06019420096824929 0 0 0 0.007086691699393563 -0.017062579907987159 0.032016945504915684 0 0.032016945504915684 0.04898710620006088 0 0 0 0.0079811315730184337 -0.049623011467474887 -0.019024445000016599 0 -0.019024445000016599 0.027859677245106629 0 0 0 -0.0054408335555918841 -0.053729747918101284 -0.0081461096401764937 0 -0.0081461096401764937 0.01402702210204651 0 0 0 -0.0099256814540136865 -0.053454427707107136 -0.0068361795699681017 0 -0.0068361795699681017 0.02496501068079221 0 0 0 -0.0071223542565787279 -0.054784019096120566 -0.0047772463571033666 0 -0.0047772463571033666 0.041367354756975519 0 0 0 -0.0033541660847862392 -0.0025654360973796919 0.021467038031773189 0 0.021467038031773189 0.13106837399886828 0 0 0 0.032125734475372258 -0.033610848693254147 -0.0069450517861964212 0 -0.0069450517861964212 0.0003298341921293968 0 0 0 -0.0083202536252812154 -0.088164832548425748 0.0063739937445661116 0 0.0063739937445661116 0.00095165098353085231 0 0 0 -0.021803295391223693 -0.039908245242240244 0.004625282856136166 0 0.004625282856136166 -0.014560118588403278 0 0 0 -0.013617090957660881 0.030727782210701049 0.021484100911806303 0 0.021484100911806303 0.075092676507018119 0 0 0 0.026455114679429625 -0.029105150500312149 -0.0070368642277571225 0 -0.0070368642277571225 -0.016176900189422305 0 0 0 -0.011320512672433669 -0.078939531710905633 -0.029636430206785025 0 -0.029636430206785025 0.0002101483199494214 0 0 0 -0.019682345847739077 -0.1076286364167485 -0.023129253470465915 0 -0.023129253470465915 0.0048485872758073922 0 0 0 -0.025695012285235269 -0.042196994173937047 -0.013363145746640048 0 -0.013363145746640048 0.050877991690236213 0 0 0 0.0021702493790748678 
</DataArray>
<DataArray type="Float64" Name="cross_section_updated" format="ascii">
0.0010109702334261987 0.0010269827834161621 0.0010364866790157187 0.0010452590942499815 0.0010542369483577964 0.0010639187717090205 0.0010744028460504254 0.0010850197777198384 0.0010956507305418183 0.0011051005767615193 0.0020386670990818565 0.0020995826884431875 0.0021402925143779259 0.0021763843956003732 0.0022113313241032212 0.002245649266387313 0.0022797582747986515 0.0023128239770948845 0.0023448355618168951 0.0023746877927636207 1 1 1 1 1 1 1 1 1 1 1 1 1 1 1 1 1 1 1 1 1 1 1 1 1 1 1 1 1 1 1 1 1 1 1 1 1 1 1 1 1 1 1 1 1 1 1 1 1 1 1 1 1 1 1 1 1 1 1 1 1 1 1 1 1 1 1 1 1 1 1 1 1 1 1 1 1 1 1 1 1 1 1 1 1 1 1 1 1 1 1 1 1 1 1 1 1 1 1 1 1 1 1 1 1 1 1 1 1 1 1 1 1 1 1 1 1 1 1 1 1 1 1 1 1 1 1 1 1 1 1 1 1 1 1 1 1 1 1 1 1 1 1 1 1 1 1 1 1 1 1 1 1 1 1 1 1 1 1 1 1 1 1 1 1 1 1 1 1 1 1 1 1 1 1 1 1 1 1 1 1 1 1 1 1 1 1 1 1 1 1 1 1 1 1 1 1 1 1 1 1 1 1 1 1 1 1 1 1 1 1 1 1 1 1 1 1 1 1 1 1 1 1 1 1 1 1 1 1 1 1 1 1 1 1 1 1 1 1 1 1 1 1 1 1 1 1 1 1 1 1 1 1 1 1 1 1 1 1 1 1 1 1 1 1 1 1 1 1 1 1 1 1 1 1 1 1 1 1 1 1 1 1 1 1 1 1 1 1 1 1 1 1 1 1 1 1 1 1 1 1 1 1 1 1 1 1 1 1 1 1 1 1 1 1 1 1 1 1 1 1 1 1 1 1 1 1 1 1 1 1 1 1 1 1 1 1 1 1 1 1 1 1 1 1 1 1 1 1 1 1 1 1 1 1 1 1 1 1 1 1 1 1 1 1 1 1 1 1 1 1 1 1 1 1 1 1 1 1 1 1 1 1 1 1 1 1 1 1 1 1 1 1 1 1 1 1 1 1 1 1 1 1 1 1 1 1 1 1 1 1 1 1 1 1 1 1 1 1 1 1 1 1 1 1 1 1 1 1 1 1 1 1 1 1 1 1 1 1 1 1 1 1 1 1 1 1 1 1 1 1 1 1 1 1 1 1 1 1 1 1 1 1 1 1 1 1 1 1 1 1 1 1 1 1 1 1 1 1 1 1 1 1 1 1 1 1 1 1 1 1 1 1 1 1 1 1 1 1 1 1 1 1 1 1 1 1 1 1 1 1 1 1 1 1 1 1 1 1 1 1 1 1 1 1 1 1 1 1 1 1 1 1 1 1 1 1 1 1 1 1 1 1 1 1 1 1 1 1 1 1 1 1 1 1 1 1 1 1 1 1 1 1 1 1 1 1 1 1 1 1 1 1 1 1 1 1 1 1 1 1 1 1 1 1 1 1 1 1 1 1 1 1 1 1 1 1 1 1 1 1 1 1 1 1 1 1 1 1 1 1 1 1 1 1 1 1 1 1 1 1 1 1 1 1 1 1 1 1 1 1 1 1 1 1 1 1 1 1 1 1 1 1 1 1 1 1 1 1 1 1 1 1 1 1 1 1 1 1 1 1 1 1 1 1 1 1 1 1 1 1 1 1 1 1 1 1 1 1 1 1 1 1 1 1 1 1 1 1 1 1 1 1 1 1 1 1 1 1 1 1 1 1 1 1 1 1 1 1 1 1 1 1 1 1 1 1 1 1 1 1 1 1 1 1 1 1 1 1 1 1 1 1 1 1 1 1 1 1 1 1 1 1 1 1 1 1 1 1 1 1 1 1 1 1 1 1 1 1 1 1 1 1 1 1 1 1 1 1 1 1 1 1 1 1 1 1 1 1 1 1 1 1 1 1 1 1 1 1 1 1 1 1 1 1 1 1 1 1 1 1 1 1 1 1 1 1 1 1 1 1 1 1 1 1 1 1 1 1 1 1 1 1 1 1 1 1 1 1 1 1 1 1 1 1 1 1 1 1 1 1 1 1 1 1 1 1 1 1 1 1 1 1 1 1 1 1 1 1 1 1 1 1 1 1 1 1 1 1 1 1 1 1 1 1 1 1 1 1 1 1 1 1 1 1 1 1 1 1 1 1 1 1 1 1 1 1 1 1 1 1 1 1 1 1 1 1 1 1 1 1 1 1 1 1 1 1 1 1 1 1 1 1 1 1 1 1 1 1 1 1 1 1 1 1 1 1 1 1 1 1 1 1 1 1 1 1 1 1 1 1 1 1 1 1 1 1 1 1 1 1 1 1 1 1 1 1 1 1 1 1 1 1 1 1 1 1 1 1 1 1 1 1 1 1 1 1 1 1 1 1 1 1 1 1 1 1 1 1 1 1 1 1 1 1 1 1 1 1 1 1 1 1 1 1 1 1 1 1 1 1 1 1 1 1 1 1 1 1 1 1 1 1 1 
</DataArray>
</CellData>
</Piece>
</UnstructuredGrid>
</VTKFile>
