<?xml version="1.0"?>
<VTKFile type="UnstructuredGrid" version="0.1" byte_order="LittleEndian">
<UnstructuredGrid>
<Piece NumberOfPoints="3142" NumberOfCells="1054">
<Points>
<DataArray type="Float64" NumberOfComponents="3" format="ascii">
0.5 0.29999999999999999 0 0.54999999999999993 0.29999999999999999 0 0.54999999999999993 0.29999999999999999 0 0.59999999999999976 0.29999999999999999 0 0.59999999999999976 0.29999999999999999 0 0.6499999999999998 0.29999999999999999 0 0.6499999999999998 0.29999999999999999 0 0.69999999999999984 0.29999999999999999 0 0.69999999999999984 0.29999999999999999 0 0.74999999999999989 0.29999999999999999 0 0.74999999999999989 0.29999999999999999 0 0.79999999999999982 0.29999999999999999 0 0.79999999999999982 0.29999999999999999 0 0.84999999999999987 0.29999999999999999 0 0.84999999999999987 0.29999999999999999 0 0.89999999999999991 0.29999999999999999 0 0.89999999999999991 0.29999999999999999 0 0.94999999999999996 0.29999999999999999 0 0.94999999999999996 0.29999999999999999 0 1 0.29999999999999999 0 0.5 0.69999999999999996 0 0.54999999999999993 0.69999999999999996 0 0.54999999999999993 0.69999999999999996 0 0.59999999999999976 0.69999999999999996 0 0.59999999999999976 0.69999999999999996 0 0.6499999999999998 0.69999999999999996 0 0.6499999999999998 0.69999999999999996 0 0.69999999999999984 0.69999999999999996 0 0.69999999999999984 0.69999999999999996 0 0.74999999999999989 0.69999999999999996 0 0.74999999999999989 0.69999999999999996 0 0.79999999999999982 0.69999999999999996 0 0.79999999999999982 0.69999999999999996 0 0.84999999999999987 0.69999999999999996 0 0.84999999999999987 0.69999999999999996 0 0.89999999999999991 0.69999999999999996 0 0.89999999999999991 0.69999999999999996 0 0.94999999999999996 0.69999999999999996 0 0.94999999999999996 0.69999999999999996 0 1 0.69999999999999996 0 0.40076539126862748 0.34589349467022118 0 0.33277555741076909 0.36432196682010132 0 0.36575549820117997 0.31677992835137742 0 0.38083244760691543 0.38531983672244652 0 0.33277555741076909 0.36432196682010132 0 0.40076539126862748 0.34589349467022118 0 0.56836770495988642 0.3523062350852913 0 0.52289427570932567 0.3932284363388488 0 0.52752007115234678 0.33170632466418198 0 0.52752007115234678 0.33170632466418198 0 0.52289427570932567 0.3932284363388488 0 0.49077833859261139 0.35229981449445641 0 0.10000000000041601 1 0 0.053064897599294662 0.95186845269532028 0 0.10266856499240549 0.95548163909968886 0 0.099999999999814668 0 0 0.10266856499169109 0.044518360900210059 0 0.053064897599215843 0.048131547304697528 0 0.050000000000207989 1 0 0.053064897599294662 0.95186845269532028 0 0.10000000000041601 1 0 0.049999999999899652 0 0 0.099999999999814668 0 0 0.053064897599215843 0.048131547304697528 0 0.24999999999941211 0 0 0.29999999999926641 0 0 0.27499999999933927 0.060310814194988557 0 0.30000000000124832 1 0 0.25000000000104028 1 0 0.27609987656793722 0.94991445621608572 0 0.15720202157091859 0.60665697304410315 0 0.19914261668318661 0.62286739485272158 0 0.16500388252850301 0.66612077714085194 0 0.2236846579037573 0.67380363126050236 0 0.16500388252850301 0.66612077714085194 0 0.19914261668318661 0.62286739485272158 0 0.1247745017231483 0.27198077544791172 0 0.168349569971391 0.28054490850913671 0 0.14223753364722069 0.3341983344262433 0 0 0.75000000000034661 0 0 0.7000000000006934 0 0.049706944316475897 0.72477277076253799 0 0 0.30000000000124832 0 0 0.25000000000104028 0 0.049706944316556423 0.27522722923869108 0 0.59999999999999976 0.29999999999999999 0 0.61959173890754571 0.33832250091341232 0 0.56836770495988642 0.3523062350852913 0 0.5 0.69999999999999996 0 0.43323420005758778 0.6913544522562407 0 0.47913475093885149 0.66010775372412711 0 1 0.14999999999961891 0 0.95391631417672862 0.19584263333809451 0 0.93677536231883773 0.14999999999999089 0 1 0.84999999999982645 0 0.95391631417670719 0.89584263333814784 0 0.93677536231884972 0.85000000000000286 0 1 0.84999999999982645 0 0.93677536231884972 0.85000000000000286 0 0.95386563387742829 0.80414874155775029 0 1 0.14999999999961891 0 0.93677536231883773 0.14999999999999089 0 0.95386563387744361 0.1041487415577465 0 0.90416666666660628 0.9041666666666166 0 0.88088768115933802 0.84674609810493673 0 0.93677536231884972 0.85000000000000286 0 0.90416666666668166 0.20416666666667119 0 0.88088768115941807 0.14674609810479519 0 0.93677536231883773 0.14999999999999089 0 0.1247745017231483 0.27198077544791172 0 0.14223753364722069 0.3341983344262433 0 0.093851963071650835 0.30582068233324772 0 0.5 0.69999999999999996 0 0.45582236402875981 0.73896743678908217 0 0.43323420005758778 0.6913544522562407 0 0.55000000000173355 1 0 0.50000000000205869 1 0 0.52122150208832174 0.94089974453840242 0 0.49999999999869432 0 0 0.5499999999988151 0 0 0.52375890611712683 0.059318771819432882 0 0.54999999999999993 0.29999999999999999 0 0.59999999999999976 0.29999999999999999 0 0.56836770495988642 0.3523062350852913 0 0.50202631463681879 0.87892870825713787 0 0.44003836461056539 0.88093474584252718 0 0.45677673713123867 0.84253684404072415 0 0.33403534827021109 0.84402799729020661 0 0.35864759629805099 0.87963482415279515 0 0.30864387279288652 0.89906554525974958 0 0.53245488764484505 0.55078124999999989 0 0.47793794143994173 0.52940715638744962 0 0.53330375813596242 0.50827942741749099 0 0.82709327591102189 0.14937141670914489 0 0.81283102246527783 0.1881007222486438 0 0.77144070960558853 0.14311854477243749 0 0.82709327591091286 0.84937141670920724 0 0.81159157511211755 0.88795995483179491 0 0.76901770135486491 0.84293557325473656 0 0.77144070960558853 0.14311854477243749 0 0.81283102246527783 0.1881007222486438 0 0.76587607630038135 0.18880039518954719 0 0.76901770135486491 0.84293557325473656 0 0.81159157511211755 0.88795995483179491 0 0.76891166905518427 0.88835469571185499 0 0.33403534827021109 0.84402799729020661 0 0.30864387279288652 0.89906554525974958 0 0.29209212897034281 0.84715728365233667 0 0.57412547362576272 0.58273804879550706 0 0.5166924242153631 0.59825134841919447 0 0.53245488764484505 0.55078124999999989 0 0.50202631463681879 0.87892870825713787 0 0.47401147028110507 0.91529957330468115 0 0.44003836461056539 0.88093474584252718 0 0.5 0.69999999999999996 0 0.54999999999999993 0.69999999999999996 0 0.55363780716230748 0.74348740161571747 0 1 0.34999999999993492 0 0.95871855522754235 0.40006508612975411 0 0.95780851984364423 0.34215720972155339 0 1 0.64999999999986979 0 0.9578014258160763 0.65787212321113708 0 0.95867599106212187 0.60011091146651041 0 0.46666084890304671 0.57634471035397938 0 0.47793794143994173 0.52940715638744962 0 0.53245488764484505 0.55078124999999989 0 0.94999999999999996 0.29999999999999999 0 0.89898474358614167 0.25391965591104898 0 0.94399509803921056 0.24399509803922639 0 0.94999999999979179 1 0 0.89898474358632463 0.95391965591118966 0 0.94399509803919068 0.9439950980391687 0 0 0.65000000000104008 0 0.050069554451969707 0.61308520079857043 0 0.046634677244967337 0.671418230738282 0 0 0.35000000000145642 0 0.046389130980076937 0.32668781832131749 0 0.050583896093752537 0.38543522283434112 0 0.50202631463681879 0.87892870825713787 0 0.50627822638148745 0.8263979829520941 0 0.55899371797446828 0.85003102233514438 0 0.54782696902220018 0.79245182748204157 0 0.55899371797446828 0.85003102233514438 0 0.50627822638148745 0.8263979829520941 0 0.50945740445113552 0.75476055527778108 0 0.5 0.69999999999999996 0 0.55363780716230748 0.74348740161571747 0 0.84999999999965292 1 0 0.85170973911348691 0.93569607295217616 0 0.89898474358632463 0.95391965591118966 0 0.84999999999999987 0.29999999999999999 0 0.8517097391133297 0.2356960729520409 0 0.89898474358614167 0.25391965591104898 0 0.86956835336234861 0.571283299838105 0 0.82862096804812391 0.55037090955459045 0 0.86907294890112186 0.52008116128001669 0 0.49102375406324739 0.49123754822244059 0 0.53330375813596242 0.50827942741749099 0 0.47793794143994173 0.52940715638744962 0 0.57611405284611883 0.50165903596042916 0 0.61547661924074692 0.48539576058873962 0 0.62042975506801734 0.54295974692364424 0 0.71406021706547751 0.63292083137662503 0 0.67529834988829951 0.61613270668143583 0 0.71809016091162536 0.58185040402320831 0 0.65000000000104008 1 0 0.62065498684670595 0.95224934003983619 0 0.68015064798562208 0.95924320340003011 0 0.84999999999960507 0 0 0.899991664607802 0.045289349238254978 0 0.85491058998398861 0.060047533455626502 0 0.84999999999999987 0.69999999999999996 0 0.89999166460796554 0.74528934923809909 0 0.85491058998424563 0.76004753345552634 0 0.89999999999999991 0.29999999999999999 0 0.89898474358614167 0.25391965591104898 0 0.94999999999999996 0.29999999999999999 0 0.94999999999979179 1 0 0.89999999999958358 1 0 0.89898474358632463 0.95391965591118966 0 0.86411095495256451 0.42388805655111889 0 0.81308179852519835 0.39754945808726527 0 0.86844634540301924 0.38530937474099819 0 0.5 0.29999999999999999 0 0.49695729691142171 0.25014895411178018 0 0.54248833945060504 0.2520322959927106 0 0.86411095495256451 0.42388805655111889 0 0.81973119833356312 0.43505687159469048 0 0.81308179852519835 0.39754945808726527 0 0.67323294229744413 0.57556450033612505 0 0.71809016091162536 0.58185040402320831 0 0.67529834988829951 0.61613270668143583 0 0.6236733212988993 0.14864538214901801 0 0.68391457121233579 0.14440470121196541 0 0.64011864159029941 0.18789607982138171 0 0 0.050000000000207989 0 0.053064897599215843 0.048131547304697528 0 0.044310582753132287 0.101412518374475 0 0 0.94999999999979179 0 0.0443105827531413 0.89858748162559932 0 0.053064897599294662 0.95186845269532028 0 1 0.34999999999993492 0 1 0.39999999999978308 0 0.95871855522754235 0.40006508612975411 0 1 0.59999999999973963 0 1 0.64999999999986979 0 0.95867599106212187 0.60011091146651041 0 0 0.84999999999965292 0 0.065374659239661639 0.8551091961254178 0 0.0443105827531413 0.89858748162559932 0 0 0.15000000000062411 0 0.044310582753132287 0.101412518374475 0 0.065374659239632718 0.1448908038746782 0 0.16500388252850301 0.66612077714085194 0 0.1020579365089687 0.69352219419301997 0 0.1241190223511371 0.64391885572885044 0 0.14999999999970359 0 0 0.14618258501891079 0.062070108745602003 0 0.10266856499169109 0.044518360900210059 0 0.15000000000062411 1 0 0.10266856499240549 0.95548163909968886 0 0.14617343800780541 0.93808063414349496 0 0.7152569930854884 0.5237994455134295 0 0.67569444444444449 0.53500863336860327 0 0.69385896817107129 0.48377516041410151 0 0.6541250972820879 0.49999999999999989 0 0.62042975506801734 0.54295974692364424 0 0.61547661924074692 0.48539576058873962 0 0.94999999999999996 0.69999999999999996 0 0.94399509803918602 0.75600490196082126 0 0.89999166460796554 0.74528934923809909 0 0.94999999999986839 0 0 0.94399509803922566 0.056004901960802607 0 0.899991664607802 0.045289349238254978 0 0.6541250972820879 0.49999999999999989 0 0.69385896817107129 0.48377516041410151 0 0.67569444444444449 0.53500863336860327 0 0.82862096804812391 0.55037090955459045 0 0.81723410853263523 0.59419663659258926 0 0.77151014687832564 0.54436834383023036 0 0.7250000000005199 0.89375000000045834 0 0.66412543161245952 0.88015090885499059 0 0.68697391633157634 0.84450604838764298 0 0 0.94999999999979179 0 0 0.89999999999958358 0 0.0443105827531413 0.89858748162559932 0 0 0.10000000000041601 0 0 0.050000000000207989 0 0.044310582753132287 0.101412518374475 0 0.16500388252850301 0.66612077714085194 0 0.15332765547575641 0.71200081858233666 0 0.1020579365089687 0.69352219419301997 0 0.90299850604011456 0.79563452813489832 0 0.93677536231884972 0.85000000000000286 0 0.88088768115933802 0.84674609810493673 0 0.90299850604006393 0.09563452813493091 0 0.93677536231883773 0.14999999999999089 0 0.88088768115941807 0.14674609810479519 0 0.68391457121233579 0.14440470121196541 0 0.6865991819015953 0.189116534044597 0 0.64011864159029941 0.18789607982138171 0 0.085622222639554768 0.53333248912060549 0 0.1216098864341134 0.50637075089503902 0 0.1154888278694548 0.56733818459978413 0 0.21858834311891909 0.81980263716112767 0 0.22556077506376701 0.77837424984191617 0 0.26104540868854792 0.81401944968719064 0 0.81723410853263523 0.59419663659258926 0 0.77293540622714185 0.59448302402785813 0 0.77151014687832564 0.54436834383023036 0 0.1154888278694548 0.56733818459978413 0 0.1216098864341134 0.50637075089503902 0 0.14934928745814749 0.55042914607228977 0 0.1216098864341134 0.50637075089503902 0 0.068743045408989428 0.48853989837882689 0 0.113541300460994 0.46208784312094731 0 0.078358742472063481 0.43365249433908948 0 0.113541300460994 0.46208784312094731 0 0.068743045408989428 0.48853989837882689 0 0.83573492347052902 0.36590755630746369 0 0.81308179852519835 0.39754945808726527 0 0.78145581580700685 0.34881365920033602 0 0.57611405284611883 0.50165903596042916 0 0.62042975506801734 0.54295974692364424 0 0.57435499076887508 0.54267261987897775 0 0.86956835336234861 0.571283299838105 0 0.81723410853263523 0.59419663659258926 0 0.82862096804812391 0.55037090955459045 0 0.46666084890304671 0.57634471035397938 0 0.53245488764484505 0.55078124999999989 0 0.5166924242153631 0.59825134841919447 0 0.89999999999999991 0.69999999999999996 0 0.94999999999999996 0.69999999999999996 0 0.89999166460796554 0.74528934923809909 0 0.89999999999973679 0 0 0.94999999999986839 0 0 0.899991664607802 0.045289349238254978 0 0.84999999999960507 0 0 0.89999999999973679 0 0 0.899991664607802 0.045289349238254978 0 0.84999999999999987 0.69999999999999996 0 0.89999999999999991 0.69999999999999996 0 0.89999166460796554 0.74528934923809909 0 0.43545892161006339 0.61093128915313821 0 0.4089290844030305 0.58728915500154233 0 0.46666084890304671 0.57634471035397938 0 0.1650278706801647 0.38791388161335733 0 0.1117088112799664 0.38831403004970022 0 0.14223753364722069 0.3341983344262433 0 0.087545339447545459 0.35122518864182262 0 0.14223753364722069 0.3341983344262433 0 0.1117088112799664 0.38831403004970022 0 0.6916490518212759 0.75387992374886192 0 0.72501250972655151 0.74067302935308721 0 0.72500000000000064 0.7952620967744265 0 0.72501250972655151 0.74067302935308721 0 0.75841349681148107 0.75422312624214749 0 0.72500000000000064 0.7952620967744265 0 0.57412547362576272 0.58273804879550706 0 0.53245488764484505 0.55078124999999989 0 0.57435499076887508 0.54267261987897775 0 1 0.54999999999963112 0 0.95867599106212187 0.60011091146651041 0 0.93732437411268477 0.55911392101136159 0 1 0.44999999999963131 0 0.93814194660195893 0.44426664081746747 0 0.95871855522754235 0.40006508612975411 0 0.4089290844030305 0.58728915500154233 0 0.42644501560315817 0.54603747078095544 0 0.46666084890304671 0.57634471035397938 0 0.89999999999958358 1 0 0.84999999999965292 1 0 0.89898474358632463 0.95391965591118966 0 0.84999999999999987 0.29999999999999999 0 0.89898474358614167 0.25391965591104898 0 0.89999999999999991 0.29999999999999999 0 0.29999999999926641 0 0 0.32541448401678508 0.046215317981507749 0 0.27499999999933927 0.060310814194988557 0 0.30000000000124832 1 0 0.27609987656793722 0.94991445621608572 0 0.32544832635163229 0.95485394099568932 0 0.57412547362576272 0.58273804879550706 0 0.62042975506801734 0.54295974692364424 0 0.63065402604362242 0.59661356661633302 0 0.5 0.29999999999999999 0 0.54248833945060504 0.2520322959927106 0 0.54999999999999993 0.29999999999999999 0 0.67323294229744413 0.57556450033612505 0 0.62042975506801734 0.54295974692364424 0 0.67569444444444449 0.53500863336860327 0 0.6541250972820879 0.49999999999999989 0 0.67569444444444449 0.53500863336860327 0 0.62042975506801734 0.54295974692364424 0 1 0.14999999999961891 0 1 0.19999999999974799 0 0.95391631417672862 0.19584263333809451 0 1 0.84999999999982645 0 1 0.8999999999998336 0 0.95391631417670719 0.89584263333814784 0 1 0.7999999999998193 0 1 0.84999999999982645 0 0.95386563387742829 0.80414874155775029 0 1 0.099999999999753911 0 1 0.14999999999961891 0 0.95386563387744361 0.1041487415577465 0 0.4656888918609538 0.78493261229743638 0 0.50627822638148745 0.8263979829520941 0 0.45677673713123867 0.84253684404072415 0 0.6879972333610942 0.43038561374960838 0 0.72622533758026719 0.40265885511101601 0 0.73483647259922602 0.44789725365921768 0 0.67323294229744413 0.57556450033612505 0 0.67569444444444449 0.53500863336860327 0 0.71809016091162536 0.58185040402320831 0 0.7152569930854884 0.5237994455134295 0 0.71809016091162536 0.58185040402320831 0 0.67569444444444449 0.53500863336860327 0 0.65394964615507722 0.22666784374016369 0 0.59814117807200873 0.23398510860739519 0 0.64011864159029941 0.18789607982138171 0 0.55000000000173355 1 0 0.52122150208832174 0.94089974453840242 0 0.57382506491224949 0.9629411906298494 0 0.39801143831225599 0.16651381068160659 0 0.44288491854585582 0.14116182884956319 0 0.42905200079338551 0.19982395548231649 0 0.47357141910802508 0.1873585799078378 0 0.42905200079338551 0.19982395548231649 0 0.44288491854585582 0.14116182884956319 0 0.90594285160987287 0.4141265964174129 0 0.88594198078881503 0.46167788676578442 0 0.86411095495256451 0.42388805655111889 0 0.65507451745379841 0.92229208810758578 0 0.68015064798562208 0.95924320340003011 0 0.62065498684670595 0.95224934003983619 0 0.35312867752657662 0.084946736076730367 0 0.39591832466117061 0.056982757562006353 0 0.39823268594401579 0.1116623613130045 0 0.43698630808430822 0.080423614171545449 0 0.39823268594401579 0.1116623613130045 0 0.39591832466117061 0.056982757562006353 0 0.4367309254023824 0.92065556789053882 0 0.39641108128798319 0.94356127926187128 0 0.39767323751400468 0.89584229130535065 0 0.35752321586431363 0.9185439911803448 0 0.39767323751400468 0.89584229130535065 0 0.39641108128798319 0.94356127926187128 0 0.77354604466818633 0.40378688774472771 0 0.77972660463949339 0.45529290596363098 0 0.73483647259922602 0.44789725365921768 0 0.5499999999988151 0 0 0.57396793757665954 0.037011367187645222 0 0.52375890611712683 0.059318771819432882 0 0.64753070846764316 0.77332939069435502 0 0.60294066490120068 0.80851322453934582 0 0.59636844454254345 0.75937156204589151 0 0.49102375406324739 0.49123754822244059 0 0.48858720058566618 0.43964267759203868 0 0.53823865529665704 0.45873898050322898 0 0.28307294598219601 0.50789252727458634 0 0.29110487519241501 0.56588143995431495 0 0.25115337790845271 0.54719303014923271 0 0.79680861578988083 0.92656778056766709 0 0.81159157511211755 0.88795995483179491 0 0.85170973911348691 0.93569607295217616 0 0.79680861578956375 0.22656778056752541 0 0.81283102246527783 0.1881007222486438 0 0.8517097391133297 0.2356960729520409 0 0.57412547362576272 0.58273804879550706 0 0.57435499076887508 0.54267261987897775 0 0.62042975506801734 0.54295974692364424 0 0.93814194660195893 0.44426664081746747 0 0.88594198078881503 0.46167788676578442 0 0.90594285160987287 0.4141265964174129 0 0.7152569930854884 0.5237994455134295 0 0.73947346780852752 0.49062440112282169 0 0.77151014687832564 0.54436834383023036 0 0 0.7000000000006934 0 0.046634677244967337 0.671418230738282 0 0.049706944316475897 0.72477277076253799 0 0 0.30000000000124832 0 0.049706944316556423 0.27522722923869108 0 0.046389130980076937 0.32668781832131749 0 0.59814117807200873 0.23398510860739519 0 0.59443395090188023 0.18455690917515069 0 0.64011864159029941 0.18789607982138171 0 0.21858834311891909 0.81980263716112767 0 0.26104540868854792 0.81401944968719064 0 0.2401283238295133 0.85648409884788523 0 0.39536230704883951 0.84069429572832477 0 0.45677673713123867 0.84253684404072415 0 0.44003836461056539 0.88093474584252718 0 0.086179601630648681 0.64647209519980475 0 0.050069554451969707 0.61308520079857043 0 0.1024350934457823 0.60772393977513839 0 0.077693244765132896 0.56932317963405099 0 0.1024350934457823 0.60772393977513839 0 0.050069554451969707 0.61308520079857043 0 0.078358742472063481 0.43365249433908948 0 0.050583896093752537 0.38543522283434112 0 0.1117088112799664 0.38831403004970022 0 0.087545339447545459 0.35122518864182262 0 0.1117088112799664 0.38831403004970022 0 0.050583896093752537 0.38543522283434112 0 0.33403534827021109 0.84402799729020661 0 0.35642984951668422 0.80994399665655703 0 0.39536230704883951 0.84069429572832477 0 0.28307294598219601 0.50789252727458634 0 0.33190227185843768 0.52715113583864037 0 0.29110487519241501 0.56588143995431495 0 0.2236846579037573 0.67380363126050236 0 0.19068556247388771 0.71028988922845504 0 0.16500388252850301 0.66612077714085194 0 0.26104540868854792 0.81401944968719064 0 0.22556077506376701 0.77837424984191617 0 0.2792923945214143 0.77665808831789485 0 0.38244435121258652 0.51653317813019495 0 0.37272913873093971 0.56192925302619479 0 0.33190227185843768 0.52715113583864037 0 0.25195515620380449 0.25883339815888678 0 0.29132859388405002 0.27203693976649962 0 0.24432083401701241 0.3006253385567515 0 0.29348325746214782 0.31350119524708198 0 0.24432083401701241 0.3006253385567515 0 0.29132859388405002 0.27203693976649962 0 0 0.89999999999958358 0 0 0.84999999999965292 0 0.0443105827531413 0.89858748162559932 0 0 0.15000000000062411 0 0 0.10000000000041601 0 0.044310582753132287 0.101412518374475 0 0.59999999999999976 0.69999999999999996 0 0.59636844454254345 0.75937156204589151 0 0.55363780716230748 0.74348740161571747 0 0.1650278706801647 0.38791388161335733 0 0.22033343844674469 0.36963382230740238 0 0.191953871957803 0.42546416763755879 0 0.52289427570932567 0.3932284363388488 0 0.46655310992796922 0.39650496622958609 0 0.49077833859261139 0.35229981449445641 0 0.91696753777131557 0.497780560203536 0 0.88594198078881503 0.46167788676578442 0 0.93814194660195893 0.44426664081746747 0 0.24999999999941211 0 0 0.27499999999933927 0.060310814194988557 0 0.22668068146512929 0.045875643423131329 0 0.25000000000104028 1 0 0.22850979588452081 0.95594428570238643 0 0.27609987656793722 0.94991445621608572 0 0.77846603114747959 0.49850927265137401 0 0.77151014687832564 0.54436834383023036 0 0.73947346780852752 0.49062440112282169 0 0.27499999999933927 0.060310814194988557 0 0.27474541102162192 0.11822029332053539 0 0.24218496799700481 0.089025544070598317 0 0.27270076654418179 0.87751467830216623 0 0.29209212897034281 0.84715728365233667 0 0.30864387279288652 0.89906554525974958 0 0.3096713403101819 0.085471541595262421 0 0.27474541102162192 0.11822029332053539 0 0.27499999999933927 0.060310814194988557 0 0.17933913398461551 0.2350063570234002 0 0.18124454140915969 0.18790916706335251 0 0.224700362040408 0.22206622194729711 0 0.18269480424590959 0.75905448272264375 0 0.22556077506376701 0.77837424984191617 0 0.17777405986036951 0.81832336108265358 0 0.35864759629805099 0.87963482415279515 0 0.33403534827021109 0.84402799729020661 0 0.39536230704883951 0.84069429572832477 0 0.77354604466818633 0.40378688774472771 0 0.73483647259922602 0.44789725365921768 0 0.72622533758026719 0.40265885511101601 0 0.80185942888539485 0.77452061303608133 0 0.85491058998424563 0.76004753345552634 0 0.84725310900444062 0.80779732082917555 0 0.80185942888501827 0.074520613036224564 0 0.85491058998398861 0.060047533455626502 0 0.84725310900442086 0.10779732082922661 0 0.086179601630648681 0.64647209519980475 0 0.046634677244967337 0.671418230738282 0 0.050069554451969707 0.61308520079857043 0 0.087545339447545459 0.35122518864182262 0 0.050583896093752537 0.38543522283434112 0 0.046389130980076937 0.32668781832131749 0 0 0.75000000000034661 0 0.049706944316475897 0.72477277076253799 0 0.04408157711937423 0.7728941757575627 0 0 0.25000000000104028 0 0.044081577119474857 0.2271058242433576 0 0.049706944316556423 0.27522722923869108 0 0.52289427570932567 0.3932284363388488 0 0.56836770495988642 0.3523062350852913 0 0.57744073070774993 0.41535148636609359 0 0.6084546825910605 0.37989672713932537 0 0.57744073070774993 0.41535148636609359 0 0.56836770495988642 0.3523062350852913 0 0.61343887413683884 0.856862479058357 0 0.55899371797446828 0.85003102233514438 0 0.60294066490120068 0.80851322453934582 0 0.54782696902220018 0.79245182748204157 0 0.60294066490120068 0.80851322453934582 0 0.55899371797446828 0.85003102233514438 0 0.40326160981139969 0.73346192995102844 0 0.36622285152418499 0.69092437780804039 0 0.43323420005758778 0.6913544522562407 0 0.52289427570932567 0.3932284363388488 0 0.48858720058566618 0.43964267759203868 0 0.46655310992796922 0.39650496622958609 0 0.15720202157091859 0.60665697304410315 0 0.1154888278694548 0.56733818459978413 0 0.14934928745814749 0.55042914607228977 0 0.6879972333610942 0.43038561374960838 0 0.73483647259922602 0.44789725365921768 0 0.69385896817107129 0.48377516041410151 0 0.7250000000005199 0.89375000000045834 0 0.68987011941058407 0.92105047536677087 0 0.66412543161245952 0.88015090885499059 0 0.83573492347052902 0.36590755630746369 0 0.78145581580700685 0.34881365920033602 0 0.82500000000000062 0.33010209762754811 0 0.82862096804812391 0.55037090955459045 0 0.81441713509985358 0.51161854125224959 0 0.86907294890112186 0.52008116128001669 0 0.19670163708476801 0.31472518408333222 0 0.14223753364722069 0.3341983344262433 0 0.168349569971391 0.28054490850913671 0 0.50202631463681879 0.87892870825713787 0 0.45677673713123867 0.84253684404072415 0 0.50627822638148745 0.8263979829520941 0 0.099999999999814668 0 0 0.14999999999970359 0 0 0.10266856499169109 0.044518360900210059 0 0.15000000000062411 1 0 0.10000000000041601 1 0 0.10266856499240549 0.95548163909968886 0 0.67323294229744413 0.57556450033612505 0 0.63065402604362242 0.59661356661633302 0 0.62042975506801734 0.54295974692364424 0 0.083105206071467416 0.20007701332709979 0 0.13737030665753211 0.20313708640667491 0 0.095326043202144745 0.24554465089224409 0 0.083105206071452636 0.79992298667296435 0 0.090953281884486245 0.7564451946902494 0 0.1382744753146134 0.79650574229207483 0 0.50000000000205869 1 0 0.47135117303824892 0.95556877749289892 0 0.52122150208832174 0.94089974453840242 0 0.49999999999869432 0 0 0.52375890611712683 0.059318771819432882 0 0.47040171442036788 0.044141676406503738 0 0.4656888918609538 0.78493261229743638 0 0.45582236402875981 0.73896743678908217 0 0.50945740445113552 0.75476055527778108 0 0.5 0.69999999999999996 0 0.50945740445113552 0.75476055527778108 0 0.45582236402875981 0.73896743678908217 0 0.55306006949600994 0.20198184231352201 0 0.56202748619534593 0.15054058349222879 0 0.59443395090188023 0.18455690917515069 0 0.6236733212988993 0.14864538214901801 0 0.59443395090188023 0.18455690917515069 0 0.56202748619534593 0.15054058349222879 0 0.57412547362576272 0.58273804879550706 0 0.5498280205245758 0.6290146943450976 0 0.5166924242153631 0.59825134841919447 0 0.91696753777131557 0.497780560203536 0 0.93814194660195893 0.44426664081746747 0 0.96228564064454991 0.48206450662049471 0 0.15720202157091859 0.60665697304410315 0 0.16500388252850301 0.66612077714085194 0 0.1241190223511371 0.64391885572885044 0 0.44288491854585582 0.14116182884956319 0 0.47881186583059909 0.093591717165689425 0 0.48466639505193998 0.1421439844745814 0 1 0.54999999999963112 0 0.93732437411268477 0.55911392101136159 0 0.95631871884947484 0.51827533208233789 0 0.57724883562309992 0.92155686857100794 0 0.57382506491224949 0.9629411906298494 0 0.52122150208832174 0.94089974453840242 0 0.85170973911348691 0.93569607295217616 0 0.81159157511211755 0.88795995483179491 0 0.85600844944837662 0.88483418979512773 0 0.8517097391133297 0.2356960729520409 0 0.81283102246527783 0.1881007222486438 0 0.85600844944842547 0.1848341897950983 0 0.27866744612395528 0.38416094670951489 0 0.29124338931648802 0.43334555462578611 0 0.24049127783545701 0.41270748208749802 0 0.6084546825910605 0.37989672713932537 0 0.56836770495988642 0.3523062350852913 0 0.61959173890754571 0.33832250091341232 0 0.20050006573841939 0.53248514016039872 0 0.25115337790845271 0.54719303014923271 0 0.22549374774072969 0.58452645269293457 0 0.26573297623774761 0.59828298563722948 0 0.22549374774072969 0.58452645269293457 0 0.25115337790845271 0.54719303014923271 0 0.26104540868854792 0.81401944968719064 0 0.29209212897034281 0.84715728365233667 0 0.2401283238295133 0.85648409884788523 0 0.6236733212988993 0.14864538214901801 0 0.65290632656860115 0.11434202593454081 0 0.68391457121233579 0.14440470121196541 0 0.19901705110390991 0.9175543425573498 0 0.19741632902693801 0.86755867406447229 0 0.24536017905392571 0.90704567837671446 0 0.72500000000000064 0.7952620967744265 0 0.76901770135486491 0.84293557325473656 0 0.72863726579783861 0.85390518901155588 0 0.72500000000000064 0.7952620967744265 0 0.72863726579783861 0.85390518901155588 0 0.68697391633157634 0.84450604838764298 0 0.7250000000005199 0.89375000000045834 0 0.68697391633157634 0.84450604838764298 0 0.72863726579783861 0.85390518901155588 0 0.72525833953073282 0.1032114801687094 0 0.77144070960558853 0.14311854477243749 0 0.72634814642510737 0.16106886917518889 0 0.72525833953073282 0.1032114801687094 0 0.72634814642510737 0.16106886917518889 0 0.68391457121233579 0.14440470121196541 0 0.36622285152418499 0.69092437780804039 0 0.3977710372045391 0.65868194622830212 0 0.43323420005758778 0.6913544522562407 0 0 0.65000000000104008 0 0 0.60000000000138687 0 0.050069554451969707 0.61308520079857043 0 0 0.40000000000166441 0 0 0.35000000000145642 0 0.050583896093752537 0.38543522283434112 0 0.22033343844674469 0.36963382230740238 0 0.24049127783545701 0.41270748208749802 0 0.191953871957803 0.42546416763755879 0 0.5 0.29999999999999999 0 0.4604742573284204 0.27846934318264788 0 0.49695729691142171 0.25014895411178018 0 0.19741632902693801 0.86755867406447229 0 0.2401283238295133 0.85648409884788523 0 0.24536017905392571 0.90704567837671446 0 0 0.50000000000205869 0 0.068743045408989428 0.48853989837882689 0 0.044576108720083309 0.53509043209532614 0 0.15000000000062411 1 0 0.14617343800780541 0.93808063414349496 0 0.18474005699953849 0.96231585248064622 0 0.14999999999970359 0 0 0.184418230509967 0.038773194583122873 0 0.14618258501891079 0.062070108745602003 0 0.57667858002728545 0.078486105337742612 0 0.52375890611712683 0.059318771819432882 0 0.57396793757665954 0.037011367187645222 0 0.113541300460994 0.46208784312094731 0 0.078358742472063481 0.43365249433908948 0 0.13773355295499351 0.42497777642586831 0 0.77354604466818633 0.40378688774472771 0 0.78145581580700685 0.34881365920033602 0 0.81308179852519835 0.39754945808726527 0 0.38244435121258652 0.51653317813019495 0 0.33190227185843768 0.52715113583864037 0 0.35024835142131061 0.48654922671676981 0 0.64753070846764316 0.77332939069435502 0 0.65005442820240822 0.82644988530054031 0 0.60294066490120068 0.80851322453934582 0 0.15720202157091859 0.60665697304410315 0 0.1024350934457823 0.60772393977513839 0 0.1154888278694548 0.56733818459978413 0 0.90416666666660628 0.9041666666666166 0 0.85600844944837662 0.88483418979512773 0 0.88088768115933802 0.84674609810493673 0 0.90416666666668166 0.20416666666667119 0 0.85600844944842547 0.1848341897950983 0 0.88088768115941807 0.14674609810479519 0 0.078358742472063481 0.43365249433908948 0 0.1117088112799664 0.38831403004970022 0 0.13773355295499351 0.42497777642586831 0 0.38244435121258652 0.51653317813019495 0 0.3908716102680424 0.47010282357248828 0 0.43507373378304309 0.49699695397193322 0 0.90299850604011456 0.79563452813489832 0 0.95386563387742829 0.80414874155775029 0 0.93677536231884972 0.85000000000000286 0 0.90416666666660628 0.9041666666666166 0 0.93677536231884972 0.85000000000000286 0 0.95391631417670719 0.89584263333814784 0 0.90299850604006393 0.09563452813493091 0 0.95386563387744361 0.1041487415577465 0 0.93677536231883773 0.14999999999999089 0 0.90416666666668166 0.20416666666667119 0 0.93677536231883773 0.14999999999999089 0 0.95391631417672862 0.19584263333809451 0 0.39536230704883951 0.84069429572832477 0 0.44003836461056539 0.88093474584252718 0 0.39767323751400468 0.89584229130535065 0 0.51076801031701946 0.1202837388510348 0 0.52375890611712683 0.059318771819432882 0 0.54979595918804436 0.1060565713905809 0 0.57667858002728545 0.078486105337742612 0 0.54979595918804436 0.1060565713905809 0 0.52375890611712683 0.059318771819432882 0 0.57724883562309992 0.92155686857100794 0 0.52122150208832174 0.94089974453840242 0 0.54783390826260769 0.89287767010860219 0 0.50202631463681879 0.87892870825713787 0 0.54783390826260769 0.89287767010860219 0 0.52122150208832174 0.94089974453840242 0 0.087545339447545459 0.35122518864182262 0 0.093851963071650835 0.30582068233324772 0 0.14223753364722069 0.3341983344262433 0 0.54999999999999993 0.69999999999999996 0 0.59999999999999976 0.69999999999999996 0 0.55363780716230748 0.74348740161571747 0 0.083105206071452636 0.79992298667296435 0 0.1074251789111534 0.83564394292147814 0 0.065374659239661639 0.8551091961254178 0 0.083105206071467416 0.20007701332709979 0 0.065374659239632718 0.1448908038746782 0 0.106902708054812 0.16453234188234539 0 0.52289427570932567 0.3932284363388488 0 0.53823865529665704 0.45873898050322898 0 0.48858720058566618 0.43964267759203868 0 0.13737030665753211 0.20313708640667491 0 0.14377654328998779 0.2442024734791064 0 0.095326043202144745 0.24554465089224409 0 0.1382744753146134 0.79650574229207483 0 0.090953281884486245 0.7564451946902494 0 0.14335651144331049 0.75565258250209677 0 0.27270076654418179 0.87751467830216623 0 0.30864387279288652 0.89906554525974958 0 0.24536017905392571 0.90704567837671446 0 0.27609987656793722 0.94991445621608572 0 0.24536017905392571 0.90704567837671446 0 0.30864387279288652 0.89906554525974958 0 0.90299850604011456 0.79563452813489832 0 0.84725310900444062 0.80779732082917555 0 0.85491058998424563 0.76004753345552634 0 0.90299850604006393 0.09563452813493091 0 0.84725310900442086 0.10779732082922661 0 0.85491058998398861 0.060047533455626502 0 1 0.54999999999963112 0 1 0.59999999999973963 0 0.95867599106212187 0.60011091146651041 0 1 0.39999999999978308 0 1 0.44999999999963131 0 0.95871855522754235 0.40006508612975411 0 0.28040350263641872 0.23054717217092141 0 0.25195515620380449 0.25883339815888678 0 0.224700362040408 0.22206622194729711 0 0.84999999999999987 0.29999999999999999 0 0.87430060258887643 0.34056085888204451 0 0.82500000000000062 0.33010209762754811 0 0.84999999999999987 0.69999999999999996 0 0.82457059160610424 0.66831947184359608 0 0.87712158428786946 0.65709029563313581 0 0.86956835336234861 0.571283299838105 0 0.87159648282691515 0.61285406320581504 0 0.81723410853263523 0.59419663659258926 0 0.43698630808430822 0.080423614171545449 0 0.47881186583059909 0.093591717165689425 0 0.44288491854585582 0.14116182884956319 0 1 0.44999999999963131 0 0.96228564064454991 0.48206450662049471 0 0.93814194660195893 0.44426664081746747 0 0.35752321586431363 0.9185439911803448 0 0.30864387279288652 0.89906554525974958 0 0.35864759629805099 0.87963482415279515 0 0.29124338931648802 0.43334555462578611 0 0.25982634974572738 0.46097799597715272 0 0.24049127783545701 0.41270748208749802 0 0.51076801031701946 0.1202837388510348 0 0.56202748619534593 0.15054058349222879 0 0.51729576145820033 0.1683240575987815 0 0.55306006949600994 0.20198184231352201 0 0.51729576145820033 0.1683240575987815 0 0.56202748619534593 0.15054058349222879 0 0.26429849586623999 0.19346700179430079 0 0.28040350263641872 0.23054717217092141 0 0.224700362040408 0.22206622194729711 0 0.51076801031701946 0.1202837388510348 0 0.48466639505193998 0.1421439844745814 0 0.47881186583059909 0.093591717165689425 0 0.2185883431182947 0.18019736283949719 0 0.26429849586623999 0.19346700179430079 0 0.224700362040408 0.22206622194729711 0 0.18269480424590959 0.75905448272264375 0 0.2248999640082178 0.72584299459689172 0 0.22556077506376701 0.77837424984191617 0 0.51076801031701946 0.1202837388510348 0 0.47881186583059909 0.093591717165689425 0 0.52375890611712683 0.059318771819432882 0 0.50202631463681879 0.87892870825713787 0 0.52122150208832174 0.94089974453840242 0 0.47401147028110507 0.91529957330468115 0 0 0.84999999999965292 0 0.038512288486097702 0.8155852717111195 0 0.065374659239661639 0.8551091961254178 0 0 0.15000000000062411 0 0.065374659239632718 0.1448908038746782 0 0.038512288486115001 0.1844147282893184 0 0.2185883431182947 0.18019736283949719 0 0.224700362040408 0.22206622194729711 0 0.18124454140915969 0.18790916706335251 0 0.21858834311891909 0.81980263716112767 0 0.17777405986036951 0.81832336108265358 0 0.22556077506376701 0.77837424984191617 0 0.1215415378367805 0.72939333680004137 0 0.1020579365089687 0.69352219419301997 0 0.15332765547575641 0.71200081858233666 0 0.49695729691142171 0.25014895411178018 0 0.50760557329222289 0.20700468884612061 0 0.54248833945060504 0.2520322959927106 0 0.15720202157091859 0.60665697304410315 0 0.14934928745814749 0.55042914607228977 0 0.18381867841758909 0.57774125163628387 0 0.90416666666660628 0.9041666666666166 0 0.85170973911348691 0.93569607295217616 0 0.85600844944837662 0.88483418979512773 0 0.90416666666668166 0.20416666666667119 0 0.8517097391133297 0.2356960729520409 0 0.85600844944842547 0.1848341897950983 0 0.17933913398461551 0.2350063570234002 0 0.13737030665753211 0.20313708640667491 0 0.18124454140915969 0.18790916706335251 0 0.18269480424590959 0.75905448272264375 0 0.17777405986036951 0.81832336108265358 0 0.1382744753146134 0.79650574229207483 0 0.1216098864341134 0.50637075089503902 0 0.15801167086041079 0.46008690540259539 0 0.16618607197337229 0.50652878253548905 0 0.50760557329222289 0.20700468884612061 0 0.55306006949600994 0.20198184231352201 0 0.54248833945060504 0.2520322959927106 0 0.75000000000034661 1 0 0.7000000000006934 1 0 0.7250000000005199 0.94981617647078953 0 0.69999999999999984 0.29999999999999999 0 0.72500000000000064 0.2498161764706 0 0.74999999999999989 0.29999999999999999 0 0.72525833953073282 0.1032114801687094 0 0.68391457121233579 0.14440470121196541 0 0.68330259535470161 0.10038702501083881 0 0.43249999999999988 0.43937499999999979 0 0.46655310992796922 0.39650496622958609 0 0.48858720058566618 0.43964267759203868 0 0.19901705110390991 0.9175543425573498 0 0.14617343800780541 0.93808063414349496 0 0.16206583317966519 0.89685560785156404 0 0.19922788606653311 0.085920220746880993 0 0.16141998738593399 0.10404039647458049 0 0.14618258501891079 0.062070108745602003 0 0.31378396441836959 0.70157213313026345 0 0.26439878998046262 0.7048065392091396 0 0.27820712747429932 0.65530134213254643 0 0.1216098864341134 0.50637075089503902 0 0.113541300460994 0.46208784312094731 0 0.15801167086041079 0.46008690540259539 0 0.6084546825910605 0.37989672713932537 0 0.65481233915350323 0.35652751921065562 0 0.63912439215427275 0.41063340167983359 0 0.19901705110390991 0.9175543425573498 0 0.18474005699953849 0.96231585248064622 0 0.14617343800780541 0.93808063414349496 0 0.19922788606653311 0.085920220746880993 0 0.14618258501891079 0.062070108745602003 0 0.184418230509967 0.038773194583122873 0 0.38244435121258652 0.51653317813019495 0 0.35024835142131061 0.48654922671676981 0 0.3908716102680424 0.47010282357248828 0 0.82709327591102189 0.14937141670914489 0 0.77144070960558853 0.14311854477243749 0 0.80076557130237269 0.1154587552654202 0 0.82709327591091286 0.84937141670920724 0 0.76901770135486491 0.84293557325473656 0 0.80041942726660109 0.81543261647703358 0 0.43698630808430822 0.080423614171545449 0 0.44288491854585582 0.14116182884956319 0 0.39823268594401579 0.1116623613130045 0 0.39801143831225599 0.16651381068160659 0 0.39823268594401579 0.1116623613130045 0 0.44288491854585582 0.14116182884956319 0 0.36575549820117997 0.31677992835137742 0 0.3786248352540974 0.27082301512024259 0 0.41914690343363781 0.30688979866601612 0 0.42377727103934271 0.25099357235810238 0 0.41914690343363781 0.30688979866601612 0 0.3786248352540974 0.27082301512024259 0 0.049706944316475897 0.72477277076253799 0 0.1020579365089687 0.69352219419301997 0 0.090953281884486245 0.7564451946902494 0 0.1215415378367805 0.72939333680004137 0 0.090953281884486245 0.7564451946902494 0 0.1020579365089687 0.69352219419301997 0 0.1247745017231483 0.27198077544791172 0 0.093851963071650835 0.30582068233324772 0 0.095326043202144745 0.24554465089224409 0 0.049706944316556423 0.27522722923869108 0 0.095326043202144745 0.24554465089224409 0 0.093851963071650835 0.30582068233324772 0 0.77354604466818633 0.40378688774472771 0 0.81973119833356312 0.43505687159469048 0 0.77972660463949339 0.45529290596363098 0 0.43249999999999988 0.43937499999999979 0 0.43507373378304309 0.49699695397193322 0 0.3908716102680424 0.47010282357248828 0 0.26573297623774761 0.59828298563722948 0 0.2459498854893499 0.63248470766216769 0 0.22549374774072969 0.58452645269293457 0 0.72500000000000064 0.7952620967744265 0 0.77094201086366854 0.79647480515688507 0 0.76901770135486491 0.84293557325473656 0 0.72525833953073282 0.1032114801687094 0 0.76878382444651716 0.097147941686331368 0 0.77144070960558853 0.14311854477243749 0 0.72500000000000064 0.7952620967744265 0 0.68697391633157634 0.84450604838764298 0 0.68024162096458085 0.79868546898116533 0 0.31378396441836959 0.70157213313026345 0 0.29904318922293632 0.74132814928635593 0 0.26439878998046262 0.7048065392091396 0 0.31378396441836959 0.70157213313026345 0 0.35415581127540569 0.73730480045900215 0 0.29904318922293632 0.74132814928635593 0 0.61343887413683884 0.856862479058357 0 0.65005442820240822 0.82644988530054031 0 0.66412543161245952 0.88015090885499059 0 0.68697391633157634 0.84450604838764298 0 0.66412543161245952 0.88015090885499059 0 0.65005442820240822 0.82644988530054031 0 0.083411279318375747 0.91030024466934134 0 0.065374659239661639 0.8551091961254178 0 0.10562472963403439 0.87143394428979881 0 0.083411279318303222 0.089699755330707398 0 0.1053400320299198 0.12877248826361379 0 0.065374659239632718 0.1448908038746782 0 0.55306006949600994 0.20198184231352201 0 0.59443395090188023 0.18455690917515069 0 0.59814117807200873 0.23398510860739519 0 0.84999999999999987 0.29999999999999999 0 0.89999999999999991 0.29999999999999999 0 0.87430060258887643 0.34056085888204451 0 0.84999999999999987 0.69999999999999996 0 0.87712158428786946 0.65709029563313581 0 0.89999999999999991 0.69999999999999996 0 0.34258405725730701 0.4444034294386992 0 0.3908716102680424 0.47010282357248828 0 0.35024835142131061 0.48654922671676981 0 0.26573297623774761 0.59828298563722948 0 0.31502927232353312 0.6134992213375432 0 0.27820712747429932 0.65530134213254643 0 0.91696753777131557 0.497780560203536 0 0.86907294890112186 0.52008116128001669 0 0.88594198078881503 0.46167788676578442 0 0.84723782639812573 0.48638347960178252 0 0.88594198078881503 0.46167788676578442 0 0.86907294890112186 0.52008116128001669 0 0.7152569930854884 0.5237994455134295 0 0.77151014687832564 0.54436834383023036 0 0.71809016091162536 0.58185040402320831 0 0.90416666666660628 0.9041666666666166 0 0.89898474358632463 0.95391965591118966 0 0.85170973911348691 0.93569607295217616 0 0.90416666666668166 0.20416666666667119 0 0.89898474358614167 0.25391965591104898 0 0.8517097391133297 0.2356960729520409 0 0.91750694127107502 0.36982372220068471 0 0.95780851984364423 0.34215720972155339 0 0.95871855522754235 0.40006508612975411 0 0.91750694127105259 0.63017627779935648 0 0.95867599106212187 0.60011091146651041 0 0.9578014258160763 0.65787212321113708 0 0.90299850604011456 0.79563452813489832 0 0.88088768115933802 0.84674609810493673 0 0.84725310900444062 0.80779732082917555 0 0.90299850604006393 0.09563452813493091 0 0.88088768115941807 0.14674609810479519 0 0.84725310900442086 0.10779732082922661 0 0.1216098864341134 0.50637075089503902 0 0.16618607197337229 0.50652878253548905 0 0.14934928745814749 0.55042914607228977 0 0.20050006573841939 0.53248514016039872 0 0.14934928745814749 0.55042914607228977 0 0.16618607197337229 0.50652878253548905 0 0.80185942888539485 0.77452061303608133 0 0.84725310900444062 0.80779732082917555 0 0.80041942726660109 0.81543261647703358 0 0.80185942888501827 0.074520613036224564 0 0.84725310900442086 0.10779732082922661 0 0.80076557130237269 0.1154587552654202 0 0.083105206071452636 0.79992298667296435 0 0.065374659239661639 0.8551091961254178 0 0.038512288486097702 0.8155852717111195 0 0.083105206071467416 0.20007701332709979 0 0.038512288486115001 0.1844147282893184 0 0.065374659239632718 0.1448908038746782 0 0.54782696902220018 0.79245182748204157 0 0.59636844454254345 0.75937156204589151 0 0.60294066490120068 0.80851322453934582 0 0.083411279318375747 0.91030024466934134 0 0.0443105827531413 0.89858748162559932 0 0.065374659239661639 0.8551091961254178 0 0.083411279318303222 0.089699755330707398 0 0.065374659239632718 0.1448908038746782 0 0.044310582753132287 0.101412518374475 0 0.84999999999965292 1 0 0.81486180804382891 0.96321394949790495 0 0.85170973911348691 0.93569607295217616 0 0.84999999999999987 0.29999999999999999 0 0.81486180804364938 0.26321394949780091 0 0.8517097391133297 0.2356960729520409 0 0.4656888918609538 0.78493261229743638 0 0.45677673713123867 0.84253684404072415 0 0.42609163930740518 0.80361684430568059 0 0.39536230704883951 0.84069429572832477 0 0.42609163930740518 0.80361684430568059 0 0.45677673713123867 0.84253684404072415 0 0.6236733212988993 0.14864538214901801 0 0.56202748619534593 0.15054058349222879 0 0.58516465772821369 0.11653801664834119 0 0.57412547362576272 0.58273804879550706 0 0.63065402604362242 0.59661356661633302 0 0.5991018319127801 0.62925360607495295 0 0.61343887413683884 0.856862479058357 0 0.5832743223239254 0.88483152652961872 0 0.55899371797446828 0.85003102233514438 0 0.50202631463681879 0.87892870825713787 0 0.55899371797446828 0.85003102233514438 0 0.54783390826260769 0.89287767010860219 0 0.51076801031701946 0.1202837388510348 0 0.54979595918804436 0.1060565713905809 0 0.56202748619534593 0.15054058349222879 0 0.55306006949600994 0.20198184231352201 0 0.59814117807200873 0.23398510860739519 0 0.54248833945060504 0.2520322959927106 0 0.83573492347052902 0.36590755630746369 0 0.82500000000000062 0.33010209762754811 0 0.87430060258887643 0.34056085888204451 0 0.83758014339878906 0.63222013025741819 0 0.87712158428786946 0.65709029563313581 0 0.82457059160610424 0.66831947184359608 0 0.49102375406324739 0.49123754822244059 0 0.53823865529665704 0.45873898050322898 0 0.53330375813596242 0.50827942741749099 0 0.52289427570932567 0.3932284363388488 0 0.57744073070774993 0.41535148636609359 0 0.53823865529665704 0.45873898050322898 0 0.4089290844030305 0.58728915500154233 0 0.37272913873093971 0.56192925302619479 0 0.42644501560315817 0.54603747078095544 0 0.49695729691142171 0.25014895411178018 0 0.4604742573284204 0.27846934318264788 0 0.46429753744194407 0.22870891180733599 0 0.90299850604011456 0.79563452813489832 0 0.85491058998424563 0.76004753345552634 0 0.89999166460796554 0.74528934923809909 0 0.90299850604006393 0.09563452813493091 0 0.85491058998398861 0.060047533455626502 0 0.899991664607802 0.045289349238254978 0 0.38244435121258652 0.51653317813019495 0 0.42644501560315817 0.54603747078095544 0 0.37272913873093971 0.56192925302619479 0 0.71406021706547751 0.63292083137662503 0 0.71809016091162536 0.58185040402320831 0 0.74994237037456724 0.62775548192980357 0 0.84723782639812573 0.48638347960178252 0 0.86907294890112186 0.52008116128001669 0 0.81441713509985358 0.51161854125224959 0 0.33122374654748771 0.57588941099433744 0 0.33190227185843768 0.52715113583864037 0 0.37272913873093971 0.56192925302619479 0 0.086179601630648681 0.64647209519980475 0 0.1241190223511371 0.64391885572885044 0 0.1020579365089687 0.69352219419301997 0 0.59999999999894682 0 0 0.64999999999907843 0 0 0.61940220174112337 0.047251958781050582 0 0.18269480424590959 0.75905448272264375 0 0.14335651144331049 0.75565258250209677 0 0.15332765547575641 0.71200081858233666 0 0.22549374774072969 0.58452645269293457 0 0.2459498854893499 0.63248470766216769 0 0.19914261668318661 0.62286739485272158 0 0.38244435121258652 0.51653317813019495 0 0.43507373378304309 0.49699695397193322 0 0.42644501560315817 0.54603747078095544 0 0.65000000000104008 1 0 0.60000000000138687 1 0 0.62065498684670595 0.95224934003983619 0 0.078358742472063481 0.43365249433908948 0 0.068743045408989428 0.48853989837882689 0 0.033550201249889847 0.46247875832467239 0 0.2236846579037573 0.67380363126050236 0 0.27820712747429932 0.65530134213254643 0 0.26439878998046262 0.7048065392091396 0 0.6879972333610942 0.43038561374960838 0 0.68128176404677243 0.38629093627004979 0 0.72622533758026719 0.40265885511101601 0 0.72525833953073282 0.1032114801687094 0 0.7010294155333181 0.056779085686491267 0 0.7527966693318906 0.053051678021508272 0 0.18269480424590959 0.75905448272264375 0 0.15332765547575641 0.71200081858233666 0 0.19068556247388771 0.71028988922845504 0 0.1216098864341134 0.50637075089503902 0 0.085622222639554768 0.53333248912060549 0 0.068743045408989428 0.48853989837882689 0 0.25676291524611189 0.7436741304886243 0 0.26439878998046262 0.7048065392091396 0 0.29904318922293632 0.74132814928635593 0 0.65481233915350323 0.35652751921065562 0 0.68128176404677243 0.38629093627004979 0 0.63912439215427275 0.41063340167983359 0 0.83573492347052902 0.36590755630746369 0 0.86844634540301924 0.38530937474099819 0 0.81308179852519835 0.39754945808726527 0 0.27270076654418179 0.87751467830216623 0 0.2401283238295133 0.85648409884788523 0 0.29209212897034281 0.84715728365233667 0 0.84999999999999987 0.69999999999999996 0 0.85491058998424563 0.76004753345552634 0 0.81864958914779962 0.73589050177899629 0 0.84999999999960507 0 0 0.85491058998398861 0.060047533455626502 0 0.81864958914740749 0.035890501779055867 0 0.18381867841758909 0.57774125163628387 0 0.19914261668318661 0.62286739485272158 0 0.15720202157091859 0.60665697304410315 0 0.22549374774072969 0.58452645269293457 0 0.19914261668318661 0.62286739485272158 0 0.18381867841758909 0.57774125163628387 0 0.79680861578988083 0.92656778056766709 0 0.85170973911348691 0.93569607295217616 0 0.81486180804382891 0.96321394949790495 0 0.79680861578956375 0.22656778056752541 0 0.8517097391133297 0.2356960729520409 0 0.81486180804364938 0.26321394949780091 0 0.20050006573841939 0.53248514016039872 0 0.23975172658309729 0.49475499200540818 0 0.25115337790845271 0.54719303014923271 0 0.28307294598219601 0.50789252727458634 0 0.25115337790845271 0.54719303014923271 0 0.23975172658309729 0.49475499200540818 0 0.20050006573841939 0.53248514016039872 0 0.18381867841758909 0.57774125163628387 0 0.14934928745814749 0.55042914607228977 0 0.19922788606653311 0.085920220746880993 0 0.22985637510995899 0.1298347970200906 0 0.18652628422869419 0.14162325200928061 0 0.33758650185219202 0.23837101504325639 0 0.38831533174504851 0.2189834941785925 0 0.3786248352540974 0.27082301512024259 0 0.42377727103934271 0.25099357235810238 0 0.3786248352540974 0.27082301512024259 0 0.38831533174504851 0.2189834941785925 0 0.19922788606653311 0.085920220746880993 0 0.18652628422869419 0.14162325200928061 0 0.16141998738593399 0.10404039647458049 0 0.54782696902220018 0.79245182748204157 0 0.55363780716230748 0.74348740161571747 0 0.59636844454254345 0.75937156204589151 0 0.82709327591091286 0.84937141670920724 0 0.88088768115933802 0.84674609810493673 0 0.85600844944837662 0.88483418979512773 0 0.82709327591102189 0.14937141670914489 0 0.88088768115941807 0.14674609810479519 0 0.85600844944842547 0.1848341897950983 0 0.27866744612395528 0.38416094670951489 0 0.22033343844674469 0.36963382230740238 0 0.25966125648670141 0.34351016742083729 0 0 0.50000000000205869 0 0.033550201249889847 0.46247875832467239 0 0.068743045408989428 0.48853989837882689 0 0.31378396441836959 0.70157213313026345 0 0.36622285152418499 0.69092437780804039 0 0.35415581127540569 0.73730480045900215 0 0.77293540622714185 0.59448302402785813 0 0.71809016091162536 0.58185040402320831 0 0.77151014687832564 0.54436834383023036 0 0.7152569930854884 0.5237994455134295 0 0.69385896817107129 0.48377516041410151 0 0.73947346780852752 0.49062440112282169 0 0.15801167086041079 0.46008690540259539 0 0.191953871957803 0.42546416763755879 0 0.19604738184454831 0.47787523520405789 0 0.57667858002728545 0.078486105337742612 0 0.61940220174112337 0.047251958781050582 0 0.61956000905586006 0.1043312481793135 0 0.65408113592120842 0.073941773121567966 0 0.61956000905586006 0.1043312481793135 0 0.61940220174112337 0.047251958781050582 0 0 0.55000000000173355 0 0 0.50000000000205869 0 0.044576108720083309 0.53509043209532614 0 0.65507451745379841 0.92229208810758578 0 0.62065498684670595 0.95224934003983619 0 0.61885627562261258 0.90282959257498208 0 0.57724883562309992 0.92155686857100794 0 0.61885627562261258 0.90282959257498208 0 0.62065498684670595 0.95224934003983619 0 0.91750694127107502 0.36982372220068471 0 0.86844634540301924 0.38530937474099819 0 0.87430060258887643 0.34056085888204451 0 0.91750694127105259 0.63017627779935648 0 0.87712158428786946 0.65709029563313581 0 0.87159648282691515 0.61285406320581504 0 0.33123028043633618 0.77629643437932982 0 0.29904318922293632 0.74132814928635593 0 0.35415581127540569 0.73730480045900215 0 0.86411095495256451 0.42388805655111889 0 0.84925632466077294 0.45359738909549091 0 0.81973119833356312 0.43505687159469048 0 0.43846182030517877 0.64845797726506715 0 0.47913475093885149 0.66010775372412711 0 0.43323420005758778 0.6913544522562407 0 0.18269480424590959 0.75905448272264375 0 0.19068556247388771 0.71028988922845504 0 0.2248999640082178 0.72584299459689172 0 0.39536230704883951 0.84069429572832477 0 0.38586766253264881 0.78219501014812498 0 0.42609163930740518 0.80361684430568059 0 0.59999999999999976 0.69999999999999996 0 0.63221990677827677 0.73442891067859706 0 0.59636844454254345 0.75937156204589151 0 0.27866744612395528 0.38416094670951489 0 0.24049127783545701 0.41270748208749802 0 0.22033343844674469 0.36963382230740238 0 0.82709327591091286 0.84937141670920724 0 0.84725310900444062 0.80779732082917555 0 0.88088768115933802 0.84674609810493673 0 0.82709327591102189 0.14937141670914489 0 0.84725310900442086 0.10779732082922661 0 0.88088768115941807 0.14674609810479519 0 0.1650278706801647 0.38791388161335733 0 0.18434624290945251 0.35208838264196463 0 0.22033343844674469 0.36963382230740238 0 0.4409427642593301 0.35743108089689513 0 0.49077833859261139 0.35229981449445641 0 0.46655310992796922 0.39650496622958609 0 0.80185942888539485 0.77452061303608133 0 0.81864958914779962 0.73589050177899629 0 0.85491058998424563 0.76004753345552634 0 0.80185942888501827 0.074520613036224564 0 0.81864958914740749 0.035890501779055867 0 0.85491058998398861 0.060047533455626502 0 0.29999999999926641 0 0 0.34999999999912063 0 0 0.32541448401678508 0.046215317981507749 0 0.35000000000145642 1 0 0.30000000000124832 1 0 0.32544832635163229 0.95485394099568932 0 0.4656888918609538 0.78493261229743638 0 0.50731287292894423 0.78963574450233831 0 0.50627822638148745 0.8263979829520941 0 0.2185883431182947 0.18019736283949719 0 0.25557216766470708 0.15874861286892261 0 0.26429849586623999 0.19346700179430079 0 1 0.29999999999999999 0 1 0.34999999999993492 0 0.95780851984364423 0.34215720972155339 0 1 0.29999999999999999 0 0.95780851984364423 0.34215720972155339 0 0.94999999999999996 0.29999999999999999 0 1 0.69999999999999996 0 0.94999999999999996 0.69999999999999996 0 0.9578014258160763 0.65787212321113708 0 1 0.69999999999999996 0 0.9578014258160763 0.65787212321113708 0 1 0.64999999999986979 0 0.91750694127107502 0.36982372220068471 0 0.90594285160987287 0.4141265964174129 0 0.86844634540301924 0.38530937474099819 0 0.91750694127105259 0.63017627779935648 0 0.87159648282691515 0.61285406320581504 0 0.91143117093204207 0.58709913730335972 0 0.74999999999999989 0.69999999999999996 0 0.7750489929959945 0.66593931409600093 0 0.79999999999999982 0.69999999999999996 0 0.74999999999999989 0.29999999999999999 0 0.79999999999999982 0.29999999999999999 0 0.78145581580700685 0.34881365920033602 0 0.54999999999999993 0.69999999999999996 0 0.57484956128872922 0.66573805030881994 0 0.59999999999999976 0.69999999999999996 0 0.90299850604011456 0.79563452813489832 0 0.94399509803918602 0.75600490196082126 0 0.95386563387742829 0.80414874155775029 0 0.90416666666660628 0.9041666666666166 0 0.95391631417670719 0.89584263333814784 0 0.94399509803919068 0.9439950980391687 0 0.90299850604006393 0.09563452813493091 0 0.94399509803922566 0.056004901960802607 0 0.95386563387744361 0.1041487415577465 0 0.90416666666668166 0.20416666666667119 0 0.95391631417672862 0.19584263333809451 0 0.94399509803921056 0.24399509803922639 0 0.22278230690790279 0.44824268025881547 0 0.19604738184454831 0.47787523520405789 0 0.191953871957803 0.42546416763755879 0 0.90299850604011456 0.79563452813489832 0 0.89999166460796554 0.74528934923809909 0 0.94399509803918602 0.75600490196082126 0 0.90299850604006393 0.09563452813493091 0 0.899991664607802 0.045289349238254978 0 0.94399509803922566 0.056004901960802607 0 0.49102375406324739 0.49123754822244059 0 0.47793794143994173 0.52940715638744962 0 0.43507373378304309 0.49699695397193322 0 0.90416666666660628 0.9041666666666166 0 0.94399509803919068 0.9439950980391687 0 0.89898474358632463 0.95391965591118966 0 0.90416666666668166 0.20416666666667119 0 0.94399509803921056 0.24399509803922639 0 0.89898474358614167 0.25391965591104898 0 0.65394964615507722 0.22666784374016369 0 0.62657463266645097 0.26524202571255862 0 0.59814117807200873 0.23398510860739519 0 0.6084546825910605 0.37989672713932537 0 0.63912439215427275 0.41063340167983359 0 0.57744073070774993 0.41535148636609359 0 0.61209567303293111 0.44669033081290321 0 0.57744073070774993 0.41535148636609359 0 0.63912439215427275 0.41063340167983359 0 0.25676291524611189 0.7436741304886243 0 0.22556077506376701 0.77837424984191617 0 0.2248999640082178 0.72584299459689172 0 0.61343887413683884 0.856862479058357 0 0.60294066490120068 0.80851322453934582 0 0.65005442820240822 0.82644988530054031 0 0.64999999999907843 0 0 0.66369801598854572 0.036327466368102787 0 0.61940220174112337 0.047251958781050582 0 0.40326160981139969 0.73346192995102844 0 0.38586766253264881 0.78219501014812498 0 0.35415581127540569 0.73730480045900215 0 0.33123028043633618 0.77629643437932982 0 0.35415581127540569 0.73730480045900215 0 0.38586766253264881 0.78219501014812498 0 0.26573297623774761 0.59828298563722948 0 0.29110487519241501 0.56588143995431495 0 0.31502927232353312 0.6134992213375432 0 0.77846603114747959 0.49850927265137401 0 0.81441713509985358 0.51161854125224959 0 0.77151014687832564 0.54436834383023036 0 0.82862096804812391 0.55037090955459045 0 0.77151014687832564 0.54436834383023036 0 0.81441713509985358 0.51161854125224959 0 0.50000000000205869 1 0 0.45000000000187229 1 0 0.47135117303824892 0.95556877749289892 0 0.44999999999882923 0 0 0.49999999999869432 0 0 0.47040171442036788 0.044141676406503738 0 0 0.7000000000006934 0 0 0.65000000000104008 0 0.046634677244967337 0.671418230738282 0 0 0.35000000000145642 0 0 0.30000000000124832 0 0.046389130980076937 0.32668781832131749 0 0.31378396441836959 0.70157213313026345 0 0.27820712747429932 0.65530134213254643 0 0.32263089806001177 0.66003674931826484 0 0.33122374654748771 0.57588941099433744 0 0.31502927232353312 0.6134992213375432 0 0.29110487519241501 0.56588143995431495 0 0.26573297623774761 0.59828298563722948 0 0.27820712747429932 0.65530134213254643 0 0.2459498854893499 0.63248470766216769 0 0.14474682429600511 0.85524784522713515 0 0.16206583317966519 0.89685560785156404 0 0.1241151115713819 0.9045666525468371 0 0.14332333627550789 0.14578431753966009 0 0.12372429750337779 0.095814237875728972 0 0.16141998738593399 0.10404039647458049 0 0.64753070846764316 0.77332939069435502 0 0.59636844454254345 0.75937156204589151 0 0.63221990677827677 0.73442891067859706 0 0.14474682429600511 0.85524784522713515 0 0.1241151115713819 0.9045666525468371 0 0.10562472963403439 0.87143394428979881 0 0.14332333627550789 0.14578431753966009 0 0.1053400320299198 0.12877248826361379 0 0.12372429750337779 0.095814237875728972 0 0.77354604466818633 0.40378688774472771 0 0.81308179852519835 0.39754945808726527 0 0.81973119833356312 0.43505687159469048 0 0.54782696902220018 0.79245182748204157 0 0.50945740445113552 0.75476055527778108 0 0.55363780716230748 0.74348740161571747 0 0.2236846579037573 0.67380363126050236 0 0.2459498854893499 0.63248470766216769 0 0.27820712747429932 0.65530134213254643 0 0.77293540622714185 0.59448302402785813 0 0.74994237037456724 0.62775548192980357 0 0.71809016091162536 0.58185040402320831 0 0 0.79999999999999982 0 0 0.75000000000034661 0 0.04408157711937423 0.7728941757575627 0 0 0.25000000000104028 0 0 0.20000000000083221 0 0.044081577119474857 0.2271058242433576 0 0.19999999999955789 0 0 0.24999999999941211 0 0 0.22668068146512929 0.045875643423131329 0 0.25000000000104028 1 0 0.20000000000083221 1 0 0.22850979588452081 0.95594428570238643 0 0.47357141910802508 0.1873585799078378 0 0.44288491854585582 0.14116182884956319 0 0.48466639505193998 0.1421439844745814 0 0.59999999999999976 0.29999999999999999 0 0.5794309697024993 0.27124795968204829 0 0.62657463266645097 0.26524202571255862 0 0.43249999999999988 0.43937499999999979 0 0.42161023666869668 0.39493916313643851 0 0.46655310992796922 0.39650496622958609 0 0.31068898841644388 0.47541502461811092 0 0.33190227185843768 0.52715113583864037 0 0.28307294598219601 0.50789252727458634 0 0.35024835142131061 0.48654922671676981 0 0.33190227185843768 0.52715113583864037 0 0.31068898841644388 0.47541502461811092 0 0.35864735590330371 0.63903383440414463 0 0.36622285152418499 0.69092437780804039 0 0.32263089806001177 0.66003674931826484 0 0.31378396441836959 0.70157213313026345 0 0.32263089806001177 0.66003674931826484 0 0.36622285152418499 0.69092437780804039 0 0.86956835336234861 0.571283299838105 0 0.90900154012161016 0.53607784105648792 0 0.91143117093204207 0.58709913730335972 0 0.6499999999999998 0.29999999999999999 0 0.65481233915350323 0.35652751921065562 0 0.61959173890754571 0.33832250091341232 0 0.4409427642593301 0.35743108089689513 0 0.46226845272279993 0.31901800744800313 0 0.49077833859261139 0.35229981449445641 0 0.5 0.29999999999999999 0 0.49077833859261139 0.35229981449445641 0 0.46226845272279993 0.31901800744800313 0 0.14999999999970359 0 0 0.19999999999955789 0 0 0.184418230509967 0.038773194583122873 0 0.20000000000083221 1 0 0.15000000000062411 1 0 0.18474005699953849 0.96231585248064622 0 1 0.49999999999950101 0 1 0.54999999999963112 0 0.95631871884947484 0.51827533208233789 0 0.38586766253264881 0.78219501014812498 0 0.42676259796334498 0.76772545931379299 0 0.42609163930740518 0.80361684430568059 0 0.20050006573841939 0.53248514016039872 0 0.22549374774072969 0.58452645269293457 0 0.18381867841758909 0.57774125163628387 0 0.065374659239661639 0.8551091961254178 0 0.1074251789111534 0.83564394292147814 0 0.10562472963403439 0.87143394428979881 0 0.065374659239632718 0.1448908038746782 0 0.1053400320299198 0.12877248826361379 0 0.106902708054812 0.16453234188234539 0 0.1650278706801647 0.38791388161335733 0 0.14223753364722069 0.3341983344262433 0 0.18434624290945251 0.35208838264196463 0 0.43249999999999988 0.43937499999999979 0 0.46111841286828259 0.46690301029591341 0 0.43507373378304309 0.49699695397193322 0 0.83758014339878906 0.63222013025741819 0 0.81723410853263523 0.59419663659258926 0 0.87159648282691515 0.61285406320581504 0 0.19670163708476801 0.31472518408333222 0 0.18434624290945251 0.35208838264196463 0 0.14223753364722069 0.3341983344262433 0 0.75000000000034661 1 0 0.7250000000005199 0.94981617647078953 0 0.770759834363826 0.95919399014344442 0 0.74999999999999989 0.29999999999999999 0 0.72500000000000064 0.2498161764706 0 0.77075983436335049 0.25919399014334171 0 0.69999999999999984 0.29999999999999999 0 0.67933712972090698 0.25920070958121938 0 0.72500000000000064 0.2498161764706 0 0.57611405284611883 0.50165903596042916 0 0.53330375813596242 0.50827942741749099 0 0.53823865529665704 0.45873898050322898 0 0.6499999999999998 0.29999999999999999 0 0.68887083591306764 0.33632058575757479 0 0.65481233915350323 0.35652751921065562 0 0.27866744612395528 0.38416094670951489 0 0.33277555741076909 0.36432196682010132 0 0.31778888742534622 0.40581751814196781 0 0.49102375406324739 0.49123754822244059 0 0.43507373378304309 0.49699695397193322 0 0.46111841286828259 0.46690301029591341 0 0.94999999999999996 0.69999999999999996 0 0.97166519676947294 0.73337114490064459 0 0.94399509803918602 0.75600490196082126 0 0.94999999999986839 0 0 0.97166519676946894 0.033371144900598393 0 0.94399509803922566 0.056004901960802607 0 0.94999999999999996 0.29999999999999999 0 0.94399509803921056 0.24399509803922639 0 0.97166519676951801 0.26662885509932011 0 0.94999999999979179 1 0 0.94399509803919068 0.9439950980391687 0 0.97166519676946206 0.96662885509935492 0 0.34258405725730701 0.4444034294386992 0 0.29124338931648802 0.43334555462578611 0 0.31778888742534622 0.40581751814196781 0 0.27866744612395528 0.38416094670951489 0 0.31778888742534622 0.40581751814196781 0 0.29124338931648802 0.43334555462578611 0 0.36575549820117997 0.31677992835137742 0 0.33277555741076909 0.36432196682010132 0 0.32752639306529541 0.32610012995269699 0 0.35752321586431363 0.9185439911803448 0 0.32544832635163229 0.95485394099568932 0 0.30864387279288652 0.89906554525974958 0 0.27609987656793722 0.94991445621608572 0 0.30864387279288652 0.89906554525974958 0 0.32544832635163229 0.95485394099568932 0 0.33123028043633618 0.77629643437932982 0 0.30857225866488791 0.81101973481716805 0 0.2792923945214143 0.77665808831789485 0 0.33758650185219202 0.23837101504325639 0 0.29132859388405002 0.27203693976649962 0 0.28040350263641872 0.23054717217092141 0 0.4409427642593301 0.35743108089689513 0 0.41914690343363781 0.30688979866601612 0 0.46226845272279993 0.31901800744800313 0 0.14332333627550789 0.14578431753966009 0 0.13737030665753211 0.20313708640667491 0 0.106902708054812 0.16453234188234539 0 0.083105206071467416 0.20007701332709979 0 0.106902708054812 0.16453234188234539 0 0.13737030665753211 0.20313708640667491 0 0.083105206071452636 0.79992298667296435 0 0.1382744753146134 0.79650574229207483 0 0.1074251789111534 0.83564394292147814 0 0.14474682429600511 0.85524784522713515 0 0.1074251789111534 0.83564394292147814 0 0.1382744753146134 0.79650574229207483 0 0.65408113592120842 0.073941773121567966 0 0.7010294155333181 0.056779085686491267 0 0.68330259535470161 0.10038702501083881 0 0.72525833953073282 0.1032114801687094 0 0.68330259535470161 0.10038702501083881 0 0.7010294155333181 0.056779085686491267 0 0.049706944316475897 0.72477277076253799 0 0.046634677244967337 0.671418230738282 0 0.1020579365089687 0.69352219419301997 0 0.086179601630648681 0.64647209519980475 0 0.1020579365089687 0.69352219419301997 0 0.046634677244967337 0.671418230738282 0 0.087545339447545459 0.35122518864182262 0 0.046389130980076937 0.32668781832131749 0 0.093851963071650835 0.30582068233324772 0 0.049706944316556423 0.27522722923869108 0 0.093851963071650835 0.30582068233324772 0 0.046389130980076937 0.32668781832131749 0 0.82709327591091286 0.84937141670920724 0 0.80041942726660109 0.81543261647703358 0 0.84725310900444062 0.80779732082917555 0 0.82709327591102189 0.14937141670914489 0 0.80076557130237269 0.1154587552654202 0 0.84725310900442086 0.10779732082922661 0 0.17933913398461551 0.2350063570234002 0 0.14377654328998779 0.2442024734791064 0 0.13737030665753211 0.20313708640667491 0 0.18269480424590959 0.75905448272264375 0 0.1382744753146134 0.79650574229207483 0 0.14335651144331049 0.75565258250209677 0 0.33758650185219202 0.23837101504325639 0 0.3786248352540974 0.27082301512024259 0 0.33402499257867951 0.28911035184473982 0 0.14332333627550789 0.14578431753966009 0 0.18124454140915969 0.18790916706335251 0 0.13737030665753211 0.20313708640667491 0 0.14474682429600511 0.85524784522713515 0 0.1382744753146134 0.79650574229207483 0 0.17777405986036951 0.81832336108265358 0 0.5 0.29999999999999999 0 0.52752007115234678 0.33170632466418198 0 0.49077833859261139 0.35229981449445641 0 0.27866744612395528 0.38416094670951489 0 0.29644548887253103 0.34914008784168082 0 0.33277555741076909 0.36432196682010132 0 0 0.84999999999965292 0 0 0.79999999999999982 0 0.038512288486097702 0.8155852717111195 0 0 0.20000000000083221 0 0 0.15000000000062411 0 0.038512288486115001 0.1844147282893184 0 0.40326160981139969 0.73346192995102844 0 0.35415581127540569 0.73730480045900215 0 0.36622285152418499 0.69092437780804039 0 0.91696753777131557 0.497780560203536 0 0.96228564064454991 0.48206450662049471 0 0.95631871884947484 0.51827533208233789 0 0.33758650185219202 0.23837101504325639 0 0.31255190597181792 0.19850845631528771 0 0.3572130504031617 0.1874703368446563 0 0.59814117807200873 0.23398510860739519 0 0.62657463266645097 0.26524202571255862 0 0.5794309697024993 0.27124795968204829 0 0.34258405725730701 0.4444034294386992 0 0.31068898841644388 0.47541502461811092 0 0.29124338931648802 0.43334555462578611 0 0.38083244760691543 0.38531983672244652 0 0.35221190152536241 0.40457127605439203 0 0.33277555741076909 0.36432196682010132 0 0.083411279318375747 0.91030024466934134 0 0.10266856499240549 0.95548163909968886 0 0.053064897599294662 0.95186845269532028 0 0.083411279318303222 0.089699755330707398 0 0.053064897599215843 0.048131547304697528 0 0.10266856499169109 0.044518360900210059 0 0.42377727103934271 0.25099357235810238 0 0.4604742573284204 0.27846934318264788 0 0.41914690343363781 0.30688979866601612 0 0.28307294598219601 0.50789252727458634 0 0.25982634974572738 0.46097799597715272 0 0.31068898841644388 0.47541502461811092 0 0.29348325746214782 0.31350119524708198 0 0.29132859388405002 0.27203693976649962 0 0.33402499257867951 0.28911035184473982 0 0.35312867752657662 0.084946736076730367 0 0.39823268594401579 0.1116623613130045 0 0.36246644853392812 0.1399454205365751 0 0.7000000000006934 1 0 0.68015064798562208 0.95924320340003011 0 0.7250000000005199 0.94981617647078953 0 0.42377727103934271 0.25099357235810238 0 0.38831533174504851 0.2189834941785925 0 0.42905200079338551 0.19982395548231649 0 0.53823865529665704 0.45873898050322898 0 0.57744073070774993 0.41535148636609359 0 0.57975577671020095 0.46172033326338591 0 0.33758650185219202 0.23837101504325639 0 0.3572130504031617 0.1874703368446563 0 0.38831533174504851 0.2189834941785925 0 0.29124338931648802 0.43334555462578611 0 0.31068898841644388 0.47541502461811092 0 0.25982634974572738 0.46097799597715272 0 0.6084546825910605 0.37989672713932537 0 0.61959173890754571 0.33832250091341232 0 0.65481233915350323 0.35652751921065562 0 0.40326160981139969 0.73346192995102844 0 0.43323420005758778 0.6913544522562407 0 0.45582236402875981 0.73896743678908217 0 0.33758650185219202 0.23837101504325639 0 0.28040350263641872 0.23054717217092141 0 0.31255190597181792 0.19850845631528771 0 0.79999999999999982 1 0 0.75000000000034661 1 0 0.770759834363826 0.95919399014344442 0 0.74999999999999989 0.29999999999999999 0 0.77075983436335049 0.25919399014334171 0 0.79999999999999982 0.29999999999999999 0 0.6499999999999998 0.29999999999999999 0 0.67933712972090698 0.25920070958121938 0 0.69999999999999984 0.29999999999999999 0 0.39536230704883951 0.84069429572832477 0 0.39767323751400468 0.89584229130535065 0 0.35864759629805099 0.87963482415279515 0 0.54999999999999993 0.69999999999999996 0 0.52584555706968406 0.66664215091846768 0 0.57484956128872922 0.66573805030881994 0 0.35312867752657662 0.084946736076730367 0 0.32541448401678508 0.046215317981507749 0 0.3615861437013822 0.03582617922508851 0 0.35752321586431363 0.9185439911803448 0 0.36184234618600131 0.96443954459096326 0 0.32544832635163229 0.95485394099568932 0 0.35312867752657662 0.084946736076730367 0 0.3615861437013822 0.03582617922508851 0 0.39591832466117061 0.056982757562006353 0 0.35752321586431363 0.9185439911803448 0 0.39641108128798319 0.94356127926187128 0 0.36184234618600131 0.96443954459096326 0 0.083411279318303222 0.089699755330707398 0 0.044310582753132287 0.101412518374475 0 0.053064897599215843 0.048131547304697528 0 0.083411279318375747 0.91030024466934134 0 0.053064897599294662 0.95186845269532028 0 0.0443105827531413 0.89858748162559932 0 0.38083244760691543 0.38531983672244652 0 0.40076539126862748 0.34589349467022118 0 0.42161023666869668 0.39493916313643851 0 0.4409427642593301 0.35743108089689513 0 0.42161023666869668 0.39493916313643851 0 0.40076539126862748 0.34589349467022118 0 0.79999999999999982 0.29999999999999999 0 0.82500000000000062 0.33010209762754811 0 0.78145581580700685 0.34881365920033602 0 0.79999999999999982 0.69999999999999996 0 0.7750489929959945 0.66593931409600093 0 0.82457059160610424 0.66831947184359608 0 0.59999999999999976 0.69999999999999996 0 0.57484956128872922 0.66573805030881994 0 0.62460753523532009 0.66851202781000296 0 0.74999999999999989 0.69999999999999996 0 0.72500000000000064 0.67022701834392062 0 0.7750489929959945 0.66593931409600093 0 0.74999999999999989 0.29999999999999999 0 0.78145581580700685 0.34881365920033602 0 0.73090396928863699 0.33699297293167962 0 0.33758650185219202 0.23837101504325639 0 0.33402499257867951 0.28911035184473982 0 0.29132859388405002 0.27203693976649962 0 0.36575549820117997 0.31677992835137742 0 0.41914690343363781 0.30688979866601612 0 0.40076539126862748 0.34589349467022118 0 0.4409427642593301 0.35743108089689513 0 0.40076539126862748 0.34589349467022118 0 0.41914690343363781 0.30688979866601612 0 0.34258405725730701 0.4444034294386992 0 0.38707855792647411 0.42299362914874578 0 0.3908716102680424 0.47010282357248828 0 0.7000000000006934 1 0 0.65000000000104008 1 0 0.68015064798562208 0.95924320340003011 0 0.49102375406324739 0.49123754822244059 0 0.46111841286828259 0.46690301029591341 0 0.48858720058566618 0.43964267759203868 0 0.4656888918609538 0.78493261229743638 0 0.42676259796334498 0.76772545931379299 0 0.45582236402875981 0.73896743678908217 0 0.40326160981139969 0.73346192995102844 0 0.45582236402875981 0.73896743678908217 0 0.42676259796334498 0.76772545931379299 0 0.59999999999999976 0.29999999999999999 0 0.62657463266645097 0.26524202571255862 0 0.6499999999999998 0.29999999999999999 0 0.40000000000166441 1 0 0.36184234618600131 0.96443954459096326 0 0.39641108128798319 0.94356127926187128 0 0.3999999999989749 0 0 0.39591832466117061 0.056982757562006353 0 0.3615861437013822 0.03582617922508851 0 0.43249999999999988 0.43937499999999979 0 0.48858720058566618 0.43964267759203868 0 0.46111841286828259 0.46690301029591341 0 0.7250000000005199 0.89375000000045834 0 0.7250000000005199 0.94981617647078953 0 0.68987011941058407 0.92105047536677087 0 0.7250000000005199 0.89375000000045834 0 0.75729602384198635 0.92353652857884294 0 0.7250000000005199 0.94981617647078953 0 0.72500000000001008 0.19776155966387679 0 0.75668890529066124 0.2244279804069782 0 0.72500000000000064 0.2498161764706 0 0.72500000000001008 0.19776155966387679 0 0.72500000000000064 0.2498161764706 0 0.69397719155551807 0.2245125647000914 0 0.79999999999999982 0.29999999999999999 0 0.81486180804364938 0.26321394949780091 0 0.84999999999999987 0.29999999999999999 0 0.84999999999965292 1 0 0.79999999999999982 1 0 0.81486180804382891 0.96321394949790495 0 0.1247745017231483 0.27198077544791172 0 0.095326043202144745 0.24554465089224409 0 0.14377654328998779 0.2442024734791064 0 0.1215415378367805 0.72939333680004137 0 0.14335651144331049 0.75565258250209677 0 0.090953281884486245 0.7564451946902494 0 0.72500000000001008 0.19776155966387679 0 0.72634814642510737 0.16106886917518889 0 0.76587607630038135 0.18880039518954719 0 0.72500000000001008 0.19776155966387679 0 0.6865991819015953 0.189116534044597 0 0.72634814642510737 0.16106886917518889 0 0.77144070960558853 0.14311854477243749 0 0.76587607630038135 0.18880039518954719 0 0.72634814642510737 0.16106886917518889 0 0.68391457121233579 0.14440470121196541 0 0.72634814642510737 0.16106886917518889 0 0.6865991819015953 0.189116534044597 0 0.7250000000005199 0.89375000000045834 0 0.72863726579783861 0.85390518901155588 0 0.76891166905518427 0.88835469571185499 0 0.76901770135486491 0.84293557325473656 0 0.76891166905518427 0.88835469571185499 0 0.72863726579783861 0.85390518901155588 0 0 0.20000000000083221 0 0.038512288486115001 0.1844147282893184 0 0.044081577119474857 0.2271058242433576 0 0 0.79999999999999982 0 0.04408157711937423 0.7728941757575627 0 0.038512288486097702 0.8155852717111195 0 0.52375890611712683 0.059318771819432882 0 0.47881186583059909 0.093591717165689425 0 0.47040171442036788 0.044141676406503738 0 0.52122150208832174 0.94089974453840242 0 0.47135117303824892 0.95556877749289892 0 0.47401147028110507 0.91529957330468115 0 0.27474541102162192 0.11822029332053539 0 0.3096713403101819 0.085471541595262421 0 0.32215584939770009 0.1218492143506909 0 0.22278230690790279 0.44824268025881547 0 0.24049127783545701 0.41270748208749802 0 0.25982634974572738 0.46097799597715272 0 0.93732437411268477 0.55911392101136159 0 0.91143117093204207 0.58709913730335972 0 0.90900154012161016 0.53607784105648792 0 0.19901705110390991 0.9175543425573498 0 0.24536017905392571 0.90704567837671446 0 0.22850979588452081 0.95594428570238643 0 0.27609987656793722 0.94991445621608572 0 0.22850979588452081 0.95594428570238643 0 0.24536017905392571 0.90704567837671446 0 0.15720202157091859 0.60665697304410315 0 0.1241190223511371 0.64391885572885044 0 0.1024350934457823 0.60772393977513839 0 0.6499999999999998 0.69999999999999996 0 0.675261390228442 0.65996937624687813 0 0.69999999999999984 0.69999999999999996 0 0.3999999999989749 0 0 0.4320097814748517 0.037406712692169303 0 0.39591832466117061 0.056982757562006353 0 0.40000000000166441 1 0 0.39641108128798319 0.94356127926187128 0 0.4308986359464303 0.96395712492906194 0 0.54999999999999993 0.29999999999999999 0 0.56836770495988642 0.3523062350852913 0 0.52752007115234678 0.33170632466418198 0 0.14474682429600511 0.85524784522713515 0 0.17777405986036951 0.81832336108265358 0 0.19741632902693801 0.86755867406447229 0 0.21858834311891909 0.81980263716112767 0 0.19741632902693801 0.86755867406447229 0 0.17777405986036951 0.81832336108265358 0 0.54782696902220018 0.79245182748204157 0 0.50731287292894423 0.78963574450233831 0 0.50945740445113552 0.75476055527778108 0 0.20000000000083221 1 0 0.18474005699953849 0.96231585248064622 0 0.22850979588452081 0.95594428570238643 0 0.19999999999955789 0 0 0.22668068146512929 0.045875643423131329 0 0.184418230509967 0.038773194583122873 0 0.77846603114747959 0.49850927265137401 0 0.73947346780852752 0.49062440112282169 0 0.77972660463949339 0.45529290596363098 0 0.73483647259922602 0.44789725365921768 0 0.77972660463949339 0.45529290596363098 0 0.73947346780852752 0.49062440112282169 0 0.34258405725730701 0.4444034294386992 0 0.35024835142131061 0.48654922671676981 0 0.31068898841644388 0.47541502461811092 0 0.33123028043633618 0.77629643437932982 0 0.2792923945214143 0.77665808831789485 0 0.29904318922293632 0.74132814928635593 0 0.26573297623774761 0.59828298563722948 0 0.25115337790845271 0.54719303014923271 0 0.29110487519241501 0.56588143995431495 0 0.4656888918609538 0.78493261229743638 0 0.50945740445113552 0.75476055527778108 0 0.50731287292894423 0.78963574450233831 0 0.35312867752657662 0.084946736076730367 0 0.36246644853392812 0.1399454205365751 0 0.32215584939770009 0.1218492143506909 0 0.29348325746214782 0.31350119524708198 0 0.25966125648670141 0.34351016742083729 0 0.24432083401701241 0.3006253385567515 0 0.59999999999999976 0.69999999999999996 0 0.6499999999999998 0.69999999999999996 0 0.63221990677827677 0.73442891067859706 0 0.69999999999921003 0 0 0.7010294155333181 0.056779085686491267 0 0.66369801598854572 0.036327466368102787 0 0.40000000000166441 1 0 0.35000000000145642 1 0 0.36184234618600131 0.96443954459096326 0 0.34999999999912063 0 0 0.3999999999989749 0 0 0.3615861437013822 0.03582617922508851 0 0.43507373378304309 0.49699695397193322 0 0.47793794143994173 0.52940715638744962 0 0.42644501560315817 0.54603747078095544 0 0.14474682429600511 0.85524784522713515 0 0.19741632902693801 0.86755867406447229 0 0.16206583317966519 0.89685560785156404 0 0.19901705110390991 0.9175543425573498 0 0.16206583317966519 0.89685560785156404 0 0.19741632902693801 0.86755867406447229 0 0.35864735590330371 0.63903383440414463 0 0.3977710372045391 0.65868194622830212 0 0.36622285152418499 0.69092437780804039 0 0.7527966693318906 0.053051678021508272 0 0.7010294155333181 0.056779085686491267 0 0.72683645290270404 0.027797073151180601 0 0.71508799138962864 0.36622814920737751 0 0.72622533758026719 0.40265885511101601 0 0.68128176404677243 0.38629093627004979 0 0.79999999999999982 0.69999999999999996 0 0.84999999999999987 0.69999999999999996 0 0.81864958914779962 0.73589050177899629 0 0.79999999999947335 0 0 0.84999999999960507 0 0 0.81864958914740749 0.035890501779055867 0 0.39536230704883951 0.84069429572832477 0 0.35642984951668422 0.80994399665655703 0 0.38586766253264881 0.78219501014812498 0 0.42377727103934271 0.25099357235810238 0 0.46429753744194407 0.22870891180733599 0 0.4604742573284204 0.27846934318264788 0 0.39801143831225599 0.16651381068160659 0 0.42905200079338551 0.19982395548231649 0 0.38831533174504851 0.2189834941785925 0 0.79999999999999982 1 0 0.770759834363826 0.95919399014344442 0 0.81486180804382891 0.96321394949790495 0 0.79999999999999982 0.29999999999999999 0 0.77075983436335049 0.25919399014334171 0 0.81486180804364938 0.26321394949780091 0 0.25195515620380449 0.25883339815888678 0 0.21049769590865089 0.26857363548218488 0 0.224700362040408 0.22206622194729711 0 0.40326160981139969 0.73346192995102844 0 0.42676259796334498 0.76772545931379299 0 0.38586766253264881 0.78219501014812498 0 0.35312867752657662 0.084946736076730367 0 0.3096713403101819 0.085471541595262421 0 0.32541448401678508 0.046215317981507749 0 0.59999999999999976 0.29999999999999999 0 0.6499999999999998 0.29999999999999999 0 0.61959173890754571 0.33832250091341232 0 0.2185883431182947 0.18019736283949719 0 0.18652628422869419 0.14162325200928061 0 0.22985637510995899 0.1298347970200906 0 0.64999999999907843 0 0 0.69999999999921003 0 0 0.66369801598854572 0.036327466368102787 0 0.27499999999933927 0.060310814194988557 0 0.24218496799700481 0.089025544070598317 0 0.22668068146512929 0.045875643423131329 0 0.19922788606653311 0.085920220746880993 0 0.22668068146512929 0.045875643423131329 0 0.24218496799700481 0.089025544070598317 0 0.65507451745379841 0.92229208810758578 0 0.66412543161245952 0.88015090885499059 0 0.68987011941058407 0.92105047536677087 0 0.049706944316475897 0.72477277076253799 0 0.090953281884486245 0.7564451946902494 0 0.04408157711937423 0.7728941757575627 0 0.083105206071452636 0.79992298667296435 0 0.04408157711937423 0.7728941757575627 0 0.090953281884486245 0.7564451946902494 0 0.083105206071467416 0.20007701332709979 0 0.095326043202144745 0.24554465089224409 0 0.044081577119474857 0.2271058242433576 0 0.049706944316556423 0.27522722923869108 0 0.044081577119474857 0.2271058242433576 0 0.095326043202144745 0.24554465089224409 0 0.36575549820117997 0.31677992835137742 0 0.33402499257867951 0.28911035184473982 0 0.3786248352540974 0.27082301512024259 0 0.53245488764484505 0.55078124999999989 0 0.53330375813596242 0.50827942741749099 0 0.57435499076887508 0.54267261987897775 0 0.57611405284611883 0.50165903596042916 0 0.57435499076887508 0.54267261987897775 0 0.53330375813596242 0.50827942741749099 0 0.6499999999999998 0.29999999999999999 0 0.69999999999999984 0.29999999999999999 0 0.68887083591306764 0.33632058575757479 0 0.57611405284611883 0.50165903596042916 0 0.53823865529665704 0.45873898050322898 0 0.57975577671020095 0.46172033326338591 0 0.7750489929959945 0.66593931409600093 0 0.72500000000000064 0.67022701834392062 0 0.74994237037456724 0.62775548192980357 0 0.78145581580700685 0.34881365920033602 0 0.74764719760526988 0.3719647154012321 0 0.73090396928863699 0.33699297293167962 0 0.3999999999989749 0 0 0.44999999999882923 0 0 0.4320097814748517 0.037406712692169303 0 0.45000000000187229 1 0 0.40000000000166441 1 0 0.4308986359464303 0.96395712492906194 0 0.57484956128872922 0.66573805030881994 0 0.5991018319127801 0.62925360607495295 0 0.62460753523532009 0.66851202781000296 0 0.7750489929959945 0.66593931409600093 0 0.79884539758237771 0.62875045078114233 0 0.82457059160610424 0.66831947184359608 0 0.39801143831225599 0.16651381068160659 0 0.36246644853392812 0.1399454205365751 0 0.39823268594401579 0.1116623613130045 0 0.078358742472063481 0.43365249433908948 0 0.033550201249889847 0.46247875832467239 0 0.035463093262830522 0.42673416072819947 0 0.25676291524611189 0.7436741304886243 0 0.2792923945214143 0.77665808831789485 0 0.22556077506376701 0.77837424984191617 0 0.2236846579037573 0.67380363126050236 0 0.2248999640082178 0.72584299459689172 0 0.19068556247388771 0.71028988922845504 0 0.50715858906372158 0.63295939104129484 0 0.5166924242153631 0.59825134841919447 0 0.5498280205245758 0.6290146943450976 0 0.14618258501891079 0.062070108745602003 0 0.12372429750337779 0.095814237875728972 0 0.10266856499169109 0.044518360900210059 0 0.083411279318303222 0.089699755330707398 0 0.10266856499169109 0.044518360900210059 0 0.12372429750337779 0.095814237875728972 0 0.083411279318375747 0.91030024466934134 0 0.1241151115713819 0.9045666525468371 0 0.10266856499240549 0.95548163909968886 0 0.14617343800780541 0.93808063414349496 0 0.10266856499240549 0.95548163909968886 0 0.1241151115713819 0.9045666525468371 0 0.5499999999988151 0 0 0.59999999999894682 0 0 0.57396793757665954 0.037011367187645222 0 0.54782696902220018 0.79245182748204157 0 0.50627822638148745 0.8263979829520941 0 0.50731287292894423 0.78963574450233831 0 0.6499999999999998 0.29999999999999999 0 0.62657463266645097 0.26524202571255862 0 0.67933712972090698 0.25920070958121938 0 0.86956835336234861 0.571283299838105 0 0.86907294890112186 0.52008116128001669 0 0.90900154012161016 0.53607784105648792 0 0.17933913398461551 0.2350063570234002 0 0.224700362040408 0.22206622194729711 0 0.21049769590865089 0.26857363548218488 0 0.43249999999999988 0.43937499999999979 0 0.3908716102680424 0.47010282357248828 0 0.38707855792647411 0.42299362914874578 0 0.27474541102162192 0.11822029332053539 0 0.22985637510995899 0.1298347970200906 0 0.24218496799700481 0.089025544070598317 0 0.64753070846764316 0.77332939069435502 0 0.66427993341343905 0.73232764502436276 0 0.6916490518212759 0.75387992374886192 0 0 0.40000000000166441 0 0.050583896093752537 0.38543522283434112 0 0.035463093262830522 0.42673416072819947 0 0.73483647259922602 0.44789725365921768 0 0.73947346780852752 0.49062440112282169 0 0.69385896817107129 0.48377516041410151 0 0.57484956128872922 0.66573805030881994 0 0.52584555706968406 0.66664215091846768 0 0.5498280205245758 0.6290146943450976 0 0.60000000000138687 1 0 0.55000000000173355 1 0 0.57382506491224949 0.9629411906298494 0 0.068743045408989428 0.48853989837882689 0 0.085622222639554768 0.53333248912060549 0 0.044576108720083309 0.53509043209532614 0 0.083105206071467416 0.20007701332709979 0 0.044081577119474857 0.2271058242433576 0 0.038512288486115001 0.1844147282893184 0 0.083105206071452636 0.79992298667296435 0 0.038512288486097702 0.8155852717111195 0 0.04408157711937423 0.7728941757575627 0 0.28307294598219601 0.50789252727458634 0 0.23975172658309729 0.49475499200540818 0 0.25982634974572738 0.46097799597715272 0 0.43698630808430822 0.080423614171545449 0 0.39591832466117061 0.056982757562006353 0 0.4320097814748517 0.037406712692169303 0 0.4367309254023824 0.92065556789053882 0 0.4308986359464303 0.96395712492906194 0 0.39641108128798319 0.94356127926187128 0 0.80185942888539485 0.77452061303608133 0 0.75841349681148107 0.75422312624214749 0 0.78578450296893509 0.73292684821144505 0 0.80185942888501827 0.074520613036224564 0 0.7527966693318906 0.053051678021508272 0 0.78393852574753176 0.032039079577822822 0 0.6499999999999998 0.69999999999999996 0 0.62460753523532009 0.66851202781000296 0 0.675261390228442 0.65996937624687813 0 0.33123028043633618 0.77629643437932982 0 0.38586766253264881 0.78219501014812498 0 0.35642984951668422 0.80994399665655703 0 0.6405463747586706 0.63290524857395714 0 0.675261390228442 0.65996937624687813 0 0.62460753523532009 0.66851202781000296 0 0.22278230690790279 0.44824268025881547 0 0.191953871957803 0.42546416763755879 0 0.24049127783545701 0.41270748208749802 0 0.077693244765132896 0.56932317963405099 0 0.050069554451969707 0.61308520079857043 0 0.034381862692950467 0.57372682250960894 0 0.25195515620380449 0.25883339815888678 0 0.24432083401701241 0.3006253385567515 0 0.21049769590865089 0.26857363548218488 0 0.46666084890304671 0.57634471035397938 0 0.5166924242153631 0.59825134841919447 0 0.47095389620662098 0.61892551373708504 0 0.50715858906372158 0.63295939104129484 0 0.47095389620662098 0.61892551373708504 0 0.5166924242153631 0.59825134841919447 0 0.72525833953073282 0.1032114801687094 0 0.7527966693318906 0.053051678021508272 0 0.76878382444651716 0.097147941686331368 0 0.80185942888501827 0.074520613036224564 0 0.76878382444651716 0.097147941686331368 0 0.7527966693318906 0.053051678021508272 0 0.72500000000000064 0.7952620967744265 0 0.75841349681148107 0.75422312624214749 0 0.77094201086366854 0.79647480515688507 0 0.80185942888539485 0.77452061303608133 0 0.77094201086366854 0.79647480515688507 0 0.75841349681148107 0.75422312624214749 0 0.72500000000000064 0.7952620967744265 0 0.68024162096458085 0.79868546898116533 0 0.6916490518212759 0.75387992374886192 0 0.64753070846764316 0.77332939069435502 0 0.6916490518212759 0.75387992374886192 0 0.68024162096458085 0.79868546898116533 0 0 0.50000000000205869 0 0 0.45000000000187229 0 0.033550201249889847 0.46247875832467239 0 0.69999999999999984 0.69999999999999996 0 0.675261390228442 0.65996937624687813 0 0.72500000000000064 0.67022701834392062 0 0.71406021706547751 0.63292083137662503 0 0.72500000000000064 0.67022701834392062 0 0.675261390228442 0.65996937624687813 0 0.65408113592120842 0.073941773121567966 0 0.61940220174112337 0.047251958781050582 0 0.66369801598854572 0.036327466368102787 0 0.59999999999894682 0 0 0.61940220174112337 0.047251958781050582 0 0.57396793757665954 0.037011367187645222 0 0.60000000000138687 1 0 0.57382506491224949 0.9629411906298494 0 0.62065498684670595 0.95224934003983619 0 0.33122374654748771 0.57588941099433744 0 0.35765792684946668 0.6000687869219653 0 0.31502927232353312 0.6134992213375432 0 0.35864735590330371 0.63903383440414463 0 0.31502927232353312 0.6134992213375432 0 0.35765792684946668 0.6000687869219653 0 0.15801167086041079 0.46008690540259539 0 0.19604738184454831 0.47787523520405789 0 0.16618607197337229 0.50652878253548905 0 0.078358742472063481 0.43365249433908948 0 0.035463093262830522 0.42673416072819947 0 0.050583896093752537 0.38543522283434112 0 0.19901705110390991 0.9175543425573498 0 0.22850979588452081 0.95594428570238643 0 0.18474005699953849 0.96231585248064622 0 0.19922788606653311 0.085920220746880993 0 0.184418230509967 0.038773194583122873 0 0.22668068146512929 0.045875643423131329 0 0.19922788606653311 0.085920220746880993 0 0.24218496799700481 0.089025544070598317 0 0.22985637510995899 0.1298347970200906 0 0.74999999999999989 0.69999999999999996 0 0.78578450296893509 0.73292684821144505 0 0.75841349681148107 0.75422312624214749 0 0.74999999999934175 0 0 0.78393852574753176 0.032039079577822822 0 0.7527966693318906 0.053051678021508272 0 0 0.60000000000138687 0 0.034381862692950467 0.57372682250960894 0 0.050069554451969707 0.61308520079857043 0 0.2236846579037573 0.67380363126050236 0 0.26439878998046262 0.7048065392091396 0 0.2248999640082178 0.72584299459689172 0 0.6236733212988993 0.14864538214901801 0 0.58516465772821369 0.11653801664834119 0 0.61956000905586006 0.1043312481793135 0 0.26104540868854792 0.81401944968719064 0 0.2792923945214143 0.77665808831789485 0 0.30857225866488791 0.81101973481716805 0 0.42377727103934271 0.25099357235810238 0 0.42905200079338551 0.19982395548231649 0 0.46429753744194407 0.22870891180733599 0 0.27820712747429932 0.65530134213254643 0 0.31502927232353312 0.6134992213375432 0 0.32263089806001177 0.66003674931826484 0 0.61343887413683884 0.856862479058357 0 0.61885627562261258 0.90282959257498208 0 0.5832743223239254 0.88483152652961872 0 0.43698630808430822 0.080423614171545449 0 0.47040171442036788 0.044141676406503738 0 0.47881186583059909 0.093591717165689425 0 0.4367309254023824 0.92065556789053882 0 0.47401147028110507 0.91529957330468115 0 0.47135117303824892 0.95556877749289892 0 0.91696753777131557 0.497780560203536 0 0.95631871884947484 0.51827533208233789 0 0.90900154012161016 0.53607784105648792 0 0.93732437411268477 0.55911392101136159 0 0.90900154012161016 0.53607784105648792 0 0.95631871884947484 0.51827533208233789 0 0.27474541102162192 0.11822029332053539 0 0.25557216766470708 0.15874861286892261 0 0.22985637510995899 0.1298347970200906 0 0.2185883431182947 0.18019736283949719 0 0.22985637510995899 0.1298347970200906 0 0.25557216766470708 0.15874861286892261 0 0.29348325746214782 0.31350119524708198 0 0.33402499257867951 0.28911035184473982 0 0.32752639306529541 0.32610012995269699 0 0.27499999999933927 0.060310814194988557 0 0.32541448401678508 0.046215317981507749 0 0.3096713403101819 0.085471541595262421 0 0.27270076654418179 0.87751467830216623 0 0.24536017905392571 0.90704567837671446 0 0.2401283238295133 0.85648409884788523 0 1 0.44999999999963131 0 1 0.49999999999950101 0 0.96228564064454991 0.48206450662049471 0 0.61343887413683884 0.856862479058357 0 0.66412543161245952 0.88015090885499059 0 0.61885627562261258 0.90282959257498208 0 0 0.45000000000187229 0 0 0.40000000000166441 0 0.035463093262830522 0.42673416072819947 0 0.69999999999999984 0.69999999999999996 0 0.6916490518212759 0.75387992374886192 0 0.66427993341343905 0.73232764502436276 0 0.43846182030517877 0.64845797726506715 0 0.43323420005758778 0.6913544522562407 0 0.3977710372045391 0.65868194622830212 0 0.4367309254023824 0.92065556789053882 0 0.44003836461056539 0.88093474584252718 0 0.47401147028110507 0.91529957330468115 0 0.43846182030517877 0.64845797726506715 0 0.39743091024207589 0.6239520004230239 0 0.43545892161006339 0.61093128915313821 0 0.43846182030517877 0.64845797726506715 0 0.3977710372045391 0.65868194622830212 0 0.39743091024207589 0.6239520004230239 0 0.26429849586623999 0.19346700179430079 0 0.29336099386129338 0.15892013001050981 0 0.31255190597181792 0.19850845631528771 0 0.19670163708476801 0.31472518408333222 0 0.21049769590865089 0.26857363548218488 0 0.24432083401701241 0.3006253385567515 0 0.57724883562309992 0.92155686857100794 0 0.62065498684670595 0.95224934003983619 0 0.57382506491224949 0.9629411906298494 0 0.4409427642593301 0.35743108089689513 0 0.46655310992796922 0.39650496622958609 0 0.42161023666869668 0.39493916313643851 0 0.46666084890304671 0.57634471035397938 0 0.47095389620662098 0.61892551373708504 0 0.43545892161006339 0.61093128915313821 0 0.6879972333610942 0.43038561374960838 0 0.65178832218679827 0.45929119821019959 0 0.63912439215427275 0.41063340167983359 0 0.43698630808430822 0.080423614171545449 0 0.4320097814748517 0.037406712692169303 0 0.47040171442036788 0.044141676406503738 0 0.4367309254023824 0.92065556789053882 0 0.47135117303824892 0.95556877749289892 0 0.4308986359464303 0.96395712492906194 0 0.79680861578988083 0.92656778056766709 0 0.81486180804382891 0.96321394949790495 0 0.770759834363826 0.95919399014344442 0 0.79680861578956375 0.22656778056752541 0 0.81486180804364938 0.26321394949780091 0 0.77075983436335049 0.25919399014334171 0 0.71508799138962864 0.36622814920737751 0 0.68128176404677243 0.38629093627004979 0 0.68887083591306764 0.33632058575757479 0 0.35864735590330371 0.63903383440414463 0 0.32263089806001177 0.66003674931826484 0 0.31502927232353312 0.6134992213375432 0 0.21858834311891909 0.81980263716112767 0 0.2401283238295133 0.85648409884788523 0 0.19741632902693801 0.86755867406447229 0 0.35312867752657662 0.084946736076730367 0 0.32215584939770009 0.1218492143506909 0 0.3096713403101819 0.085471541595262421 0 0.35752321586431363 0.9185439911803448 0 0.35864759629805099 0.87963482415279515 0 0.39767323751400468 0.89584229130535065 0 0.41914690343363781 0.30688979866601612 0 0.4604742573284204 0.27846934318264788 0 0.46226845272279993 0.31901800744800313 0 0.33084213324567391 0.16272720141332131 0 0.32215584939770009 0.1218492143506909 0 0.36246644853392812 0.1399454205365751 0 0.46666084890304671 0.57634471035397938 0 0.42644501560315817 0.54603747078095544 0 0.47793794143994173 0.52940715638744962 0 0 0.60000000000138687 0 0 0.55000000000173355 0 0.034381862692950467 0.57372682250960894 0 0.77354604466818633 0.40378688774472771 0 0.74764719760526988 0.3719647154012321 0 0.78145581580700685 0.34881365920033602 0 0.34999999999912063 0 0 0.3615861437013822 0.03582617922508851 0 0.32541448401678508 0.046215317981507749 0 0.35000000000145642 1 0 0.32544832635163229 0.95485394099568932 0 0.36184234618600131 0.96443954459096326 0 0.57667858002728545 0.078486105337742612 0 0.57396793757665954 0.037011367187645222 0 0.61940220174112337 0.047251958781050582 0 0.47357141910802508 0.1873585799078378 0 0.50760557329222289 0.20700468884612061 0 0.46429753744194407 0.22870891180733599 0 0.49695729691142171 0.25014895411178018 0 0.46429753744194407 0.22870891180733599 0 0.50760557329222289 0.20700468884612061 0 0.33084213324567391 0.16272720141332131 0 0.3572130504031617 0.1874703368446563 0 0.31255190597181792 0.19850845631528771 0 0.6879972333610942 0.43038561374960838 0 0.63912439215427275 0.41063340167983359 0 0.68128176404677243 0.38629093627004979 0 0.65408113592120842 0.073941773121567966 0 0.65290632656860115 0.11434202593454081 0 0.61956000905586006 0.1043312481793135 0 0.33084213324567391 0.16272720141332131 0 0.31255190597181792 0.19850845631528771 0 0.29336099386129338 0.15892013001050981 0 0.61209567303293111 0.44669033081290321 0 0.63912439215427275 0.41063340167983359 0 0.65178832218679827 0.45929119821019959 0 0.086179601630648681 0.64647209519980475 0 0.1024350934457823 0.60772393977513839 0 0.1241190223511371 0.64391885572885044 0 0.44999999999882923 0 0 0.47040171442036788 0.044141676406503738 0 0.4320097814748517 0.037406712692169303 0 0.45000000000187229 1 0 0.4308986359464303 0.96395712492906194 0 0.47135117303824892 0.95556877749289892 0 0.74999999999934175 0 0 0.7527966693318906 0.053051678021508272 0 0.72683645290270404 0.027797073151180601 0 0.74999999999999989 0.69999999999999996 0 0.75841349681148107 0.75422312624214749 0 0.72501250972655151 0.74067302935308721 0 0.69999999999999984 0.69999999999999996 0 0.72501250972655151 0.74067302935308721 0 0.6916490518212759 0.75387992374886192 0 0.74999999999934175 0 0 0.79999999999947335 0 0 0.78393852574753176 0.032039079577822822 0 0.74999999999999989 0.69999999999999996 0 0.79999999999999982 0.69999999999999996 0 0.78578450296893509 0.73292684821144505 0 0.6405463747586706 0.63290524857395714 0 0.5991018319127801 0.62925360607495295 0 0.63065402604362242 0.59661356661633302 0 0.65481233915350323 0.35652751921065562 0 0.68887083591306764 0.33632058575757479 0 0.68128176404677243 0.38629093627004979 0 0.89999999999999991 0.29999999999999999 0 0.94999999999999996 0.29999999999999999 0 0.92012390126144183 0.33123581297173937 0 0.89999999999999991 0.69999999999999996 0 0.92057473616084773 0.66770436535372446 0 0.94999999999999996 0.69999999999999996 0 0.4367309254023824 0.92065556789053882 0 0.39767323751400468 0.89584229130535065 0 0.44003836461056539 0.88093474584252718 0 0.2185883431182947 0.18019736283949719 0 0.18124454140915969 0.18790916706335251 0 0.18652628422869419 0.14162325200928061 0 0.20050006573841939 0.53248514016039872 0 0.19604738184454831 0.47787523520405789 0 0.23975172658309729 0.49475499200540818 0 0.65507451745379841 0.92229208810758578 0 0.61885627562261258 0.90282959257498208 0 0.66412543161245952 0.88015090885499059 0 0.65394964615507722 0.22666784374016369 0 0.67933712972090698 0.25920070958121938 0 0.62657463266645097 0.26524202571255862 0 0.077693244765132896 0.56932317963405099 0 0.034381862692950467 0.57372682250960894 0 0.044576108720083309 0.53509043209532614 0 0.39801143831225599 0.16651381068160659 0 0.38831533174504851 0.2189834941785925 0 0.3572130504031617 0.1874703368446563 0 0.6499999999999998 0.69999999999999996 0 0.69999999999999984 0.69999999999999996 0 0.66427993341343905 0.73232764502436276 0 0.1215415378367805 0.72939333680004137 0 0.15332765547575641 0.71200081858233666 0 0.14335651144331049 0.75565258250209677 0 0.6405463747586706 0.63290524857395714 0 0.63065402604362242 0.59661356661633302 0 0.67529834988829951 0.61613270668143583 0 0.67323294229744413 0.57556450033612505 0 0.67529834988829951 0.61613270668143583 0 0.63065402604362242 0.59661356661633302 0 0.91750694127107502 0.36982372220068471 0 0.87430060258887643 0.34056085888204451 0 0.92012390126144183 0.33123581297173937 0 0.89999999999999991 0.29999999999999999 0 0.92012390126144183 0.33123581297173937 0 0.87430060258887643 0.34056085888204451 0 0.89999999999999991 0.69999999999999996 0 0.87712158428786946 0.65709029563313581 0 0.92057473616084773 0.66770436535372446 0 0.91750694127105259 0.63017627779935648 0 0.92057473616084773 0.66770436535372446 0 0.87712158428786946 0.65709029563313581 0 0.33122374654748771 0.57588941099433744 0 0.29110487519241501 0.56588143995431495 0 0.33190227185843768 0.52715113583864037 0 0.57484956128872922 0.66573805030881994 0 0.5498280205245758 0.6290146943450976 0 0.5991018319127801 0.62925360607495295 0 0.57412547362576272 0.58273804879550706 0 0.5991018319127801 0.62925360607495295 0 0.5498280205245758 0.6290146943450976 0 0.65408113592120842 0.073941773121567966 0 0.66369801598854572 0.036327466368102787 0 0.7010294155333181 0.056779085686491267 0 0.27474541102162192 0.11822029332053539 0 0.32215584939770009 0.1218492143506909 0 0.29336099386129338 0.15892013001050981 0 0.33084213324567391 0.16272720141332131 0 0.29336099386129338 0.15892013001050981 0 0.32215584939770009 0.1218492143506909 0 0.5 0.29999999999999999 0 0.54999999999999993 0.29999999999999999 0 0.52752007115234678 0.33170632466418198 0 0.83573492347052902 0.36590755630746369 0 0.87430060258887643 0.34056085888204451 0 0.86844634540301924 0.38530937474099819 0 0.83758014339878906 0.63222013025741819 0 0.87159648282691515 0.61285406320581504 0 0.87712158428786946 0.65709029563313581 0 0.22278230690790279 0.44824268025881547 0 0.23975172658309729 0.49475499200540818 0 0.19604738184454831 0.47787523520405789 0 1 0.49999999999950101 0 0.95631871884947484 0.51827533208233789 0 0.96228564064454991 0.48206450662049471 0 0.1650278706801647 0.38791388161335733 0 0.13773355295499351 0.42497777642586831 0 0.1117088112799664 0.38831403004970022 0 0.61209567303293111 0.44669033081290321 0 0.57975577671020095 0.46172033326338591 0 0.57744073070774993 0.41535148636609359 0 0.077693244765132896 0.56932317963405099 0 0.1154888278694548 0.56733818459978413 0 0.1024350934457823 0.60772393977513839 0 0.68697391633157634 0.84450604838764298 0 0.65005442820240822 0.82644988530054031 0 0.68024162096458085 0.79868546898116533 0 0.76901770135486491 0.84293557325473656 0 0.77094201086366854 0.79647480515688507 0 0.80041942726660109 0.81543261647703358 0 0.77144070960558853 0.14311854477243749 0 0.76878382444651716 0.097147941686331368 0 0.80076557130237269 0.1154587552654202 0 0.5 0.69999999999999996 0 0.52584555706968406 0.66664215091846768 0 0.54999999999999993 0.69999999999999996 0 0.077693244765132896 0.56932317963405099 0 0.044576108720083309 0.53509043209532614 0 0.085622222639554768 0.53333248912060549 0 0.69999999999921003 0 0 0.72683645290270404 0.027797073151180601 0 0.7010294155333181 0.056779085686491267 0 1 0 0 0.97166519676946894 0.033371144900598393 0 0.94999999999986839 0 0 1 0.69999999999999996 0 0.97166519676947294 0.73337114490064459 0 0.94999999999999996 0.69999999999999996 0 1 0.69999999999999996 0 1 0.74999999999993494 0 0.97166519676947294 0.73337114490064459 0 1 0.29999999999999999 0 0.97166519676951801 0.26662885509932011 0 1 0.24999999999987299 0 1 1 0 0.94999999999979179 1 0 0.97166519676946206 0.96662885509935492 0 1 0 0 1 0.049999999999896842 0 0.97166519676946894 0.033371144900598393 0 1 0.29999999999999999 0 0.94999999999999996 0.29999999999999999 0 0.97166519676951801 0.26662885509932011 0 1 1 0 0.97166519676946206 0.96662885509935492 0 1 0.94999999999997109 0 0 0.55000000000173355 0 0.044576108720083309 0.53509043209532614 0 0.034381862692950467 0.57372682250960894 0 0.6879972333610942 0.43038561374960838 0 0.69385896817107129 0.48377516041410151 0 0.65178832218679827 0.45929119821019959 0 0.33084213324567391 0.16272720141332131 0 0.36246644853392812 0.1399454205365751 0 0.3572130504031617 0.1874703368446563 0 0.65408113592120842 0.073941773121567966 0 0.68330259535470161 0.10038702501083881 0 0.65290632656860115 0.11434202593454081 0 0.16500388252850301 0.66612077714085194 0 0.19068556247388771 0.71028988922845504 0 0.15332765547575641 0.71200081858233666 0 0.82709327591091286 0.84937141670920724 0 0.85600844944837662 0.88483418979512773 0 0.81159157511211755 0.88795995483179491 0 0.82709327591102189 0.14937141670914489 0 0.85600844944842547 0.1848341897950983 0 0.81283102246527783 0.1881007222486438 0 0.79999999999999982 0.29999999999999999 0 0.84999999999999987 0.29999999999999999 0 0.82500000000000062 0.33010209762754811 0 0.79999999999999982 0.69999999999999996 0 0.82457059160610424 0.66831947184359608 0 0.84999999999999987 0.69999999999999996 0 0.59999999999999976 0.69999999999999996 0 0.62460753523532009 0.66851202781000296 0 0.6499999999999998 0.69999999999999996 0 0.39801143831225599 0.16651381068160659 0 0.3572130504031617 0.1874703368446563 0 0.36246644853392812 0.1399454205365751 0 0.69999999999999984 0.29999999999999999 0 0.74999999999999989 0.29999999999999999 0 0.73090396928863699 0.33699297293167962 0 0.69999999999999984 0.69999999999999996 0 0.72500000000000064 0.67022701834392062 0 0.74999999999999989 0.69999999999999996 0 0.6236733212988993 0.14864538214901801 0 0.64011864159029941 0.18789607982138171 0 0.59443395090188023 0.18455690917515069 0 0.20050006573841939 0.53248514016039872 0 0.16618607197337229 0.50652878253548905 0 0.19604738184454831 0.47787523520405789 0 0.79680861578956375 0.22656778056752541 0 0.76587607630038135 0.18880039518954719 0 0.81283102246527783 0.1881007222486438 0 0.79680861578988083 0.92656778056766709 0 0.76891166905518427 0.88835469571185499 0 0.81159157511211755 0.88795995483179491 0 0.71406021706547751 0.63292083137662503 0 0.675261390228442 0.65996937624687813 0 0.67529834988829951 0.61613270668143583 0 0.6405463747586706 0.63290524857395714 0 0.67529834988829951 0.61613270668143583 0 0.675261390228442 0.65996937624687813 0 0.19670163708476801 0.31472518408333222 0 0.168349569971391 0.28054490850913671 0 0.21049769590865089 0.26857363548218488 0 0.47357141910802508 0.1873585799078378 0 0.46429753744194407 0.22870891180733599 0 0.42905200079338551 0.19982395548231649 0 0.59814117807200873 0.23398510860739519 0 0.5794309697024993 0.27124795968204829 0 0.54248833945060504 0.2520322959927106 0 0.6541250972820879 0.49999999999999989 0 0.65178832218679827 0.45929119821019959 0 0.69385896817107129 0.48377516041410151 0 0.54999999999999993 0.29999999999999999 0 0.5794309697024993 0.27124795968204829 0 0.59999999999999976 0.29999999999999999 0 0.7750489929959945 0.66593931409600093 0 0.74994237037456724 0.62775548192980357 0 0.79884539758237771 0.62875045078114233 0 0.77293540622714185 0.59448302402785813 0 0.79884539758237771 0.62875045078114233 0 0.74994237037456724 0.62775548192980357 0 0.14332333627550789 0.14578431753966009 0 0.16141998738593399 0.10404039647458049 0 0.18652628422869419 0.14162325200928061 0 0.38083244760691543 0.38531983672244652 0 0.42161023666869668 0.39493916313643851 0 0.38707855792647411 0.42299362914874578 0 0.43249999999999988 0.43937499999999979 0 0.38707855792647411 0.42299362914874578 0 0.42161023666869668 0.39493916313643851 0 0.43846182030517877 0.64845797726506715 0 0.47095389620662098 0.61892551373708504 0 0.47913475093885149 0.66010775372412711 0 0.50715858906372158 0.63295939104129484 0 0.47913475093885149 0.66010775372412711 0 0.47095389620662098 0.61892551373708504 0 0.69999999999999984 0.69999999999999996 0 0.74999999999999989 0.69999999999999996 0 0.72501250972655151 0.74067302935308721 0 0.4089290844030305 0.58728915500154233 0 0.35765792684946668 0.6000687869219653 0 0.37272913873093971 0.56192925302619479 0 0.69999999999921003 0 0 0.74999999999934175 0 0 0.72683645290270404 0.027797073151180601 0 0.17933913398461551 0.2350063570234002 0 0.21049769590865089 0.26857363548218488 0 0.168349569971391 0.28054490850913671 0 0.14474682429600511 0.85524784522713515 0 0.10562472963403439 0.87143394428979881 0 0.1074251789111534 0.83564394292147814 0 0.14332333627550789 0.14578431753966009 0 0.106902708054812 0.16453234188234539 0 0.1053400320299198 0.12877248826361379 0 0.2236846579037573 0.67380363126050236 0 0.19914261668318661 0.62286739485272158 0 0.2459498854893499 0.63248470766216769 0 0.049999999999899652 0 0 0.053064897599215843 0.048131547304697528 0 0.02576622439977887 0.024532886826226379 0 0 0.050000000000207989 0 0.02576622439977887 0.024532886826226379 0 0.053064897599215843 0.048131547304697528 0 0.050000000000207989 1 0 0.025766224399875661 0.97546711317377799 0 0.053064897599294662 0.95186845269532028 0 0 0.94999999999979179 0 0.053064897599294662 0.95186845269532028 0 0.025766224399875661 0.97546711317377799 0 0.47357141910802508 0.1873585799078378 0 0.48466639505193998 0.1421439844745814 0 0.51729576145820033 0.1683240575987815 0 0.077693244765132896 0.56932317963405099 0 0.085622222639554768 0.53333248912060549 0 0.1154888278694548 0.56733818459978413 0 0.64753070846764316 0.77332939069435502 0 0.63221990677827677 0.73442891067859706 0 0.66427993341343905 0.73232764502436276 0 0.4656888918609538 0.78493261229743638 0 0.42609163930740518 0.80361684430568059 0 0.42676259796334498 0.76772545931379299 0 0.4089290844030305 0.58728915500154233 0 0.39743091024207589 0.6239520004230239 0 0.35765792684946668 0.6000687869219653 0 0.55306006949600994 0.20198184231352201 0 0.50760557329222289 0.20700468884612061 0 0.51729576145820033 0.1683240575987815 0 1 0.8999999999998336 0 1 0.94999999999997109 0 0.97435614836744289 0.92499999999990257 0 1 0.19999999999974799 0 1 0.24999999999987299 0 0.97435614836740092 0.22499999999981049 0 1 0.74999999999993494 0 1 0.7999999999998193 0 0.97435614836745565 0.77499999999987745 0 1 0.049999999999896842 0 1 0.099999999999753911 0 0.97435614836748241 0.074999999999825387 0 0.86411095495256451 0.42388805655111889 0 0.86844634540301924 0.38530937474099819 0 0.90594285160987287 0.4141265964174129 0 0.86956835336234861 0.571283299838105 0 0.91143117093204207 0.58709913730335972 0 0.87159648282691515 0.61285406320581504 0 0 0 0 0.02576622439977887 0.024532886826226379 0 0 0.050000000000207989 0 0 1 0 0 0.94999999999979179 0 0.025766224399875661 0.97546711317377799 0 0 1 0 0.025766224399875661 0.97546711317377799 0 0.050000000000207989 1 0 0 0 0 0.049999999999899652 0 0 0.02576622439977887 0.024532886826226379 0 0.65394964615507722 0.22666784374016369 0 0.64011864159029941 0.18789607982138171 0 0.6865991819015953 0.189116534044597 0 0.25195515620380449 0.25883339815888678 0 0.28040350263641872 0.23054717217092141 0 0.29132859388405002 0.27203693976649962 0 0.61209567303293111 0.44669033081290321 0 0.65178832218679827 0.45929119821019959 0 0.61547661924074692 0.48539576058873962 0 0.6541250972820879 0.49999999999999989 0 0.61547661924074692 0.48539576058873962 0 0.65178832218679827 0.45929119821019959 0 0.19670163708476801 0.31472518408333222 0 0.24432083401701241 0.3006253385567515 0 0.22615676742807109 0.33458786033114157 0 0.15801167086041079 0.46008690540259539 0 0.13773355295499351 0.42497777642586831 0 0.191953871957803 0.42546416763755879 0 0.1650278706801647 0.38791388161335733 0 0.191953871957803 0.42546416763755879 0 0.13773355295499351 0.42497777642586831 0 0.50715858906372158 0.63295939104129484 0 0.52584555706968406 0.66664215091846768 0 0.47913475093885149 0.66010775372412711 0 0.5 0.69999999999999996 0 0.47913475093885149 0.66010775372412711 0 0.52584555706968406 0.66664215091846768 0 0.51076801031701946 0.1202837388510348 0 0.51729576145820033 0.1683240575987815 0 0.48466639505193998 0.1421439844745814 0 0.71406021706547751 0.63292083137662503 0 0.74994237037456724 0.62775548192980357 0 0.72500000000000064 0.67022701834392062 0 0.71508799138962864 0.36622814920737751 0 0.73090396928863699 0.33699297293167962 0 0.74764719760526988 0.3719647154012321 0 0.22278230690790279 0.44824268025881547 0 0.25982634974572738 0.46097799597715272 0 0.23975172658309729 0.49475499200540818 0 0.80185942888539485 0.77452061303608133 0 0.78578450296893509 0.73292684821144505 0 0.81864958914779962 0.73589050177899629 0 0.80185942888501827 0.074520613036224564 0 0.78393852574753176 0.032039079577822822 0 0.81864958914740749 0.035890501779055867 0 0.5 0.29999999999999999 0 0.46226845272279993 0.31901800744800313 0 0.4604742573284204 0.27846934318264788 0 0.6405463747586706 0.63290524857395714 0 0.62460753523532009 0.66851202781000296 0 0.5991018319127801 0.62925360607495295 0 0.79680861578988083 0.92656778056766709 0 0.770759834363826 0.95919399014344442 0 0.75729602384198635 0.92353652857884294 0 0.79680861578956375 0.22656778056752541 0 0.77075983436335049 0.25919399014334171 0 0.75668890529066124 0.2244279804069782 0 0.65394964615507722 0.22666784374016369 0 0.69397719155551807 0.2245125647000914 0 0.67933712972090698 0.25920070958121938 0 0.81973119833356312 0.43505687159469048 0 0.84925632466077294 0.45359738909549091 0 0.81400510706333218 0.47357325943904899 0 0.83758014339878906 0.63222013025741819 0 0.82457059160610424 0.66831947184359608 0 0.79884539758237771 0.62875045078114233 0 0.25676291524611189 0.7436741304886243 0 0.2248999640082178 0.72584299459689172 0 0.26439878998046262 0.7048065392091396 0 0.91696753777131557 0.497780560203536 0 0.90900154012161016 0.53607784105648792 0 0.86907294890112186 0.52008116128001669 0 0.17933913398461551 0.2350063570234002 0 0.168349569971391 0.28054490850913671 0 0.14377654328998779 0.2442024734791064 0 0.1247745017231483 0.27198077544791172 0 0.14377654328998779 0.2442024734791064 0 0.168349569971391 0.28054490850913671 0 0.34258405725730701 0.4444034294386992 0 0.35221190152536241 0.40457127605439203 0 0.38707855792647411 0.42299362914874578 0 0.47357141910802508 0.1873585799078378 0 0.51729576145820033 0.1683240575987815 0 0.50760557329222289 0.20700468884612061 0 0.19670163708476801 0.31472518408333222 0 0.22615676742807109 0.33458786033114157 0 0.18434624290945251 0.35208838264196463 0 0.22033343844674469 0.36963382230740238 0 0.18434624290945251 0.35208838264196463 0 0.22615676742807109 0.33458786033114157 0 0.24432083401701241 0.3006253385567515 0 0.25966125648670141 0.34351016742083729 0 0.22615676742807109 0.33458786033114157 0 0.93814194660195893 0.44426664081746747 0 0.90594285160987287 0.4141265964174129 0 0.95871855522754235 0.40006508612975411 0 0.91750694127107502 0.36982372220068471 0 0.95871855522754235 0.40006508612975411 0 0.90594285160987287 0.4141265964174129 0 0.91750694127105259 0.63017627779935648 0 0.91143117093204207 0.58709913730335972 0 0.95867599106212187 0.60011091146651041 0 0.93732437411268477 0.55911392101136159 0 0.95867599106212187 0.60011091146651041 0 0.91143117093204207 0.58709913730335972 0 0.50715858906372158 0.63295939104129484 0 0.5498280205245758 0.6290146943450976 0 0.52584555706968406 0.66664215091846768 0 0.94399509803918602 0.75600490196082126 0 0.97435614836745565 0.77499999999987745 0 0.95386563387742829 0.80414874155775029 0 0.94399509803922566 0.056004901960802607 0 0.97435614836748241 0.074999999999825387 0 0.95386563387744361 0.1041487415577465 0 0.94399509803921056 0.24399509803922639 0 0.95391631417672862 0.19584263333809451 0 0.97435614836740092 0.22499999999981049 0 0.94399509803919068 0.9439950980391687 0 0.95391631417670719 0.89584263333814784 0 0.97435614836744289 0.92499999999990257 0 0.79680861578988083 0.92656778056766709 0 0.75729602384198635 0.92353652857884294 0 0.76891166905518427 0.88835469571185499 0 0.79680861578956375 0.22656778056752541 0 0.75668890529066124 0.2244279804069782 0 0.76587607630038135 0.18880039518954719 0 0.65394964615507722 0.22666784374016369 0 0.6865991819015953 0.189116534044597 0 0.69397719155551807 0.2245125647000914 0 0.38083244760691543 0.38531983672244652 0 0.38707855792647411 0.42299362914874578 0 0.35221190152536241 0.40457127605439203 0 1 0.7999999999998193 0 0.95386563387742829 0.80414874155775029 0 0.97435614836745565 0.77499999999987745 0 1 0.099999999999753911 0 0.95386563387744361 0.1041487415577465 0 0.97435614836748241 0.074999999999825387 0 1 0.8999999999998336 0 0.97435614836744289 0.92499999999990257 0 0.95391631417670719 0.89584263333814784 0 1 0.19999999999974799 0 0.97435614836740092 0.22499999999981049 0 0.95391631417672862 0.19584263333809451 0 0.84723782639812573 0.48638347960178252 0 0.81400510706333218 0.47357325943904899 0 0.84925632466077294 0.45359738909549091 0 0.54999999999999993 0.29999999999999999 0 0.54248833945060504 0.2520322959927106 0 0.5794309697024993 0.27124795968204829 0 0.94999999999999996 0.29999999999999999 0 0.95780851984364423 0.34215720972155339 0 0.92012390126144183 0.33123581297173937 0 0.94999999999999996 0.69999999999999996 0 0.92057473616084773 0.66770436535372446 0 0.9578014258160763 0.65787212321113708 0 0.15801167086041079 0.46008690540259539 0 0.113541300460994 0.46208784312094731 0 0.13773355295499351 0.42497777642586831 0 0.7250000000005199 0.94981617647078953 0 0.68015064798562208 0.95924320340003011 0 0.68987011941058407 0.92105047536677087 0 0.65507451745379841 0.92229208810758578 0 0.68987011941058407 0.92105047536677087 0 0.68015064798562208 0.95924320340003011 0 0.77846603114747959 0.49850927265137401 0 0.77972660463949339 0.45529290596363098 0 0.81400510706333218 0.47357325943904899 0 0.27866744612395528 0.38416094670951489 0 0.25966125648670141 0.34351016742083729 0 0.29644548887253103 0.34914008784168082 0 0.61209567303293111 0.44669033081290321 0 0.61547661924074692 0.48539576058873962 0 0.57975577671020095 0.46172033326338591 0 0.57611405284611883 0.50165903596042916 0 0.57975577671020095 0.46172033326338591 0 0.61547661924074692 0.48539576058873962 0 0.7250000000005199 0.89375000000045834 0 0.76891166905518427 0.88835469571185499 0 0.75729602384198635 0.92353652857884294 0 0.72500000000001008 0.19776155966387679 0 0.76587607630038135 0.18880039518954719 0 0.75668890529066124 0.2244279804069782 0 0.72500000000001008 0.19776155966387679 0 0.69397719155551807 0.2245125647000914 0 0.6865991819015953 0.189116534044597 0 0.083411279318303222 0.089699755330707398 0 0.12372429750337779 0.095814237875728972 0 0.1053400320299198 0.12877248826361379 0 0.083411279318375747 0.91030024466934134 0 0.10562472963403439 0.87143394428979881 0 0.1241151115713819 0.9045666525468371 0 0.14617343800780541 0.93808063414349496 0 0.1241151115713819 0.9045666525468371 0 0.16206583317966519 0.89685560785156404 0 0.14618258501891079 0.062070108745602003 0 0.16141998738593399 0.10404039647458049 0 0.12372429750337779 0.095814237875728972 0 0.33277555741076909 0.36432196682010132 0 0.35221190152536241 0.40457127605439203 0 0.31778888742534622 0.40581751814196781 0 0.7250000000005199 0.94981617647078953 0 0.75729602384198635 0.92353652857884294 0 0.770759834363826 0.95919399014344442 0 0.72500000000000064 0.2498161764706 0 0.75668890529066124 0.2244279804069782 0 0.77075983436335049 0.25919399014334171 0 0.72500000000000064 0.2498161764706 0 0.67933712972090698 0.25920070958121938 0 0.69397719155551807 0.2245125647000914 0 0.6236733212988993 0.14864538214901801 0 0.61956000905586006 0.1043312481793135 0 0.65290632656860115 0.11434202593454081 0 0.81973119833356312 0.43505687159469048 0 0.81400510706333218 0.47357325943904899 0 0.77972660463949339 0.45529290596363098 0 0.25676291524611189 0.7436741304886243 0 0.29904318922293632 0.74132814928635593 0 0.2792923945214143 0.77665808831789485 0 0.36575549820117997 0.31677992835137742 0 0.32752639306529541 0.32610012995269699 0 0.33402499257867951 0.28911035184473982 0 0.14332333627550789 0.14578431753966009 0 0.18652628422869419 0.14162325200928061 0 0.18124454140915969 0.18790916706335251 0 0.57724883562309992 0.92155686857100794 0 0.5832743223239254 0.88483152652961872 0 0.61885627562261258 0.90282959257498208 0 0.57667858002728545 0.078486105337742612 0 0.61956000905586006 0.1043312481793135 0 0.58516465772821369 0.11653801664834119 0 0.80185942888539485 0.77452061303608133 0 0.80041942726660109 0.81543261647703358 0 0.77094201086366854 0.79647480515688507 0 0.80185942888501827 0.074520613036224564 0 0.80076557130237269 0.1154587552654202 0 0.76878382444651716 0.097147941686331368 0 0.64753070846764316 0.77332939069435502 0 0.68024162096458085 0.79868546898116533 0 0.65005442820240822 0.82644988530054031 0 0.26429849586623999 0.19346700179430079 0 0.25557216766470708 0.15874861286892261 0 0.29336099386129338 0.15892013001050981 0 0.29348325746214782 0.31350119524708198 0 0.29644548887253103 0.34914008784168082 0 0.25966125648670141 0.34351016742083729 0 0.68391457121233579 0.14440470121196541 0 0.65290632656860115 0.11434202593454081 0 0.68330259535470161 0.10038702501083881 0 0.91750694127107502 0.36982372220068471 0 0.92012390126144183 0.33123581297173937 0 0.95780851984364423 0.34215720972155339 0 0.91750694127105259 0.63017627779935648 0 0.9578014258160763 0.65787212321113708 0 0.92057473616084773 0.66770436535372446 0 0.22033343844674469 0.36963382230740238 0 0.22615676742807109 0.33458786033114157 0 0.25966125648670141 0.34351016742083729 0 1 0.94999999999997109 0 0.97166519676946206 0.96662885509935492 0 0.97435614836744289 0.92499999999990257 0 0.94399509803919068 0.9439950980391687 0 0.97435614836744289 0.92499999999990257 0 0.97166519676946206 0.96662885509935492 0 0.94399509803921056 0.24399509803922639 0 0.97435614836740092 0.22499999999981049 0 0.97166519676951801 0.26662885509932011 0 1 0.24999999999987299 0 0.97166519676951801 0.26662885509932011 0 0.97435614836740092 0.22499999999981049 0 1 0.74999999999993494 0 0.97435614836745565 0.77499999999987745 0 0.97166519676947294 0.73337114490064459 0 1 0.049999999999896842 0 0.97435614836748241 0.074999999999825387 0 0.97166519676946894 0.033371144900598393 0 0.94399509803918602 0.75600490196082126 0 0.97166519676947294 0.73337114490064459 0 0.97435614836745565 0.77499999999987745 0 0.94399509803922566 0.056004901960802607 0 0.97166519676946894 0.033371144900598393 0 0.97435614836748241 0.074999999999825387 0 0.77846603114747959 0.49850927265137401 0 0.81400510706333218 0.47357325943904899 0 0.81441713509985358 0.51161854125224959 0 0.77354604466818633 0.40378688774472771 0 0.72622533758026719 0.40265885511101601 0 0.74764719760526988 0.3719647154012321 0 0.71508799138962864 0.36622814920737751 0 0.74764719760526988 0.3719647154012321 0 0.72622533758026719 0.40265885511101601 0 0.84723782639812573 0.48638347960178252 0 0.84925632466077294 0.45359738909549091 0 0.88594198078881503 0.46167788676578442 0 0.86411095495256451 0.42388805655111889 0 0.88594198078881503 0.46167788676578442 0 0.84925632466077294 0.45359738909549091 0 0.43846182030517877 0.64845797726506715 0 0.43545892161006339 0.61093128915313821 0 0.47095389620662098 0.61892551373708504 0 0.33123028043633618 0.77629643437932982 0 0.35642984951668422 0.80994399665655703 0 0.30857225866488791 0.81101973481716805 0 0.33403534827021109 0.84402799729020661 0 0.30857225866488791 0.81101973481716805 0 0.35642984951668422 0.80994399665655703 0 0.26429849586623999 0.19346700179430079 0 0.31255190597181792 0.19850845631528771 0 0.28040350263641872 0.23054717217092141 0 0.57724883562309992 0.92155686857100794 0 0.54783390826260769 0.89287767010860219 0 0.5832743223239254 0.88483152652961872 0 0.55899371797446828 0.85003102233514438 0 0.5832743223239254 0.88483152652961872 0 0.54783390826260769 0.89287767010860219 0 0.4089290844030305 0.58728915500154233 0 0.43545892161006339 0.61093128915313821 0 0.39743091024207589 0.6239520004230239 0 0.77293540622714185 0.59448302402785813 0 0.81723410853263523 0.59419663659258926 0 0.79884539758237771 0.62875045078114233 0 0.83758014339878906 0.63222013025741819 0 0.79884539758237771 0.62875045078114233 0 0.81723410853263523 0.59419663659258926 0 0.35864735590330371 0.63903383440414463 0 0.39743091024207589 0.6239520004230239 0 0.3977710372045391 0.65868194622830212 0 0.56202748619534593 0.15054058349222879 0 0.54979595918804436 0.1060565713905809 0 0.58516465772821369 0.11653801664834119 0 0.57667858002728545 0.078486105337742612 0 0.58516465772821369 0.11653801664834119 0 0.54979595918804436 0.1060565713905809 0 0.33122374654748771 0.57588941099433744 0 0.37272913873093971 0.56192925302619479 0 0.35765792684946668 0.6000687869219653 0 0.35864735590330371 0.63903383440414463 0 0.35765792684946668 0.6000687869219653 0 0.39743091024207589 0.6239520004230239 0 0.71508799138962864 0.36622814920737751 0 0.68887083591306764 0.33632058575757479 0 0.73090396928863699 0.33699297293167962 0 0.29348325746214782 0.31350119524708198 0 0.32752639306529541 0.32610012995269699 0 0.29644548887253103 0.34914008784168082 0 0.33277555741076909 0.36432196682010132 0 0.29644548887253103 0.34914008784168082 0 0.32752639306529541 0.32610012995269699 0 0.34258405725730701 0.4444034294386992 0 0.31778888742534622 0.40581751814196781 0 0.35221190152536241 0.40457127605439203 0 0.79999999999999982 0.69999999999999996 0 0.81864958914779962 0.73589050177899629 0 0.78578450296893509 0.73292684821144505 0 0.79999999999947335 0 0 0.81864958914740749 0.035890501779055867 0 0.78393852574753176 0.032039079577822822 0 0.27474541102162192 0.11822029332053539 0 0.29336099386129338 0.15892013001050981 0 0.25557216766470708 0.15874861286892261 0 0 0.45000000000187229 0 0.035463093262830522 0.42673416072819947 0 0.033550201249889847 0.46247875832467239 0 0.6499999999999998 0.69999999999999996 0 0.66427993341343905 0.73232764502436276 0 0.63221990677827677 0.73442891067859706 0 0.84723782639812573 0.48638347960178252 0 0.81441713509985358 0.51161854125224959 0 0.81400510706333218 0.47357325943904899 0 0.26104540868854792 0.81401944968719064 0 0.30857225866488791 0.81101973481716805 0 0.29209212897034281 0.84715728365233667 0 0.33403534827021109 0.84402799729020661 0 0.29209212897034281 0.84715728365233667 0 0.30857225866488791 0.81101973481716805 0 0.69999999999999984 0.29999999999999999 0 0.73090396928863699 0.33699297293167962 0 0.68887083591306764 0.33632058575757479 0 
</DataArray>
</Points>
<Cells>
<DataArray type="UInt32" Name="connectivity" format="ascii">
0 1 2 3 4 5 6 7 8 9 10 11 12 13 14 15 16 17 18 19 20 21 22 23 24 25 26 27 28 29 30 31 32 33 34 35 36 37 38 39 40 41 42 43 44 45 46 47 48 49 50 51 52 53 54 55 56 57 58 59 60 61 62 63 64 65 66 67 68 69 70 71 72 73 74 75 76 77 78 79 80 81 82 83 84 85 86 87 88 89 90 91 92 93 94 95 96 97 98 99 100 101 102 103 104 105 106 107 108 109 110 111 112 113 114 115 116 117 118 119 120 121 122 123 124 125 126 127 128 129 130 131 132 133 134 135 136 137 138 139 140 141 142 143 144 145 146 147 148 149 150 151 152 153 154 155 156 157 158 159 160 161 162 163 164 165 166 167 168 169 170 171 172 173 174 175 176 177 178 179 180 181 182 183 184 185 186 187 188 189 190 191 192 193 194 195 196 197 198 199 200 201 202 203 204 205 206 207 208 209 210 211 212 213 214 215 216 217 218 219 220 221 222 223 224 225 226 227 228 229 230 231 232 233 234 235 236 237 238 239 240 241 242 243 244 245 246 247 248 249 250 251 252 253 254 255 256 257 258 259 260 261 262 263 264 265 266 267 268 269 270 271 272 273 274 275 276 277 278 279 280 281 282 283 284 285 286 287 288 289 290 291 292 293 294 295 296 297 298 299 300 301 302 303 304 305 306 307 308 309 310 311 312 313 314 315 316 317 318 319 320 321 322 323 324 325 326 327 328 329 330 331 332 333 334 335 336 337 338 339 340 341 342 343 344 345 346 347 348 349 350 351 352 353 354 355 356 357 358 359 360 361 362 363 364 365 366 367 368 369 370 371 372 373 374 375 376 377 378 379 380 381 382 383 384 385 386 387 388 389 390 391 392 393 394 395 396 397 398 399 400 401 402 403 404 405 406 407 408 409 410 411 412 413 414 415 416 417 418 419 420 421 422 423 424 425 426 427 428 429 430 431 432 433 434 435 436 437 438 439 440 441 442 443 444 445 446 447 448 449 450 451 452 453 454 455 456 457 458 459 460 461 462 463 464 465 466 467 468 469 470 471 472 473 474 475 476 477 478 479 480 481 482 483 484 485 486 487 488 489 490 491 492 493 494 495 496 497 498 499 500 501 502 503 504 505 506 507 508 509 510 511 512 513 514 515 516 517 518 519 520 521 522 523 524 525 526 527 528 529 530 531 532 533 534 535 536 537 538 539 540 541 542 543 544 545 546 547 548 549 550 551 552 553 554 555 556 557 558 559 560 561 562 563 564 565 566 567 568 569 570 571 572 573 574 575 576 577 578 579 580 581 582 583 584 585 586 587 588 589 590 591 592 593 594 595 596 597 598 599 600 601 602 603 604 605 606 607 608 609 610 611 612 613 614 615 616 617 618 619 620 621 622 623 624 625 626 627 628 629 630 631 632 633 634 635 636 637 638 639 640 641 642 643 644 645 646 647 648 649 650 651 652 653 654 655 656 657 658 659 660 661 662 663 664 665 666 667 668 669 670 671 672 673 674 675 676 677 678 679 680 681 682 683 684 685 686 687 688 689 690 691 692 693 694 695 696 697 698 699 700 701 702 703 704 705 706 707 708 709 710 711 712 713 714 715 716 717 718 719 720 721 722 723 724 725 726 727 728 729 730 731 732 733 734 735 736 737 738 739 740 741 742 743 744 745 746 747 748 749 750 751 752 753 754 755 756 757 758 759 760 761 762 763 764 765 766 767 768 769 770 771 772 773 774 775 776 777 778 779 780 781 782 783 784 785 786 787 788 789 790 791 792 793 794 795 796 797 798 799 800 801 802 803 804 805 806 807 808 809 810 811 812 813 814 815 816 817 818 819 820 821 822 823 824 825 826 827 828 829 830 831 832 833 834 835 836 837 838 839 840 841 842 843 844 845 846 847 848 849 850 851 852 853 854 855 856 857 858 859 860 861 862 863 864 865 866 867 868 869 870 871 872 873 874 875 876 877 878 879 880 881 882 883 884 885 886 887 888 889 890 891 892 893 894 895 896 897 898 899 900 901 902 903 904 905 906 907 908 909 910 911 912 913 914 915 916 917 918 919 920 921 922 923 924 925 926 927 928 929 930 931 932 933 934 935 936 937 938 939 940 941 942 943 944 945 946 947 948 949 950 951 952 953 954 955 956 957 958 959 960 961 962 963 964 965 966 967 968 969 970 971 972 973 974 975 976 977 978 979 980 981 982 983 984 985 986 987 988 989 990 991 992 993 994 995 996 997 998 999 1000 1001 1002 1003 1004 1005 1006 1007 1008 1009 1010 1011 1012 1013 1014 1015 1016 1017 1018 1019 1020 1021 1022 1023 1024 1025 1026 1027 1028 1029 1030 1031 1032 1033 1034 1035 1036 1037 1038 1039 1040 1041 1042 1043 1044 1045 1046 1047 1048 1049 1050 1051 1052 1053 1054 1055 1056 1057 1058 1059 1060 1061 1062 1063 1064 1065 1066 1067 1068 1069 1070 1071 1072 1073 1074 1075 1076 1077 1078 1079 1080 1081 1082 1083 1084 1085 1086 1087 1088 1089 1090 1091 1092 1093 1094 1095 1096 1097 1098 1099 1100 1101 1102 1103 1104 1105 1106 1107 1108 1109 1110 1111 1112 1113 1114 1115 1116 1117 1118 1119 1120 1121 1122 1123 1124 1125 1126 1127 1128 1129 1130 1131 1132 1133 1134 1135 1136 1137 1138 1139 1140 1141 1142 1143 1144 1145 1146 1147 1148 1149 1150 1151 1152 1153 1154 1155 1156 1157 1158 1159 1160 1161 1162 1163 1164 1165 1166 1167 1168 1169 1170 1171 1172 1173 1174 1175 1176 1177 1178 1179 1180 1181 1182 1183 1184 1185 1186 1187 1188 1189 1190 1191 1192 1193 1194 1195 1196 1197 1198 1199 1200 1201 1202 1203 1204 1205 1206 1207 1208 1209 1210 1211 1212 1213 1214 1215 1216 1217 1218 1219 1220 1221 1222 1223 1224 1225 1226 1227 1228 1229 1230 1231 1232 1233 1234 1235 1236 1237 1238 1239 1240 1241 1242 1243 1244 1245 1246 1247 1248 1249 1250 1251 1252 1253 1254 1255 1256 1257 1258 1259 1260 1261 1262 1263 1264 1265 1266 1267 1268 1269 1270 1271 1272 1273 1274 1275 1276 1277 1278 1279 1280 1281 1282 1283 1284 1285 1286 1287 1288 1289 1290 1291 1292 1293 1294 1295 1296 1297 1298 1299 1300 1301 1302 1303 1304 1305 1306 1307 1308 1309 1310 1311 1312 1313 1314 1315 1316 1317 1318 1319 1320 1321 1322 1323 1324 1325 1326 1327 1328 1329 1330 1331 1332 1333 1334 1335 1336 1337 1338 1339 1340 1341 1342 1343 1344 1345 1346 1347 1348 1349 1350 1351 1352 1353 1354 1355 1356 1357 1358 1359 1360 1361 1362 1363 1364 1365 1366 1367 1368 1369 1370 1371 1372 1373 1374 1375 1376 1377 1378 1379 1380 1381 1382 1383 1384 1385 1386 1387 1388 1389 1390 1391 1392 1393 1394 1395 1396 1397 1398 1399 1400 1401 1402 1403 1404 1405 1406 1407 1408 1409 1410 1411 1412 1413 1414 1415 1416 1417 1418 1419 1420 1421 1422 1423 1424 1425 1426 1427 1428 1429 1430 1431 1432 1433 1434 1435 1436 1437 1438 1439 1440 1441 1442 1443 1444 1445 1446 1447 1448 1449 1450 1451 1452 1453 1454 1455 1456 1457 1458 1459 1460 1461 1462 1463 1464 1465 1466 1467 1468 1469 1470 1471 1472 1473 1474 1475 1476 1477 1478 1479 1480 1481 1482 1483 1484 1485 1486 1487 1488 1489 1490 1491 1492 1493 1494 1495 1496 1497 1498 1499 1500 1501 1502 1503 1504 1505 1506 1507 1508 1509 1510 1511 1512 1513 1514 1515 1516 1517 1518 1519 1520 1521 1522 1523 1524 1525 1526 1527 1528 1529 1530 1531 1532 1533 1534 1535 1536 1537 1538 1539 1540 1541 1542 1543 1544 1545 1546 1547 1548 1549 1550 1551 1552 1553 1554 1555 1556 1557 1558 1559 1560 1561 1562 1563 1564 1565 1566 1567 1568 1569 1570 1571 1572 1573 1574 1575 1576 1577 1578 1579 1580 1581 1582 1583 1584 1585 1586 1587 1588 1589 1590 1591 1592 1593 1594 1595 1596 1597 1598 1599 1600 1601 1602 1603 1604 1605 1606 1607 1608 1609 1610 1611 1612 1613 1614 1615 1616 1617 1618 1619 1620 1621 1622 1623 1624 1625 1626 1627 1628 1629 1630 1631 1632 1633 1634 1635 1636 1637 1638 1639 1640 1641 1642 1643 1644 1645 1646 1647 1648 1649 1650 1651 1652 1653 1654 1655 1656 1657 1658 1659 1660 1661 1662 1663 1664 1665 1666 1667 1668 1669 1670 1671 1672 1673 1674 1675 1676 1677 1678 1679 1680 1681 1682 1683 1684 1685 1686 1687 1688 1689 1690 1691 1692 1693 1694 1695 1696 1697 1698 1699 1700 1701 1702 1703 1704 1705 1706 1707 1708 1709 1710 1711 1712 1713 1714 1715 1716 1717 1718 1719 1720 1721 1722 1723 1724 1725 1726 1727 1728 1729 1730 1731 1732 1733 1734 1735 1736 1737 1738 1739 1740 1741 1742 1743 1744 1745 1746 1747 1748 1749 1750 1751 1752 1753 1754 1755 1756 1757 1758 1759 1760 1761 1762 1763 1764 1765 1766 1767 1768 1769 1770 1771 1772 1773 1774 1775 1776 1777 1778 1779 1780 1781 1782 1783 1784 1785 1786 1787 1788 1789 1790 1791 1792 1793 1794 1795 1796 1797 1798 1799 1800 1801 1802 1803 1804 1805 1806 1807 1808 1809 1810 1811 1812 1813 1814 1815 1816 1817 1818 1819 1820 1821 1822 1823 1824 1825 1826 1827 1828 1829 1830 1831 1832 1833 1834 1835 1836 1837 1838 1839 1840 1841 1842 1843 1844 1845 1846 1847 1848 1849 1850 1851 1852 1853 1854 1855 1856 1857 1858 1859 1860 1861 1862 1863 1864 1865 1866 1867 1868 1869 1870 1871 1872 1873 1874 1875 1876 1877 1878 1879 1880 1881 1882 1883 1884 1885 1886 1887 1888 1889 1890 1891 1892 1893 1894 1895 1896 1897 1898 1899 1900 1901 1902 1903 1904 1905 1906 1907 1908 1909 1910 1911 1912 1913 1914 1915 1916 1917 1918 1919 1920 1921 1922 1923 1924 1925 1926 1927 1928 1929 1930 1931 1932 1933 1934 1935 1936 1937 1938 1939 1940 1941 1942 1943 1944 1945 1946 1947 1948 1949 1950 1951 1952 1953 1954 1955 1956 1957 1958 1959 1960 1961 1962 1963 1964 1965 1966 1967 1968 1969 1970 1971 1972 1973 1974 1975 1976 1977 1978 1979 1980 1981 1982 1983 1984 1985 1986 1987 1988 1989 1990 1991 1992 1993 1994 1995 1996 1997 1998 1999 2000 2001 2002 2003 2004 2005 2006 2007 2008 2009 2010 2011 2012 2013 2014 2015 2016 2017 2018 2019 2020 2021 2022 2023 2024 2025 2026 2027 2028 2029 2030 2031 2032 2033 2034 2035 2036 2037 2038 2039 2040 2041 2042 2043 2044 2045 2046 2047 2048 2049 2050 2051 2052 2053 2054 2055 2056 2057 2058 2059 2060 2061 2062 2063 2064 2065 2066 2067 2068 2069 2070 2071 2072 2073 2074 2075 2076 2077 2078 2079 2080 2081 2082 2083 2084 2085 2086 2087 2088 2089 2090 2091 2092 2093 2094 2095 2096 2097 2098 2099 2100 2101 2102 2103 2104 2105 2106 2107 2108 2109 2110 2111 2112 2113 2114 2115 2116 2117 2118 2119 2120 2121 2122 2123 2124 2125 2126 2127 2128 2129 2130 2131 2132 2133 2134 2135 2136 2137 2138 2139 2140 2141 2142 2143 2144 2145 2146 2147 2148 2149 2150 2151 2152 2153 2154 2155 2156 2157 2158 2159 2160 2161 2162 2163 2164 2165 2166 2167 2168 2169 2170 2171 2172 2173 2174 2175 2176 2177 2178 2179 2180 2181 2182 2183 2184 2185 2186 2187 2188 2189 2190 2191 2192 2193 2194 2195 2196 2197 2198 2199 2200 2201 2202 2203 2204 2205 2206 2207 2208 2209 2210 2211 2212 2213 2214 2215 2216 2217 2218 2219 2220 2221 2222 2223 2224 2225 2226 2227 2228 2229 2230 2231 2232 2233 2234 2235 2236 2237 2238 2239 2240 2241 2242 2243 2244 2245 2246 2247 2248 2249 2250 2251 2252 2253 2254 2255 2256 2257 2258 2259 2260 2261 2262 2263 2264 2265 2266 2267 2268 2269 2270 2271 2272 2273 2274 2275 2276 2277 2278 2279 2280 2281 2282 2283 2284 2285 2286 2287 2288 2289 2290 2291 2292 2293 2294 2295 2296 2297 2298 2299 2300 2301 2302 2303 2304 2305 2306 2307 2308 2309 2310 2311 2312 2313 2314 2315 2316 2317 2318 2319 2320 2321 2322 2323 2324 2325 2326 2327 2328 2329 2330 2331 2332 2333 2334 2335 2336 2337 2338 2339 2340 2341 2342 2343 2344 2345 2346 2347 2348 2349 2350 2351 2352 2353 2354 2355 2356 2357 2358 2359 2360 2361 2362 2363 2364 2365 2366 2367 2368 2369 2370 2371 2372 2373 2374 2375 2376 2377 2378 2379 2380 2381 2382 2383 2384 2385 2386 2387 2388 2389 2390 2391 2392 2393 2394 2395 2396 2397 2398 2399 2400 2401 2402 2403 2404 2405 2406 2407 2408 2409 2410 2411 2412 2413 2414 2415 2416 2417 2418 2419 2420 2421 2422 2423 2424 2425 2426 2427 2428 2429 2430 2431 2432 2433 2434 2435 2436 2437 2438 2439 2440 2441 2442 2443 2444 2445 2446 2447 2448 2449 2450 2451 2452 2453 2454 2455 2456 2457 2458 2459 2460 2461 2462 2463 2464 2465 2466 2467 2468 2469 2470 2471 2472 2473 2474 2475 2476 2477 2478 2479 2480 2481 2482 2483 2484 2485 2486 2487 2488 2489 2490 2491 2492 2493 2494 2495 2496 2497 2498 2499 2500 2501 2502 2503 2504 2505 2506 2507 2508 2509 2510 2511 2512 2513 2514 2515 2516 2517 2518 2519 2520 2521 2522 2523 2524 2525 2526 2527 2528 2529 2530 2531 2532 2533 2534 2535 2536 2537 2538 2539 2540 2541 2542 2543 2544 2545 2546 2547 2548 2549 2550 2551 2552 2553 2554 2555 2556 2557 2558 2559 2560 2561 2562 2563 2564 2565 2566 2567 2568 2569 2570 2571 2572 2573 2574 2575 2576 2577 2578 2579 2580 2581 2582 2583 2584 2585 2586 2587 2588 2589 2590 2591 2592 2593 2594 2595 2596 2597 2598 2599 2600 2601 2602 2603 2604 2605 2606 2607 2608 2609 2610 2611 2612 2613 2614 2615 2616 2617 2618 2619 2620 2621 2622 2623 2624 2625 2626 2627 2628 2629 2630 2631 2632 2633 2634 2635 2636 2637 2638 2639 2640 2641 2642 2643 2644 2645 2646 2647 2648 2649 2650 2651 2652 2653 2654 2655 2656 2657 2658 2659 2660 2661 2662 2663 2664 2665 2666 2667 2668 2669 2670 2671 2672 2673 2674 2675 2676 2677 2678 2679 2680 2681 2682 2683 2684 2685 2686 2687 2688 2689 2690 2691 2692 2693 2694 2695 2696 2697 2698 2699 2700 2701 2702 2703 2704 2705 2706 2707 2708 2709 2710 2711 2712 2713 2714 2715 2716 2717 2718 2719 2720 2721 2722 2723 2724 2725 2726 2727 2728 2729 2730 2731 2732 2733 2734 2735 2736 2737 2738 2739 2740 2741 2742 2743 2744 2745 2746 2747 2748 2749 2750 2751 2752 2753 2754 2755 2756 2757 2758 2759 2760 2761 2762 2763 2764 2765 2766 2767 2768 2769 2770 2771 2772 2773 2774 2775 2776 2777 2778 2779 2780 2781 2782 2783 2784 2785 2786 2787 2788 2789 2790 2791 2792 2793 2794 2795 2796 2797 2798 2799 2800 2801 2802 2803 2804 2805 2806 2807 2808 2809 2810 2811 2812 2813 2814 2815 2816 2817 2818 2819 2820 2821 2822 2823 2824 2825 2826 2827 2828 2829 2830 2831 2832 2833 2834 2835 2836 2837 2838 2839 2840 2841 2842 2843 2844 2845 2846 2847 2848 2849 2850 2851 2852 2853 2854 2855 2856 2857 2858 2859 2860 2861 2862 2863 2864 2865 2866 2867 2868 2869 2870 2871 2872 2873 2874 2875 2876 2877 2878 2879 2880 2881 2882 2883 2884 2885 2886 2887 2888 2889 2890 2891 2892 2893 2894 2895 2896 2897 2898 2899 2900 2901 2902 2903 2904 2905 2906 2907 2908 2909 2910 2911 2912 2913 2914 2915 2916 2917 2918 2919 2920 2921 2922 2923 2924 2925 2926 2927 2928 2929 2930 2931 2932 2933 2934 2935 2936 2937 2938 2939 2940 2941 2942 2943 2944 2945 2946 2947 2948 2949 2950 2951 2952 2953 2954 2955 2956 2957 2958 2959 2960 2961 2962 2963 2964 2965 2966 2967 2968 2969 2970 2971 2972 2973 2974 2975 2976 2977 2978 2979 2980 2981 2982 2983 2984 2985 2986 2987 2988 2989 2990 2991 2992 2993 2994 2995 2996 2997 2998 2999 3000 3001 3002 3003 3004 3005 3006 3007 3008 3009 3010 3011 3012 3013 3014 3015 3016 3017 3018 3019 3020 3021 3022 3023 3024 3025 3026 3027 3028 3029 3030 3031 3032 3033 3034 3035 3036 3037 3038 3039 3040 3041 3042 3043 3044 3045 3046 3047 3048 3049 3050 3051 3052 3053 3054 3055 3056 3057 3058 3059 3060 3061 3062 3063 3064 3065 3066 3067 3068 3069 3070 3071 3072 3073 3074 3075 3076 3077 3078 3079 3080 3081 3082 3083 3084 3085 3086 3087 3088 3089 3090 3091 3092 3093 3094 3095 3096 3097 3098 3099 3100 3101 3102 3103 3104 3105 3106 3107 3108 3109 3110 3111 3112 3113 3114 3115 3116 3117 3118 3119 3120 3121 3122 3123 3124 3125 3126 3127 3128 3129 3130 3131 3132 3133 3134 3135 3136 3137 3138 3139 3140 3141 
</DataArray>
<DataArray type="UInt32" Name="offsets" format="ascii">
2 4 6 8 10 12 14 16 18 20 22 24 26 28 30 32 34 36 38 40 43 46 49 52 55 58 61 64 67 70 73 76 79 82 85 88 91 94 97 100 103 106 109 112 115 118 121 124 127 130 133 136 139 142 145 148 151 154 157 160 163 166 169 172 175 178 181 184 187 190 193 196 199 202 205 208 211 214 217 220 223 226 229 232 235 238 241 244 247 250 253 256 259 262 265 268 271 274 277 280 283 286 289 292 295 298 301 304 307 310 313 316 319 322 325 328 331 334 337 340 343 346 349 352 355 358 361 364 367 370 373 376 379 382 385 388 391 394 397 400 403 406 409 412 415 418 421 424 427 430 433 436 439 442 445 448 451 454 457 460 463 466 469 472 475 478 481 484 487 490 493 496 499 502 505 508 511 514 517 520 523 526 529 532 535 538 541 544 547 550 553 556 559 562 565 568 571 574 577 580 583 586 589 592 595 598 601 604 607 610 613 616 619 622 625 628 631 634 637 640 643 646 649 652 655 658 661 664 667 670 673 676 679 682 685 688 691 694 697 700 703 706 709 712 715 718 721 724 727 730 733 736 739 742 745 748 751 754 757 760 763 766 769 772 775 778 781 784 787 790 793 796 799 802 805 808 811 814 817 820 823 826 829 832 835 838 841 844 847 850 853 856 859 862 865 868 871 874 877 880 883 886 889 892 895 898 901 904 907 910 913 916 919 922 925 928 931 934 937 940 943 946 949 952 955 958 961 964 967 970 973 976 979 982 985 988 991 994 997 1000 1003 1006 1009 1012 1015 1018 1021 1024 1027 1030 1033 1036 1039 1042 1045 1048 1051 1054 1057 1060 1063 1066 1069 1072 1075 1078 1081 1084 1087 1090 1093 1096 1099 1102 1105 1108 1111 1114 1117 1120 1123 1126 1129 1132 1135 1138 1141 1144 1147 1150 1153 1156 1159 1162 1165 1168 1171 1174 1177 1180 1183 1186 1189 1192 1195 1198 1201 1204 1207 1210 1213 1216 1219 1222 1225 1228 1231 1234 1237 1240 1243 1246 1249 1252 1255 1258 1261 1264 1267 1270 1273 1276 1279 1282 1285 1288 1291 1294 1297 1300 1303 1306 1309 1312 1315 1318 1321 1324 1327 1330 1333 1336 1339 1342 1345 1348 1351 1354 1357 1360 1363 1366 1369 1372 1375 1378 1381 1384 1387 1390 1393 1396 1399 1402 1405 1408 1411 1414 1417 1420 1423 1426 1429 1432 1435 1438 1441 1444 1447 1450 1453 1456 1459 1462 1465 1468 1471 1474 1477 1480 1483 1486 1489 1492 1495 1498 1501 1504 1507 1510 1513 1516 1519 1522 1525 1528 1531 1534 1537 1540 1543 1546 1549 1552 1555 1558 1561 1564 1567 1570 1573 1576 1579 1582 1585 1588 1591 1594 1597 1600 1603 1606 1609 1612 1615 1618 1621 1624 1627 1630 1633 1636 1639 1642 1645 1648 1651 1654 1657 1660 1663 1666 1669 1672 1675 1678 1681 1684 1687 1690 1693 1696 1699 1702 1705 1708 1711 1714 1717 1720 1723 1726 1729 1732 1735 1738 1741 1744 1747 1750 1753 1756 1759 1762 1765 1768 1771 1774 1777 1780 1783 1786 1789 1792 1795 1798 1801 1804 1807 1810 1813 1816 1819 1822 1825 1828 1831 1834 1837 1840 1843 1846 1849 1852 1855 1858 1861 1864 1867 1870 1873 1876 1879 1882 1885 1888 1891 1894 1897 1900 1903 1906 1909 1912 1915 1918 1921 1924 1927 1930 1933 1936 1939 1942 1945 1948 1951 1954 1957 1960 1963 1966 1969 1972 1975 1978 1981 1984 1987 1990 1993 1996 1999 2002 2005 2008 2011 2014 2017 2020 2023 2026 2029 2032 2035 2038 2041 2044 2047 2050 2053 2056 2059 2062 2065 2068 2071 2074 2077 2080 2083 2086 2089 2092 2095 2098 2101 2104 2107 2110 2113 2116 2119 2122 2125 2128 2131 2134 2137 2140 2143 2146 2149 2152 2155 2158 2161 2164 2167 2170 2173 2176 2179 2182 2185 2188 2191 2194 2197 2200 2203 2206 2209 2212 2215 2218 2221 2224 2227 2230 2233 2236 2239 2242 2245 2248 2251 2254 2257 2260 2263 2266 2269 2272 2275 2278 2281 2284 2287 2290 2293 2296 2299 2302 2305 2308 2311 2314 2317 2320 2323 2326 2329 2332 2335 2338 2341 2344 2347 2350 2353 2356 2359 2362 2365 2368 2371 2374 2377 2380 2383 2386 2389 2392 2395 2398 2401 2404 2407 2410 2413 2416 2419 2422 2425 2428 2431 2434 2437 2440 2443 2446 2449 2452 2455 2458 2461 2464 2467 2470 2473 2476 2479 2482 2485 2488 2491 2494 2497 2500 2503 2506 2509 2512 2515 2518 2521 2524 2527 2530 2533 2536 2539 2542 2545 2548 2551 2554 2557 2560 2563 2566 2569 2572 2575 2578 2581 2584 2587 2590 2593 2596 2599 2602 2605 2608 2611 2614 2617 2620 2623 2626 2629 2632 2635 2638 2641 2644 2647 2650 2653 2656 2659 2662 2665 2668 2671 2674 2677 2680 2683 2686 2689 2692 2695 2698 2701 2704 2707 2710 2713 2716 2719 2722 2725 2728 2731 2734 2737 2740 2743 2746 2749 2752 2755 2758 2761 2764 2767 2770 2773 2776 2779 2782 2785 2788 2791 2794 2797 2800 2803 2806 2809 2812 2815 2818 2821 2824 2827 2830 2833 2836 2839 2842 2845 2848 2851 2854 2857 2860 2863 2866 2869 2872 2875 2878 2881 2884 2887 2890 2893 2896 2899 2902 2905 2908 2911 2914 2917 2920 2923 2926 2929 2932 2935 2938 2941 2944 2947 2950 2953 2956 2959 2962 2965 2968 2971 2974 2977 2980 2983 2986 2989 2992 2995 2998 3001 3004 3007 3010 3013 3016 3019 3022 3025 3028 3031 3034 3037 3040 3043 3046 3049 3052 3055 3058 3061 3064 3067 3070 3073 3076 3079 3082 3085 3088 3091 3094 3097 3100 3103 3106 3109 3112 3115 3118 3121 3124 3127 3130 3133 3136 3139 3142 
</DataArray>
<DataArray type="UInt32" Name="types" format="ascii">
3 3 3 3 3 3 3 3 3 3 3 3 3 3 3 3 3 3 3 3 5 5 5 5 5 5 5 5 5 5 5 5 5 5 5 5 5 5 5 5 5 5 5 5 5 5 5 5 5 5 5 5 5 5 5 5 5 5 5 5 5 5 5 5 5 5 5 5 5 5 5 5 5 5 5 5 5 5 5 5 5 5 5 5 5 5 5 5 5 5 5 5 5 5 5 5 5 5 5 5 5 5 5 5 5 5 5 5 5 5 5 5 5 5 5 5 5 5 5 5 5 5 5 5 5 5 5 5 5 5 5 5 5 5 5 5 5 5 5 5 5 5 5 5 5 5 5 5 5 5 5 5 5 5 5 5 5 5 5 5 5 5 5 5 5 5 5 5 5 5 5 5 5 5 5 5 5 5 5 5 5 5 5 5 5 5 5 5 5 5 5 5 5 5 5 5 5 5 5 5 5 5 5 5 5 5 5 5 5 5 5 5 5 5 5 5 5 5 5 5 5 5 5 5 5 5 5 5 5 5 5 5 5 5 5 5 5 5 5 5 5 5 5 5 5 5 5 5 5 5 5 5 5 5 5 5 5 5 5 5 5 5 5 5 5 5 5 5 5 5 5 5 5 5 5 5 5 5 5 5 5 5 5 5 5 5 5 5 5 5 5 5 5 5 5 5 5 5 5 5 5 5 5 5 5 5 5 5 5 5 5 5 5 5 5 5 5 5 5 5 5 5 5 5 5 5 5 5 5 5 5 5 5 5 5 5 5 5 5 5 5 5 5 5 5 5 5 5 5 5 5 5 5 5 5 5 5 5 5 5 5 5 5 5 5 5 5 5 5 5 5 5 5 5 5 5 5 5 5 5 5 5 5 5 5 5 5 5 5 5 5 5 5 5 5 5 5 5 5 5 5 5 5 5 5 5 5 5 5 5 5 5 5 5 5 5 5 5 5 5 5 5 5 5 5 5 5 5 5 5 5 5 5 5 5 5 5 5 5 5 5 5 5 5 5 5 5 5 5 5 5 5 5 5 5 5 5 5 5 5 5 5 5 5 5 5 5 5 5 5 5 5 5 5 5 5 5 5 5 5 5 5 5 5 5 5 5 5 5 5 5 5 5 5 5 5 5 5 5 5 5 5 5 5 5 5 5 5 5 5 5 5 5 5 5 5 5 5 5 5 5 5 5 5 5 5 5 5 5 5 5 5 5 5 5 5 5 5 5 5 5 5 5 5 5 5 5 5 5 5 5 5 5 5 5 5 5 5 5 5 5 5 5 5 5 5 5 5 5 5 5 5 5 5 5 5 5 5 5 5 5 5 5 5 5 5 5 5 5 5 5 5 5 5 5 5 5 5 5 5 5 5 5 5 5 5 5 5 5 5 5 5 5 5 5 5 5 5 5 5 5 5 5 5 5 5 5 5 5 5 5 5 5 5 5 5 5 5 5 5 5 5 5 5 5 5 5 5 5 5 5 5 5 5 5 5 5 5 5 5 5 5 5 5 5 5 5 5 5 5 5 5 5 5 5 5 5 5 5 5 5 5 5 5 5 5 5 5 5 5 5 5 5 5 5 5 5 5 5 5 5 5 5 5 5 5 5 5 5 5 5 5 5 5 5 5 5 5 5 5 5 5 5 5 5 5 5 5 5 5 5 5 5 5 5 5 5 5 5 5 5 5 5 5 5 5 5 5 5 5 5 5 5 5 5 5 5 5 5 5 5 5 5 5 5 5 5 5 5 5 5 5 5 5 5 5 5 5 5 5 5 5 5 5 5 5 5 5 5 5 5 5 5 5 5 5 5 5 5 5 5 5 5 5 5 5 5 5 5 5 5 5 5 5 5 5 5 5 5 5 5 5 5 5 5 5 5 5 5 5 5 5 5 5 5 5 5 5 5 5 5 5 5 5 5 5 5 5 5 5 5 5 5 5 5 5 5 5 5 5 5 5 5 5 5 5 5 5 5 5 5 5 5 5 5 5 5 5 5 5 5 5 5 5 5 5 5 5 5 5 5 5 5 5 5 5 5 5 5 5 5 5 5 5 5 5 5 5 5 5 5 5 5 5 5 5 5 5 5 5 5 5 5 5 5 5 5 5 5 5 5 5 5 5 5 5 5 5 5 5 5 5 5 5 5 5 5 5 5 5 5 5 5 5 5 5 5 5 5 5 5 5 5 5 5 5 5 5 5 5 5 5 5 5 5 5 5 5 5 5 5 5 5 5 5 5 5 5 5 5 5 5 5 5 5 5 5 5 5 5 5 5 5 5 5 5 5 5 5 5 5 5 5 5 5 5 5 5 5 5 5 5 5 5 5 5 5 5 5 5 5 5 5 5 5 5 5 5 5 5 5 5 5 5 5 5 5 5 5 5 5 5 5 5 
</DataArray>
</Cells>
<PointData Scalars="" Vectors="displacement," Tensors="">
<DataArray type="Float64" Name="displacement" NumberOfComponents="3" format="ascii">
5.6415385029232467e-06 -1.3588408316088968e-05 0 8.7624836408097503e-06 -1.8560979660650574e-05 0 8.7624836408097503e-06 -1.8560979660650574e-05 0 9.5065737068803e-06 -2.5555107151763237e-05 0 9.5065737068803e-06 -2.5555107151763237e-05 0 1.0676860804901357e-05 -3.4489794735413188e-05 0 1.0676860804901357e-05 -3.4489794735413188e-05 0 1.1897108977899216e-05 -4.4108603486035563e-05 0 1.1897108977899216e-05 -4.4108603486035563e-05 0 1.3431648724846324e-05 -5.3075748184453481e-05 0 1.3431648724846324e-05 -5.3075748184453481e-05 0 1.5385385052762664e-05 -6.322917085013123e-05 0 1.5385385052762664e-05 -6.322917085013123e-05 0 1.7508386971061161e-05 -7.2812621384819515e-05 0 1.7508386971061161e-05 -7.2812621384819515e-05 0 2.1135539410419912e-05 -8.3969891958111736e-05 0 2.1135539410419912e-05 -8.3969891958111736e-05 0 2.2653831074533951e-05 -9.3125829930158085e-05 0 2.2653831074533951e-05 -9.3125829930158085e-05 0 3.6978435096116495e-05 -9.8041448240522978e-05 0 1.3983533309188155e-05 1.8316214555364878e-05 0 4.2157993476024154e-05 2.6336790063162516e-05 0 4.2157993476024154e-05 2.6336790063162516e-05 0 4.0118598520420214e-05 3.4766119261138521e-05 0 4.0118598520420214e-05 3.4766119261138521e-05 0 4.4968212175832039e-05 4.110817335995092e-05 0 4.4968212175832039e-05 4.110817335995092e-05 0 4.7965259016314553e-05 5.376224965320908e-05 0 4.7965259016314553e-05 5.376224965320908e-05 0 5.1399547564854522e-05 6.4525948172229706e-05 0 5.1399547564854522e-05 6.4525948172229706e-05 0 5.5305804867408819e-05 7.5787172103327193e-05 0 5.5305804867408819e-05 7.5787172103327193e-05 0 5.8538823242570489e-05 8.6785406336570528e-05 0 5.8538823242570489e-05 8.6785406336570528e-05 0 6.7064108616279091e-05 0.0001022663236879913 0 6.7064108616279091e-05 0.0001022663236879913 0 5.9762292753198597e-05 0.00011243619440235586 0 5.9762292753198597e-05 0.00011243619440235586 0 0.00011874081349762766 0.0001127990405782882 0 5.8475406405265931e-06 -3.7268298898683019e-06 0 5.7775577412169703e-06 -1.5180234937070759e-07 0 4.4273873399424276e-06 -2.3495987373147493e-06 0 6.9230082941468944e-06 -1.8419806474061613e-06 0 5.7775577412169703e-06 -1.5180234937070759e-07 0 5.8475406405265931e-06 -3.7268298898683019e-06 0 5.486402149141179e-06 -1.0897483528534939e-05 0 6.7914304234705902e-06 -8.0381713018522519e-06 0 4.9592092670242096e-06 -9.9525785662926776e-06 0 4.9592092670242096e-06 -9.9525785662926776e-06 0 6.791430423470591e-06 -8.0381713018522519e-06 0 5.7214011548548719e-06 -8.642209283508495e-06 0 -4.5683031333243969e-06 -1.1030019478309447e-06 0 -2.0394433639727883e-06 -1.1940427105353941e-06 0 -4.4586635329320306e-06 -2.0157623649104919e-06 0 -3.4472817009175591e-06 4.4811691520920692e-07 0 -3.3770075977302465e-06 1.0956649259687572e-06 0 -1.5724625118003039e-06 6.6023582962006327e-07 0 -1.9386506629127243e-06 -3.2238566007058849e-07 0 -2.0394433639727883e-06 -1.1940427105353941e-06 0 -4.5683031333243969e-06 -1.1030019478309447e-06 0 -1.5287853769839408e-06 2.7893466960494165e-08 0 -3.4472817009175591e-06 4.4811691520920692e-07 0 -1.5724625118003039e-06 6.6023582962006327e-07 0 -1.178723878717361e-05 -9.2829168128181746e-07 0 -1.5174744485583495e-05 -2.8163451104653091e-06 0 -1.059764223123046e-05 -5.2855754204830739e-07 0 -2.2925172481834267e-05 3.8049401218276312e-06 0 -1.7128163187735524e-05 6.8917025481672578e-07 0 -1.5850812312008042e-05 3.9875622059961976e-07 0 5.3216907219733983e-06 -2.3755664600773601e-07 0 6.9707254423259601e-06 -2.7755000141989006e-08 0 4.8973390622380986e-06 -1.3232007280338368e-06 0 7.1934507019579896e-06 -5.9957183762865807e-07 0 4.8973390622380986e-06 -1.3232007280338368e-06 0 6.9707254423259601e-06 -2.7755000141989006e-08 0 4.6093903270406261e-07 2.5402397536572056e-06 0 9.4111292168959943e-07 2.6649798185528332e-06 0 1.9070345555273587e-06 2.5020007656894578e-06 0 3.2868317134520615e-10 -7.8491837252557038e-10 0 7.58391760943592e-10 -5.3021643611361599e-10 0 6.778478734821156e-07 -1.486429608917337e-06 0 3.5268172988207421e-10 5.6523409012656054e-10 0 -2.3582369333848187e-11 6.4281218741259084e-10 0 1.8726804586538803e-07 1.4367758025657937e-06 0 2.9587512692955464e-06 -1.4345742726779797e-05 0 4.8796370233055824e-06 -1.5114629978645296e-05 0 5.486402149141179e-06 -1.0897483528534939e-05 0 2.9270814007378507e-05 1.7737772059680154e-05 0 2.0378160887615635e-05 1.0464583376968567e-05 0 2.2144021979349381e-05 1.1327829157733342e-05 0 -8.9465783625370063e-06 -0.00015478547042900866 0 3.9524617861171776e-06 -0.00014036666848830584 0 -1.0026158570410995e-05 -0.00013500715690433309 0 -2.0959495113703752e-06 0.00030261406984870564 0 -2.9668403011490256e-05 0.00027476983609190975 0 -3.7754820060108685e-06 0.0002644572536001815 0 -2.0959495113703752e-06 0.00030261406984870564 0 -3.7754820060108685e-06 0.0002644572536001815 0 2.3690325017611859e-05 0.00027441415977929082 0 -8.9465783625370063e-06 -0.00015478547042900866 0 -1.0026158570410995e-05 -0.00013500715690433309 0 -2.3119204340130022e-05 -0.00014025633844322021 0 -3.4868890417327977e-05 0.00024506581203297454 0 -3.4857376324568159e-06 0.00023106766889658951 0 -3.7754820060108685e-06 0.0002644572536001815 0 4.718930492430728e-06 -0.00012448864260921494 0 -1.1784666338702898e-05 -0.00011746720105295099 0 -1.0026158570410995e-05 -0.00013500715690433309 0 4.6093903270406261e-07 2.5402397536572056e-06 0 1.9070345555273587e-06 2.5020007656894578e-06 0 8.1861223917610579e-07 2.1686226216254094e-06 0 2.9270814007378507e-05 1.7737772059680154e-05 0 1.7700946480913216e-05 1.4803737773274666e-05 0 2.0378160887615635e-05 1.0464583376968567e-05 0 -6.2662382958934723e-05 5.9627222177485689e-05 0 -5.5003264627614609e-05 4.1723788076646842e-05 0 -3.8436787962106123e-05 4.5978606557812623e-05 0 -3.2574058336761728e-05 -2.2212792307287297e-05 0 -3.6761354664703153e-05 -3.0895946412992858e-05 0 -2.4721120675699494e-05 -2.4559244334833219e-05 0 4.2123266641525045e-06 -1.0931942707866108e-05 0 2.9587512692955464e-06 -1.4345742726779797e-05 0 5.486402149141179e-06 -1.0897483528534939e-05 0 -1.8286843944298757e-05 3.6644404729267133e-05 0 -1.5536663785471923e-05 1.941426063758018e-05 0 -6.8678968334387662e-06 2.1792839215886149e-05 0 -4.6799760067873786e-06 2.5829658251521226e-06 0 -1.1298225531317723e-05 5.7598600671257605e-06 0 -1.2024947753060469e-05 1.268530550922921e-06 0 1.4655464777756334e-05 -4.3976383074285192e-06 0 1.2901620444219941e-05 -4.4625223627554239e-07 0 1.2427851377203639e-05 -5.7920076221111694e-06 0 -1.164593724541675e-05 -0.00010082697485521728 0 -1.9747151888836607e-06 -9.6316486946089968e-05 0 -1.3627840035281842e-05 -8.4134107675402141e-05 0 -6.3628260926847072e-06 0.0001995515694658853 0 -2.6558435891956043e-05 0.00019066525851878149 0 -4.4955249463396264e-06 0.00016632447798697436 0 -1.3627840035281842e-05 -8.4134107675402141e-05 0 -1.9747151888836607e-06 -9.6316486946089968e-05 0 -2.5933753009574638e-06 -8.2310597751379078e-05 0 -4.4955249463396264e-06 0.00016632447798697436 0 -2.6558435891956043e-05 0.00019066525851878149 0 -2.6957315671940183e-05 0.00016630313360336537 0 -4.6799760067873786e-06 2.5829658251521226e-06 0 -1.2024947753060469e-05 1.268530550922921e-06 0 -4.3871283079196959e-06 -3.2509154847909249e-07 0 1.7777676439173331e-05 -9.0397975422979837e-06 0 1.6990437008245375e-05 -4.3788733548845185e-07 0 1.4655464777756334e-05 -4.3976383074285192e-06 0 -1.8286843944298757e-05 3.6644404729267133e-05 0 -2.6671240419812909e-05 2.9856664586215436e-05 0 -1.5536663785471923e-05 1.941426063758018e-05 0 2.9270814007378507e-05 1.7737772059680154e-05 0 4.2223191748484372e-05 5.2069256216969684e-05 0 2.3498087071030183e-05 5.3403958264417459e-05 0 1.9178463295303656e-05 -4.789117406612268e-05 0 1.7559904212664605e-05 -4.6892757918748647e-05 0 1.589563525248727e-05 -4.6881375157532766e-05 0 5.3106476570325794e-05 -5.9368056406107004e-05 0 5.0168582366521595e-05 -5.0712953251859492e-05 0 3.9159364156371753e-05 -5.2268030901449051e-05 0 1.5374147199561587e-05 3.0247828455284687e-06 0 1.2901620444219941e-05 -4.4625223627554239e-07 0 1.4655464777756334e-05 -4.3976383074285192e-06 0 3.5485289138290055e-05 -0.00013587586181323147 0 1.8623145680999322e-05 -0.00012204448514008505 0 1.8242970488014735e-05 -0.00013656609343061087 0 -8.9580596401225436e-05 0.00027263634851503116 0 -6.2775710091275976e-05 0.00024227954701738866 0 -5.7208560961278011e-05 0.00026887034653113717 0 1.0294774512309341e-09 -4.1858419883831071e-10 0 1.3575803058708657e-06 -4.8862795530408329e-07 0 1.0498603242910699e-06 -9.4454074309419971e-07 0 5.9945263414280595e-10 5.6898325046056738e-10 0 5.1267032250222129e-07 1.2463181148924313e-06 0 8.9055420573593208e-07 1.1726417945329584e-06 0 -1.8286843944298757e-05 3.6644404729267133e-05 0 -3.6329252339461328e-06 3.5652878357657899e-05 0 -1.1299996857225487e-05 5.7824588479561034e-05 0 6.7287389803577054e-06 5.134040451689602e-05 0 -1.1299996857225487e-05 5.7824588479561034e-05 0 -3.6329252339461323e-06 3.5652878357657906e-05 0 1.610509555285572e-05 3.0666784680070826e-05 0 2.9270814007378507e-05 1.7737772059680154e-05 0 2.3498087071030183e-05 5.3403958264417459e-05 0 -8.8281708432236082e-05 0.00021380547240186401 0 -5.214009651074279e-05 0.00021427312838586212 0 -6.2775710091275976e-05 0.00024227954701738866 0 2.897191051571722e-05 -0.00010498209245338916 0 1.1490838887429535e-05 -0.00010771760626024624 0 1.8623145680999322e-05 -0.00012204448514008505 0 3.0479944974976183e-05 -4.0851553639340846e-05 0 2.643867637703125e-05 -3.6587960976623506e-05 0 2.4409396938205842e-05 -4.0590245760897123e-05 0 1.113739117667215e-05 -2.9940329668212421e-06 0 1.2427851377203639e-05 -5.7920076221111694e-06 0 1.2901620444219941e-05 -4.4625223627554239e-07 0 1.2917955983689671e-05 -1.0086464012054489e-05 0 1.3134464227855597e-05 -1.4197000475812735e-05 0 1.6994288511525045e-05 -1.492415397038727e-05 0 2.9948993985920487e-05 -2.5424106995289604e-05 0 2.6282938904747386e-05 -2.1800937871886772e-05 0 2.5021562155916926e-05 -2.5890375085042071e-05 0 -7.5920758091543972e-05 0.0001044693844632947 0 -5.1504392261658458e-05 8.865328337000077e-05 0 -5.8854411754361322e-05 0.00011864173475605117 0 -5.2956967067676439e-05 -0.00010854945959297476 0 -4.0198356422194381e-05 -0.00012365995745718597 0 -3.5612142567428305e-05 -0.00010971149390268005 0 7.4833541523796514e-05 0.00020753884285714598 0 5.4289906844422236e-05 0.0002400082500698384 0 4.2464553477120098e-05 0.00021443271401586618 0 3.1869573103320561e-05 -0.0001200835323396213 0 1.8623145680999322e-05 -0.00012204448514008505 0 3.5485289138290055e-05 -0.00013587586181323147 0 -8.9580596401225436e-05 0.00027263634851503116 0 -8.9207868934325848e-05 0.00024323534597730056 0 -6.2775710091275976e-05 0.00024227954701738866 0 1.5759611948748361e-05 -3.9429470250082267e-05 0 1.2362507784122716e-05 -3.447471454350923e-05 0 1.321556026022907e-05 -3.9953062428320544e-05 0 6.8274385585664698e-06 -1.2895016521681917e-05 0 2.355764138660657e-06 -1.5359484134413257e-05 0 3.7076310685016133e-06 -2.4412951277733959e-05 0 1.5759611948748361e-05 -3.9429470250082267e-05 0 1.5407299030268988e-05 -3.5071304860437083e-05 0 1.2362507784122716e-05 -3.447471454350923e-05 0 2.2290235067547755e-05 -2.125421763879313e-05 0 2.5021562155916926e-05 -2.5890375085042071e-05 0 2.6282938904747386e-05 -2.1800937871886772e-05 0 -1.2274081940655995e-05 -4.4152463385600101e-05 0 -1.329714001109742e-05 -5.9504347979789235e-05 0 -4.6153724384271546e-06 -4.7988625189546097e-05 0 -1.2361018029909952e-09 3.9642857977574501e-10 0 -1.5724625118003039e-06 6.6023582962006327e-07 0 -1.006271002984318e-06 9.4413802224889466e-07 0 -1.6640899208688137e-09 -6.45638438873248e-10 0 -1.2230217535690465e-06 -1.5017049765729149e-06 0 -2.0394433639727883e-06 -1.1940427105353941e-06 0 1.9178463295303656e-05 -4.789117406612268e-05 0 1.980560105441517e-05 -4.8754579382970678e-05 0 1.7559904212664605e-05 -4.6892757918748647e-05 0 4.2116811675399623e-05 -5.961366575404119e-05 0 5.3106476570325794e-05 -5.9368056406107004e-05 0 3.9159364156371753e-05 -5.2268030901449051e-05 0 -6.5317238433587158e-10 -1.0895436828790515e-09 0 -1.2041664756561698e-06 -2.3112094358222818e-06 0 -1.2230217535690463e-06 -1.5017049765729151e-06 0 -6.4837828750901902e-10 7.2886218794977199e-10 0 -1.006271002984318e-06 9.4413802224889466e-07 0 -1.1685204558322388e-06 1.5707405331581794e-06 0 4.8973390622380986e-06 -1.3232007280338368e-06 0 2.255386983733071e-06 -1.892945764837693e-06 0 3.6619687792902987e-06 -1.0415029204842569e-06 0 -5.8061404639274156e-06 6.1671029068294108e-07 0 -4.8399876175563919e-06 1.4929944530239982e-06 0 -3.3770075977302465e-06 1.0956649259687572e-06 0 -7.9632928326448207e-06 -1.4636809675675876e-06 0 -4.4586635329320315e-06 -2.0157623649104923e-06 0 -6.3917877147121468e-06 -2.6837628073792026e-06 0 1.9560281832032395e-05 -2.5010842644807293e-05 0 1.887855282586979e-05 -2.1005419236657234e-05 0 1.5579250700206554e-05 -2.2325577850039029e-05 0 1.537610264543323e-05 -1.8267264622749867e-05 0 1.6994288511525045e-05 -1.492415397038727e-05 0 1.3134464227855597e-05 -1.4197000475812735e-05 0 8.6207421846744354e-05 0.00026554830853187328 0 5.2068347283706468e-05 0.00026689446816586149 0 5.4289906844422236e-05 0.0002400082500698384 0 -5.3841200206484239e-05 -0.00013913912748253062 0 -3.7171569855315178e-05 -0.00013716084629531578 0 -4.0198356422194381e-05 -0.00012365995745718597 0 1.537610264543323e-05 -1.8267264622749867e-05 0 1.5579250700206554e-05 -2.2325577850039029e-05 0 1.887855282586979e-05 -2.1005419236657234e-05 0 2.643867637703125e-05 -3.6587960976623506e-05 0 3.08676949667305e-05 -3.5397776058792153e-05 0 2.365902883050117e-05 -3.0871180615434341e-05 0 -2.9432342036962239e-05 0.00014190063325047778 0 -2.2941082251001169e-05 0.00010924509429509628 0 -7.4328897659725493e-06 0.00012123859125968373 0 -1.6640899208688137e-09 -6.45638438873248e-10 0 -1.4883220316018274e-09 -4.1408953005055401e-10 0 -1.2230217535690463e-06 -1.5017049765729151e-06 0 -1.2300367666432476e-09 2.5177687084615417e-10 0 -1.2361018029909952e-09 3.9642857977574501e-10 0 -1.006271002984318e-06 9.4413802224889466e-07 0 4.8973390622380986e-06 -1.3232007280338368e-06 0 3.38549570935585e-06 -2.1815134519946509e-06 0 2.255386983733071e-06 -1.892945764837693e-06 0 2.5909918703180105e-05 0.00024356385706266148 0 -3.7754820060108685e-06 0.0002644572536001815 0 -3.4857376324568159e-06 0.00023106766889658951 0 -2.5853908497769538e-05 -0.00012441841594146579 0 -1.0026158570410995e-05 -0.00013500715690433309 0 -1.1784666338702898e-05 -0.00011746720105295099 0 -1.329714001109742e-05 -5.9504347979789235e-05 0 -3.757413187394093e-06 -6.0091471617868915e-05 0 -4.6153724384271546e-06 -4.7988625189546097e-05 0 2.5764207629013381e-06 4.2418422807374334e-07 0 3.7333659231188572e-06 1.0105617683864737e-06 0 3.7345215730670547e-06 1.4909722527779806e-07 0 -1.2144333887081206e-06 -2.8846690097351791e-06 0 1.9762946499695639e-06 -2.4839181456140296e-06 0 -6.147172560072823e-07 -1.7032714319179005e-06 0 3.08676949667305e-05 -3.5397776058792153e-05 0 2.8840332893707766e-05 -3.1196690292499543e-05 0 2.365902883050117e-05 -3.0871180615434341e-05 0 3.7345215730670547e-06 1.4909722527779806e-07 0 3.7333659231188572e-06 1.0105617683864737e-06 0 4.9879645149937807e-06 6.119555800244956e-07 0 3.7333659231188572e-06 1.0105617683864737e-06 0 1.9081941217619302e-06 7.560737592947889e-07 0 3.076366369123775e-06 1.3949528397518037e-06 0 1.8539318225834943e-06 1.2927200558515859e-06 0 3.076366369123775e-06 1.3949528397518037e-06 0 1.9081941217619302e-06 7.560737592947889e-07 0 1.0787569146735426e-05 -3.7071214301446324e-05 0 1.2362507784122716e-05 -3.447471454350923e-05 0 7.8553635652698834e-06 -3.1864134598698213e-05 0 1.2917955983689671e-05 -1.0086464012054489e-05 0 1.6994288511525045e-05 -1.4924153970387268e-05 0 1.5345403220038823e-05 -9.5087150518873244e-06 0 3.0479944974976183e-05 -4.0851553639340846e-05 0 3.08676949667305e-05 -3.5397776058792153e-05 0 2.643867637703125e-05 -3.6587960976623506e-05 0 1.5374147199561587e-05 3.0247828455284687e-06 0 1.4655464777756334e-05 -4.3976383074285184e-06 0 1.6990437008245375e-05 -4.3788733548845185e-07 0 8.0018929335433971e-05 0.00023582515665242576 0 8.6207421846744354e-05 0.00026554830853187328 0 5.4289906844422236e-05 0.0002400082500698384 0 -5.3591111375252691e-05 -0.00012388073750249827 0 -5.3841200206484239e-05 -0.00013913912748253062 0 -4.0198356422194381e-05 -0.00012365995745718597 0 -5.2956967067676439e-05 -0.00010854945959297476 0 -5.3591111375252691e-05 -0.00012388073750249827 0 -4.0198356422194381e-05 -0.00012365995745718597 0 7.4833541523796514e-05 0.00020753884285714598 0 8.0018929335433971e-05 0.00023582515665242576 0 5.4289906844422236e-05 0.0002400082500698384 0 1.7106961658613074e-05 5.9757356792061328e-06 0 1.5276112194281356e-05 4.8170475868124573e-06 0 1.5374147199561587e-05 3.0247828455284687e-06 0 3.3679006433110414e-06 2.2929992771022667e-06 0 2.22319999645794e-06 1.9855801872935421e-06 0 1.9070345555273587e-06 2.5020007656894578e-06 0 1.2862181236472351e-06 1.9025100668867904e-06 0 1.9070345555273587e-06 2.5020007656894578e-06 0 2.22319999645794e-06 1.9855801872935421e-06 0 3.3707476553233406e-05 0.00012417917278793845 0 4.2751983641576995e-05 0.00014163864365048729 0 1.6590672979993498e-05 0.00014199660941427897 0 4.2751983641576995e-05 0.00014163864365048729 0 3.8667893570614598e-05 0.00015992770442576737 0 1.6590672979993498e-05 0.00014199660941427897 0 1.7777676439173331e-05 -9.0397975422979837e-06 0 1.4655464777756334e-05 -4.3976383074285192e-06 0 1.5345403220038823e-05 -9.5087150518873244e-06 0 3.2835336856085445e-05 -5.7428326022977678e-05 0 3.9159364156371753e-05 -5.2268030901449051e-05 0 3.1645209810448711e-05 -4.8747695637249985e-05 0 2.1803637496578378e-05 -5.1260395464999703e-05 0 1.9362750427508611e-05 -4.6334870316089095e-05 0 1.7559904212664605e-05 -4.6892757918748647e-05 0 1.5276112194281356e-05 4.8170475868124573e-06 0 1.3531558269450311e-05 2.5826062672964658e-06 0 1.5374147199561587e-05 3.0247828455284687e-06 0 -8.9207868934325848e-05 0.00024323534597730056 0 -8.8281708432236082e-05 0.00021380547240186401 0 -6.2775710091275976e-05 0.00024227954701738866 0 2.897191051571722e-05 -0.00010498209245338916 0 1.8623145680999322e-05 -0.00012204448514008505 0 3.1869573103320561e-05 -0.0001200835323396213 0 -1.5174744485583495e-05 -2.8163451104653091e-06 0 -1.4227090395779554e-05 -2.9972123899180298e-06 0 -1.059764223123046e-05 -5.2855754204830739e-07 0 -2.2925172481834267e-05 3.8049401218276312e-06 0 -1.5850812312008042e-05 3.9875622059961982e-07 0 -2.0884829890951161e-05 4.2954229693253057e-06 0 1.7777676439173331e-05 -9.0397975422979837e-06 0 1.6994288511525045e-05 -1.492415397038727e-05 0 2.1997730604379851e-05 -1.6743617302553325e-05 0 6.8274385585664698e-06 -1.2895016521681917e-05 0 3.7076310685016133e-06 -2.4412951277733959e-05 0 1.2426091501446095e-05 -2.658014698174858e-05 0 2.2290235067547755e-05 -2.125421763879313e-05 0 1.6994288511525045e-05 -1.492415397038727e-05 0 1.887855282586979e-05 -2.1005419236657234e-05 0 1.537610264543323e-05 -1.8267264622749867e-05 0 1.887855282586979e-05 -2.1005419236657234e-05 0 1.6994288511525045e-05 -1.492415397038727e-05 0 -8.9465783625370063e-06 -0.00015478547042900866 0 6.7978161084088763e-06 -0.000155174727138803 0 3.9524617861171776e-06 -0.00014036666848830584 0 -2.0959495113703752e-06 0.00030261406984870564 0 -3.1347085429002864e-05 0.00030216728477826493 0 -2.966840301149025e-05 0.00027476983609190975 0 2.8588574114014438e-05 0.00030292316023311391 0 -2.0959495113703752e-06 0.00030261406984870564 0 2.3690325017611859e-05 0.00027441415977929082 0 -2.3886180116860877e-05 -0.00015441972847923929 0 -8.9465783625370063e-06 -0.00015478547042900866 0 -2.3119204340130022e-05 -0.00014025633844322021 0 7.4305710006020519e-06 2.0790254500859165e-05 0 -3.6329252339461323e-06 3.5652878357657906e-05 0 -6.8678968334387662e-06 2.1792839215886149e-05 0 1.1637830167422141e-05 -2.1367878989218614e-05 0 1.0593405317798305e-05 -2.5394882310963153e-05 0 1.415441163754963e-05 -2.633728716684172e-05 0 2.2290235067547755e-05 -2.125421763879313e-05 0 1.887855282586979e-05 -2.1005419236657234e-05 0 2.5021562155916926e-05 -2.5890375085042071e-05 0 1.9560281832032395e-05 -2.5010842644807293e-05 0 2.5021562155916926e-05 -2.5890375085042071e-05 0 1.887855282586979e-05 -2.1005419236657234e-05 0 3.3910544983165298e-06 -5.1387096480030482e-05 0 3.0113691633347764e-06 -3.7512868929470832e-05 0 -4.6153724384271546e-06 -4.7988625189546097e-05 0 -6.2662382958934723e-05 5.9627222177485689e-05 0 -3.8436787962106123e-05 4.5978606557812623e-05 0 -5.1646114931253865e-05 6.7807834154963429e-05 0 -6.3829960659613707e-06 -6.1399609513887288e-06 0 -1.0118998022593601e-05 -1.1049634736556144e-05 0 -3.3362378814649792e-06 -8.4638065720601994e-06 0 -5.1764805000255257e-06 -1.3964166710610008e-05 0 -3.3362378814649792e-06 -8.4638065720601994e-06 0 -1.0118998022593601e-05 -1.1049634736556144e-05 0 1.6315374986475054e-05 -4.3209491990581764e-05 0 1.9263562047405302e-05 -4.1772634085868162e-05 0 1.5759611948748361e-05 -3.9429470250082267e-05 0 -4.0838197938072018e-05 0.0001051169375076541 0 -5.8854411754361322e-05 0.00011864173475605117 0 -5.1504392261658458e-05 8.865328337000077e-05 0 -1.2634169349771465e-05 -3.9418838110497616e-06 0 -1.7494512813721726e-05 -7.8951653800134691e-06 0 -1.1977337652547316e-05 -7.0313878500571628e-06 0 -1.7124864892627075e-05 -1.1576248834774492e-05 0 -1.1977337652547316e-05 -7.0313878500571628e-06 0 -1.7494512813721726e-05 -7.8951653800134691e-06 0 -2.4939735704948392e-05 2.0319957709227379e-05 0 -2.6292685597603508e-05 1.3288063896750262e-05 0 -1.6524071338587554e-05 1.1821472787760253e-05 0 -1.8131294276486957e-05 6.5627947831485106e-06 0 -1.6524071338587554e-05 1.1821472787760253e-05 0 -2.6292685597603508e-05 1.3288063896750262e-05 0 1.1814503244196229e-05 -3.0359762999499301e-05 0 1.5956322341656918e-05 -3.1051349346478942e-05 0 1.415441163754963e-05 -2.633728716684172e-05 0 -3.6761354664703153e-05 -3.0895946412992858e-05 0 -3.1647711713422284e-05 -3.4727072586611439e-05 0 -2.4721120675699494e-05 -2.4559244334833219e-05 0 2.1245394075543459e-05 0.0001011955130048359 0 4.0421828412454218e-06 7.8208924443850226e-05 0 2.224674078697114e-05 7.5147347008439308e-05 0 1.113739117667215e-05 -2.9940329668212421e-06 0 8.8051576038808885e-06 -4.750975813720688e-06 0 9.9233209727079186e-06 -7.3986422382507572e-06 0 9.282875282708607e-06 2.1182537863420293e-06 0 1.084092110985457e-05 2.4242607104419964e-06 0 8.996342259304897e-06 1.7888314789357901e-06 0 -4.6722388622207383e-05 0.00018236579600131934 0 -2.6558435891956043e-05 0.00019066525851878149 0 -5.214009651074279e-05 0.00021427312838586212 0 7.3851548476173949e-06 -9.1113604044135952e-05 0 -1.9747151888836607e-06 -9.6316486946089968e-05 0 1.1490838887429537e-05 -0.00010771760626024624 0 1.7777676439173331e-05 -9.0397975422979837e-06 0 1.5345403220038819e-05 -9.5087150518873227e-06 0 1.6994288511525045e-05 -1.492415397038727e-05 0 1.9362750427508611e-05 -4.6334870316089088e-05 0 1.9263562047405302e-05 -4.1772634085868162e-05 0 1.6315374986475054e-05 -4.3209491990581764e-05 0 1.9560281832032395e-05 -2.5010842644807293e-05 0 1.7630355341708175e-05 -2.7122127867580394e-05 0 2.365902883050117e-05 -3.0871180615434341e-05 0 7.58391760943592e-10 -5.3021643611361599e-10 0 1.0498603242910699e-06 -9.4454074309419971e-07 0 6.778478734821156e-07 -1.486429608917337e-06 0 3.5268172988207421e-10 5.6523409012656054e-10 0 1.8726804586538803e-07 1.4367758025657937e-06 0 5.1267032250222129e-07 1.2463181148924313e-06 0 3.0113691633347764e-06 -3.7512868929470832e-05 0 -5.8011059558904806e-06 -3.7052495024384755e-05 0 -4.6153724384271546e-06 -4.7988625189546097e-05 0 -1.2144333887081206e-06 -2.8846690097351791e-06 0 -6.147172560072823e-07 -1.7032714319179005e-06 0 -4.6375380406532445e-06 -2.4254629569153675e-06 0 -4.9663065413112102e-06 9.4659512252141851e-06 0 -6.8678968334387637e-06 2.1792839215886146e-05 0 -1.5536663785471923e-05 1.941426063758018e-05 0 2.3301313499355598e-06 -1.0856634523451647e-06 0 1.3575803058708657e-06 -4.8862795530408329e-07 0 3.170296496631798e-06 -5.3419111401845617e-07 0 2.353689273796058e-06 -2.520345282306251e-08 0 3.170296496631798e-06 -5.3419111401845617e-07 0 1.3575803058708657e-06 -4.8862795530408329e-07 0 1.8539318225834943e-06 1.2927200558515859e-06 0 8.9055420573593219e-07 1.1726417945329586e-06 0 2.22319999645794e-06 1.9855801872935421e-06 0 1.2862181236472351e-06 1.9025100668867904e-06 0 2.22319999645794e-06 1.9855801872935421e-06 0 8.9055420573593208e-07 1.1726417945329584e-06 0 -4.6799760067873786e-06 2.5829658251521226e-06 0 7.6909587704748207e-07 4.3698082513454705e-06 0 -4.9663065413112102e-06 9.4659512252141851e-06 0 9.282875282708607e-06 2.1182537863420293e-06 0 1.1197844139563203e-05 2.5995892667189144e-06 0 1.084092110985457e-05 2.4242607104419964e-06 0 7.1934507019579896e-06 -5.9957183762865807e-07 0 4.6449276336264486e-06 -1.8499291992421754e-06 0 4.8973390622380986e-06 -1.3232007280338368e-06 0 -6.147172560072823e-07 -1.7032714319179005e-06 0 1.9762946499695639e-06 -2.4839181456140296e-06 0 3.3101144382512087e-06 -6.7633963512317159e-07 0 1.1736640918370499e-05 2.1190568034807914e-06 0 1.3410560115587704e-05 3.6047955456277433e-06 0 1.1197844139563201e-05 2.5995892667189144e-06 0 5.7837203045485067e-07 1.6986477695293845e-06 0 1.4528338438862893e-06 6.5876588230390595e-07 0 2.2460935032490927e-06 1.9357298201757387e-06 0 3.3334488223094961e-06 7.1002899653823091e-07 0 2.2460935032490927e-06 1.9357298201757387e-06 0 1.4528338438862893e-06 6.5876588230390595e-07 0 -1.4883220316018045e-09 -4.1408953005052589e-10 0 -6.5317238433587158e-10 -1.0895436828790515e-09 0 -1.2230217535690463e-06 -1.5017049765729151e-06 0 -6.4837828750901902e-10 7.2886218794977199e-10 0 -1.2300367666432476e-09 2.5177687084615417e-10 0 -1.006271002984318e-06 9.4413802224889466e-07 0 4.928622474609643e-05 7.7588589812312505e-05 0 2.224674078697114e-05 7.5147347008439308e-05 0 2.3498087071030183e-05 5.3403958264417459e-05 0 3.3679006433110414e-06 2.2929992771022667e-06 0 4.1189049488451841e-06 2.2043542843936003e-06 0 4.8087806027797889e-06 2.1105889822760436e-06 0 6.7914304234705902e-06 -8.0381713018522519e-06 0 7.297657055432646e-06 -5.4587476545236961e-06 0 5.7214011548548719e-06 -8.642209283508495e-06 0 2.3392325571755325e-05 -4.5355032497330187e-05 0 1.9263562047405302e-05 -4.1772634085868162e-05 0 1.9362750427508611e-05 -4.6334870316089088e-05 0 -1.178723878717361e-05 -9.2829168128181746e-07 0 -1.059764223123046e-05 -5.2855754204830739e-07 0 -8.7529885022180617e-06 5.4195568817527446e-07 0 -1.7128163187735524e-05 6.8917025481672578e-07 0 -1.2483207640797687e-05 -1.4310104127688539e-06 0 -1.5850812312008042e-05 3.9875622059961976e-07 0 1.9601143992230934e-05 -3.1240432784569886e-05 0 2.365902883050117e-05 -3.0871180615434341e-05 0 1.7630355341708175e-05 -2.7122127867580394e-05 0 -1.059764223123046e-05 -5.2855754204830739e-07 0 -7.2590453913808187e-06 3.0023353353686445e-07 0 -7.6674153220887639e-06 8.4262093566020513e-07 0 -7.7065679014326894e-06 -1.0634032435899598e-06 0 -4.3871283079196959e-06 -3.2509154847909249e-07 0 -1.2024947753060469e-05 1.268530550922921e-06 0 -1.0641209608054931e-05 -1.5408814787773756e-06 0 -7.2590453913808187e-06 3.002335335368644e-07 0 -1.059764223123046e-05 -5.2855754204830739e-07 0 -4.1924354114427022e-07 2.653500466894703e-06 0 -2.038969283609934e-06 2.5285126132305144e-06 0 -1.0375884335485234e-06 2.1988117329395919e-06 0 2.3069695784421915e-06 -2.8599696595372136e-06 0 1.9762946499695639e-06 -2.4839181456140296e-06 0 -1.0509551314872021e-06 -3.5122651926747572e-06 0 -1.1298225531317723e-05 5.7598600671257605e-06 0 -4.6799760067873786e-06 2.5829658251521226e-06 0 -4.9663065413112102e-06 9.4659512252141851e-06 0 1.1814503244196229e-05 -3.0359762999499301e-05 0 1.415441163754963e-05 -2.633728716684172e-05 0 1.0593405317798305e-05 -2.5394882310963153e-05 0 3.1309046313799897e-05 0.00018445964384302714 0 4.2464553477120098e-05 0.00021443271401586618 0 1.636997298384222e-05 0.0002110172183280339 0 -3.1132894446462269e-05 -9.3498052038859338e-05 0 -3.5612142567428299e-05 -0.00010971149390268005 0 -2.255769697173194e-05 -0.00010715100800282569 0 2.3301313499355598e-06 -1.0856634523451647e-06 0 1.0498603242910701e-06 -9.4454074309419971e-07 0 1.3575803058708657e-06 -4.8862795530408329e-07 0 1.2862181236472351e-06 1.9025100668867904e-06 0 8.9055420573593197e-07 1.1726417945329584e-06 0 5.1267032250222129e-07 1.2463181148924313e-06 0 3.2868317134520615e-10 -7.8491837252557038e-10 0 6.778478734821156e-07 -1.486429608917337e-06 0 1.5220058786192523e-07 -1.6103185105657565e-06 0 -2.3582369333848187e-11 6.4281218741259084e-10 0 -1.6676528681006727e-07 1.3148985325172475e-06 0 1.8726804586538803e-07 1.4367758025657937e-06 0 6.7914304234705902e-06 -8.0381713018522519e-06 0 5.486402149141179e-06 -1.0897483528534939e-05 0 8.3144081845504439e-06 -1.0872397885790962e-05 0 7.0409378646326836e-06 -1.3672983017183643e-05 0 8.3144081845504439e-06 -1.0872397885790962e-05 0 5.486402149141179e-06 -1.0897483528534939e-05 0 -1.3494839527697245e-05 8.3618093342427522e-05 0 -1.1299996857225487e-05 5.7824588479561034e-05 0 4.0421828412454218e-06 7.8208924443850226e-05 0 6.7287389803577054e-06 5.134040451689602e-05 0 4.0421828412454201e-06 7.8208924443850226e-05 0 -1.1299996857225487e-05 5.7824588479561034e-05 0 1.4123897313785905e-05 8.455481167891341e-06 0 1.4713345325902489e-05 5.1846154150202178e-06 0 2.0378160887615635e-05 1.0464583376968567e-05 0 6.7914304234705902e-06 -8.0381713018522519e-06 0 8.8051576038808885e-06 -4.750975813720688e-06 0 7.297657055432646e-06 -5.4587476545236961e-06 0 5.3216907219733983e-06 -2.3755664600773601e-07 0 3.7345215730670547e-06 1.4909722527779806e-07 0 4.9879645149937807e-06 6.119555800244956e-07 0 1.1637830167422141e-05 -2.1367878989218614e-05 0 1.415441163754963e-05 -2.633728716684172e-05 0 1.5579250700206554e-05 -2.2325577850039029e-05 0 -2.9432342036962239e-05 0.00014190063325047778 0 -4.1545690145643287e-05 0.00012316052982456034 0 -2.2941082251001169e-05 0.00010924509429509628 0 1.0787569146735426e-05 -3.7071214301446324e-05 0 7.8553635652698834e-06 -3.1864134598698213e-05 0 7.8079938689976259e-06 -3.6894411178612842e-05 0 2.643867637703125e-05 -3.6587960976623506e-05 0 2.1947967843637199e-05 -3.4939545155714501e-05 0 2.4409396938205842e-05 -4.0590245760897123e-05 0 2.1678544312583268e-06 2.492701901389389e-06 0 1.9070345555273585e-06 2.5020007656894578e-06 0 9.4111292168959943e-07 2.6649798185528332e-06 0 -1.8286843944298757e-05 3.6644404729267133e-05 0 -6.8678968334387662e-06 2.1792839215886149e-05 0 -3.6329252339461323e-06 3.5652878357657906e-05 0 -3.4472817009175591e-06 4.4811691520920692e-07 0 -5.8061404639274156e-06 6.1671029068294108e-07 0 -3.3770075977302465e-06 1.0956649259687572e-06 0 -7.9632928326448207e-06 -1.4636809675675876e-06 0 -4.5683031333243969e-06 -1.1030019478309447e-06 0 -4.4586635329320306e-06 -2.0157623649104919e-06 0 2.2290235067547755e-05 -2.125421763879313e-05 0 2.1997730604379851e-05 -1.6743617302553325e-05 0 1.6994288511525045e-05 -1.492415397038727e-05 0 -7.302809354755586e-07 2.049372077311413e-06 0 -1.1125186971273432e-06 2.6184471292268849e-06 0 -5.8874280470893387e-08 2.2864599513284871e-06 0 -2.5250117405533427e-07 -2.6714703989607684e-06 0 8.5417163412178706e-07 -2.5229200075918277e-06 0 -1.7182186054275483e-08 -3.3767201413822896e-06 0 -5.5003264627614609e-05 4.1723788076646842e-05 0 -3.7437736998716911e-05 3.0679260930631806e-05 0 -3.8436787962106123e-05 4.5978606557812623e-05 0 -3.2574058336761728e-05 -2.2212792307287297e-05 0 -2.4721120675699494e-05 -2.4559244334833219e-05 0 -2.368752321659677e-05 -1.6585844856128489e-05 0 7.4305710006020519e-06 2.0790254500859165e-05 0 1.770094648091322e-05 1.4803737773274668e-05 0 1.610509555285572e-05 3.0666784680070826e-05 0 2.9270814007378507e-05 1.7737772059680154e-05 0 1.6105095552855717e-05 3.0666784680070826e-05 0 1.770094648091322e-05 1.4803737773274668e-05 0 -3.2944718461096159e-06 -2.7504635414517043e-05 0 -1.1416216424915245e-05 -3.0181353757050567e-05 0 -5.8011059558904806e-06 -3.7052495024384755e-05 0 -1.2274081940655995e-05 -4.4152463385600101e-05 0 -5.8011059558904806e-06 -3.7052495024384755e-05 0 -1.1416216424915245e-05 -3.0181353757050567e-05 0 1.7777676439173331e-05 -9.0397975422979837e-06 0 2.0139751492799766e-05 -4.2175265396004579e-06 0 1.6990437008245375e-05 -4.3788733548845185e-07 0 2.3392325571755325e-05 -4.5355032497330187e-05 0 1.9362750427508611e-05 -4.6334870316089095e-05 0 2.3166141701688403e-05 -4.9555664344731966e-05 0 5.3216907219733983e-06 -2.3755664600773601e-07 0 4.8973390622380986e-06 -1.3232007280338368e-06 0 3.6619687792902987e-06 -1.0415029204842569e-06 0 -1.0118998022593601e-05 -1.1049634736556144e-05 0 -1.7381062921308675e-05 -1.6678619031919168e-05 0 -1.1129247358837706e-05 -1.6609435061411013e-05 0 3.2835336856085445e-05 -5.7428326022977678e-05 0 3.1645209810448711e-05 -4.8747695637249985e-05 0 2.6801601557123345e-05 -5.0186399189280424e-05 0 -3.6405109686167472e-05 6.7819480097255661e-05 0 -5.1646114931253865e-05 6.7807834154963429e-05 0 -3.8436787962106123e-05 4.5978606557812623e-05 0 -5.214009651074279e-05 0.00021427312838586212 0 -2.6558435891956043e-05 0.00019066525851878149 0 -2.4661794028918296e-05 0.00021658789965004553 0 1.1490838887429537e-05 -0.00010771760626024624 0 -1.9747151888836607e-06 -9.6316486946089968e-05 0 -1.8730085939230633e-06 -0.00010958719974305495 0 5.634383038392357e-06 1.4713947288976888e-06 0 7.3613513909406043e-06 1.5821917830881929e-06 0 5.6780127066346062e-06 1.9969798445382846e-06 0 7.0409378646326836e-06 -1.3672983017183643e-05 0 5.486402149141179e-06 -1.0897483528534939e-05 0 4.8796370233055824e-06 -1.5114629978645296e-05 0 6.8570591699192581e-06 1.3272379939318201e-06 0 8.996342259304897e-06 1.7888314789357903e-06 0 8.2728779766637881e-06 1.0464336725890703e-06 0 1.0108941537752591e-05 1.6612041547831153e-06 0 8.2728779766637881e-06 1.0464336725890703e-06 0 8.996342259304897e-06 1.7888314789357901e-06 0 -6.147172560072823e-07 -1.7032714319179005e-06 0 -4.3871283079196959e-06 -3.2509154847909243e-07 0 -4.6375380406532445e-06 -2.4254629569153675e-06 0 -1.2274081940655995e-05 -4.4152463385600101e-05 0 -1.9353523697084639e-05 -5.1740654790538111e-05 0 -1.329714001109742e-05 -5.9504347979789235e-05 0 -8.0960781817188572e-06 -2.7661640481422205e-06 0 -4.5709853346751254e-06 -3.3756444456665303e-06 0 -9.5672250243481744e-06 -1.942777224109882e-06 0 1.6590672979993498e-05 0.00014199660941427897 0 -4.4955249463396264e-06 0.00016632447798697436 0 -1.0812408306924838e-05 0.0001439677299131021 0 1.6590672979993498e-05 0.00014199660941427897 0 -1.0812408306924838e-05 0.0001439677299131021 0 -7.4328897659725493e-06 0.00012123859125968373 0 -2.9432342036962239e-05 0.00014190063325047778 0 -7.4328897659725493e-06 0.00012123859125968373 0 -1.0812408306924838e-05 0.0001439677299131021 0 -2.291010289260877e-05 -7.1071496690557577e-05 0 -1.3627840035281842e-05 -8.4134107675402141e-05 0 -9.5340497449556155e-06 -7.1111846309066003e-05 0 -2.291010289260877e-05 -7.1071496690557577e-05 0 -9.5340497449556155e-06 -7.1111846309066003e-05 0 -1.329714001109742e-05 -5.9504347979789235e-05 0 1.4713345325902489e-05 5.1846154150202178e-06 0 1.7485635106318793e-05 7.1275643450801749e-06 0 2.0378160887615635e-05 1.0464583376968567e-05 0 1.0294774512309341e-09 -4.1858419883831071e-10 0 1.3251000203548772e-09 1.4086682304882724e-11 0 1.3575803058708657e-06 -4.8862795530408329e-07 0 9.4823610669508472e-10 3.7837329089978585e-10 0 5.9945263414280595e-10 5.6898325046056738e-10 0 8.9055420573593208e-07 1.1726417945329584e-06 0 4.1189049488451841e-06 2.2043542843936003e-06 0 5.6780127066346054e-06 1.9969798445382846e-06 0 4.8087806027797889e-06 2.1105889822760436e-06 0 6.8274385585664698e-06 -1.2895016521681917e-05 0 4.2140938640264221e-06 -9.8337489124481515e-06 0 2.355764138660657e-06 -1.5359484134413257e-05 0 -4.5709853346751254e-06 -3.3756444456665303e-06 0 -4.6375380406532437e-06 -2.4254629569153675e-06 0 -9.5672250243481744e-06 -1.942777224109882e-06 0 1.2058505054576104e-09 2.649148847673761e-10 0 1.9081941217619302e-06 7.560737592947889e-07 0 1.2417585931923289e-06 2.1934159943194189e-07 0 -7.9632928326448207e-06 -1.4636809675675876e-06 0 -6.3917877147121468e-06 -2.6837628073792026e-06 0 -9.5785630721549036e-06 -2.0935963100892977e-06 0 -5.8061404639274156e-06 6.1671029068294108e-07 0 -6.920284917563176e-06 1.0280172319735878e-06 0 -4.8399876175563919e-06 1.492994453023998e-06 0 -2.4104600707112232e-05 -3.442908413485754e-05 0 -2.4721120675699494e-05 -2.4559244334833219e-05 0 -3.1647711713422284e-05 -3.4727072586611439e-05 0 3.076366369123775e-06 1.3949528397518037e-06 0 1.8539318225834943e-06 1.2927200558515859e-06 0 3.3408520239127875e-06 1.926113672016901e-06 0 1.1814503244196229e-05 -3.0359762999499301e-05 0 7.8553635652698834e-06 -3.1864134598698213e-05 0 1.2362507784122716e-05 -3.447471454350923e-05 0 1.1736640918370499e-05 2.1190568034807914e-06 0 1.1197844139563201e-05 2.5995892667189144e-06 0 1.0158439024976617e-05 1.6461318084289572e-06 0 2.1245394075543459e-05 0.0001011955130048359 0 -8.2539784860578875e-07 0.00010204147611644188 0 4.0421828412454218e-06 7.8208924443850226e-05 0 5.3216907219733983e-06 -2.3755664600773601e-07 0 3.170296496631798e-06 -5.3419111401845617e-07 0 3.7345215730670547e-06 1.4909722527779806e-07 0 -3.4868890417327977e-05 0.00024506581203297454 0 -2.4661794028918296e-05 0.00021658789965004553 0 -3.4857376324568159e-06 0.00023106766889658951 0 4.718930492430728e-06 -0.00012448864260921494 0 -1.8730085939230633e-06 -0.00010958719974305495 0 -1.1784666338702898e-05 -0.00011746720105295099 0 1.8539318225834943e-06 1.2927200558515859e-06 0 2.22319999645794e-06 1.9855801872935421e-06 0 3.3408520239127875e-06 1.926113672016901e-06 0 1.1736640918370499e-05 2.1190568034807914e-06 0 9.9777948643902124e-06 3.5186062962915202e-07 0 1.1254324089149498e-05 8.7323012527154354e-08 0 2.5909918703180105e-05 0.00024356385706266148 0 2.3690325017611859e-05 0.00027441415977929082 0 -3.7754820060108685e-06 0.0002644572536001815 0 -3.4868890417327977e-05 0.00024506581203297454 0 -3.775482006010863e-06 0.0002644572536001815 0 -2.966840301149025e-05 0.00027476983609190975 0 -2.5853908497769538e-05 -0.00012441841594146579 0 -2.3119204340130022e-05 -0.00014025633844322021 0 -1.0026158570410995e-05 -0.00013500715690433309 0 4.718930492430728e-06 -0.00012448864260921494 0 -1.0026158570410995e-05 -0.00013500715690433309 0 3.9524617861171776e-06 -0.00014036666848830584 0 -4.9663065413112102e-06 9.4659512252141851e-06 0 -1.5536663785471923e-05 1.941426063758018e-05 0 -1.6524071338587554e-05 1.1821472787760253e-05 0 -1.4859583121920128e-05 -2.1104711271613561e-05 0 -2.4721120675699494e-05 -2.4559244334833219e-05 0 -1.8359608165090514e-05 -2.8615349315035156e-05 0 -2.4104600707112232e-05 -3.442908413485754e-05 0 -1.8359608165090514e-05 -2.8615349315035156e-05 0 -2.4721120675699494e-05 -2.4559244334833219e-05 0 -3.6405109686167472e-05 6.7819480097255661e-05 0 -3.8436787962106123e-05 4.5978606557812623e-05 0 -2.4840188162051745e-05 5.4811201343059169e-05 0 -1.8286843944298757e-05 3.6644404729267133e-05 0 -2.4840188162051745e-05 5.4811201343059169e-05 0 -3.8436787962106123e-05 4.5978606557812623e-05 0 1.2862181236472351e-06 1.9025100668867904e-06 0 8.1861223917610579e-07 2.1686226216254094e-06 0 1.9070345555273587e-06 2.5020007656894578e-06 0 4.2223191748484372e-05 5.2069256216969684e-05 0 4.928622474609643e-05 7.7588589812312505e-05 0 2.3498087071030183e-05 5.3403958264417459e-05 0 -2.5250117405533427e-07 -2.6714703989607684e-06 0 -1.3814552054549764e-06 -3.2029720963176645e-06 0 -1.2041664756561698e-06 -2.3112094358222818e-06 0 -7.302809354755586e-07 2.049372077311413e-06 0 -1.1685204558322388e-06 1.5707405331581794e-06 0 -1.6145625209302439e-06 2.2405059192651437e-06 0 6.7914304234705902e-06 -8.0381713018522519e-06 0 9.9233209727079186e-06 -7.3986422382507572e-06 0 8.8051576038808885e-06 -4.750975813720688e-06 0 -1.1125186971273432e-06 2.6184471292268849e-06 0 -1.3910038739179276e-07 2.6498090036960686e-06 0 -5.8874280470893387e-08 2.2864599513284871e-06 0 -1.7182186054275483e-08 -3.3767201413822896e-06 0 8.5417163412178706e-07 -2.5229200075918277e-06 0 1.6447575556869249e-06 -2.8498704663377436e-06 0 -7.7065679014326894e-06 -1.0634032435899598e-06 0 -1.2024947753060469e-05 1.268530550922921e-06 0 -9.5672250243481744e-06 -1.942777224109882e-06 0 -1.5850812312008042e-05 3.9875622059961976e-07 0 -9.5672250243481744e-06 -1.942777224109882e-06 0 -1.2024947753060469e-05 1.268530550922921e-06 0 2.5909918703180105e-05 0.00024356385706266148 0 1.636997298384222e-05 0.0002110172183280339 0 4.2464553477120098e-05 0.00021443271401586618 0 -2.5853908497769538e-05 -0.00012441841594146579 0 -2.255769697173194e-05 -0.00010715100800282569 0 -3.5612142567428305e-05 -0.00010971149390268005 0 3.2835336856085445e-05 -5.7428326022977678e-05 0 4.2116811675399623e-05 -5.961366575404119e-05 0 3.9159364156371753e-05 -5.2268030901449051e-05 0 1.980560105441517e-05 -4.8754579382970678e-05 0 2.1803637496578378e-05 -5.1260395464999703e-05 0 1.7559904212664605e-05 -4.6892757918748647e-05 0 -7.5895087084173754e-07 9.0064717545137817e-07 0 5.7837203045485067e-07 1.6986477695293845e-06 0 -1.0375884335485234e-06 2.1988117329395919e-06 0 6.7075299515120599e-06 -4.0711670958277162e-05 0 1.0728365858582243e-05 -4.1213671238317377e-05 0 7.8079938689976259e-06 -3.6894411178612842e-05 0 4.5307150609031545e-05 -3.3462641168910315e-05 0 3.9864593221501269e-05 -3.3876966188297018e-05 0 4.2489654845449092e-05 -3.9730290266553395e-05 0 3.0479944974976183e-05 -4.0851553639340846e-05 0 3.5979210506473908e-05 -4.0689887965968783e-05 0 3.08676949667305e-05 -3.5397776058792153e-05 0 -1.7124864892627075e-05 -1.1576248834774492e-05 0 -1.7381062921308675e-05 -1.6678619031919168e-05 0 -1.0118998022593601e-05 -1.1049634736556144e-05 0 2.1803637496578378e-05 -5.1260395464999703e-05 0 2.3166141701688403e-05 -4.9555664344731966e-05 0 1.9362750427508611e-05 -4.6334870316089088e-05 0 -1.8131294276486957e-05 6.5627947831485106e-06 0 -1.2024947753060469e-05 1.268530550922921e-06 0 -1.1298225531317723e-05 5.7598600671257605e-06 0 7.3613513909406043e-06 1.5821917830881927e-06 0 7.4221126788734893e-06 1.9539253733536804e-06 0 5.6780127066346062e-06 1.9969798445382846e-06 0 -1.4859583121920128e-05 -2.1104711271613561e-05 0 -1.1416216424915245e-05 -3.0181353757050567e-05 0 -8.1610227076933699e-06 -2.1250753400891297e-05 0 -3.2944718461096159e-06 -2.7504635414517043e-05 0 -8.1610227076933716e-06 -2.1250753400891297e-05 0 -1.1416216424915245e-05 -3.0181353757050567e-05 0 -2.6853506354948721e-06 1.2125487531490388e-06 0 -7.5895087084173754e-07 9.0064717545137817e-07 0 -1.0375884335485234e-06 2.1988117329395919e-06 0 -1.4859583121920128e-05 -2.1104711271613561e-05 0 -1.1129247358837706e-05 -1.6609435061411013e-05 0 -1.7381062921308675e-05 -1.6678619031919168e-05 0 -2.8118323649093648e-06 2.1025961620172005e-06 0 -2.6853506354948721e-06 1.2125487531490388e-06 0 -1.0375884335485234e-06 2.1988117329395919e-06 0 2.3069695784421915e-06 -2.8599696595372136e-06 0 5.2528921118450941e-06 -1.6294385103215121e-06 0 1.9762946499695639e-06 -2.4839181456140296e-06 0 -1.4859583121920128e-05 -2.1104711271613561e-05 0 -1.7381062921308675e-05 -1.6678619031919168e-05 0 -2.4721120675699494e-05 -2.4559244334833219e-05 0 -1.8286843944298757e-05 3.6644404729267133e-05 0 -3.8436787962106123e-05 4.5978606557812623e-05 0 -2.6671240419812909e-05 2.9856664586215436e-05 0 -6.5317238433587158e-10 -1.0895436828790515e-09 0 -2.8510338654528215e-07 -1.501635386460738e-06 0 -1.2041664756561698e-06 -2.3112094358222818e-06 0 -6.4837828750901902e-10 7.2886218794977199e-10 0 -1.1685204558322388e-06 1.5707405331581794e-06 0 -4.1156247717030646e-07 1.0983199987789315e-06 0 -2.8118323649093648e-06 2.1025961620172005e-06 0 -1.0375884335485234e-06 2.1988117329395919e-06 0 -2.038969283609934e-06 2.5285126132305144e-06 0 -1.2144333887081206e-06 -2.8846690097351791e-06 0 -1.0509551314872021e-06 -3.5122651926747572e-06 0 1.9762946499695639e-06 -2.4839181456140296e-06 0 2.0156675044062869e-06 -2.4717890737338175e-06 0 2.255386983733071e-06 -1.892945764837693e-06 0 3.38549570935585e-06 -2.1815134519946509e-06 0 2.355764138660657e-06 -1.5359484134413257e-05 0 -2.9243629735301568e-06 -1.8617955921062194e-05 0 3.7076310685016133e-06 -2.4412951277733959e-05 0 5.3216907219733983e-06 -2.3755664600773601e-07 0 4.9879645149937807e-06 6.119555800244956e-07 0 6.4653672724203111e-06 5.3061164245447514e-07 0 -3.4868890417327977e-05 0.00024506581203297454 0 -5.214009651074279e-05 0.00021427312838586212 0 -2.4661794028918296e-05 0.00021658789965004553 0 4.718930492430728e-06 -0.00012448864260921494 0 1.1490838887429537e-05 -0.00010771760626024624 0 -1.8730085939230633e-06 -0.00010958719974305495 0 -4.1924354114427022e-07 2.653500466894703e-06 0 -1.1125186971273432e-06 2.6184471292268849e-06 0 -2.038969283609934e-06 2.5285126132305144e-06 0 2.3069695784421915e-06 -2.8599696595372136e-06 0 -1.0509551314872021e-06 -3.5122651926747572e-06 0 -1.7182186054275483e-08 -3.3767201413822896e-06 0 3.7333659231188572e-06 1.0105617683864737e-06 0 4.4349584007924795e-06 1.7483018810888415e-06 0 5.2957795984863164e-06 1.3214369132965885e-06 0 -2.9243629735301568e-06 -1.8617955921062194e-05 0 -3.2944718461096159e-06 -2.7504635414517043e-05 0 3.7076310685016133e-06 -2.4412951277733959e-05 0 -8.4027378527450785e-05 0.00015710493933690105 0 -8.0657505403270514e-05 0.00013016129444769632 0 -5.654959502021324e-05 0.00014245120220425517 0 2.1671212461722311e-05 -6.2397023716424311e-05 0 1.077335608238214e-05 -7.0158572565694999e-05 0 2.4036930298078032e-05 -7.5810193654172675e-05 0 -2.291010289260877e-05 -7.1071496690557577e-05 0 -1.3297140011097422e-05 -5.9504347979789235e-05 0 -2.2878794078823228e-05 -5.973637289592834e-05 0 8.9188326108093675e-06 -2.1668519231912534e-06 0 7.297657055432646e-06 -5.4587476545236953e-06 0 8.8051576038808885e-06 -4.750975813720688e-06 0 -8.0960781817188572e-06 -2.7661640481422205e-06 0 -6.391787714712146e-06 -2.6837628073792026e-06 0 -5.2489971323599156e-06 -3.2858391487251336e-06 0 -6.1843352842411942e-06 1.5556505216283095e-06 0 -4.3458294519180077e-06 1.9702086794220232e-06 0 -4.8399876175563919e-06 1.492994453023998e-06 0 1.074333260572231e-05 2.0580334363863205e-06 0 7.9618375430939547e-06 -6.6269584506664891e-08 0 1.0389828660944798e-05 1.3097952471908445e-06 0 3.7333659231188572e-06 1.0105617683864737e-06 0 3.076366369123775e-06 1.3949528397518037e-06 0 4.4349584007924795e-06 1.7483018810888415e-06 0 7.0409378646326836e-06 -1.3672983017183643e-05 0 6.2450837437743708e-06 -1.8267998543278126e-05 0 9.2752404176054694e-06 -1.637181027685989e-05 0 -8.0960781817188572e-06 -2.7661640481422205e-06 0 -9.5785630721549036e-06 -2.0935963100892977e-06 0 -6.3917877147121468e-06 -2.6837628073792026e-06 0 -6.1843352842411942e-06 1.5556505216283095e-06 0 -4.8399876175563919e-06 1.4929944530239982e-06 0 -6.9202849175631768e-06 1.0280172319735876e-06 0 1.1736640918370499e-05 2.1190568034807914e-06 0 1.0158439024976617e-05 1.6461318084289572e-06 0 9.9777948643902124e-06 3.5186062962915202e-07 0 -1.164593724541675e-05 -0.00010082697485521728 0 -1.3627840035281844e-05 -8.4134107675402141e-05 0 -2.0493288241379853e-05 -9.2997970194441174e-05 0 -6.3628260926847072e-06 0.0001995515694658853 0 -4.4955249463396298e-06 0.00016632447798697433 0 1.0283128726684824e-05 0.0001841044571878737 0 -1.7124864892627075e-05 -1.1576248834774492e-05 0 -1.0118998022593601e-05 -1.1049634736556144e-05 0 -1.1977337652547316e-05 -7.0313878500571628e-06 0 -6.3829960659613707e-06 -6.1399609513887288e-06 0 -1.1977337652547314e-05 -7.0313878500571628e-06 0 -1.0118998022593601e-05 -1.1049634736556144e-05 0 4.4273873399424276e-06 -2.3495987373147493e-06 0 2.2124318657912877e-06 -3.551220947560753e-06 0 4.8868879252158307e-06 -5.782555502012609e-06 0 1.432283263433373e-06 -7.0625381779211988e-06 0 4.8868879252158307e-06 -5.782555502012609e-06 0 2.2124318657912877e-06 -3.551220947560753e-06 0 6.778478734821156e-07 -1.486429608917337e-06 0 2.255386983733071e-06 -1.892945764837693e-06 0 8.5417163412178706e-07 -2.5229200075918277e-06 0 2.0156675044062869e-06 -2.4717890737338175e-06 0 8.5417163412178706e-07 -2.5229200075918277e-06 0 2.255386983733071e-06 -1.892945764837693e-06 0 4.6093903270406261e-07 2.5402397536572056e-06 0 8.1861223917610579e-07 2.1686226216254094e-06 0 -5.8874280470893387e-08 2.2864599513284871e-06 0 1.8726804586538803e-07 1.4367758025657937e-06 0 -5.8874280470893387e-08 2.2864599513284871e-06 0 8.1861223917610579e-07 2.1686226216254094e-06 0 1.1814503244196229e-05 -3.0359762999499301e-05 0 1.5407299030268988e-05 -3.5071304860437083e-05 0 1.5956322341656918e-05 -3.1051349346478942e-05 0 8.9188326108093675e-06 -2.1668519231912534e-06 0 1.1254324089149498e-05 8.7323012527154354e-08 0 9.9777948643902124e-06 3.5186062962915202e-07 0 1.0108941537752591e-05 1.6612041547831153e-06 0 9.0412188261946459e-06 7.7737835452609058e-07 0 8.2728779766637881e-06 1.0464336725890703e-06 0 1.6590672979993498e-05 0.00014199660941427897 0 1.8393237947354459e-05 0.00016744665222482251 0 -4.4955249463396264e-06 0.00016632447798697436 0 -2.291010289260877e-05 -7.1071496690557577e-05 0 -2.4910611405683342e-05 -8.3666107502838644e-05 0 -1.3627840035281842e-05 -8.4134107675402141e-05 0 1.6590672979993498e-05 0.00014199660941427897 0 -7.4328897659725493e-06 0.00012123859125968373 0 1.2526075240129921e-05 0.00011803735643687509 0 1.074333260572231e-05 2.0580334363863205e-06 0 7.2377321112971539e-06 7.1446995001483435e-07 0 7.9618375430939547e-06 -6.6269584506664957e-08 0 1.074333260572231e-05 2.0580334363863205e-06 0 1.050897508366943e-05 4.1311790154264474e-06 0 7.2377321112971547e-06 7.1446995001483445e-07 0 -1.3494839527697245e-05 8.3618093342427522e-05 0 -8.2539784860578705e-07 0.00010204147611644188 0 -2.2941082251001169e-05 0.00010924509429509628 0 -7.4328897659725493e-06 0.00012123859125968373 0 -2.2941082251001169e-05 0.00010924509429509628 0 -8.2539784860578705e-07 0.00010204147611644188 0 -2.7169591982023028e-06 -2.3363829418927757e-06 0 -1.2041664756561698e-06 -2.3112094358222818e-06 0 -2.4738366446919991e-06 -3.0731941344886056e-06 0 -2.198613438847782e-06 1.4251432939176903e-06 0 -2.2488824469217551e-06 2.002520891228374e-06 0 -1.1685204558322388e-06 1.5707405331581794e-06 0 -3.2944718461096159e-06 -2.7504635414517043e-05 0 -5.8011059558904806e-06 -3.7052495024384755e-05 0 3.0113691633347764e-06 -3.7512868929470832e-05 0 6.7075299515120599e-06 -4.0711670958277162e-05 0 9.8977520611730437e-06 -4.5261508872829209e-05 0 1.0728365858582243e-05 -4.1213671238317377e-05 0 4.5307150609031545e-05 -3.3462641168910315e-05 0 4.2489654845449092e-05 -3.9730290266553395e-05 0 5.0496282849673641e-05 -3.844201552897771e-05 0 8.6021258366253622e-06 8.4977690728033803e-07 0 9.9777948643902124e-06 3.5186062962915202e-07 0 1.0158439024976617e-05 1.6461318084289572e-06 0 1.0108941537752591e-05 1.6612041547831153e-06 0 1.2532980379428191e-05 3.0033066905984343e-06 0 1.0389828660944798e-05 1.3097952471908445e-06 0 2.3392325571755325e-05 -4.5355032497330187e-05 0 2.4409396938205842e-05 -4.0590245760897123e-05 0 1.9263562047405302e-05 -4.1772634085868162e-05 0 2.0533475571860079e-05 -3.808425661307047e-05 0 1.9263562047405302e-05 -4.1772634085868162e-05 0 2.4409396938205842e-05 -4.0590245760897123e-05 0 1.9560281832032395e-05 -2.5010842644807293e-05 0 2.3659028830501166e-05 -3.0871180615434341e-05 0 2.5021562155916926e-05 -2.5890375085042071e-05 0 -3.4868890417327977e-05 0.00024506581203297454 0 -6.2775710091275976e-05 0.00024227954701738866 0 -5.214009651074279e-05 0.00021427312838586212 0 4.718930492430728e-06 -0.00012448864260921494 0 1.8623145680999322e-05 -0.00012204448514008505 0 1.1490838887429537e-05 -0.00010771760626024624 0 1.4410267198827035e-05 -4.4144815051838449e-05 0 1.589563525248727e-05 -4.6881375157532766e-05 0 1.7559904212664605e-05 -4.6892757918748647e-05 0 4.1578621850127104e-05 -4.5717871727979538e-05 0 3.9159364156371753e-05 -5.2268030901449051e-05 0 5.0168582366521595e-05 -5.0712953251859492e-05 0 2.5909918703180105e-05 0.00024356385706266148 0 -3.4857376324568159e-06 0.00023106766889658951 0 1.636997298384222e-05 0.0002110172183280339 0 -2.5853908497769538e-05 -0.00012441841594146579 0 -1.1784666338702898e-05 -0.00011746720105295099 0 -2.255769697173194e-05 -0.00010715100800282569 0 3.7333659231188572e-06 1.0105617683864737e-06 0 5.2957795984863164e-06 1.3214369132965885e-06 0 4.9879645149937807e-06 6.119555800244956e-07 0 6.8570591699192581e-06 1.3272379939318201e-06 0 4.9879645149937807e-06 6.119555800244956e-07 0 5.2957795984863164e-06 1.3214369132965885e-06 0 3.1309046313799897e-05 0.00018445964384302714 0 1.636997298384222e-05 0.0002110172183280339 0 1.0283128726684824e-05 0.0001841044571878737 0 -3.1132894446462269e-05 -9.3498052038859338e-05 0 -2.255769697173194e-05 -0.00010715100800282569 0 -2.0493288241379853e-05 -9.2997970194441174e-05 0 -2.5250117405533427e-07 -2.6714703989607684e-06 0 -1.20416647565617e-06 -2.3112094358222818e-06 0 -2.8510338654528215e-07 -1.501635386460738e-06 0 -7.302809354755586e-07 2.049372077311413e-06 0 -4.1156247717030646e-07 1.0983199987789315e-06 0 -1.1685204558322388e-06 1.5707405331581794e-06 0 6.7287389803577054e-06 5.134040451689602e-05 0 2.224674078697114e-05 7.5147347008439308e-05 0 4.0421828412454218e-06 7.8208924443850226e-05 0 -2.7169591982023028e-06 -2.3363829418927757e-06 0 -1.2230217535690463e-06 -1.5017049765729151e-06 0 -1.2041664756561698e-06 -2.3112094358222818e-06 0 -2.198613438847782e-06 1.4251432939176903e-06 0 -1.1685204558322388e-06 1.5707405331581794e-06 0 -1.006271002984318e-06 9.4413802224889466e-07 0 -8.8281708432236082e-05 0.00021380547240186401 0 -6.6751841532486624e-05 0.00019306549006713831 0 -5.214009651074279e-05 0.00021427312838586212 0 2.897191051571722e-05 -0.00010498209245338916 0 1.7405369541483856e-05 -9.5806747924386009e-05 0 1.1490838887429537e-05 -0.00010771760626024624 0 7.4305710006020519e-06 2.0790254500859165e-05 0 -6.8678968334387662e-06 2.1792839215886149e-05 0 2.6772777173233291e-06 1.3503755183962994e-05 0 -4.9663065413112102e-06 9.4659512252141851e-06 0 2.6772777173233291e-06 1.3503755183962994e-05 0 -6.8678968334387662e-06 2.1792839215886149e-05 0 -1.2274081940655995e-05 -4.4152463385600101e-05 0 -1.1416216424915245e-05 -3.0181353757050567e-05 0 -1.7587582762217554e-05 -3.5726959541663231e-05 0 1.7777676439173331e-05 -9.0397975422979837e-06 0 2.1997730604379851e-05 -1.6743617302553325e-05 0 2.3295402147431451e-05 -1.2876880763126593e-05 0 -1.3494839527697245e-05 8.3618093342427522e-05 0 -2.3520206874574693e-05 6.9685525122110883e-05 0 -1.1299996857225487e-05 5.7824588479561034e-05 0 -1.8286843944298757e-05 3.6644404729267133e-05 0 -1.1299996857225487e-05 5.7824588479561034e-05 0 -2.4840188162051745e-05 5.4811201343059169e-05 0 -1.4859583121920128e-05 -2.1104711271613561e-05 0 -1.8359608165090514e-05 -2.8615349315035156e-05 0 -1.1416216424915245e-05 -3.0181353757050567e-05 0 -3.2944718461096159e-06 -2.7504635414517043e-05 0 3.0113691633347764e-06 -3.7512868929470832e-05 0 3.7076310685016133e-06 -2.4412951277733959e-05 0 1.0787569146735426e-05 -3.7071214301446324e-05 0 7.8079938689976259e-06 -3.6894411178612842e-05 0 1.0728365858582243e-05 -4.1213671238317377e-05 0 3.6463059330398382e-05 -3.6724488038583446e-05 0 4.2489654845449092e-05 -3.9730290266553395e-05 0 3.9864593221501269e-05 -3.3876966188297018e-05 0 1.113739117667215e-05 -2.9940329668212421e-06 0 9.9233209727079186e-06 -7.3986422382507572e-06 0 1.2427851377203639e-05 -5.7920076221111694e-06 0 6.7914304234705902e-06 -8.0381713018522519e-06 0 8.3144081845504439e-06 -1.0872397885790962e-05 0 9.9233209727079186e-06 -7.3986422382507572e-06 0 1.5276112194281356e-05 4.8170475868124573e-06 0 1.3410560115587704e-05 3.6047955456277433e-06 0 1.3531558269450311e-05 2.5826062672964658e-06 0 2.355764138660657e-06 -1.5359484134413257e-05 0 4.2140938640264221e-06 -9.8337489124481515e-06 0 -3.1750836506062171e-07 -1.1650295364451825e-05 0 2.5909918703180105e-05 0.00024356385706266148 0 4.2464553477120098e-05 0.00021443271401586618 0 5.4289906844422236e-05 0.0002400082500698384 0 -2.5853908497769538e-05 -0.00012441841594146579 0 -3.5612142567428305e-05 -0.00010971149390268005 0 -4.0198356422194381e-05 -0.00012365995745718597 0 1.1736640918370499e-05 2.1190568034807914e-06 0 1.3531558269450311e-05 2.5826062672964658e-06 0 1.3410560115587704e-05 3.6047955456277433e-06 0 2.9948993985920487e-05 -2.5424106995289604e-05 0 2.5021562155916926e-05 -2.5890375085042071e-05 0 3.1219589180697381e-05 -2.8788204780647818e-05 0 2.0533475571860079e-05 -3.808425661307047e-05 0 2.4409396938205842e-05 -4.0590245760897123e-05 0 2.1947967843637199e-05 -3.4939545155714501e-05 0 1.2539005477147396e-05 3.2368785530229134e-06 0 1.11978441395632e-05 2.599589266718914e-06 0 1.3410560115587704e-05 3.6047955456277433e-06 0 2.3301313499355598e-06 -1.0856634523451647e-06 0 3.6619687792902987e-06 -1.0415029204842569e-06 0 2.255386983733071e-06 -1.892945764837693e-06 0 -4.0979652879340843e-05 -4.1173334605340702e-05 0 -4.4460287118738166e-05 -5.2743422727600726e-05 0 -3.2096783014245733e-05 -4.4497619971947875e-05 0 2.3069695784421915e-06 -2.8599696595372136e-06 0 1.6447575556869249e-06 -2.8498704663377436e-06 0 3.38549570935585e-06 -2.1815134519946509e-06 0 8.2728779766637881e-06 1.0464336725890703e-06 0 9.0412188261946459e-06 7.7737835452609058e-07 0 6.9707254423259601e-06 -2.7755000141989006e-08 0 1.1736640918370499e-05 2.1190568034807914e-06 0 1.1254324089149498e-05 8.7323012527154354e-08 0 1.3531558269450311e-05 2.5826062672964658e-06 0 -7.5920758091543972e-05 0.0001044693844632947 0 -7.0126112793485177e-05 8.0872183732235339e-05 0 -5.1504392261658458e-05 8.865328337000077e-05 0 1.8539318225834943e-06 1.2927200558515859e-06 0 1.9081941217619302e-06 7.560737592947889e-07 0 8.0928793284001346e-07 5.3580898869165874e-07 0 7.1934507019579896e-06 -5.9957183762865807e-07 0 1.0389828660944798e-05 1.3097952471908445e-06 0 7.9618375430939547e-06 -6.6269584506664957e-08 0 1.1637830167422141e-05 -2.1367878989218614e-05 0 8.5537796672633843e-06 -2.0720089445125729e-05 0 1.0593405317798305e-05 -2.5394882310963153e-05 0 -2.291010289260877e-05 -7.1071496690557577e-05 0 -3.3385587104509831e-05 -6.4883890171037314e-05 0 -3.575872315334758e-05 -7.9298053540402945e-05 0 2.3069695784421915e-06 -2.8599696595372136e-06 0 3.38549570935585e-06 -2.1815134519946509e-06 0 4.6449276336264486e-06 -1.8499291992421756e-06 0 3.7333659231188572e-06 1.0105617683864737e-06 0 2.5764207629013381e-06 4.2418422807374334e-07 0 1.9081941217619302e-06 7.560737592947889e-07 0 5.2837506880690027e-06 -1.0155873315788246e-06 0 7.9618375430939547e-06 -6.6269584506664957e-08 0 7.2377321112971547e-06 7.1446995001483445e-07 0 6.2450837437743708e-06 -1.8267998543278126e-05 0 8.5537796672633843e-06 -2.0720089445125729e-05 0 9.2752404176054694e-06 -1.637181027685989e-05 0 1.0787569146735426e-05 -3.7071214301446324e-05 0 1.321556026022907e-05 -3.9953062428320544e-05 0 1.2362507784122716e-05 -3.447471454350923e-05 0 -7.7065679014326894e-06 -1.0634032435899598e-06 0 -4.6375380406532445e-06 -2.4254629569153675e-06 0 -4.3871283079196959e-06 -3.2509154847909249e-07 0 7.4833541523796514e-05 0.00020753884285714598 0 4.2464553477120098e-05 0.00021443271401586618 0 5.270697694676448e-05 0.00019264274877472051 0 -5.2956967067676439e-05 -0.00010854945959297476 0 -3.5612142567428305e-05 -0.00010971149390268005 0 -4.1968686026997968e-05 -9.881461591249526e-05 0 6.4653672724203111e-06 5.3061164245447514e-07 0 6.9707254423259601e-06 -2.7755000141989006e-08 0 5.3216907219733983e-06 -2.3755664600773601e-07 0 8.2728779766637881e-06 1.0464336725890703e-06 0 6.9707254423259601e-06 -2.7755000141989006e-08 0 6.4653672724203111e-06 5.3061164245447514e-07 0 -4.6722388622207383e-05 0.00018236579600131934 0 -5.214009651074279e-05 0.00021427312838586215 0 -6.6751841532486624e-05 0.00019306549006713831 0 7.3851548476173949e-06 -9.1113604044135952e-05 0 1.1490838887429537e-05 -0.00010771760626024625 0 1.7405369541483856e-05 -9.5806747924386009e-05 0 6.8570591699192581e-06 1.3272379939318201e-06 0 7.6247313551325797e-06 1.9090441897366103e-06 0 8.996342259304897e-06 1.7888314789357901e-06 0 9.282875282708607e-06 2.1182537863420293e-06 0 8.996342259304897e-06 1.7888314789357901e-06 0 7.6247313551325797e-06 1.9090441897366103e-06 0 6.8570591699192581e-06 1.3272379939318201e-06 0 6.4653672724203111e-06 5.3061164245447514e-07 0 4.9879645149937807e-06 6.119555800244956e-07 0 -6.1843352842411942e-06 1.5556505216283095e-06 0 -5.3524894654887111e-06 1.5629052885504118e-06 0 -3.7885042927733607e-06 2.2033080648323494e-06 0 -1.8406232354153514e-07 -1.3985463273855241e-06 0 -1.468246683425457e-06 -4.6946513572085105e-06 0 2.2124318657912877e-06 -3.551220947560753e-06 0 1.432283263433373e-06 -7.0625381779211988e-06 0 2.2124318657912877e-06 -3.551220947560753e-06 0 -1.468246683425457e-06 -4.6946513572085105e-06 0 -6.1843352842411942e-06 1.5556505216283095e-06 0 -3.7885042927733607e-06 2.2033080648323494e-06 0 -4.3458294519180077e-06 1.9702086794220232e-06 0 6.7287389803577054e-06 5.134040451689602e-05 0 2.3498087071030183e-05 5.3403958264417459e-05 0 2.224674078697114e-05 7.5147347008439308e-05 0 -6.3628260926847072e-06 0.0001995515694658853 0 -3.4857376324568126e-06 0.00023106766889658954 0 -2.4661794028918296e-05 0.00021658789965004553 0 -1.164593724541675e-05 -0.00010082697485521728 0 -1.1784666338702898e-05 -0.00011746720105295099 0 -1.8730085939230633e-06 -0.00010958719974305495 0 5.634383038392357e-06 1.4713947288976888e-06 0 4.1189049488451841e-06 2.2043542843936003e-06 0 4.0089318981932846e-06 1.6575842573919369e-06 0 1.2058505054576104e-09 2.649148847673761e-10 0 8.0928793284001346e-07 5.3580898869165874e-07 0 1.9081941217619302e-06 7.560737592947889e-07 0 1.074333260572231e-05 2.0580334363863205e-06 0 1.4713345325902489e-05 5.1846154150202178e-06 0 1.050897508366943e-05 4.1311790154264474e-06 0 2.8840332893707766e-05 -3.1196690292499543e-05 0 2.5021562155916926e-05 -2.5890375085042071e-05 0 2.365902883050117e-05 -3.0871180615434341e-05 0 1.9560281832032395e-05 -2.5010842644807293e-05 0 1.5579250700206554e-05 -2.2325577850039029e-05 0 1.7630355341708175e-05 -2.7122127867580394e-05 0 4.4349584007924795e-06 1.7483018810888415e-06 0 4.8087806027797889e-06 2.1105889822760436e-06 0 5.9029283677909771e-06 1.7658608567463953e-06 0 -2.4104600707112232e-05 -3.442908413485754e-05 0 -3.2096783014245733e-05 -4.4497619971947875e-05 0 -2.0658480907910981e-05 -4.3696423799761672e-05 0 -2.793540929866949e-05 -5.244082205642006e-05 0 -2.0658480907910981e-05 -4.3696423799761672e-05 0 -3.2096783014245733e-05 -4.4497619971947875e-05 0 1.3015730697304217e-09 -8.2671791668807957e-11 0 1.2058505054576782e-09 2.6491488476738804e-10 0 1.2417585931923289e-06 2.1934159943194189e-07 0 -4.0838197938072018e-05 0.0001051169375076541 0 -5.1504392261658458e-05 8.865328337000077e-05 0 -3.1346566474461049e-05 8.6748182844154819e-05 0 -3.6405109686167472e-05 6.7819480097255661e-05 0 -3.1346566474461049e-05 8.6748182844154819e-05 0 -5.1504392261658458e-05 8.865328337000077e-05 0 1.4410267198827035e-05 -4.4144815051838449e-05 0 1.321556026022907e-05 -3.9953062428320544e-05 0 1.0728365858582243e-05 -4.1213671238317377e-05 0 4.1578621850127104e-05 -4.5717871727979538e-05 0 4.2489654845449092e-05 -3.9730290266553395e-05 0 3.5979210506473908e-05 -4.0689887965968783e-05 0 4.9328553940276069e-06 2.2409308928805639e-06 0 7.2377321112971547e-06 7.1446995001483445e-07 0 1.050897508366943e-05 4.1311790154264474e-06 0 1.5759611948748361e-05 -3.9429470250082267e-05 0 1.7689601871303338e-05 -3.8084465280079564e-05 0 1.5407299030268988e-05 -3.5071304860437083e-05 0 1.9516492773900959e-05 8.4416591533322795e-06 0 2.2144021979349381e-05 1.1327829157733342e-05 0 2.0378160887615635e-05 1.0464583376968567e-05 0 2.3069695784421915e-06 -2.8599696595372136e-06 0 4.6449276336264486e-06 -1.8499291992421756e-06 0 5.2528921118450941e-06 -1.6294385103215121e-06 0 -4.9663065413112102e-06 9.4659512252141851e-06 0 6.1496854481586454e-06 7.0848384148831861e-06 0 2.6772777173233291e-06 1.3503755183962994e-05 0 4.928622474609643e-05 7.7588589812312505e-05 0 3.7310927611083859e-05 9.3701595477597641e-05 0 2.224674078697114e-05 7.5147347008439308e-05 0 5.634383038392357e-06 1.4713947288976888e-06 0 5.6780127066346071e-06 1.9969798445382842e-06 0 4.1189049488451841e-06 2.2043542843936003e-06 0 -6.3628260926847072e-06 0.0001995515694658853 0 1.636997298384222e-05 0.0002110172183280339 0 -3.4857376324568159e-06 0.00023106766889658951 0 -1.164593724541675e-05 -0.00010082697485521728 0 -2.255769697173194e-05 -0.00010715100800282569 0 -1.1784666338702898e-05 -0.00011746720105295099 0 3.3679006433110414e-06 2.2929992771022667e-06 0 2.9836814340432767e-06 2.4213388780927656e-06 0 4.1189049488451841e-06 2.2043542843936003e-06 0 6.3717173677394745e-06 -5.8525462222193795e-06 0 5.7214011548548719e-06 -8.642209283508495e-06 0 7.297657055432646e-06 -5.4587476545236961e-06 0 3.1309046313799897e-05 0.00018445964384302714 0 5.270697694676448e-05 0.00019264274877472051 0 4.2464553477120098e-05 0.00021443271401586618 0 -3.1132894446462269e-05 -9.3498052038859338e-05 0 -4.1968686026997968e-05 -9.881461591249526e-05 0 -3.5612142567428305e-05 -0.00010971149390268005 0 -1.5174744485583495e-05 -2.8163451104653091e-06 0 -1.9100097604756637e-05 -5.6587391744458685e-06 0 -1.4227090395779554e-05 -2.9972123899180298e-06 0 -2.9779213643584497e-05 8.953919520655919e-06 0 -2.2925172481834267e-05 3.8049401218276312e-06 0 -2.0884829890951161e-05 4.2954229693253057e-06 0 7.4305710006020519e-06 2.0790254500859165e-05 0 6.7618881968275423e-06 3.3669903001544286e-05 0 -3.6329252339461323e-06 3.5652878357657906e-05 0 -2.8118323649093648e-06 2.1025961620172005e-06 0 -4.4599453390953654e-06 1.2074661497240603e-06 0 -2.6853506354948721e-06 1.2125487531490388e-06 0 1.9718101263341435e-05 -4.9952319700314804e-05 0 1.9178463295303656e-05 -4.789117406612268e-05 0 1.589563525248727e-05 -4.6881375157532766e-05 0 1.9718101263341435e-05 -4.9952319700314804e-05 0 1.589563525248727e-05 -4.6881375157532766e-05 0 1.4343238506946501e-05 -4.8686178129960361e-05 0 6.5313737645502598e-05 -5.4915355124428574e-05 0 5.7306799412402231e-05 -4.5163113589858115e-05 0 5.0168582366521595e-05 -5.0712953251859492e-05 0 6.5313737645502598e-05 -5.4915355124428574e-05 0 5.0168582366521595e-05 -5.0712953251859492e-05 0 5.3106476570325794e-05 -5.9368056406107004e-05 0 1.4410267198827035e-05 -4.4144815051838449e-05 0 1.6315374986475054e-05 -4.3209491990581764e-05 0 1.321556026022907e-05 -3.9953062428320544e-05 0 4.1578621850127104e-05 -4.5717871727979538e-05 0 3.5979210506473908e-05 -4.0689887965968783e-05 0 3.4471536898921652e-05 -4.5604103143828059e-05 0 3.8286729707184386e-05 -2.5470558513852356e-05 0 3.646987221746967e-05 -2.9764474303505012e-05 0 4.1355041446777576e-05 -2.9323783670903219e-05 0 3.0328029996753194e-06 -3.0176783270347617e-05 0 4.5174260134118651e-06 -3.5595160884396572e-05 0 7.8553635652698834e-06 -3.1864134598698213e-05 0 3.2012951853130439e-05 -3.6266928646024195e-06 0 2.6370820046411205e-05 -9.1869938226155652e-06 0 3.2862798360230713e-05 -1.209380247565355e-05 0 2.5909918703180105e-05 0.00024356385706266148 0 5.2068347283706462e-05 0.00026689446816586154 0 2.3690325017611859e-05 0.00027441415977929082 0 -3.4868890417327977e-05 0.00024506581203297454 0 -2.966840301149025e-05 0.00027476983609190975 0 -5.7208560961278011e-05 0.00026887034653113717 0 -2.5853908497769538e-05 -0.00012441841594146579 0 -3.7171569855315178e-05 -0.00013716084629531578 0 -2.3119204340130022e-05 -0.00014025633844322021 0 4.718930492430728e-06 -0.00012448864260921494 0 3.9524617861171768e-06 -0.00014036666848830581 0 1.8242970488014735e-05 -0.00013656609343061087 0 6.1200706968364074e-06 2.002931640324527e-06 0 5.9029283677909771e-06 1.7658608567463953e-06 0 4.8087806027797889e-06 2.1105889822760436e-06 0 2.5909918703180105e-05 0.00024356385706266148 0 5.4289906844422242e-05 0.0002400082500698384 0 5.2068347283706468e-05 0.00026689446816586154 0 -2.5853908497769538e-05 -0.00012441841594146579 0 -4.0198356422194388e-05 -0.00012365995745718597 0 -3.7171569855315178e-05 -0.00013716084629531578 0 1.113739117667215e-05 -2.9940329668212421e-06 0 1.2901620444219941e-05 -4.4625223627554239e-07 0 1.1254324089149498e-05 8.7323012527154354e-08 0 -3.4868890417327977e-05 0.00024506581203297454 0 -5.7208560961278011e-05 0.00026887034653113717 0 -6.2775710091275976e-05 0.00024227954701738866 0 4.718930492430728e-06 -0.00012448864260921494 0 1.8242970488014735e-05 -0.00013656609343061087 0 1.8623145680999322e-05 -0.00012204448514008505 0 3.3910544983165298e-06 -5.1387096480030482e-05 0 1.0358663871294907e-05 -4.4362202601372358e-05 0 3.0113691633347764e-06 -3.7512868929470832e-05 0 7.0409378646326836e-06 -1.3672983017183643e-05 0 9.2752404176054694e-06 -1.637181027685989e-05 0 8.3144081845504439e-06 -1.0872397885790962e-05 0 1.076402929830742e-05 -1.3851241484596473e-05 0 8.3144081845504439e-06 -1.0872397885790962e-05 0 9.2752404176054694e-06 -1.637181027685989e-05 0 5.2837506880690027e-06 -1.0155873315788246e-06 0 1.9762946499695639e-06 -2.4839181456140296e-06 0 5.2528921118450941e-06 -1.6294385103215121e-06 0 -1.3494839527697245e-05 8.3618093342427522e-05 0 4.0421828412454218e-06 7.8208924443850226e-05 0 -8.2539784860578705e-07 0.00010204147611644188 0 -4.4460287118738166e-05 -5.2743422727600726e-05 0 -3.6741278578234604e-05 -5.5457549855109694e-05 0 -3.2096783014245733e-05 -4.4497619971947875e-05 0 1.4123897313785905e-05 8.455481167891341e-06 0 6.1496854481586454e-06 7.0848384148831853e-06 0 1.050897508366943e-05 4.1311790154264474e-06 0 4.9328553940276069e-06 2.2409308928805639e-06 0 1.050897508366943e-05 4.1311790154264474e-06 0 6.1496854481586454e-06 7.0848384148831853e-06 0 1.0108941537752591e-05 1.6612041547831153e-06 0 1.084092110985457e-05 2.4242607104419964e-06 0 1.2532980379428191e-05 3.0033066905984343e-06 0 1.9601143992230934e-05 -3.1240432784569886e-05 0 2.1947967843637199e-05 -3.4939545155714501e-05 0 2.365902883050117e-05 -3.0871180615434341e-05 0 2.643867637703125e-05 -3.6587960976623506e-05 0 2.365902883050117e-05 -3.0871180615434341e-05 0 2.1947967843637199e-05 -3.4939545155714501e-05 0 -5.5003264627614609e-05 4.1723788076646842e-05 0 -4.6433031249698075e-05 2.7269579659450637e-05 0 -3.7437736998716911e-05 3.0679260930631806e-05 0 -2.8000483587114397e-05 -1.5137754963144463e-05 0 -3.2574058336761728e-05 -2.2212792307287297e-05 0 -2.368752321659677e-05 -1.6585844856128489e-05 0 7.58391760943592e-10 -5.3021643611361599e-10 0 1.0294774512309341e-09 -4.1858419883831071e-10 0 1.0498603242910699e-06 -9.4454074309419971e-07 0 5.9945263414280595e-10 5.6898325046056738e-10 0 3.5268172988207421e-10 5.6523409012656054e-10 0 5.1267032250222129e-07 1.2463181148924313e-06 0 1.074333260572231e-05 2.0580334363863205e-06 0 1.0389828660944798e-05 1.3097952471908447e-06 0 1.2698615383858676e-05 3.0368261954321284e-06 0 1.2539005477147396e-05 3.2368785530229134e-06 0 1.2532980379428191e-05 3.0033066905984343e-06 0 1.084092110985457e-05 2.4242607104419964e-06 0 1.0108941537752591e-05 1.6612041547831153e-06 0 1.0389828660944798e-05 1.3097952471908441e-06 0 9.0412188261946459e-06 7.7737835452609058e-07 0 -2.7150852869904304e-06 -3.560857083886724e-06 0 -5.2489971323599156e-06 -3.2858391487251336e-06 0 -4.1989956967864908e-06 -3.0424518605332055e-06 0 -2.7277167741158006e-06 2.3602286712208717e-06 0 -3.3955860628389008e-06 1.8413063184798083e-06 0 -4.3458294519180077e-06 1.9702086794220232e-06 0 2.1245394075543459e-05 0.0001011955130048359 0 2.224674078697114e-05 7.5147347008439308e-05 0 3.7310927611083859e-05 9.3701595477597641e-05 0 -2.7150852869904304e-06 -3.560857083886724e-06 0 -4.1989956967864908e-06 -3.0424518605332055e-06 0 -2.4738366446919991e-06 -3.0731941344886056e-06 0 -2.7277167741158006e-06 2.3602286712208717e-06 0 -2.2488824469217551e-06 2.002520891228374e-06 0 -3.3955860628389008e-06 1.8413063184798083e-06 0 1.1814503244196229e-05 -3.0359762999499301e-05 0 1.2362507784122716e-05 -3.447471454350923e-05 0 1.5407299030268988e-05 -3.5071304860437083e-05 0 6.7287389803577054e-06 5.134040451689602e-05 0 1.610509555285572e-05 3.0666784680070826e-05 0 2.3498087071030183e-05 5.3403958264417459e-05 0 7.1934507019579896e-06 -5.9957183762865807e-07 0 9.0412188261946459e-06 7.7737835452609058e-07 0 1.0389828660944798e-05 1.3097952471908445e-06 0 2.8840332893707766e-05 -3.1196690292499543e-05 0 3.1219589180697381e-05 -2.8788204780647818e-05 0 2.5021562155916926e-05 -2.5890375085042071e-05 0 -2.1581393863426621e-10 -7.1882517524678427e-10 0 3.2868317134520615e-10 -7.8491837252557038e-10 0 1.5220058786192523e-07 -1.6103185105657565e-06 0 -2.3582369333848187e-11 6.4281218741259084e-10 0 -4.0857074094666096e-10 5.2211448343822437e-10 0 -1.6676528681006727e-07 1.3148985325172475e-06 0 -8.6041788590352376e-06 1.7463990863824355e-07 0 -1.178723878717361e-05 -9.2829168128181757e-07 0 -8.7529885022180617e-06 5.4195568817527446e-07 0 -1.7128163187735524e-05 6.8917025481672578e-07 0 -1.2124360992281787e-05 -9.0059573186973425e-07 0 -1.2483207640797687e-05 -1.4310104127688539e-06 0 -5.1764805000255257e-06 -1.3964166710610008e-05 0 -1.0118998022593601e-05 -1.1049634736556144e-05 0 -1.1129247358837706e-05 -1.6609435061411013e-05 0 1.6248167640690102e-05 -3.7819908829979134e-05 0 9.178037846999334e-06 -3.3089205198200636e-05 0 1.0358663871294908e-05 -4.4362202601372351e-05 0 8.9188326108093675e-06 -2.1668519231912534e-06 0 7.4248319150911122e-06 -3.3804807460177084e-06 0 7.297657055432646e-06 -5.4587476545236961e-06 0 9.0673010059445075e-06 1.8338735068706759e-06 0 1.1197844139563201e-05 2.5995892667189144e-06 0 9.282875282708607e-06 2.1182537863420293e-06 0 1.0158439024976617e-05 1.6461318084289572e-06 0 1.1197844139563201e-05 2.5995892667189144e-06 0 9.0673010059445075e-06 1.8338735068706759e-06 0 1.4991738043230107e-05 4.7475664191309652e-06 0 1.4713345325902489e-05 5.1846154150202178e-06 0 1.2698615383858676e-05 3.0368261954321284e-06 0 1.074333260572231e-05 2.0580334363863205e-06 0 1.2698615383858676e-05 3.036826195432128e-06 0 1.4713345325902489e-05 5.1846154150202178e-06 0 3.0479944974976183e-05 -4.0851553639340846e-05 0 2.7534962374729042e-05 -4.5057770772617395e-05 0 3.4471536898921652e-05 -4.5604103143828059e-05 0 2.224643706880892e-06 -1.9056096714531239e-05 0 6.2450837437743708e-06 -1.8267998543278123e-05 0 4.8796370233055824e-06 -1.5114629978645296e-05 0 6.3717173677394745e-06 -5.8525462222193795e-06 0 6.0180804194130991e-06 -8.8241124581931777e-06 0 5.7214011548548719e-06 -8.642209283508495e-06 0 6.8274385585664698e-06 -1.2895016521681917e-05 0 5.7214011548548719e-06 -8.642209283508495e-06 0 6.0180804194130991e-06 -8.8241124581931777e-06 0 -5.8061404639274156e-06 6.1671029068294108e-07 0 -8.6041788590352376e-06 1.7463990863824337e-07 0 -6.9202849175631768e-06 1.0280172319735876e-06 0 -1.2124360992281787e-05 -9.0059573186973425e-07 0 -7.9632928326448207e-06 -1.4636809675675876e-06 0 -9.5785630721549036e-06 -2.0935963100892977e-06 0 2.6321362026244843e-05 -5.4439351469438601e-05 0 3.2835336856085445e-05 -5.7428326022977678e-05 0 2.6801601557123345e-05 -5.0186399189280424e-05 0 6.1496854481586454e-06 7.0848384148831853e-06 0 1.0305103696202833e-05 1.2036982784870804e-05 0 2.6772777173233291e-06 1.3503755183962994e-05 0 6.8570591699192581e-06 1.3272379939318201e-06 0 8.2728779766637881e-06 1.0464336725890701e-06 0 6.4653672724203111e-06 5.3061164245447514e-07 0 -1.2041664756561698e-06 -2.3112094358222818e-06 0 -1.381455205454976e-06 -3.2029720963176645e-06 0 -2.4738366446919991e-06 -3.0731941344886056e-06 0 -1.1685204558322388e-06 1.5707405331581794e-06 0 -2.2488824469217551e-06 2.002520891228374e-06 0 -1.6145625209302439e-06 2.2405059192651437e-06 0 3.3679006433110414e-06 2.2929992771022667e-06 0 1.9070345555273587e-06 2.5020007656894578e-06 0 2.9836814340432767e-06 2.4213388780927656e-06 0 8.9188326108093675e-06 -2.1668519231912534e-06 0 9.9955964316448834e-06 -2.3860387611039356e-06 0 1.1254324089149498e-05 8.7323012527154354e-08 0 3.6463059330398382e-05 -3.6724488038583446e-05 0 3.08676949667305e-05 -3.5397776058792153e-05 0 3.5979210506473908e-05 -4.0689887965968783e-05 0 2.1678544312583268e-06 2.492701901389389e-06 0 2.9836814340432763e-06 2.4213388780927656e-06 0 1.9070345555273587e-06 2.5020007656894578e-06 0 -8.4027378527450785e-05 0.00015710493933690105 0 -5.654959502021324e-05 0.00014245120220425517 0 -6.3248485233374587e-05 0.00016794179486370045 0 2.4036930298078032e-05 -7.5810193654172675e-05 0 1.077335608238214e-05 -7.0158572565694999e-05 0 1.4684351254785541e-05 -8.2899239966596893e-05 0 2.1671212461722311e-05 -6.2397023716424311e-05 0 1.1281732921143741e-05 -5.7727005929913141e-05 0 1.077335608238214e-05 -7.0158572565694999e-05 0 1.2917955983689671e-05 -1.0086464012054489e-05 0 1.2427851377203639e-05 -5.7920076221111694e-06 0 9.9233209727079186e-06 -7.3986422382507572e-06 0 2.224643706880892e-06 -1.9056096714531239e-05 0 5.1621075579283713e-06 -2.2189445770251309e-05 0 6.2450837437743708e-06 -1.8267998543278126e-05 0 5.634383038392357e-06 1.4713947288976888e-06 0 5.7775577412169703e-06 -1.5180234937070759e-07 0 6.9510041452719926e-06 7.6169218324160065e-07 0 1.113739117667215e-05 -2.9940329668212421e-06 0 1.1254324089149498e-05 8.7323012527154354e-08 0 9.9955964316448834e-06 -2.3860387611039352e-06 0 8.6207421846744354e-05 0.00026554830853187328 0 6.8820943251287294e-05 0.00028242925442645934 0 5.2068347283706468e-05 0.00026689446816586154 0 -5.3841200206484239e-05 -0.00013913912748253062 0 -4.3881514548797527e-05 -0.00014565189002828149 0 -3.7171569855315178e-05 -0.00013716084629531578 0 3.5485289138290055e-05 -0.00013587586181323147 0 1.8242970488014732e-05 -0.00013656609343061084 0 2.7131875635233289e-05 -0.00014474727239277574 0 -8.9580596401225436e-05 0.00027263634851503116 0 -5.7208560961278011e-05 0.00026887034653113717 0 -7.0241268447377507e-05 0.00028525992984980149 0 8.6021258366253622e-06 8.4977690728033803e-07 0 7.3613513909406043e-06 1.5821917830881927e-06 0 6.9510041452719926e-06 7.6169218324160065e-07 0 5.634383038392357e-06 1.4713947288976888e-06 0 6.9510041452719926e-06 7.6169218324160065e-07 0 7.3613513909406043e-06 1.5821917830881927e-06 0 4.4273873399424276e-06 -2.3495987373147493e-06 0 5.7775577412169703e-06 -1.5180234937070722e-07 0 4.2882445830813748e-06 -4.1975778516121033e-07 0 -1.8131294276486957e-05 6.5627947831485106e-06 0 -2.0884829890951161e-05 4.2954229693253057e-06 0 -1.2024947753060469e-05 1.268530550922921e-06 0 -1.5850812312008042e-05 3.9875622059961976e-07 0 -1.2024947753060469e-05 1.2685305509229206e-06 0 -2.0884829890951161e-05 4.2954229693253057e-06 0 4.9328553940276069e-06 2.2409308928805639e-06 0 7.35545458939858e-08 5.7545448362661993e-07 0 3.3101144382512087e-06 -6.7633963512317159e-07 0 -1.8406232354153514e-07 -1.3985463273855241e-06 0 1.4528338438862893e-06 6.5876588230390595e-07 0 -7.5895087084173754e-07 9.0064717545137817e-07 0 6.3717173677394745e-06 -5.8525462222193795e-06 0 4.8868879252158307e-06 -5.782555502012609e-06 0 6.0180804194130991e-06 -8.8241124581931777e-06 0 -2.7277167741158006e-06 2.3602286712208717e-06 0 -1.112518697127343e-06 2.6184471292268849e-06 0 -1.6145625209302439e-06 2.2405059192651437e-06 0 -7.302809354755586e-07 2.049372077311413e-06 0 -1.6145625209302439e-06 2.2405059192651437e-06 0 -1.1125186971273432e-06 2.6184471292268849e-06 0 -2.5250117405533427e-07 -2.6714703989607684e-06 0 -1.7182186054275483e-08 -3.3767201413822896e-06 0 -1.3814552054549764e-06 -3.2029720963176645e-06 0 -2.7150852869904304e-06 -3.560857083886724e-06 0 -1.3814552054549762e-06 -3.2029720963176645e-06 0 -1.7182186054275483e-08 -3.3767201413822896e-06 0 -2.793540929866949e-05 -5.244082205642006e-05 0 -3.3385587104509838e-05 -6.4883890171037314e-05 0 -2.2878794078823228e-05 -5.973637289592834e-05 0 -2.291010289260877e-05 -7.1071496690557577e-05 0 -2.2878794078823228e-05 -5.973637289592834e-05 0 -3.3385587104509838e-05 -6.4883890171037314e-05 0 6.778478734821156e-07 -1.486429608917337e-06 0 1.0498603242910699e-06 -9.4454074309419971e-07 0 2.255386983733071e-06 -1.892945764837693e-06 0 2.3301313499355598e-06 -1.0856634523451647e-06 0 2.255386983733071e-06 -1.892945764837693e-06 0 1.0498603242910699e-06 -9.4454074309419971e-07 0 1.2862181236472351e-06 1.9025100668867904e-06 0 5.1267032250222129e-07 1.2463181148924313e-06 0 8.1861223917610579e-07 2.1686226216254094e-06 0 1.8726804586538803e-07 1.4367758025657937e-06 0 8.1861223917610579e-07 2.1686226216254094e-06 0 5.1267032250222129e-07 1.2463181148924313e-06 0 -6.3628260926847072e-06 0.0001995515694658853 0 1.0283128726684822e-05 0.0001841044571878737 0 1.636997298384222e-05 0.0002110172183280339 0 -1.164593724541675e-05 -0.00010082697485521728 0 -2.0493288241379853e-05 -9.2997970194441174e-05 0 -2.255769697173194e-05 -0.00010715100800282569 0 -4.1924354114427022e-07 2.653500466894703e-06 0 -1.391003873917926e-07 2.6498090036960681e-06 0 -1.1125186971273432e-06 2.6184471292268849e-06 0 2.3069695784421915e-06 -2.8599696595372136e-06 0 -1.7182186054275483e-08 -3.3767201413822896e-06 0 1.6447575556869249e-06 -2.8498704663377436e-06 0 -1.8406232354153514e-07 -1.3985463273855241e-06 0 2.2124318657912877e-06 -3.551220947560753e-06 0 2.7028643853542926e-06 -9.6917615477606733e-07 0 -2.7277167741158006e-06 2.3602286712208717e-06 0 -2.038969283609934e-06 2.5285126132305144e-06 0 -1.1125186971273432e-06 2.6184471292268849e-06 0 -2.7150852869904304e-06 -3.560857083886724e-06 0 -1.7182186054275483e-08 -3.3767201413822896e-06 0 -1.0509551314872021e-06 -3.5122651926747572e-06 0 6.8274385585664698e-06 -1.2895016521681917e-05 0 4.9592092670242096e-06 -9.9525785662926776e-06 0 5.7214011548548719e-06 -8.642209283508495e-06 0 5.634383038392357e-06 1.4713947288976888e-06 0 4.7261798557546801e-06 7.7766927109693594e-07 0 5.7775577412169703e-06 -1.5180234937070759e-07 0 -6.5317238433587158e-10 -1.0895436828790515e-09 0 -2.1581393863426621e-10 -7.1882517524678427e-10 0 -2.8510338654528215e-07 -1.501635386460738e-06 0 -4.0857074094666096e-10 5.2211448343822437e-10 0 -6.4837828750901902e-10 7.2886218794977199e-10 0 -4.1156247717030646e-07 1.0983199987789315e-06 0 1.4123897313785905e-05 8.455481167891341e-06 0 1.050897508366943e-05 4.1311790154264474e-06 0 1.4713345325902489e-05 5.1846154150202178e-06 0 2.3392325571755325e-05 -4.5355032497330187e-05 0 2.3166141701688403e-05 -4.9555664344731966e-05 0 2.6801601557123345e-05 -5.0186399189280424e-05 0 -1.8406232354153514e-07 -1.3985463273855241e-06 0 -2.8185810420254712e-06 -4.8501775955250663e-07 0 -3.9662260950287082e-06 -2.9134267828339347e-06 0 3.0113691633347764e-06 -3.7512868929470832e-05 0 1.0358663871294908e-05 -4.4362202601372351e-05 0 9.178037846999334e-06 -3.3089205198200636e-05 0 8.6021258366253622e-06 8.4977690728033803e-07 0 9.0673010059445075e-06 1.8338735068706759e-06 0 7.3613513909406043e-06 1.5821917830881927e-06 0 6.9230082941468944e-06 -1.8419806474061613e-06 0 7.3502601344552084e-06 -2.5692217586983058e-07 0 5.7775577412169703e-06 -1.5180234937070759e-07 0 -2.7169591982023028e-06 -2.3363829418927757e-06 0 -4.4586635329320306e-06 -2.0157623649104919e-06 0 -2.0394433639727883e-06 -1.1940427105353941e-06 0 -2.198613438847782e-06 1.4251432939176903e-06 0 -1.5724625118003039e-06 6.6023582962006327e-07 0 -3.3770075977302465e-06 1.0956649259687572e-06 0 1.432283263433373e-06 -7.0625381779211988e-06 0 4.2140938640264213e-06 -9.8337489124481515e-06 0 4.8868879252158307e-06 -5.782555502012609e-06 0 9.282875282708607e-06 2.1182537863420293e-06 0 7.4221126788734893e-06 1.9539253733536804e-06 0 9.0673010059445075e-06 1.8338735068706759e-06 0 3.3334488223094961e-06 7.1002899653823091e-07 0 1.4528338438862893e-06 6.5876588230390585e-07 0 2.7028643853542926e-06 -9.6917615477606733e-07 0 -1.2634169349771465e-05 -3.9418838110497616e-06 0 -1.1977337652547316e-05 -7.0313878500571628e-06 0 -8.1406887704189666e-06 -3.7965628763556134e-06 0 -8.0657505403270528e-05 0.00013016129444769632 0 -5.8854411754361322e-05 0.00011864173475605117 0 -5.654959502021324e-05 0.00014245120220425517 0 1.432283263433373e-06 -7.0625381779211988e-06 0 -1.468246683425457e-06 -4.6946513572085105e-06 0 -3.3362378814649792e-06 -8.4638065720601994e-06 0 9.9233209727079186e-06 -7.3986422382507572e-06 0 8.3144081845504422e-06 -1.0872397885790962e-05 0 1.0891162748353535e-05 -1.0772515258451143e-05 0 -1.8406232354153514e-07 -1.3985463273855241e-06 0 -3.9662260950287082e-06 -2.9134267828339347e-06 0 -1.468246683425457e-06 -4.6946513572085105e-06 0 7.3613513909406043e-06 1.5821917830881927e-06 0 9.0673010059445075e-06 1.8338735068706759e-06 0 7.4221126788734893e-06 1.9539253733536804e-06 0 7.0409378646326836e-06 -1.3672983017183643e-05 0 4.8796370233055815e-06 -1.5114629978645294e-05 0 6.2450837437743708e-06 -1.8267998543278126e-05 0 1.4123897313785905e-05 8.455481167891341e-06 0 2.0378160887615635e-05 1.0464583376968567e-05 0 1.770094648091322e-05 1.4803737773274668e-05 0 -1.8406232354153514e-07 -1.3985463273855241e-06 0 -7.5895087084173786e-07 9.0064717545137806e-07 0 -2.8185810420254712e-06 -4.8501775955250663e-07 0 -8.6601843749864281e-05 0.00018505592824120937 0 -8.4027378527450785e-05 0.00015710493933690105 0 -6.3248485233374587e-05 0.00016794179486370045 0 2.4036930298078032e-05 -7.5810193654172675e-05 0 1.4684351254785541e-05 -8.2899239966596893e-05 0 2.6455066733852751e-05 -9.0012793117806082e-05 0 1.9128239836818486e-05 -4.9756031910843152e-05 0 1.1281732921143741e-05 -5.7727005929913141e-05 0 2.1671212461722311e-05 -6.2397023716424311e-05 0 -4.9663065413112102e-06 9.4659512252141851e-06 0 -1.6524071338587554e-05 1.1821472787760253e-05 0 -1.1298225531317723e-05 5.7598600671257605e-06 0 3.2012951853130439e-05 -3.6266928646024195e-06 0 2.2729271515154864e-05 3.237996891103911e-06 0 2.6370820046411205e-05 -9.1869938226155652e-06 0 -1.2634169349771465e-05 -3.9418838110497616e-06 0 -1.4227090395779554e-05 -2.9972123899180298e-06 0 -1.7278736910655696e-05 -5.5578761110960942e-06 0 -1.8131294276486957e-05 6.5627947831485106e-06 0 -2.62343489208873e-05 8.8254592696703673e-06 0 -2.0884829890951161e-05 4.2954229693253057e-06 0 -1.2634169349771465e-05 -3.9418838110497616e-06 0 -1.7278736910655696e-05 -5.5578761110960942e-06 0 -1.7494512813721726e-05 -7.8951653800134691e-06 0 -1.8131294276486957e-05 6.5627947831485106e-06 0 -2.6292685597603508e-05 1.3288063896750262e-05 0 -2.62343489208873e-05 8.8254592696703673e-06 0 -2.198613438847782e-06 1.4251432939176903e-06 0 -1.006271002984318e-06 9.4413802224889466e-07 0 -1.5724625118003039e-06 6.6023582962006327e-07 0 -2.7169591982023028e-06 -2.3363829418927757e-06 0 -2.0394433639727883e-06 -1.1940427105353941e-06 0 -1.2230217535690463e-06 -1.5017049765729151e-06 0 6.9230082941468944e-06 -1.8419806474061613e-06 0 5.8475406405265931e-06 -3.7268298898683019e-06 0 7.4248319150911122e-06 -3.3804807460177084e-06 0 6.3717173677394745e-06 -5.8525462222193795e-06 0 7.4248319150911122e-06 -3.3804807460177084e-06 0 5.8475406405265931e-06 -3.7268298898683019e-06 0 4.5174260134118651e-06 -3.5595160884396572e-05 0 7.8079938689976259e-06 -3.6894411178612842e-05 0 7.8553635652698834e-06 -3.1864134598698213e-05 0 4.1355041446777576e-05 -2.9323783670903219e-05 0 3.646987221746967e-05 -2.9764474303505012e-05 0 3.9864593221501269e-05 -3.3876966188297018e-05 0 3.2862798360230713e-05 -1.209380247565355e-05 0 2.6370820046411205e-05 -9.1869938226155652e-06 0 2.9441377365714755e-05 -1.6109310246387298e-05 0 3.8286729707184386e-05 -2.5470558513852356e-05 0 3.419679101026341e-05 -2.5380564102498722e-05 0 3.646987221746967e-05 -2.9764474303505012e-05 0 3.0328029996753194e-06 -3.0176783270347617e-05 0 7.8553635652698834e-06 -3.1864134598698213e-05 0 5.7954493797253551e-06 -2.677382099534891e-05 0 -1.8406232354153514e-07 -1.3985463273855241e-06 0 2.7028643853542926e-06 -9.6917615477606712e-07 0 1.4528338438862893e-06 6.5876588230390595e-07 0 4.4273873399424276e-06 -2.3495987373147493e-06 0 4.8868879252158307e-06 -5.782555502012609e-06 0 5.8475406405265931e-06 -3.7268298898683019e-06 0 6.3717173677394745e-06 -5.8525462222193795e-06 0 5.8475406405265931e-06 -3.7268298898683019e-06 0 4.8868879252158307e-06 -5.782555502012609e-06 0 8.6021258366253622e-06 8.4977690728033803e-07 0 8.2562924401987272e-06 -1.0021303533979913e-06 0 9.9777948643902124e-06 3.5186062962915202e-07 0 -8.0657505403270528e-05 0.00013016129444769632 0 -7.5920758091543972e-05 0.0001044693844632947 0 -5.8854411754361322e-05 0.00011864173475605117 0 1.113739117667215e-05 -2.9940329668212421e-06 0 9.9955964316448834e-06 -2.3860387611039343e-06 0 8.8051576038808885e-06 -4.750975813720688e-06 0 7.4305710006020519e-06 2.0790254500859165e-05 0 1.0305103696202834e-05 1.2036982784870804e-05 0 1.770094648091322e-05 1.4803737773274668e-05 0 1.4123897313785905e-05 8.455481167891341e-06 0 1.770094648091322e-05 1.4803737773274668e-05 0 1.0305103696202833e-05 1.2036982784870804e-05 0 1.6248167640690102e-05 -3.7819908829979134e-05 0 1.0358663871294908e-05 -4.4362202601372351e-05 0 1.9128239836818486e-05 -4.9756031910843152e-05 0 -3.7764663261116676e-05 1.6341767672818412e-05 0 -2.62343489208873e-05 8.8254592696703673e-06 0 -2.6292685597603508e-05 1.3288063896750262e-05 0 -2.3438558613862407e-05 -9.6104075483340132e-06 0 -1.7494512813721723e-05 -7.8951653800134691e-06 0 -1.7278736910655696e-05 -5.5578761110960942e-06 0 8.9188326108093675e-06 -2.1668519231912534e-06 0 8.8051576038808885e-06 -4.750975813720688e-06 0 9.9955964316448834e-06 -2.3860387611039352e-06 0 -2.9432342036962239e-05 0.00014190063325047778 0 -5.654959502021324e-05 0.00014245120220425517 0 -4.1545690145643287e-05 0.00012316052982456034 0 -2.9432342036962239e-05 0.00014190063325047778 0 -4.4506126279690389e-05 0.00015996974499674072 0 -5.654959502021324e-05 0.00014245120220425517 0 -1.215541785158023e-06 -7.0605207605655695e-05 0 5.7636712014838875e-06 -7.9380773008242434e-05 0 1.077335608238214e-05 -7.0158572565694999e-05 0 -1.215541785158023e-06 -7.0605207605655695e-05 0 1.077335608238214e-05 -7.0158572565694985e-05 0 4.0616507490621946e-06 -6.1933005537363135e-05 0 2.6455066733852751e-05 -9.0012793117806082e-05 0 1.7405369541483856e-05 -9.5806747924386009e-05 0 2.897191051571722e-05 -0.00010498209245338916 0 -8.8281708432236082e-05 0.00021380547240186401 0 -8.6601843749864281e-05 0.00018505592824120937 0 -6.6751841532486624e-05 0.00019306549006713831 0 4.6093903270406261e-07 2.5402397536572056e-06 0 -5.8874280470893407e-08 2.2864599513284871e-06 0 -1.3910038739179276e-07 2.6498090036960686e-06 0 2.0156675044062869e-06 -2.4717890737338175e-06 0 1.6447575556869249e-06 -2.8498704663377436e-06 0 8.5417163412178706e-07 -2.5229200075918277e-06 0 -1.215541785158023e-06 -7.0605207605655695e-05 0 -9.5340497449556155e-06 -7.1111846309066003e-05 0 -2.5933753009574638e-06 -8.2310597751379078e-05 0 -1.215541785158023e-06 -7.0605207605655695e-05 0 -3.757413187394093e-06 -6.0091471617868915e-05 0 -9.5340497449556155e-06 -7.1111846309066003e-05 0 -1.3627840035281842e-05 -8.4134107675402141e-05 0 -2.5933753009574638e-06 -8.2310597751379078e-05 0 -9.5340497449556155e-06 -7.1111846309066003e-05 0 -1.329714001109742e-05 -5.9504347979789235e-05 0 -9.5340497449556155e-06 -7.1111846309066003e-05 0 -3.757413187394093e-06 -6.0091471617868915e-05 0 -2.9432342036962239e-05 0.00014190063325047778 0 -1.0812408306924838e-05 0.0001439677299131021 0 -2.6957315671940183e-05 0.00016630313360336537 0 -4.4955249463396264e-06 0.00016632447798697436 0 -2.6957315671940183e-05 0.00016630313360336537 0 -1.0812408306924838e-05 0.0001439677299131021 0 -4.0857074094666096e-10 5.2211448343822437e-10 0 -4.1156247717030646e-07 1.0983199987789315e-06 0 -1.6676528681006727e-07 1.3148985325172475e-06 0 -2.1581393863426621e-10 -7.1882517524678427e-10 0 1.5220058786192523e-07 -1.6103185105657565e-06 0 -2.8510338654528215e-07 -1.501635386460738e-06 0 -2.4721120675699494e-05 -2.4559244334833219e-05 0 -1.7381062921308675e-05 -1.6678619031919168e-05 0 -2.368752321659677e-05 -1.6585844856128489e-05 0 -3.8436787962106123e-05 4.5978606557812623e-05 0 -3.7437736998716911e-05 3.0679260930631806e-05 0 -2.6671240419812909e-05 2.9856664586215436e-05 0 -7.2590453913808187e-06 3.0023353353686445e-07 0 -1.0641209608054931e-05 -1.5408814787773758e-06 0 -8.45927680474129e-06 -1.6209225172727805e-06 0 6.1200706968364074e-06 2.002931640324527e-06 0 5.6780127066346062e-06 1.9969798445382846e-06 0 7.4221126788734893e-06 1.9539253733536804e-06 0 3.1645209810448711e-05 -4.8747695637249985e-05 0 3.4471536898921652e-05 -4.5604103143828059e-05 0 2.7534962374729042e-05 -4.5057770772617395e-05 0 -8.0960781817188572e-06 -2.7661640481422205e-06 0 -9.5672250243481744e-06 -1.942777224109882e-06 0 -1.2483207640797687e-05 -1.4310104127688539e-06 0 -1.5850812312008042e-05 3.9875622059961976e-07 0 -1.2483207640797687e-05 -1.4310104127688539e-06 0 -9.5672250243481744e-06 -1.942777224109882e-06 0 5.3216907219733983e-06 -2.3755664600773601e-07 0 3.6619687792902987e-06 -1.0415029204842569e-06 0 3.170296496631798e-06 -5.3419111401845617e-07 0 3.4042601463513425e-05 -1.7467109567535763e-05 0 3.082799587183213e-05 -2.1447124141003382e-05 0 3.5958927099025896e-05 -2.1602078886945361e-05 0 -2.3438558613862407e-05 -9.6104075483340132e-06 0 -2.1945796854703327e-05 -1.199210304279031e-05 0 -1.7494512813721726e-05 -7.8951653800134691e-06 0 -3.7764663261116676e-05 1.6341767672818412e-05 0 -2.6292685597603508e-05 1.3288063896750262e-05 0 -3.464298144371321e-05 2.0895365748478093e-05 0 4.2123266641525045e-06 -1.0931942707866108e-05 0 5.4864021491411781e-06 -1.0897483528534938e-05 0 4.9592092670242096e-06 -9.9525785662926776e-06 0 -2.7150852869904304e-06 -3.560857083886724e-06 0 -1.0509551314872021e-06 -3.5122651926747572e-06 0 -4.5709853346751254e-06 -3.3756444456665303e-06 0 -1.2144333887081206e-06 -2.8846690097351791e-06 0 -4.5709853346751254e-06 -3.3756444456665303e-06 0 -1.0509551314872021e-06 -3.5122651926747572e-06 0 6.7287389803577054e-06 5.134040451689602e-05 0 6.761888196827544e-06 3.3669903001544293e-05 0 1.610509555285572e-05 3.0666784680070826e-05 0 -1.2124360992281787e-05 -9.0059573186973425e-07 0 -9.5785630721549036e-06 -2.0935963100892977e-06 0 -1.2483207640797687e-05 -1.4310104127688539e-06 0 -8.6041788590352376e-06 1.7463990863824355e-07 0 -8.7529885022180617e-06 5.4195568817527446e-07 0 -6.9202849175631768e-06 1.0280172319735876e-06 0 1.9601143992230934e-05 -3.1240432784569886e-05 0 1.7630355341708175e-05 -2.7122127867580394e-05 0 1.5956322341656918e-05 -3.1051349346478942e-05 0 1.415441163754963e-05 -2.633728716684172e-05 0 1.5956322341656918e-05 -3.1051349346478942e-05 0 1.7630355341708175e-05 -2.7122127867580394e-05 0 8.6021258366253622e-06 8.4977690728033803e-07 0 1.0158439024976617e-05 1.6461318084289572e-06 0 9.0673010059445075e-06 1.8338735068706759e-06 0 4.9328553940276069e-06 2.2409308928805639e-06 0 3.3101144382512079e-06 -6.7633963512317191e-07 0 7.2377321112971547e-06 7.1446995001483445e-07 0 1.0108941537752591e-05 1.6612041547831153e-06 0 8.996342259304897e-06 1.7888314789357901e-06 0 1.084092110985457e-05 2.4242607104419964e-06 0 7.4305710006020519e-06 2.0790254500859165e-05 0 1.610509555285572e-05 3.0666784680070826e-05 0 6.7618881968275448e-06 3.3669903001544293e-05 0 -1.2634169349771465e-05 -3.9418838110497616e-06 0 -8.1406887704189666e-06 -3.7965628763556134e-06 0 -8.45927680474129e-06 -1.6209225172727805e-06 0 3.3334488223094961e-06 7.1002899653823091e-07 0 4.0089318981932846e-06 1.6575842573919369e-06 0 2.2460935032490927e-06 1.9357298201757387e-06 0 4.928622474609643e-05 7.7588589812312505e-05 0 5.5229919825626788e-05 0.00010189414938931781 0 3.7310927611083859e-05 9.3701595477597641e-05 0 -4.7445801747142455e-05 -6.5476812342473475e-05 0 -3.3385587104509838e-05 -6.4883890171037314e-05 0 -3.6741278578234604e-05 -5.5457549855109694e-05 0 -3.7764663261116676e-05 1.6341767672818412e-05 0 -2.9779213643584497e-05 8.953919520655919e-06 0 -2.62343489208873e-05 8.8254592696703673e-06 0 -1.9100097604756637e-05 -5.6587391744458685e-06 0 -2.3438558613862407e-05 -9.6104075483340132e-06 0 -1.7278736910655696e-05 -5.5578761110960942e-06 0 1.1254324089149498e-05 8.7323012527154354e-08 0 1.2901620444219941e-05 -4.4625223627554239e-07 0 1.3531558269450311e-05 2.5826062672964658e-06 0 -2.7150852869904304e-06 -3.560857083886724e-06 0 -4.5709853346751254e-06 -3.3756444456665303e-06 0 -5.2489971323599156e-06 -3.2858391487251336e-06 0 -8.0960781817188572e-06 -2.7661640481422205e-06 0 -5.2489971323599156e-06 -3.2858391487251336e-06 0 -4.5709853346751254e-06 -3.3756444456665303e-06 0 1.4991738043230107e-05 4.7475664191309652e-06 0 1.7485635106318793e-05 7.1275643450801749e-06 0 1.4713345325902489e-05 5.1846154150202178e-06 0 -3.575872315334758e-05 -7.9298053540402945e-05 0 -3.3385587104509838e-05 -6.4883890171037314e-05 0 -4.1595319988675121e-05 -7.2290256203258533e-05 0 7.7238020153168994e-06 -2.4501880059539957e-05 0 1.0593405317798305e-05 -2.5394882310963153e-05 0 8.5537796672633843e-06 -2.0720089445125729e-05 0 6.9971949515011916e-05 0.00017975890482699899 0 7.4833541523796514e-05 0.00020753884285714598 0 5.270697694676448e-05 0.00019264274877472051 0 -5.1770705609795284e-05 -9.3639547541707764e-05 0 -5.2956967067676439e-05 -0.00010854945959297476 0 -4.1968686026997968e-05 -9.881461591249526e-05 0 -4.9663065413112102e-06 9.4659512252141851e-06 0 7.6909587704748207e-07 4.3698082513454705e-06 0 6.1496854481586454e-06 7.0848384148831853e-06 0 1.432283263433373e-06 -7.0625381779211988e-06 0 -3.1750836506062171e-07 -1.1650295364451825e-05 0 4.2140938640264221e-06 -9.8337489124481515e-06 0 -6.3829960659613707e-06 -6.1399609513887288e-06 0 -3.3362378814649792e-06 -8.4638065720601994e-06 0 -1.468246683425457e-06 -4.6946513572085105e-06 0 -8.6601843749864281e-05 0.00018505592824120937 0 -6.3248485233374587e-05 0.00016794179486370045 0 -6.6751841532486624e-05 0.00019306549006713831 0 2.6455066733852751e-05 -9.0012793117806082e-05 0 1.4684351254785541e-05 -8.2899239966596893e-05 0 1.7405369541483856e-05 -9.5806747924386009e-05 0 5.7837203045485067e-07 1.6986477695293845e-06 0 8.0004986877412365e-07 2.421023356656145e-06 0 -1.0375884335485234e-06 2.1988117329395919e-06 0 1.4123897313785905e-05 8.455481167891341e-06 0 1.0305103696202833e-05 1.2036982784870804e-05 0 6.1496854481586454e-06 7.0848384148831853e-06 0 -1.2634169349771465e-05 -3.9418838110497616e-06 0 -1.0641209608054931e-05 -1.5408814787773756e-06 0 -1.4227090395779554e-05 -2.9972123899180298e-06 0 2.9587512692955464e-06 -1.4345742726779797e-05 0 2.224643706880892e-06 -1.9056096714531239e-05 0 4.8796370233055824e-06 -1.5114629978645296e-05 0 -2.8118323649093648e-06 2.1025961620172005e-06 0 -3.7885042927733611e-06 2.203308064832349e-06 0 -5.3524894654887111e-06 1.5629052885504118e-06 0 -4.4460287118738166e-05 -5.2743422727600726e-05 0 -4.7445801747142448e-05 -6.5476812342473475e-05 0 -3.6741278578234604e-05 -5.5457549855109694e-05 0 -1.059764223123046e-05 -5.2855754204830739e-07 0 -7.6674153220887639e-06 8.4262093566020513e-07 0 -8.7529885022180617e-06 5.4195568817527446e-07 0 -6.1843352842411942e-06 1.5556505216283095e-06 0 -8.7529885022180617e-06 5.4195568817527446e-07 0 -7.6674153220887639e-06 8.4262093566020513e-07 0 -4.0838197938072018e-05 0.0001051169375076541 0 -2.2941082251001169e-05 0.00010924509429509628 0 -4.1545690145643287e-05 0.00012316052982456034 0 6.778478734821156e-07 -1.486429608917337e-06 0 8.5417163412178706e-07 -2.5229200075918277e-06 0 1.5220058786192523e-07 -1.6103185105657565e-06 0 -2.5250117405533427e-07 -2.6714703989607684e-06 0 1.5220058786192523e-07 -1.6103185105657565e-06 0 8.5417163412178706e-07 -2.5229200075918277e-06 0 -7.302809354755586e-07 2.049372077311413e-06 0 -5.8874280470893387e-08 2.2864599513284871e-06 0 -1.6676528681006727e-07 1.3148985325172475e-06 0 1.8726804586538803e-07 1.4367758025657937e-06 0 -1.6676528681006727e-07 1.3148985325172475e-06 0 -5.8874280470893387e-08 2.2864599513284871e-06 0 4.4273873399424276e-06 -2.3495987373147493e-06 0 2.702864385354293e-06 -9.6917615477606733e-07 0 2.2124318657912877e-06 -3.551220947560753e-06 0 1.4655464777756334e-05 -4.3976383074285192e-06 0 1.2427851377203639e-05 -5.7920076221111694e-06 0 1.5345403220038823e-05 -9.5087150518873244e-06 0 1.2917955983689671e-05 -1.0086464012054489e-05 0 1.5345403220038823e-05 -9.5087150518873244e-06 0 1.2427851377203639e-05 -5.7920076221111694e-06 0 2.224643706880892e-06 -1.9056096714531239e-05 0 2.2542313882501524e-06 -2.4588795308400909e-05 0 5.1621075579283713e-06 -2.2189445770251309e-05 0 1.2917955983689671e-05 -1.0086464012054489e-05 0 9.9233209727079186e-06 -7.3986422382507572e-06 0 1.0891162748353535e-05 -1.0772515258451143e-05 0 3.646987221746967e-05 -2.9764474303505012e-05 0 3.419679101026341e-05 -2.5380564102498722e-05 0 3.1219589180697381e-05 -2.8788204780647818e-05 0 7.8553635652698834e-06 -3.1864134598698213e-05 0 8.7969166019931165e-06 -2.7896939907423165e-05 0 5.7954493797253551e-06 -2.677382099534891e-05 0 -2.3438558613862407e-05 -9.6104075483340132e-06 0 -2.8000483587114397e-05 -1.5137754963144463e-05 0 -2.1945796854703327e-05 -1.199210304279031e-05 0 -4.6433031249698075e-05 2.7269579659450637e-05 0 -3.7764663261116676e-05 1.6341767672818412e-05 0 -3.464298144371321e-05 2.0895365748478093e-05 0 2.6370820046411205e-05 -9.1869938226155652e-06 0 2.3295402147431451e-05 -1.2876880763126593e-05 0 2.9441377365714755e-05 -1.6109310246387298e-05 0 3.646987221746967e-05 -2.9764474303505012e-05 0 3.3862441729342851e-05 -3.3176993505420431e-05 0 3.9864593221501269e-05 -3.3876966188297018e-05 0 -6.3829960659613707e-06 -6.1399609513887288e-06 0 -8.1406887704189666e-06 -3.7965628763556134e-06 0 -1.1977337652547316e-05 -7.0313878500571628e-06 0 1.8539318225834943e-06 1.2927200558515859e-06 0 8.0928793284001346e-07 5.3580898869165874e-07 0 7.6514662554859723e-07 7.1749601897024413e-07 0 5.2837506880690027e-06 -1.0155873315788246e-06 0 3.3101144382512087e-06 -6.763396351231717e-07 0 1.9762946499695639e-06 -2.4839181456140296e-06 0 7.1934507019579896e-06 -5.9957183762865807e-07 0 5.2528921118450941e-06 -1.6294385103215121e-06 0 4.6449276336264486e-06 -1.8499291992421756e-06 0 1.934404813527761e-05 3.4449621213649282e-06 0 1.6990437008245375e-05 -4.3788733548845185e-07 0 2.013975149279977e-05 -4.2175265396004596e-06 0 -4.8399876175563919e-06 1.492994453023998e-06 0 -3.3955860628389008e-06 1.8413063184798083e-06 0 -3.3770075977302465e-06 1.0956649259687572e-06 0 -2.198613438847782e-06 1.4251432939176903e-06 0 -3.3770075977302465e-06 1.0956649259687572e-06 0 -3.3955860628389008e-06 1.8413063184798083e-06 0 -2.7169591982023028e-06 -2.3363829418927757e-06 0 -4.1989956967864908e-06 -3.0424518605332055e-06 0 -4.4586635329320306e-06 -2.0157623649104919e-06 0 -6.3917877147121468e-06 -2.6837628073792026e-06 0 -4.4586635329320306e-06 -2.0157623649104919e-06 0 -4.1989956967864908e-06 -3.0424518605332055e-06 0 -3.6761354664703153e-05 -3.0895946412992858e-05 0 -4.0979652879340843e-05 -4.1173334605340702e-05 0 -3.1647711713422284e-05 -3.4727072586611439e-05 0 6.7287389803577054e-06 5.134040451689602e-05 0 -3.6329252339461345e-06 3.5652878357657906e-05 0 6.7618881968275448e-06 3.3669903001544293e-05 0 1.9128239836818486e-05 -4.9756031910843152e-05 0 1.0358663871294908e-05 -4.4362202601372351e-05 0 1.1281732921143741e-05 -5.7727005929913141e-05 0 3.0479944974976183e-05 -4.0851553639340846e-05 0 2.4409396938205842e-05 -4.0590245760897123e-05 0 2.7534962374729042e-05 -4.5057770772617395e-05 0 -4.1924354114427022e-07 2.653500466894703e-06 0 -1.0375884335485234e-06 2.1988117329395919e-06 0 8.0004986877412376e-07 2.421023356656145e-06 0 8.9188326108093675e-06 -2.1668519231912534e-06 0 9.9777948643902124e-06 3.5186062962915202e-07 0 8.2562924401987272e-06 -1.0021303533979913e-06 0 -7.2590453913808187e-06 3.0023353353686445e-07 0 -5.3524894654887111e-06 1.5629052885504118e-06 0 -7.6674153220887639e-06 8.4262093566020513e-07 0 2.1245394075543459e-05 0.0001011955130048359 0 4.1425043699860839e-05 0.00010985992586867511 0 3.3707476553233406e-05 0.00012417917278793845 0 9.4823610669508472e-10 3.7837329089978585e-10 0 8.9055420573593208e-07 1.1726417945329584e-06 0 7.6514662554859723e-07 7.1749601897024413e-07 0 1.415441163754963e-05 -2.633728716684172e-05 0 1.7630355341708175e-05 -2.7122127867580394e-05 0 1.5579250700206554e-05 -2.2325577850039029e-05 0 2.6370820046411205e-05 -9.1869938226155652e-06 0 2.2729271515154864e-05 3.237996891103911e-06 0 2.013975149279977e-05 -4.2175265396004596e-06 0 -7.0126112793485177e-05 8.0872183732235339e-05 0 -6.2662382958934723e-05 5.9627222177485689e-05 0 -5.1646114931253865e-05 6.7807834154963429e-05 0 1.9081941217619302e-06 7.560737592947889e-07 0 2.5764207629013385e-06 4.2418422807374334e-07 0 1.2417585931923289e-06 2.1934159943194189e-07 0 -7.302809354755586e-07 2.049372077311413e-06 0 -1.6676528681006727e-07 1.3148985325172475e-06 0 -4.1156247717030646e-07 1.0983199987789315e-06 0 -2.5250117405533427e-07 -2.6714703989607684e-06 0 -2.8510338654528215e-07 -1.501635386460738e-06 0 1.5220058786192523e-07 -1.6103185105657565e-06 0 9.282875282708607e-06 2.1182537863420293e-06 0 7.6247313551325797e-06 1.9090441897366103e-06 0 7.4221126788734893e-06 1.9539253733536804e-06 0 -1.7124864892627075e-05 -1.1576248834774492e-05 0 -1.7494512813721726e-05 -7.8951653800134691e-06 0 -2.1945796854703327e-05 -1.199210304279031e-05 0 -2.4939735704948392e-05 2.0319957709227379e-05 0 -3.464298144371321e-05 2.0895365748478093e-05 0 -2.6292685597603508e-05 1.3288063896750262e-05 0 3.1309046313799897e-05 0.00018445964384302714 0 3.8667893570614598e-05 0.00015992770442576737 0 5.163807274711959e-05 0.00017423012296508296 0 -3.1132894446462269e-05 -9.3498052038859338e-05 0 -3.575872315334758e-05 -7.9298053540402945e-05 0 -4.2255166099704555e-05 -8.8580459076695436e-05 0 3.4042601463513425e-05 -1.7467109567535763e-05 0 2.9441377365714758e-05 -1.6109310246387298e-05 0 3.082799587183213e-05 -2.1447124141003382e-05 0 4.9328553940276069e-06 2.2409308928805639e-06 0 6.1496854481586437e-06 7.0848384148831853e-06 0 7.6909587704748207e-07 4.3698082513454705e-06 0 2.6135298205351627e-05 -1.8153724096661914e-05 0 3.082799587183213e-05 -2.1447124141003382e-05 0 2.9441377365714755e-05 -1.6109310246387298e-05 0 6.1200706968364074e-06 2.002931640324527e-06 0 4.8087806027797889e-06 2.1105889822760436e-06 0 5.6780127066346062e-06 1.9969798445382846e-06 0 2.353689273796058e-06 -2.520345282306251e-08 0 1.3575803058708657e-06 -4.8862795530408329e-07 0 9.4724381581743224e-07 -9.1550944880505141e-08 0 5.7837203045485067e-07 1.6986477695293845e-06 0 2.2460935032490927e-06 1.9357298201757387e-06 0 8.0004986877412376e-07 2.421023356656145e-06 0 1.5374147199561587e-05 3.0247828455284687e-06 0 1.6990437008245375e-05 -4.3788733548845185e-07 0 1.8222254303961809e-05 6.2639790529358777e-06 0 1.934404813527761e-05 3.4449621213649282e-06 0 1.8222254303961809e-05 6.2639790529358777e-06 0 1.6990437008245375e-05 -4.3788733548845185e-07 0 -2.291010289260877e-05 -7.1071496690557577e-05 0 -3.575872315334758e-05 -7.9298053540402945e-05 0 -2.4910611405683342e-05 -8.3666107502838644e-05 0 -3.1132894446462269e-05 -9.3498052038859338e-05 0 -2.4910611405683342e-05 -8.3666107502838644e-05 0 -3.575872315334758e-05 -7.9298053540402945e-05 0 1.6590672979993498e-05 0.00014199660941427897 0 3.8667893570614598e-05 0.00015992770442576737 0 1.8393237947354459e-05 0.00016744665222482251 0 3.1309046313799897e-05 0.00018445964384302714 0 1.8393237947354459e-05 0.00016744665222482251 0 3.8667893570614598e-05 0.00015992770442576737 0 1.6590672979993498e-05 0.00014199660941427897 0 1.2526075240129921e-05 0.00011803735643687509 0 3.3707476553233406e-05 0.00012417917278793845 0 2.1245394075543459e-05 0.0001011955130048359 0 3.3707476553233406e-05 0.00012417917278793845 0 1.2526075240129921e-05 0.00011803735643687509 0 1.2058505054576104e-09 2.649148847673761e-10 0 1.1196748316947344e-09 3.1877191564965931e-10 0 8.0928793284001346e-07 5.3580898869165874e-07 0 3.5958927099025896e-05 -2.1602078886945361e-05 0 3.082799587183213e-05 -2.1447124141003382e-05 0 3.419679101026341e-05 -2.5380564102498722e-05 0 2.9948993985920487e-05 -2.5424106995289604e-05 0 3.419679101026341e-05 -2.5380564102498722e-05 0 3.082799587183213e-05 -2.1447124141003382e-05 0 -2.793540929866949e-05 -5.244082205642006e-05 0 -3.2096783014245733e-05 -4.4497619971947875e-05 0 -3.6741278578234604e-05 -5.5457549855109694e-05 0 -4.0979652879340843e-05 -4.1173334605340702e-05 0 -3.2096783014245733e-05 -4.4497619971947875e-05 0 -3.1647711713422284e-05 -3.4727072586611439e-05 0 -7.0126112793485177e-05 8.0872183732235339e-05 0 -5.1646114931253865e-05 6.7807834154963429e-05 0 -5.1504392261658458e-05 8.865328337000077e-05 0 1.2539005477147396e-05 3.2368785530229134e-06 0 1.4168571722905199e-05 4.2476046092637905e-06 0 1.2532980379428191e-05 3.0033066905984343e-06 0 1.4991738043230107e-05 4.7475664191309652e-06 0 1.2532980379428191e-05 3.0033066905984343e-06 0 1.4168571722905199e-05 4.2476046092637905e-06 0 4.4349584007924795e-06 1.7483018810888415e-06 0 5.9029283677909771e-06 1.7658608567463953e-06 0 5.2957795984863164e-06 1.3214369132965885e-06 0 1.8539318225834943e-06 1.2927200558515859e-06 0 7.6514662554859712e-07 7.1749601897024413e-07 0 8.9055420573593208e-07 1.1726417945329584e-06 0 -8.0960781817188572e-06 -2.7661640481422205e-06 0 -1.2483207640797687e-05 -1.4310104127688539e-06 0 -9.5785630721549036e-06 -2.0935963100892977e-06 0 -6.1843352842411942e-06 1.5556505216283095e-06 0 -6.9202849175631768e-06 1.0280172319735876e-06 0 -8.7529885022180617e-06 5.4195568817527446e-07 0 -6.1843352842411942e-06 1.5556505216283095e-06 0 -7.6674153220887622e-06 8.4262093566020523e-07 0 -5.3524894654887111e-06 1.5629052885504118e-06 0 6.5263931031049689e-05 0.00015304876899835547 0 5.163807274711959e-05 0.00017423012296508296 0 3.8667893570614598e-05 0.00015992770442576737 0 -4.9940862211754758e-05 -7.9141412302699787e-05 0 -4.2255166099704555e-05 -8.8580459076695436e-05 0 -3.575872315334758e-05 -7.9298053540402945e-05 0 1.3251000203548772e-09 1.4086682304882724e-11 0 9.4724381581743235e-07 -9.1550944880505194e-08 0 1.3575803058708657e-06 -4.8862795530408329e-07 0 7.1934507019579896e-06 -5.9957183762865807e-07 0 7.9618375430939564e-06 -6.6269584506664705e-08 0 5.2528921118450941e-06 -1.6294385103215121e-06 0 -1.2274081940655995e-05 -4.4152463385600101e-05 0 -1.7587582762217554e-05 -3.5726959541663231e-05 0 -2.0658480907910981e-05 -4.3696423799761672e-05 0 -6.147172560072823e-07 -1.7032714319179005e-06 0 3.3101144382512096e-06 -6.7633963512317159e-07 0 7.35545458939858e-08 5.7545448362661993e-07 0 1.432283263433373e-06 -7.0625381779211988e-06 0 -3.3362378814649792e-06 -8.4638065720601994e-06 0 -3.1750836506062171e-07 -1.1650295364451825e-05 0 1.0389828660944798e-05 1.3097952471908445e-06 0 1.2532980379428191e-05 3.0033066905984343e-06 0 1.2698615383858676e-05 3.0368261954321284e-06 0 -1.3494839527697245e-05 8.3618093342427522e-05 0 -3.1346566474461049e-05 8.6748182844154819e-05 0 -2.3520206874574693e-05 6.9685525122110883e-05 0 -1.7124864892627075e-05 -1.1576248834774492e-05 0 -2.368752321659677e-05 -1.6585844856128489e-05 0 -1.7381062921308675e-05 -1.6678619031919168e-05 0 -2.4939735704948392e-05 2.0319957709227379e-05 0 -2.6671240419812909e-05 2.9856664586215436e-05 0 -3.7437736998716911e-05 3.0679260930631806e-05 0 2.3392325571755325e-05 -4.5355032497330187e-05 0 2.6801601557123345e-05 -5.0186399189280424e-05 0 2.7534962374729042e-05 -4.5057770772617395e-05 0 3.1645209810448711e-05 -4.8747695637249985e-05 0 2.7534962374729042e-05 -4.5057770772617395e-05 0 2.6801601557123345e-05 -5.0186399189280424e-05 0 -7.2590453913808187e-06 3.0023353353686445e-07 0 -4.4599453390953654e-06 1.2074661497240605e-06 0 -5.3524894654887111e-06 1.5629052885504118e-06 0 -2.8118323649093648e-06 2.1025961620172005e-06 0 -5.3524894654887111e-06 1.5629052885504118e-06 0 -4.4599453390953654e-06 1.2074661497240605e-06 0 3.3334488223094961e-06 7.1002899653823091e-07 0 2.7028643853542926e-06 -9.6917615477606733e-07 0 4.2882445830813748e-06 -4.1975778516121033e-07 0 -1.059764223123046e-05 -5.2855754204830739e-07 0 -1.4227090395779554e-05 -2.9972123899180298e-06 0 -1.0641209608054931e-05 -1.5408814787773756e-06 0 -7.7065679014326894e-06 -1.0634032435899598e-06 0 -9.5672250243481744e-06 -1.942777224109882e-06 0 -4.6375380406532445e-06 -2.4254629569153675e-06 0 2.1803637496578378e-05 -5.1260395464999703e-05 0 2.6321362026244846e-05 -5.4439351469438601e-05 0 2.3166141701688403e-05 -4.9555664344731966e-05 0 -1.3494839527697245e-05 8.3618093342427522e-05 0 -2.2941082251001169e-05 0.00010924509429509628 0 -3.1346566474461049e-05 8.6748182844154819e-05 0 1.1196748316947344e-09 3.1877191564965931e-10 0 9.4823610669508472e-10 3.7837329089978585e-10 0 7.6514662554859723e-07 7.1749601897024413e-07 0 6.0419450721512473e-05 0.00012699600407568956 0 3.3707476553233406e-05 0.00012417917278793845 0 4.1425043699860839e-05 0.00010985992586867511 0 1.9516492773900959e-05 8.4416591533322795e-06 0 2.0378160887615635e-05 1.0464583376968567e-05 0 1.7485635106318793e-05 7.1275643450801749e-06 0 -2.4939735704948392e-05 2.0319957709227379e-05 0 -1.5536663785471923e-05 1.941426063758018e-05 0 -2.6671240419812909e-05 2.9856664586215436e-05 0 1.9516492773900959e-05 8.4416591533322795e-06 0 1.6546643606377585e-05 6.0266868254127738e-06 0 1.7106961658613074e-05 5.9757356792061328e-06 0 1.9516492773900959e-05 8.4416591533322795e-06 0 1.7485635106318793e-05 7.1275643450801741e-06 0 1.6546643606377585e-05 6.0266868254127738e-06 0 -2.6853506354948721e-06 1.2125487531490388e-06 0 -5.165241810529875e-06 1.3348696243058156e-08 0 -2.8185810420254712e-06 -4.8501775955250663e-07 0 2.1678544312583268e-06 2.492701901389389e-06 0 8.0004986877412376e-07 2.421023356656145e-06 0 2.2460935032490927e-06 1.9357298201757387e-06 0 -3.6405109686167472e-05 6.7819480097255661e-05 0 -5.1504392261658458e-05 8.865328337000077e-05 0 -5.1646114931253865e-05 6.7807834154963429e-05 0 6.3717173677394745e-06 -5.8525462222193795e-06 0 7.297657055432646e-06 -5.4587476545236953e-06 0 7.4248319150911122e-06 -3.3804807460177084e-06 0 1.5374147199561587e-05 3.0247828455284687e-06 0 1.8222254303961809e-05 6.2639790529358777e-06 0 1.7106961658613074e-05 5.9757356792061328e-06 0 1.1637830167422141e-05 -2.1367878989218614e-05 0 1.2573551800738516e-05 -1.7751913012848061e-05 0 9.2752404176054694e-06 -1.637181027685989e-05 0 -1.7124864892627075e-05 -1.1576248834774492e-05 0 -2.1945796854703327e-05 -1.1992103042790312e-05 0 -2.368752321659677e-05 -1.6585844856128489e-05 0 -2.4939735704948392e-05 2.0319957709227379e-05 0 -3.7437736998716911e-05 3.0679260930631806e-05 0 -3.464298144371321e-05 2.0895365748478093e-05 0 -4.6722388622207383e-05 0.00018236579600131934 0 -6.6751841532486624e-05 0.00019306549006713831 0 -6.3248485233374587e-05 0.00016794179486370045 0 7.3851548476173949e-06 -9.1113604044135952e-05 0 1.7405369541483856e-05 -9.5806747924386009e-05 0 1.4684351254785541e-05 -8.2899239966596893e-05 0 7.7238020153168994e-06 -2.4501880059539957e-05 0 8.5537796672633843e-06 -2.0720089445125729e-05 0 5.1621075579283713e-06 -2.2189445770251309e-05 0 1.4991738043230107e-05 4.7475664191309652e-06 0 1.2698615383858676e-05 3.0368261954321284e-06 0 1.2532980379428191e-05 3.0033066905984343e-06 0 -1.2144333887081206e-06 -2.8846690097351791e-06 0 -4.6375380406532445e-06 -2.4254629569153675e-06 0 -4.5709853346751254e-06 -3.3756444456665303e-06 0 -1.2634169349771465e-05 -3.9418838110497616e-06 0 -8.45927680474129e-06 -1.6209225172727805e-06 0 -1.0641209608054931e-05 -1.5408814787773756e-06 0 -1.8131294276486957e-05 6.5627947831485106e-06 0 -1.1298225531317723e-05 5.7598600671257605e-06 0 -1.6524071338587554e-05 1.1821472787760253e-05 0 4.8868879252158307e-06 -5.782555502012609e-06 0 4.2140938640264221e-06 -9.8337489124481515e-06 0 6.0180804194130991e-06 -8.8241124581931777e-06 0 -5.5875617922874542e-06 -1.6598305235808436e-06 0 -8.45927680474129e-06 -1.6209225172727802e-06 0 -8.1406887704189666e-06 -3.7965628763556134e-06 0 1.5374147199561587e-05 3.0247828455284687e-06 0 1.3531558269450311e-05 2.5826062672964658e-06 0 1.2901620444219941e-05 -4.4625223627554239e-07 0 1.3251000203548772e-09 1.4086682304882724e-11 0 1.3015730697302482e-09 -8.2671791668791181e-11 0 9.4724381581743224e-07 -9.1550944880505141e-08 0 1.1814503244196229e-05 -3.0359762999499301e-05 0 8.7969166019931165e-06 -2.7896939907423165e-05 0 7.8553635652698834e-06 -3.1864134598698213e-05 0 -1.9100097604756637e-05 -5.6587391744458685e-06 0 -1.7278736910655696e-05 -5.5578761110960942e-06 0 -1.4227090395779554e-05 -2.9972123899180298e-06 0 -2.9779213643584497e-05 8.953919520655919e-06 0 -2.0884829890951161e-05 4.2954229693253057e-06 0 -2.62343489208873e-05 8.8254592696703673e-06 0 -2.4104600707112232e-05 -3.442908413485754e-05 0 -3.1647711713422284e-05 -3.4727072586611439e-05 0 -3.2096783014245733e-05 -4.4497619971947875e-05 0 -5.1764805000255257e-06 -1.3964166710610008e-05 0 -2.9243629735301568e-06 -1.8617955921062194e-05 0 -3.1750836506062171e-07 -1.1650295364451825e-05 0 2.355764138660657e-06 -1.5359484134413257e-05 0 -3.1750836506062171e-07 -1.1650295364451825e-05 0 -2.9243629735301568e-06 -1.8617955921062194e-05 0 -5.5875617922874542e-06 -1.6598305235808436e-06 0 -3.9662260950287082e-06 -2.9134267828339347e-06 0 -2.8185810420254712e-06 -4.8501775955250663e-07 0 1.1637830167422141e-05 -2.1367878989218614e-05 0 9.2752404176054694e-06 -1.637181027685989e-05 0 8.5537796672633843e-06 -2.0720089445125729e-05 0 -2.793540929866949e-05 -5.244082205642006e-05 0 -1.9353523697084639e-05 -5.1740654790538111e-05 0 -2.0658480907910981e-05 -4.3696423799761672e-05 0 -5.5875617922874542e-06 -1.6598305235808436e-06 0 -2.8185810420254712e-06 -4.8501775955250663e-07 0 -5.165241810529875e-06 1.3348696243058156e-08 0 1.076402929830742e-05 -1.3851241484596473e-05 0 9.2752404176054694e-06 -1.637181027685989e-05 0 1.2573551800738516e-05 -1.7751913012848061e-05 0 2.3301313499355598e-06 -1.0856634523451647e-06 0 3.170296496631798e-06 -5.3419111401845617e-07 0 3.6619687792902987e-06 -1.0415029204842569e-06 0 -2.8000483587114397e-05 -1.5137754963144463e-05 0 -2.368752321659677e-05 -1.6585844856128489e-05 0 -2.1945796854703327e-05 -1.199210304279031e-05 0 -4.6433031249698075e-05 2.7269579659450637e-05 0 -3.464298144371321e-05 2.0895365748478093e-05 0 -3.7437736998716911e-05 3.0679260930631806e-05 0 -4.9940862211754758e-05 -7.9141412302699787e-05 0 -3.575872315334758e-05 -7.9298053540402945e-05 0 -4.1595319988675121e-05 -7.2290256203258533e-05 0 6.5263931031049689e-05 0.00015304876899835547 0 3.8667893570614598e-05 0.00015992770442576737 0 4.2751983641576995e-05 0.00014163864365048729 0 6.0419450721512473e-05 0.00012699600407568956 0 4.2751983641576995e-05 0.00014163864365048729 0 3.3707476553233406e-05 0.00012417917278793845 0 -4.9940862211754758e-05 -7.9141412302699787e-05 0 -5.1770705609795278e-05 -9.363954754170775e-05 0 -4.2255166099704555e-05 -8.8580459076695436e-05 0 6.5263931031049689e-05 0.00015304876899835547 0 6.9971949515011916e-05 0.00017975890482699899 0 5.163807274711959e-05 0.00017423012296508296 0 2.6135298205351627e-05 -1.8153724096661914e-05 0 2.3295402147431451e-05 -1.2876880763126593e-05 0 2.1997730604379851e-05 -1.6743617302553325e-05 0 6.2450837437743708e-06 -1.8267998543278126e-05 0 5.1621075579283713e-06 -2.2189445770251309e-05 0 8.5537796672633843e-06 -2.0720089445125729e-05 0 9.8977520611730437e-06 -4.5261508872829209e-05 0 1.4343238506946501e-05 -4.8686178129960368e-05 0 1.2924446291046316e-05 -4.5166091298953878e-05 0 5.0496282849673641e-05 -3.844201552897771e-05 0 4.8030427617074501e-05 -4.4243172142489184e-05 0 5.7306799412402231e-05 -4.5163113589858115e-05 0 -2.4939735704948392e-05 2.0319957709227379e-05 0 -1.6524071338587554e-05 1.1821472787760253e-05 0 -1.5536663785471923e-05 1.941426063758018e-05 0 -2.8118323649093648e-06 2.1025961620172005e-06 0 -2.038969283609934e-06 2.5285126132305144e-06 0 -3.7885042927733607e-06 2.2033080648323494e-06 0 6.8570591699192581e-06 1.3272379939318201e-06 0 5.9029283677909771e-06 1.7658608567463953e-06 0 7.6247313551325797e-06 1.9090441897366103e-06 0 -4.0838197938072018e-05 0.0001051169375076541 0 -3.1346566474461049e-05 8.6748182844154819e-05 0 -2.2941082251001169e-05 0.00010924509429509628 0 3.3910544983165298e-06 -5.1387096480030482e-05 0 1.1281732921143741e-05 -5.7727005929913141e-05 0 1.0358663871294908e-05 -4.4362202601372351e-05 0 2.353689273796058e-06 -2.520345282306251e-08 0 9.4724381581743224e-07 -9.1550944880505141e-08 0 1.2417585931923289e-06 2.1934159943194189e-07 0 -6.3829960659613707e-06 -6.1399609513887288e-06 0 -1.468246683425457e-06 -4.6946513572085105e-06 0 -3.9662260950287082e-06 -2.9134267828339347e-06 0 5.5229919825626788e-05 0.00010189414938931781 0 6.0419450721512473e-05 0.00012699600407568956 0 4.1425043699860839e-05 0.00010985992586867511 0 2.0156675044062869e-06 -2.4717890737338175e-06 0 3.38549570935585e-06 -2.1815134519946509e-06 0 1.6447575556869249e-06 -2.8498704663377436e-06 0 2.6135298205351627e-05 -1.8153724096661914e-05 0 2.1997730604379851e-05 -1.6743617302553325e-05 0 2.6282938904747386e-05 -2.1800937871886772e-05 0 2.2290235067547755e-05 -2.125421763879313e-05 0 2.6282938904747386e-05 -2.1800937871886772e-05 0 2.1997730604379851e-05 -1.6743617302553325e-05 0 1.4410267198827035e-05 -4.4144815051838449e-05 0 1.0728365858582243e-05 -4.1213671238317377e-05 0 1.2924446291046316e-05 -4.5166091298953878e-05 0 9.8977520611730437e-06 -4.5261508872829209e-05 0 1.2924446291046316e-05 -4.5166091298953878e-05 0 1.0728365858582243e-05 -4.1213671238317377e-05 0 5.0496282849673641e-05 -3.844201552897771e-05 0 4.2489654845449092e-05 -3.9730290266553395e-05 0 4.8030427617074501e-05 -4.4243172142489184e-05 0 4.1578621850127104e-05 -4.5717871727979538e-05 0 4.8030427617074501e-05 -4.4243172142489184e-05 0 4.2489654845449092e-05 -3.9730290266553395e-05 0 1.2539005477147396e-05 3.2368785530229134e-06 0 1.084092110985457e-05 2.4242607104419964e-06 0 1.1197844139563201e-05 2.5995892667189144e-06 0 2.6370820046411205e-05 -9.1869938226155652e-06 0 2.013975149279977e-05 -4.2175265396004596e-06 0 2.3295402147431451e-05 -1.2876880763126593e-05 0 1.7777676439173331e-05 -9.0397975422979837e-06 0 2.3295402147431451e-05 -1.2876880763126594e-05 0 2.013975149279977e-05 -4.2175265396004596e-06 0 -2.793540929866949e-05 -5.244082205642006e-05 0 -3.6741278578234604e-05 -5.5457549855109694e-05 0 -3.3385587104509838e-05 -6.4883890171037314e-05 0 -7.2590453913808187e-06 3.0023353353686445e-07 0 -8.45927680474129e-06 -1.6209225172727805e-06 0 -5.165241810529875e-06 1.3348696243058156e-08 0 -5.5875617922874542e-06 -1.6598305235808436e-06 0 -5.165241810529875e-06 1.3348696243058156e-08 0 -8.45927680474129e-06 -1.6209225172727805e-06 0 6.8274385585664698e-06 -1.2895016521681917e-05 0 4.2123266641525045e-06 -1.0931942707866108e-05 0 4.9592092670242096e-06 -9.9525785662926776e-06 0 1.0787569146735426e-05 -3.7071214301446324e-05 0 1.0728365858582243e-05 -4.1213671238317377e-05 0 1.321556026022907e-05 -3.9953062428320544e-05 0 3.6463059330398382e-05 -3.6724488038583446e-05 0 3.5979210506473908e-05 -4.0689887965968783e-05 0 4.2489654845449092e-05 -3.9730290266553395e-05 0 6.1200706968364074e-06 2.002931640324527e-06 0 7.6247313551325797e-06 1.9090441897366103e-06 0 5.9029283677909771e-06 1.7658608567463953e-06 0 2.6321362026244843e-05 -5.4439351469438601e-05 0 2.6801601557123345e-05 -5.0186399189280424e-05 0 2.3166141701688403e-05 -4.9555664344731966e-05 0 3.3679006433110414e-06 2.2929992771022667e-06 0 3.3408520239127875e-06 1.926113672016901e-06 0 2.22319999645794e-06 1.9855801872935421e-06 0 1.076402929830742e-05 -1.3851241484596473e-05 0 1.0891162748353535e-05 -1.0772515258451143e-05 0 8.3144081845504439e-06 -1.0872397885790962e-05 0 2.353689273796058e-06 -2.520345282306251e-08 0 3.7345215730670547e-06 1.4909722527779806e-07 0 3.170296496631798e-06 -5.3419111401845617e-07 0 -7.4328897659725493e-06 0.00012123859125968373 0 -8.2539784860578705e-07 0.00010204147611644188 0 1.2526075240129921e-05 0.00011803735643687509 0 -4.4955249463396264e-06 0.00016632447798697436 0 1.8393237947354459e-05 0.00016744665222482249 0 1.0283128726684824e-05 0.0001841044571878737 0 -1.3627840035281842e-05 -8.4134107675402141e-05 0 -2.4910611405683342e-05 -8.3666107502838644e-05 0 -2.0493288241379853e-05 -9.2997970194441174e-05 0 2.9270814007378507e-05 1.7737772059680154e-05 0 2.2729271515154864e-05 3.237996891103911e-06 0 3.2012951853130439e-05 -3.6266928646024195e-06 0 2.353689273796058e-06 -2.520345282306251e-08 0 1.2417585931923289e-06 2.1934159943194189e-07 0 2.5764207629013381e-06 4.2418422807374334e-07 0 -4.7445801747142455e-05 -6.5476812342473475e-05 0 -4.1595319988675121e-05 -7.2290256203258533e-05 0 -3.3385587104509838e-05 -6.4883890171037314e-05 0 -5.381721046755673e-05 -0.00015424059145619762 0 -4.3881514548797527e-05 -0.00014565189002828149 0 -5.3841200206484239e-05 -0.00013913912748253062 0 9.4479370194364652e-05 0.00029680491162560965 0 6.8820943251287294e-05 0.00028242925442645934 0 8.6207421846744354e-05 0.00026554830853187328 0 9.4479370194364652e-05 0.00029680491162560965 0 6.1310256339018962e-05 0.00030183778026401443 0 6.8820943251287294e-05 0.00028242925442645934 0 4.0773808763330535e-05 -0.00015205572083655609 0 2.7131875635233289e-05 -0.00014474727239277574 0 2.3788080147647596e-05 -0.00015479078935571973 0 -8.9543673427613986e-05 0.00030190138712391044 0 -8.9580596401225436e-05 0.00027263634851503116 0 -7.0241268447377507e-05 0.00028525992984980149 0 -5.381721046755673e-05 -0.00015424059145619762 0 -3.8851343111053707e-05 -0.00015420500575148266 0 -4.3881514548797527e-05 -0.00014565189002828149 0 4.0773808763330535e-05 -0.00015205572083655609 0 3.5485289138290055e-05 -0.00013587586181323147 0 2.7131875635233289e-05 -0.00014474727239277574 0 -8.9543673427613986e-05 0.00030190138712391044 0 -7.0241268447377507e-05 0.00028525992984980149 0 -6.0483675999185567e-05 0.00030184645387642368 0 1.3015730697304217e-09 -8.2671791668807957e-11 0 1.2417585931923289e-06 2.1934159943194189e-07 0 9.4724381581743224e-07 -9.1550944880505141e-08 0 1.1637830167422141e-05 -2.1367878989218614e-05 0 1.5579250700206554e-05 -2.2325577850039029e-05 0 1.2573551800738516e-05 -1.7751913012848061e-05 0 -5.5875617922874542e-06 -1.6598305235808436e-06 0 -8.1406887704189666e-06 -3.7965628763556134e-06 0 -3.9662260950287082e-06 -2.9134267828339347e-06 0 -2.793540929866949e-05 -5.244082205642006e-05 0 -2.2878794078823228e-05 -5.973637289592834e-05 0 -1.9353523697084639e-05 -5.1740654790538111e-05 0 4.8973390622380986e-06 -1.3232007280338368e-06 0 4.6449276336264486e-06 -1.8499291992421756e-06 0 3.38549570935585e-06 -2.1815134519946509e-06 0 -6.3628260926847072e-06 0.0001995515694658853 0 -2.4661794028918296e-05 0.00021658789965004553 0 -2.6558435891956043e-05 0.00019066525851878149 0 -1.164593724541675e-05 -0.00010082697485521728 0 -1.8730085939230633e-06 -0.00010958719974305495 0 -1.9747151888836607e-06 -9.6316486946089968e-05 0 4.5174260134118651e-06 -3.5595160884396572e-05 0 6.7075299515120599e-06 -4.0711670958277162e-05 0 7.8079938689976259e-06 -3.6894411178612842e-05 0 4.1355041446777576e-05 -2.9323783670903219e-05 0 3.9864593221501262e-05 -3.3876966188297018e-05 0 4.5307150609031545e-05 -3.3462641168910315e-05 0 3.2862798360230713e-05 -1.209380247565355e-05 0 2.9441377365714755e-05 -1.6109310246387298e-05 0 3.4042601463513425e-05 -1.7467109567535763e-05 0 -6.3829960659613707e-06 -6.1399609513887288e-06 0 -3.9662260950287082e-06 -2.9134267828339347e-06 0 -8.1406887704189666e-06 -3.7965628763556134e-06 0 2.2542313882501524e-06 -2.4588795308400909e-05 0 3.0328029996753194e-06 -3.017678327034762e-05 0 5.7954493797253551e-06 -2.677382099534891e-05 0 3.5958927099025896e-05 -2.1602078886945361e-05 0 3.419679101026341e-05 -2.5380564102498722e-05 0 3.8286729707184386e-05 -2.5470558513852356e-05 0 -1.2274081940655995e-05 -4.4152463385600101e-05 0 -4.6153724384271554e-06 -4.7988625189546097e-05 0 -5.8011059558904806e-06 -3.7052495024384755e-05 0 6.8570591699192581e-06 1.3272379939318201e-06 0 5.2957795984863156e-06 1.3214369132965883e-06 0 5.9029283677909771e-06 1.7658608567463953e-06 0 7.3851548476173949e-06 -9.1113604044135952e-05 0 -2.5933753009574638e-06 -8.2310597751379078e-05 0 -1.9747151888836607e-06 -9.6316486946089968e-05 0 -4.6722388622207383e-05 0.00018236579600131934 0 -2.6957315671940183e-05 0.00016630313360336537 0 -2.6558435891956043e-05 0.00019066525851878149 0 2.9948993985920487e-05 -2.5424106995289604e-05 0 3.082799587183213e-05 -2.1447124141003382e-05 0 2.6282938904747386e-05 -2.1800937871886772e-05 0 2.6135298205351627e-05 -1.8153724096661914e-05 0 2.6282938904747386e-05 -2.1800937871886772e-05 0 3.082799587183213e-05 -2.1447124141003382e-05 0 2.1678544312583268e-06 2.492701901389389e-06 0 9.4111292168959943e-07 2.6649798185528332e-06 0 8.0004986877412376e-07 2.421023356656145e-06 0 -5.1764805000255257e-06 -1.3964166710610008e-05 0 -3.1750836506062161e-07 -1.1650295364451823e-05 0 -3.3362378814649792e-06 -8.4638065720601994e-06 0 3.0113691633347764e-06 -3.7512868929470832e-05 0 9.178037846999334e-06 -3.3089205198200636e-05 0 3.7076310685016133e-06 -2.4412951277733959e-05 0 1.537610264543323e-05 -1.8267264622749867e-05 0 1.2573551800738516e-05 -1.7751913012848061e-05 0 1.5579250700206554e-05 -2.2325577850039029e-05 0 1.2426091501446095e-05 -2.658014698174858e-05 0 9.178037846999334e-06 -3.3089205198200636e-05 0 1.6248167640690102e-05 -3.7819908829979134e-05 0 3.646987221746967e-05 -2.9764474303505012e-05 0 3.1219589180697381e-05 -2.8788204780647818e-05 0 3.3862441729342851e-05 -3.3176993505420431e-05 0 2.8840332893707766e-05 -3.1196690292499543e-05 0 3.3862441729342851e-05 -3.3176993505420431e-05 0 3.1219589180697381e-05 -2.8788204780647818e-05 0 -2.7277167741158006e-06 2.3602286712208717e-06 0 -4.3458294519180077e-06 1.9702086794220232e-06 0 -3.7885042927733607e-06 2.2033080648323494e-06 0 6.9230082941468944e-06 -1.8419806474061613e-06 0 7.4248319150911122e-06 -3.3804807460177084e-06 0 8.2562924401987272e-06 -1.0021303533979913e-06 0 8.9188326108093675e-06 -2.1668519231912534e-06 0 8.2562924401987272e-06 -1.0021303533979913e-06 0 7.4248319150911122e-06 -3.3804807460177084e-06 0 1.9516492773900959e-05 8.4416591533322795e-06 0 1.8222254303961809e-05 6.2639790529358777e-06 0 2.2144021979349381e-05 1.1327829157733342e-05 0 1.934404813527761e-05 3.4449621213649282e-06 0 2.2144021979349381e-05 1.1327829157733342e-05 0 1.8222254303961809e-05 6.2639790529358777e-06 0 6.0419450721512473e-05 0.00012699600407568956 0 6.5263931031049689e-05 0.00015304876899835547 0 4.2751983641576995e-05 0.00014163864365048729 0 1.5276112194281356e-05 4.8170475868124573e-06 0 1.4168571722905199e-05 4.2476046092637905e-06 0 1.3410560115587704e-05 3.6047955456277433e-06 0 -4.7445801747142455e-05 -6.5476812342473475e-05 0 -4.9940862211754758e-05 -7.9141412302699787e-05 0 -4.1595319988675121e-05 -7.2290256203258533e-05 0 -4.1924354114427022e-07 2.653500466894703e-06 0 8.0004986877412376e-07 2.421023356656145e-06 0 9.4111292168959943e-07 2.6649798185528332e-06 0 -2.7150852869904304e-06 -3.560857083886724e-06 0 -2.4738366446919991e-06 -3.0731941344886056e-06 0 -1.3814552054549764e-06 -3.2029720963176645e-06 0 -2.7277167741158006e-06 2.3602286712208717e-06 0 -1.6145625209302439e-06 2.2405059192651437e-06 0 -2.2488824469217551e-06 2.002520891228374e-06 0 7.1934507019579896e-06 -5.9957183762865807e-07 0 6.9707254423259601e-06 -2.7755000141989006e-08 0 9.0412188261946459e-06 7.7737835452609058e-07 0 -1.5287853769839408e-06 2.7893466960494165e-08 0 -1.5724625118003039e-06 6.6023582962006327e-07 0 -6.9635662746884694e-07 1.7259597408635655e-07 0 -1.2361018029909952e-09 3.9642857977574501e-10 0 -6.9635662746884705e-07 1.7259597408635663e-07 0 -1.5724625118003039e-06 6.6023582962006327e-07 0 -1.9386506629127243e-06 -3.2238566007058849e-07 0 -8.8796231669183703e-07 -3.7400886426849616e-07 0 -2.0394433639727883e-06 -1.1940427105353941e-06 0 -1.6640899208688137e-09 -6.45638438873248e-10 0 -2.0394433639727883e-06 -1.1940427105353941e-06 0 -8.8796231669183703e-07 -3.7400886426849616e-07 0 -5.1764805000255257e-06 -1.3964166710610008e-05 0 -1.1129247358837706e-05 -1.6609435061411013e-05 0 -8.1610227076933699e-06 -2.1250753400891297e-05 0 2.353689273796058e-06 -2.520345282306251e-08 0 2.5764207629013381e-06 4.2418422807374334e-07 0 3.7345215730670547e-06 1.4909722527779806e-07 0 2.1245394075543459e-05 0.0001011955130048359 0 3.7310927611083859e-05 9.3701595477597641e-05 0 4.1425043699860839e-05 0.00010985992586867511 0 7.4305710006020519e-06 2.0790254500859165e-05 0 2.67727771732333e-06 1.3503755183962993e-05 0 1.0305103696202833e-05 1.2036982784870804e-05 0 1.5276112194281356e-05 4.8170475868124573e-06 0 1.6546643606377585e-05 6.0266868254127738e-06 0 1.4168571722905199e-05 4.2476046092637905e-06 0 -3.2944718461096159e-06 -2.7504635414517043e-05 0 -2.9243629735301568e-06 -1.8617955921062194e-05 0 -8.1610227076933699e-06 -2.1250753400891297e-05 0 -3.1347085429002864e-05 0.00030216728477826493 0 -6.0483675999185567e-05 0.00030184645387642368 0 -4.6165095177524881e-05 0.00028683078764017695 0 6.7978161084088763e-06 -0.000155174727138803 0 2.3788080147647596e-05 -0.00015479078935571973 0 1.3913859278597436e-05 -0.00014665093370559007 0 6.1310256339018962e-05 0.00030183778026401443 0 2.8588574114014438e-05 0.00030292316023311391 0 4.2856603053098856e-05 0.00028632190567010458 0 -3.8851343111053713e-05 -0.00015420500575148266 0 -2.3886180116860877e-05 -0.00015441972847923929 0 -3.1514138101630924e-05 -0.00014647121837313938 0 1.5759611948748361e-05 -3.9429470250082267e-05 0 1.321556026022907e-05 -3.9953062428320544e-05 0 1.6315374986475054e-05 -4.3209491990581764e-05 0 3.0479944974976183e-05 -4.0851553639340846e-05 0 3.4471536898921652e-05 -4.5604103143828059e-05 0 3.5979210506473908e-05 -4.0689887965968783e-05 0 -1.3187226895004311e-09 -5.4226239270115523e-10 0 -6.9635662746884705e-07 1.7259597408635657e-07 0 -1.2361018029909952e-09 3.9642857977574501e-10 0 -1.4833918957831635e-09 6.0652890225833049e-10 0 -1.6640899208688137e-09 -6.45638438873248e-10 0 -8.8796231669183703e-07 -3.7400886426849616e-07 0 -1.4833918957831635e-09 6.0652890225833049e-10 0 -8.8796231669183703e-07 -3.7400886426849616e-07 0 -1.9386506629127243e-06 -3.2238566007058849e-07 0 -1.3187226895004311e-09 -5.4226239270115523e-10 0 -1.5287853769839408e-06 2.7893466960494165e-08 0 -6.9635662746884694e-07 1.7259597408635655e-07 0 3.3910544983165298e-06 -5.1387096480030482e-05 0 -4.6153724384271546e-06 -4.7988625189546097e-05 0 -3.757413187394093e-06 -6.0091471617868915e-05 0 5.7837203045485067e-07 1.6986477695293845e-06 0 -7.5895087084173754e-07 9.0064717545137817e-07 0 1.4528338438862893e-06 6.5876588230390595e-07 0 1.076402929830742e-05 -1.3851241484596473e-05 0 1.2573551800738516e-05 -1.7751913012848061e-05 0 1.3134464227855597e-05 -1.4197000475812735e-05 0 1.537610264543323e-05 -1.8267264622749867e-05 0 1.3134464227855597e-05 -1.4197000475812735e-05 0 1.2573551800738516e-05 -1.7751913012848061e-05 0 2.1678544312583268e-06 2.492701901389389e-06 0 2.2460935032490927e-06 1.9357298201757387e-06 0 3.1775758203728938e-06 2.1732339539315211e-06 0 4.4349584007924795e-06 1.7483018810888415e-06 0 3.3408520239127875e-06 1.926113672016901e-06 0 4.8087806027797889e-06 2.1105889822760436e-06 0 3.3679006433110414e-06 2.2929992771022667e-06 0 4.8087806027797889e-06 2.1105889822760436e-06 0 3.3408520239127875e-06 1.926113672016901e-06 0 1.934404813527761e-05 3.4449621213649282e-06 0 2.2729271515154864e-05 3.2379968911039115e-06 0 2.2144021979349381e-05 1.1327829157733342e-05 0 2.9270814007378507e-05 1.7737772059680154e-05 0 2.2144021979349384e-05 1.1327829157733343e-05 0 2.2729271515154864e-05 3.237996891103911e-06 0 -1.4859583121920128e-05 -2.1104711271613561e-05 0 -8.1610227076933699e-06 -2.1250753400891297e-05 0 -1.1129247358837706e-05 -1.6609435061411013e-05 0 2.9948993985920487e-05 -2.5424106995289604e-05 0 3.1219589180697381e-05 -2.8788204780647818e-05 0 3.419679101026341e-05 -2.5380564102498722e-05 0 7.7238020153168994e-06 -2.4501880059539957e-05 0 5.7954493797253551e-06 -2.677382099534891e-05 0 8.7969166019931165e-06 -2.7896939907423165e-05 0 6.1200706968364074e-06 2.002931640324527e-06 0 7.4221126788734893e-06 1.9539253733536804e-06 0 7.6247313551325797e-06 1.9090441897366103e-06 0 3.1309046313799897e-05 0.00018445964384302714 0 5.163807274711959e-05 0.00017423012296508296 0 5.270697694676448e-05 0.00019264274877472051 0 -3.1132894446462269e-05 -9.3498052038859338e-05 0 -4.2255166099704555e-05 -8.8580459076695436e-05 0 -4.1968686026997968e-05 -9.881461591249526e-05 0 6.8274385585664698e-06 -1.2895016521681917e-05 0 6.0180804194130991e-06 -8.8241124581931777e-06 0 4.2140938640264221e-06 -9.8337489124481515e-06 0 2.6135298205351627e-05 -1.8153724096661914e-05 0 2.9441377365714755e-05 -1.6109310246387298e-05 0 2.3295402147431451e-05 -1.2876880763126593e-05 0 -4.6722388622207383e-05 0.00018236579600131934 0 -6.3248485233374587e-05 0.00016794179486370045 0 -4.4506126279690389e-05 0.00015996974499674072 0 7.3851548476173949e-06 -9.1113604044135952e-05 0 1.4684351254785541e-05 -8.2899239966596893e-05 0 5.7636712014838875e-06 -7.9380773008242434e-05 0 3.3910544983165298e-06 -5.1387096480030482e-05 0 4.0616507490621955e-06 -6.1933005537363135e-05 0 1.1281732921143741e-05 -5.7727005929913141e-05 0 1.5407299030268988e-05 -3.5071304860437083e-05 0 1.7689601871303338e-05 -3.8084465280079564e-05 0 1.8458650218505684e-05 -3.4645376712285475e-05 0 3.6463059330398382e-05 -3.6724488038583446e-05 0 3.9864593221501269e-05 -3.3876966188297018e-05 0 3.3862441729342851e-05 -3.3176993505420431e-05 0 5.2837506880690027e-06 -1.0155873315788246e-06 0 5.2528921118450941e-06 -1.6294385103215121e-06 0 7.9618375430939547e-06 -6.6269584506664957e-08 0 2.3392325571755325e-05 -4.5355032497330187e-05 0 2.7534962374729042e-05 -4.5057770772617395e-05 0 2.4409396938205842e-05 -4.0590245760897123e-05 0 -4.1924354114427022e-07 2.653500466894703e-06 0 9.4111292168959943e-07 2.6649798185528332e-06 0 -1.3910038739179276e-07 2.6498090036960686e-06 0 4.6093903270406261e-07 2.5402397536572056e-06 0 -1.3910038739179276e-07 2.6498090036960686e-06 0 9.4111292168959943e-07 2.6649798185528332e-06 0 8.6021258366253622e-06 8.4977690728033803e-07 0 7.3502601344552084e-06 -2.5692217586983047e-07 0 8.2562924401987272e-06 -1.0021303533979913e-06 0 -5.1764805000255257e-06 -1.3964166710610008e-05 0 -8.1610227076933699e-06 -2.1250753400891297e-05 0 -2.9243629735301568e-06 -1.8617955921062194e-05 0 2.1678544312583268e-06 2.492701901389389e-06 0 3.1775758203728938e-06 2.1732339539315211e-06 0 2.9836814340432767e-06 2.4213388780927656e-06 0 4.1189049488451841e-06 2.2043542843936003e-06 0 2.9836814340432767e-06 2.4213388780927656e-06 0 3.1775758203728938e-06 2.1732339539315211e-06 0 2.2460935032490927e-06 1.9357298201757387e-06 0 4.0089318981932846e-06 1.6575842573919369e-06 0 3.1775758203728938e-06 2.1732339539315211e-06 0 1.9362750427508611e-05 -4.6334870316089088e-05 0 1.6315374986475054e-05 -4.3209491990581764e-05 0 1.7559904212664605e-05 -4.6892757918748647e-05 0 1.4410267198827035e-05 -4.4144815051838449e-05 0 1.7559904212664605e-05 -4.6892757918748647e-05 0 1.6315374986475054e-05 -4.3209491990581764e-05 0 4.1578621850127104e-05 -4.5717871727979538e-05 0 3.4471536898921652e-05 -4.5604103143828059e-05 0 3.9159364156371753e-05 -5.2268030901449051e-05 0 3.1645209810448711e-05 -4.8747695637249985e-05 0 3.9159364156371753e-05 -5.2268030901449051e-05 0 3.4471536898921652e-05 -4.5604103143828059e-05 0 1.934404813527761e-05 3.4449621213649282e-06 0 2.0139751492799766e-05 -4.2175265396004596e-06 0 2.2729271515154864e-05 3.237996891103911e-06 0 5.2068347283706468e-05 0.00026689446816586154 0 4.2856603053098856e-05 0.00028632190567010458 0 2.3690325017611859e-05 0.00027441415977929082 0 -3.7171569855315178e-05 -0.00013716084629531578 0 -3.1514138101630924e-05 -0.00014647121837313938 0 -2.3119204340130022e-05 -0.00014025633844322021 0 1.8242970488014735e-05 -0.00013656609343061087 0 3.9524617861171776e-06 -0.00014036666848830584 0 1.3913859278597436e-05 -0.00014665093370559007 0 -5.7208560961278011e-05 0.00026887034653113717 0 -2.966840301149025e-05 0.00027476983609190975 0 -4.6165095177524881e-05 0.00028683078764017695 0 -4.6722388622207383e-05 0.00018236579600131934 0 -4.4506126279690389e-05 0.00015996974499674072 0 -2.6957315671940183e-05 0.00016630313360336537 0 7.3851548476173949e-06 -9.1113604044135952e-05 0 5.7636712014838875e-06 -7.9380773008242434e-05 0 -2.5933753009574638e-06 -8.2310597751379078e-05 0 3.3910544983165298e-06 -5.1387096480030482e-05 0 -3.757413187394093e-06 -6.0091471617868915e-05 0 4.0616507490621946e-06 -6.1933005537363135e-05 0 6.9230082941468944e-06 -1.8419806474061613e-06 0 8.2562924401987272e-06 -1.0021303533979913e-06 0 7.3502601344552084e-06 -2.5692217586983047e-07 0 2.8588574114014438e-05 0.00030292316023311391 0 2.3690325017611859e-05 0.00027441415977929082 0 4.2856603053098856e-05 0.00028632190567010458 0 -2.3886180116860877e-05 -0.00015441972847923929 0 -2.3119204340130022e-05 -0.00014025633844322021 0 -3.1514138101630924e-05 -0.00014647121837313938 0 -3.1347085429002864e-05 0.00030216728477826493 0 -4.6165095177524881e-05 0.00028683078764017695 0 -2.966840301149025e-05 0.00027476983609190975 0 6.7978161084088763e-06 -0.000155174727138803 0 1.3913859278597439e-05 -0.00014665093370559007 0 3.9524617861171776e-06 -0.00014036666848830584 0 2.0533475571860079e-05 -3.808425661307047e-05 0 1.8458650218505684e-05 -3.4645376712285475e-05 0 1.7689601871303338e-05 -3.8084465280079564e-05 0 1.2426091501446095e-05 -2.658014698174858e-05 0 3.7076310685016133e-06 -2.4412951277733959e-05 0 9.178037846999334e-06 -3.3089205198200636e-05 0 1.4343238506946501e-05 -4.8686178129960361e-05 0 1.589563525248727e-05 -4.6881375157532766e-05 0 1.2924446291046316e-05 -4.5166091298953878e-05 0 5.7306799412402231e-05 -4.5163113589858115e-05 0 4.8030427617074501e-05 -4.4243172142489184e-05 0 5.0168582366521595e-05 -5.0712953251859492e-05 0 4.4349584007924795e-06 1.7483018810888415e-06 0 3.076366369123775e-06 1.3949528397518037e-06 0 3.3408520239127875e-06 1.926113672016901e-06 0 -5.654959502021324e-05 0.00014245120220425517 0 -5.8854411754361322e-05 0.00011864173475605117 0 -4.1545690145643287e-05 0.00012316052982456034 0 -4.0838197938072018e-05 0.0001051169375076541 0 -4.1545690145643287e-05 0.00012316052982456034 0 -5.8854411754361322e-05 0.00011864173475605117 0 1.9601143992230934e-05 -3.1240432784569886e-05 0 1.5956322341656918e-05 -3.1051349346478942e-05 0 1.8458650218505684e-05 -3.4645376712285475e-05 0 5.634383038392357e-06 1.4713947288976888e-06 0 4.0089318981932846e-06 1.6575842573919369e-06 0 4.7261798557546801e-06 7.7766927109693604e-07 0 1.076402929830742e-05 -1.3851241484596473e-05 0 1.3134464227855597e-05 -1.4197000475812735e-05 0 1.0891162748353535e-05 -1.0772515258451143e-05 0 1.2917955983689671e-05 -1.0086464012054489e-05 0 1.0891162748353535e-05 -1.0772515258451143e-05 0 1.3134464227855597e-05 -1.4197000475812735e-05 0 -2.9432342036962239e-05 0.00014190063325047778 0 -2.6957315671940183e-05 0.00016630313360336537 0 -4.4506126279690389e-05 0.00015996974499674072 0 -1.215541785158023e-06 -7.0605207605655695e-05 0 -2.5933753009574638e-06 -8.2310597751379078e-05 0 5.7636712014838875e-06 -7.9380773008242434e-05 0 -1.215541785158023e-06 -7.0605207605655695e-05 0 4.0616507490621946e-06 -6.1933005537363135e-05 0 -3.757413187394093e-06 -6.0091471617868915e-05 0 -2.198613438847782e-06 1.4251432939176903e-06 0 -3.3955860628389012e-06 1.8413063184798083e-06 0 -2.2488824469217551e-06 2.002520891228374e-06 0 -2.7169591982023028e-06 -2.3363829418927757e-06 0 -2.4738366446919991e-06 -3.0731941344886056e-06 0 -4.1989956967864908e-06 -3.0424518605332055e-06 0 -6.3917877147121468e-06 -2.6837628073792026e-06 0 -4.1989956967864908e-06 -3.0424518605332055e-06 0 -5.2489971323599156e-06 -3.2858391487251336e-06 0 -4.8399876175563919e-06 1.492994453023998e-06 0 -4.3458294519180077e-06 1.9702086794220232e-06 0 -3.3955860628389008e-06 1.8413063184798083e-06 0 5.7775577412169703e-06 -1.5180234937070759e-07 0 7.3502601344552084e-06 -2.5692217586983047e-07 0 6.9510041452719926e-06 7.6169218324160065e-07 0 -5.654959502021324e-05 0.00014245120220425517 0 -4.4506126279690389e-05 0.00015996974499674072 0 -6.3248485233374587e-05 0.00016794179486370045 0 1.077335608238214e-05 -7.0158572565694999e-05 0 5.7636712014838875e-06 -7.9380773008242434e-05 0 1.4684351254785541e-05 -8.2899239966596893e-05 0 1.077335608238214e-05 -7.0158572565694999e-05 0 1.1281732921143741e-05 -5.7727005929913141e-05 0 4.0616507490621946e-06 -6.1933005537363135e-05 0 -1.2274081940655995e-05 -4.4152463385600101e-05 0 -2.0658480907910981e-05 -4.3696423799761672e-05 0 -1.9353523697084639e-05 -5.1740654790538111e-05 0 1.5407299030268988e-05 -3.5071304860437083e-05 0 1.8458650218505684e-05 -3.4645376712285475e-05 0 1.5956322341656918e-05 -3.1051349346478942e-05 0 5.2837506880690027e-06 -1.0155873315788246e-06 0 7.2377321112971547e-06 7.1446995001483445e-07 0 3.3101144382512087e-06 -6.7633963512317159e-07 0 4.4273873399424276e-06 -2.3495987373147493e-06 0 4.2882445830813748e-06 -4.1975778516121023e-07 0 2.7028643853542926e-06 -9.6917615477606733e-07 0 -2.7277167741158006e-06 2.3602286712208717e-06 0 -3.7885042927733607e-06 2.203308064832349e-06 0 -2.038969283609934e-06 2.5285126132305144e-06 0 -3.6405109686167472e-05 6.7819480097255661e-05 0 -2.3520206874574693e-05 6.9685525122110883e-05 0 -3.1346566474461049e-05 8.6748182844154819e-05 0 -2.4104600707112232e-05 -3.442908413485754e-05 0 -2.0658480907910981e-05 -4.3696423799761672e-05 0 -1.7587582762217554e-05 -3.5726959541663231e-05 0 3.1309046313799897e-05 0.00018445964384302714 0 1.0283128726684824e-05 0.0001841044571878737 0 1.8393237947354459e-05 0.00016744665222482251 0 -3.1132894446462269e-05 -9.3498052038859338e-05 0 -2.0493288241379853e-05 -9.2997970194441174e-05 0 -2.4910611405683342e-05 -8.3666107502838644e-05 0 2.1245394075543459e-05 0.0001011955130048359 0 1.2526075240129921e-05 0.00011803735643687509 0 -8.2539784860578705e-07 0.00010204147611644188 0 -2.6853506354948721e-06 1.2125487531490388e-06 0 -4.4599453390953654e-06 1.2074661497240605e-06 0 -5.165241810529875e-06 1.3348696243058156e-08 0 3.3334488223094961e-06 7.1002899653823091e-07 0 4.7261798557546801e-06 7.7766927109693604e-07 0 4.0089318981932846e-06 1.6575842573919369e-06 0 -1.329714001109742e-05 -5.9504347979789235e-05 0 -1.9353523697084639e-05 -5.1740654790538111e-05 0 -2.2878794078823228e-05 -5.973637289592834e-05 0 1.4410267198827035e-05 -4.4144815051838449e-05 0 1.2924446291046316e-05 -4.5166091298953878e-05 0 1.589563525248727e-05 -4.6881375157532766e-05 0 4.1578621850127104e-05 -4.5717871727979538e-05 0 5.0168582366521595e-05 -5.0712953251859492e-05 0 4.8030427617074501e-05 -4.4243172142489184e-05 0 4.1189049488451841e-06 2.2043542843936003e-06 0 3.1775758203728938e-06 2.1732339539315211e-06 0 4.0089318981932846e-06 1.6575842573919369e-06 0 -6.0483675999185567e-05 0.00030184645387642368 0 -7.0241268447377507e-05 0.00028525992984980149 0 -4.6165095177524881e-05 0.00028683078764017695 0 -5.7208560961278011e-05 0.00026887034653113717 0 -4.6165095177524881e-05 0.00028683078764017695 0 -7.0241268447377507e-05 0.00028525992984980149 0 1.8242970488014735e-05 -0.00013656609343061087 0 1.3913859278597436e-05 -0.00014665093370559007 0 2.7131875635233289e-05 -0.00014474727239277574 0 2.3788080147647596e-05 -0.00015479078935571973 0 2.7131875635233289e-05 -0.00014474727239277574 0 1.3913859278597436e-05 -0.00014665093370559007 0 6.1310256339018962e-05 0.00030183778026401443 0 4.2856603053098856e-05 0.00028632190567010458 0 6.8820943251287294e-05 0.00028242925442645934 0 -3.8851343111053713e-05 -0.00015420500575148266 0 -3.1514138101630924e-05 -0.00014647121837313938 0 -4.3881514548797527e-05 -0.00014565189002828149 0 5.2068347283706468e-05 0.00026689446816586154 0 6.8820943251287294e-05 0.00028242925442645934 0 4.2856603053098856e-05 0.00028632190567010458 0 -3.7171569855315178e-05 -0.00013716084629531578 0 -4.3881514548797527e-05 -0.00014565189002828149 0 -3.1514138101630924e-05 -0.00014647121837313938 0 1.9601143992230934e-05 -3.1240432784569886e-05 0 1.8458650218505684e-05 -3.4645376712285475e-05 0 2.1947967843637199e-05 -3.4939545155714501e-05 0 1.1814503244196229e-05 -3.0359762999499301e-05 0 1.0593405317798305e-05 -2.5394882310963153e-05 0 8.7969166019931165e-06 -2.7896939907423165e-05 0 7.7238020153168994e-06 -2.4501880059539957e-05 0 8.7969166019931165e-06 -2.7896939907423165e-05 0 1.0593405317798305e-05 -2.5394882310963153e-05 0 2.0533475571860079e-05 -3.808425661307047e-05 0 1.7689601871303338e-05 -3.8084465280079564e-05 0 1.9263562047405302e-05 -4.1772634085868162e-05 0 1.5759611948748361e-05 -3.9429470250082267e-05 0 1.9263562047405302e-05 -4.1772634085868162e-05 0 1.7689601871303338e-05 -3.8084465280079564e-05 0 1.9516492773900959e-05 8.4416591533322795e-06 0 1.7106961658613074e-05 5.9757356792061328e-06 0 1.8222254303961809e-05 6.2639790529358777e-06 0 4.9328553940276069e-06 2.2409308928805639e-06 0 7.6909587704748207e-07 4.3698082513454705e-06 0 7.35545458939858e-08 5.7545448362661993e-07 0 -4.6799760067873786e-06 2.5829658251521226e-06 0 7.35545458939858e-08 5.7545448362661993e-07 0 7.6909587704748207e-07 4.3698082513454705e-06 0 -2.6853506354948721e-06 1.2125487531490388e-06 0 -2.8185810420254708e-06 -4.8501775955250663e-07 0 -7.5895087084173754e-07 9.0064717545137817e-07 0 -3.6405109686167472e-05 6.7819480097255661e-05 0 -2.4840188162051745e-05 5.4811201343059169e-05 0 -2.3520206874574693e-05 6.9685525122110883e-05 0 -1.1299996857225487e-05 5.7824588479561034e-05 0 -2.3520206874574693e-05 6.9685525122110883e-05 0 -2.4840188162051745e-05 5.4811201343059169e-05 0 1.5276112194281356e-05 4.8170475868124573e-06 0 1.7106961658613074e-05 5.9757356792061328e-06 0 1.6546643606377585e-05 6.0266868254127738e-06 0 2.8840332893707766e-05 -3.1196690292499543e-05 0 3.08676949667305e-05 -3.5397776058792153e-05 0 3.3862441729342851e-05 -3.3176993505420431e-05 0 3.6463059330398382e-05 -3.6724488038583446e-05 0 3.3862441729342851e-05 -3.3176993505420431e-05 0 3.08676949667305e-05 -3.5397776058792153e-05 0 1.4991738043230107e-05 4.7475664191309652e-06 0 1.6546643606377585e-05 6.0266868254127738e-06 0 1.7485635106318793e-05 7.1275643450801749e-06 0 -1.1416216424915245e-05 -3.0181353757050567e-05 0 -1.8359608165090514e-05 -2.8615349315035156e-05 0 -1.7587582762217554e-05 -3.5726959541663231e-05 0 -2.4104600707112232e-05 -3.442908413485754e-05 0 -1.7587582762217554e-05 -3.5726959541663231e-05 0 -1.8359608165090514e-05 -2.8615349315035156e-05 0 1.2539005477147396e-05 3.2368785530229134e-06 0 1.3410560115587704e-05 3.6047955456277433e-06 0 1.4168571722905199e-05 4.2476046092637905e-06 0 1.4991738043230107e-05 4.7475664191309652e-06 0 1.4168571722905199e-05 4.2476046092637905e-06 0 1.6546643606377585e-05 6.0266868254127738e-06 0 7.7238020153168994e-06 -2.4501880059539957e-05 0 5.1621075579283713e-06 -2.2189445770251309e-05 0 5.7954493797253551e-06 -2.677382099534891e-05 0 3.3334488223094961e-06 7.1002899653823091e-07 0 4.2882445830813748e-06 -4.1975778516121033e-07 0 4.7261798557546801e-06 7.7766927109693604e-07 0 5.7775577412169703e-06 -1.5180234937070759e-07 0 4.7261798557546801e-06 7.7766927109693604e-07 0 4.2882445830813748e-06 -4.1975778516121033e-07 0 8.6021258366253622e-06 8.4977690728033803e-07 0 6.9510041452719926e-06 7.6169218324160065e-07 0 7.3502601344552084e-06 -2.5692217586983047e-07 0 6.9971949515011916e-05 0.00017975890482699899 0 5.270697694676448e-05 0.00019264274877472051 0 5.163807274711959e-05 0.00017423012296508296 0 -5.1770705609795284e-05 -9.3639547541707764e-05 0 -4.1968686026997961e-05 -9.881461591249526e-05 0 -4.2255166099704555e-05 -8.8580459076695436e-05 0 -7.2590453913808187e-06 3.0023353353686445e-07 0 -5.165241810529875e-06 1.3348696243058156e-08 0 -4.4599453390953654e-06 1.2074661497240605e-06 0 1.1196748316947344e-09 3.1877191564965931e-10 0 7.6514662554859733e-07 7.1749601897024423e-07 0 8.0928793284001346e-07 5.3580898869165874e-07 0 5.5229919825626788e-05 0.00010189414938931781 0 4.1425043699860839e-05 0.00010985992586867511 0 3.7310927611083859e-05 9.3701595477597641e-05 0 2.0533475571860079e-05 -3.808425661307047e-05 0 2.1947967843637199e-05 -3.4939545155714501e-05 0 1.8458650218505684e-05 -3.4645376712285475e-05 0 -6.147172560072823e-07 -1.7032714319179005e-06 0 7.3554545893984979e-08 5.7545448362661961e-07 0 -4.3871283079196959e-06 -3.2509154847909249e-07 0 -4.6799760067873786e-06 2.5829658251521226e-06 0 -4.3871283079196959e-06 -3.2509154847909265e-07 0 7.35545458939858e-08 5.7545448362661993e-07 0 2.2542313882501524e-06 -2.4588795308400909e-05 0 5.7954493797253551e-06 -2.677382099534891e-05 0 5.1621075579283713e-06 -2.2189445770251309e-05 0 
</DataArray>
</PointData>
<CellData Scalars="region_id," Vectors="" Tensors="stress,">
<DataArray type="Float64" Name="region_id" format="ascii">
2 2 2 2 2 2 2 2 2 2 3 3 3 3 3 3 3 3 3 3 1 1 1 1 1 1 1 1 1 1 1 1 1 1 1 1 1 1 1 1 1 1 1 1 1 1 1 1 1 1 1 1 1 1 1 1 1 1 1 1 1 1 1 1 1 1 1 1 1 1 1 1 1 1 1 1 1 1 1 1 1 1 1 1 1 1 1 1 1 1 1 1 1 1 1 1 1 1 1 1 1 1 1 1 1 1 1 1 1 1 1 1 1 1 1 1 1 1 1 1 1 1 1 1 1 1 1 1 1 1 1 1 1 1 1 1 1 1 1 1 1 1 1 1 1 1 1 1 1 1 1 1 1 1 1 1 1 1 1 1 1 1 1 1 1 1 1 1 1 1 1 1 1 1 1 1 1 1 1 1 1 1 1 1 1 1 1 1 1 1 1 1 1 1 1 1 1 1 1 1 1 1 1 1 1 1 1 1 1 1 1 1 1 1 1 1 1 1 1 1 1 1 1 1 1 1 1 1 1 1 1 1 1 1 1 1 1 1 1 1 1 1 1 1 1 1 1 1 1 1 1 1 1 1 1 1 1 1 1 1 1 1 1 1 1 1 1 1 1 1 1 1 1 1 1 1 1 1 1 1 1 1 1 1 1 1 1 1 1 1 1 1 1 1 1 1 1 1 1 1 1 1 1 1 1 1 1 1 1 1 1 1 1 1 1 1 1 1 1 1 1 1 1 1 1 1 1 1 1 1 1 1 1 1 1 1 1 1 1 1 1 1 1 1 1 1 1 1 1 1 1 1 1 1 1 1 1 1 1 1 1 1 1 1 1 1 1 1 1 1 1 1 1 1 1 1 1 1 1 1 1 1 1 1 1 1 1 1 1 1 1 1 1 1 1 1 1 1 1 1 1 1 1 1 1 1 1 1 1 1 1 1 1 1 1 1 1 1 1 1 1 1 1 1 1 1 1 1 1 1 1 1 1 1 1 1 1 1 1 1 1 1 1 1 1 1 1 1 1 1 1 1 1 1 1 1 1 1 1 1 1 1 1 1 1 1 1 1 1 1 1 1 1 1 1 1 1 1 1 1 1 1 1 1 1 1 1 1 1 1 1 1 1 1 1 1 1 1 1 1 1 1 1 1 1 1 1 1 1 1 1 1 1 1 1 1 1 1 1 1 1 1 1 1 1 1 1 1 1 1 1 1 1 1 1 1 1 1 1 1 1 1 1 1 1 1 1 1 1 1 1 1 1 1 1 1 1 1 1 1 1 1 1 1 1 1 1 1 1 1 1 1 1 1 1 1 1 1 1 1 1 1 1 1 1 1 1 1 1 1 1 1 1 1 1 1 1 1 1 1 1 1 1 1 1 1 1 1 1 1 1 1 1 1 1 1 1 1 1 1 1 1 1 1 1 1 1 1 1 1 1 1 1 1 1 1 1 1 1 1 1 1 1 1 1 1 1 1 1 1 1 1 1 1 1 1 1 1 1 1 1 1 1 1 1 1 1 1 1 1 1 1 1 1 1 1 1 1 1 1 1 1 1 1 1 1 1 1 1 1 1 1 1 1 1 1 1 1 1 1 1 1 1 1 1 1 1 1 1 1 1 1 1 1 1 1 1 1 1 1 1 1 1 1 1 1 1 1 1 1 1 1 1 1 1 1 1 1 1 1 1 1 1 1 1 1 1 1 1 1 1 1 1 1 1 1 1 1 1 1 1 1 1 1 1 1 1 1 1 1 1 1 1 1 1 1 1 1 1 1 1 1 1 1 1 1 1 1 1 1 1 1 1 1 1 1 1 1 1 1 1 1 1 1 1 1 1 1 1 1 1 1 1 1 1 1 1 1 1 1 1 1 1 1 1 1 1 1 1 1 1 1 1 1 1 1 1 1 1 1 1 1 1 1 1 1 1 1 1 1 1 1 1 1 1 1 1 1 1 1 1 1 1 1 1 1 1 1 1 1 1 1 1 1 1 1 1 1 1 1 1 1 1 1 1 1 1 1 1 1 1 1 1 1 1 1 1 1 1 1 1 1 1 1 1 1 1 1 1 1 1 1 1 1 1 1 1 1 1 1 1 1 1 1 1 1 1 1 1 1 1 1 1 1 1 1 1 1 1 1 1 1 1 1 1 1 1 1 1 1 1 1 1 1 1 1 1 1 1 1 1 1 1 1 1 1 1 1 1 1 1 1 1 1 1 1 1 1 1 1 1 1 1 1 1 1 1 1 1 1 1 1 1 1 1 1 1 1 1 1 1 1 1 1 1 1 1 1 1 1 1 1 1 1 1 1 1 1 1 1 1 1 1 1 1 1 1 1 1 1 1 1 1 1 1 1 1 1 1 1 1 1 1 1 1 1 1 1 1 1 1 1 1 1 
</DataArray>
<DataArray type="Float64" Name="stress" NumberOfComponents="9" format="ascii">
7.4902683309276195e-05 -3.9780570756492933e-05 0 -3.9780570756492933e-05 2.496756110309207e-05 0 0 0 2.496756110309207e-05 1.7858161585693248e-05 -5.5953019928901517e-05 0 -5.5953019928901517e-05 5.9527205285644252e-06 0 0 0 5.9527205285644252e-06 2.8086890352505375e-05 -7.1477500669199533e-05 0 -7.1477500669199533e-05 9.3622967841684447e-06 0 0 0 9.3622967841684447e-06 2.9285956151948566e-05 -7.6950470004978947e-05 0 -7.6950470004978947e-05 9.761985383982869e-06 0 0 0 9.761985383982869e-06 3.6828953926730556e-05 -7.1737157587343288e-05 0 -7.1737157587343288e-05 1.2276317975576847e-05 0 0 0 1.2276317975576847e-05 4.688967186999225e-05 -8.1227381325422099e-05 0 -8.1227381325422099e-05 1.562989062333075e-05 0 0 0 1.562989062333075e-05 5.0952046039163905e-05 -7.6667604277506169e-05 0 -7.6667604277506169e-05 1.698401534638795e-05 0 0 0 1.698401534638795e-05 8.7051658544609947e-05 -8.925816458633766e-05 0 -8.925816458633766e-05 2.9017219514869982e-05 0 0 0 2.9017219514869982e-05 3.643899993873692e-05 -7.3247503776370797e-05 0 -7.3247503776370797e-05 1.2146333312912307e-05 0 0 0 1.2146333312912307e-05 0.00034379049651798077 -3.9324946482919144e-05 0 -3.9324946482919144e-05 0.00011459683217266025 0 0 0 0.00011459683217266025 0.00067618704400406501 6.4164604062381215e-05 0 6.4164604062381215e-05 0.00022539568133468835 0 0 0 0.00022539568133468835 -4.8945478934494819e-05 6.7434633583808253e-05 0 6.7434633583808253e-05 -1.631515964483157e-05 0 0 0 -1.631515964483157e-05 0.00011639072772988369 5.0736432790499195e-05 0 5.0736432790499195e-05 3.8796909243294546e-05 0 0 0 3.8796909243294546e-05 7.1929124171580226e-05 0.00010123261034606517 0 0.00010123261034606517 2.3976374723860112e-05 0 0 0 2.3976374723860112e-05 8.2422925164959146e-05 8.6109588152164949e-05 0 8.6109588152164949e-05 2.7474308388319697e-05 0 0 0 2.7474308388319697e-05 9.3750175261303166e-05 9.0089791448780114e-05 0 9.0089791448780114e-05 3.1250058420434425e-05 0 0 0 3.1250058420434425e-05 7.7592441003879924e-05 8.798587386594657e-05 0 8.798587386594657e-05 2.5864147001293308e-05 0 0 0 2.5864147001293308e-05 0.00020460684896900618 0.00012384733881136607 0 0.00012384733881136607 6.8202282989668816e-05 0 0 0 6.8202282989668816e-05 -0.00017524358071393164 8.1358965714916471e-05 0 8.1358965714916471e-05 -5.8414526904643953e-05 0 0 0 -5.8414526904643953e-05 0.0014154844978662964 2.9027694074586913e-06 0 2.9027694074586913e-06 0.0004718281659554321 0 0 0 0.0004718281659554321 0.017701668630357749 -0.0053884175519492757 0 -0.0053884175519492757 0.018712078000459348 0 0 0 0.0091034366577042725 0.021549696227915523 -0.0054813690053050028 0 -0.0054813690053050028 0.033415692124812824 0 0 0 0.013741347088182088 0.0088791669108112398 -0.0031113594970702124 0 -0.0031113594970702124 0.033151504996137393 0 0 0 0.010507667976737169 0.0067981171822669708 0.0041753582627890862 0 0.0041753582627890862 0.033932076764542823 0 0 0 0.010182548486702456 -0.050286350655602857 -0.0093374065425767157 0 -0.0093374065425767157 0.0039580917117895686 0 0 0 -0.011582064735953322 -0.037744557242779794 0.0054151195174660938 0 0.0054151195174660938 0.0023075499717315302 0 0 0 -0.0088592518177620667 -0.056265364774904431 -0.0067468847430131804 0 -0.0067468847430131804 -0.0004983362190664664 0 0 0 -0.014190925248492725 -0.041002864396014096 0.0039761269527836011 0 0.0039761269527836011 -0.00022482845608198104 0 0 0 -0.010306923213024018 -0.072387898572214504 0.0040188388903419948 0 0.0040188388903419948 -0.00036333101777928471 0 0 0 -0.018187807397498455 -0.12381970831927037 -0.0094420446713784252 0 -0.0094420446713784252 -0.00045053013703534421 0 0 0 -0.031067559614076441 0.045219635243949452 -9.9472739273585679e-05 0 -9.9472739273585679e-05 -0.0061789705881327185 0 0 0 0.0097601661639541842 0.04205338565906562 -0.00028987857972446145 0 -0.00028987857972446145 -0.0055274235560758226 0 0 0 0.0091314905257474429 0.0075933599936406377 0.0097934803261757568 0 0.0097934803261757568 0.00093018795954057792 0 0 0 0.0021308869882953052 0.01634905519415536 -0.011959700275147681 0 -0.011959700275147681 0.0054442514234082978 0 0 0 0.0054483266543909146 0.0045162964086923815 0.011560124731154201 0 0.011560124731154201 0.0015037771368220346 0 0 0 0.0015050183863786041 0.0096666878053926486 -0.01110066108798248 0 -0.01110066108798248 0.023838292222269339 0 0 0 0.0083762450069155003 0.18615952005108388 0.084574328036390464 0 0.084574328036390464 0.18070660007690081 0 0 0 0.091716530031996188 0.02051327178256579 -0.0057137772875722748 0 -0.0057137772875722748 0.0068988273997119265 0 0 0 0.0068530247955693735 0.031596603823542013 0.011502907176074606 0 0.011502907176074606 0.0097833301424241625 0 0 0 0.010344983491491266 0.034994245614626163 0.0057574378631457942 0 0.0057574378631457942 0.019976255515802954 0 0 0 0.013742625282607168 0.019643278639164263 -0.0083626976564785717 0 -0.0083626976564785717 0.0042888479696321369 0 0 0 0.0059830316521991556 0.033381388567153003 0.015895252973846086 0 0.015895252973846086 0.012845620514339018 0 0 0 0.011556752270373005 0.020134404061434574 -0.013135527668343361 0 -0.013135527668343361 0.012124295827362852 0 0 0 0.0080646749721994815 0.011511446553754984 0.01157754402169605 0 0.01157754402169605 0.00058311649907921356 0 0 0 0.0030236407632085469 0.19641489052746125 -0.0094959721204242314 0 -0.0094959721204242314 0.1103097381425297 0 0 0 0.07668115716749771 -0.16118653980317069 0.0091012398586325371 0 0.0091012398586325371 0.0066239537981623853 0 0 0 -0.038640646501252096 -0.088494911717536387 -0.0030940052149995914 0 -0.0030940052149995914 0.0025022298349949845 0 0 0 -0.021498170470635292 -0.020232050298378851 -0.014045583502859525 0 -0.014045583502859525 0.019532674375709103 0 0 0 -0.000174843980667444 -0.038866247620304911 0.012517908418002426 0 0.012517908418002426 0.051118946911374863 0 0 0 0.0030631748227674949 -0.046017188572770741 -0.022521205569604477 0 -0.022521205569604477 0.0074774417682601929 0 0 0 -0.0096349367011276388 0.026284129936228164 -0.012814764249520634 0 -0.012814764249520634 0.041951795525950547 0 0 0 0.017058981365544665 0.011012687830018159 -0.019284256153161761 0 -0.019284256153161761 0.0098213727023888087 0 0 0 0.0052085151331016932 0.029520774096507274 0.023505937431444579 0 0.023505937431444579 0.0093840376176625995 0 0 0 0.0097262029285424823 0.021602276648528096 -0.021853068326638359 0 -0.021853068326638359 0.011029414846988717 0 0 0 0.0081579228738792864 0.0060714208781482704 0.030513800998935414 0 0.030513800998935414 0.0029439663157253548 0 0 0 0.0022538467984685173 -0.017693751357215248 -0.02863505951524168 0 -0.02863505951524168 0.0030547442821030699 0 0 0 -0.0036597517687780501 0.050384485365349271 -0.032297416239918532 0 -0.032297416239918532 0.056263972711517549 0 0 0 0.026662114519216695 -0.052511196423037254 0.0029624611993192829 0 0.0029624611993192829 0.012551063047467947 0 0 0 -0.0099900333438923128 0.30015857115555755 0.093749184230734042 0 0.093749184230734042 0.071523538035896284 0 0 0 0.092920527297863431 0.087285404172206787 0.0014522407805807047 0 0.0014522407805807047 0.029287223377541083 0 0 0 0.029143156887436961 0.13612347620151863 -0.0033810849532105725 0 -0.0033810849532105725 0.070851287733832313 0 0 0 0.051743690983837687 0.033299338569231667 -0.015012627126456192 0 -0.015012627126456192 0.06621357644985712 0 0 0 0.024878228754772198 0.088011365958631904 -0.0043505277343980353 0 -0.0043505277343980353 0.078226106613811464 0 0 0 0.041559368143110564 -0.0028890992326835452 0.0055935667916011678 0 0.0055935667916011678 0.0031020538549011434 0 0 0 5.3238655555176706e-05 0.025600329548395286 -0.0080255208412741419 0 -0.0080255208412741419 -0.00082186861237530662 0 0 0 0.0061946152340049965 0.015307380349316561 0.012305736052871795 0 0.012305736052871795 0.0018365961503195825 0 0 0 0.0042859941249090384 -0.0031752281355458337 0.046859068118628222 0 0.046859068118628222 0.053411417359207 0 0 0 0.012559047305915276 0.0069366914982185793 0.037325507010836811 0 0.037325507010836811 0.038580066702168653 0 0 0 0.011379189550096765 0.17822144745420493 0.11706698152830586 0 0.11706698152830586 0.20981316127228114 0 0 0 0.097008652181621566 -0.0065215089423012046 0.01076687548270705 0 0.01076687548270705 0.0067784434831789642 0 0 0 6.4233635219665408e-05 0.068382597189014099 -0.017259248016225248 0 -0.017259248016225248 0.059202544188388384 0 0 0 0.03189628534435076 0.044353250307973879 0.0064672560202639062 0 0.0064672560202639062 0.010393641463270153 0 0 0 0.01368672294281098 0.028021968471478625 -0.012791300134217923 0 -0.012791300134217923 0.050633170536009929 0 0 0 0.019663784751872145 0.037068685887688968 -0.01663547854268696 0 -0.01663547854268696 0.0086001153055216828 0 0 0 0.011417200298302649 0.061934347313518767 0.0025216173713001333 0 0.0025216173713001333 0.022453918956546248 0 0 0 0.021097066567516226 -0.072789582745386772 0.012804276576843021 0 0.012804276576843021 0.00041432550880093899 0 0 0 -0.018093814309146361 -0.0060628223029514094 -0.0072353142173644525 0 -0.0072353142173644525 0.0041612947076274942 0 0 0 -0.00047538189883089554 0.12697626792419725 0.017296861993633117 0 0.017296861993633117 0.11339568852199466 0 0 0 0.060092989111547812 0.10658274941418788 -0.011990445862270382 0 -0.011990445862270382 0.088342422004515808 0 0 0 0.048731292854676034 -0.0058308311414099201 0.0058296066926801279 0 0.0058296066926801279 0.0063620644572441876 0 0 0 0.00013280832895867789 0.037907118413228524 -0.01159771430681858 0 -0.01159771430681858 0.015318045026429417 0 0 0 0.013306290859914471 0.055947369890232579 -0.04531361870259612 0 -0.04531361870259612 0.084493337744776131 0 0 0 0.035110176908752164 0.033163757235549152 -0.0085901827680138904 0 -0.0085901827680138904 0.012589805139504584 0 0 0 0.011438390593763392 0.05361387744758056 -0.0024759162003937484 0 -0.0024759162003937484 0.0090460578518354318 0 0 0 0.015664983824853929 -0.00027299107581102433 -0.023111076134855149 0 -0.023111076134855149 0.0092737922455694566 0 0 0 0.0022502002924395526 -0.03232083159776708 0.0073962815930450803 0 0.0073962815930450803 -0.0028649696783734462 0 0 0 -0.008796450319035129 -0.04188909446496375 -0.012756232258562501 0 -0.012756232258562501 -0.0038035099297605429 0 0 0 -0.011423151098681073 0.058396088204531703 -0.013034062451047101 0 -0.013034062451047101 0.0010460493086973499 0 0 0 0.014860534378307222 0.088553524608803391 0.016819763781402042 0 0.016819763781402042 0.034757507625516881 0 0 0 0.030827758058580068 -0.020668558033375462 -0.017784350546744872 0 -0.017784350546744872 -0.0053489857935185361 0 0 0 -0.0065043859567234987 -0.019922048793023478 0.011587259052502775 0 0.011587259052502775 -0.0037866866511095318 0 0 0 -0.0059271838610332524 0.037571528474792421 -0.0040231206370399423 0 -0.0040231206370399423 -0.0048565323197589313 0 0 0 0.0081787490387583723 -0.040990686189046034 0.0066097753413629171 0 0.0066097753413629171 0.001615255592025024 0 0 0 -0.0098438576492552513 -0.055861164135256297 -0.011752355783320548 0 -0.011752355783320548 0.0028783513563945262 0 0 0 -0.013245703194715439 0.042823433205935263 -0.010420954124097749 0 -0.010420954124097749 0.0022654389147259701 0 0 0 0.011272218030165315 0.039037060065672341 -0.015909119060098037 0 -0.015909119060098037 0.0090761743002641948 0 0 0 0.012028308591484141 0.14946290564757028 -0.0038345493477698334 0 -0.0038345493477698334 0.14290913889419776 0 0 0 0.073093011135441782 -0.0033769365831260445 -0.0040522419952668809 0 -0.0040522419952668809 0.0013966617078390864 0 0 0 -0.00049506871882171177 0.039185473335691945 -0.011882447284734518 0 -0.011882447284734518 3.4849889552046598e-05 0 0 0 0.009805080806310984 0.044892936778316357 0.0041862718263018239 0 0.0041862718263018239 0.016157500718902096 0 0 0 0.015262609374304632 -0.0073236858404512883 0.037851216053453651 0 0.037851216053453651 0.004452043118254867 0 0 0 -0.00071791068054904983 -0.033083025902805388 -0.013553901597741816 0 -0.013553901597741816 -0.011032615010989993 0 0 0 -0.011028910228448846 -0.027219245763485455 0.0085207248300624861 0 0.0085207248300624861 -0.0090761678242856306 0 0 0 -0.0090738533969427701 0.029903819891767471 -0.0096098158341060315 0 -0.0096098158341060315 -0.0097099467047865734 0 0 0 0.0050484682967452225 0.038574919981325007 0.013385072582086988 0 0.013385072582086988 0.027387305600293566 0 0 0 0.016490556395404532 0.018161785773409989 -0.012830508964632337 0 -0.012830508964632337 0.0062959272104992081 0 0 0 0.0061144282459772992 0.016454535628561081 -0.019145587292766775 0 -0.019145587292766775 0.0081588233091883094 0 0 0 0.0061533397344372652 0.036330177726579316 0.0038730945896578617 0 0.0038730945896578617 -0.0023008699827253617 0 0 0 0.0085073269359634846 0.0024207053164967468 -0.019704748140986623 0 -0.019704748140986623 -0.0046409226441411315 0 0 0 -0.00055505433191109597 0.054191710858628672 0.0028834568065293207 0 0.0028834568065293207 0.014013255510408107 0 0 0 0.017051241592259236 0.041405775667346635 0.0043580907799034381 0 0.0043580907799034381 -0.00052434845080566754 0 0 0 0.010220356804135241 0.033670112375696615 0.0069415518990118457 0 0.0069415518990118457 0.00036124654616311036 0 0 0 0.0085078397304649382 0.032435821453561269 0.0062661983320749263 0 0.0062661983320749263 0.0021520734484322609 0 0 0 0.0086469737254983824 0.041916220637627954 -0.01087768479037482 0 -0.01087768479037482 0.025617779060428114 0 0 0 0.016883499924513989 0.046107948485082137 -0.022754863252060498 0 -0.022754863252060498 0.025015470015548102 0 0 0 0.017780854625157563 0.04991579854043815 0.0030756369531877714 0 0.0030756369531877714 0.016736220475822572 0 0 0 0.01666300475406518 0.032386719714636504 -0.016001003156664702 0 -0.016001003156664702 0.067076436360043429 0 0 0 0.024865789018669981 0.1855130777488585 0.010553062190736817 0 0.010553062190736817 0.16047571252271098 0 0 0 0.08649719756789187 -0.0040746469600911883 -0.0037813552038916676 0 -0.0037813552038916676 0.0037817443185033106 0 0 0 -7.3225660397024939e-05 -0.013292085711074986 -0.0043650241154507873 0 -0.0043650241154507873 0.00070897855154772316 0 0 0 -0.0031457767898817046 0.16143644938491519 -0.00094311943399705278 0 -0.00094311943399705278 0.15244452820994869 0 0 0 0.078470244398716194 0.043862148695166851 0.017738774280713254 0 0.017738774280713254 0.088368224934907535 0 0 0 0.033057593407518619 0.023398226641042366 0.0094993558933553716 0 0.0094993558933553716 0.001061254402810137 0 0 0 0.0061148702609631275 0.017540922952335929 0.0098189927205285781 0 0.0098189927205285781 0.0015003491877977407 0 0 0 0.0047603180350334166 0.10033985765248776 0.018692990383558372 0 0.018692990383558372 0.04056980985029357 0 0 0 0.035227416875695416 0.089237284493070002 0.026250118083451512 0 0.026250118083451512 0.0368735707945822 0 0 0 0.031527713821913217 0.038301948538396857 -0.023592406025489135 0 -0.023592406025489135 0.024519021617914971 0 0 0 0.015705242539077971 0.045805920000691169 0.0083324371828474297 0 0.0083324371828474297 0.0016488312061115895 0 0 0 0.011863687801700717 0.031670083663854265 -0.0082979879529007927 0 -0.0082979879529007927 -0.014440476924185708 0 0 0 0.0043074016849171115 0.030507733305851971 0.0096727365643613523 0 0.0096727365643613523 0.05771267918996234 0 0 0 0.022055103123953569 -0.019118312751229993 0.0061581222599868656 0 0.0061581222599868656 0.0019193338801368753 0 0 0 -0.0042997447177732795 0.089227691530322506 -0.0063367661555524535 0 -0.0063367661555524535 0.082232668984353552 0 0 0 0.042865090128669125 -0.060936168273960853 0.0034785188774024978 0 0.0034785188774024978 0.00096502451168701577 0 0 0 -0.014992785940568435 -0.09799573385796706 -0.0085746785383537805 0 -0.0085746785383537805 0.0013068417987378358 0 0 0 -0.024172223014807301 0.061831615182586952 -0.020532351885603276 0 -0.020532351885603276 0.011724180475609081 0 0 0 0.018388948914549008 0.13344009142128738 -0.043792205849714994 0 -0.043792205849714994 0.042006485919565795 0 0 0 0.043861644335213307 0.05075583427891775 -0.0099787799794241322 0 -0.0099787799794241322 0.0031305621028228092 0 0 0 0.013471599095435133 0.049621535023906288 -0.015525036660321928 0 -0.015525036660321928 0.0063337217447254901 0 0 0 0.013988814192157972 0.036889254595853828 -0.0022958096594283273 0 -0.0022958096594283273 0.0039922750563601188 0 0 0 0.010220382413053487 0.016045804452702761 0.0041194146081320326 0 0.0041194146081320326 -0.0041828133518331256 0 0 0 0.0029657477752174088 0.058710454510515042 0.0014837770724698274 0 0.0014837770724698274 0.012976223302796797 0 0 0 0.017921669453327738 0.0093677672396056278 -0.0035475183098165886 0 -0.0035475183098165886 -0.0046799058485655137 0 0 0 0.0011719653477600843 0.0058963688044132573 0.020033894353512521 0 0.020033894353512521 0.070177681141751269 0 0 0 0.019018512486541142 0.031118134098275463 -0.012840733470736693 0 -0.012840733470736693 0.0096414442944624534 0 0 0 0.010189894598184507 0.053503176433954885 -0.0058206298846015525 0 -0.0058206298846015525 0.0047111636479605853 0 0 0 0.014553585020478875 0.047917186815363194 -0.0048525648369393826 0 -0.0048525648369393826 0.0052303722094932809 0 0 0 0.013286889756214112 0.039231768084675989 -0.021407666402054729 0 -0.021407666402054729 0.014127925112418893 0 0 0 0.013339923299273748 -0.10512863709739459 0.015367502510171493 0 0.015367502510171493 0.0036455440575513531 0 0 0 -0.025370773259960788 -0.01639075607392998 0.0052996359683957148 0 0.0052996359683957148 0.017032098658269795 0 0 0 0.00016033564608496087 -0.0051124155542029426 -0.0022828889159663517 0 -0.0022828889159663517 0.015365500307405883 0 0 0 0.002563271188300742 0.033473086246384259 -0.0069735612183294271 0 -0.0069735612183294271 0.001943038752770021 0 0 0 0.0088540312497886187 -0.075943279083083404 0.024900919293068036 0 0.024900919293068036 0.0024574391520217898 0 0 0 -0.018371459982765126 -0.047966002838667601 0.0092025357362568866 0 0.0092025357362568866 0.004466851136254224 0 0 0 -0.010874787925603334 -0.051722435880376755 0.00076590718171194727 0 0.00076590718171194727 0.0041734946803936024 0 0 0 -0.011887235299995816 -0.086449560097544551 -0.0048573818208601516 0 -0.0048573818208601516 0.0094619360655811557 0 0 0 -0.019246906007990852 -0.078353870393119751 -0.0224554764083571 0 -0.0224554764083571 0.010913932786832725 0 0 0 -0.016859984401571743 0.032584415384459289 -0.011100913660515022 0 -0.011100913660515022 0.0099626102064462041 0 0 0 0.010636756397726387 -0.062771731880629886 -0.0065225369223039786 0 -0.0065225369223039786 0.0019630377055157577 0 0 0 -0.015202173543778549 0.099090434767502678 0.051602299313869671 0 0.051602299313869671 0.026620340954843114 0 0 0 0.03142769393058642 0.021174882816416385 -0.0090779399115708745 0 -0.0090779399115708745 0.046788907585446092 0 0 0 0.016990947600465614 0.044430988430749996 0.014503527641715527 0 0.014503527641715527 0.01831644648065928 0 0 0 0.015686858727852304 -0.010516556078228101 0.021382343762761158 0 0.021382343762761158 0.0040808881017708742 0 0 0 -0.0016089169941142512 0.041997344503917622 -0.018873966814152654 0 -0.018873966814152654 0.023261261873001149 0 0 0 0.016314651594229679 0.046901141209623173 -0.022677709332009743 0 -0.022677709332009743 0.027399141534413467 0 0 0 0.018575070686009127 0.028473149597818548 -0.0067562703662432388 0 -0.0067562703662432388 0.0013709604614271509 0 0 0 0.0074610275148114802 0.044949944760613841 -0.0050792266165893551 0 -0.0050792266165893551 0.0045389755186545644 0 0 0 0.012372230069817081 0.017648282552051947 -0.013420462149497648 0 -0.013420462149497648 -0.0033804735864790755 0 0 0 0.0035669522413932196 0.0078097611550148969 0.013892312244582709 0 0.013892312244582709 0.00057742616257188545 0 0 0 0.0020967968293966969 0.019068629437821526 -0.025081618011878526 0 -0.025081618011878526 0.015623291858478661 0 0 0 0.0086729803240750067 0.00015583886311491477 -0.026697897715043911 0 -0.026697897715043911 -0.0037219050197069281 0 0 0 -0.00089151653914800594 -0.018564946018183287 -0.014484163733002722 0 -0.014484163733002722 0.020713797867853989 0 0 0 0.0005372129624176547 0.034519765495623904 -0.0039653954440861273 0 -0.0039653954440861273 -0.0047625755618790795 0 0 0 0.0074392974834362052 0.03665684636378027 -0.0012253369546266421 0 -0.0012253369546266421 -0.00048342172789403795 0 0 0 0.0090433561589715588 0.023605336974789962 0.008471237266679206 0 0.008471237266679206 0.0021992353906220737 0 0 0 0.0064511430913530097 0.022866255065338709 0.010008397039541672 0 0.010008397039541672 0.00055183288418713533 0 0 0 0.0058545219873814593 -0.0077822923816975725 -0.02221546284279069 0 -0.02221546284279069 0.020986855730710088 0 0 0 0.003301140837253122 0.037984514178131354 0.01236012350581437 0 0.01236012350581437 0.017075031703637979 0 0 0 0.013764886470442321 0.043527916935067017 -0.0063094238240546351 0 -0.0063094238240546351 -0.0075374009620984908 0 0 0 0.0089976289932421349 0.02167770870126294 -0.024446896105392139 0 -0.024446896105392139 -0.0047546211565767087 0 0 0 0.004230771886171554 0.035983455978026789 0.015296997499628328 0 0.015296997499628328 0.046275629721336829 0 0 0 0.020564771424840915 0.010301326181567512 0.0058984040406008693 0 0.0058984040406008693 0.0042864417273687574 0 0 0 0.003646941977234067 0.013482943852839083 0.0076847078362081867 0 0.0076847078362081867 0.0072322473725051663 0 0 0 0.0051787978063360628 -0.033076274347695736 -0.013558945346612301 0 -0.013558945346612301 -0.011011015093971553 0 0 0 -0.011021822360416827 -0.02721471223321965 0.0085251710213559324 0 0.0085251710213559324 -0.009061392924308383 0 0 0 -0.0090690262893820088 0.16036910369425134 0.026170172070662356 0 0.026170172070662356 0.043033544815068034 0 0 0 0.050850662127329763 0.024277314320564847 0.0082218883845061735 0 0.0082218883845061735 0.0048946788701950961 0 0 0 0.0072929982976899857 0.010821734881522244 -0.0044871470554468194 0 -0.0044871470554468194 0.055309545069455318 0 0 0 0.01653281998774439 0.029850227972964188 -0.0024149282033650299 0 -0.0024149282033650299 -0.010045989445918835 0 0 0 0.0049510596317613731 -0.05313849903881987 0.0052109986069347001 0 0.0052109986069347001 0.0015366067683731058 0 0 0 -0.012900473067611693 -0.084005861370228224 -0.0099339433082794495 0 -0.0099339433082794495 0.0015024746896140058 0 0 0 -0.02062584667015355 0.034921054879089121 -0.004305401651641283 0 -0.004305401651641283 0.0033939161586797884 0 0 0 0.0095787427594422672 -0.041123345753208487 0.011242407450176526 0 0.011242407450176526 0.0014204291028167731 0 0 0 -0.0099257291625979328 -0.042408882915286696 -0.030840154736354652 0 -0.030840154736354652 -0.00093078725221774905 0 0 0 -0.010834917541876102 -0.045893224891332088 0.0072021266914719436 0 0.0072021266914719436 -0.00021681534952939889 0 0 0 -0.011527510060215384 -0.0037287483336297476 0.0099439500824154946 0 0.0099439500824154946 0.0011832702741869003 0 0 0 -0.00063636951486071625 0.016650839393754956 -0.016796770945851854 0 -0.016796770945851854 -0.005016818679020707 0 0 0 0.0029085051786835667 -0.012596900223155703 -0.025273825647615079 0 -0.025273825647615079 0.0077701025753308395 0 0 0 -0.0012066994119562038 0.028499068792923909 -0.012303314788710606 0 -0.012303314788710606 0.0085776777823687311 0 0 0 0.0092691866438231185 0.084766239396581566 0.01368095098324118 0 0.01368095098324118 0.049533754751317716 0 0 0 0.033574998536974654 -0.010428320591378881 -0.013024774341124978 0 -0.013024774341124978 0.0016682557670089082 0 0 0 -0.0021900162060924933 0.032867349117988533 -0.0049302977276895615 0 -0.0049302977276895615 0.0020646339497740734 0 0 0 0.008732995766940652 0.01775117642807425 0.0091001766849718464 0 0.0091001766849718464 0.0032515075628136193 0 0 0 0.0052506709977219682 0.0077353141408978733 -0.017232233895883128 0 -0.017232233895883128 -0.0043027837129412591 0 0 0 0.00085813260698915442 -0.00031577175284914875 0.014680249407785492 0 0.014680249407785492 -0.0010631612910179181 0 0 0 -0.0003447332609667654 0.015742281161810971 -0.0047928042218600281 0 -0.0047928042218600281 0.01416878770458091 0 0 0 0.0074777672165979789 0.015130291669770521 -0.013423541985241816 0 -0.013423541985241816 0.01731136023504351 0 0 0 0.0081104129762035043 0.010117785911187727 0.043485619930149377 0 0.043485619930149377 0.01325229458808308 0 0 0 0.0058425201248176739 0.061717656171263624 0.064032697095343427 0 0.064032697095343427 0.04099825490612341 0 0 0 0.025678977769346745 0.10545296558739267 -0.0036869437231946411 0 -0.0036869437231946411 0.04403997411276081 0 0 0 0.03737323492503835 0.0073551082927398037 -0.0020558923446560226 0 -0.0020558923446560226 0.043672195968940855 0 0 0 0.012756826065420161 0.038487006754913337 0.002576396616045808 0 0.002576396616045808 -0.0041395503614079874 0 0 0 0.0085868640983763379 0.030071874259591264 -0.01312417589444248 0 -0.01312417589444248 0.0030278937734545819 0 0 0 0.0082749420082615099 -0.0058070320524709063 0.033824039230678893 0 0.033824039230678893 0.0012496456288739743 0 0 0 -0.0011393466058990942 0.047379932519992396 -0.012083713791727013 0 -0.012083713791727013 0.043854666640133821 0 0 0 0.022808649790031499 0.032498136441796499 0.0010918764041819573 0 0.0010918764041819573 0.0055822961738072885 0 0 0 0.0095201081539009191 0.014797340541267807 0.0092382505085728817 0 0.0092382505085728817 0.00090242390410910645 0 0 0 0.0039249411113442267 -0.014483824867247724 0.0051259895096547881 0 0.0051259895096547881 0.040680344711544802 0 0 0 0.0065491299610743181 -0.050875202642768735 0.0031113407519526085 0 0.0031113407519526085 -0.0016586470953400302 0 0 0 -0.013133462434527192 -0.073451510135584583 -0.0054985976716636232 0 -0.0054985976716636232 -0.0030751896511509724 0 0 0 -0.019131674946683882 0.053074810899371147 -0.011242552480062867 0 -0.011242552480062867 0.0043128185792912777 0 0 0 0.01434690736966561 -0.0086243517217189751 0.010906449532333483 0 0.010906449532333483 -0.00027999893511376772 0 0 0 -0.0022260876642081866 0.00094743573973821941 -0.01524194807473335 0 -0.01524194807473335 -0.0058590353086796845 0 0 0 -0.0012278998922353691 -0.12043612194846974 -0.00084912525737579347 0 -0.00084912525737579347 0.0053715717610995917 0 0 0 -0.028766137546842513 -0.068069426755353032 0.00088542344137826356 0 0.00088542344137826356 0.0017430552888532957 0 0 0 -0.016581592866624931 0.074667773318589425 0.017232227667573652 0 0.017232227667573652 0.10089873304513269 0 0 0 0.04389162659093053 0.12986070302077374 -0.0038126324681622831 0 -0.0038126324681622831 0.25121762206181153 0 0 0 0.095269581270646275 0.01274924014586884 -0.02656342906527942 0 -0.02656342906527942 0.017840403295695584 0 0 0 0.0076474108603911128 -0.0049003335316039343 -0.021186142415342918 0 -0.021186142415342918 0.012785769010795034 0 0 0 0.0019713588697977957 0.050362484249713291 -0.029544646425991587 0 -0.029544646425991587 0.048566275773320226 0 0 0 0.024732190005758381 0.020863142744460522 -0.0060352006001929137 0 -0.0060352006001929137 -0.015752364230379734 0 0 0 0.001277694628520204 0.036573848186794419 -0.0034784043774928799 0 -0.0034784043774928799 -0.0077388110697619106 0 0 0 0.0072087592792581309 -0.025732165016653541 -0.00057033641783835187 0 -0.00057033641783835187 0.010110899810625351 0 0 0 -0.0039053163015070336 0.03411411447312318 -0.0025494719483231815 0 -0.0025494719483231815 -0.022021862444258078 0 0 0 0.0030230630072162201 -0.099101977846252076 0.010066932905463233 0 0.010066932905463233 0.0020691825809907721 0 0 0 -0.024258198816315298 0.0071866047203841266 0.017614498515916122 0 0.017614498515916122 0.0064894329983111732 0 0 0 0.0034190094296737694 0.031192153112336807 -0.01675724711110016 0 -0.01675724711110016 0.021971751734068956 0 0 0 0.013290976211601579 0.02723657140853894 0.0078312325637123065 0 0.0078312325637123065 0.014248203647093668 0 0 0 0.010371193763908156 0.008485329595477667 -0.010378035327341231 0 -0.010378035327341231 0.017354484671415926 0 0 0 0.0064599535667233948 0.043335396044655701 0.0081816403916507244 0 0.0081816403916507244 0.0023320879119948235 0 0 0 0.011416870989162629 0.047734220787469223 0.011031444194854682 0 0.011031444194854682 0.0078054367044696205 0 0 0 0.013884914372984714 -0.014765600906778956 -0.024130317892890597 0 -0.024130317892890597 -0.0015250170190325915 0 0 0 -0.0040726544814528812 -0.0014162308326166606 -0.02015428471698516 0 -0.02015428471698516 0.0041077927331214514 0 0 0 0.00067289047512625322 -0.052251390095120802 -0.019442873354640615 0 -0.019442873354640615 -0.0051098869530678617 0 0 0 -0.014340319262047162 0.034518929179004232 0.033749565433173867 0 0.033749565433173867 0.010743174060451999 0 0 0 0.011315525809864058 0.029487027374884373 0.030711832657904781 0 0.030711832657904781 0.0095861783466734407 0 0 0 0.0097683014303893978 0.02776795945297228 0.032346043678879166 0 0.032346043678879166 0.0070837822907581227 0 0 0 0.008712935435932323 0.0033658295098935587 -0.022299615435962483 0 -0.022299615435962483 0.0061427152979818267 0 0 0 0.0023771362019688325 -0.00075453853714871344 -0.017631070428403839 0 -0.017631070428403839 0.0045360321614715537 0 0 0 0.00094537340608072395 0.1081591736612906 0.030174986363323976 0 0.030174986363323976 0.053898294260285556 0 0 0 0.040514366980394047 0.032503300547882079 -0.0039051663186223666 0 -0.0039051663186223666 0.010825203203829573 0 0 0 0.010832125937927914 0.021104976692714713 0.0092722059350729621 0 0.0092722059350729621 0.0070309258851009608 0 0 0 0.0070339756444539187 0.027977289426992243 0.0086231478564701043 0 0.0086231478564701043 0.0057932872642766746 0 0 0 0.0084426441728172388 0.043829149918545057 -0.007743105912216719 0 -0.007743105912216719 0.074371440658135168 0 0 0 0.029550147644170049 -0.028542132765808192 -0.028287437305368108 0 -0.028287437305368108 -0.0019884179378353919 0 0 0 -0.0076326376759109013 0.030758168301293267 0.0040102437490955947 0 0.0040102437490955947 0.0034540188961650741 0 0 0 0.0085530467993645831 -0.075444446927011591 -0.007221673268757214 0 -0.007221673268757214 -0.0043304413493334085 0 0 0 -0.019943722069086248 -0.050450513530308355 0.0035990263733297195 0 0.0035990263733297195 -0.0020005739153768874 0 0 0 -0.013112771861421317 -0.058708244520866815 -0.0032765075676057798 0 -0.0032765075676057798 0.0015974538550849182 0 0 0 -0.014277697666445488 0.028580634398063617 0.0078585288154572434 0 0.0078585288154572434 0.00085120906632865645 0 0 0 0.0073579608660980685 0.036041998075353611 -0.0105394945859556 0 -0.0105394945859556 0.025536779131595161 0 0 0 0.015394694301737184 0.029744451881453155 0.011421211349233622 0 0.011421211349233622 0.032527534382094193 0 0 0 0.015567996565886835 0.063746659405635411 0.036341816731428556 0 0.036341816731428556 0.012441810953212451 0 0 0 0.019047117589712018 0.04100351662545372 0.0015348666257440035 0 0.0015348666257440035 -0.0026142652803571942 0 0 0 0.00959731283627413 0.012618883592304897 0.015696623297250745 0 0.015696623297250745 0.0093611227578263012 0 0 0 0.0054950015875327995 0.032329000734197422 -0.013575715373971953 0 -0.013575715373971953 0.014807775555909952 0 0 0 0.011784194072526732 0.028738049461088981 0.0083857699140574386 0 0.0083857699140574386 0.00069376870126977574 0 0 0 0.007357954540589691 0.019620441776871007 0.0050360764629276376 0 0.0050360764629276376 0.042057803719249234 0 0 0 0.01541956137403006 0.067316357449067166 0.010373625026151911 0 0.010373625026151911 0.031375988443779868 0 0 0 0.024673086473211647 0.011967564737578762 0.011595246596491915 0 0.011595246596491915 0.005702351201476219 0 0 0 0.0044174789847635232 0.0061463915863237961 -0.0093854400235426905 0 -0.0093854400235426905 0.00047167309292417414 0 0 0 0.001654516169811826 0.041132598412155996 -0.010553025147769457 0 -0.010553025147769457 0.016145268281146041 0 0 0 0.014319466673325509 -0.045771428981013135 -0.006425830069437255 0 -0.006425830069437255 0.021746621152498313 0 0 0 -0.0060062019571287262 -0.03316963569430921 -0.01263705013091293 0 -0.01263705013091293 0.0070508743301634091 0 0 0 -0.0065296903410365092 -0.048021670202231248 -0.012754586062778656 0 -0.012754586062778656 0.0068648383806071411 0 0 0 -0.010289207955406054 -0.075361072362893855 0.031305046387660657 0 0.031305046387660657 0.017222714717396004 0 0 0 -0.014534589411374532 -0.046095521182406674 0.030865141414621003 0 0.030865141414621003 0.017353625394209038 0 0 0 -0.0071854739470493811 0.016444471823233286 0.0087846094595277688 0 0.0087846094595277688 0.00064467103764939693 0 0 0 0.0042722857152206715 0.16471152790972776 0.027193222429492941 0 0.027193222429492941 0.04210047188201016 0 0 0 0.05170299994793448 -0.017329906767837557 -0.017284287598584705 0 -0.017284287598584705 -0.0061342353164633712 0 0 0 -0.0058660355210752354 -0.01886635816805101 0.011045637677733798 0 0.011045637677733798 -0.0018973994434549855 0 0 0 -0.0051909394028764981 0.015233065458856653 -0.0063949378223564848 0 -0.0063949378223564848 0.0311635791073686 0 0 0 0.011599161141556307 -0.0013556450461242094 0.012538996891576421 0 0.012538996891576421 -0.00088330281720066205 0 0 0 -0.00055973696583122047 0.011919037523664685 -0.018129416535179844 0 -0.018129416535179844 -0.010638278832429113 0 0 0 0.00032018967280889044 -0.055767849929032498 -0.023537218670705091 0 -0.023537218670705091 0.0021857389774806446 0 0 0 -0.013395527737887956 -0.056391566861224228 -0.022412046354890445 0 -0.022412046354890445 -0.00096067362450378939 0 0 0 -0.014338060121432013 0.073698031985723667 0.020392042110370379 0 0.020392042110370379 0.048994338264239268 0 0 0 0.030673092562490956 0.0022837753984158438 -0.014153154072028162 0 -0.014153154072028162 0.0051257915948577093 0 0 0 0.001852391748318416 0.068995899360952476 0.0031020468606934859 0 0.0031020468606934859 -0.023621947808936117 0 0 0 0.011343487888004119 0.045308676133685444 -0.0020875889593319763 0 -0.0020875889593319763 -0.038354517705552871 0 0 0 0.0017385396070331294 -0.00062964091533932592 0.0085710541205868008 0 0.0085710541205868008 0.004205259979292976 0 0 0 0.00089390476598841077 0.070904052089263092 -0.0097804089118577742 0 -0.0097804089118577742 0.072651094232171531 0 0 0 0.0358887865803586 0.12376082479100453 0.0078905389674470139 0 0.0078905389674470139 0.13456519682132861 0 0 0 0.064581505403083328 0.062858112092597798 0.011804062899276047 0 0.011804062899276047 0.030323824945113022 0 0 0 0.023295484259427745 -0.044068404896406288 -0.0036232647928710685 0 -0.0036232647928710685 0.0078861033534405878 0 0 0 -0.0090455753857413973 0.023830882166991696 0.0015693170806789225 0 0.0015693170806789225 -0.031001068734116455 0 0 0 -0.0017925466417812452 -0.055783840074817258 -0.03129425977662495 0 -0.03129425977662495 0.0064673011829838312 0 0 0 -0.012329134722958351 0.02762194203590615 0.0071846998014898876 0 0.0071846998014898876 0.012242162077145707 0 0 0 0.0099660260282629642 -0.010597131159448214 -0.019556408374642481 0 -0.019556408374642481 0.020844952994198418 0 0 0 0.002561955458687537 -0.0054922833555427208 -0.01451094028791039 0 -0.01451094028791039 0.017917764355175336 0 0 0 0.0031063702499081192 -0.0030036380856106378 0.011888274006925541 0 0.011888274006925541 0.00095254114382677807 0 0 0 -0.00051277423544596537 -0.030166566005153578 -0.0090940211736065119 0 -0.0090940211736065119 0.011444513756810104 0 0 0 -0.0046805130620858615 -0.0098008619495174309 0.0091199337109024916 0 0.0091199337109024916 0.0024588736683651274 0 0 0 -0.0018354970702880689 0.0180292536826154 -0.018574634243590432 0 -0.018574634243590432 -0.011558089807469689 0 0 0 0.0016177909687864235 -0.048037933839657904 -0.0024666307872863585 0 -0.0024666307872863585 0.0085720976653160808 0 0 0 -0.0098664590435854904 -0.083580283077730466 0.0057017338386036176 0 0.0057017338386036176 0.029632340243139321 0 0 0 -0.013486985708647814 -0.019534887394804933 -0.01878886667836481 0 -0.01878886667836481 -0.0025313125599941491 0 0 0 -0.0055165499886997687 -0.018897011323447295 0.012711978998313812 0 0.012711978998313812 -0.0013768767548174229 0 0 0 -0.0050684720195661795 -0.012375554926917611 0.013383223301923406 0 0.013383223301923406 -2.1724971605331655e-05 0 0 0 -0.0030993199746307352 -0.0042649132318156383 -0.024635546710170091 0 -0.024635546710170091 -0.0089335742141251062 0 0 0 -0.0032996218614851844 0.029977997760952696 -0.0091852010115853339 0 -0.0091852010115853339 -0.0073549867875869757 0 0 0 0.0056557527433414301 0.039728910864194986 -0.028609782503092013 0 -0.028609782503092013 0.041170826707097929 0 0 0 0.020224934392823246 0.044840692655228581 0.0043001095704222423 0 0.0043001095704222423 -0.0027786870883177283 0 0 0 0.010515501391727701 0.0074483132046623268 0.019902229789622972 0 0.019902229789622972 0.0070918419107721675 0 0 0 0.0036350387788584015 0.040551791190048037 -0.01929197787243031 0 -0.01929197787243031 0.024459420376881091 0 0 0 0.016252802891732254 -0.010129319724767412 0.013147864694842963 0 0.013147864694842963 -0.00059509281450160351 0 0 0 -0.0026811031348172587 0.001558809908115865 -0.021487122522456992 0 -0.021487122522456992 -0.010995635553371597 0 0 0 -0.0023592064113139369 0.037837690088861106 0.0077539215113003055 0 0.0077539215113003055 0.0014921280978721606 0 0 0 0.0098324545466833228 0.017376425816996 -0.020682836579565347 0 -0.020682836579565347 0.028155220416059779 0 0 0 0.011382911558263931 -0.071456272339154747 0.0099622178958438199 0 0.0099622178958438199 0.0013030629315671227 0 0 0 -0.017538302351896906 0.065186024423243727 -0.011013650756911741 0 -0.011013650756911741 0.044152131742965395 0 0 0 0.027334539041552308 -0.014883301819527683 -0.02115405584235619 0 -0.02115405584235619 0.004677059466556388 0 0 0 -0.0025515605882429071 0.013376693971063728 -0.0040780053924268263 0 -0.0040780053924268263 0.047166552267664447 0 0 0 0.015135811559682039 -0.054126888949403845 -0.016955011931386696 0 -0.016955011931386696 -0.00047458883263942764 0 0 0 -0.013650369445510818 -0.038706245805048223 0.0081475022490431377 0 0.0081475022490431377 0.0010455419631249033 0 0 0 -0.0094151759604808385 0.058481400880930144 0.0032021759767993873 0 0.0032021759767993873 0.0023286814146757373 0 0 0 0.015202520573901477 0.033138751959372895 0.0066753116477329642 0 0.0066753116477329642 0.00033079102936551044 0 0 0 0.0083673857471846056 0.018504309875636671 -0.014254586615054909 0 -0.014254586615054909 0.014045793511114124 0 0 0 0.0081375258466876987 -0.055162723049403291 -0.017865137266325968 0 -0.017865137266325968 -0.00069934258442647113 0 0 0 -0.01396551640845743 -0.040180889859520411 0.0091851854152188127 0 0.0091851854152188127 4.6035857308945882e-05 0 0 0 -0.010033713500552863 0.028039202403761138 0.0089034775821421001 0 0.0089034775821421001 0.046507431874835636 0 0 0 0.018636658569649196 0.0091603520239551539 -0.017866564012018027 0 -0.017866564012018027 0.0053943768234430145 0 0 0 0.0036386822118497086 0.031583888825259088 0.024755017399677504 0 0.024755017399677504 0.016933554378225857 0 0 0 0.012129360800872124 -0.036905652695546763 0.0066616993002489994 0 0.0066616993002489994 0.0075415095298402568 0 0 0 -0.0073410357914266327 -0.024493739525149886 0.00057134270904847517 0 0.00057134270904847517 0.0087382978714640094 0 0 0 -0.0039388604134214696 0.025626738357536375 -0.0037329113400958527 0 -0.0037329113400958527 0.017701442826469141 0 0 0 0.010832045296001375 0.01911523505193858 -0.0030454517327612729 0 -0.0030454517327612729 0.024588885238737798 0 0 0 0.010926030072669082 0.017499522357715885 -0.01372261780168107 0 -0.01372261780168107 -0.0077375270817849895 0 0 0 0.0024404988189827247 0.021384173217795732 -0.010783056349355901 0 -0.010783056349355901 -0.0051534068233448846 0 0 0 0.0040576915986127067 0.004698726629469312 0.0099269559045798601 0 0.0099269559045798601 -0.00025428090078215282 0 0 0 0.0011111114321717876 0.004361535302601879 0.012917325733814072 0 0.012917325733814072 -0.0001714439067080839 0 0 0 0.0010475228489734475 0.029976364809347456 -0.0095100763190565651 0 -0.0095100763190565651 0.0086152925980332862 0 0 0 0.0096479143518451993 0.021398943548051396 0.0038874875807234431 0 0.0038874875807234431 0.050319849224541864 0 0 0 0.017929698193148307 0.050728460295791949 0.0064409851134934193 0 0.0064409851134934193 0.0017659510586204245 0 0 0 0.013123602838603076 0.062136140894272218 0.025402489789357628 0 0.025402489789357628 0.019423570896586639 0 0 0 0.020389927947714659 -0.011415093696541923 -0.016939266583875109 0 -0.016939266583875109 0.0031187730543660308 0 0 0 -0.0020740801605437786 0.064752738330839721 0.03627767893210998 0 0.03627767893210998 0.012316724376213894 0 0 0 0.019267365676763459 0.05485041723955552 -0.010860916100958346 0 -0.010860916100958346 -0.0012261137699635242 0 0 0 0.013406075867397988 0.060825046871764446 -0.002730724468334029 0 -0.002730724468334029 0.0084250431512770223 0 0 0 0.017312522505760368 0.0046493426337959054 0.036819449088891454 0 0.036819449088891454 0.0035675171847113774 0 0 0 0.0020542149546267652 0.02992508183771414 0.041030860509177036 0 0.041030860509177036 0.0074025210555970222 0 0 0 0.0093319007233279017 -0.025615981371963522 -0.016529989768140144 0 -0.016529989768140144 -0.0014919122346020303 0 0 0 -0.0067769734016413889 -0.02411728015862236 0.0099966353991682542 0 0.0099966353991682542 -0.00046011824455705411 0 0 0 -0.0061443496007948552 0.019970048657271422 -0.020108985422982256 0 -0.020108985422982256 0.014922824063272278 0 0 0 0.0087232181801359387 0.093421736804496003 -0.012036797952312991 0 -0.012036797952312991 0.076090995395185379 0 0 0 0.042378183049920359 0.1577873978973999 0.012668238088283823 0 0.012668238088283823 0.14125773029110711 0 0 0 0.074761282047126759 0.020937857663478773 0.0050390033980233784 0 0.0050390033980233784 0.031508419716362535 0 0 0 0.013111569344960331 0.056125062747190188 0.0099932644101408986 0 0.0099932644101408986 0.0048449622814984508 0 0 0 0.015242506257172172 0.023513711595966547 -0.0037357182947625189 0 -0.0037357182947625189 -0.0026248695919849352 0 0 0 0.0052222105009953612 0.030902238344863941 -0.0018351765311086232 0 -0.0018351765311086232 0.0007801187447986635 0 0 0 0.0079205892724156235 0.04289472318963311 -0.0033056628493031703 0 -0.0033056628493031703 0.0033653765011693038 0 0 0 0.011565024922700617 -0.0079080219676238017 0.011407422729585726 0 0.011407422729585726 0.0032091355590936343 0 0 0 -0.0011747216021325557 0.056523656908593137 -0.010311106033723871 0 -0.010311106033723871 0.036850803160148327 0 0 0 0.023343615017185251 0.067522861704308046 -0.015780262733681799 0 -0.015780262733681799 0.023426274635370503 0 0 0 0.022737284084919596 0.10750838116450701 0.020331354305140659 0 0.020331354305140659 0.062276243935683651 0 0 0 0.042446156275047608 0.064059556477845447 0.01298835293711087 0 0.01298835293711087 0.030872703166971771 0 0 0 0.023733064911204416 0.0021147558667891642 -0.013425482065437366 0 -0.013425482065437366 0.003061890602064743 0 0 0 0.0012941616172133519 0.036645906585152169 0.0053775945497138659 0 0.0053775945497138659 -0.0021507412878577284 0 0 0 0.0086237913243236118 0.042264502772223961 0.0070792339118435363 0 0.0070792339118435363 0.00077967763426650682 0 0 0 0.010761045101622613 0.060381650563238853 0.025697172552869851 0 0.025697172552869851 0.032512290334834049 0 0 0 0.023223485224518114 -0.0002594714400830922 -0.017568028617821696 0 -0.017568028617821696 0.0042855823385563596 0 0 0 0.0010065277246181781 -0.0080605794917197778 -0.018463744521913534 0 -0.018463744521913534 -0.0049717987508999355 0 0 0 -0.0032580945606549292 -0.012619415032260325 0.012858465041434017 0 0.012858465041434017 -0.0020172074935771028 0 0 0 -0.0036591556314593543 0.0727296519404379 0.043879598225802507 0 0.043879598225802507 0.021025789164250241 0 0 0 0.023438860276172035 -0.037011126474133529 -0.016022103813496964 0 -0.016022103813496964 -0.0046275260083550249 0 0 0 -0.010409663120622137 -0.030174503372714555 0.0096620648968950319 0 0.0096620648968950319 -0.00218526404929144 0 0 0 -0.0080899418555014976 -0.025114530862464957 0.0075962500255952747 0 0.0075962500255952747 0.00036759799317742647 0 0 0 -0.0061867332173219935 0.065892838792897535 -0.0097502533018527515 0 -0.0097502533018527515 0.058906721058698652 0 0 0 0.031199889962899019 0.023571068008821725 -0.016146446272177456 0 -0.016146446272177456 0.060643204624240291 0 0 0 0.021053568158265496 -0.0065903173432555334 -0.010861933819530628 0 -0.010861933819530628 0.057595889133369826 0 0 0 0.01275139294752857 -0.0065896694817571544 -0.020261125470291817 0 -0.020261125470291817 0.0074767992600288657 0 0 0 0.00022178244456788621 0.058648144140839742 -0.0172760280284621 0 -0.0172760280284621 0.0081059588961450713 0 0 0 0.016688525759246231 0.0094373358970876731 0.047328737367780593 0 0.047328737367780593 0.015169922825364335 0 0 0 0.0061518146806130436 -0.039851342192959716 0.023988694546566547 0 0.023988694546566547 0.019295730214906603 0 0 0 -0.0051389029945132503 -0.029313551223318801 -0.0089179093345806287 0 -0.0089179093345806287 0.0073995702768612226 0 0 0 -0.0054784952366144224 0.047502538776126757 -0.033535711414504649 0 -0.033535711414504649 0.029635739214392331 0 0 0 0.0192845694976298 0.062399264079365968 -0.0090163425079378134 0 -0.0090163425079378134 0.045095886821048536 0 0 0 0.026873787725103626 0.10791031735699391 0.0076709579489649404 0 0.0076709579489649404 0.080739798981198541 0 0 0 0.047162529084548155 0.021639807865362654 -0.0098653102020164717 0 -0.0098653102020164717 0.033710558247350308 0 0 0 0.013837591528178234 0.021005683692906771 -0.0064758495961734705 0 -0.0064758495961734705 0.032852508847954737 0 0 0 0.013464548135215373 0.041345152871943985 0.018409570533581956 0 0.018409570533581956 0.070002508860539603 0 0 0 0.027836915433120894 0.03578933131682277 -0.015299541590983859 0 -0.015299541590983859 0.040138725133521902 0 0 0 0.018982014112586168 0.10595140687205595 0.0043426137956263933 0 0.0043426137956263933 0.073756480025849669 0 0 0 0.044926971724476017 -0.0086151721069256393 -0.0091578980553501665 0 -0.0091578980553501665 0.0007001467243261672 0 0 0 -0.0019787563456499235 0.029098607925359062 0.01196082093408948 0 0.01196082093408948 0.042331866341952913 0 0 0 0.017857618566828003 0.060539535693998947 0.0027664209115487726 0 0.0027664209115487726 0.022048337923877906 0 0 0 0.020646968404469227 0.033035497422623405 -0.0026825105915373459 0 -0.0026825105915373459 0.0022678675883742727 0 0 0 0.0088258412527493779 0.041780122271014471 0.016506189562793015 0 0.016506189562793015 0.028072040067730248 0 0 0 0.017463040584686184 0.034199860365893696 -0.00525123050293757 0 -0.00525123050293757 -0.0069051064908929524 0 0 0 0.0068236884687501859 -0.073669655602433604 -0.0059314139756969329 0 -0.0059314139756969329 0.0017516245135416053 0 0 0 -0.017979507772223013 0.017838523809270063 -0.013715170911777578 0 -0.013715170911777578 -0.010130652285099982 0 0 0 0.0019269678810425253 0.048174318917207463 0.0067986264319709168 0 0.0067986264319709168 0.00092123879773433226 0 0 0 0.012273889428735453 0.02923237676635377 0.010744288327266446 0 0.010744288327266446 0.060059266276407813 0 0 0 0.022322910760690394 -0.12259508429275479 0.01273407474492042 0 0.01273407474492042 0.003072046200072176 0 0 0 -0.029880759523170819 0.029316264046090511 0.007066458583041885 0 0.007066458583041885 0.0015759294198543394 0 0 0 0.0077230483664862135 0.047679389695183663 -0.0031395797694147658 0 -0.0031395797694147658 -0.0053476964313353761 0 0 0 0.010582923315962074 0.025782114194103464 -0.015090772124710217 0 -0.015090772124710217 0.00989297178203212 0 0 0 0.0089187714940338753 -0.029592387626482031 -0.014845660137120298 0 -0.014845660137120298 0.0025066394901884781 0 0 0 -0.006771437034073291 0.03034469031351867 -0.01390120673048691 0 -0.01390120673048691 -0.010582448429783273 0 0 0 0.0049405604709338441 0.036317227432997201 0.0042256248273617129 0 0.0042256248273617129 0.00083492468581686588 0 0 0 0.0092880380297035228 0.044804334031039908 -0.0081932880501292271 0 -0.0081932880501292271 -0.0027357703555893767 0 0 0 0.010517140918862642 0.024412130632833123 -0.01530939989996391 0 -0.01530939989996391 0.014721758112090977 0 0 0 0.0097834721862309904 0.042985219938829311 -0.0095062453039072015 0 -0.0095062453039072015 0.028544471386996784 0 0 0 0.017882422831456579 -0.019392580501703123 -0.031721939146857982 0 -0.031721939146857982 -0.0046590216983677154 0 0 0 -0.0060129005500177066 0.12506495156395112 0.0035871411581394064 0 0.0035871411581394064 0.11576640695139306 0 0 0 0.060207839628835774 -0.019534217218087374 -0.0055437353343446016 0 -0.0055437353343446016 -0.0006186253467556635 0 0 0 -0.0050382106412108218 0.041852154629497228 0.003513958880314568 0 0.003513958880314568 -0.0033273472528490169 0 0 0 0.0096312018441620552 0.045757048552580226 0.004599271192273483 0 0.004599271192273483 -0.0034640635218053661 0 0 0 0.010573246257693713 -0.0077341094766629759 0.015110870100860263 0 0.015110870100860263 0.0040028815644275184 0 0 0 -0.00093280697805919743 0.047439619784225506 -0.019410171865879955 0 -0.019410171865879955 0.040122820089075084 0 0 0 0.021890609968325148 0.042542965694786522 0.011422041560174279 0 0.011422041560174279 0.0093149762508868451 0 0 0 0.012964485486418336 0.037550970629185401 0.010003178970083012 0 0.010003178970083012 0.0086999676998944023 0 0 0 0.011562734582269956 0.040457781142853103 0.0057988966236294081 0 0.0057988966236294081 -0.0017640864016330755 0 0 0 0.0096734236853050024 -0.027686526180254849 0.0098784098998145643 0 0.0098784098998145643 0.00016099548462435859 0 0 0 -0.0068813826739076225 0.006622295022462657 0.0041888823608921249 0 0.0041888823608921249 0.01359273797721236 0 0 0 0.0050537582499187578 0.021453260444550877 -0.00013401588413041593 0 -0.00013401588413041593 0.015889992834580841 0 0 0 0.0093358133197829277 -0.033642478260999698 0.011914089430643222 0 0.011914089430643222 -0.00028454477977286896 0 0 0 -0.0084817557601931312 0.11964892337623509 0.068405610334174693 0 0.068405610334174693 0.058520428393404517 0 0 0 0.044542337942409888 0.033702689659430352 0.019116752303307394 0 0.019116752303307394 0.014012068810558276 0 0 0 0.011928689617497046 0.014542360181126757 -0.016811101601974639 0 -0.016811101601974639 0.010173198611648893 0 0 0 0.0061788896981938013 0.022345419535712722 0.007431216088264741 0 0.007431216088264741 0.0090111872697994089 0 0 0 0.0078391517013780311 0.031969263656003402 0.0055860789471531488 0 0.0055860789471531488 0.005088251428747333 0 0 0 0.0092643787711876868 0.069555478692860412 -0.0067320501317325501 0 -0.0067320501317325501 0.015076318793144444 0 0 0 0.021157949371501217 0.053832331936890465 0.0024778775921387025 0 0.0024778775921387025 0.01392448836190785 0 0 0 0.016939205074699565 0.034453739776668157 -0.0085480835098072361 0 -0.0085480835098072361 -0.0011253423448939759 0 0 0 0.0083320993579435454 0.033163452567509889 0.0088843660511423294 0 0.0088843660511423294 0.0037326951111178383 0 0 0 0.0092240369196569354 -0.042716076903907496 -0.0097780620318286826 0 -0.0097780620318286826 0.0013970075758940048 0 0 0 -0.010329767332003359 -0.035283985440228982 -0.01595042500141497 0 -0.01595042500141497 0.0039198270274610758 0 0 0 -0.0078410396031919349 0.03339140106131365 0.0019688211373217975 0 0.0019688211373217975 0.011123051838007193 0 0 0 0.011128613224830211 -0.044287246753301868 0.03594367623554906 0 0.03594367623554906 0.0070945761856915368 0 0 0 -0.0092981676419026105 -0.064559328018200524 0.023601862913633809 0 0.023601862913633809 0.0015594934003111405 0 0 0 -0.015749958654472485 0.059530280231855248 -0.0074187117920622991 0 -0.0074187117920622991 0.0387502197272247 0 0 0 0.024570124989770015 0.098511916029193736 0.0059774229099878451 0 0.0059774229099878451 0.0724325862256745 0 0 0 0.042736125563717031 0.056304471491203795 -0.020752074044111314 0 -0.020752074044111314 0.005363258294352774 0 0 0 0.015416932446389132 0.031588180298794177 -0.0081799175331782603 0 -0.0081799175331782603 0.0058577423013584928 0 0 0 0.0093614806500381675 0.089805212464577955 0.033012860933395949 0 0.033012860933395949 0.087453698835208704 0 0 0 0.044314727824946658 0.036867274945035361 -0.010859921230318054 0 -0.010859921230318054 -0.0072243857634460718 0 0 0 0.0074107222953973192 0.026014497292644656 -0.01668449907028402 0 -0.01668449907028402 0.025955298963742018 0 0 0 0.012992449064096676 0.12555635278822896 0.024731399200291104 0 0.024731399200291104 0.031310241378224246 0 0 0 0.039216648541613219 0.023526445123018665 0.0057376705884901978 0 0.0057376705884901978 0.0091289286458200586 0 0 0 0.0081638434422096826 0.036338640349610873 0.021113828119263101 0 0.021113828119263101 0.021185192376671491 0 0 0 0.014380958181570813 0.013440881772429691 -0.016671166573061891 0 -0.016671166573061891 0.0067925981207987984 0 0 0 0.0050583699733071641 0.022841199071867668 0.0074280006038218594 0 0.0074280006038218594 0.0018419113239143484 0 0 0 0.0061707775989454962 0.0055981597962544358 -0.0085020620420142995 0 -0.0085020620420142995 0.048597905216844262 0 0 0 0.013549016253274669 0.095852734321783872 0.020271849085284899 0 0.020271849085284899 0.072772109743551194 0 0 0 0.0421562110163336 -0.0085909763503858039 -0.011013483303028426 0 -0.011013483303028426 0.0029372146150303813 0 0 0 -0.0014134404338390083 -0.083269311431822368 0.0027318012804587221 0 0.0027318012804587221 0.0014146653323465347 0 0 0 -0.020463661524868958 -0.14562335539398713 -0.007794235699182416 0 -0.007794235699182416 0.0017885681682283522 0 0 0 -0.035958696806439663 0.04398089459211918 0.0080239757474821413 0 0.0080239757474821413 0.081274267739412043 0 0 0 0.031313790582882806 -0.013450845778706637 0.013334755202956071 0 0.013334755202956071 0.0013160871930372395 0 0 0 -0.0030336896464173493 0.11226603884604183 -0.016955689188510814 0 -0.016955689188510814 0.081393119811502893 0 0 0 0.048414789664386192 0.14799736409259515 -0.003363957159182196 0 -0.003363957159182196 0.10000087586850959 0 0 0 0.061999559990276232 0.23041398878543812 0.0016208093643326205 0 0.0016208093643326205 0.17879791943789103 0 0 0 0.1023029770558323 0.17382065312342171 0.022261618025310514 0 0.022261618025310514 0.15293117838336645 0 0 0 0.081687957876697026 0.049077454444668975 -0.012823835369869807 0 -0.012823835369869807 0.014975953565183775 0 0 0 0.016013352002463163 0.081094856558224071 0.016587580905744803 0 0.016587580905744803 0.041458787824969479 0 0 0 0.030638411095798346 0.10139614639163796 0.0085629519197336912 0 0.0085629519197336912 0.10781648784094922 0 0 0 0.052303158558146823 0.049737155092236973 -0.01148249718654909 0 -0.01148249718654909 0.054195592397571879 0 0 0 0.025983186872452213 0.036183179274664148 0.0030646754886806127 0 0.0030646754886806127 0.054159361369575165 0 0 0 0.022585635161059839 0.081570743491037767 -6.2944104647133514e-05 0 -6.2944104647133514e-05 0.062369693521426406 0 0 0 0.035985109253116265 0.011191743365727813 0.010842520652536325 0 0.010842520652536325 0.004285139519333292 0 0 0 0.0038692207212651653 0.0059051899611767267 -0.0081749355221357733 0 -0.0081749355221357733 0.0014587142684114873 0 0 0 0.0018409760573969702 0.048022801653504921 -0.0051165945329721685 0 -0.0051165945329721685 0.03055640188792097 0 0 0 0.019644800885356473 0.031848109292564902 0.0080322887317194475 0 0.0080322887317194475 0.0034792240421023871 0 0 0 0.0088318333336668362 0.11953487745984337 0.013440108933656436 0 0.013440108933656436 0.07679054261351681 0 0 0 0.049081355018339878 0.00059483549776442879 -0.0090646413180042185 0 -0.0090646413180042185 0.0037260422366961199 0 0 0 0.0010802194336151649 0.023166263799023441 -0.0011187029515324395 0 -0.0011187029515324395 0.060649067622250717 0 0 0 0.020953832855318533 0.0022740870531507973 0.012444771016861811 0 0.012444771016861811 0.0067937943746265717 0 0 0 0.0022669703569446753 0.071664108131990312 -0.013596635478979602 0 -0.013596635478979602 0.040835259193484852 0 0 0 0.028124841831368763 0.042844726145376905 -0.01731941353511296 0 -0.01731941353511296 0.02096930317151946 0 0 0 0.015953507329224098 0.023995277569661341 -0.014390576112600292 0 -0.014390576112600292 0.0091441160681713651 0 0 0 0.0082848484094582148 0.025153589261584536 -0.013087029346354917 0 -0.013087029346354917 0.011862333390744939 0 0 0 0.0092539806630823895 0.036704203599418908 -0.01370376200874507 0 -0.01370376200874507 -0.0054991356344737119 0 0 0 0.0078012669912363008 0.046378428009484468 0.053623231425690476 0 0.053623231425690476 0.01783168694338344 0 0 0 0.01605252873821697 -0.050781186220429625 -0.0050618195363038021 0 -0.0050618195363038021 0.0012094540020434197 0 0 0 -0.012392933054596683 0.076428673251176305 -0.021190113589592288 0 -0.021190113589592288 0.029103340779843473 0 0 0 0.026383003507754958 0.043922996361874807 -0.013549698374111636 0 -0.013549698374111636 0.018299588066741243 0 0 0 0.015555646107154014 0.053541487221715027 0.016238384121577114 0 0.016238384121577114 0.015930304203121033 0 0 0 0.017367947856209012 0.034675265692164559 -0.0028206252334859183 0 -0.0028206252334859183 0.0039222536613743308 0 0 0 0.009649379838384764 0.043111443019956286 0.0010042385947968482 0 0.0010042385947968482 0.0078829252906476022 0 0 0 0.012748592077650944 -0.18081475869038313 0.0017049095567241831 0 0.0017049095567241831 0.0060506601134642235 0 0 0 -0.04369102464422972 -0.096728065908172331 -0.00060663297426262681 0 -0.00060663297426262681 0.0025245862537017771 0 0 0 -0.023550869913617656 0.026990531323930984 -0.0080997852693011022 0 -0.0080997852693011022 0.0089944622869151045 0 0 0 0.0089962484027115222 0.013249321309848704 0.010743722101241545 0 0.010743722101241545 0.0044165204187033551 0 0 0 0.0044164604321380143 0.060891473461535145 0.0021054054459178628 0 0.0021054054459178628 0.0043554052193611609 0 0 0 0.016311719670224104 0.046815426914896978 0.01440098526368256 0 0.01440098526368256 0.018024083226426419 0 0 0 0.016209877535330861 0.04978215484762033 0.0078766657684936695 0 0.0078766657684936695 0.0042597280000739122 0 0 0 0.013510470711923572 -0.040880623261568043 -0.020082987732319826 0 -0.020082987732319826 -0.0045008379965047474 0 0 0 -0.011345365314518208 -0.032953045538251638 0.010676108886649764 0 0.010676108886649764 -0.00043506288749849825 0 0 0 -0.0083470271064375445 0.12168630840736605 0.022981798478580118 0 0.022981798478580118 0.031308102718755837 0 0 0 0.038248602781530527 -0.024451313558455583 -0.019728148748633399 0 -0.019728148748633399 -0.0013180721957107358 0 0 0 -0.0064423464385415796 -0.023818677790930137 0.011197513014687589 0 0.011197513014687589 0.00071836361932792192 0 0 0 -0.0057750785429005538 0.032121834774458013 -0.010844732094481703 0 -0.010844732094481703 0.013349042658513444 0 0 0 0.011367719358242934 0.10674308205924932 0.074771665280968791 0 0.074771665280968791 0.056404950773782048 0 0 0 0.040787008208257869 0.056731693090842923 0.0051800932438083756 0 0.0051800932438083756 4.26454278139414e-05 0 0 0 0.014193584629664214 0.056936955462301 0.0021399147467244251 0 0.0021399147467244251 0.024064821641821776 0 0 0 0.020250444276030635 0.0041416116436606577 -0.014609676025388849 0 -0.014609676025388849 0.0013819472027621728 0 0 0 0.0013808897116057072 -0.0045333211339383655 0.011929250173128366 0 0.011929250173128366 -0.0015085321602946818 0 0 0 -0.0015104633235582619 -0.068059123708644267 0.0046888549171355542 0 0.0046888549171355542 -0.00046153572448305244 0 0 0 -0.017130164858281838 -0.10704511073610169 -0.0099286590302009245 0 -0.0099286590302009245 -0.00089199170059854616 0 0 0 -0.026984275609175046 -0.022259929347555218 -0.0034684704761497875 0 -0.0034684704761497875 0.019997066110759076 0 0 0 -0.00056571580919906328 0.064387909845266461 -0.011766358674201616 0 -0.011766358674201616 0.027846662798511002 0 0 0 0.023058643160944386 0.010748260106959983 -0.0051959488469449991 0 -0.0051959488469449991 0.0451584604419938 0 0 0 0.013976680137238453 0.038023102278271576 0.013895447899668182 0 0.013895447899668182 0.026364018961948135 0 0 0 0.016096780310054928 0.029265989746321441 0.0094777630505475663 0 0.0094777630505475663 0.029948472684670824 0 0 0 0.014803615607748077 0.067497172606069536 0.013915493068916259 0 0.013915493068916259 0.023961896605621549 0 0 0 0.022864767302922757 0.078424063388466372 0.0099874637006141243 0 0.0099874637006141243 0.014027407521887043 0 0 0 0.023112867727588374 0.051590056411047303 0.0089338028862435692 0 0.0089338028862435692 0.011437834079792486 0 0 0 0.015756972622709919 0.011540179386427644 -0.012098436621149289 0 -0.012098436621149289 0.027907011086219437 0 0 0 0.0098617976181617703 0.0042329223589620477 -0.019537015129789996 0 -0.019537015129789996 0.053770805945798653 0 0 0 0.014500932076190173 0.041559738348422248 -0.036996388923638532 0 -0.036996388923638532 0.08677942324080265 0 0 0 0.032084790397306232 -0.059770372222088558 0.0048395964454446046 0 0.0048395964454446046 -0.00023665937884333882 0 0 0 -0.015001757900232974 -0.089026620771146953 -0.0090378259890349817 0 -0.0090378259890349817 -0.00077150009778353956 0 0 0 -0.022449530217232637 0.028302648284317354 0.0031622972464800947 0 0.0031622972464800947 -0.054330574380561873 0 0 0 -0.0065069815240610751 0.04927721384369517 -0.030228637997442818 0 -0.030228637997442818 0.062738180750233297 0 0 0 0.028003848648482099 0.045773638576200384 0.0085187186775626152 0 0.0085187186775626152 0.0021356375486869875 0 0 0 0.011977319031221848 -0.021490448103845802 -0.020584331845958481 0 -0.020584331845958481 -0.0043685189700763127 0 0 0 -0.0064647417684805322 -0.021010668139083147 0.012738505185554664 0 0.012738505185554664 -0.00052260972108567061 0 0 0 -0.0053833194650422037 0.019012401619359201 0.0078491718875760355 0 0.0078491718875760355 0.0023321022544085593 0 0 0 0.0053361259684419349 0.014785572537358906 -0.0026907045571626705 0 -0.0026907045571626705 0.048911170880555799 0 0 0 0.015924185854478676 0.072402579068523681 0.0056195486083153168 0 0.0056195486083153168 0.04660624370726596 0 0 0 0.029752205693947459 0.016249573699048253 0.010236264078474 0 0.010236264078474 0.0030377370356638525 0 0 0 0.0048218276836780229 -0.039223959544145703 0.010065931085164515 0 0.010065931085164515 0.0041453629915166879 0 0 0 -0.0087696491381572539 0.053455117345502012 -0.014978281995863152 0 -0.014978281995863152 0.048804809956301876 0 0 0 0.025564981825451083 0.053264470823509658 -0.012855516253735488 0 -0.012855516253735488 0.0403778239507121 0 0 0 0.023410573693555425 0.032597097894608934 -0.017713965841858206 0 -0.017713965841858206 0.035174216517902396 0 0 0 0.016942828603127832 0.020921034707480884 -0.012579147960147002 0 -0.012579147960147002 0.031082777944217599 0 0 0 0.013000953162924628 0.023155796030688396 0.0033689217070243839 0 0.0033689217070243839 0.021463761054788547 0 0 0 0.011154889271369236 0.018079385941613291 -0.0028960824434428444 0 -0.0028960824434428444 0.046454800286564235 0 0 0 0.016133546557044381 0.17743736715634717 0.015974269044054967 0 0.015974269044054967 0.15763256775122425 0 0 0 0.083767483726892689 0.0023401792408485056 -0.0027745767170781477 0 -0.0027745767170781477 0.0036104379813908238 0 0 0 0.0014876543055600822 0.11060457000149926 -0.014171978748905634 0 -0.014171978748905634 0.088344385418724913 0 0 0 0.04973723885505632 0.0040187221270980289 0.0042952352063965193 0 0.0042952352063965193 0.00570644907558715 0 0 0 0.0024312928006709478 0.026139047136848462 0.0058047586666601491 0 0.0058047586666601491 0.022888212919340248 0 0 0 0.012256815014047176 0.023085203814962173 0.003317021281515644 0 0.003317021281515644 0.016257558158564587 0 0 0 0.0098356904933816977 0.02065299254469256 -0.003989098109104524 0 -0.003989098109104524 0.021275335709230302 0 0 0 0.010482082063480714 -0.074225516843592174 -0.01567811546540095 0 -0.01567811546540095 0.0014784857370452667 0 0 0 -0.018186757776636725 -0.093980981638069366 -0.022499828021403066 0 -0.022499828021403066 0.0021867279899282221 0 0 0 -0.022948563412035293 0.031943412875957276 -0.025604926131186131 0 -0.025604926131186131 -0.0014740362244588471 0 0 0 0.0076173441628746095 0.0054095253400611174 0.0046689678994345975 0 0.0046689678994345975 0.0070675913358188083 0 0 0 0.0031192791689699803 0.037756466948138181 -0.023707181208091788 0 -0.023707181208091788 0.047828829980445603 0 0 0 0.021396324232145953 -0.018321702963059662 0.012928763489161541 0 0.012928763489161541 -0.0006492220489344655 0 0 0 -0.0047427312529985336 -0.0091337870927835456 0.011930472926308257 0 0.011930472926308257 -0.0013549730989406289 0 0 0 -0.0026221900479310445 0.0002868462657491036 -0.018505150109094599 0 -0.018505150109094599 -0.0062254768350278183 0 0 0 -0.0014846576423196839 -0.015668765097373884 -0.021200336942516919 0 -0.021200336942516919 -0.0075757370307799887 0 0 0 -0.0058111255320384657 -0.034639326164996764 -0.013220245841175066 0 -0.013220245841175066 0.0013601067262407618 0 0 0 -0.0083198048596889729 -0.01661813606863094 -0.014592971996868098 0 -0.014592971996868098 0.0029910261820418338 0 0 0 -0.0034067774716474153 0.026375755497708771 -0.0087146957915235045 0 -0.0087146957915235045 -0.0012204475183545255 0 0 0 0.0062888269948385622 0.025778178560628202 -0.0088736365816412307 0 -0.0088736365816412307 -0.0054375213615808788 0 0 0 0.0050851642997618305 0.012677984033934771 0.011949466962527744 0 0.011949466962527744 0.00063402448327679745 0 0 0 0.0033280021293028914 0.010386319825097612 0.010103959093622189 0 0.010103959093622189 0.00077451906421639044 0 0 0 0.0027902097223285027 0.054435952079099348 0.019938007365241317 0 0.019938007365241317 0.021463574087359216 0 0 0 0.018974881541614863 0.0004470224180388449 -0.016714626429468749 0 -0.016714626429468749 0.0053472120393482925 0 0 0 0.0014485586143466733 -0.0017286587512586778 0.0097023210240755036 0 0.0097023210240755036 0.00019020931246799266 0 0 0 -0.00038461235969766694 0.019045993437137705 -0.014930669116095703 0 -0.014930669116095703 -0.0072945561814374144 0 0 0 0.002937859313925071 0.017050191045098341 0.00070079728518337731 0 0.00070079728518337731 0.010514265700286803 0 0 0 0.0068911141863462876 -0.012338341188195788 0.010574378652688784 0 0.010574378652688784 0.00063370271314414084 0 0 0 -0.0029261596187629135 -0.002200667841857221 -0.01905758523627165 0 -0.01905758523627165 -0.0038644407517340468 0 0 0 -0.0015162771483978165 -0.010105164629031591 -0.0066105378141496363 0 -0.0066105378141496363 0.085437400127282043 0 0 0 0.018833058874562617 0.020172212024677959 0.0022314861165207149 0 0.0022314861165207149 0.012726803928598047 0 0 0 0.0082247539883189991 -0.0088754972998085456 -0.015591261270766989 0 -0.015591261270766989 -0.0029664077614323979 0 0 0 -0.0029604762653102361 -0.01281042250533891 0.011403302102461202 0 0.011403302102461202 -0.0042745514528091944 0 0 0 -0.0042712434895370265 0.081565252030088867 0.0060375697054012214 0 0.0060375697054012214 0.027404359711646231 0 0 0 0.027242402935433771 0.024091005609507277 0.00035715788271986626 0 0.00035715788271986626 -0.028955205728059319 0 0 0 -0.0012160500296379828 -0.005836464589473192 0.0076834392279139727 0 0.0076834392279139727 0.0084248164266680567 0 0 0 0.00064708795929871617 0.058556892415037587 -0.019627796375116358 0 -0.019627796375116358 0.017979995772462898 0 0 0 0.019134222046875093 0.026154725160057034 0.0061416880717565427 0 0.0061416880717565427 0.023616411354474908 0 0 0 0.012442784128632981 0.01757111742876941 -0.00327766625907088 0 -0.00327766625907088 0.02528679848016626 0 0 0 0.010714478977233918 -0.051078665949453421 -0.01438438616772952 0 -0.01438438616772952 -0.0014416210783129834 0 0 0 -0.0131300717569416 -0.03814615005996673 0.0082089053694403089 0 0.0082089053694403089 -0.00056890339302742218 0 0 0 -0.0096787633632485354 0.039636355825490681 -0.0092569378598140115 0 -0.0092569378598140115 0.029928515658871169 0 0 0 0.017391217871090457 0.031621617548191414 0.0094399743102887481 0 0.0094399743102887481 0.016339976142625133 0 0 0 0.011990398422704149 0.014966802204871369 0.0021286387648419731 0 0.0021286387648419731 0.0084939091450316508 0 0 0 0.0058651778374757572 -0.038788180408616008 0.0040766722394657076 0 0.0040766722394657076 0.0039959989985456773 0 0 0 -0.0086980453525175964 -0.057718449304384745 0.010995152946814635 0 0.010995152946814635 0.0040744589898440431 0 0 0 -0.013410997578634953 0.0049483349699142518 0.0037071244448745461 0 0.0037071244448745461 0.021656241297590334 0 0 0 0.0066511440668761482 0.025762495709222205 -0.010843828178741299 0 -0.010843828178741299 0.015236796822531762 0 0 0 0.010249823132938513 0.0065478496429354424 0.0051337485585296189 0 0.0051337485585296189 0.0080725523845127517 0 0 0 0.0036551005068620468 0.032035188966707151 0.0099177380797222832 0 0.0099177380797222832 0.019362894794610508 0 0 0 0.012849520940329416 0.016297118503045396 -0.015840173860700829 0 -0.015840173860700829 0.015450365868377641 0 0 0 0.0079368710928557629 0.10761583288869557 0.0095626031724449778 0 0.0095626031724449778 0.073849453097912687 0 0 0 0.045366321496652068 0.0023487265234710588 0.0099353615500862198 0 0.0099353615500862198 0.0035069594425848512 0 0 0 0.0014639214915139753 -0.054255897518149521 0.0094453131018549154 0 0.0094453131018549154 0.0019980816811573376 0 0 0 -0.013064453959248157 0.069721534092712756 -0.01210063907365011 0 -0.01210063907365011 0.054403870388556319 0 0 0 0.031031351120317185 0.066462473640981568 -0.0095716629968847222 0 -0.0095716629968847222 0.036637172929100403 0 0 0 0.025774911642520437 -0.042501982737605137 -0.027022600037066934 0 -0.027022600037066934 0.025134252687364186 0 0 0 -0.0043419325125602249 0.085317944585398167 -0.012966905941694709 0 -0.012966905941694709 0.0050786256376371131 0 0 0 0.022599142555758858 -0.063506226449142944 0.0078630912379128795 0 0.0078630912379128795 0.0020708481035032755 0 0 0 -0.015358844586409924 -0.1082329796033385 -0.0210146176252968 0 -0.0210146176252968 0.0050336229490216388 0 0 0 -0.025799839163579225 -0.062374151622557043 0.0018517517602393424 0 0.0018517517602393424 -0.00036951937190294465 0 0 0 -0.015685917748615018 -0.10893184882049126 -0.0066334386839836876 0 -0.0066334386839836876 0.0011864818716455228 0 0 0 -0.026936341737211447 -0.031377615330023742 0.0082096806213173088 0 0.0082096806213173088 -0.0022137800547803836 0 0 0 -0.0083978488462010323 -0.038524267617158527 -0.013513885324193503 0 -0.013513885324193503 -0.0024284012246671219 0 0 0 -0.01023816721045641 0.016563305030369305 -0.0055417488618187717 0 -0.0055417488618187717 0.032903025815341824 0 0 0 0.012366582711427793 0.018671852574448079 -0.012903423438348008 0 -0.012903423438348008 0.042123586293991849 0 0 0 0.015198859717109985 0.056139637120375729 -0.0070312022519376793 0 -0.0070312022519376793 0.060204221015274006 0 0 0 0.029085964533912434 0.1072740500889737 0.0039564818856063777 0 0.0039564818856063777 0.11732004501806004 0 0 0 0.056148523776758358 0.071202343104906973 0.0040838645449439714 0 0.0040838645449439714 0.042954790676637267 0 0 0 0.02853928344538606 0.09033546676567325 0.0042477510331672685 0 0.0042477510331672685 0.10029265367563794 0 0 0 0.047657030110327819 0.039213668771570398 -0.0094547816784123218 0 -0.0094547816784123218 0.051151982852918221 0 0 0 0.02259141290612221 0.0098676130876498257 0.0067855525394054546 0 0.0067855525394054546 0.0092923953563214031 0 0 0 0.0047900021109928094 0.027132532538309585 -0.011328592850754129 0 -0.011328592850754129 0.035227352154016039 0 0 0 0.015589971173081398 0.016098395537835361 -0.013129287151105841 0 -0.013129287151105841 0.031457939974705418 0 0 0 0.011889083878135198 0.023692517719848837 0.0036110586252232346 0 0.0036110586252232346 0.040852949272067493 0 0 0 0.016136366747979081 -0.10072503506501107 0.010007976310559301 0 0.010007976310559301 0.0009767227575672166 0 0 0 -0.024937078076860963 0.016309333216847622 -0.0019302348574778277 0 -0.0019302348574778277 0.044275911558767381 0 0 0 0.015146311193903732 0.069270441642098113 -0.017806030848685886 0 -0.017806030848685886 0.11969306939511737 0 0 0 0.047240877759303856 0.11242770512987546 -0.020816152597993538 0 -0.020816152597993538 0.062399063292092216 0 0 0 0.04370669210549194 0.071404167730973245 -0.010095734495672248 0 -0.010095734495672248 0.029887882640703411 0 0 0 0.025323012592919136 -0.12613874255691193 -0.015941722820886225 0 -0.015941722820886225 0.0051003964297242632 0 0 0 -0.030259586531796875 -0.071436076440120497 0.0066025439767652336 0 0.0066025439767652336 0.0019567602785433812 0 0 0 -0.017369829040394288 0.013384689447344451 -0.0019348329696748936 0 -0.0019348329696748936 0.047272372504592985 0 0 0 0.015164265487984357 -0.033337345883172276 0.022967301109596105 0 0.022967301109596105 -0.0006377990677233214 0 0 0 -0.0084937862377238993 -0.020858209864782928 0.026704820949738362 0 0.026704820949738362 0.0035219129384058689 0 0 0 -0.0043340742315942649 0.035149180852290129 -0.021534017731043298 0 -0.021534017731043298 0.020868525330500542 0 0 0 0.014004426545697668 0.037623682567852944 -0.01673212135891422 0 -0.01673212135891422 0.021693359235690379 0 0 0 0.014829260450885914 0.075024333353197081 -0.013216247296195749 0 -0.013216247296195749 0.063994998020264982 0 0 0 0.034754832843365613 -0.034490170832499611 0.0087242300921719883 0 0.0087242300921719883 0.004040827175042061 0 0 0 -0.0076123359143647207 -0.00081003693789507766 0.011358619406577472 0 0.011358619406577472 0.0010190733323343359 0 0 0 5.2259098609810234e-05 0.01398585662430455 -0.013081653401266394 0 -0.013081653401266394 -0.0050452453728657837 0 0 0 0.0022351528128596934 0.020672551193271525 -0.02333468443923703 0 -0.02333468443923703 0.010424597289624957 0 0 0 0.0077742871207240639 0.019524240194139231 -0.018946601712646144 0 -0.018946601712646144 0.01047333230117653 0 0 0 0.0074993931238287459 0.0087638780710301428 -0.017827641125686688 0 -0.017827641125686688 0.0082342199605156541 0 0 0 0.0042495245078864735 0.0073621956517468945 -0.024724094810592123 0 -0.024724094810592123 0.006051483335866692 0 0 0 0.0033534197469033966 -0.0017435640256749374 0.035266564444605297 0 0.035266564444605297 -0.0018212663751946412 0 0 0 -0.00089120760021749179 0.026851478234810617 0.023753348014750042 0 0.023753348014750042 0.0098284647438003341 0 0 0 0.0091699857446525708 -0.0090090629738463247 0.014318115827428937 0 0.014318115827428937 -0.0016306684375734654 0 0 0 -0.0026599328528549484 -0.0046711023755449405 -0.019457238323791839 0 -0.019457238323791839 -0.0041288462423743691 0 0 0 -0.0021999871544798287 -0.060276746040750562 -0.0075972225793062009 0 -0.0075972225793062009 0.0062921200862487425 0 0 0 -0.01349615648862551 -0.10415752881983534 0.017991471698491607 0 0.017991471698491607 0.009548333573086043 0 0 0 -0.023652298811687289 -0.032047413709159894 0.011631454501904368 0 0.011631454501904368 0.0021412811229862758 0 0 0 -0.0074765331465433977 0.031459523924918131 0.0097584208776075876 0 0.0097584208776075876 0.010038663386291266 0 0 0 0.010374546827802355 0.041249046261320976 0.0031092600505561729 0 0.0031092600505561729 0.0087518885741435515 0 0 0 0.012500233708866215 -0.051726948477380304 -0.021882725441179009 0 -0.021882725441179009 0.0019518370140882979 0 0 0 -0.012443777865822988 -0.08835380276724103 -0.018505346757949941 0 -0.018505346757949941 -0.0030001887681268477 0 0 0 -0.022838497883841985 0.040084619530301478 -0.0019004342604317789 0 -0.0019004342604317789 -0.0048377285558175651 0 0 0 0.0088117227436209748 0.064886480635726398 0.0087161126402630906 0 0.0087161126402630906 0.072014601234381637 0 0 0 0.034225270467527061 -0.074199557520786316 -0.00071160901711477681 0 -0.00071160901711477681 -0.00035126932896659135 0 0 0 -0.01863770671243823 -0.13535629898652546 0.00029715237793087601 0 0.00029715237793087601 -0.00069632836611981802 0 0 0 -0.034013156838161314 0.0051762136248342736 -0.0017687577505920843 0 -0.0017687577505920843 0.013108667280260236 0 0 0 0.0045712202262736465 -0.023912056050127885 -0.024072103045432544 0 -0.024072103045432544 -0.0063567723432961243 0 0 0 -0.0075672070983560068 -0.0030855155752354084 -0.022168448629430813 0 -0.022168448629430813 -0.0046647660274449707 0 0 0 -0.0019375704006700939 0.066253147823806646 0.064610640956109161 0 0.064610640956109161 0.14203084376621833 0 0 0 0.052070997897506299 -0.076702730329214305 -0.0079085867017529773 0 -0.0079085867017529773 0.00014636580926046146 0 0 0 -0.019139091129988465 -0.050434830271708954 0.0040476306891039215 0 0.0040476306891039215 0.00056177559661400867 0 0 0 -0.012468263668773735 0.036985165073330717 -0.0075235288382260526 0 -0.0075235288382260526 0.0044219302575105868 0 0 0 0.010351773832710298 0.029829775182762697 -0.010178487703022807 0 -0.010178487703022807 0.0023710520338552366 0 0 0 0.0080502068041545249 0.030069168069304111 0.0092102099627875585 0 0.0092102099627875585 0.032235452200948055 0 0 0 0.015576155067563035 0.033507775318849131 -0.015182624146710037 0 -0.015182624146710037 0.0026389928614536824 0 0 0 0.0090366920450757095 0.046583989375566556 0.011852196915988888 0 0.011852196915988888 0.0068656005329910848 0 0 0 0.013362397477139413 0.058694346760259641 0.012237721490409526 0 0.012237721490409526 0.13093785623210907 0 0 0 0.047408050748092179 -0.032265880791799061 0.010912395862249173 0 0.010912395862249173 0.0028764484810398002 0 0 0 -0.0073473580776898311 0.016103703905250486 0.0043965456648465649 0 0.0043965456648465649 0.0082307612512415168 0 0 0 0.0060836162891230033 0.1478832174325706 0.010815045988049565 0 0.010815045988049565 0.063253167207769412 0 0 0 0.052784096160084948 -0.04940936816393432 -0.0049389579489267366 0 -0.0049389579489267366 -0.00028711794713475597 0 0 0 -0.012424121527767172 -0.17052339706858766 -0.0020459693347114616 0 -0.0020459693347114616 -0.00050141568582923179 0 0 0 -0.042756203188604194 -0.092773207346451031 -5.3393803807933708e-05 0 -5.3393803807933708e-05 -0.00065811745577451508 0 0 0 -0.023357831200556359 0.020705892046893815 0.00080385779375669042 0 0.00080385779375669042 0.05274148594651297 0 0 0 0.018361844498351685 -0.025638537594606284 -0.019612688359325385 0 -0.019612688359325385 -0.0024654564574915494 0 0 0 -0.0070259985130244479 -0.041105525007171524 -0.02476658629316671 0 -0.02476658629316671 -0.00095006825941987283 0 0 0 -0.010513898316647841 0.085835740371909164 0.018099765543105214 0 0.018099765543105214 0.028084223986035134 0 0 0 0.028479991089486064 -0.02937381572795017 -0.0075187570424961603 0 -0.0075187570424961603 -0.0011155995044744849 0 0 0 -0.0076223538081061637 0.025823995066470665 -0.01359014562649552 0 -0.01359014562649552 0.017353800365262212 0 0 0 0.01079444885793325 0.14478765451482101 0.0096115888435309126 0 0.0096115888435309126 0.12322107498224799 0 0 0 0.06700218237426725 -0.024166001826946726 -0.0051044049904474679 0 -0.0051044049904474679 0.0034227278233540659 0 0 0 -0.0051858185008979429 0.012737158323537293 -0.030906476221418296 0 -0.030906476221418296 0.028053105668168238 0 0 0 0.010197565997926386 0.020260138477842457 -0.0022527759217599239 0 -0.0022527759217599239 0.037722399579528637 0 0 0 0.01449563451434277 0.002210467048214055 0.0024642236618834801 0 0.0024642236618834801 0.012941617892660892 0 0 0 0.0037880212352187255 -0.030221908694554322 0.0068746140761559715 0 0.0068746140761559715 0.0027013467837999627 0 0 0 -0.0068801404776883679 0.060602122189561847 -0.013925353959298281 0 -0.013925353959298281 0.060592531958995721 0 0 0 0.030298663537139392 0.0048545057780134057 0.0092983181897014384 0 0.0092983181897014384 0.00099397149894021875 0 0 0 0.0014621193192384078 0.066952728226270908 -0.0074257053339122983 0 -0.0074257053339122983 0.040747205140358747 0 0 0 0.026924983341657417 -0.047964316131022519 0.0072962769515033318 0 0.0072962769515033318 2.6537646503399515e-05 0 0 0 -0.011984444621129773 -0.0063793018865261064 -0.014630739003818245 0 -0.014630739003818245 0.027844978334959469 0 0 0 0.0053664191121083615 -0.025427936007581038 0.012993901001661616 0 0.012993901001661616 -6.0419672919181239e-05 0 0 0 -0.006372088920125054 -0.063126390525623632 -0.0078674859361289595 0 -0.0078674859361289595 0.0016937646405001949 0 0 0 -0.015358156471280804 -0.05473463173045276 0.0065596491443364324 0 0.0065596491443364324 -0.00040632752264936622 0 0 0 -0.013785239813275525 -0.03946427032810141 0.0084026425367602492 0 0.0084026425367602492 0.0010072487362807851 0 0 0 -0.009614255397955164 -0.037506470810834303 0.034666810700803685 0 0.034666810700803685 0.0019166021891061646 0 0 0 -0.0088974671554319928 0.011920441610189318 -0.01232411085544209 0 -0.01232411085544209 -0.0014217908990418679 0 0 0 0.0026246626777868647 0.004783053684167593 -0.018542455477192746 0 -0.018542455477192746 -0.0062989619971236185 0 0 0 -0.00037897707823900811 -0.0042092130340275567 0.013853350809525822 0 0.013853350809525822 -0.0012631139012174546 0 0 0 -0.0013680817338112528 -0.00054662428051524417 0.010505485947185238 0 0.010505485947185238 0.00017006727072864207 0 0 0 -9.4139252446650851e-05 0.016372714732559704 -0.00092887741241289012 0 -0.00092887741241289012 0.017429233142863036 0 0 0 0.0084504869688556868 0.044250502566371426 -0.025254580041151609 0 -0.025254580041151609 0.047271580109812347 0 0 0 0.022880520669045949 0.028826329864513604 -0.015485814876013367 0 -0.015485814876013367 0.02011509605010205 0 0 0 0.01223535647865393 0.0135718278509393 -0.012164508463218815 0 -0.012164508463218815 0.03882187194518516 0 0 0 0.013098424949031129 0.027329329196922325 -0.011772874871264855 0 -0.011772874871264855 0.019460843853024601 0 0 0 0.011697543262486731 0.077103358131916211 0.0067610513045837511 0 0.0067610513045837511 0.058040614442452232 0 0 0 0.033785993143592097 0.035193215590877708 -0.012102399945734504 0 -0.012102399945734504 0.031062263009096314 0 0 0 0.016563869649993512 -0.097115284299766708 0.0029736722132677387 0 0.0029736722132677387 0.00061734538967811448 0 0 0 -0.024124484727522155 -0.18363110741825381 -0.0066709606918091543 0 -0.0066709606918091543 0.0038822290121411918 0 0 0 -0.044937219601528161 0.069307778885826024 -0.007499568409063101 0 -0.007499568409063101 0.032008769668413817 0 0 0 0.025329137138559984 0.090871211629984433 0.010292424885704921 0 0.010292424885704921 0.070259480328661694 0 0 0 0.040282672989661511 -0.025669146019346403 0.0096170597118941867 0 0.0096170597118941867 0.0084438108610360996 0 0 0 -0.0043063337895775863 0.028229844698253126 0.0066715704044109413 0 0.0066715704044109413 0.0047934869477537466 0 0 0 0.0082558329115017173 0.021939312024950565 -0.016763316574351088 0 -0.016763316574351088 -0.0059369745645558858 0 0 0 0.0040005843650986733 0.034049880669888351 -0.0090014149222385487 0 -0.0090014149222385487 -0.010148289073525335 0 0 0 0.0059753978990907527 0.056349136843860302 -0.039524314295985852 0 -0.039524314295985852 0.087235024605934547 0 0 0 0.035896040362448714 -0.042968871855292717 0.0080084296092621365 0 0.0080084296092621365 -0.00053247885759313135 0 0 0 -0.010875337678221471 -0.033532697563859175 0.0085073330777964435 0 0.0085073330777964435 0.00053696820129410863 0 0 0 -0.0082489323406412657 -0.041897071020069968 -0.01485879480026648 0 -0.01485879480026648 0.00061466436506063538 0 0 0 -0.010320601663752337 -0.060480371599057295 -0.01496346354462099 0 -0.01496346354462099 -0.0025896434585268163 0 0 0 -0.015767503764396021 -0.089400309977799908 -0.00509986721417496 0 -0.00509986721417496 0.0017701558027012343 0 0 0 -0.021907538543774641 0.04899361340453362 0.059733786524072519 0 0.059733786524072519 0.086823562322150494 0 0 0 0.033954293931670987 0.057440417727746107 -0.011346918771325487 0 -0.011346918771325487 0.03452690518757251 0 0 0 0.022991830728829599 0.035464816674606513 0.0031963074585747986 0 0.0031963074585747986 0.0075159670642683963 0 0 0 0.010745195934718756 -0.0023497172610263198 0.011694465407693521 0 0.011694465407693521 0.0012228717598219696 0 0 0 -0.00028171137530108581 0.014430189707799546 -0.00026361744734125416 0 -0.00026361744734125416 0.038652729331208252 0 0 0 0.013270729759751946 -0.032211646547013417 0.0088225846448932461 0 0.0088225846448932461 -0.00014702351515529649 0 0 0 -0.0080896675155421923 0.09659071669488517 0.02488986352853706 0 0.02488986352853706 0.034137940232241926 0 0 0 0.032682164231781829 0.021284388407242442 0.010464748175974804 0 0.010464748175974804 0.0040711675100685331 0 0 0 0.0063388889793277456 0.037123025314853675 -0.010541290202623455 0 -0.010541290202623455 0.0048308896539196594 0 0 0 0.010488478742193334 0.1065646387955449 -0.054121013404236334 0 -0.054121013404236334 0.074957022817206814 0 0 0 0.045380415403187963 -0.15816133257420084 0.012666511886023135 0 0.012666511886023135 0.0031947116919379681 0 0 0 -0.038741655220565496 0.035497192493672926 0.0028887374294532622 0 0.0028887374294532622 0.0020803875541323923 0 0 0 0.0093943950119513304 -0.010561096074575256 0.010988339409447071 0 0.010988339409447071 -0.00095942428894664478 0 0 0 -0.0028801300908804757 -0.0039726483483629067 -0.014876668706914453 0 -0.014876668706914453 -0.0023040684553095533 0 0 0 -0.0015691792009181159 0.037589323996458868 0.011516071962404294 0 0.011516071962404294 0.013922869137342989 0 0 0 0.012878048283450474 -0.062042516620420568 0.0068000560163492541 0 0.0068000560163492541 0.0022027747008418475 0 0 0 -0.014959935479894715 -0.10588779227178685 -0.016292177137556957 0 -0.016292177137556957 0.0071852513588729211 0 0 0 -0.02467563522822849 0.099870364456847494 0.012917774153559214 0 0.012917774153559214 0.069365745243690213 0 0 0 0.042309027425134982 -0.026738625255958715 -0.0082074810729137471 0 -0.0082074810729137471 -0.00062433697195940496 0 0 0 -0.0068407405569794744 0.069687463186670962 0.0040143215272142874 0 0.0040143215272142874 0.062532135492097463 0 0 0 0.033054899669692134 0.045157008585691771 -0.02550216332550816 0 -0.02550216332550816 0.011423859207995823 0 0 0 0.014145216948421906 0.0602895146383228 0.0040706443430443273 0 0.0040706443430443273 0.031917358864672285 0 0 0 0.023051718375748792 0.028784072572502595 0.0087767900410098843 0 0.0087767900410098843 0.0083685181836066214 0 0 0 0.009288147689027311 0.034559205736632272 -0.00077325449283745815 0 -0.00077325449283745815 0.00055160199923471047 0 0 0 0.0087777019339667448 0.0060915496799691833 0.0095443821254521562 0 0.0095443821254521562 0.0048055094772539407 0 0 0 0.002724264789305781 0.038543474577557468 -0.016273660423093642 0 -0.016273660423093642 0.10552527904416971 0 0 0 0.036017188405431791 0.037807003368417268 -0.016233488167199779 0 -0.016233488167199779 0.099830635311687135 0 0 0 0.034409409670026113 -0.01112574213070916 -0.015416615736856154 0 -0.015416615736856154 0.00223265600590139 0 0 0 -0.0022232715312019424 -0.016269818270063463 -0.016284501878156221 0 -0.016284501878156221 0.0020240542476748224 0 0 0 -0.0035614410055971879 0.06829524668651521 0.023291941817716655 0 0.023291941817716655 0.037488670035711547 0 0 0 0.026445979180556911 0.081226385816065116 0.02409157159691433 0 0.02409157159691433 0.040106521514043258 0 0 0 0.030333226832527149 0.066565211529368895 0.030676417735449824 0 0.030676417735449824 0.021329035634033211 0 0 0 0.021973561790850749 0.098110081412519756 0.026899274742247292 0 0.026899274742247292 0.027365247843772256 0 0 0 0.031368832314072836 0.028904793694184451 0.0063851954673942984 0 0.0063851954673942984 0.0096337822814026672 0 0 0 0.0096346439938967791 0.077423644164619082 0.0036832835730878088 0 0.0036832835730878088 0.080820572780035294 0 0 0 0.039561054236163601 0.066885415587023739 0.0062494553167882216 0 0.0062494553167882216 0.049948847533550444 0 0 0 0.029208565780143601 -0.053109173410150645 -0.0086852657278340128 0 -0.0086852657278340128 0.0015846346358061592 0 0 0 -0.012881134693586205 -0.061190278929431352 -0.0031486454848798084 0 -0.0031486454848798084 0.00070131015628532856 0 0 0 -0.015122242193286506 -0.10138852534050868 0.0085471629523752313 0 0.0085471629523752313 0.0012284442374055349 0 0 0 -0.025040020275775787 0.056140869645914249 0.020174257937164264 0 0.020174257937164264 0.026560230588558192 0 0 0 0.020675275058618121 0.058397740988492354 0.021183815326796085 0 0.021183815326796085 0.032259391685723227 0 0 0 0.022664283168553893 0.035090659124948458 0.0071931209264784069 0 0.0071931209264784069 0.00091885888278514516 0 0 0 0.0090023795019333989 0.027007127308711781 0.0080992985046166154 0 0.0080992985046166154 0.0028474208632524103 0 0 0 0.0074636370429910469 -0.081250739049987086 -0.015504259476477891 0 -0.015504259476477891 -0.0048748701387415008 0 0 0 -0.021531402297182152 -0.052009727335326987 0.006693122966655844 0 0.006693122966655844 -0.00066571751244708013 0 0 0 -0.013168861211943508 -0.040413595004674091 0.011125416303331193 0 0.011125416303331193 -0.00028135379711878572 0 0 0 -0.010173737200448223 0.11509796305626119 0.020424889781822442 0 0.020424889781822442 0.081941567802194193 0 0 0 0.04925988271461379 -0.02778644768858729 -0.0083961036975219727 0 -0.0083961036975219727 0.003881377324004065 0 0 0 -0.0059762675911456675 0.029866933312494785 -0.0033460162479261681 0 -0.0033460162479261681 0.0025746889962476663 0 0 0 0.0081104055771856129 0.049565082058281446 -0.0038942495776029921 0 -0.0038942495776029921 -0.0053021912065885288 0 0 0 0.011065722712923231 -0.021371319321572879 -0.014662190560544963 0 -0.014662190560544963 0.0044582997833682025 0 0 0 -0.0042282548845511414 0.0080415103807448367 -0.021365213309025279 0 -0.021365213309025279 -0.0017989010695527684 0 0 0 0.0015606523277980179 0.016926911473990017 -0.0039951547524517961 0 -0.0039951547524517961 0.023410759533646873 0 0 0 0.010084417751909219 0.060716184898217514 0.013787823168579622 0 0.013787823168579622 0.014127044668642244 0 0 0 0.018710807391714948 -0.025079399129642993 0.035156375701393738 0 0.035156375701393738 0.0047746519880166871 0 0 0 -0.0050761867854066944 -0.050698179164005541 0.0030313978744774261 0 0.0030313978744774261 0.0043689758755144359 0 0 0 -0.011582300822122804 -0.087729786219076511 -0.0047197438797327365 0 -0.0047197438797327365 0.010953617987853326 0 0 0 -0.019194042057805782 0.02639081741296756 -0.00022620614585200371 0 -0.00022620614585200371 -0.0083107152762398329 0 0 0 0.0045200255341818485 0.035000777330224109 0.0078841710719687041 0 0.0078841710719687041 -0.0079636874144102254 0 0 0 0.0067592724789534708 -0.02950358024228723 0.012140161178427332 0 0.012140161178427332 0.0011991821573289069 0 0 0 -0.0070760995212395825 -0.018669542621408457 0.010336599922137745 0 0.010336599922137745 0.00027420502113578542 0 0 0 -0.0045988344000681622 0.017117778941875432 0.0034190736668474951 0 0.0034190736668474951 0.014742642206394837 0 0 0 0.0079651052870675712 -0.054916606077091763 0.010757960969588023 0 0.010757960969588023 0.0026710354193390032 0 0 0 -0.01306139266443818 -0.037974551660272707 -0.022330489429169487 0 -0.022330489429169487 -0.0066920706969080604 0 0 0 -0.0111666555892952 0.023398600696630037 -0.003560474211109721 0 -0.003560474211109721 -0.060018194529330118 0 0 0 -0.0091548984581749492 -0.0064638412296714742 0.045637785278789422 0 0.045637785278789422 0.0074395492744856462 0 0 0 0.00024392701120345972 0.025855363288570972 0.0080903389128314709 0 0.0080903389128314709 0.0086171829335183296 0 0 0 0.0086181365555223263 0.12622318904885879 0.0088713302321909993 0 0.0088713302321909993 0.069462691842098634 0 0 0 0.048921470222739322 0.089114193134947159 0.029013629179598155 0 0.029013629179598155 0.085926406892274709 0 0 0 0.043760150006805477 -0.079861107925623065 0.0074850025077580762 0 0.0074850025077580762 0.020991407685556379 0 0 0 -0.014717425060016658 0.06851321704282555 0.032777520070695447 0 0.032777520070695447 0.091171770023129706 0 0 0 0.039921246766488797 0.080398335625162534 0.026657326366801161 0 0.026657326366801161 0.060191351696629591 0 0 0 0.03514742183044807 -0.0094368630559214066 0.011270860253218433 0 0.011270860253218433 0.0018714866833792355 0 0 0 -0.0018913440931355449 0.012863427433813667 0.0082905644491873855 0 0.0082905644491873855 0.0020136914253583819 0 0 0 0.0037192797147930102 -0.084241061444922161 0.031408222130874963 0 0.031408222130874963 0.011651203832617085 0 0 0 -0.018147464403076352 0.01204350840324293 -0.0086133719768833397 0 -0.0086133719768833397 0.048100847529328063 0 0 0 0.015036088983142761 0.050884735285914424 0.022391199016656246 0 0.022391199016656246 0.099096503004157954 0 0 0 0.0374953095725181 0.027303620843286788 -0.015895346879372663 0 -0.015895346879372663 0.0070060362405959253 0 0 0 0.0085774142709706819 -0.070050351949152059 -0.001645665858052453 0 -0.001645665858052453 0.0022463746083270508 0 0 0 -0.016950994335206235 -0.12377623046909292 0.0046193662007219527 0 0.0046193662007219527 0.009069225075170384 0 0 0 -0.028676751348480634 -0.032466094139832258 0.014921839644156387 0 0.014921839644156387 0.00183394682333482 0 0 0 -0.0076580368291243595 0.052953500868803793 -0.015899579858922763 0 -0.015899579858922763 0.035648848194847149 0 0 0 0.022150587265912902 0.026203286750684451 -0.013307857167564788 0 -0.013307857167564788 0.023289130976446804 0 0 0 0.012373104431782828 0.069461320845782659 0.015002235302502808 0 0.015002235302502808 0.01629909796052964 0 0 0 0.021440104701578058 -0.027010772717215317 -0.023228366294024343 0 -0.023228366294024343 -0.0095077607501893938 0 0 0 -0.0091296333668511778 -0.047262714105881884 0.0081432898065543768 0 0.0081432898065543768 0.0020502963119549619 0 0 0 -0.011303104448481725 -0.062370652420077791 -0.012937504519979631 0 -0.012937504519979631 0.0056915566383266628 0 0 0 -0.014169773945437777 0.028020531730455739 -0.013856009956485227 0 -0.013856009956485227 0.039605235680196915 0 0 0 0.016906441852663157 -0.026700678078121147 0.0066445836199228656 0 0.0066445836199228656 0.0035006910137706862 0 0 0 -0.0057999967660876117 0.032157471769379997 0.006418013489405348 0 0.006418013489405348 0.079892380813814043 0 0 0 0.028012463145798489 0.033015776895291983 -0.0010644916050187123 0 -0.0010644916050187123 0.011007323145875448 0 0 0 0.011005775010291858 0.033226976080635101 -0.013573943396146593 0 -0.013573943396146593 0.023478220804277306 0 0 0 0.014176299221228095 -0.067191727418741812 0.0029789782066776925 0 0.0029789782066776925 0.0026953594569044774 0 0 0 -0.016124091990459347 -0.11662496223470714 -0.0092360182281428088 0 -0.0092360182281428088 0.0053172157655634045 0 0 0 -0.027826936617285969 -0.053342167581690081 -0.013863828716116688 0 -0.013863828716116688 0.0052135736675311128 0 0 0 -0.012032148478539673 0.0071945520487033815 -0.012994474490661448 0 -0.012994474490661448 0.026282613878481631 0 0 0 0.0083692914817962288 0.017910341867178159 -0.0070792501927905704 0 -0.0070792501927905704 0.049567831620649816 0 0 0 0.01686954337195698 -0.0067177088345512113 0.0082373741665797383 0 0.0082373741665797383 0.0039128249510317018 0 0 0 -0.00070122097087987802 0.026043301192496426 -0.014368042910734083 0 -0.014368042910734083 0.0096788023785387978 0 0 0 0.0089305258927588338 -0.0252177125280626 -0.01303667895189764 0 -0.01303667895189764 0.0025024829684112612 0 0 0 -0.0056788073899128912 -0.018012503415874848 0.0089935361353787914 0 0.0089935361353787914 0.0041505826648439766 0 0 0 -0.0034654801877577134 0.03026905185648876 -0.014540073223308192 0 -0.014540073223308192 0.0068494915492470221 0 0 0 0.0092796358514339455 0.035889836253699126 -0.0027783167603467086 0 -0.0027783167603467086 -0.0031228160048003013 0 0 0 0.0081917550622247048 -0.071834458805703855 0.0020791277546776676 0 0.0020791277546776676 0.0021692606064142028 0 0 0 -0.017416299549822434 -0.13049189937795649 -0.0043120411114354606 0 -0.0043120411114354606 0.0032805921121383252 0 0 0 -0.031802826816454494 -0.039809187320929418 -0.0048893541315253586 0 -0.0048893541315253586 -0.00058989786959387502 0 0 0 -0.010099771297630844 0.11611994266780512 0.010490207056775613 0 0.010490207056775613 0.086404125893703276 0 0 0 0.050631017140376877 0.10796445661817855 0.020823365872522981 0 0.020823365872522981 0.068749269251902057 0 0 0 0.044178431467520207 -0.038899119295039197 -0.0045244535132109099 0 -0.0045244535132109099 0.00041261958916649633 0 0 0 -0.0096216249264682308 0.13808048430760644 0.0072192934671096868 0 0.0072192934671096868 0.11292826994923644 0 0 0 0.062752188564210609 0.070199365326611335 -0.011708684036040095 0 -0.011708684036040095 0.018865009500315222 0 0 0 0.022266093706731577 0.016412556838206582 -0.015231781149977752 0 -0.015231781149977752 0.019442632714564922 0 0 0 0.0089637973881928901 0.12556452036300303 -0.011550369378066519 0 -0.011550369378066519 0.092182428559507867 0 0 0 0.054436737230627696 0.20104831733157963 0.011482719850880729 0 0.011482719850880729 0.16727189198011017 0 0 0 0.09208005232792249 -0.058620070607613983 -0.01959092225053588 0 -0.01959092225053588 0.021914521174679291 0 0 0 -0.0091763873582336453 -0.013496470669453883 0.010438972032295126 0 0.010438972032295126 0.0017546983953463519 0 0 0 -0.0029354430685268815 0.037024609663510601 0.0085235484462345655 0 0.0085235484462345655 0.0032013735811627312 0 0 0 0.010056495811168336 -0.032484944083108536 0.02826900667954152 0 0.02826900667954152 -0.00034014531555515148 0 0 0 -0.0082062723496658663 0.05088853033962043 -0.017155938553854722 0 -0.017155938553854722 0.019694853631360032 0 0 0 0.017645845992745046 0.03594472527588851 0.00068189637644710426 0 0.00068189637644710426 0.0036049212630901361 0 0 0 0.0098874116347446583 -0.0090327067265376215 0.0078605196716616359 0 0.0078605196716616359 0.012228938793525573 0 0 0 0.00079905801674697886 0.13440680829520368 0.011664044390517487 0 0.011664044390517487 0.071090447548927571 0 0 0 0.051374313961032758 0.023131169608784242 -0.013384739033630046 0 -0.013384739033630046 -0.0084114171484554606 0 0 0 0.0036799381150821979 0.059235768511426902 -0.0038360875030130914 0 -0.0038360875030130914 0.010085209338491719 0 0 0 0.017330244462479695 0.061838895546013892 -0.0056683301715181045 0 -0.0056683301715181045 0.01220255726059501 0 0 0 0.018510363201652211 0.076211315068829888 -0.015863983384270253 0 -0.015863983384270253 0.047702635351979161 0 0 0 0.030978487605202221 0.092495454641498387 -0.0069346868431049979 0 -0.0069346868431049979 0.086116165425715763 0 0 0 0.044652905016803468 0.15231578206512977 0.0034108920774135743 0 0.0034108920774135743 0.15550110957873453 0 0 0 0.076954222910966069 0.12421572934348248 0.019607886112289197 0 0.019607886112289197 0.093415278658737652 0 0 0 0.054407752000555046 0.047731529788100059 0.017977678234252562 0 0.017977678234252562 0.030109449504226116 0 0 0 0.019460244823081528 0.069862868548628762 -0.019682385779050279 0 -0.019682385779050279 0.0066125689410424238 0 0 0 0.019118859372417765 0.081121749414588745 -0.036537595381178498 0 -0.036537595381178498 0.0397374822755963 0 0 0 0.030214807922546286 -0.034893443826927079 -0.013806324955959015 0 -0.013806324955959015 0.0030053009728569502 0 0 0 -0.0079720357135175945 -0.031616957818400397 0.009551123562788805 0 0.009551123562788805 0.0021565222345396773 0 0 0 -0.0073651088959651749 -0.019082010201657576 0.011488472266569898 0 0.011488472266569898 0.0029430674048430625 0 0 0 -0.0040347356992036267 -0.039272617103363286 0.01029408660668768 0 0.01029408660668768 0.04954930993240414 0 0 0 0.0025691732072602169 0.052123175650448939 -0.01466815013143849 0 -0.01466815013143849 0.033850907557631649 0 0 0 0.021493520802020105 0.0914743450759129 0.016703311104429186 0 0.016703311104429186 0.066593719918583316 0 0 0 0.039517016248624082 0.036081456211509821 0.010258375414041131 0 0.010258375414041131 0.0080367944497444117 0 0 0 0.011029562665313561 0.025591238295991414 -0.0026057958284566585 0 -0.0026057958284566585 -0.029805544691358987 0 0 0 -0.0010535765988418655 0.023625522551107447 0.0083547876399572164 0 0.0083547876399572164 0.0018119741481056745 0 0 0 0.0063593741748032787 0.028378856629158081 -0.015023722441247743 0 -0.015023722441247743 0.016660080778735098 0 0 0 0.011259734351973291 0.037424510781178755 0.00063518994853637518 0 0.00063518994853637518 -0.0042663480398166757 0 0 0 0.0082895406853405185 0.04122428586821747 0.03297335756688391 0 0.03297335756688391 0.0062327044128278608 0 0 0 0.011864247570261277 0.048458005324933454 0.029843137256819752 0 0.029843137256819752 0.01537580187428278 0 0 0 0.015958451799804332 -0.00021466837276452877 -0.020066673135254121 0 -0.020066673135254121 0.0073014910480143358 0 0 0 0.0017717056688124483 0.10725576967026974 -0.075478101981016149 0 -0.075478101981016149 0.14627048688268574 0 0 0 0.063381564138238908 0.034471886847914621 0.0021929772589078574 0 0.0021929772589078574 -0.00077095230168395916 0 0 0 0.0084252336365576667 -0.040937490154696721 -0.0085715103407850712 0 -0.0085715103407850712 0.0027100086671250079 0 0 0 -0.009556870371892956 0.00094447017229648544 -0.0015555000044229494 0 -0.0015555000044229494 0.0012980672255338277 0 0 0 0.00056063434945741175 0.23852942464583338 -0.0013109978609922024 0 -0.0013109978609922024 0.18618357968980348 0 0 0 0.1061782510839091 0.18936301465782154 -0.014993537222895981 0 -0.014993537222895981 0.17048886917204847 0 0 0 0.089962970957466942 0.11951040180663508 0.0069434011015772068 0 0.0069434011015772068 0.098184929010888045 0 0 0 0.05442383270438067 0.001570276097952128 0.0025030941582897342 0 0.0025030941582897342 0.0023477579827311246 0 0 0 0.00097950852017092416 0.0025236273309266958 -0.0011837397088361179 0 -0.0011837397088361179 0.0016003708108963451 0 0 0 0.0010309995354559267 0.1492265406028872 -0.00184421038332038 0 -0.00184421038332038 0.10921436580607224 0 0 0 0.064610226602239917 0.0043739652848904242 0.0019284748227539339 0 0.0019284748227539339 0.0026298977080143615 0 0 0 0.0017509657482257523 0.030309617408272226 0.00085582571384748454 0 0.00085582571384748454 0.0022088327203659557 0 0 0 0.0081296125321595435 0.033944891945864739 -0.013799608257273915 0 -0.013799608257273915 0.0044757829548531733 0 0 0 0.0096051687251794866 -0.01792948107204435 0.01074947198229792 0 0.01074947198229792 0.0069039611651726257 0 0 0 -0.002756379976717932 -0.018519217826084011 -0.018666678192091002 0 -0.018666678192091002 0.0042935785928928105 0 0 0 -0.0035564098082977447 0.032442707397414006 -0.0066184695869215479 0 -0.0066184695869215479 -0.0069381631972089963 0 0 0 0.0063761360500512541 0.0089649881885296434 0.025196969218838516 0 0.025196969218838516 0.0075628927582704897 0 0 0 0.0041319702367001998 0.027576068757796168 -0.019734407640900509 0 -0.019734407640900509 0.012788378480187657 0 0 0 0.010091111809495956 0.069292288674289604 -0.011757822853917577 0 -0.011757822853917577 0.067710213984456313 0 0 0 0.034250625664686507 0.12665942003743064 0.010228839562614667 0 0.010228839562614667 0.12704327372803748 0 0 0 0.06342567344136707 0.04573184091357782 0.0078527894261507802 0 0.0078527894261507802 0.061688124130640232 0 0 0 0.026854991261054534 -0.01378866636684923 0.004982765879138807 0 0.004982765879138807 0.0065322526799810599 0 0 0 -0.0018141034217170407 0.032405021338748119 -0.011616550227045516 0 -0.011616550227045516 0.0473864808850335 0 0 0 0.01994787555594546 0.080644699043432355 0.0083634745173503944 0 0.0083634745173503944 0.092954730208154146 0 0 0 0.043399857312896584 0.015531940354915563 -0.0198027939174375 0 -0.0198027939174375 0.0079965892979597664 0 0 0 0.0058821324132187769 0.037856832322752373 0.008528651875512834 0 0.008528651875512834 0.0034727401162046867 0 0 0 0.010332393109739262 0.024720484451939528 -0.019101956661676911 0 -0.019101956661676911 0.020061408988031326 0 0 0 0.011195473359992825 0.0068808858549858076 0.020120931022415744 0 0.020120931022415744 0.0061420911038738701 0 0 0 0.003255744239714975 0.062782145670948558 0.0027162665858267432 0 0.0027162665858267432 0.029449467904420268 0 0 0 0.023057903393842227 0.068367527977787612 0.0010527548710475843 0 0.0010527548710475843 0.03130751836110901 0 0 0 0.024918761584724197 0.0065723576453344968 0.010180282488478215 0 0.010180282488478215 0.0019843363363333463 0 0 0 0.0021391734954169603 0.0012578348974838886 0.00015162175022952196 0 0.00015162175022952196 0.032570013546242546 0 0 0 0.0084569621109316061 0.05924168685174161 -0.018003438583678283 0 -0.018003438583678283 0.020415236149923355 0 0 0 0.019914230750416234 0.036299648538781405 -0.015147485612773709 0 -0.015147485612773709 0.0050162625056746485 0 0 0 0.010328977761114027 0.090242856807068172 -0.013432367376665089 0 -0.013432367376665089 0.026115697509587199 0 0 0 0.029089638579163801 0.075885915668721216 0.0051656949746285985 0 0.0051656949746285985 0.061449701131140844 0 0 0 0.034333904199965515 0.06632028812335744 0.0069570570010746013 0 0.0069570570010746013 0.033013037001102252 0 0 0 0.024833331281114923 -0.02283002689921336 0.010596930239784074 0 0.010596930239784074 0.001037513332898421 0 0 0 -0.0054481283915787347 0.016826724665266149 -0.0040120006842537066 0 -0.0040120006842537066 0.037299467470457891 0 0 0 0.013531548033931015 0.017980604206875528 -0.0023895253391900875 0 -0.0023895253391900875 0.045303758700179206 0 0 0 0.015821090726763676 0.093665985311437577 0.050105948459244112 0 0.050105948459244112 0.15435126615241843 0 0 0 0.062004312865964008 0.052283298137615473 -0.015797256807767196 0 -0.015797256807767196 0.17740445126565377 0 0 0 0.057421937350817374 0.13209854744157523 0.010837433738449264 0 0.010837433738449264 0.086248902514344472 0 0 0 0.054586862488979815 0.044773844081246343 0.019397927757225222 0 0.019397927757225222 0.040059475668990485 0 0 0 0.021208329937559188 -0.052387942723697956 -0.0058576596150841185 0 -0.0058576596150841185 0.0025200415636725815 0 0 0 -0.012466975290006399 0.0061275193786158554 0.010026650398216784 0 0.010026650398216784 0.00073161548932675763 0 0 0 0.0017147837169856593 -0.02180768158485797 -0.017074211802458175 0 -0.017074211802458175 -0.0040022720916161325 0 0 0 -0.0064524884191185169 -0.022606250239661081 0.010087861451897365 0 0.010087861451897365 -0.00074268105022753939 0 0 0 -0.005837232822472161 0.049053861384633884 0.0011397359950998829 0 0.0011397359950998829 -0.0067505808387853458 0 0 0 0.010575820136462124 -0.034679541552611014 0.0032349471106216535 0 0.0032349471106216535 0.0019861515466228002 0 0 0 -0.0081733475014970532 -0.033234510595892088 0.0039544889607102517 0 0.0039544889607102517 -0.0046419795929199675 0 0 0 -0.0094691225472030138 -0.044410510604580573 -0.0063393122129487382 0 -0.0063393122129487382 0.0034797978958312423 0 0 0 -0.010232678177187336 -0.042902709974556426 -0.0074336931507550628 0 -0.0074336931507550628 -0.0053495671338520123 0 0 0 -0.012063069277102108 -0.0068167233281411638 -0.011766117560361805 0 -0.011766117560361805 0.018760443428891077 0 0 0 0.0029859300251874887 0.039317869290386352 0.0023536471806265388 0 0.0023536471806265388 0.00072781439109318737 0 0 0 0.010011420920369883 0.11622014545498482 0.020717738342688863 0 0.020717738342688863 0.03278539937800562 0 0 0 0.037251386208247417 0.041802938170366344 -0.002817881679945386 0 -0.002817881679945386 0.0616156916816889 0 0 0 0.025854657463013797 0.055192548657058624 0.026364770063770179 0 0.026364770063770179 0.060605578180960254 0 0 0 0.028949531709504712 0.016266298078030955 -0.022479763815350773 0 -0.022479763815350773 0.026361196208689819 0 0 0 0.010656873571680159 0.0091187017886302426 0.0036280598926348162 0 0.0036280598926348162 -0.0038048253097168177 0 0 0 0.0013284691197279121 0.067605747861883905 0.0059599730680020002 0 0.0059599730680020002 0.030725921993050506 0 0 0 0.024582917463733547 0.10661585593375107 -0.011287457357870956 0 -0.011287457357870956 0.058693391318758059 0 0 0 0.041327311813127619 0.0050850880318273756 -0.0025871363629144106 0 -0.0025871363629144106 -0.0028857221815446338 0 0 0 0.00054984146257040789 0.036738862445399582 -0.0081158844401230668 0 -0.0081158844401230668 0.015989622180209551 0 0 0 0.013182121156402264 0.05930962338226764 0.0051505419598792124 0 0.0051505419598792124 0.030014817658892579 0 0 0 0.022331110260289999 -0.032364099097773102 0.0026813433645129399 0 0.0026813433645129399 -0.010768007625178277 0 0 0 -0.010783026680737844 -0.041271479716758042 -0.0058046205553026683 0 -0.0058046205553026683 -0.01373044700230865 0 0 0 -0.013750481679766672 -0.043097883022885572 -0.0044066468911288887 0 -0.0044066468911288887 -0.0053149437240882381 0 0 0 -0.012103206686743452 -0.034075164486544469 0.0017291936025131515 0 0.0017291936025131515 -0.0044676275845930494 0 0 0 -0.0096356980177843814 0.017904715105246993 -0.023486743392826637 0 -0.023486743392826637 0.011603590014747978 0 0 0 0.0073770762799987843 0.0061961697307832591 0.010093357118093629 0 0.010093357118093629 0.0033811229363943218 0 0 0 0.0023943231667943963 0.032126622247757169 -0.015705602667459878 0 -0.015705602667459878 0.010326022950426006 0 0 0 0.010613161299545787 0.036530411323722922 -0.014317283976280751 0 -0.014317283976280751 0.0049652859933698723 0 0 0 0.010373924329273226 0.014271893671983893 0.0088777897414731733 0 0.0088777897414731733 0.0056920930006764126 0 0 0 0.0049909966681650729 0.02949357720883844 0.0076290817724983459 0 0.0076290817724983459 0.0022938553185669723 0 0 0 0.0079468581318513469 0.029344799279892402 0.0090198289516465989 0 0.0090198289516465989 0.0019472570187406626 0 0 0 0.0078230140746582636 0.037012245166457368 -0.034162631428781259 0 -0.034162631428781259 0.1163454607353841 0 0 0 0.038339426475460368 0.092305654168561582 -0.010172186929408033 0 -0.010172186929408033 0.31994483080459307 0 0 0 0.10306262124328867 -0.020847616413823676 -0.0057146401834916594 0 -0.0057146401834916594 0.012550794820000377 0 0 0 -0.0020742053984558126 0.070643291466538194 0.0037970031748596686 0 0.0037970031748596686 0.052880121532705493 0 0 0 0.030880853249810936 0.031155895301139575 -0.012480419956124977 0 -0.012480419956124977 0.031129676592848488 0 0 0 0.01557139297349705 0.032264954993437858 0.0086429773938180611 0 0.0086429773938180611 0.008881735380825484 0 0 0 0.010286672593565829 0.10742817947347627 0.01523059353537537 0 0.01523059353537537 0.068320536612232363 0 0 0 0.043937179021427242 -0.022564387355414883 -0.0099294510997050001 0 -0.0099294510997050001 0.0021243959631818132 0 0 0 -0.005109997848058323 0.063111370594684885 -0.020268296768445604 0 -0.020268296768445604 0.051998181084299822 0 0 0 0.028777387919746183 0.069825192124189583 -0.0034091388253603278 0 -0.0034091388253603278 0.023708319172180359 0 0 0 0.023383377824092465 -0.015548573765409524 0.018624628835627988 0 0.018624628835627988 0.0053115811859156814 0 0 0 -0.0025592481448737381 0.039799152365038837 -0.019138537137882383 0 -0.019138537137882383 0.031971995093658778 0 0 0 0.017942786864674432 0.038449257887841259 -0.017077748054670806 0 -0.017077748054670806 0.023792648597663391 0 0 0 0.015560476621376274 0.0287346609141374 -0.0066891909343796963 0 -0.0066891909343796963 0.0055649856715020984 0 0 0 0.0085749116464098329 0.086011818334029766 0.0076617683342292131 0 0.0076617683342292131 0.076073528160587378 0 0 0 0.040521336623654258 0.035296981292346472 -0.012893941625969357 0 -0.012893941625969357 -0.0080691824672997105 0 0 0 0.0068069497062616833 0.032978093085152163 0.0034911891847452803 0 0.0034911891847452803 -0.0042798702224387253 0 0 0 0.0071745557156782797 -7.7225083402322585e-05 0.012005424525590683 0 0.012005424525590683 0.00028953812426586734 0 0 0 5.3078260215885971e-05 0.0064651869840113944 0.011556984619679602 0 0.011556984619679602 0.00028753251772151156 0 0 0 0.0016881798754332239 0.018003753300981435 0.00058748272864199078 0 0.00058748272864199078 0.027394870228072563 0 0 0 0.011349655882263504 -0.00074089972161339723 -0.008411527400026389 0 -0.008411527400026389 0.031260225743689252 0 0 0 0.0076298315055189359 0.017390429027563679 0.0077230002747801542 0 0.0077230002747801542 0.0010028416274120294 0 0 0 0.0045983176637439324 0.020438417621008873 0.0094870546034931703 0 0.0094870546034931703 0.0067004268260928979 0 0 0 0.0067847111117754454 0.017958395008727732 0.0082087909779783343 0 0.0082087909779783343 0.0048301262456867215 0 0 0 0.0056971303136036204 0.038119513810511096 -0.0066959319411658003 0 -0.0066959319411658003 -0.011486131869446026 0 0 0 0.0066583454852662816 0.04643395452832022 -0.0064521905173435812 0 -0.0064521905173435812 0.018796734723163233 0 0 0 0.016307672312870891 0.074331152871056655 0.0044390365526029152 0 0.0044390365526029152 0.043924399477853038 0 0 0 0.029563888087227402 0.062495384567286844 0.0066343079472273025 0 0.0066343079472273025 0.0053809348157803916 0 0 0 0.01696907984576676 0.067460869601032397 -0.034239353973597848 0 -0.034239353973597848 0.11733843574961296 0 0 0 0.046199826337661343 0.10146250086378128 0.0068473855307960019 0 0.0068473855307960019 0.064414756278131868 0 0 0 0.041469314285478287 0.0044731385601788354 -0.0058499781356006197 0 -0.0058499781356006197 -0.000253544190208288 0 0 0 0.0010548985924923038 0.064173222396637364 -0.0070648532442549872 0 -0.0070648532442549872 0.03423589435402552 0 0 0 0.024602279187665665 0.0078526611908408261 0.0082275655720494001 0 0.0082275655720494001 0.0018425534193236004 0 0 0 0.0024238036525413564 -0.018083022960275086 0.024693111026730691 0 0.024693111026730691 0.0013781022618255534 0 0 0 -0.0041762301746122166 0.035724274871161366 -0.020455805809761279 0 -0.020455805809761279 0.01908693707357223 0 0 0 0.013702802986183427 0.035139329806059827 -0.019326084766923324 0 -0.019326084766923324 0.014762409011738642 0 0 0 0.012475434704449673 0.020910208800820045 -0.00090742578809103157 0 -0.00090742578809103157 0.037174647899451956 0 0 0 0.014521214175068005 0.071313695207243732 -0.00071668822513737407 0 -0.00071668822513737407 0.053244008276013943 0 0 0 0.031139425870814641 0.010770557172307349 -0.0049158514231202322 0 -0.0049158514231202322 0.00063035543983147591 0 0 0 0.0028502281530347062 0.017390698080999023 0.0072389657371694227 0 0.0072389657371694227 0.0022493692339997651 0 0 0 0.004910016828749697 0.04376623477971231 -0.0015058862724919297 0 -0.0015058862724919297 0.025666526157050118 0 0 0 0.017358190234190829 0.031503539313277207 -0.0050392883916188236 0 -0.0050392883916188236 0.0038698847816329707 0 0 0 0.0088433560237275444 0.066283661491984586 -0.022988065995586171 0 -0.022988065995586171 0.012337650823705693 0 0 0 0.019655328078922618 0.10810580055290701 -0.015091584088379406 0 -0.015091584088379406 0.093793929388788388 0 0 0 0.050474932485423826 0.17080201997364058 0.017276243964000626 0 0.017276243964000626 0.16858586350500548 0 0 0 0.084846970869661587 0.033608288319236547 0.0082791172697621856 0 0.0082791172697621856 0.0011662196146653703 0 0 0 0.0086936269834754741 -0.04852353857168934 0.027846006190845873 0 0.027846006190845873 0.0027406951676010038 0 0 0 -0.011445710851022195 -0.038696382874299884 0.022592820325718709 0 0.022592820325718709 0.0017946082228883498 0 0 0 -0.009225443662852717 0.030184503886915653 -0.0063202144941412741 0 -0.0063202144941412741 0.0022538127202738831 0 0 0 0.0081095791517974119 0.020137248553741854 0.0032954802399657659 0 0.0032954802399657659 0.014299603259575452 0 0 0 0.0086092129533293302 0.028052112325510463 -0.014516418604861386 0 -0.014516418604861386 0.0087178490613371087 0 0 0 0.0091924903467118721 0.036186573513639991 -0.019154089685770814 0 -0.019154089685770814 0.020547855906051925 0 0 0 0.014183607354922965 -0.0047157559968917795 0.022265365272519433 0 0.022265365272519433 0.0022717651021633145 0 0 0 -0.00061099772368211624 0.02609055427366147 -0.018001688169312191 0 -0.018001688169312191 0.018183837714716322 0 0 0 0.011068597997094476 0.022843734449815467 -0.02307143127769179 0 -0.02307143127769179 0.013258140495037374 0 0 0 0.009025468736213238 -0.03476197996477115 0.010256884325834225 0 0.010256884325834225 -0.0011136077533524663 0 0 0 -0.0089688969295308972 -0.04473365436240459 -0.018158354227807441 0 -0.018158354227807441 -0.0044202701566562683 0 0 0 -0.012288481129765223 -0.038090632366383465 -0.018155068438924712 0 -0.018155068438924712 0.0013440555420959413 0 0 0 -0.0091866442060718791 -0.031801190925112029 0.0094981887463058447 0 0.0094981887463058447 0.0011332966582607504 0 0 0 -0.0076669735667128248 0.019938310950964704 0.001488957361920739 0 0.001488957361920739 0.018888376903006692 0 0 0 0.0097066719634928359 -0.044561707433141917 0.017726573753032104 0 0.017726573753032104 0.00045022569033204007 0 0 0 -0.011027870435702081 0.04803738328369267 -0.015564569663006123 0 -0.015564569663006123 0.029369123568989242 0 0 0 0.019351626713170256 0.044360507899838586 -0.019220536631475743 0 -0.019220536631475743 0.022204186468635534 0 0 0 0.016641173592118585 -0.016828742618720402 -0.021631675082173452 0 -0.021631675082173452 0.0076676889975300644 0 0 0 -0.002290263405297574 0.032512655616380705 -0.007660784867752235 0 -0.007660784867752235 0.0063615030790850347 0 0 0 0.0097185396738663568 0.042786612195367481 -0.019236391202302448 0 -0.019236391202302448 -0.0038914596098205169 0 0 0 0.0097237881463867384 0.020164130671624148 -0.0014042812346720147 0 -0.0014042812346720147 0.013390425519287003 0 0 0 0.0083886390477277903 -0.022700552759791662 0.012958874032912276 0 0.012958874032912276 -0.00043619097890283676 0 0 0 -0.0057841859346736239 -0.036787256957537429 0.043693837012139358 0 0.043693837012139358 0.015182934455165664 0 0 0 -0.0054010806255930244 -0.025181833957791333 -0.01950761344150187 0 -0.01950761344150187 0.0089674602089189204 0 0 0 -0.004053593437218117 0.069386048452105983 0.018412513929441321 0 0.018412513929441321 0.034819815244467894 0 0 0 0.026051465924143022 -0.010881723951466304 -0.013866190747765073 0 -0.013866190747765073 0.0010154029495009209 0 0 0 -0.0024665802504913459 0.065613312741746976 0.041406118355299726 0 0.041406118355299726 0.012418193304281733 0 0 0 0.019507876511507094 -0.019462038357756568 0.0096929445102210184 0 0.0096929445102210184 0.002150631834183292 0 0 0 -0.0043278516308933174 0.018004707942601283 0.005366995527465869 0 0.005366995527465869 0.010200259485535679 0 0 0 0.0070512418570342333 -0.015578243631623967 -0.016430914495294324 0 -0.016430914495294324 0.0042704119731480361 0 0 0 -0.002826957914618955 0.088827229015115167 -0.00366208473908608 0 -0.00366208473908608 0.054066365188768353 0 0 0 0.035723398550970918 0.14175235655639468 0.0014913132963154108 0 0.0014913132963154108 0.10311448768866804 0 0 0 0.061216711061265638 0.019655078335263497 0.0058820990215670069 0 0.0058820990215670069 0.0048465226285450795 0 0 0 0.0061254002409521485 0.0062172135758644664 0.0029679346526836348 0 0.0029679346526836348 0.0021885715201062084 0 0 0 0.0021014462739925577 0.0025826531862498392 0.0054662887892085177 0 0.0054662887892085177 0.0014218301545092515 0 0 0 0.0010011208351898837 0.080226878513346644 0.0019800146919144446 0 0.0019800146919144446 0.053707836679916632 0 0 0 0.03348367879831593 0.09471978607500886 -0.0073713573489073703 0 -0.0073713573489073703 0.056870687710735446 0 0 0 0.037897618446436132 0.14640772163481452 0.0097782341395755701 0 0.0097782341395755701 0.10338624875033808 0 0 0 0.062448492596288041 0.003889825068072339 -0.0019530145986035308 0 -0.0019530145986035308 0.00110909820154248 0 0 0 0.0012497308174039823 0.13030190687898369 -0.0094709913109172206 0 -0.0094709913109172206 0.10140030635723374 0 0 0 0.057925553309054134 0.00064536879578436235 -0.0038767907466445983 0 -0.0038767907466445983 0.00037175821397994468 0 0 0 0.00025428175244091022 0.035696062139694285 -0.0036405938874005117 0 -0.0036405938874005117 0.0048117806667027363 0 0 0 0.010126960701599297 0.032074135340341425 -0.011931425179754982 0 -0.011931425179754982 0.01939019953132548 0 0 0 0.012866083717916754 0.027314221805184724 -0.013216597434004454 0 -0.013216597434004454 0.017408437774745988 0 0 0 0.011180664894982706 0.025735710792516363 -0.0044019447404012313 0 -0.0044019447404012313 0.0020715011168285086 0 0 0 0.0069518029773362293 0.029110252839761819 -0.0086807008886078951 0 -0.0086807008886078951 0.0049040629259100577 0 0 0 0.0085035789414180107 0.047227734243794242 0.022409981727613507 0 0.022409981727613507 0.086415056783121363 0 0 0 0.033410697756728905 0.015399865716012375 -0.021212655023704115 0 -0.021212655023704115 0.0092157698917245123 0 0 0 0.0061539089019342266 0.013190036017162458 -0.029319764395111483 0 -0.029319764395111483 0.004037394485010809 0 0 0 0.0043068576255433193 -0.0074159764052505583 0.0078984518970959972 0 0.0078984518970959972 0.005202406771132994 0 0 0 -0.00055339240852939064 -0.045360065700573937 0.026353446177262541 0 0.026353446177262541 0.0048769077551569229 0 0 0 -0.010120789486354309 -0.027428869059781869 0.041416262501735357 0 0.041416262501735357 0.035054643290806986 0 0 0 0.001906443557756321 0.050356760885626725 0.022062106349926891 0 0.022062106349926891 0.05571039565625574 0 0 0 0.026516789135470602 0.061322665172872659 0.0066647586988658834 0 0.0066647586988658834 0.035212912118230077 0 0 0 0.024133894322775684 0.073938740054884822 0.0095669733203443477 0 0.0095669733203443477 0.040459158091806113 0 0 0 0.02859947453667272 0.072999021348056484 0.028671546836415707 0 0.028671546836415707 0.057672939509400806 0 0 0 0.032667990214364326 -0.023168359755822876 -0.017660128354355764 0 -0.017660128354355764 0.015600161572077276 0 0 0 -0.0018920495459364139 -0.0325711331235468 -0.010521050284558797 0 -0.010521050284558797 0.0014021205883761878 0 0 0 -0.0077922531337925455 0.04770303594722082 0.019700673622564748 0 0.019700673622564748 0.040943511660079562 0 0 0 0.022161636901825089 0.062152211446694028 0.023004183795622524 0 0.023004183795622524 0.033385438662871872 0 0 0 0.023884412527391458 0.024090156590777567 -0.014354729133291361 0 -0.014354729133291361 0.02781504539595403 0 0 0 0.012976300496682913 0.018739815568138033 0.0011796738339503545 0 0.0011796738339503545 0.011371023744767301 0 0 0 0.0075277098282263257 0.020578608427161894 0.0027484901777261673 0 0.0027484901777261673 0.018768715452312446 0 0 0 0.0098368309698685791 0.023744035726202765 0.0022786624279699345 0 0.0022786624279699345 0.030115989238622427 0 0 0 0.013465006241206284 0.12403866075442593 0.01256124720899976 0 0.01256124720899976 0.11728573428698397 0 0 0 0.060331098760352475 -0.02425230982183868 -0.0042528728808735039 0 -0.0042528728808735039 0.0021200812088570942 0 0 0 -0.0055330571532455908 -0.019756389809077332 0.011389244026399362 0 0.011389244026399362 0.0013291265237464038 0 0 0 -0.0046068158213327312 0.026142939848563973 0.0079911111775214927 0 0.0079911111775214927 0.0042916588726835177 0 0 0 0.007608649680311874 0.12626002494242927 0.014164996392646234 0 0.014164996392646234 0.066735242638890746 0 0 0 0.048248816895329893 0.029976430945004906 -0.0037996824027928811 0 -0.0037996824027928811 0.0029104278916303183 0 0 0 0.0082217147091588338 0.0070089749213756054 -0.029018768065304807 0 -0.029018768065304807 -0.0010185611164027202 0 0 0 0.0014976034512432222 -0.017340058279587619 -0.024491839720063441 0 -0.024491839720063441 0.0016169163848556295 0 0 0 -0.0039307854736829913 0.029456366995316091 -0.010128017403294554 0 -0.010128017403294554 0.044465990029941449 0 0 0 0.018480589256314378 
</DataArray>
</CellData>
</Piece>
</UnstructuredGrid>
</VTKFile>
